# x y z rho theta phi s1 s2 stress_xx np intf bulk
-0.702464 -10.717215 -14.371594 17.941429 1.505345 2.499808 0.001305 -0.001592 -1654870.000000 1 0 0
2.158036 -13.381515 -13.049594 18.815259 -1.410903 2.337222 0.008042 -0.000240 148285.000000 1 0 0
2.098936 -11.090115 -14.690994 18.526238 -1.383747 2.486486 0.002264 -0.000401 -1200000.000000 1 0 0
-5.542164 -6.390915 -16.428694 18.478673 0.856404 2.666089 0.018109 -0.000471 -944096.000000 1 0 0
4.522536 -14.027715 -11.523794 18.709033 -1.258918 2.234385 0.001029 -0.000535 -193285.000000 1 0 0
14.130736 -10.732415 -7.903694 19.425004 -0.649559 1.989835 0.038334 -0.013501 1029260.000000 1 0 0
7.149236 10.752185 -10.813294 16.841864 0.984011 2.267964 0.016038 -0.012345 -107114.000000 1 0 0
5.828536 -4.256715 -12.691594 14.600274 -0.630789 2.624522 0.000597 -0.000865 2000360.000000 1 0 0
13.639536 0.481785 -9.975094 16.904779 0.035308 2.201949 0.009682 0.002930 727618.000000 1 0 0
14.037136 5.028585 -10.277194 18.109350 0.343992 2.174272 0.010107 -0.010223 56665.200000 1 0 0
4.003236 4.321085 -13.398394 14.636073 0.823563 2.727387 0.004848 0.000082 1028320.000000 1 0 0
10.395536 -4.912115 -13.693294 17.880222 -0.441424 2.443135 0.021884 -0.001188 -892806.000000 1 0 0
2.624136 -7.495115 -11.983194 14.375666 -1.234021 2.556344 -0.002270 0.001595 1078300.000000 1 0 0
-5.669464 -2.006915 -15.214794 16.360333 0.340222 2.765157 0.017095 0.000511 2001280.000000 1 0 0
10.663536 0.105485 -9.562694 14.323660 0.009892 2.301797 0.001879 -0.000005 1493820.000000 1 0 0
-1.596664 -9.582215 -16.972594 19.556000 1.405685 2.621749 0.004720 -0.007484 937922.000000 1 0 0
8.762536 1.510085 -17.754594 19.856687 0.170658 2.677296 0.032409 -0.004933 -35582.100000 1 0 0
16.342636 -5.908815 -8.766794 19.464134 -0.346934 2.038018 0.037481 -0.008233 -1344610.000000 1 0 0
10.173836 7.511985 -9.864894 16.039108 0.636012 2.233249 0.008480 -0.011610 -1168530.000000 1 0 0
13.864836 -2.316115 -10.516994 17.555775 -0.165521 2.213125 0.021529 -0.001794 -1796390.000000 1 0 0
7.303836 -1.905815 -13.712594 15.652903 -0.255242 2.638388 0.010109 -0.001658 1202820.000000 1 0 0
-2.791964 6.636885 -13.802594 15.567752 -1.172596 2.660769 0.005897 -0.002311 1564900.000000 1 0 0
11.168736 1.918485 -13.950494 17.973245 0.170113 2.459383 0.008564 0.000089 433455.000000 1 0 0
-2.277664 10.749285 -12.896094 16.942377 -1.361995 2.435917 0.005498 -0.000781 -659790.000000 1 0 0
2.842436 -1.068415 -15.240494 15.540065 -0.359542 2.944923 0.015030 -0.006291 -209462.000000 1 0 0
-9.120064 0.430585 -15.375894 17.882368 -0.047178 2.605744 0.006683 0.009513 -968207.000000 1 0 0
2.321036 -1.762815 -18.035894 18.269871 -0.649550 2.981379 0.032492 -0.016448 -226397.000000 1 0 0
1.124036 7.841785 -13.135894 15.339777 1.428427 2.598915 0.004939 -0.004070 -686107.000000 1 0 0
9.418736 -9.050415 -9.829694 16.347644 -0.765458 2.215912 0.015964 -0.004273 140529.000000 1 0 0
3.965536 7.289385 -13.497394 15.844250 1.072560 2.590360 0.000652 -0.001507 -306710.000000 1 0 0
-2.694964 9.085185 -15.453894 18.128052 -1.282432 2.591517 0.008716 -0.004100 1130380.000000 1 0 0
5.547236 -7.659015 -15.340994 18.021610 -0.943963 2.589169 0.012139 -0.003008 -781766.000000 1 0 0
4.264836 7.361185 -16.410694 18.484771 1.045686 2.663329 0.011687 0.001037 -1575570.000000 1 0 0
-0.211264 5.102485 -13.499494 14.433168 -1.529416 2.779932 0.008771 -0.005843 1740170.000000 1 0 0
8.624136 4.215485 -16.592294 19.168992 0.454648 2.617104 0.009766 -0.002835 -633699.000000 1 0 0
5.332636 0.309085 -14.360494 15.321760 0.057896 2.785486 -0.000576 0.001518 1241870.000000 1 0 0
6.323836 7.847585 -11.540194 15.321605 0.892509 2.423706 0.000193 -0.006224 -507018.000000 1 0 0
2.720936 -8.339815 -14.986694 17.365396 -1.255427 2.612015 0.002388 -0.005516 970509.000000 1 0 0
4.079436 11.366685 -13.763394 18.310498 1.226220 2.421382 0.016335 -0.017247 -964749.000000 1 0 0
0.628936 -4.519615 -13.779994 14.515878 -1.432527 2.821814 0.009703 -0.001400 2374630.000000 1 0 0
8.517136 -0.134115 -11.600794 14.392290 -0.015745 2.508231 -0.001126 0.000065 -475961.000000 1 0 0
-0.910064 -5.055215 -16.328694 17.117525 1.392679 2.836825 0.009845 -0.006312 -865016.000000 1 0 0
4.492436 0.835685 -11.661494 12.524807 0.183918 2.768136 0.001602 -0.003986 -477002.000000 1 0 0
-2.836764 -7.215515 -15.609194 17.428649 1.196211 2.680587 0.004971 -0.004081 1646610.000000 1 0 0
11.446436 -3.780915 -11.297794 16.521391 -0.319030 2.323793 0.014197 -0.003099 -121556.000000 1 0 0
6.493336 -7.129015 -12.591294 15.859601 -0.832029 2.488030 0.007957 -0.002351 -1188140.000000 1 0 0
3.471636 -3.994815 -14.698994 15.622779 -0.855354 2.795984 0.013071 -0.003939 2558330.000000 1 0 0
-0.629064 -1.369715 -18.444594 18.506077 1.140263 3.060055 0.027380 -0.015693 407034.000000 1 0 0
14.911236 2.886185 -8.437094 17.374106 0.191193 2.077861 0.010071 -0.001277 -1296020.000000 1 0 0
6.836636 4.340285 -14.209594 16.355129 0.565656 2.623602 0.003034 -0.000325 2416710.000000 1 0 0
10.184436 -9.578015 -14.005994 19.789618 -0.754722 2.357097 0.043738 -0.014383 -1243310.000000 1 0 0
9.172536 -3.040215 -15.609294 18.358333 -0.320052 2.587269 0.026984 -0.008475 -332524.000000 1 0 0
-5.491864 -2.145315 -18.094994 19.031336 0.372407 2.826604 0.020098 0.004357 437049.000000 1 0 0
5.056036 -9.110015 -11.109694 15.230928 -1.064124 2.388265 -0.004801 0.000484 1732220.000000 1 0 0
-2.436364 3.907685 -17.160094 17.767237 -1.013291 2.879415 0.018724 -0.003405 2297070.000000 1 0 0
9.454436 9.257085 -14.431094 19.578980 0.774852 2.399522 0.030414 -0.021116 -1232420.000000 1 0 0
9.833336 9.890685 -11.573194 18.123437 0.788306 2.263443 0.015145 -0.017409 -531832.000000 1 0 0
12.024436 -5.915115 -9.612494 16.491685 -0.457166 2.193052 0.021003 -0.004400 -966627.000000 1 0 0
8.192036 6.809285 -13.602194 17.277022 0.693483 2.477213 0.006046 -0.004153 -387945.000000 1 0 0
4.001736 -4.155015 -17.598794 18.520140 -0.804188 2.824839 0.033590 -0.013310 -285672.000000 1 0 0
9.390636 -7.431715 -12.337494 17.193841 -0.669473 2.371079 0.023083 -0.007137 152619.000000 1 0 0
12.090036 -8.681615 -8.794994 17.288473 -0.622758 2.104494 0.027688 -0.010276 1344700.000000 1 0 0
-2.973964 -2.458715 -13.967394 14.490612 0.690838 2.872049 0.015427 -0.002707 -1593490.000000 1 0 0
-0.351564 6.091485 -17.658494 18.682939 -1.513146 2.808901 0.023010 -0.004007 1955090.000000 1 0 0
1.106436 -8.369515 -17.520494 19.448411 -1.439360 2.692566 0.003140 -0.011422 816823.000000 1 0 0
0.062936 8.511285 -15.976894 18.102682 1.563402 2.652098 0.010602 -0.004566 -260553.000000 1 0 0
1.813336 3.393385 -14.999294 15.484898 1.080029 2.890494 0.012982 -0.002144 2076070.000000 1 0 0
-1.925564 -0.321115 -15.874694 15.994275 0.165243 3.019234 0.022816 -0.009909 1576920.000000 1 0 0
14.110936 -4.296315 -8.327694 16.938929 -0.295550 2.084757 0.021147 -0.006152 -653190.000000 1 0 0
0.603436 0.636685 -14.601594 14.627920 0.812203 3.081588 0.013309 -0.005027 653235.000000 1 0 0
8.732436 2.789985 -12.441994 15.454536 0.309246 2.506591 -0.001173 -0.001196 1098910.000000 1 0 0
5.970636 0.925785 -17.173994 18.205813 0.153831 2.803306 0.018047 0.004148 501466.000000 1 0 0
15.205136 1.555385 -12.314094 19.627845 0.101939 2.248979 0.019324 -0.003637 -338458.000000 1 0 0
8.793236 -11.134815 -11.961394 18.557479 -0.902363 2.271243 0.028778 -0.010013 1460760.000000 1 0 0
-4.653864 0.720385 -15.132794 15.848623 -0.153574 2.839895 0.019939 -0.003764 667831.000000 1 0 0
2.462136 5.164085 -17.331194 18.251032 1.125896 2.822756 0.018650 -0.003188 2567170.000000 1 0 0
5.954736 -11.654115 -12.391194 18.022734 -1.098423 2.328880 0.006376 -0.003024 -718835.000000 1 0 0
12.822136 7.178185 -8.588894 17.020653 0.510357 2.099733 0.003903 -0.012058 -320200.000000 1 0 0
-5.045864 3.611285 -15.749494 16.927749 -0.621180 2.766285 0.014323 -0.002320 1545530.000000 1 0 0
-0.641464 -4.241115 -19.172094 19.646061 1.420685 2.921488 0.017093 -0.012413 -829806.000000 1 0 0
9.760036 4.348585 -10.174294 14.754144 0.419147 2.331718 -0.002883 -0.001548 205121.000000 1 0 0
13.267036 3.709385 -12.792794 18.799717 0.272632 2.319211 0.018148 -0.007507 -741569.000000 1 0 0
-6.333564 5.904785 -17.159994 19.220976 -0.750377 2.674263 0.010760 0.000502 -1166660.000000 1 0 0
-10.233364 3.148885 -15.466694 18.811057 -0.298513 2.536084 0.010176 0.002483 -243474.000000 1 0 0
10.651936 13.337185 -8.333094 18.994334 0.896870 2.024964 0.029286 -0.015151 227427.000000 1 0 0
7.372936 13.277185 -12.361594 19.581952 1.063887 2.253992 0.028312 -0.017613 660191.000000 1 0 0
5.320136 15.122085 -11.199994 19.555592 1.232508 2.180624 0.022219 -0.010454 -889503.000000 1 0 0
14.259336 9.431885 -9.733994 19.673326 0.584385 2.088379 0.038719 -0.024391 618711.000000 1 0 0
8.360336 -17.235215 -2.035194 19.263692 -1.119162 1.676643 0.021038 0.000227 117095.000000 1 0 0
0.717236 -15.970815 -0.026294 15.986933 -1.525917 1.572441 0.009060 -0.009437 1196580.000000 1 0 0
-9.069064 -11.702215 7.512906 16.602214 0.911494 1.101202 0.014453 -0.012732 1576070.000000 1 0 0
2.050236 -15.800015 -2.563594 16.137408 -1.441756 1.730333 0.002285 -0.006144 2594070.000000 1 0 0
-1.258764 -11.021815 -9.457994 14.578015 1.457082 2.276783 0.004884 0.000258 733223.000000 1 0 0
-4.921764 -12.630015 -12.961294 18.754631 1.199211 2.333804 0.018107 -0.004293 -125541.000000 1 0 0
-8.329464 -17.844115 -1.631794 19.759938 1.134067 1.653471 0.026333 -0.009231 -923517.000000 1 0 0
-11.444664 -7.061215 -8.877294 16.113579 0.552817 2.154263 0.024094 -0.006687 1842550.000000 1 0 0
-13.648764 -11.483315 -4.850094 18.484553 0.699448 1.836291 0.023821 -0.007174 -692135.000000 1 0 0
-5.698464 -13.532015 9.501106 17.488823 1.172225 0.996472 0.010662 -0.012944 -224352.000000 1 0 0
0.168036 -14.011015 -3.736594 14.501686 -1.558804 1.831402 0.004726 -0.003872 -115729.000000 1 0 0
-14.705264 -11.498415 1.881406 18.761610 0.663622 1.470348 -0.004621 0.004978 -555146.000000 1 0 0
-3.797364 -16.622515 -7.410094 18.591327 1.346203 1.980762 0.009203 -0.008651 533779.000000 1 0 0
0.543436 -15.259815 -9.328494 17.893520 -1.535199 2.119209 0.005135 0.002028 2737590.000000 1 0 0
4.554036 -14.094315 -2.642594 15.045672 -1.258273 1.747350 -0.003908 0.000849 403616.000000 1 0 0
-3.342964 -18.014315 -2.393694 18.477573 1.387311 1.700707 0.004560 -0.009017 1538080.000000 1 0 0
-0.873764 -13.475615 0.606406 13.517521 1.506047 1.525921 0.007086 -0.006356 2523630.000000 1 0 0
-8.491564 -11.425315 -10.487994 17.681699 0.931646 2.205769 0.022677 -0.013149 3122450.000000 1 0 0
-3.712664 -14.102015 -0.514894 14.591635 1.313366 1.606091 0.005411 -0.002761 4396300.000000 1 0 0
-1.430464 -14.951815 -7.329394 16.712959 1.475415 2.024776 0.000302 -0.001517 343947.000000 1 0 0
-14.209364 -7.891115 -1.864694 16.360098 0.506938 1.685023 0.006370 -0.002020 1726410.000000 1 0 0
-10.754164 -7.435515 -11.659394 17.518002 0.604936 2.299049 0.019937 -0.003706 663117.000000 1 0 0
-9.525864 -14.746015 6.802306 18.827066 0.997241 1.201130 0.007308 -0.006313 -385473.000000 1 0 0
-2.573064 -14.283415 -12.393394 19.084884 1.392564 2.277569 0.021615 -0.002056 -530352.000000 1 0 0
2.541236 -17.693315 -4.703994 18.483474 -1.428145 1.828124 0.009209 -0.006183 449622.000000 1 0 0
-6.553664 -9.685015 -9.257294 14.914674 0.975893 2.240411 0.021784 -0.009180 1157250.000000 1 0 0
-10.980964 -15.388715 0.311306 18.907433 0.951019 1.554331 0.012273 0.000585 1218790.000000 1 0 0
-12.666464 -10.983615 4.063606 17.250855 0.714362 1.333002 0.013562 -0.001087 1413090.000000 1 0 0
-17.085164 -8.762115 -1.574194 19.265398 0.473874 1.652598 0.009743 -0.001051 -1641.820000 1 0 0
-1.428764 -19.330915 -4.083594 19.809123 1.497020 1.778432 0.008281 -0.002523 -1336940.000000 1 0 0
3.313536 -14.259115 -8.864594 17.113822 -1.342469 2.115283 -0.002498 0.000011 96646.600000 1 0 0
-4.250664 -7.893815 -13.009394 15.799519 1.076840 2.538181 0.007408 -0.001195 1131070.000000 1 0 0
5.541936 -16.574215 1.246306 17.520586 -1.248112 1.499602 0.015590 -0.004785 4972230.000000 1 0 0
-2.731964 -13.720915 -3.271094 14.367574 1.374257 1.800483 0.004990 -0.004677 -2320910.000000 1 0 0
-0.410964 -13.930915 3.607106 14.396197 1.541305 1.317538 0.004603 -0.004849 -2773050.000000 1 0 0
1.174636 -16.185415 6.865106 17.620360 -1.498350 1.170586 0.020632 -0.009723 1719410.000000 1 0 0
-5.506564 -10.191115 -14.491494 18.552209 1.075408 2.467253 0.016049 -0.013074 -1487390.000000 1 0 0
-0.135764 -17.353015 -5.911894 18.332922 1.562973 1.899138 0.008902 -0.001586 503913.000000 1 0 0
-6.533564 -13.393715 -1.401094 14.968036 1.116950 1.664539 0.011727 -0.003204 2491430.000000 1 0 0
-1.604364 -17.721615 -0.087094 17.794302 1.480511 1.575691 0.010702 -0.007969 1238600.000000 1 0 0
-9.499564 -9.735515 -4.899494 14.457766 0.797664 1.916526 0.022238 -0.012257 2686330.000000 1 0 0
-0.821764 -16.695715 4.740006 17.374977 1.521616 1.294487 0.013066 -0.013066 2660600.000000 1 0 0
-6.747064 -9.933715 -6.349894 13.583914 0.974161 2.057208 0.024131 -0.012274 2608420.000000 1 0 0
-5.916264 -14.643815 -8.614294 17.990263 1.186837 2.070119 0.014040 -0.011967 530727.000000 1 0 0
-5.682564 -12.243115 -10.187394 16.910600 1.136243 2.217334 0.018626 -0.010001 -503634.000000 1 0 0
-10.646464 -12.279015 -8.696894 18.432508 0.856489 2.062154 0.028301 -0.026743 593587.000000 1 0 0
3.950136 -17.183415 6.481106 18.785048 -1.344841 1.218543 0.028555 -0.007344 929870.000000 1 0 0
-6.618864 -14.361415 -4.208794 16.363787 1.138933 1.830922 0.019227 -0.014957 -1486780.000000 1 0 0
-2.779264 -12.252415 -7.117094 14.439494 1.347737 2.086205 0.010379 -0.004730 1733460.000000 1 0 0
-7.138464 -12.865515 4.340206 15.340030 1.064235 1.283945 0.005980 -0.002818 1927150.000000 1 0 0
2.616436 -16.383115 2.340106 16.754948 -1.412430 1.430672 0.012687 -0.012553 2494350.000000 1 0 0
-6.096764 -12.099915 7.058606 15.277512 1.104059 1.090518 0.005176 -0.007770 2174590.000000 1 0 0
-11.264264 -12.899115 -1.157894 17.164251 0.852953 1.638307 0.011776 0.005991 1763140.000000 1 0 0
-14.246164 -8.691515 4.680106 17.332023 0.547809 1.297376 0.012064 -0.002398 157758.000000 1 0 0
-8.014164 -15.647015 4.437006 18.131269 1.097448 1.323570 0.001924 0.003427 1406000.000000 1 0 0
-16.483464 -9.122615 1.159306 18.875134 0.505481 1.509338 -0.000345 0.001830 -474570.000000 1 0 0
-6.573264 -17.039715 2.355606 18.414900 1.202625 1.442526 0.003315 -0.004993 1032930.000000 1 0 0
-11.587964 -14.909615 -4.863794 19.499590 0.910104 1.822889 0.034053 -0.009774 1080950.000000 1 0 0
-10.217964 -10.197015 -12.564694 19.137853 0.784372 2.287014 0.021358 -0.003325 593797.000000 1 0 0
-4.325264 -15.979015 -4.453894 17.142753 1.306447 1.833624 0.009142 -0.009425 1306970.000000 1 0 0
-11.791664 -8.287715 -0.055694 14.412934 0.612633 1.574661 -0.000225 0.000857 1706010.000000 1 0 0
-9.682064 -11.216915 3.416606 15.206404 0.858708 1.344180 0.002988 0.002445 2961290.000000 1 0 0
-14.159364 -12.854415 -0.740794 19.138243 0.737129 1.609514 0.002269 0.008624 -204451.000000 1 0 0
5.569236 -14.827715 -7.129894 17.369885 -1.211503 1.993771 -0.002436 -0.006061 -540236.000000 1 0 0
-7.456764 -10.548115 -1.327394 12.985685 0.955435 1.673195 0.009943 -0.003602 1359190.000000 1 0 0
-11.689164 -8.198115 -6.062094 15.511113 0.611627 1.972321 0.021443 -0.012111 -117380.000000 1 0 0
-14.379064 -6.522315 -9.197094 18.272510 0.425842 2.098244 0.028618 -0.013807 2134670.000000 1 0 0
-3.822364 -16.402715 1.329006 16.894549 1.341850 1.492050 0.004023 -0.006178 190948.000000 1 0 0
-7.965064 -15.499215 0.158906 17.426794 1.096090 1.561678 0.013348 -0.002183 898004.000000 1 0 0
1.026636 -18.569315 3.544806 18.932487 -1.515566 1.382451 0.013825 -0.014557 385292.000000 1 0 0
-14.178664 -8.697315 -4.686094 17.281125 0.550220 1.845403 0.018927 -0.010099 210156.000000 1 0 0
-3.304064 -14.484015 11.022006 18.498328 1.346516 0.932488 -0.000038 -0.016490 724589.000000 1 0 0
-10.966464 -12.088315 -3.962294 16.795549 0.834020 1.808955 0.025189 -0.012396 1011540.000000 1 0 0
-9.980864 -10.745315 0.428506 14.671846 0.822265 1.541586 0.004895 0.002612 803411.000000 1 0 0
-0.146464 -13.162815 -11.265194 17.325869 1.559670 2.278637 0.004228 -0.000464 783394.000000 1 0 0
-5.765364 -12.724215 -6.406994 15.368625 1.145366 2.000815 0.013907 -0.013597 1291200.000000 1 0 0
1.740836 -15.822815 9.732706 18.657908 -1.461216 1.022025 0.021014 -0.012641 644101.000000 1 0 0
-8.871064 -15.600515 -5.653294 18.815727 1.053755 1.875967 0.036615 -0.018580 -1115470.000000 1 0 0
-3.314964 -15.475315 5.873006 16.880952 1.359776 1.215458 0.004385 -0.009317 -349549.000000 1 0 0
-17.506964 -5.437515 -6.650794 19.501113 0.301145 1.918827 0.032772 -0.009683 234233.000000 1 0 0
18.976336 5.616685 -2.832594 19.991800 0.287768 1.712963 0.014584 0.005016 -441886.000000 1 0 0
12.940336 -12.457415 -5.781594 18.869719 -0.766386 1.882200 0.041200 -0.006568 -903522.000000 1 0 0
11.011636 -13.378715 -1.580594 17.399552 -0.882145 1.661763 0.028769 -0.009370 2988360.000000 1 0 0
18.929436 -2.917815 4.586406 19.694474 -0.152938 1.335761 0.058173 -0.008111 -324804.000000 1 0 0
8.717436 -16.861315 4.952606 19.616980 -1.093635 1.315569 0.029246 -0.013446 1505710.000000 1 0 0
18.197436 -1.226215 6.775906 19.456700 -0.067282 1.215087 0.057804 -0.012388 -25655.700000 1 0 0
17.879136 -4.208915 -5.041394 19.047155 -0.231200 1.838668 0.039620 -0.008680 -603346.000000 1 0 0
5.215636 -11.753315 14.928206 19.702654 -1.153145 0.711053 0.011190 -0.001500 261498.000000 1 0 0
16.034836 -8.965915 -0.725994 18.385610 -0.509843 1.610294 0.035639 -0.008644 -534162.000000 1 0 0
13.896536 -12.517915 -1.326094 18.750211 -0.733254 1.641580 0.038184 -0.007689 1827300.000000 1 0 0
10.933636 -1.942715 13.743206 17.669019 -0.175847 0.679617 0.006339 -0.006385 -780925.000000 1 0 0
17.027336 -6.226515 -1.309494 18.177305 -0.350573 1.642899 0.034514 -0.010581 -1871190.000000 1 0 0
17.860636 3.675085 -0.944294 18.259251 0.202932 1.622535 0.009988 0.008236 1235100.000000 1 0 0
9.659236 -11.083915 9.405006 17.453027 -0.853972 1.001695 0.011864 -0.005082 -615929.000000 1 0 0
9.023036 -11.063315 4.311306 14.913063 -0.886626 1.277514 0.005414 -0.006409 -1008680.000000 1 0 0
13.949936 -10.272715 6.804206 18.612539 -0.634739 1.196550 0.037700 -0.014647 232000.000000 1 0 0
16.182836 -0.538115 -4.715894 16.864560 -0.033240 1.854209 0.015006 0.001646 -1350580.000000 1 0 0
15.846736 -0.421815 -1.714894 15.944837 -0.026612 1.678556 0.022479 0.000500 1152480.000000 1 0 0
13.016336 -5.122115 -0.171394 13.988940 -0.374903 1.583049 0.013918 -0.006688 1180500.000000 1 0 0
14.335336 -7.599815 1.159906 16.266666 -0.487472 1.499430 0.034906 -0.010670 2730880.000000 1 0 0
15.636036 2.395385 3.747106 16.256208 0.152015 1.338202 0.016859 0.000621 1207350.000000 1 0 0
15.891136 -7.179915 5.020406 18.146180 -0.424365 1.290475 0.048260 -0.020280 -1575710.000000 1 0 0
13.634036 -12.155015 3.279306 18.557617 -0.728110 1.393154 0.034307 -0.011851 972227.000000 1 0 0
13.959636 -1.062815 9.189806 16.746747 -0.075988 0.989926 0.028420 -0.011291 2720120.000000 1 0 0
14.280936 -2.727715 -1.475394 14.613772 -0.188731 1.671928 0.011354 -0.001081 672149.000000 1 0 0
15.013736 1.731085 9.114006 17.648627 0.114793 1.028138 0.036721 -0.007055 -572203.000000 1 0 0
14.430236 -10.106615 -2.959994 17.864404 -0.610979 1.737256 0.032925 -0.009698 705685.000000 1 0 0
7.298536 -12.577615 6.096406 15.768043 -1.045003 1.173821 0.001405 -0.004113 561894.000000 1 0 0
12.486136 -4.739515 7.012006 15.084257 -0.362782 1.087324 0.019735 -0.010966 1097320.000000 1 0 0
14.987136 -9.045815 -5.675694 18.402568 -0.543042 1.884326 0.042691 -0.010342 -714843.000000 1 0 0
14.419236 -4.496715 4.695406 15.817131 -0.302297 1.269398 0.032302 -0.014611 1602940.000000 1 0 0
17.144636 -4.276615 1.044006 17.700789 -0.244455 1.511781 0.024497 -0.007981 -1391290.000000 1 0 0
10.205936 -14.418515 1.169106 17.703714 -0.954831 1.504711 0.024998 -0.007015 1137630.000000 1 0 0
16.395936 -2.708815 8.678106 18.747637 -0.163734 1.089543 0.053377 -0.013398 1010900.000000 1 0 0
16.252336 -2.600115 3.282306 16.783103 -0.158640 1.373956 0.032043 -0.005997 1417150.000000 1 0 0
7.799136 -15.238615 2.735306 17.335622 -1.097753 1.412349 0.010610 -0.004017 2468510.000000 1 0 0
16.608836 -6.979115 7.873706 19.661046 -0.397802 1.158764 0.060086 -0.017737 35207.200000 1 0 0
10.154236 -8.518315 5.201706 14.238256 -0.698010 1.196806 0.009194 -0.008776 1857570.000000 1 0 0
10.925536 -11.793715 2.234006 16.231137 -0.823593 1.432721 0.022485 -0.008126 -205894.000000 1 0 0
12.236336 -7.408715 12.089906 18.729196 -0.544431 0.869104 0.008308 -0.012676 -470635.000000 1 0 0
15.166436 -9.969515 4.374706 18.669495 -0.581518 1.334273 0.048028 -0.018491 -1349330.000000 1 0 0
7.229836 -10.271315 7.810706 14.791131 -0.957467 1.014474 0.004228 -0.002642 367619.000000 1 0 0
15.143936 -3.315115 -4.256694 16.076325 -0.215508 1.838772 0.021851 0.001472 -265452.000000 1 0 0
11.780036 -8.936815 9.755106 17.714344 -0.649008 0.987606 0.008493 -0.011474 -480500.000000 1 0 0
16.987436 -6.693015 2.478106 18.425809 -0.375321 1.435897 0.045913 -0.015136 1137900.000000 1 0 0
17.593236 3.986985 2.081006 18.158981 0.222856 1.455945 0.018189 0.007681 184289.000000 1 0 0
14.693236 -5.026315 8.841406 17.869680 -0.329605 1.053225 0.045120 -0.015999 424830.000000 1 0 0
12.662436 -12.771715 5.992706 18.956964 -0.789695 1.249158 0.022145 -0.013135 365259.000000 1 0 0
18.348636 0.750085 -1.008194 18.391615 0.040857 1.625642 0.032543 0.003221 596402.000000 1 0 0
11.586636 -2.137115 10.862106 16.025066 -0.182397 0.826003 0.009919 -0.004310 -992170.000000 1 0 0
5.877736 -12.525315 10.621706 17.442819 -1.132035 0.916067 0.011445 0.002200 -1694550.000000 1 0 0
10.710036 -5.121615 11.082406 16.240552 -0.446062 0.819768 0.005355 -0.004245 337260.000000 1 0 0
17.880136 1.279585 5.159806 18.653691 0.071443 1.290531 0.029910 0.003688 -1142890.000000 1 0 0
12.279836 -7.738615 7.134406 16.173443 -0.562322 1.113952 0.024066 -0.017287 -1765460.000000 1 0 0
10.442436 -7.998915 14.358106 19.472604 -0.653663 0.741659 0.009508 -0.006630 -455249.000000 1 0 0
14.275836 -0.379915 3.834506 14.786726 -0.026606 1.308477 0.015146 -0.000937 1831260.000000 1 0 0
11.687436 -7.668615 2.652106 14.228052 -0.580681 1.383300 0.017814 -0.011183 2510470.000000 1 0 0
9.287236 6.114585 3.510006 11.660234 0.582248 1.265030 0.006046 -0.001188 2185530.000000 1 0 0
-4.005964 14.777985 -9.898894 18.232518 -1.306081 2.144713 -0.002694 -0.001857 480788.000000 1 0 0
8.744636 -6.432415 9.265806 14.272343 -0.634211 0.864246 -0.000885 -0.005543 -1023570.000000 1 0 0
5.827736 -10.574815 -8.485694 14.757920 -1.067112 2.183391 -0.003097 -0.003130 -537412.000000 1 0 0
5.371136 1.023985 0.552206 5.495687 0.188385 1.470147 0.004516 0.000550 4322900.000000 1 0 0
-0.579864 9.928585 11.028106 14.850326 -1.512459 0.733827 0.008391 -0.001438 -195964.000000 1 0 0
-6.280064 -5.187615 1.078906 8.216726 0.690421 1.439110 0.005400 -0.001901 3679210.000000 1 0 0
-0.982264 3.972085 -10.867094 11.611892 -1.328368 2.781485 0.010082 -0.005228 689726.000000 1 0 0
10.934636 5.818185 1.180306 12.442293 0.488987 1.475791 0.007799 -0.000655 1068040.000000 1 0 0
-10.130464 -1.773815 -13.767794 17.185019 0.173340 2.500012 0.009181 0.005700 598045.000000 1 0 0
7.543236 10.860785 -6.056194 14.544227 0.963745 2.000277 -0.000158 -0.002815 507097.000000 1 0 0
-12.326364 -2.935415 -9.595794 15.894501 0.233787 2.218953 0.012653 -0.006365 809907.000000 1 0 0
-3.901764 -8.680415 2.381106 9.810353 1.148366 1.325634 0.006767 -0.002879 -322317.000000 1 0 0
8.115036 -6.621015 -5.769294 11.957274 -0.684358 2.074294 -0.001287 -0.003936 1791410.000000 1 0 0
14.344336 3.069385 -4.148894 15.244488 0.210800 1.846430 0.012576 0.002568 1507910.000000 1 0 0
-2.588764 -4.971715 9.754506 11.250335 1.090727 0.521563 0.000609 0.000635 1673130.000000 1 0 0
3.550836 -1.841415 -4.583694 6.083543 -0.478406 2.424102 -0.001528 -0.001713 -2263290.000000 1 0 0
-4.074664 8.392385 -3.474794 9.955361 -1.118800 1.927340 0.000356 -0.000217 1112490.000000 1 0 0
5.738536 0.160685 11.834806 13.153678 0.027994 0.451638 -0.000953 0.000339 700564.000000 1 0 0
7.244936 4.768585 12.435206 15.161229 0.582115 0.609040 0.006802 -0.002069 582111.000000 1 0 0
1.090736 -14.623515 12.310406 19.146357 -1.496346 0.872435 0.005129 -0.001987 243757.000000 1 0 0
2.997136 8.629685 -9.089394 12.886868 1.236524 2.353674 0.006458 -0.002826 1829770.000000 1 0 0
-4.466364 -8.869715 -4.519594 10.910865 1.104311 1.997892 0.016022 -0.007161 1718930.000000 1 0 0
5.840436 -6.553015 -4.009894 9.650489 -0.842831 1.999302 -0.001000 -0.007106 1346210.000000 1 0 0
-3.128764 3.413485 8.654406 9.815284 -0.828891 0.491285 0.002914 0.000451 1180850.000000 1 0 0
-3.741364 3.175285 -11.135594 12.168882 -0.703737 2.726522 0.007318 -0.004878 256877.000000 1 0 0
3.045536 -6.119515 8.578406 10.968719 -1.109010 0.672801 -0.004205 0.002806 827331.000000 1 0 0
-5.058264 -8.760715 10.478006 14.564504 1.047175 0.767828 0.007318 -0.003153 2225140.000000 1 0 0
-13.219164 -2.459315 6.499606 14.934504 0.183939 1.120528 0.013717 -0.003378 760226.000000 1 0 0
4.005436 -5.912815 -8.324694 10.968383 -0.975389 2.432529 -0.001585 -0.003572 3037890.000000 1 0 0
2.916236 -0.507415 12.526406 12.871393 -0.172272 0.232048 0.002068 0.000177 1517780.000000 1 0 0
1.488036 -1.433515 -7.618894 7.894097 -0.766739 2.876767 0.002329 -0.004604 -122871.000000 1 0 0
3.611736 -3.476115 3.472706 6.098171 -0.766266 0.964939 0.000121 -0.001530 2885100.000000 1 0 0
1.588036 0.421085 -11.878594 11.991671 0.259196 3.004156 0.005888 -0.005312 950488.000000 1 0 0
4.082036 3.497885 -10.466194 11.766029 0.708485 2.667104 -0.000308 -0.001445 456476.000000 1 0 0
2.861536 3.216985 3.378906 5.473060 0.843808 0.905401 -0.005247 0.002339 -297888.000000 1 0 0
-5.275464 0.898485 2.688806 5.988946 -0.168695 1.105194 -0.000874 -0.001110 828025.000000 1 0 0
-9.507564 -9.339515 5.651206 14.476064 0.776482 1.169749 0.007219 -0.002315 -743616.000000 1 0 0
-3.048764 3.887985 -0.493694 4.965393 -0.905795 1.670388 -0.001206 -0.003127 228479.000000 1 0 0
-15.907364 -6.484215 4.947106 17.876329 0.387061 1.290396 0.028841 -0.010631 404934.000000 1 0 0
0.974236 6.673885 -8.072394 10.519193 1.425843 2.445567 0.007814 -0.002990 1140760.000000 1 0 0
-1.664364 6.467185 -9.464894 11.583558 -1.318907 2.527154 0.005616 -0.000623 -47444.700000 1 0 0
2.034936 -0.371015 5.243206 5.636473 -0.180342 0.375762 0.000991 0.000105 2157140.000000 1 0 0
-3.353764 -0.498015 -6.234494 7.096807 0.147417 2.643495 0.006581 -0.005396 650647.000000 1 0 0
1.957536 -1.147915 -2.437494 3.330320 -0.530365 2.391917 0.001595 -0.001056 358836.000000 1 0 0
2.507136 -8.603315 -7.616294 11.760556 -1.287234 2.275244 -0.002771 -0.002429 1116300.000000 1 0 0
-2.512664 13.951185 -5.560594 15.227254 -1.392603 1.944616 0.002696 0.003217 1398360.000000 1 0 0
6.903036 -5.129715 -8.073094 11.795792 -0.639077 2.324583 -0.002479 -0.003266 2515940.000000 1 0 0
-14.163164 -4.961215 -2.283094 15.179637 0.336933 1.721774 0.009882 -0.006174 -1191270.000000 1 0 0
-2.790864 6.943285 -6.783494 10.100194 -1.188609 2.307190 0.000582 -0.001304 -782130.000000 1 0 0
-5.602764 -1.062115 -8.188694 9.978665 0.187347 2.533292 0.009797 -0.005672 -221325.000000 1 0 0
-5.681664 -10.648415 3.388106 12.535920 1.080656 1.297121 0.006798 -0.002885 -1678660.000000 1 0 0
7.943536 -7.582215 6.746306 12.888071 -0.762130 1.019897 -0.001101 -0.003171 -974959.000000 1 0 0
8.682536 -6.051415 13.199106 16.918110 -0.608685 0.675849 0.006483 -0.001618 743721.000000 1 0 0
-4.724164 9.484785 -0.708794 10.619853 -1.108687 1.637588 -0.001855 0.000441 2410060.000000 1 0 0
2.806536 6.552785 12.116006 14.057498 1.166137 0.531813 0.005509 -0.002863 1968790.000000 1 0 0
6.070036 -2.800915 10.984906 12.859184 -0.432321 0.546698 -0.003647 0.001097 -360528.000000 1 0 0
-9.664964 -6.471415 -1.125494 11.685781 0.590013 1.667259 0.010648 -0.004318 451263.000000 1 0 0
0.889836 -13.329615 6.166406 14.713769 -1.504139 1.138353 -0.001549 -0.005201 -761983.000000 1 0 0
-0.483764 -3.207615 8.786106 9.365814 1.421107 0.353682 0.001753 0.000073 1036970.000000 1 0 0
4.273336 0.662885 3.426206 5.517219 0.153895 0.900775 -0.001270 0.001115 2024640.000000 1 0 0
-10.281464 5.622585 8.278306 14.347555 -0.500434 0.955765 0.002302 -0.005776 223623.000000 1 0 0
9.357836 8.008185 -0.056194 12.316789 0.707836 1.575359 0.007856 -0.001403 743346.000000 1 0 0
4.318336 2.840385 8.254406 9.739149 0.581804 0.559447 -0.002188 0.003128 2795080.000000 1 0 0
1.358736 2.593385 -9.738594 10.169170 1.088194 2.849553 0.006370 -0.005967 973495.000000 1 0 0
-1.361064 -10.125515 3.005906 10.649601 1.437178 1.284652 0.003448 -0.003959 -2578960.000000 1 0 0
-9.958564 9.649185 9.029206 16.547095 -0.769621 0.993611 0.004187 -0.009175 1842230.000000 1 0 0
9.825636 -1.992315 -7.607694 12.585287 -0.200055 2.219923 0.002704 -0.001114 691888.000000 1 0 0
-5.252264 -1.893215 6.759806 8.767298 0.345960 0.690347 0.001300 -0.000668 924635.000000 1 0 0
3.288136 -7.809415 -4.925394 9.800934 -1.172278 2.097334 -0.004973 -0.005150 2991020.000000 1 0 0
-5.079064 4.891385 -13.078894 14.858668 -0.766577 2.647122 0.006216 -0.003819 1737140.000000 1 0 0
-5.746264 9.596685 5.455006 12.444799 -1.031277 1.117050 0.003511 -0.004052 2112950.000000 1 0 0
-0.423164 -1.833615 -9.475894 9.660941 1.343986 2.945554 0.007305 -0.007047 1526810.000000 1 0 0
-16.722564 0.100385 6.344106 17.885802 -0.006003 1.208202 0.022710 -0.009391 -325479.000000 1 0 0
-5.997664 -2.914015 4.104606 7.830150 0.452270 1.019015 -0.005812 -0.000155 585001.000000 1 0 0
1.059336 -5.757315 -5.144294 7.793114 -1.388833 2.291758 0.003675 -0.003440 640189.000000 1 0 0
-6.973264 1.373685 -8.473894 11.059851 -0.194503 2.443680 0.001125 -0.000214 2186780.000000 1 0 0
8.035436 2.007385 4.710006 9.527958 0.244806 1.053726 0.001794 -0.001321 1826670.000000 1 0 0
0.562136 -8.068715 -0.500494 8.103743 -1.501240 1.632597 0.001897 -0.004186 1241940.000000 1 0 0
5.393236 5.480585 -3.431594 8.420193 0.793431 1.990559 0.002603 -0.000645 157974.000000 1 0 0
-0.740364 -0.417815 -1.210494 1.479190 0.513783 2.529329 -0.000937 -0.001861 189254.000000 1 0 0
9.160136 6.398385 -6.222594 12.789374 0.609721 2.078926 0.001404 -0.005301 235987.000000 1 0 0
-14.931064 -7.134515 2.474706 16.732069 0.445755 1.422350 -0.000897 -0.003955 848456.000000 1 0 0
-6.441764 6.870085 8.967106 13.003976 -0.817563 0.809906 0.003524 -0.003638 405665.000000 1 0 0
-9.437764 -3.254615 -9.717794 13.931957 0.332080 2.342725 0.007883 -0.001272 -121710.000000 1 0 0
14.934736 3.517685 -1.210594 15.391101 0.231321 1.649533 0.005915 0.004011 1419920.000000 1 0 0
12.097536 1.604085 -5.688594 13.464158 0.131827 2.006997 0.006787 -0.001378 -893628.000000 1 0 0
1.645136 -9.420315 12.770706 15.954301 -1.397903 0.642742 -0.008221 -0.002117 -614774.000000 1 0 0
-3.578564 6.354285 7.953606 10.790872 -1.057896 0.742075 0.003393 -0.000937 2784550.000000 1 0 0
-3.983764 13.147685 -12.491094 18.567699 -1.276588 2.308692 -0.000510 0.003330 469173.000000 1 0 0
-10.318564 7.837585 6.518106 14.504696 -0.649593 1.104726 -0.000594 -0.007414 816015.000000 1 0 0
8.127136 -9.269115 -7.076894 14.214403 -0.850949 2.091935 0.003106 -0.004355 66836.500000 1 0 0
5.821036 -3.837715 -0.311194 6.979209 -0.582874 1.615400 0.005829 -0.004877 -26192.200000 1 0 0
-1.662964 -4.418715 4.197406 6.317334 1.210846 0.844070 -0.000740 -0.000685 835009.000000 1 0 0
9.939436 -2.022815 -2.561994 10.461739 -0.200772 1.818204 0.004371 -0.003663 -2328680.000000 1 0 0
13.568836 7.095485 1.322906 15.369102 0.481819 1.484614 -0.000820 0.000712 59395.500000 1 0 0
5.423836 -3.726515 -3.274094 7.350143 -0.601990 2.032469 0.001309 -0.005398 -1584020.000000 1 0 0
-12.182664 -6.043115 1.922606 13.734371 0.460476 1.430350 0.003776 -0.002031 1584670.000000 1 0 0
3.724236 -5.732015 -0.198994 6.838532 -0.994614 1.599899 0.002087 -0.005798 457974.000000 1 0 0
-5.159364 3.643485 -8.645294 10.706780 -0.614867 2.510630 -0.001405 -0.001029 1135750.000000 1 0 0
-1.721764 -9.220715 7.174906 11.809544 1.386194 0.917822 -0.002181 -0.002624 1042450.000000 1 0 0
-7.367364 -7.498615 2.553406 10.817909 0.794227 1.332513 0.008602 -0.001589 -4787820.000000 1 0 0
-5.839464 13.111185 -8.541194 16.701932 -1.151791 2.107597 -0.002521 -0.002730 2242900.000000 1 0 0
9.203936 -13.815115 -4.092394 17.097295 -0.983102 1.812502 0.017478 -0.001540 983778.000000 1 0 0
-6.504964 -5.108115 -6.709294 10.649977 0.665691 2.252326 0.013985 -0.004576 344216.000000 1 0 0
3.463336 0.382185 -6.288794 7.189554 0.109907 2.635639 0.000031 -0.004688 1393410.000000 1 0 0
-3.572564 5.834585 5.010306 8.479904 -1.021376 0.938691 0.001371 0.000214 -43721.100000 1 0 0
-2.630164 -10.753315 -2.856194 11.432820 1.330915 1.823295 0.011435 -0.003905 2005750.000000 1 0 0
-12.532764 -0.452115 1.691006 12.654410 0.036059 1.436766 0.008235 -0.002395 127119.000000 1 0 0
8.421536 -11.992515 -6.053794 15.855317 -0.958573 1.962555 0.009292 -0.004196 -76398.900000 1 0 0
6.096536 3.927785 1.010406 7.322306 0.572333 1.432364 0.002737 0.000619 -872292.000000 1 0 0
3.570536 -4.795815 -10.936094 12.463816 -0.930818 2.641269 -0.001524 -0.000200 723742.000000 1 0 0
-7.693864 4.305885 8.603606 12.319019 -0.510223 0.797636 0.001626 -0.001866 1455420.000000 1 0 0
8.183436 8.758285 4.170706 12.691374 0.819316 1.235949 0.007752 -0.000273 1639480.000000 1 0 0
0.208736 10.551185 -6.318794 12.300335 1.551016 2.110299 0.006490 0.000359 3356650.000000 1 0 0
5.413836 8.064985 3.333606 10.269690 0.979609 1.240201 0.003980 0.000806 3315130.000000 1 0 0
8.058136 6.648685 -3.653594 11.067399 0.689853 1.907229 0.003283 -0.002698 -410195.000000 1 0 0
10.537136 2.530285 -8.135094 13.550400 0.235668 2.214745 -0.000375 -0.001807 1987070.000000 1 0 0
3.334536 -12.447315 -0.300194 12.889720 -1.309050 1.594088 -0.002769 -0.004267 -1213870.000000 1 0 0
0.613636 2.143285 5.201306 5.658958 1.291950 0.404935 -0.000533 0.000932 484111.000000 1 0 0
-4.823364 13.346685 1.507106 14.271308 -1.224010 1.464995 -0.004440 0.001977 1488470.000000 1 0 0
8.218536 4.097485 -7.886294 12.104848 0.462500 2.280355 -0.002196 -0.001743 -410696.000000 1 0 0
-13.901264 -0.531315 -3.626894 14.376432 0.038202 1.825833 0.015081 -0.004977 547590.000000 1 0 0
-8.489264 0.013785 -0.456794 8.501556 -0.001624 1.624553 0.001670 -0.002259 439108.000000 1 0 0
1.792336 -3.851815 -1.175194 4.407950 -1.135274 1.840668 0.001471 -0.001287 -2373340.000000 1 0 0
8.067636 -5.645415 -0.279694 9.850669 -0.610565 1.599194 0.006522 -0.006223 965165.000000 1 0 0
-2.294764 -1.223515 7.429406 7.871404 0.489835 0.336707 0.002950 0.000064 1993180.000000 1 0 0
-5.813264 8.972685 -11.726194 15.868420 -0.995910 2.402328 -0.002006 0.001551 -1412080.000000 1 0 0
-6.267264 9.283485 -8.893494 14.302305 -0.976979 2.241864 -0.008934 0.003034 -362686.000000 1 0 0
-1.510564 13.981385 -8.391794 16.376298 -1.463173 2.108815 0.009978 0.000718 -1385330.000000 1 0 0
-1.485964 7.256085 9.808506 12.290877 -1.368801 0.646775 0.007610 -0.002440 -1528190.000000 1 0 0
10.051836 2.343885 -3.981294 11.062726 0.229086 1.938939 0.002974 -0.002420 -2260270.000000 1 0 0
-2.985864 -7.471515 -6.846894 10.564983 1.190606 2.275849 0.012254 -0.005204 1689490.000000 1 0 0
-5.490664 -5.030315 -1.592894 7.615036 0.741671 1.781530 0.008534 -0.002858 -140982.000000 1 0 0
5.717836 7.323985 -8.733994 12.752139 0.907935 2.325269 -0.001164 -0.001973 287293.000000 1 0 0
-9.478664 5.276485 -7.454894 13.162896 -0.507949 2.172875 -0.005475 0.002973 -199166.000000 1 0 0
-0.457864 6.107685 -5.348994 8.131740 -1.495971 2.288680 0.004759 -0.001476 -936480.000000 1 0 0
-8.177864 2.732585 -6.337494 10.700856 -0.322480 2.204635 0.001838 0.001413 1335390.000000 1 0 0
3.698236 1.378985 -1.965394 4.409231 0.356908 2.032803 0.000977 -0.002356 2822440.000000 1 0 0
-6.781164 12.447585 -3.469094 14.593190 -1.071972 1.810814 0.001155 0.003890 1060760.000000 1 0 0
-6.414464 3.134085 -2.287194 7.496606 -0.454483 1.880837 -0.000385 -0.001691 -1280050.000000 1 0 0
12.137636 4.052885 -0.798994 12.821329 0.322270 1.633154 0.005987 -0.001142 649820.000000 1 0 0
2.268736 12.352685 -5.465394 13.696953 1.389157 1.981247 0.010220 -0.001667 692794.000000 1 0 0
-9.106564 -1.385815 -4.284394 10.159037 0.151019 2.006151 0.006907 -0.003788 -320500.000000 1 0 0
-1.127564 5.772985 3.515206 6.852404 -1.377907 1.032133 -0.001094 0.000342 1714510.000000 1 0 0
11.596536 2.542485 12.043706 16.911379 0.215830 0.778218 0.018122 0.005299 608296.000000 1 0 0
-6.932264 -2.313515 -5.805994 9.333713 0.322109 2.242149 0.012618 -0.004374 846633.000000 1 0 0
7.454136 -7.398515 10.852406 15.102214 -0.781653 0.769014 0.004521 -0.005157 -905194.000000 1 0 0
-5.457164 -2.003315 -10.968194 12.413508 0.351825 2.654226 0.014265 -0.001658 99528.500000 1 0 0
0.774536 -6.132315 4.473206 7.629860 -1.445158 0.944342 -0.003200 -0.000971 39737.300000 1 0 0
-4.770664 -9.438515 7.383506 12.898099 1.102801 0.961307 0.000639 -0.004390 2563410.000000 1 0 0
-8.779464 9.343485 1.694506 12.932558 -0.816510 1.439392 0.005342 -0.002564 -188977.000000 1 0 0
-8.094764 7.269485 -9.102494 14.185416 -0.731736 2.267483 -0.007897 0.004467 29107.100000 1 0 0
-1.202364 -10.640115 -0.121994 10.708529 1.458271 1.582189 0.005160 -0.005050 -1081380.000000 1 0 0
-4.096564 10.308985 7.758706 13.537154 -1.192552 0.960462 0.007485 -0.002593 3266690.000000 1 0 0
-7.476464 12.084185 1.958306 14.344338 -1.016741 1.433847 0.004390 -0.004694 113363.000000 1 0 0
-8.200064 -8.239215 -2.899094 11.980420 0.787780 1.815209 0.017578 -0.007518 -134118.000000 1 0 0
5.446736 4.560885 -7.967394 10.674642 0.697111 2.413410 0.001537 -0.000855 1807560.000000 1 0 0
-8.879664 -0.209815 -10.258894 13.569722 0.023624 2.427998 0.005228 -0.000685 -1000650.000000 1 0 0
-15.241964 -2.250415 -1.597094 15.489756 0.146587 1.674086 0.013896 -0.005072 44070.500000 1 0 0
-7.181764 -5.854515 8.790706 12.772219 0.683936 0.811698 0.006928 -0.001791 -1496590.000000 1 0 0
8.148236 3.389785 -0.929394 8.874016 0.394235 1.675721 0.004864 0.000238 1608820.000000 1 0 0
11.871336 7.268585 -5.749794 15.060580 0.549400 1.962515 0.003887 -0.007372 229039.000000 1 0 0
3.816936 13.249685 -9.531494 16.762236 1.290313 2.175635 0.006366 -0.005165 1148860.000000 1 0 0
-9.745564 5.440785 -0.530994 11.174083 -0.509180 1.618334 0.001963 -0.001197 1348360.000000 1 0 0
11.213236 -1.309815 -5.085194 12.381901 -0.116283 1.994013 0.008437 -0.003490 -1269110.000000 1 0 0
10.665736 1.724685 -1.163994 10.866800 0.160316 1.678117 0.008292 -0.002144 256524.000000 1 0 0
14.617336 5.012285 4.827706 16.189387 0.330336 1.267988 0.007586 -0.001174 2162580.000000 1 0 0
0.932836 -0.824915 10.320506 10.395360 -0.724078 0.120078 0.004240 -0.000739 2287020.000000 1 0 0
-7.972564 1.394085 -12.667494 15.032320 -0.173110 2.573045 0.000645 0.001513 581470.000000 1 0 0
3.143736 -11.537615 -7.879894 14.321046 -1.304777 2.153438 -0.005767 -0.000590 1573800.000000 1 0 0
2.865436 4.987985 -6.778594 8.890448 1.049362 2.437900 0.005311 -0.001807 -2802760.000000 1 0 0
6.431036 8.001185 0.556806 10.280429 0.893767 1.516608 0.005403 -0.001971 972188.000000 1 0 0
-9.044464 -5.420115 6.774506 12.532913 0.539886 0.999721 0.003874 0.000385 -1638730.000000 1 0 0
-0.190564 -6.830015 -11.805394 13.640115 1.542903 2.616926 0.006304 0.002757 2070830.000000 1 0 0
6.399836 -13.274815 -4.634294 15.448472 -1.121568 1.875472 0.000400 -0.000873 2062810.000000 1 0 0
-3.280664 -0.402715 9.995606 10.527919 0.122143 0.319355 0.004892 0.002439 -103705.000000 1 0 0
8.670736 8.508885 7.030206 14.035903 0.775977 1.046189 0.001376 0.001952 32186.600000 1 0 0
-7.934364 5.612085 -2.621194 10.065798 -0.615618 1.834239 0.000827 -0.002304 -9644.950000 1 0 0
-5.427464 5.831785 -6.462994 10.258527 -0.821293 2.252365 -0.002113 0.001775 -609323.000000 1 0 0
3.307136 -13.628815 2.543506 14.253110 -1.332740 1.391383 0.002135 -0.007065 -2274500.000000 1 0 0
-11.318064 -6.975515 6.482406 14.791145 0.552331 1.117131 0.014459 -0.006023 -478489.000000 1 0 0
-12.878464 -3.686515 -6.745394 14.998186 0.278799 2.037279 0.014905 -0.008530 212509.000000 1 0 0
6.102736 0.319285 -7.349494 9.558263 0.052271 2.447939 -0.002379 0.000442 210958.000000 1 0 0
-1.468764 2.218385 -2.443794 3.612566 -0.985971 2.313756 -0.000458 -0.003360 722919.000000 1 0 0
7.603036 0.923785 -4.976094 9.133512 0.120910 2.146967 0.002290 -0.001835 352848.000000 1 0 0
3.665136 -4.492915 10.938906 12.380596 -0.886520 0.487402 -0.004971 0.003433 446054.000000 1 0 0
6.067636 -2.504915 2.040206 6.874099 -0.391519 1.269460 0.009477 -0.005458 -1375610.000000 1 0 0
-6.348364 7.736885 1.203206 10.080121 -0.883660 1.451147 0.000838 -0.003211 766052.000000 1 0 0
6.066136 -3.345615 7.982406 10.569293 -0.504012 0.714768 -0.000475 -0.003513 101695.000000 1 0 0
6.750236 -2.320415 -7.816194 10.585032 -0.331099 2.401520 -0.001770 -0.002942 969054.000000 1 0 0
12.098536 -8.158315 -5.811594 15.706918 -0.593284 1.949808 0.019483 -0.009796 490128.000000 1 0 0
5.527136 -9.691615 9.987506 14.974208 -1.052501 0.840647 -0.001476 0.003923 1534720.000000 1 0 0
-6.684064 7.488685 -4.493694 10.997746 -0.842110 1.991717 -0.000316 0.000718 401848.000000 1 0 0
-1.303764 -7.571415 9.668606 12.349415 1.400273 0.671450 -0.001379 -0.000834 -1033030.000000 1 0 0
10.091636 -9.207715 0.777706 13.683126 -0.739630 1.513929 0.010574 -0.008800 1127760.000000 1 0 0
11.107036 6.042185 9.804906 16.000326 0.498222 0.911205 0.001815 0.001388 1059440.000000 1 0 0
-15.327764 -4.189515 -5.010494 16.661256 0.266812 1.876251 0.022184 -0.009310 2631160.000000 1 0 0
-4.778964 -4.635715 7.812706 10.264829 0.770184 0.705767 -0.000042 -0.001120 -1104950.000000 1 0 0
2.985836 10.810485 -11.047694 15.742724 1.301317 2.348668 0.005813 -0.004642 -688786.000000 1 0 0
9.935236 -1.398615 1.598206 10.159690 -0.139854 1.412832 0.009453 -0.002636 -936391.000000 1 0 0
-1.628664 -2.629515 0.707606 3.172948 1.016250 1.345893 0.000911 -0.003179 40706.400000 1 0 0
1.549836 3.048685 0.854306 3.525098 1.100482 1.326009 -0.002811 -0.000236 -1403750.000000 1 0 0
-8.901664 -2.354015 4.291406 10.158601 0.258529 1.134660 0.000428 -0.000586 2701690.000000 1 0 0
9.876136 4.855385 -2.666394 11.323537 0.456928 1.808502 0.004232 -0.001174 1487030.000000 1 0 0
2.563136 8.445485 2.584606 9.196525 1.276139 1.285917 -0.003102 0.000602 420872.000000 1 0 0
-8.108164 -0.010315 2.474406 8.477330 0.001272 1.274599 -0.002405 -0.000698 2004940.000000 1 0 0
6.926136 2.141385 13.866406 15.647176 0.299852 0.481735 0.003982 0.002652 198.275000 1 0 0
6.780136 4.407785 3.798606 8.934664 0.576448 1.131665 0.000841 0.001844 253741.000000 1 0 0
-0.324064 3.297385 7.792106 8.467271 -1.472832 0.402047 -0.000797 0.001859 1243510.000000 1 0 0
2.700336 -10.346715 9.259106 14.144870 -1.315506 0.857155 -0.007722 -0.001547 1835530.000000 1 0 0
1.414336 -4.525915 6.865606 8.343908 -1.267914 0.604426 -0.001622 0.000152 11360.900000 1 0 0
-0.104364 10.806185 -1.989294 10.988259 -1.561139 1.752838 0.002265 -0.000237 1911690.000000 1 0 0
8.792936 5.554885 7.968406 13.102212 0.563434 0.917040 -0.002036 0.002036 -38503.500000 1 0 0
2.656336 11.425885 -2.863494 12.075039 1.342370 1.810219 0.006979 -0.004435 903706.000000 1 0 0
1.487136 2.412485 -6.724894 7.297661 1.018381 2.742757 0.002896 -0.003071 703696.000000 1 0 0
-13.582364 -2.238015 3.525506 14.209804 0.163306 1.320074 0.010751 -0.004172 1656480.000000 1 0 0
-0.973764 -10.649315 -5.336894 11.951508 1.479611 2.033697 0.004143 -0.003014 442603.000000 1 0 0
-5.688264 2.900885 0.514206 6.405927 -0.471598 1.490440 0.001953 -0.001711 382701.000000 1 0 0
3.717136 7.267585 -5.018394 9.582232 1.098017 2.122007 0.004646 -0.002784 -1703310.000000 1 0 0
2.998736 9.748185 -6.466894 12.076434 1.272364 2.135892 0.009735 -0.001921 2363830.000000 1 0 0
-12.178564 1.684385 -2.605894 12.567628 -0.137435 1.779661 0.011369 -0.002624 706108.000000 1 0 0
-2.575664 9.629485 -5.722494 11.493823 -1.309438 2.091944 0.002391 0.000539 616714.000000 1 0 0
-1.277364 3.366185 1.776206 4.014694 -1.208113 1.112494 -0.004134 -0.001140 -787066.000000 1 0 0
12.876236 3.688185 9.685106 16.528806 0.278964 0.944741 0.019848 0.000611 183705.000000 1 0 0
-2.448064 -9.581815 11.544806 15.201537 1.320657 0.708329 -0.007818 -0.004629 -1389950.000000 1 0 0
-0.414564 -8.850115 -7.513894 11.617013 1.523988 2.274179 0.004173 -0.001472 3073060.000000 1 0 0
2.278236 7.629685 -0.436794 7.974537 1.280623 1.625597 -0.000807 0.000139 1489840.000000 1 0 0
-11.789964 -1.338815 -5.526194 13.089481 0.113071 2.006652 0.011639 -0.002188 -577185.000000 1 0 0
-6.139064 -7.150515 -10.918194 14.423069 0.861360 2.429499 0.013982 -0.001149 1527170.000000 1 0 0
-4.628464 -2.285215 -1.404994 5.349663 0.458620 1.836546 0.002946 -0.002601 -1846860.000000 1 0 0
-10.463764 3.704985 4.521306 11.985804 -0.340303 1.184002 -0.000325 -0.002369 2906200.000000 1 0 0
6.759336 9.328885 -3.583294 12.064689 0.943777 1.872353 0.004530 -0.001174 162913.000000 1 0 0
1.348936 -2.693015 -11.572794 11.958324 -1.106428 2.886978 0.005483 -0.002862 -546782.000000 1 0 0
1.165236 8.823485 7.610506 11.710315 1.439495 0.863347 -0.000389 0.003131 1479060.000000 1 0 0
10.325036 0.369485 10.342106 14.618551 0.035770 0.784892 0.005783 0.001482 497354.000000 1 0 0
-5.173664 -0.931815 -3.937894 6.568264 0.178197 2.213714 0.007915 -0.004822 -1354110.000000 1 0 0
11.744536 5.645985 5.355606 14.088782 0.448116 1.180857 0.004000 -0.000048 1914350.000000 1 0 0
9.939336 -3.529615 3.706506 11.179748 -0.341225 1.232864 0.016217 -0.010339 -1763190.000000 1 0 0
7.378036 -1.708215 -3.355094 8.283119 -0.227518 1.987832 0.003478 -0.002303 -2056000.000000 1 0 0
2.341236 9.231685 10.555406 14.216962 1.322424 0.734074 0.007576 -0.000260 3584590.000000 1 0 0
2.469836 -10.861315 6.282706 12.788301 -1.347201 1.057231 -0.010703 -0.000693 1814690.000000 1 0 0
5.874136 -7.519415 -1.276294 9.626837 -0.907627 1.703764 0.000463 -0.006550 1227280.000000 1 0 0
-0.182964 -5.631515 -2.351294 6.105409 1.538318 1.966130 0.004701 -0.002282 -159972.000000 1 0 0
7.688736 -5.004515 2.683706 9.558457 -0.577000 1.286202 0.007588 -0.007249 1487680.000000 1 0 0
-2.676464 -12.460315 4.626006 13.558128 1.359212 1.222605 0.004564 -0.004671 -417767.000000 1 0 0
4.890136 -10.281915 -1.152094 11.443711 -1.126854 1.671642 0.000315 -0.008606 1164030.000000 1 0 0
0.984636 0.240585 1.078506 1.480055 0.239644 0.754385 -0.003641 0.000009 -1321930.000000 1 0 0
-1.511764 8.559985 2.443906 9.029477 -1.395991 1.296719 -0.001808 0.001379 1337130.000000 1 0 0
-7.423464 0.617885 -3.044894 8.047421 -0.083043 1.958830 0.001067 -0.002077 -588912.000000 1 0 0
4.332236 -6.431215 12.918106 15.066727 -0.977991 0.540614 -0.002097 -0.001918 2352040.000000 1 0 0
-5.258764 13.047985 8.476906 16.424447 -1.187678 1.028487 0.009238 -0.009200 2255020.000000 1 0 0
0.632436 6.104085 8.251706 10.283506 1.467556 0.639454 0.000521 0.003926 1563360.000000 1 0 0
7.996736 -0.498215 -0.730494 8.045472 -0.062222 1.661717 0.008743 -0.002013 3960280.000000 1 0 0
2.457736 -9.208915 -2.466094 9.845110 -1.309989 1.823982 -0.003729 -0.005400 1633890.000000 1 0 0
-7.208364 12.233985 4.848006 15.004469 -1.038350 1.241789 0.005469 -0.008701 1090160.000000 1 0 0
-14.910664 0.273885 0.101006 14.913522 -0.018366 1.564023 0.006286 -0.003432 2058710.000000 1 0 0
6.866536 -0.474215 3.948406 7.934992 -0.068952 1.049973 0.005298 -0.000724 56876.600000 1 0 0
-4.171664 -5.092515 5.070306 8.309301 0.884472 0.914488 0.001477 -0.001876 -838895.000000 1 0 0
2.889036 5.115385 6.913006 9.072119 1.056681 0.704392 -0.003037 0.003422 -871953.000000 1 0 0
2.016636 -7.196415 1.811906 7.690137 -1.297576 1.332946 -0.004050 -0.002558 33694.700000 1 0 0
-2.471964 6.388085 -1.775194 7.075985 -1.201577 1.824381 -0.000335 -0.000686 968233.000000 1 0 0
2.719136 -3.842915 -6.543494 8.060956 -0.955007 2.517942 -0.000468 -0.003768 -65201.600000 1 0 0
-5.065864 0.913785 -12.266194 13.302537 -0.178462 2.744255 0.011953 -0.000692 -209668.000000 1 0 0
-7.410964 6.438185 -11.954494 15.468760 -0.715272 2.454062 -0.003527 -0.001126 1753140.000000 1 0 0
-0.977564 11.182085 -9.026294 14.403772 -1.483596 2.248059 0.008254 0.001285 1136260.000000 1 0 0
4.593136 5.889685 -0.608594 7.493709 0.908456 1.652100 0.000401 -0.000142 473897.000000 1 0 0
-2.657664 13.323885 3.687606 14.077910 -1.373914 1.305762 -0.003007 0.003302 1305850.000000 1 0 0
1.435836 -7.930915 10.269106 13.054331 -1.391693 0.665443 -0.007415 -0.000730 -583888.000000 1 0 0
13.078836 -0.211915 -0.921294 13.112957 -0.016201 1.641113 0.011365 -0.002267 393068.000000 1 0 0
-1.057364 3.150985 -5.347894 6.296562 -1.247038 2.585521 0.002577 -0.005686 252175.000000 1 0 0
6.599836 1.117185 7.305706 9.908546 0.167685 0.741711 -0.001356 0.000919 1062910.000000 1 0 0
5.461636 -6.046715 6.857306 10.649642 -0.836194 0.871211 -0.003066 -0.001203 1043700.000000 1 0 0
12.261136 -4.844915 2.686206 13.454529 -0.376313 1.369795 0.016561 -0.008152 -492765.000000 1 0 0
4.344836 -9.252715 13.940806 17.286885 -1.131784 0.632693 0.003955 -0.001951 191493.000000 1 0 0
-2.658564 -4.373415 -1.403194 5.306946 1.024594 1.838385 0.005642 -0.003778 2786690.000000 1 0 0
-9.278464 -5.228815 -7.528394 13.042512 0.513181 2.186116 0.015389 -0.004800 868655.000000 1 0 0
-10.572464 -3.155815 7.849506 13.540713 0.290074 0.952440 0.004692 0.000726 -1086370.000000 1 0 0
12.132336 -0.640115 1.748506 12.274388 -0.052712 1.427859 0.013029 -0.004769 138696.000000 1 0 0
-7.602764 4.703385 4.432806 9.978659 -0.554014 1.110483 0.002428 -0.003024 1663420.000000 1 0 0
-1.185464 10.580185 6.989806 12.735896 -1.459216 0.989836 0.000504 0.005431 2497620.000000 1 0 0
7.358636 -9.960015 1.917006 12.531014 -0.934490 1.417212 -0.001198 -0.006371 3564560.000000 1 0 0
-4.304264 -1.696215 1.670806 4.918885 0.375391 1.224228 -0.003299 -0.000076 612750.000000 1 0 0
6.704136 -14.929715 -0.934594 16.392537 -1.148736 1.627841 0.011704 -0.001171 -1618380.000000 1 0 0
-10.484864 1.648385 2.323606 10.865022 -0.155939 1.355270 0.001947 0.000244 -987587.000000 1 0 0
-2.970264 8.351485 -11.420594 14.456824 -1.229091 2.481572 0.002852 0.000917 -1374040.000000 1 0 0
-1.184064 -5.151715 -6.922494 8.709942 1.344881 2.489442 0.004788 -0.002064 92983.600000 1 0 0
12.790736 -0.490115 6.411306 14.316004 -0.038299 1.106446 0.016776 -0.008541 2815350.000000 1 0 0
5.944136 -13.235615 3.729006 14.980645 -1.148690 1.319230 -0.000291 -0.003790 1767350.000000 1 0 0
-5.515564 3.433985 -4.914394 8.146470 -0.556871 2.218372 -0.001315 -0.001032 2691620.000000 1 0 0
-4.339464 8.077585 3.349706 9.762114 -1.077816 1.220546 0.000958 -0.001557 135058.000000 1 0 0
14.008636 6.105085 -4.008694 15.798214 0.410990 1.827345 0.010955 -0.003171 623969.000000 1 0 0
-6.739164 -8.525115 5.310306 12.095175 0.901871 1.116263 0.008898 -0.003765 1034360.000000 1 0 0
1.645636 11.368585 2.667106 11.792638 1.427042 1.342655 -0.000883 0.001596 585527.000000 1 0 0
-7.396764 7.287185 5.979006 11.981807 -0.777936 1.048344 0.001315 -0.006174 223178.000000 1 0 0
-17.446064 -4.002915 5.261306 18.656629 0.225541 1.284911 0.034545 -0.012377 755066.000000 1 0 0
7.526436 -12.989115 -8.595494 17.298753 -1.045630 2.090802 0.010337 -0.003728 -517832.000000 1 0 0
-2.371164 12.717885 -2.818594 13.240525 -1.386469 1.785314 -0.000791 0.003057 949504.000000 1 0 0
-5.500664 13.940285 -5.778494 16.061751 -1.194964 1.938815 0.003257 0.003710 2017690.000000 1 0 0
-5.698564 2.524385 7.443406 9.708267 -0.417006 0.697099 0.005322 -0.001697 1570670.000000 1 0 0
-7.530664 5.098285 1.520206 9.220328 -0.595125 1.405165 0.000793 -0.001255 2028050.000000 1 0 0
10.815936 -5.727715 -4.950394 13.202181 -0.487017 1.955158 0.006125 -0.005594 1255480.000000 1 0 0
-9.471764 -0.801315 6.834106 11.707324 0.084399 0.947461 0.000037 -0.000050 2015060.000000 1 0 0
-11.285364 -4.511615 -2.550894 12.418582 0.380313 1.777678 0.008032 -0.005282 853873.000000 1 0 0
6.471036 -4.376315 13.605206 15.688469 -0.594637 0.521224 0.004305 -0.003771 -1903290.000000 1 0 0
0.275136 10.183785 -11.574294 15.419127 1.543786 2.419834 0.002391 -0.000670 -1744800.000000 1 0 0
-11.722464 -3.227115 1.464706 12.246461 0.268639 1.450907 0.006611 -0.003493 970642.000000 1 0 0
5.207336 5.978385 5.486706 9.641648 0.854221 0.965430 -0.000037 0.003298 -4170740.000000 1 0 0
-7.127764 0.015485 8.145406 10.823719 -0.002173 0.718868 -0.000830 0.001266 204273.000000 1 0 0
1.765436 2.059285 9.651206 10.025128 0.862077 0.273981 0.002700 0.000879 2199470.000000 1 0 0
10.581336 -4.944515 -1.955494 11.842164 -0.437136 1.736686 0.005531 -0.004600 2469920.000000 1 0 0
-9.593864 -2.388715 -1.641994 10.022192 0.244022 1.735374 0.005958 -0.002634 -618290.000000 1 0 0
-1.941464 -5.230615 -9.944794 11.402962 1.215385 2.630323 0.014533 -0.004123 835556.000000 1 0 0
7.719936 -1.595915 6.561906 10.256849 -0.203855 0.876612 0.003440 -0.002959 1697780.000000 1 0 0
1.566036 -11.810515 -2.666794 12.208706 -1.438969 1.791006 -0.001775 -0.003253 -3453880.000000 1 0 0
-0.792964 -1.445315 4.785606 5.061596 1.068994 0.331750 0.004133 -0.002587 874842.000000 1 0 0
7.604336 1.549985 9.986006 12.647082 0.201075 0.660656 -0.001706 0.000657 2189840.000000 1 0 0
-3.894764 10.784785 -7.985594 13.973206 -1.224236 2.179121 0.004386 0.002269 3733870.000000 1 0 0
-9.643164 12.730385 6.360706 17.190460 -0.922518 1.191773 0.008692 -0.011744 911136.000000 1 0 0
-2.537864 -2.513115 -11.156994 11.714735 0.780498 2.831777 0.014949 -0.005566 -1148210.000000 1 0 0
1.106836 -11.944415 11.109306 16.349642 -1.478395 0.823738 -0.007675 -0.001021 666927.000000 1 0 0
1.400736 3.421685 -1.980294 4.194229 1.182238 2.062521 -0.002230 -0.001635 3414250.000000 1 0 0
-1.870264 -9.348915 -12.045294 15.361940 1.373351 2.472041 0.006345 -0.001890 319661.000000 1 0 0
1.322636 -2.671315 1.565206 3.366772 -1.111056 1.087277 0.002859 -0.002376 4479740.000000 1 0 0
-0.968564 -2.191715 -6.675494 7.092528 1.154681 2.796964 0.004071 -0.006709 -493489.000000 1 0 0
1.840436 5.831185 4.093306 7.358334 1.265072 0.980892 -0.007971 0.004446 -2502020.000000 1 0 0
-10.956664 8.602885 3.651706 14.401149 -0.665635 1.314427 -0.000362 -0.004974 900384.000000 1 0 0
-16.398364 -1.592815 3.817406 16.912007 0.096829 1.343113 0.019471 -0.008424 301951.000000 1 0 0
-12.215264 0.262385 6.789806 13.977947 -0.021477 1.063574 -0.001295 0.000568 1660030.000000 1 0 0
-5.078964 3.096485 4.653706 7.552555 -0.547499 0.906918 0.000920 -0.000072 1933920.000000 1 0 0
5.193836 -6.023415 3.953806 8.882006 -0.859219 1.109457 -0.003053 -0.003098 1619040.000000 1 0 0
9.942936 3.487485 6.249506 12.250749 0.337343 1.035457 0.000698 0.002015 505140.000000 1 0 0
-12.124964 5.821785 3.126706 13.808846 -0.447641 1.342388 0.000591 -0.001136 1551390.000000 1 0 0
-4.877664 12.224785 -1.265394 13.222640 -1.191154 1.666642 -0.006297 0.004185 1722780.000000 1 0 0
-1.740464 -12.207115 10.301606 16.067543 1.429173 0.874809 -0.000135 -0.007129 960260.000000 1 0 0
5.249136 6.405985 13.849306 16.136708 0.884331 0.538949 0.009353 -0.005764 843592.000000 1 0 0
12.904336 -3.732015 -5.823194 14.641018 -0.281525 1.979839 0.003431 -0.001790 -441292.000000 1 0 0
3.551536 -2.499415 6.444806 7.771487 -0.613242 0.592963 -0.001277 0.001842 1020750.000000 1 0 0
7.248136 -11.773415 -0.593394 13.838384 -1.018959 1.613690 0.002326 -0.003699 -1638300.000000 1 0 0
-6.137264 -6.490915 -4.051694 9.808884 0.813396 1.996612 0.014330 -0.005985 -702623.000000 1 0 0
0.327436 -8.889015 5.038506 10.222932 -1.533977 1.055419 -0.002996 -0.002197 1985230.000000 1 0 0
-10.236364 2.491285 -0.447994 10.544684 -0.238735 1.613294 0.004386 -0.000351 -1014820.000000 1 0 0
-1.788164 8.993885 -0.425994 9.179814 -1.374536 1.617219 0.002168 -0.001859 646561.000000 1 0 0
-3.444064 2.354385 -6.622994 7.827436 -0.599639 2.579470 0.003961 -0.005160 -194631.000000 1 0 0
-12.700364 3.062585 6.387406 14.542271 -0.236624 1.116055 0.001639 -0.004139 826816.000000 1 0 0
11.327036 1.674585 7.928506 13.927210 0.146777 0.965164 0.011333 -0.006761 -2639460.000000 1 0 0
6.053936 2.574685 -3.222094 7.325369 0.402117 2.026233 0.002270 -0.001913 1972040.000000 1 0 0
10.496936 -2.445715 6.430406 12.550590 -0.228909 1.032867 0.015073 -0.008868 3912430.000000 1 0 0
-0.959164 11.006385 4.074106 11.775350 -1.483870 1.217507 0.002085 0.003467 992598.000000 1 0 0
-1.531964 -12.166815 7.329906 14.286561 1.445542 1.032047 0.002314 -0.004015 -700564.000000 1 0 0
8.136936 8.598985 -7.792394 14.172991 0.812999 2.152928 0.002217 -0.006826 2667640.000000 1 0 0
-4.670064 -5.886915 -8.645594 11.454761 0.900157 2.426084 0.017069 -0.003420 1092030.000000 1 0 0
-8.554064 -5.414215 -11.645394 15.430520 0.564289 2.425991 0.012707 0.003970 1094550.000000 1 0 0
6.095536 -0.732315 -9.930194 11.674785 -0.119566 2.587860 -0.000607 -0.000566 -206259.000000 1 0 0
-11.232964 -5.507615 -5.324394 13.596414 0.455864 1.973169 0.010077 -0.009363 -379380.000000 1 0 0
3.887036 8.899785 -2.739894 10.090701 1.159010 1.845775 0.007032 -0.002816 1336140.000000 1 0 0
11.674836 -10.377515 -3.954494 16.113120 -0.726637 1.818750 0.016803 -0.008242 794742.000000 1 0 0
3.924036 -11.232215 3.914406 12.525305 -1.234696 1.252952 -0.006564 -0.002585 1748300.000000 1 0 0
-1.067264 0.842285 3.187406 3.465264 -0.668121 0.403185 0.001332 -0.000421 -2047290.000000 1 0 0
-10.559864 -5.052215 4.497406 12.540425 0.446248 1.203994 0.009272 -0.002112 3290130.000000 1 0 0
4.534736 -8.581415 2.746406 10.086984 -1.084659 1.295043 -0.006974 -0.001648 4964850.000000 1 0 0
-3.662464 -5.733715 2.595906 7.282023 1.002364 1.206297 0.002232 -0.001166 2926370.000000 1 0 0
10.083136 5.036985 12.407006 16.762298 0.463284 0.737468 0.013217 0.006524 -105917.000000 1 0 0
1.638336 -12.284615 -5.381294 13.511263 -1.438214 1.980440 -0.002325 -0.001656 1531780.000000 1 0 0
9.824536 -10.652215 -1.699094 14.590343 -0.825797 1.687514 0.009500 -0.008890 -208625.000000 1 0 0
9.609536 -4.475815 -9.195094 14.033027 -0.435889 2.285305 0.009167 -0.001137 2401120.000000 1 0 0
-7.509864 -3.084915 -13.108494 15.419059 0.389766 2.587064 0.011375 0.005530 1631850.000000 1 0 0
0.391236 6.203485 -2.508594 6.702935 1.507813 1.954387 0.000797 -0.001661 1836480.000000 1 0 0
-6.018864 -9.513515 0.965406 11.298924 1.006704 1.485250 0.007891 -0.002325 -796929.000000 1 0 0
-8.934564 -4.096215 0.591906 9.846612 0.429874 1.510647 0.000329 -0.001022 3340560.000000 1 0 0
1.879436 3.775085 12.078206 12.793225 1.108868 0.335914 0.004641 -0.001508 742695.000000 1 0 0
6.631836 4.312585 9.663206 12.488282 0.576576 0.686007 -0.001426 0.004200 1683360.000000 1 0 0
-8.279864 9.824085 -3.604394 13.343930 -0.870490 1.844309 0.000895 0.001908 1813210.000000 1 0 0
16.410636 2.064785 -6.050794 17.612053 0.125162 1.921501 0.021377 0.002462 996363.000000 1 0 0
-10.847764 2.614185 -5.154494 12.291329 -0.236479 2.003537 0.002330 0.000735 -906977.000000 1 0 0
-13.772764 3.991285 1.506506 14.418355 -0.282069 1.466120 0.001775 0.001124 896392.000000 1 0 0
-17.440064 10.355285 3.349806 20.557456 -0.535822 1.407118 0.042588 -0.015401 678635.000000 1 0 0
-14.336064 2.949085 -1.230294 14.687868 -0.202881 1.654657 0.010921 0.000563 2123340.000000 1 0 0
-14.420664 5.118685 5.084406 16.124754 -0.341082 1.250006 0.001468 -0.003710 1001610.000000 1 0 0
-17.499064 7.437485 3.084606 19.262612 -0.401889 1.409970 0.030591 -0.008755 -796883.000000 1 0 0
-15.298564 12.581485 -3.422194 20.101026 -0.688249 1.741879 0.068027 -0.014196 -874598.000000 1 0 0
-8.578064 12.561885 -9.587494 17.980662 -0.971664 2.133188 0.000100 -0.010704 -551577.000000 1 0 0
-12.307864 8.818685 -9.899694 18.090237 -0.621720 2.149859 0.011396 -0.008129 -1629850.000000 1 0 0
-13.821164 -3.509215 -12.127294 18.719253 0.248647 2.275557 0.010800 -0.002321 -1016970.000000 1 0 0
-14.740364 5.710385 -7.668094 17.569477 -0.369595 2.022439 0.033381 0.001197 -175259.000000 1 0 0
-10.961064 13.618885 -8.345394 19.371747 -0.893109 2.016178 0.018099 -0.015516 568614.000000 1 0 0
-11.000664 13.488785 3.883706 17.833820 -0.886650 1.351265 0.013523 -0.011831 -1317400.000000 1 0 0
-15.195464 3.169885 3.070006 15.823250 -0.205658 1.375539 0.003367 -0.000482 1388090.000000 1 0 0
-10.998664 9.296685 -12.531594 19.090307 -0.701733 2.286883 -0.007048 -0.006672 -117923.000000 1 0 0
-13.015064 11.578485 -9.096794 19.652096 -0.727052 2.052051 0.025175 -0.021374 498324.000000 1 0 0
-8.818164 14.553085 -3.482994 17.369040 -1.026027 1.772694 0.011018 -0.006067 523420.000000 1 0 0
-16.770064 8.335485 -4.165394 19.185043 -0.461281 1.789656 0.046782 -0.002889 -807066.000000 1 0 0
-16.949364 6.736485 0.299706 18.241464 -0.378304 1.554366 0.028381 -0.005631 627705.000000 1 0 0
-10.448564 2.802885 -12.544294 16.564660 -0.262085 2.429954 0.000493 -0.000173 -439791.000000 1 0 0
-16.935764 0.854885 2.172706 17.095952 -0.050435 1.443363 0.019060 -0.004144 811450.000000 1 0 0
-12.497264 1.145585 -7.044594 14.391674 -0.091411 2.082302 0.008948 -0.002811 1394700.000000 1 0 0
-12.282864 9.066385 -5.377894 16.186100 -0.635863 1.909488 0.024807 -0.002505 -1497730.000000 1 0 0
-9.645464 13.892185 1.239606 16.957725 -0.963900 1.497631 0.028347 -0.009045 -981071.000000 1 0 0
-12.169064 11.048785 2.672506 16.652449 -0.737185 1.409612 0.012030 -0.004554 863627.000000 1 0 0
-12.568664 6.876585 -3.637994 14.781534 -0.500630 1.819469 0.013020 0.001719 -8780.240000 1 0 0
-15.890664 3.664885 -9.409494 18.827724 -0.226668 2.094127 0.039472 -0.003450 -1960380.000000 1 0 0
-15.147464 5.901285 -4.822794 16.956715 -0.371499 1.859196 0.022608 0.004477 2183990.000000 1 0 0
-17.894864 5.281785 7.562206 20.132322 -0.287007 1.185725 0.020646 -0.008961 -343322.000000 1 0 0
-15.954864 10.037185 -2.009494 18.956288 -0.561541 1.677003 0.049146 -0.007910 -982559.000000 1 0 0
-8.833864 9.984785 -8.314694 15.712009 -0.846481 2.128446 -0.002349 -0.002287 1246160.000000 1 0 0
-17.024464 4.231985 -1.332194 17.593090 -0.243644 1.646591 0.018125 0.000168 -535505.000000 1 0 0
-10.165564 5.361085 -4.591994 12.376039 -0.485309 1.950924 0.001611 0.002554 452266.000000 1 0 0
-18.080164 2.793385 6.071806 19.275948 -0.153288 1.250346 0.031215 -0.015034 -320229.000000 1 0 0
-10.402664 10.155885 -5.673694 15.606032 -0.773395 1.942880 0.005879 -0.001880 1488720.000000 1 0 0
-15.268164 0.558985 -5.939494 16.392282 -0.036595 1.941568 0.012456 -0.001827 1619690.000000 1 0 0
-16.489064 -4.121315 -8.974394 19.220151 0.244924 2.056608 0.034748 -0.014957 -887181.000000 1 0 0
-9.993964 9.679985 -1.081894 13.955355 -0.769440 1.648400 0.007969 -0.000287 2211360.000000 1 0 0
-17.506364 -3.019415 -3.255894 18.060745 0.170795 1.752062 0.036208 -0.008062 -383894.000000 1 0 0
-11.872264 5.032385 -11.526494 17.295538 -0.400919 2.300224 0.004421 0.000094 1090200.000000 1 0 0
-16.279664 7.079585 5.859106 18.694307 -0.410203 1.252008 0.020243 -0.007163 -43565.900000 1 0 0
-12.103264 6.004785 -8.765094 16.105071 -0.460546 2.146284 0.010894 0.001841 2293550.000000 1 0 0
-14.558564 8.453685 -0.106994 16.835321 -0.526083 1.577152 0.030667 -0.004646 1090480.000000 1 0 0
-14.896264 11.749085 3.806606 19.350192 -0.667829 1.372783 0.018339 -0.015233 1678430.000000 1 0 0
-17.378464 4.186585 -4.146494 18.350257 -0.236402 1.798729 0.028968 0.003951 847029.000000 1 0 0
-13.852664 13.441985 -0.930294 19.324822 -0.770353 1.618955 0.042196 -0.006730 -62921.700000 1 0 0
-9.948264 6.739485 -13.145994 17.810272 -0.595433 2.401066 -0.009951 -0.005868 1306900.000000 1 0 0
-15.811164 -1.162615 -8.392294 17.938093 0.073399 2.057650 0.019660 -0.010346 605778.000000 1 0 0
-11.478264 11.975585 -0.062394 16.588221 -0.806599 1.574558 0.026764 -0.005349 1544440.000000 1 0 0
-11.973664 7.438585 -0.885494 14.123926 -0.555895 1.633532 0.009664 0.001418 1685080.000000 1 0 0
-11.413264 0.103485 -11.779394 16.402056 -0.009067 2.371959 0.008670 -0.001382 -704291.000000 1 0 0
-19.155664 -1.183215 -4.871894 19.800879 0.061690 1.819393 0.033085 -0.009415 -1289350.000000 1 0 0
-17.911264 1.507685 -5.282394 18.734732 -0.083977 1.856630 0.018747 0.001292 218897.000000 1 0 0
-13.223364 -0.126215 -9.557494 16.316218 0.009545 2.196622 0.012625 -0.006532 -275357.000000 1 0 0
-6.068164 11.301485 -13.416694 18.562162 -1.078039 2.378639 -0.011304 0.003466 -1436210.000000 1 0 0
16.265636 5.752985 7.126006 18.666754 0.339958 1.179109 0.015725 -0.005394 -49171.700000 1 0 0
14.901636 10.103685 -5.525894 18.832916 0.595825 1.868595 0.038593 -0.017031 348658.000000 1 0 0
2.393236 16.947385 4.495706 17.696125 1.430508 1.313931 0.014482 -0.004574 2750290.000000 1 0 0
-3.963264 18.267185 -5.944494 19.614651 -1.357147 1.878703 0.002277 -0.002412 1304450.000000 1 0 0
5.480436 14.527385 5.719406 16.546653 1.210056 1.217861 0.015278 -0.002410 993105.000000 1 0 0
9.931436 5.985085 15.177106 19.099718 0.542359 0.652407 0.026728 0.004542 -1212430.000000 1 0 0
4.624636 12.777385 -1.077194 13.631184 1.223525 1.649903 0.006985 -0.005621 1317570.000000 1 0 0
3.714936 13.758885 13.087706 19.349308 1.307082 0.827944 0.015602 -0.008774 -1404470.000000 1 0 0
-0.781964 12.385785 9.230706 15.466903 -1.507746 0.931285 0.008223 -0.000623 2152900.000000 1 0 0
-7.860564 13.976485 8.301806 18.056871 -1.058473 1.093073 0.018409 -0.017882 147039.000000 1 0 0
11.443336 12.862885 -4.102094 17.698331 0.843735 1.804702 0.022700 -0.007835 1668950.000000 1 0 0
-5.823864 16.098085 0.914006 17.143546 -1.223671 1.517456 0.000440 0.001136 905794.000000 1 0 0
3.282636 10.603785 6.763806 12.998655 1.270581 1.023540 0.002284 0.006194 3025670.000000 1 0 0
-1.192864 15.546885 2.471806 15.787286 -1.494219 1.413580 -0.000023 0.000953 -521360.000000 1 0 0
9.989736 8.768785 9.513206 16.345871 0.720402 0.949617 0.003481 -0.000372 2330210.000000 1 0 0
7.316436 12.311085 6.260406 15.629643 1.034581 1.158683 0.009863 -0.000513 891210.000000 1 0 0
11.882636 14.079385 -1.551194 18.488708 0.869811 1.654795 0.026035 -0.007395 -462751.000000 1 0 0
9.652436 15.908685 -1.257894 18.650418 1.025436 1.638293 0.012446 -0.004692 712103.000000 1 0 0
10.080136 13.678685 2.895306 17.236542 0.935717 1.402021 0.019464 -0.002876 3321950.000000 1 0 0
-6.071464 14.546785 6.245306 16.955102 -1.175402 1.193569 -0.000418 -0.008225 35176.500000 1 0 0
-1.033564 18.200985 -6.262694 19.276033 -1.514071 1.901697 0.017779 0.003909 768666.000000 1 0 0
-3.506064 15.673385 5.538606 16.988927 -1.350724 1.238714 -0.005605 -0.003257 2977540.000000 1 0 0
7.063736 12.300985 10.624106 17.722365 1.049532 0.927952 0.001953 -0.001032 3527920.000000 1 0 0
1.416736 14.640685 6.261806 15.986464 1.474330 1.168324 0.008501 0.000489 431250.000000 1 0 0
17.409936 7.785085 -1.496794 19.129919 0.420492 1.649120 0.005333 0.008964 -224036.000000 1 0 0
2.091036 16.278185 -3.302394 16.740895 1.443040 1.769364 0.005523 -0.001914 1117780.000000 1 0 0
6.695236 11.142385 0.576206 13.011954 1.029730 1.526499 0.011948 -0.004930 1051730.000000 1 0 0
12.734636 9.348885 3.172106 16.113189 0.633267 1.372638 0.005116 0.002267 -1978350.000000 1 0 0
6.027736 14.228085 -3.407494 15.823496 1.170069 1.787840 0.000714 -0.004713 1339440.000000 1 0 0
2.961436 16.493685 1.673006 16.840746 1.393140 1.471289 0.011231 -0.009132 -1608200.000000 1 0 0
2.872236 18.954885 -2.492894 19.332665 1.420410 1.700104 0.009883 -0.007434 -1262290.000000 1 0 0
3.979736 11.949485 10.782206 16.579640 1.249304 0.862780 0.010702 -0.005910 1823240.000000 1 0 0
8.005536 11.481485 3.393206 14.402325 0.961914 1.332959 0.010216 -0.002533 1231660.000000 1 0 0
0.702336 12.513485 0.097906 12.533562 1.514729 1.562985 0.003532 -0.002456 -1372500.000000 1 0 0
12.078536 9.952885 -4.600794 16.313132 0.689213 1.856706 0.014645 -0.007128 -189424.000000 1 0 0
-1.345064 16.483385 9.951906 19.301596 -1.489376 1.029088 0.010647 -0.002097 -524415.000000 1 0 0
8.198036 14.730485 -7.906694 18.620172 1.062949 2.009350 0.009630 -0.002124 219322.000000 1 0 0
14.470036 7.715985 -1.397694 16.458187 0.489884 1.655823 0.003911 0.005961 1367480.000000 1 0 0
12.514036 8.350185 5.924206 16.168578 0.588417 1.195657 0.001492 0.001163 -1182010.000000 1 0 0
-3.097164 14.220985 10.173606 17.757565 -1.356357 0.960736 0.012928 -0.011032 1027580.000000 1 0 0
-4.648764 17.179485 -3.193194 18.081544 -1.306526 1.748327 0.002682 0.000262 -1132750.000000 1 0 0
-7.098764 16.429585 -1.737494 17.981730 -1.162951 1.667573 0.005726 -0.001781 977413.000000 1 0 0
8.320636 11.261485 -1.873494 14.126713 0.934464 1.703809 0.011469 -0.005661 -328618.000000 1 0 0
8.589836 12.925185 -4.159494 16.066956 0.984239 1.832664 0.010835 -0.006531 754779.000000 1 0 0
2.556236 14.828985 -7.278594 16.715594 1.400093 2.021320 0.006442 0.001367 -896118.000000 1 0 0
11.490736 11.324185 9.727806 18.838906 0.778098 1.028192 0.014972 -0.004062 447633.000000 1 0 0
8.552436 15.750685 1.395706 17.977103 1.073352 1.493080 0.014164 -0.000789 433426.000000 1 0 0
6.104736 10.034085 7.705406 14.047204 1.024223 0.990183 0.004595 0.006079 3744400.000000 1 0 0
14.491936 11.414785 2.524606 18.619537 0.667174 1.434788 0.018330 0.003289 1335420.000000 1 0 0
12.205236 12.643385 1.056406 17.605084 0.803029 1.510755 0.019719 0.000024 3423950.000000 1 0 0
5.147436 15.876085 8.337006 18.656148 1.257265 1.107525 0.017201 -0.002109 -332886.000000 1 0 0
11.403336 14.989785 5.044406 19.498096 0.920457 1.309107 0.025165 -0.001781 -940663.000000 1 0 0
5.886936 16.699085 1.798506 17.797474 1.231869 1.469570 0.009387 -0.012626 1029770.000000 1 0 0
-0.663664 16.137585 -4.213494 16.691784 -1.529694 1.825986 0.008590 0.000061 1819170.000000 1 0 0
16.016436 6.481185 2.594106 17.471730 0.384516 1.421771 -0.007589 0.006345 -1054520.000000 1 0 0
7.621436 16.712785 -3.166494 18.639479 1.142944 1.741505 0.000163 -0.003607 279348.000000 1 0 0
14.777136 8.134485 7.441306 18.436557 0.503210 1.155330 0.014722 -0.003858 -1506620.000000 1 0 0
2.127336 12.892885 8.636506 15.663374 1.407269 0.986776 0.009266 0.000160 1813470.000000 1 0 0
16.018636 7.383785 -5.868394 18.589110 0.431922 1.891980 0.019882 -0.006474 -1055380.000000 1 0 0
-2.972464 16.972185 0.727306 17.245857 -1.397417 1.528611 -0.002953 -0.004587 424695.000000 1 0 0
-2.945464 18.525385 4.612906 19.316950 -1.413120 1.329665 -0.002291 -0.007875 960979.000000 1 0 0
-0.954164 19.065985 0.880506 19.110142 -1.520793 1.524705 -0.001709 -0.007735 210224.000000 1 0 0
7.000936 16.761285 -6.062994 19.149770 1.175138 1.892949 0.005872 -0.000979 -235708.000000 1 0 0
11.028836 10.066385 0.831406 14.955219 0.739806 1.515175 0.005548 -0.000726 -1791670.000000 1 0 0
9.216336 8.669185 14.261906 19.065613 0.754816 0.725687 0.020132 -0.005715 -993813.000000 1 0 0
6.360736 12.421485 -8.372894 16.274447 1.097535 2.111199 0.011019 -0.004690 -829639.000000 1 0 0
6.387136 9.055085 13.260006 17.280562 0.956479 0.696119 0.010005 -0.010164 2116640.000000 1 0 0
16.677936 9.445985 3.006206 19.401481 0.515329 1.415222 0.009773 0.001067 -1439220.000000 1 0 0
2.591136 14.763085 -0.729494 15.006493 1.397051 1.619427 0.006122 -0.004339 -1165970.000000 1 0 0
9.177336 12.889185 8.380606 17.905004 0.952050 1.083703 0.009291 -0.002586 163977.000000 1 0 0
7.273836 9.451385 10.536706 15.914130 0.914865 0.847182 0.003757 -0.002119 1127750.000000 1 0 0
4.384736 15.831285 -5.310594 17.264354 1.300603 1.883471 0.008806 -0.001461 1211100.000000 1 0 0
0.182136 16.312985 -8.122994 18.224426 1.559632 2.032775 0.010333 0.001307 941568.000000 1 0 0
-2.445464 15.670785 -2.030794 15.989932 -1.415992 1.698145 -0.003529 0.000862 -735012.000000 1 0 0
13.359936 10.532285 7.526106 18.602666 0.667596 1.154286 0.015547 -0.009712 668509.000000 1 0 0
-0.981864 15.966985 7.120206 17.510169 -1.509380 1.152031 0.008704 -0.003237 1564390.000000 1 0 0
13.308436 13.352485 6.640906 19.987620 0.787050 1.232107 0.024911 -0.004147 233354.000000 1 0 0
5.406936 17.344585 4.547006 18.728184 1.268607 1.325556 0.018291 -0.007428 1392010.000000 1 0 0
10.807336 9.522085 -1.876994 14.525554 0.722261 1.700379 0.007258 0.001133 657205.000000 1 0 0
3.212236 12.771385 4.725906 13.991459 1.324389 1.226249 0.002836 0.004066 2380620.000000 1 0 0
-0.162264 18.005785 3.542906 18.351753 -1.561785 1.376521 0.000443 -0.007822 2336640.000000 1 0 0
-7.694164 15.958785 -5.819794 18.648137 -1.121549 1.888183 0.016507 -0.010870 -1013600.000000 1 0 0
-12.347364 -9.063415 8.246306 17.395530 0.633206 1.076914 0.017251 -0.009512 -1262670.000000 1 0 0
-13.249364 -11.649515 6.864606 18.930918 0.721232 1.199726 0.024600 -0.006141 -1540630.000000 1 0 0
-6.619264 -12.441115 12.036206 18.532842 1.081841 0.863932 0.020993 -0.013089 -1163440.000000 1 0 0
-1.848564 -10.709115 14.329106 17.984037 1.399865 0.648869 -0.005575 -0.006680 814664.000000 1 0 0
-8.924764 2.912385 11.009806 14.468906 -0.315431 0.706053 0.008610 -0.001604 1839920.000000 1 0 0
0.547336 10.090985 15.110306 18.178254 1.516609 0.589480 0.020332 -0.017369 932917.000000 1 0 0
0.961936 -6.840215 16.539206 17.923705 -1.431083 0.395625 0.003576 -0.014269 1731250.000000 1 0 0
6.119336 2.310185 17.923906 19.080085 0.360980 0.349909 0.025604 -0.008755 48644.700000 1 0 0
-5.136264 -2.944215 17.607606 18.576259 0.520496 0.324359 0.027090 -0.014651 686015.000000 1 0 0
-4.392464 8.124485 12.982706 15.932723 -1.075164 0.618334 0.006306 -0.006335 -1256510.000000 1 0 0
0.007336 -4.823815 18.397506 19.019397 -1.569276 0.256427 0.012485 -0.022907 -1915660.000000 1 0 0
-11.741764 2.124385 11.107206 16.301904 -0.178989 0.821199 0.012712 -0.001722 2404300.000000 1 0 0
-3.470064 -6.138615 14.351806 15.990568 1.056294 0.456690 0.011919 -0.006197 982976.000000 1 0 0
-7.552764 -2.227715 14.646506 16.629104 0.286821 0.493299 0.022735 -0.002873 2330980.000000 1 0 0
-6.199664 -1.162315 10.568206 12.307469 0.185329 0.538103 0.005965 0.001046 1313170.000000 1 0 0
-3.983764 2.306785 11.185006 12.095288 -0.524870 0.390442 0.006622 0.001249 813502.000000 1 0 0
-6.412664 6.215385 13.507906 16.193110 -0.769777 0.584159 0.003871 -0.007487 377054.000000 1 0 0
-9.023664 5.511085 12.531406 16.396180 -0.548277 0.700860 0.003543 -0.008845 -625009.000000 1 0 0
-12.364864 -2.250815 15.903906 20.270428 0.180062 0.668767 0.031183 -0.004259 2537870.000000 1 0 0
-3.470964 -7.663715 16.919806 18.896030 1.145526 0.461432 0.018399 -0.008315 -537002.000000 1 0 0
-0.586464 -5.363615 14.395906 15.373822 1.461888 0.358595 0.001852 -0.002886 1963510.000000 1 0 0
-14.298364 -2.380115 13.653006 19.912628 0.164948 0.815306 0.020862 -0.005426 -1442490.000000 1 0 0
-6.546264 1.435585 12.202606 13.921856 -0.215881 0.502239 0.012045 -0.002223 2214220.000000 1 0 0
2.137136 -2.296215 14.710206 15.040948 -0.821265 0.210098 0.000068 -0.000691 733909.000000 1 0 0
-12.660364 4.036485 9.136906 16.126410 -0.308640 0.968447 0.000629 -0.001553 184717.000000 1 0 0
-9.203664 -2.988615 12.599706 15.886845 0.313979 0.654930 0.010872 0.003530 1458560.000000 1 0 0
-7.090964 -7.231015 15.370006 18.406695 0.795177 0.582623 0.026391 -0.002152 104011.000000 1 0 0
-3.160564 6.172885 19.374306 20.578081 -1.097589 0.343736 0.026727 -0.012476 1316150.000000 1 0 0
0.620136 5.486785 16.146406 17.064460 1.458250 0.329511 0.015537 -0.011553 2108990.000000 1 0 0
3.491136 1.533585 16.854006 17.279972 0.413903 0.222499 0.006633 -0.008747 1104460.000000 1 0 0
-11.823164 11.587985 7.853506 18.323378 -0.775353 1.127847 0.004885 -0.008634 -1429070.000000 1 0 0
0.582636 -9.564715 15.501906 18.224498 -1.509956 0.553656 -0.007774 -0.003394 458274.000000 1 0 0
-2.468464 -3.608615 18.867106 19.367062 0.970857 0.227713 0.027402 -0.021072 2000810.000000 1 0 0
-13.067264 2.298485 13.673106 19.052303 -0.174115 0.770358 0.010190 -0.009946 -165848.000000 1 0 0
-5.399264 -0.564815 15.799906 16.706529 0.104230 0.330955 0.021922 -0.006274 2604930.000000 1 0 0
-4.534664 -6.032915 11.617006 13.853305 0.926238 0.576138 0.004645 -0.000760 -910114.000000 1 0 0
2.493536 1.910385 14.069306 14.415709 0.653748 0.219665 0.003074 -0.003894 663974.000000 1 0 0
0.095236 3.324285 14.245206 14.628255 1.542156 0.229350 0.011718 -0.006927 955539.000000 1 0 0
-13.066364 7.025685 12.069806 19.125123 -0.493345 0.887830 0.008038 -0.010990 972763.000000 1 0 0
0.851936 1.480985 18.222306 18.302228 1.048775 0.093488 0.009542 -0.011491 -234372.000000 1 0 0
-2.036864 6.443085 12.516606 14.224190 -1.264606 0.495035 0.006903 -0.005106 2244220.000000 1 0 0
-13.492964 -2.708515 10.882306 17.544820 0.198103 0.901725 0.020725 -0.003388 -315843.000000 1 0 0
-2.604764 3.629385 13.483206 14.204016 -0.948298 0.319944 0.007934 -0.003235 -795362.000000 1 0 0
3.492036 6.225685 16.329106 17.821144 1.059617 0.412112 0.012872 -0.009637 326509.000000 1 0 0
-3.810464 12.310985 12.330006 17.835612 -1.270631 0.807490 0.019436 -0.013197 -230378.000000 1 0 0
3.705036 -1.460715 17.167306 17.623205 -0.375541 0.227954 0.013713 -0.009709 730026.000000 1 0 0
-15.885764 0.287985 9.203406 18.361458 -0.018127 1.045771 0.024873 -0.006799 -328654.000000 1 0 0
-4.678964 4.618685 15.184906 16.547094 -0.778915 0.408600 0.020400 -0.008021 423450.000000 1 0 0
-7.941164 -8.264115 10.486006 15.534285 0.805324 0.829800 0.014057 -0.009274 2228610.000000 1 0 0
-2.688564 -0.400115 14.723506 14.972311 0.147737 0.182559 0.014404 -0.005805 1480680.000000 1 0 0
-1.824864 1.118885 17.161506 17.294488 -0.550021 0.124090 0.012173 -0.015198 377421.000000 1 0 0
-0.754364 -2.453715 14.473806 14.699688 1.272530 0.175533 0.007478 -0.003234 -122618.000000 1 0 0
5.008136 -8.265315 16.586206 19.196330 -1.026034 0.527576 0.011975 -0.005055 94759.000000 1 0 0
-4.498064 9.977185 10.630106 15.256997 -1.147248 0.799959 0.006113 -0.007832 -319977.000000 1 0 0
-6.290164 2.115985 15.225106 16.608655 -0.324504 0.411062 0.022462 -0.006404 833429.000000 1 0 0
-4.972164 6.859185 17.230006 19.200103 -0.943559 0.456975 0.022628 -0.004740 513993.000000 1 0 0
-4.341164 9.232685 15.652806 18.684178 -1.131276 0.577633 0.017378 -0.005785 -1106470.000000 1 0 0
-4.903464 -9.909715 18.215906 21.308816 1.111306 0.545529 0.041153 -0.010232 543846.000000 1 0 0
-6.884264 -4.115315 11.109306 13.702029 0.538790 0.625316 0.008490 0.002093 2159060.000000 1 0 0
-2.342564 -0.737215 19.490206 19.644318 0.304892 0.125343 0.021132 -0.017678 -269479.000000 1 0 0
-5.820564 -4.539415 15.261106 16.952481 0.662359 0.450502 0.022222 -0.006389 1921720.000000 1 0 0
-12.976364 -0.001315 9.727406 16.217536 0.000101 0.927535 0.009169 -0.000143 1907360.000000 1 0 0
-14.523564 8.872185 10.357506 19.923040 -0.548383 1.024091 0.007682 -0.007054 -1038170.000000 1 0 0
-8.510564 10.524285 12.784806 18.618312 -0.890797 0.813885 0.003304 -0.014832 -519166.000000 1 0 0
-10.508864 7.245385 10.692706 16.651300 -0.603613 0.873491 0.007816 -0.005125 -1059630.000000 1 0 0
-9.855864 -6.622615 14.792806 18.969032 0.591649 0.676387 0.028484 -0.006571 -610934.000000 1 0 0
-0.824864 -13.537815 14.310206 19.716359 1.509941 0.758594 -0.005898 -0.011791 -438219.000000 1 0 0
3.784136 -5.745115 16.928606 18.273033 -0.988350 0.385991 0.007832 -0.012358 1064280.000000 1 0 0
-7.360564 9.420485 10.351706 15.813958 -0.907540 0.857152 0.004428 -0.009149 1473550.000000 1 0 0
-10.254564 -6.734215 11.806506 17.026430 0.581074 0.804568 0.024847 -0.010981 3013050.000000 1 0 0
-10.953464 -4.012015 10.700606 15.829643 0.351102 0.828495 0.018053 -0.000162 133700.000000 1 0 0
-10.062164 -10.211815 9.753806 17.339695 0.792779 0.973374 0.022344 -0.016230 1733030.000000 1 0 0
-9.963964 -3.685815 15.289806 18.618377 0.354305 0.607248 0.034840 -0.009714 1322140.000000 1 0 0
5.529836 -3.285915 16.165306 17.398087 -0.536155 0.378709 0.008784 -0.005534 500940.000000 1 0 0
-11.594864 0.492285 15.315606 19.215905 -0.042432 0.648439 0.025505 -0.006835 -172481.000000 1 0 0
-3.152164 3.354485 18.607806 19.168703 -0.816483 0.242507 0.022487 -0.019655 -324312.000000 1 0 0
0.549636 7.341385 13.908306 15.736550 1.496068 0.486827 0.014175 -0.011914 477565.000000 1 0 0
-13.161764 -7.387215 12.176206 19.392343 0.511449 0.891961 0.025002 -0.014808 757724.000000 1 0 0
-1.546064 -1.130315 12.140506 12.290639 0.631289 0.156462 0.007750 -0.001981 426059.000000 1 0 0
1.994136 -4.857115 13.190206 14.196819 -1.181220 0.378836 -0.005530 -0.001205 755409.000000 1 0 0
-14.753064 -3.950315 8.532806 17.494761 0.261625 1.061303 0.031439 -0.014328 -3184980.000000 1 0 0
8.090036 0.904085 16.252206 18.176915 0.111291 0.464351 0.022492 -0.003959 765761.000000 1 0 0
-1.350764 11.493485 13.446706 17.740876 -1.453809 0.710631 0.012801 -0.005908 900547.000000 1 0 0
2.845636 -12.176715 -13.818394 18.636470 -1.341222 2.406056 0.007371 0.000842 -401500.000000 1 0 0
0.803336 -10.577615 -14.013394 17.575736 -1.494995 2.493629 0.000880 0.001567 -4330910.000000 1 0 0
3.210936 -14.319315 -12.298594 19.147018 -1.350207 2.268323 0.007246 -0.002832 -1765110.000000 1 0 0
-5.134264 -10.200315 -16.042494 19.691843 1.104477 2.522969 0.009987 -0.016204 113525.000000 1 0 0
-1.044964 -12.234915 -14.881094 19.293316 1.485595 2.451690 0.008386 -0.006660 -398193.000000 1 0 0
5.723836 -14.898515 -12.170494 20.071098 -1.203995 2.222283 0.014780 -0.002882 679069.000000 1 0 0
1.835736 -11.801715 -16.097394 20.044363 -1.416485 2.503257 0.012948 -0.002836 -761246.000000 1 0 0
1.280236 -14.192415 -14.106294 20.051214 -1.480834 2.351125 0.023058 0.002536 -432057.000000 1 0 0
-1.004964 -10.609915 -15.945694 19.179296 1.476359 2.552421 -0.000238 -0.007523 -761355.000000 1 0 0
-6.076264 -5.863415 -15.004794 17.217563 0.767573 2.629012 0.022001 0.003724 -82018.500000 1 0 0
-6.296764 -7.679715 -16.969394 19.661831 0.884026 2.612099 0.014804 0.015106 441584.000000 1 0 0
4.904936 -12.456115 -11.504394 17.651183 -1.195666 2.280703 -0.000889 -0.001101 -7620.660000 1 0 0
-1.966164 -15.420015 -13.302994 20.460017 1.443973 2.278637 0.024852 0.002562 -377375.000000 1 0 0
15.738736 -7.356815 -8.510794 19.345908 -0.437257 2.026314 0.024505 -0.006738 581556.000000 1 0 0
19.211536 -3.741415 -4.333494 20.046458 -0.192341 1.788689 0.041822 -0.010936 -155898.000000 1 0 0
15.060836 -11.725515 -8.842994 21.036041 -0.661520 2.004653 0.047442 -0.014054 911460.000000 1 0 0
17.709536 -3.459115 -6.482094 19.173176 -0.192896 1.915674 0.043376 -0.007268 390081.000000 1 0 0
9.639336 -9.075415 -15.413994 20.319231 -0.755275 2.431945 0.055548 -0.019728 6972.890000 1 0 0
1.314236 1.894185 -15.291194 15.464015 0.964226 2.991949 0.012813 -0.006897 -124651.000000 1 0 0
4.865736 -4.376315 -13.966594 15.423789 -0.732492 2.703407 0.007040 -0.001125 581349.000000 1 0 0
13.096236 -5.495815 -8.537494 16.571185 -0.397329 2.112039 0.018637 -0.003313 -1216250.000000 1 0 0
3.025736 0.994285 -12.200994 12.609835 0.317493 2.886253 0.002244 -0.004448 -3323450.000000 1 0 0
0.696536 6.300685 -13.000094 14.463272 1.460694 2.687900 0.011964 -0.004711 -113299.000000 1 0 0
3.010836 -1.107315 -16.799394 17.102951 -0.352423 2.952905 0.023396 -0.008279 -321564.000000 1 0 0
13.051636 4.239585 -11.284694 17.766924 0.314080 2.259001 0.007609 -0.009731 1184550.000000 1 0 0
-3.899064 9.526685 -16.473694 19.425319 -1.182317 2.583096 0.008307 -0.002561 705772.000000 1 0 0
-0.263364 -4.987215 -17.803294 18.490510 1.518037 2.868103 0.010676 -0.007342 566605.000000 1 0 0
-0.462364 -8.649615 -17.652294 19.662988 1.517392 2.685413 0.008398 -0.006782 -549852.000000 1 0 0
5.560136 -10.131415 -12.214994 16.815670 -1.068874 2.383873 0.001944 -0.002196 445926.000000 1 0 0
1.840936 -9.658515 -18.007894 20.517314 -1.382453 2.641822 0.016360 -0.015302 -903550.000000 1 0 0
10.925336 8.641085 -14.576594 20.162054 0.669181 2.378890 0.032069 -0.026871 -343274.000000 1 0 0
11.037736 -3.726215 -12.840694 17.337812 -0.325575 2.404786 0.016103 -0.002868 677123.000000 1 0 0
5.047736 7.329485 -12.335994 15.211106 0.967702 2.516632 -0.000980 -0.003594 -887989.000000 1 0 0
9.639436 -5.868515 -12.672294 16.968949 -0.546867 2.414023 0.016426 -0.004205 -1033960.000000 1 0 0
-3.330164 0.401385 -15.978894 16.327160 -0.119952 2.934678 0.024587 -0.006147 -1260230.000000 1 0 0
-0.689964 10.619385 -12.829394 16.668556 -1.505915 2.449130 0.004098 -0.002172 -410222.000000 1 0 0
6.705136 -5.594915 -12.553994 15.292635 -0.695381 2.533812 0.008284 -0.001163 178551.000000 1 0 0
17.889636 -5.991615 -8.335794 20.625808 -0.323179 1.986839 0.039068 -0.007655 308195.000000 1 0 0
13.132436 4.921685 -13.860694 19.718080 0.358572 2.350324 0.017902 -0.011752 402394.000000 1 0 0
14.030936 0.905185 -11.453494 18.134747 0.064424 2.254382 0.006362 0.000185 303202.000000 1 0 0
14.964636 6.025485 -11.086594 19.574457 0.382787 2.172904 0.018122 -0.015971 4532.940000 1 0 0
8.255036 1.498185 -11.620994 14.333097 0.179533 2.516280 -0.007480 0.002882 645578.000000 1 0 0
9.878036 1.193985 -8.734294 13.239678 0.120289 2.291224 -0.005124 -0.000054 340427.000000 1 0 0
-0.085064 -5.764215 -13.015094 14.234679 1.556040 2.724629 0.004696 -0.000386 288864.000000 1 0 0
10.573436 -5.764915 -9.006194 15.038062 -0.499171 2.212915 0.011659 -0.005187 -1076130.000000 1 0 0
10.226236 8.368885 -11.202894 17.323942 0.685845 2.274009 0.014971 -0.018343 622377.000000 1 0 0
8.371636 8.110485 -14.528794 18.626597 0.769555 2.465466 0.021861 -0.014657 213675.000000 1 0 0
8.714636 10.522485 -10.611394 17.299401 0.879100 2.231151 0.018800 -0.015542 -820685.000000 1 0 0
7.186236 1.583685 -17.940794 19.391290 0.216910 2.752355 0.029460 0.006449 -1911670.000000 1 0 0
12.094836 2.687785 -12.947394 17.920498 0.218672 2.378194 0.007820 -0.001814 -1983130.000000 1 0 0
2.804136 -0.901615 -19.324294 19.547492 -0.311090 2.990331 0.039002 -0.016301 -161887.000000 1 0 0
10.460936 -2.077315 -15.584094 18.884131 -0.196028 2.541438 0.035742 -0.000896 309212.000000 1 0 0
8.308636 -0.869815 -13.015894 15.466205 -0.104308 2.570980 0.002938 0.000939 421184.000000 1 0 0
0.531236 4.369485 -14.713594 15.357880 1.449812 2.850910 0.010849 -0.006191 813027.000000 1 0 0
4.005536 -7.615015 -15.659394 17.867551 -1.086562 2.639163 0.012953 -0.009480 -964383.000000 1 0 0
11.561236 -5.764315 -14.321194 19.286941 -0.462519 2.407641 0.033244 -0.006170 -1045750.000000 1 0 0
-5.924964 4.393385 -16.854194 18.397578 -0.638042 2.729063 0.014156 -0.002416 678844.000000 1 0 0
11.423936 7.816185 -8.983094 16.501365 0.600039 2.146452 0.014457 -0.014590 -1922070.000000 1 0 0
9.584936 6.046785 -13.518694 17.640570 0.562805 2.443923 0.007442 -0.001515 -686563.000000 1 0 0
12.059036 0.649685 -10.077694 15.729029 0.053823 2.266215 0.002972 0.004108 -1620480.000000 1 0 0
5.499436 -7.433915 -13.747094 16.567724 -0.933870 2.549459 0.007961 -0.003173 -1296420.000000 1 0 0
8.628236 -10.179215 -10.697394 17.102547 -0.867678 2.246550 0.017794 -0.005426 434194.000000 1 0 0
9.868336 5.105185 -16.083094 19.547708 0.477415 2.537048 0.017649 0.003251 433290.000000 1 0 0
9.883236 -0.432715 -10.888394 14.711312 -0.043755 2.404071 -0.000885 0.001448 -1158660.000000 1 0 0
-1.738364 5.431285 -13.875394 15.001578 -1.261034 2.751645 0.009585 -0.006985 218484.000000 1 0 0
1.356736 -0.722615 -14.934094 15.012997 -0.489396 3.039023 0.014387 -0.007525 -2071790.000000 1 0 0
11.479136 -10.471215 -14.341894 21.144900 -0.739512 2.316198 0.053136 -0.015522 162074.000000 1 0 0
9.440636 -7.745115 -10.749694 16.268630 -0.687058 2.292630 0.017865 -0.006838 -155654.000000 1 0 0
14.101936 -0.988015 -9.719694 17.155559 -0.069948 2.173124 0.012095 0.005536 866140.000000 1 0 0
4.032936 11.035885 -12.197494 16.936180 1.220435 2.374892 0.012880 -0.013404 -808491.000000 1 0 0
-1.238064 2.900385 -16.856694 17.149145 -1.167350 2.956649 0.018553 -0.007818 -236134.000000 1 0 0
5.864936 -0.585315 -17.679894 18.636489 -0.099470 2.819803 0.007659 0.004620 138974.000000 1 0 0
6.304236 -6.595815 -16.197094 18.590159 -0.807997 2.628585 0.021210 -0.003891 -284026.000000 1 0 0
-1.935264 -4.927615 -19.813194 20.508274 1.196565 2.880496 0.020698 -0.017806 -557333.000000 1 0 0
0.017336 -4.306715 -15.312394 15.906524 -1.566771 2.867417 0.009825 -0.004877 -114104.000000 1 0 0
0.493436 0.738985 -13.021694 13.051977 0.982064 3.073460 0.010149 -0.007777 1209880.000000 1 0 0
15.458636 0.600785 -13.606994 20.602928 0.038845 2.292201 0.018798 -0.006234 658125.000000 1 0 0
-0.122864 7.014085 -16.416994 17.853016 -1.553281 2.737766 0.015179 -0.003889 -79927.400000 1 0 0
-5.000564 -0.621615 -18.257794 18.940409 0.123674 2.872302 0.022355 -0.005355 -103592.000000 1 0 0
10.455936 -8.322715 -13.068094 18.691422 -0.672285 2.345003 0.027706 -0.016614 -59898.400000 1 0 0
4.140836 8.596385 -17.418594 19.860810 1.121900 2.640448 0.022138 -0.014784 -381217.000000 1 0 0
9.202736 0.395085 -16.680894 19.055148 0.042905 2.637061 0.019199 -0.002390 -189627.000000 1 0 0
3.504636 4.746585 -18.501694 19.419712 0.934794 2.832887 0.026192 -0.005770 -27000.400000 1 0 0
1.447336 -8.079615 -15.929994 17.920370 -1.393542 2.665805 -0.001762 -0.010512 458331.000000 1 0 0
4.416936 7.865185 -14.902994 17.420382 1.059106 2.597296 0.005239 -0.000675 651814.000000 1 0 0
-5.737264 -0.409415 -15.297894 16.343481 0.071240 2.781954 0.016375 0.001423 -605994.000000 1 0 0
2.788836 3.371185 -13.765294 14.443885 0.879655 2.833847 0.004706 -0.002865 -1154270.000000 1 0 0
-2.226964 -10.347615 -18.230494 21.080403 1.358814 2.615563 -0.000754 -0.003041 -354858.000000 1 0 0
6.171636 -9.075815 -15.572994 19.051972 -0.973613 2.527671 0.012380 -0.004904 -104499.000000 1 0 0
-1.764664 5.376085 -17.389194 18.286618 -1.253634 2.827007 0.014672 -0.004445 1160450.000000 1 0 0
10.061836 -12.101315 -11.653194 19.582627 -0.877161 2.208159 0.044138 -0.013555 827631.000000 1 0 0
10.878136 3.551185 -9.311294 14.752795 0.315544 2.253837 -0.000082 -0.002755 -699013.000000 1 0 0
4.878936 -0.509615 -10.925794 11.976506 -0.104075 2.719586 0.001277 -0.004124 118175.000000 1 0 0
6.418136 9.427085 -11.360294 16.097164 0.973060 2.354253 0.009352 -0.012574 275672.000000 1 0 0
10.886036 -9.550715 -9.420694 17.276325 -0.720152 2.147537 0.030232 -0.009310 -330721.000000 1 0 0
3.286136 -2.408415 -14.498394 15.059966 -0.632468 2.867647 0.010790 -0.003761 -58258.100000 1 0 0
9.338836 -4.375915 -14.779294 18.021931 -0.438190 2.532334 0.031684 -0.005347 616155.000000 1 0 0
-3.970364 -6.530415 -16.475894 18.162191 1.024530 2.707266 0.007117 -0.006456 -1773720.000000 1 0 0
5.866236 -7.720015 -11.267094 14.864681 -0.921006 2.431003 -0.001055 -0.001164 48501.300000 1 0 0
5.594736 6.605785 -16.786994 18.887579 0.868079 2.665483 0.018164 -0.004965 -1113770.000000 1 0 0
9.430136 1.083285 -19.149194 21.372707 0.114374 2.681395 0.059333 -0.019753 621380.000000 1 0 0
13.001936 5.756385 -9.302194 16.991678 0.416794 2.150117 -0.002964 -0.009897 687529.000000 1 0 0
-1.481664 -0.587515 -17.350894 17.423950 0.377506 3.049987 0.026566 -0.010359 244485.000000 1 0 0
-0.461064 -0.403815 -19.756994 19.766498 0.719301 3.110581 0.029199 -0.014337 22017.800000 1 0 0
2.951036 6.502185 -16.524594 18.001368 1.144743 2.733711 0.014135 -0.001541 -873335.000000 1 0 0
7.610236 3.714085 -15.477894 17.642996 0.454032 2.640967 0.011389 -0.001748 55927.800000 1 0 0
3.086136 -9.870015 -14.906394 18.142271 -1.267749 2.535076 0.007090 -0.001179 147643.000000 1 0 0
9.024436 -10.465615 -13.368794 19.227433 -0.859208 2.339631 0.035907 -0.012225 14311.900000 1 0 0
3.795536 0.127485 -14.775894 15.256126 0.033576 2.890019 0.010045 -0.003729 -1417730.000000 1 0 0
-1.245864 -2.748715 -18.896294 19.135766 1.145240 2.983223 0.029579 -0.013059 855700.000000 1 0 0
9.380436 10.080885 -13.105094 19.009480 0.821375 2.331454 0.029143 -0.018725 262989.000000 1 0 0
4.659036 2.039585 -10.647694 11.799996 0.412637 2.695981 -0.001034 -0.001200 72377.300000 1 0 0
-0.360464 7.001685 -18.984294 20.237514 -1.519359 2.787826 0.029070 -0.005180 56026.600000 1 0 0
0.792536 -1.586915 -17.798394 17.886566 -1.107613 3.042259 0.030155 -0.012080 -3545520.000000 1 0 0
-4.530464 -2.263615 -14.110294 14.991646 0.463362 2.796992 0.018115 -0.003302 -2334330.000000 1 0 0
10.123936 5.945185 -10.348294 15.650128 0.530985 2.293250 0.003337 -0.003523 99954.100000 1 0 0
7.933236 5.047485 -17.759794 20.095363 0.566645 2.654667 0.027201 -0.008528 -238448.000000 1 0 0
11.376736 0.349685 -13.577794 17.717474 0.030727 2.443937 0.010434 0.007011 499848.000000 1 0 0
6.905636 11.874885 -11.908194 18.179818 1.044066 2.285009 0.024142 -0.017512 -292727.000000 1 0 0
-0.872664 0.632585 -15.133794 15.172127 -0.627236 3.070493 0.018761 -0.009391 -861144.000000 1 0 0
-4.690364 -2.953715 -19.240994 20.023481 0.562001 2.861108 0.026404 0.003159 406085.000000 1 0 0
5.784436 -12.081815 -13.924094 19.321240 -1.124275 2.375554 0.012966 -0.006047 130451.000000 1 0 0
2.206136 -4.731315 -14.087994 15.024112 -1.134484 2.786724 0.007615 -0.001488 -237014.000000 1 0 0
11.658736 2.122285 -15.482394 19.497044 0.180062 2.488304 0.019466 -0.000369 316538.000000 1 0 0
9.646636 2.349985 -13.665694 16.891750 0.238952 2.513272 0.004484 -0.001259 122728.000000 1 0 0
-2.228964 -4.200515 -16.439194 17.113144 1.082938 2.860014 0.011551 -0.008002 -1808670.000000 1 0 0
-2.899064 10.067985 -14.205394 17.651122 -1.290432 2.506113 0.004667 -0.006217 64002.200000 1 0 0
3.519936 5.782985 -13.702194 15.283422 1.024025 2.682691 0.003890 -0.001367 -559716.000000 1 0 0
-5.165464 -2.670815 -16.593894 17.583304 0.477196 2.804530 0.020456 0.000993 486311.000000 1 0 0
-4.326664 6.166885 -13.653994 15.594296 -0.959000 2.637424 0.005629 -0.001155 474035.000000 1 0 0
5.924736 -1.137215 -13.990194 15.235527 -0.189637 2.734463 0.005652 -0.002825 -600162.000000 1 0 0
6.979536 -3.164115 -12.773494 14.895895 -0.425629 2.601221 0.006310 -0.002057 887540.000000 1 0 0
2.845936 -3.264815 -18.234094 18.741413 -0.853839 2.908387 0.034737 -0.019289 44598.800000 1 0 0
7.442736 -11.981215 -12.008194 18.524053 -1.014934 2.276079 0.018155 -0.004194 -1558120.000000 1 0 0
-5.987364 -5.374015 -17.562994 19.318057 0.731465 2.712033 0.027496 -0.000165 435413.000000 1 0 0
0.513736 8.653985 -11.881794 14.708243 1.511502 2.511261 0.004043 -0.001431 -13816.000000 1 0 0
0.562336 8.521085 -14.485894 16.815655 1.504898 2.608920 0.008442 -0.003046 383743.000000 1 0 0
7.827736 -2.319615 -15.156494 17.215498 -0.288089 2.647498 0.016295 -0.004051 69796.100000 1 0 0
14.389236 1.445985 -8.942294 17.003106 0.100155 2.124594 0.012019 0.001359 476992.000000 1 0 0
2.799336 10.702385 -14.545894 18.274583 1.314966 2.491393 0.010729 -0.007563 576687.000000 1 0 0
6.183236 0.941785 -15.570594 16.779832 0.151151 2.759630 0.007420 0.003528 485693.000000 1 0 0
16.300636 -5.659215 -10.384894 20.139103 -0.334158 2.112572 0.040915 -0.007288 423173.000000 1 0 0
5.016136 -4.214115 -11.278794 13.043449 -0.698725 2.615368 -0.000021 -0.000484 -551802.000000 1 0 0
9.035636 -3.470315 -17.176994 19.716362 -0.366698 2.628448 0.035285 -0.006246 464166.000000 1 0 0
13.365936 -9.666315 -8.815594 18.702956 -0.626131 2.061614 0.039012 -0.014231 342718.000000 1 0 0
2.390736 -7.678615 -13.557094 15.762980 -1.268960 2.606182 -0.002363 0.000853 -66189.300000 1 0 0
-7.082464 -2.172715 -18.412394 19.846870 0.297660 2.759062 0.023215 -0.000541 89695.200000 1 0 0
-1.431964 -6.474015 -15.794594 17.129874 1.353115 2.744139 0.006546 -0.004102 315071.000000 1 0 0
1.644436 -7.169015 -18.385594 19.802247 -1.345316 2.761041 0.012730 -0.017365 -199991.000000 1 0 0
5.371036 10.777285 -14.495694 18.844709 1.108457 2.448413 0.024033 -0.024733 -347855.000000 1 0 0
5.403036 -3.384815 -17.525994 18.649671 -0.559652 2.792689 0.025936 -0.009058 -284400.000000 1 0 0
4.100636 12.938385 -14.121794 19.586784 1.263876 2.376020 0.017734 -0.016603 -23400.400000 1 0 0
9.165536 10.334885 -15.616694 20.849413 0.845292 2.417383 0.037305 -0.029606 192019.000000 1 0 0
2.536336 3.871085 -16.365694 17.007476 0.990774 2.866002 0.016040 -0.000675 454796.000000 1 0 0
16.576836 1.632685 -11.470094 20.224248 0.098175 2.173832 0.028517 -0.002012 31385.200000 1 0 0
10.064836 -3.679115 -10.544594 15.034137 -0.350453 2.348123 0.010034 -0.000747 -690981.000000 1 0 0
14.663736 -2.230115 -11.871694 18.998307 -0.150927 2.245776 0.030182 -0.003469 -205597.000000 1 0 0
-2.633064 -8.703815 -16.145194 18.529887 1.277031 2.628653 0.004289 -0.000558 -404589.000000 1 0 0
14.082436 8.038985 -8.969494 18.530842 0.518711 2.076051 0.031020 -0.015399 52981.300000 1 0 0
-8.451764 0.271085 -16.839694 18.843596 -0.032063 2.676224 0.007043 0.011041 -379860.000000 1 0 0
-3.501064 4.013585 -15.906094 16.774092 -0.853496 2.818486 0.018485 -0.005430 555935.000000 1 0 0
15.067436 4.011985 -9.526494 18.272322 0.260231 2.119243 0.013116 -0.005534 1157110.000000 1 0 0
5.407236 1.011585 -12.926194 14.048060 0.184942 2.739236 -0.000596 -0.001461 -231840.000000 1 0 0
7.920936 -7.769915 -12.876894 16.997859 -0.775774 2.430363 0.024658 -0.005512 -1673610.000000 1 0 0
3.348236 -6.048515 -11.910394 13.771445 -1.065221 2.615671 -0.000340 -0.000170 -1057040.000000 1 0 0
-3.266764 3.394285 -18.408494 19.001726 -0.804540 2.891058 0.023215 -0.008501 -186784.000000 1 0 0
0.932636 5.143385 -17.821894 18.572672 1.391418 2.856289 0.022251 -0.009599 216142.000000 1 0 0
6.375136 7.080685 -10.156094 13.925685 0.837785 2.388104 -0.004656 -0.000855 398086.000000 1 0 0
9.709636 3.747085 -11.619594 15.599123 0.368305 2.411163 0.002794 0.000084 248938.000000 1 0 0
4.640036 1.764285 -17.582494 18.269831 0.363349 2.866421 0.019292 0.001908 315797.000000 1 0 0
2.683236 8.052685 -13.071494 15.585553 1.249157 2.565675 0.005289 -0.005259 -2723580.000000 1 0 0
14.353736 -3.542015 -9.693494 17.678785 -0.241933 2.151141 0.022053 -0.002596 -111172.000000 1 0 0
-1.274164 9.378985 -16.099394 18.675635 -1.435770 2.610104 0.013843 -0.004572 -1305830.000000 1 0 0
-5.245864 2.013685 -15.809394 16.778288 -0.366517 2.800092 0.016636 -0.003553 369737.000000 1 0 0
4.424736 4.259185 -11.849094 13.346160 0.766336 2.663400 0.000715 -0.000740 711260.000000 1 0 0
9.325236 2.962585 -17.317494 19.890514 0.307611 2.627300 0.024828 -0.009917 943198.000000 1 0 0
-4.082664 14.382985 -13.532694 20.166116 -1.294218 2.306435 0.000125 0.001542 -245327.000000 1 0 0
15.509436 -4.882815 -7.869894 18.064321 -0.305005 2.021567 0.028703 -0.006393 -414329.000000 1 0 0
1.151536 9.185585 -16.953994 19.316804 1.446084 2.641798 0.007307 -0.001835 -497443.000000 1 0 0
0.497036 -3.229115 -12.832494 13.241870 -1.418072 2.892290 0.007657 -0.001021 464516.000000 1 0 0
7.458736 3.597585 -12.942494 15.365009 0.449413 2.572399 -0.004947 0.000547 -143437.000000 1 0 0
-2.925264 7.547385 -15.102494 17.134921 -1.201037 2.649586 0.006305 -0.002292 384828.000000 1 0 0
12.173936 -5.181215 -11.031994 17.226566 -0.402378 2.265823 0.025542 -0.004679 -700831.000000 1 0 0
0.574836 -4.280515 -20.225094 20.681094 -1.437304 2.931209 0.024773 -0.013374 -150480.000000 1 0 0
3.582136 -4.553115 -16.163994 17.170826 -0.904191 2.797446 0.021105 -0.012618 556332.000000 1 0 0
-5.677164 4.100085 -14.353094 15.970354 -0.625475 2.687669 0.007299 -0.002184 862195.000000 1 0 0
12.308536 -7.448515 -9.831394 17.425175 -0.544198 2.170268 0.023290 -0.006500 237081.000000 1 0 0
-2.161064 -1.733515 -15.144094 15.395417 0.676055 2.960656 0.020861 -0.003756 880147.000000 1 0 0
6.984936 5.899285 -14.093894 16.799665 0.701335 2.566127 0.005677 -0.002842 -504290.000000 1 0 0
4.247936 -5.488715 -18.459694 19.721340 -0.912149 2.781961 0.036830 -0.015769 87953.500000 1 0 0
7.657936 7.320985 -12.206394 16.162823 0.762907 2.426777 0.003235 -0.008380 -962611.000000 1 0 0
12.333736 -2.511215 -10.890594 16.644287 -0.200860 2.284072 0.013875 -0.002191 -1156000.000000 1 0 0
7.487536 -0.887615 -10.664494 13.060723 -0.117995 2.526174 -0.001563 -0.001649 -1254360.000000 1 0 0
5.273036 4.029685 -14.296594 15.761849 0.652531 2.706991 0.002301 -0.000483 -978702.000000 1 0 0
14.647736 2.918385 -12.866194 19.713246 0.196663 2.281896 0.015317 -0.012983 -20390.200000 1 0 0
-6.871864 6.673585 -15.847594 18.517708 -0.770761 2.597906 0.012464 0.001539 671607.000000 1 0 0
-11.358864 3.747085 -16.466194 20.351904 -0.318641 2.513371 0.026437 -0.010371 525067.000000 1 0 0
-5.051364 6.619485 -17.759894 19.614987 -0.918960 2.703176 0.015362 -0.001505 -357049.000000 1 0 0
-10.234364 1.552885 -15.597694 18.720089 -0.150584 2.555677 0.019947 -0.005107 -156734.000000 1 0 0
-7.553864 5.756585 -18.205094 20.533499 -0.651182 2.660748 0.006338 0.005468 246839.000000 1 0 0
-8.841064 3.889985 -15.708994 18.440957 -0.414499 2.590310 0.006674 0.006578 -974669.000000 1 0 0
8.991736 13.322185 -12.266494 20.218774 0.977085 2.222684 0.046127 -0.016008 140055.000000 1 0 0
13.907036 9.227985 -11.294494 20.152592 0.585840 2.165724 0.030081 -0.021254 309772.000000 1 0 0
8.467736 15.813985 -9.088394 20.109291 1.079186 2.039746 0.029870 -0.008698 -5053.680000 1 0 0
7.018536 13.480885 -13.890994 20.590139 1.090782 2.311277 0.038552 -0.022145 -391448.000000 1 0 0
4.891736 15.963385 -12.471794 20.839971 1.273447 2.212368 0.039461 -0.019030 93039.700000 1 0 0
11.107536 10.825385 -11.414794 19.257826 0.772535 2.205247 0.040116 -0.024969 -458845.000000 1 0 0
15.818436 9.863785 -9.447694 20.899189 0.557565 2.039870 0.054407 -0.018278 1740230.000000 1 0 0
13.308136 10.543885 -9.012994 19.222748 0.670021 2.058809 0.057230 -0.024409 189438.000000 1 0 0
10.233036 11.790785 -8.316294 17.688934 0.856011 2.060247 0.015227 -0.007964 17521.300000 1 0 0
5.389236 16.154885 -9.973894 19.735824 1.248808 2.100607 0.019789 -0.010032 -23510.800000 1 0 0
6.728336 14.463385 -11.482394 19.654653 1.135376 2.194699 0.026195 -0.008259 -927775.000000 1 0 0
10.758136 13.786485 -9.878194 20.084406 0.908159 2.084991 0.039752 -0.010850 -128926.000000 1 0 0
8.259536 -18.601415 -1.200594 20.388084 -1.152920 1.629717 0.037071 0.000553 -81476.700000 1 0 0
7.490236 -17.367815 -3.383194 19.214334 -1.163626 1.747796 0.029406 -0.000334 246335.000000 1 0 0
4.483836 -18.431015 5.545606 19.762612 -1.332155 1.286366 0.030319 0.002054 241978.000000 1 0 0
9.921736 -17.084815 -2.398194 19.901836 -1.044663 1.691591 0.036834 -0.006818 -381885.000000 1 0 0
-9.539364 -12.438515 -9.872594 18.525232 0.916553 2.132852 0.023644 -0.022150 111237.000000 1 0 0
-5.102464 -6.878815 -12.104894 14.828408 0.932586 2.525827 0.013132 -0.000042 339406.000000 1 0 0
-10.798264 -9.436615 -5.763594 15.455459 0.718207 1.952946 0.018480 -0.012644 -821402.000000 1 0 0
-4.663864 -11.402115 -13.910694 18.581368 1.182525 2.416800 0.016893 -0.011015 532497.000000 1 0 0
-2.784464 -15.608215 7.378006 17.487269 1.394256 1.135248 -0.004513 -0.006891 113889.000000 1 0 0
-4.882964 -12.012415 -11.509594 17.338172 1.184705 2.296724 0.016252 -0.004464 111887.000000 1 0 0
-14.333764 -12.771615 -4.263394 19.665896 0.727829 1.789323 0.021355 -0.008156 -723379.000000 1 0 0
-3.183264 -12.186515 -3.271594 13.013364 1.315293 1.824925 0.009470 -0.005564 484769.000000 1 0 0
-2.196064 -17.281215 -1.499494 17.484609 1.444396 1.656663 0.003075 -0.006074 -22722.400000 1 0 0
-5.838164 -12.220315 3.643306 14.024761 1.125113 1.308005 0.004542 -0.002322 849609.000000 1 0 0
-8.953264 -10.927715 -11.965194 18.513286 0.884387 2.273526 0.022267 -0.004880 -51979.200000 1 0 0
-9.800064 -11.930315 -7.342094 17.096199 0.883117 2.014689 0.026887 -0.023661 623624.000000 1 0 0
-10.890864 -14.974715 6.049006 19.479309 0.941993 1.255041 0.023528 -0.015527 -1619110.000000 1 0 0
-9.443864 -15.740315 0.683806 18.368769 1.030392 1.533561 0.011940 0.004595 -818315.000000 1 0 0
-14.750464 -7.646015 -8.115094 18.490335 0.478226 2.025152 0.015198 -0.011132 -553199.000000 1 0 0
-2.406464 -16.531615 5.058006 17.454764 1.426244 1.276801 0.007414 -0.010674 858243.000000 1 0 0
4.496636 -15.732715 5.990906 17.424953 -1.292404 1.219823 0.019857 -0.006674 -130578.000000 1 0 0
4.294336 -14.588415 -10.068094 18.238138 -1.284516 2.155599 0.002505 -0.001748 -174050.000000 1 0 0
-7.573364 -13.996115 -0.298994 15.916547 1.074808 1.589583 0.010395 -0.000891 1373330.000000 1 0 0
2.916236 -14.722015 9.458506 17.739940 -1.375241 1.008446 0.014235 -0.013560 192111.000000 1 0 0
2.426136 -17.224315 10.155406 20.141882 -1.430862 1.042349 0.037416 -0.010244 -459981.000000 1 0 0
-8.109864 -17.025215 -5.728094 19.708853 1.126252 1.865687 0.034214 -0.020216 -359200.000000 1 0 0
-6.449564 -9.200115 -7.758994 13.654339 0.959379 2.175166 0.023840 -0.010586 449551.000000 1 0 0
-5.889564 -13.088115 -4.852294 15.150263 1.147948 1.896819 0.014209 -0.013486 -49227.500000 1 0 0
2.459636 -19.256415 -4.714294 19.977084 -1.443754 1.809028 0.012370 -0.012130 134461.000000 1 0 0
-5.231364 -12.893515 8.118306 16.109525 1.185355 1.042637 0.002422 -0.010250 1124390.000000 1 0 0
2.202636 -17.484215 3.386006 17.944760 -1.445478 1.380968 0.013244 -0.012997 187655.000000 1 0 0
-17.565564 -10.073915 -2.433594 20.394979 0.520709 1.690405 0.015093 -0.002865 500305.000000 1 0 0
-3.363964 -15.383515 2.434106 15.934040 1.355512 1.417434 0.002066 -0.005686 -403872.000000 1 0 0
-10.289164 -10.510515 -14.136494 20.400448 0.796040 2.336369 0.018203 -0.006505 56123.000000 1 0 0
5.982536 -14.443515 -5.654994 16.624825 -1.178107 1.917877 -0.008702 -0.002256 431851.000000 1 0 0
-7.205664 -12.419615 -10.551094 17.818362 1.045075 2.204517 0.019622 -0.017547 -1655370.000000 1 0 0
-7.358964 -14.323215 3.800406 16.545450 1.096187 1.339032 0.006297 -0.001488 748142.000000 1 0 0
3.223836 -14.823115 -3.119394 15.487042 -1.356644 1.773603 -0.001387 -0.002945 -329957.000000 1 0 0
-7.465164 -11.520415 7.632206 15.706661 0.995832 1.063379 0.006797 -0.012630 -307764.000000 1 0 0
-12.769564 -12.337615 -1.221494 17.798049 0.768196 1.639481 0.007906 0.008860 -2090160.000000 1 0 0
-1.927664 -13.685115 3.991406 14.385047 1.430859 1.289638 0.000170 -0.003677 -2506100.000000 1 0 0
-3.116864 -13.961915 5.229806 15.231572 1.351157 1.220312 0.001548 -0.005590 82204.100000 1 0 0
-14.587264 -10.239615 -4.663194 18.422360 0.612037 1.826707 0.023073 -0.008110 270574.000000 1 0 0
-6.141164 -8.648115 -10.392994 14.849852 0.953313 2.346014 0.015507 -0.004499 274044.000000 1 0 0
0.959236 -19.475015 2.263906 19.629610 -1.521581 1.455208 0.020583 -0.017591 70276.000000 1 0 0
6.460436 -14.123015 -8.227894 17.575409 -1.141772 2.057990 0.004821 -0.002908 -1525570.000000 1 0 0
-3.810764 -16.682615 -5.784694 18.063616 1.346222 1.896779 0.008095 -0.011173 -11221.500000 1 0 0
-3.773764 -13.713515 -13.250294 19.438932 1.302257 2.320794 0.019632 -0.000116 -750347.000000 1 0 0
-8.099064 -14.518015 -4.734494 17.285341 1.061936 1.848244 0.023707 -0.019059 -1137400.000000 1 0 0
-4.444864 -14.406815 9.899606 18.036500 1.271537 0.989790 0.005486 -0.012571 -277497.000000 1 0 0
-0.242964 -12.097815 -10.101294 15.762369 1.550716 2.266400 0.005965 0.001407 936584.000000 1 0 0
2.362136 -17.249015 6.602206 18.619810 -1.434700 1.208332 0.022472 -0.012222 -1041260.000000 1 0 0
-2.819064 -19.104515 -3.429694 19.613577 1.424293 1.746563 0.008309 -0.008388 -1800020.000000 1 0 0
0.630336 -15.397015 -3.147594 15.728087 -1.529880 1.772283 0.000434 -0.004161 -650153.000000 1 0 0
6.036536 -17.972315 0.668806 18.970797 -1.246756 1.535535 0.020935 -0.004001 -348930.000000 1 0 0
-6.987764 -16.785615 3.919706 18.599726 1.176322 1.358464 0.002466 0.000143 456771.000000 1 0 0
-5.095864 -13.544815 -9.466694 17.293008 1.210954 2.150085 0.012741 -0.013359 124624.000000 1 0 0
5.695836 -15.101915 -2.108894 16.277524 -1.210133 1.700720 0.005154 0.000065 -632367.000000 1 0 0
-8.833464 -10.254315 -0.529194 13.544781 0.859699 1.609876 0.008040 -0.000449 -776223.000000 1 0 0
-7.395664 -18.342115 -2.880394 19.985637 1.187529 1.715423 0.026798 -0.014107 888135.000000 1 0 0
7.859436 -16.000915 -1.149394 17.863961 -1.114224 1.635182 0.013596 0.001415 -457896.000000 1 0 0
-8.049064 -10.141115 -9.660694 16.154215 0.899905 2.211836 0.022975 -0.012149 39962.500000 1 0 0
-9.070964 -15.129815 -7.206494 19.055898 1.030713 1.958622 0.035893 -0.015216 -491445.000000 1 0 0
-11.608464 -10.694915 -11.858194 19.742199 0.744461 2.215113 0.035237 -0.004609 809185.000000 1 0 0
6.508036 -16.192315 2.473306 17.625630 -1.188635 1.430007 0.018566 -0.006830 940316.000000 1 0 0
-2.266864 -11.199315 -6.077094 12.941962 1.371084 2.059594 0.009286 -0.004796 -341205.000000 1 0 0
-12.443864 -15.395815 -3.580594 20.117195 0.891037 1.749736 0.022799 -0.002592 262496.000000 1 0 0
-0.306464 -19.848315 -3.063794 20.085725 1.555357 1.723930 0.020427 -0.007283 29585.300000 1 0 0
-5.899564 -15.691615 -4.691594 17.408121 1.211176 1.843676 0.014925 -0.009756 -1586990.000000 1 0 0
1.960236 -15.845415 -0.971894 15.995758 -1.447712 1.631593 0.006973 -0.008478 -323091.000000 1 0 0
-13.310164 -11.816815 5.287706 18.567644 0.726036 1.282019 0.023769 -0.004309 3954.630000 1 0 0
2.133436 -15.264015 -8.961794 17.828501 -1.431927 2.097477 0.004458 0.002074 -478998.000000 1 0 0
-11.799364 -16.717115 0.085606 20.462020 0.956171 1.566613 0.027724 -0.004851 -99270.100000 1 0 0
-7.653764 -16.553415 -1.008394 18.265062 1.137705 1.626033 0.022282 -0.005603 643234.000000 1 0 0
-2.923464 -14.386415 -1.864394 14.798362 1.370316 1.697119 0.004092 -0.003916 427818.000000 1 0 0
-1.779464 -10.359115 -13.258194 16.919145 1.400679 2.471269 0.007966 -0.003473 167889.000000 1 0 0
1.399736 -19.493515 4.782306 20.120309 -1.499114 1.330814 0.029507 -0.017772 -42557.400000 1 0 0
-17.295364 -9.380615 2.514906 19.835582 0.496972 1.443667 0.017327 -0.004978 -536821.000000 1 0 0
-2.605264 -15.768315 -8.025694 17.884041 1.407054 2.036177 0.002821 -0.001859 -796626.000000 1 0 0
-10.430064 -12.186815 0.022106 16.040735 0.862917 1.569418 0.006356 0.003993 709386.000000 1 0 0
-6.825464 -11.515115 -6.458494 14.862603 1.035732 2.020331 0.022350 -0.013642 549816.000000 1 0 0
-2.136364 -13.680515 -6.746894 15.402633 1.415886 2.024208 0.001463 -0.004653 527130.000000 1 0 0
-14.252264 -14.431015 -1.024294 20.308382 0.791630 1.621255 0.017123 0.008164 -78583.800000 1 0 0
-9.735064 -11.249215 -4.500694 15.542604 0.857430 1.864575 0.024398 -0.015584 640499.000000 1 0 0
9.418536 -15.181315 -4.908994 18.527799 -1.015509 1.838951 0.021315 -0.003341 216174.000000 1 0 0
-5.523664 -10.922715 -9.340794 15.396980 1.102596 2.222654 0.019126 -0.009894 179891.000000 1 0 0
-10.289364 -15.817715 -5.024794 19.527408 0.994072 1.831044 0.032571 -0.019192 -1770480.000000 1 0 0
2.364836 -17.223115 -3.199294 17.676640 -1.434344 1.752789 0.007282 -0.005644 618601.000000 1 0 0
-0.314964 -14.433415 -8.292294 16.648868 1.548978 2.092167 0.005128 -0.001874 -925321.000000 1 0 0
-0.234264 -18.389915 -7.095894 19.712827 1.558058 1.939025 0.012194 0.001710 263015.000000 1 0 0
-1.789564 -10.016615 -10.607394 14.698705 1.394002 2.376986 0.008951 -0.001406 395310.000000 1 0 0
-5.010964 -17.186815 2.085306 18.023453 1.287102 1.454837 0.005440 -0.005874 -1058830.000000 1 0 0
0.278736 -12.747515 -2.736994 13.041011 -1.548934 1.782244 0.000458 -0.004077 -1688640.000000 1 0 0
2.641036 -14.980815 3.088206 15.522142 -1.396295 1.370505 0.007070 -0.006048 -930146.000000 1 0 0
-9.365864 -13.126015 6.828106 17.510988 0.951044 1.170238 0.008274 -0.011515 -392241.000000 1 0 0
-0.875364 -17.932615 -4.601394 18.534232 1.522021 1.821685 0.004984 -0.003770 323587.000000 1 0 0
-9.791764 -17.504115 -2.175894 20.174419 1.060767 1.678861 0.035971 -0.012149 -583116.000000 1 0 0
1.339036 -16.029515 1.436106 16.149327 -1.487454 1.481752 0.007873 -0.015275 -116753.000000 1 0 0
-0.413364 -17.967415 3.861206 18.382268 1.547794 1.359170 0.014300 -0.018324 -239922.000000 1 0 0
-17.518264 -9.096515 -0.052794 19.739274 0.478936 1.573471 0.014500 0.000372 730320.000000 1 0 0
-14.749064 -7.117115 -10.613394 19.514926 0.449588 2.145827 0.038686 -0.015829 574330.000000 1 0 0
2.820336 -12.745315 -8.906494 15.802625 -1.353022 2.169544 -0.006969 0.001423 534041.000000 1 0 0
-11.577264 -14.626815 1.570306 18.720112 0.901254 1.486814 0.006469 0.004844 -120188.000000 1 0 0
-2.204164 -15.594815 10.753806 19.070944 1.430387 0.971715 0.003866 -0.006664 -622094.000000 1 0 0
-7.010164 -15.846915 1.351106 17.380811 1.154307 1.492982 0.010032 -0.003767 -1414870.000000 1 0 0
-12.508364 -15.213215 -6.196294 20.646916 0.882662 1.875602 0.030251 -0.004836 768096.000000 1 0 0
0.913336 -13.695615 -5.112994 14.647414 -1.504207 1.927376 0.000875 -0.000245 436045.000000 1 0 0
5.936536 -16.341515 -7.436794 18.910142 -1.222341 1.974982 0.015358 -0.012776 215962.000000 1 0 0
-6.532964 -13.038315 5.831006 15.705983 1.106302 1.190430 0.007903 -0.003205 461771.000000 1 0 0
-2.501564 -13.607615 0.460906 13.843317 1.388991 1.537496 0.005889 -0.005292 2335250.000000 1 0 0
-4.258064 -15.465615 0.126506 16.041582 1.302128 1.562910 0.005695 -0.002799 178518.000000 1 0 0
-17.690464 -7.388515 -2.159794 19.292677 0.395633 1.682980 0.010809 -0.004028 349698.000000 1 0 0
1.164336 -12.721915 -12.053194 17.563663 -1.479529 2.327127 0.004158 0.002693 -592388.000000 1 0 0
1.412936 -17.096815 -5.652794 18.062434 -1.488340 1.889103 0.010885 -0.003004 -1217790.000000 1 0 0
-12.776964 -6.264215 -9.202994 16.946572 0.455837 2.144873 0.021702 -0.006711 366048.000000 1 0 0
-11.363064 -13.734415 -8.526694 19.760007 0.879604 2.016965 0.026642 -0.024930 -26230.600000 1 0 0
-4.252164 -9.896315 3.451106 11.310529 1.164976 1.260728 0.008240 -0.002705 -3761910.000000 1 0 0
-6.998064 -14.392415 9.180306 18.449729 1.118223 1.049984 0.011763 -0.013844 -1354190.000000 1 0 0
-5.152364 -15.924715 -7.959894 18.533842 1.257881 2.014712 0.014443 -0.018066 367998.000000 1 0 0
-0.295164 -13.478915 2.097206 13.644286 1.548902 1.416479 0.004339 -0.009299 372597.000000 1 0 0
-11.058564 -13.398015 -4.912694 18.053620 0.880765 1.846389 0.036094 -0.016272 -245197.000000 1 0 0
-9.692064 -10.592815 6.551106 15.781661 0.829774 1.142734 0.014058 -0.006768 -239572.000000 1 0 0
-15.598364 -7.926915 -4.813594 18.147056 0.470177 1.839265 0.023794 -0.006876 324141.000000 1 0 0
-14.556864 -7.245015 5.398706 17.132967 0.461809 1.250228 0.021955 -0.009352 -245257.000000 1 0 0
-1.540464 -19.322415 -0.022994 19.383737 1.491240 1.571983 0.018762 -0.010698 -459325.000000 1 0 0
-15.328964 -12.000915 -1.495294 19.525240 0.664221 1.647454 0.001488 0.006997 902759.000000 1 0 0
-4.342464 -12.150815 -6.834394 14.601652 1.227562 2.057886 0.008675 -0.008762 -1278600.000000 1 0 0
-7.195964 -18.437215 2.021406 19.894694 1.198684 1.469015 0.005612 -0.002707 -321386.000000 1 0 0
-2.420364 -11.743715 -8.561994 14.733660 1.367544 2.190898 0.005572 -0.001539 813732.000000 1 0 0
-1.515264 -20.379915 -5.299494 21.112119 1.496582 1.824527 0.012151 -0.003344 -92429.500000 1 0 0
-5.238164 -8.784215 -13.865794 17.229656 1.033090 2.506073 0.011133 -0.005004 -203702.000000 1 0 0
-8.436164 -19.081615 -0.602594 20.871991 1.154523 1.599671 0.022481 -0.000447 42424.000000 1 0 0
-17.146564 -7.357715 5.495206 19.450910 0.405344 1.284380 0.038324 -0.011243 -361893.000000 1 0 0
-3.551664 -14.604315 -4.309194 15.635520 1.332235 1.850013 0.007188 -0.006457 -2725590.000000 1 0 0
-2.979464 -14.892215 -10.988294 18.745609 1.373335 2.197132 0.012469 -0.006957 -543444.000000 1 0 0
-0.080664 -16.771915 6.125906 17.855821 1.565987 1.220606 0.023287 -0.012092 -1731990.000000 1 0 0
-11.206464 -11.579115 3.784706 16.552484 0.801751 1.340107 0.006956 -0.000386 -271293.000000 1 0 0
-0.253664 -14.717615 -0.166794 14.720745 1.553563 1.582127 0.001632 -0.005627 -156982.000000 1 0 0
-7.297864 -9.539115 -2.563394 12.281063 0.917735 1.781070 0.013859 -0.006713 -40115.000000 1 0 0
-11.132064 -14.467715 -0.976794 18.280912 0.914968 1.624254 0.015096 -0.002457 61058.100000 1 0 0
0.222036 -14.622415 -10.766594 18.159952 -1.555613 2.205421 0.006016 0.003251 -9210.050000 1 0 0
-1.378264 -13.928915 -3.939494 14.540766 1.472168 1.845153 0.000633 -0.004272 -4907940.000000 1 0 0
-11.558864 -8.007615 -7.631494 15.999029 0.605856 2.068031 0.023607 -0.009590 474887.000000 1 0 0
-0.065864 -17.335015 -0.090994 17.335378 1.566997 1.576045 0.009457 -0.011826 -748489.000000 1 0 0
-12.814664 -9.411515 4.487206 16.520510 0.633464 1.295726 0.009831 -0.002310 -311872.000000 1 0 0
3.927136 -16.807515 1.501806 17.325425 -1.341261 1.484005 0.014240 -0.012237 2002450.000000 1 0 0
-3.777664 -18.121115 -8.017594 20.172440 1.365272 1.979536 0.023351 -0.007901 -35028.700000 1 0 0
-13.375264 -11.141915 2.639306 17.606984 0.694556 1.420328 0.001745 0.001509 -1157330.000000 1 0 0
-8.529264 -12.083115 4.152306 15.362020 0.956133 1.297095 0.005883 -0.003312 249786.000000 1 0 0
-8.209864 -9.459115 -5.870394 13.832507 0.855984 2.009086 0.023338 -0.014080 1059710.000000 1 0 0
3.985936 -17.138115 -5.132794 18.328891 -1.342282 1.854630 -0.000818 -0.004614 -420357.000000 1 0 0
-2.643164 -13.041515 11.321506 17.471231 1.370832 0.865830 0.001370 -0.010136 165699.000000 1 0 0
0.118936 -16.793815 -9.473094 19.281749 -1.563714 2.084376 0.009443 -0.000135 -212148.000000 1 0 0
-7.068964 -10.398715 -14.352094 19.081041 0.973762 2.422138 0.021520 -0.010212 -1579090.000000 1 0 0
-4.348064 -18.712115 -1.394594 19.261199 1.342482 1.643264 0.011404 -0.017333 -1386630.000000 1 0 0
-2.558364 -17.281115 1.101306 17.504143 1.423820 1.507838 0.011702 -0.010460 -1061370.000000 1 0 0
4.059736 -14.570015 -7.487894 16.877065 -1.299053 2.030489 -0.001860 -0.001114 -1300950.000000 1 0 0
-0.765364 -15.905415 -6.192794 17.085628 1.522714 1.941698 0.003986 -0.001292 51641.800000 1 0 0
-9.661964 -15.367515 8.317106 19.967181 1.009522 1.141162 0.021297 -0.012999 -565994.000000 1 0 0
-7.200164 -12.003715 -1.869494 14.121846 1.030503 1.703569 0.012300 -0.003904 981924.000000 1 0 0
-7.225664 -15.105815 -9.460594 19.232751 1.124629 2.085067 0.024274 -0.018785 119318.000000 1 0 0
-5.042364 -13.234415 -0.791594 14.184562 1.206772 1.626632 0.008959 -0.003494 1347270.000000 1 0 0
-6.354364 -13.854215 -7.323894 16.910252 1.140765 2.018730 0.018129 -0.012834 80542.800000 1 0 0
5.705436 -15.336815 0.278206 16.366040 -1.214650 1.553797 0.007376 -0.001069 660841.000000 1 0 0
-14.310364 -12.677915 0.878606 19.138652 0.724984 1.524873 -0.010899 0.002626 896883.000000 1 0 0
0.776436 -15.377415 10.936806 18.886012 -1.520347 0.953177 0.016095 -0.008243 182524.000000 1 0 0
-9.380664 -10.900715 1.860306 14.501144 0.860206 1.442155 0.006054 0.002250 16784.500000 1 0 0
-9.515264 -8.816215 -3.555694 13.450236 0.747283 1.838336 0.014637 -0.008216 -923059.000000 1 0 0
-12.272464 -7.312215 -12.225094 18.802521 0.537342 2.278623 0.029730 -0.005109 377588.000000 1 0 0
-13.256864 -8.368515 -0.688294 15.692362 0.563087 1.614672 0.002171 -0.002261 -441262.000000 1 0 0
-11.244764 -9.762915 0.286106 14.894330 0.714976 1.551586 -0.000538 0.003016 681844.000000 1 0 0
-15.682364 -12.078215 2.974106 20.016621 0.656291 1.421662 0.016059 0.004601 -749988.000000 1 0 0
-10.475464 -12.433115 -2.477794 16.445582 0.870646 1.722039 0.020986 -0.007849 1184020.000000 1 0 0
-3.293964 -8.728015 -12.087594 15.268869 1.209922 2.484301 0.007925 -0.002393 -2101860.000000 1 0 0
-0.259364 -15.497915 3.858306 15.973076 1.554062 1.326833 0.009179 -0.011350 -840958.000000 1 0 0
-15.686364 -7.714915 1.188606 17.521265 0.457085 1.502906 -0.001532 -0.003084 483602.000000 1 0 0
-6.339064 -13.230015 -13.368394 19.847695 1.123973 2.309796 0.018263 -0.003462 -737191.000000 1 0 0
-15.418164 -10.341515 1.002506 18.592249 0.590814 1.516850 0.000888 0.004552 707368.000000 1 0 0
-9.967164 -8.609115 -12.404594 18.092406 0.712421 2.326257 0.018823 -0.003761 514375.000000 1 0 0
-13.331964 -11.703715 -6.426894 18.868576 0.720452 1.918366 0.033584 -0.009926 -250099.000000 1 0 0
-12.343464 -11.258215 -3.973194 17.172501 0.739449 1.804282 0.018642 -0.007088 -1476410.000000 1 0 0
-11.675864 -11.085415 -8.998194 18.443962 0.759463 2.080440 0.027161 -0.023141 130327.000000 1 0 0
-13.242164 -8.378015 -5.884994 16.738554 0.564101 1.930058 0.020534 -0.010580 -2279030.000000 1 0 0
-13.566664 -8.296515 -3.283294 16.237812 0.548859 1.774401 0.014160 -0.005337 108210.000000 1 0 0
-4.256364 -16.914015 -3.128794 17.719759 1.324268 1.748298 0.007384 -0.010386 515135.000000 1 0 0
-15.516864 -8.823615 -1.792394 17.939953 0.517047 1.670874 0.004279 0.000228 -1609200.000000 1 0 0
-9.380864 -15.922115 3.595106 18.826554 1.038377 1.378657 0.003365 0.002569 -533854.000000 1 0 0
4.579436 -17.383415 7.954306 19.657704 -1.313212 1.154210 0.028818 -0.014393 205480.000000 1 0 0
-8.329264 -15.533815 6.013506 18.623595 1.078608 1.242007 0.003566 0.003093 463556.000000 1 0 0
0.859336 -15.999115 8.420206 18.100000 -1.517136 1.086930 0.021458 -0.010303 201681.000000 1 0 0
-10.920664 -7.849915 -10.124894 16.834356 0.623241 2.216102 0.022219 -0.008003 904599.000000 1 0 0
-4.832564 -15.990115 5.804906 17.684297 1.277302 1.236344 0.002145 -0.011179 -571545.000000 1 0 0
-1.493364 -13.185615 -12.081994 17.946174 1.458020 2.309372 0.010387 -0.000566 -1358100.000000 1 0 0
-6.574564 -14.367315 -2.634394 16.018260 1.141636 1.736009 0.020968 -0.007111 641397.000000 1 0 0
-17.676464 -6.902515 -7.251894 20.314824 0.372283 1.935824 0.032974 -0.012911 351949.000000 1 0 0
-17.361764 -4.028515 -10.338894 20.604672 0.227999 2.096445 0.046805 -0.013336 1131580.000000 1 0 0
-15.302564 -5.194715 -9.023794 18.508981 0.327261 2.080062 0.025603 -0.018217 649866.000000 1 0 0
-16.091664 -5.316415 -5.862594 17.932538 0.319093 1.903844 0.024447 -0.009264 1159010.000000 1 0 0
-15.119364 -4.444115 -12.415794 20.062335 0.285884 2.238088 0.038586 -0.009066 195611.000000 1 0 0
-18.715864 -5.127415 -5.646294 20.210260 0.267400 1.853942 0.037745 -0.010709 -366941.000000 1 0 0
-17.529364 -4.409815 -7.836894 19.701319 0.246453 1.979898 0.036098 -0.014121 511776.000000 1 0 0
12.286336 -7.793915 8.732806 16.969415 -0.565299 1.030232 0.019714 -0.014673 413767.000000 1 0 0
16.129736 -3.384615 1.895806 16.589698 -0.206836 1.456270 0.028826 -0.007979 -106417.000000 1 0 0
11.803636 -2.213815 12.475806 17.316828 -0.185400 0.766354 0.006498 -0.004468 -54237.400000 1 0 0
9.522736 -9.987815 5.375706 14.810035 -0.809231 1.199335 0.005317 -0.008411 263914.000000 1 0 0
17.040736 -2.178715 7.272306 18.655292 -0.127163 1.170354 0.052759 -0.016334 81391.600000 1 0 0
5.207636 -12.860015 9.181706 16.637403 -1.186032 0.986190 0.011984 0.003955 -326285.000000 1 0 0
15.197936 -9.023915 -2.053194 17.793928 -0.535818 1.686441 0.026470 -0.007281 -73212.400000 1 0 0
11.060736 -8.446415 6.496306 15.358509 -0.652173 1.134067 0.018543 -0.014042 -2771680.000000 1 0 0
20.238536 -2.969615 3.650206 20.778377 -0.145691 1.394207 0.063795 -0.011120 471944.000000 1 0 0
13.528436 -8.666715 6.785006 17.440379 -0.569760 1.171207 0.034238 -0.017590 -1221080.000000 1 0 0
8.218936 -11.031915 8.798306 16.329857 -0.930494 1.001800 0.005401 -0.002626 -2711400.000000 1 0 0
16.885736 0.161685 -0.710794 16.901463 0.009575 1.612864 0.022227 0.000808 -922038.000000 1 0 0
12.413236 -12.263215 2.255406 17.594366 -0.779319 1.442254 0.027796 -0.010360 -2139550.000000 1 0 0
10.373336 -11.454615 3.659706 15.881050 -0.834894 1.338262 0.015787 -0.008980 -1224660.000000 1 0 0
16.474636 2.938585 2.491806 16.919161 0.176514 1.422981 0.015041 0.002820 -553270.000000 1 0 0
18.368036 -3.320215 0.551106 18.673839 -0.178829 1.541280 0.033311 -0.004899 649597.000000 1 0 0
13.442436 -11.478615 -0.200494 17.677609 -0.706759 1.582138 0.037637 -0.008703 -556642.000000 1 0 0
17.046636 -7.733915 -0.782594 18.735359 -0.425920 1.612579 0.038852 -0.009521 219774.000000 1 0 0
10.059536 -5.736515 9.752906 15.140047 -0.518262 0.870846 0.007686 -0.008794 -1041790.000000 1 0 0
11.158936 -13.413515 5.956306 18.436968 -0.876894 1.241832 0.018411 -0.010148 351787.000000 1 0 0
12.998336 -1.865215 10.216506 16.637691 -0.142523 0.909605 0.022637 -0.006949 -218804.000000 1 0 0
15.699736 -1.956715 -1.434794 15.886128 -0.123994 1.661237 0.020219 -0.002898 339208.000000 1 0 0
10.414136 -12.352915 8.754906 18.376537 -0.870350 1.074221 0.022085 -0.016535 309969.000000 1 0 0
14.736336 1.090985 3.434406 15.170530 0.073899 1.342430 0.022501 -0.002370 1181110.000000 1 0 0
14.980236 -5.899115 5.140206 16.900554 -0.375144 1.261756 0.042884 -0.019076 -768176.000000 1 0 0
14.355636 -3.363415 -2.903094 15.027468 -0.230141 1.765204 0.011652 -0.001101 666340.000000 1 0 0
14.053036 0.514885 9.558806 17.003638 0.036622 0.973798 0.030831 -0.006706 451726.000000 1 0 0
15.624836 -3.481515 4.472106 16.620956 -0.219238 1.298375 0.037701 -0.012647 -530311.000000 1 0 0
18.664336 4.814185 -4.197194 19.726892 0.252433 1.785200 0.016497 -0.001555 653289.000000 1 0 0
18.037836 -5.759615 -5.244894 19.648043 -0.309075 1.841015 0.040870 -0.010438 609278.000000 1 0 0
17.453936 -0.054815 5.919106 18.430374 -0.003141 1.243842 0.047965 -0.006947 925739.000000 1 0 0
17.081836 -6.815615 4.048806 18.831743 -0.379642 1.354106 0.059610 -0.021654 123548.000000 1 0 0
9.549036 -6.716415 14.318506 18.474683 -0.612978 0.684028 0.008596 -0.004247 -881012.000000 1 0 0
8.599536 -12.314115 5.226706 15.903078 -0.961180 1.235912 0.009098 -0.005190 -1702010.000000 1 0 0
16.846936 -10.299115 -0.560194 19.753603 -0.548712 1.599159 0.041647 -0.005798 -466377.000000 1 0 0
15.042836 -8.890115 0.525706 17.481345 -0.533766 1.540719 0.045737 -0.015497 147569.000000 1 0 0
9.958136 -12.934815 1.642506 16.406454 -0.914699 1.470515 0.017195 -0.008134 482568.000000 1 0 0
16.943136 -8.205315 8.918306 20.831064 -0.450997 1.128379 0.066558 -0.016759 591341.000000 1 0 0
19.149736 -0.086715 -2.140994 19.269244 -0.004528 1.682136 0.030867 0.007122 103007.000000 1 0 0
13.362136 -1.221315 7.712806 15.476616 -0.091148 1.049099 0.020925 -0.011673 335417.000000 1 0 0
12.845536 -9.854915 -2.990894 16.464282 -0.654410 1.753470 0.018076 -0.007173 -441730.000000 1 0 0
8.771236 -15.140015 1.460506 17.558123 -1.045706 1.487519 0.016272 -0.003697 492501.000000 1 0 0
11.412036 -8.335815 11.159606 18.007142 -0.630865 0.902395 0.013758 -0.011018 -412330.000000 1 0 0
14.085036 -3.975115 -0.431294 14.641577 -0.275068 1.600257 0.014457 -0.005839 -1235300.000000 1 0 0
7.268436 -13.329615 10.676706 18.560734 -1.071580 0.957910 0.021820 0.004120 -288227.000000 1 0 0
15.469636 -6.761515 1.967906 16.997069 -0.412060 1.454757 0.035916 -0.016093 -89886.000000 1 0 0
15.897436 -6.145915 -2.460194 17.220723 -0.368900 1.714149 0.033781 -0.008718 302963.000000 1 0 0
11.081036 -8.560215 3.885106 14.531369 -0.657753 1.300144 0.021370 -0.013644 919106.000000 1 0 0
10.665836 -14.351815 -0.351594 17.884581 -0.931681 1.590457 0.034291 -0.009006 676028.000000 1 0 0
13.349236 -12.976115 4.582306 19.172354 -0.771226 1.329454 0.029331 -0.012144 208960.000000 1 0 0
12.737436 -11.263315 6.542106 18.218224 -0.724055 1.203496 0.021767 -0.011918 -301903.000000 1 0 0
10.871736 -10.476115 1.346306 15.157709 -0.766868 1.481859 0.015153 -0.010321 309114.000000 1 0 0
13.829636 -7.637415 11.992506 19.834544 -0.504569 0.921499 0.020882 -0.014960 -50394.600000 1 0 0
15.210336 -1.818015 -4.801194 16.053378 -0.118961 1.874521 0.011583 0.002406 -318741.000000 1 0 0
13.023036 -11.446115 -6.978994 18.690087 -0.721042 1.953474 0.040075 -0.007271 447595.000000 1 0 0
17.770336 -5.393515 2.002206 18.678428 -0.294676 1.463396 0.053070 -0.010517 715946.000000 1 0 0
10.521636 -9.783215 9.087806 17.000127 -0.749047 1.006794 0.005159 -0.008883 749907.000000 1 0 0
16.394036 1.733485 9.972106 19.266870 0.105347 1.026779 0.043874 -0.003212 809638.000000 1 0 0
18.207336 3.685285 0.656706 18.588159 0.199709 1.535460 0.009172 0.007065 701696.000000 1 0 0
13.409636 -4.056915 5.869206 15.189617 -0.293783 1.174076 0.029806 -0.015411 -596560.000000 1 0 0
12.201436 -6.256415 6.547706 15.195072 -0.473804 1.125296 0.025843 -0.017395 -281837.000000 1 0 0
16.550036 -10.293115 3.674906 19.833225 -0.556395 1.384429 0.040572 -0.014925 -803857.000000 1 0 0
16.254536 -8.135315 -5.447194 18.975384 -0.464044 1.861959 0.040920 -0.011162 -400438.000000 1 0 0
14.057436 -0.502315 5.404006 15.068746 -0.035718 1.204003 0.020694 -0.006517 1137820.000000 1 0 0
18.513436 -4.366415 5.132206 19.701584 -0.231618 1.307259 0.074798 -0.012061 386930.000000 1 0 0
13.469736 -13.670315 7.039006 20.441597 -0.792789 1.219253 0.034197 -0.012528 -250645.000000 1 0 0
14.929136 -13.615315 -0.675094 20.216618 -0.739403 1.604196 0.038851 -0.005436 772249.000000 1 0 0
17.809436 -5.912115 7.872606 20.349620 -0.320519 1.173564 0.068569 -0.019056 73278.800000 1 0 0
14.322736 3.205985 9.219406 17.332529 0.220209 1.009938 0.022808 -0.004249 -158040.000000 1 0 0
18.833836 3.817485 3.120106 19.468478 0.199984 1.409838 0.030195 0.008552 709163.000000 1 0 0
14.755336 -10.569915 8.179406 19.908433 -0.621612 1.147409 0.036374 -0.018457 -159508.000000 1 0 0
14.685036 -4.981215 10.454306 18.701746 -0.327024 0.977615 0.041425 -0.015916 220938.000000 1 0 0
17.808736 -8.003615 1.963306 19.623035 -0.422372 1.470578 0.062715 -0.017591 382315.000000 1 0 0
18.469736 -5.916515 -1.871094 19.484283 -0.310007 1.666975 0.039520 -0.007859 -992721.000000 1 0 0
14.400836 -12.914615 -5.300394 20.056558 -0.731042 1.838246 0.052291 -0.013078 -489803.000000 1 0 0
15.476136 -1.639015 9.338906 18.149719 -0.105513 1.030316 0.048414 -0.014147 630097.000000 1 0 0
12.867336 -10.037015 10.075606 19.178838 -0.662450 1.017670 0.007470 -0.019314 -1956300.000000 1 0 0
16.646136 2.238585 4.977306 17.517953 0.133679 1.282702 0.023427 0.003501 -1243980.000000 1 0 0
15.055136 2.494985 0.003806 15.260474 0.164231 1.570547 0.005677 0.004247 -946287.000000 1 0 0
15.128936 -9.826215 -7.037994 19.364208 -0.576022 1.942769 0.043394 -0.011047 908428.000000 1 0 0
16.171236 0.011885 -3.237694 16.492170 0.000735 1.768397 0.014988 0.005911 56095.300000 1 0 0
12.098736 2.343885 13.573206 18.333170 0.191359 0.737186 0.034413 0.003716 130182.000000 1 0 0
17.534236 -3.308915 9.662806 20.292071 -0.186518 1.074484 0.047184 -0.011213 505949.000000 1 0 0
7.837136 -18.177815 4.566006 20.315069 -1.163739 1.344100 0.036026 -0.010525 222954.000000 1 0 0
6.802436 -11.135215 6.592806 14.619549 -1.022405 1.102958 0.004345 -0.002143 -221563.000000 1 0 0
18.156636 2.214985 -1.564194 18.358003 0.121393 1.656105 0.027278 0.006311 662717.000000 1 0 0
17.747136 -2.291915 3.719206 18.276931 -0.128432 1.365873 0.041674 -0.007743 -1148290.000000 1 0 0
12.615636 -13.382915 -1.880894 18.487683 -0.814902 1.672710 0.036096 -0.004719 1880960.000000 1 0 0
14.999036 -8.378715 4.415606 17.738983 -0.509435 1.319230 0.045001 -0.017463 -2863.890000 1 0 0
11.146236 -3.220515 14.697806 18.725271 -0.281273 0.668232 0.005709 -0.009620 257469.000000 1 0 0
12.106436 -13.660115 -6.343594 19.323708 -0.845624 1.905279 0.031941 -0.011778 -414141.000000 1 0 0
10.647936 -11.888815 -1.165494 16.002526 -0.840403 1.643693 0.022244 -0.012408 -1113680.000000 1 0 0
13.184236 -8.065915 2.162406 15.606378 -0.549040 1.431790 0.031772 -0.012855 355415.000000 1 0 0
8.746436 -7.841115 10.027706 15.444679 -0.730874 0.864177 0.007805 -0.006978 -1561020.000000 1 0 0
15.495036 -3.896515 8.153906 17.937813 -0.246360 1.098912 0.048606 -0.019432 -1643870.000000 1 0 0
10.245336 -17.344815 5.333406 20.838779 -1.037254 1.311980 0.034144 -0.009567 1216200.000000 1 0 0
15.150836 -6.432915 8.258906 18.415747 -0.401525 1.105744 0.043523 -0.012882 -275424.000000 1 0 0
16.615136 -5.048915 -0.262094 17.367296 -0.295007 1.585888 0.027207 -0.005840 -915443.000000 1 0 0
14.008336 -10.640415 3.514706 17.938926 -0.649602 1.373594 0.042520 -0.016283 69885.600000 1 0 0
15.034036 -10.049315 -4.415594 18.614737 -0.589228 1.810289 0.041243 -0.014050 256276.000000 1 0 0
13.667536 -6.585815 0.085006 15.171741 -0.449029 1.565193 0.025438 -0.010390 561174.000000 1 0 0
17.700236 -0.887215 -5.028394 18.422004 -0.050083 1.847261 0.026940 0.000205 -725865.000000 1 0 0
14.421936 0.295285 -1.541494 14.507089 0.020472 1.677255 0.011846 0.002062 -1646300.000000 1 0 0
5.000336 -13.005915 11.841506 18.286017 -1.203752 0.866403 0.016571 0.004288 -589916.000000 1 0 0
11.805636 -7.666115 13.617106 19.584890 -0.575926 0.801978 0.004641 -0.010128 -266829.000000 1 0 0
11.987236 -5.899915 11.649406 17.726011 -0.457375 0.853708 0.009226 -0.007912 272025.000000 1 0 0
13.179936 -4.711915 8.447306 16.348389 -0.343347 1.027798 0.027999 -0.017112 -1069380.000000 1 0 0
15.438736 -1.243215 3.190606 15.813921 -0.080352 1.367642 0.028888 -0.004697 -51632.900000 1 0 0
15.132836 -10.563715 5.795006 19.343652 -0.609427 1.266542 0.047216 -0.016683 12929.300000 1 0 0
13.697036 -8.089915 -5.682394 16.892161 -0.533503 1.913880 0.030049 -0.009382 -496023.000000 1 0 0
9.400736 -1.851815 13.288406 16.382454 -0.194496 0.624704 -0.001880 -0.009767 -652988.000000 1 0 0
9.644736 -9.221015 13.619106 19.066412 -0.762942 0.775175 0.018522 -0.008832 225261.000000 1 0 0
20.365736 6.393985 -3.062594 21.564455 0.304213 1.713299 0.034368 0.001726 -190771.000000 1 0 0
11.081336 -3.668615 10.516106 15.711245 -0.319705 0.837481 0.011861 -0.004521 962934.000000 1 0 0
10.142436 -13.907815 -2.813594 17.441692 -0.940700 1.732819 0.020907 -0.004383 304287.000000 1 0 0
14.906036 -12.828715 2.550706 19.831085 -0.710638 1.441817 0.037503 -0.005750 522617.000000 1 0 0
11.436236 -0.544315 14.473306 18.454277 -0.047560 0.669263 0.031233 0.002261 346195.000000 1 0 0
19.265936 -2.012015 5.852706 20.235579 -0.104057 1.277376 0.071747 -0.010266 1121470.000000 1 0 0
18.990236 -0.582315 8.004406 20.616466 -0.030654 1.172061 0.056791 -0.005800 431958.000000 1 0 0
19.195236 0.827685 0.363206 19.216505 0.043093 1.551894 0.038855 -0.001816 395965.000000 1 0 0
18.546536 0.804885 3.788106 18.946545 0.043371 1.369503 0.026322 -0.002370 218600.000000 1 0 0
16.629836 -3.915015 -4.068594 17.562239 -0.231211 1.804587 0.029937 -0.004327 505745.000000 1 0 0
10.730936 -8.473315 15.877406 20.953331 -0.668377 0.710937 0.020538 -0.008885 303905.000000 1 0 0
16.501636 -7.600215 6.413006 19.266393 -0.431612 1.231462 0.051507 -0.017645 581812.000000 1 0 0
18.990036 2.124685 5.954206 20.014702 0.111421 1.268732 0.043382 0.003031 352589.000000 1 0 0
15.336236 1.617085 7.539606 17.165685 0.105054 1.116060 0.037030 -0.008428 -10757.300000 1 0 0
8.789036 -15.729015 3.867006 18.428315 -1.061238 1.359385 0.018331 -0.009968 422052.000000 1 0 0
11.279636 -15.263115 2.026906 19.086676 -0.934364 1.464401 0.030125 -0.002380 167819.000000 1 0 0
8.029336 -16.141115 6.194306 19.062404 -1.109194 1.239839 0.024608 -0.008525 20210.900000 1 0 0
14.629736 -11.610215 -2.436894 18.835198 -0.670829 1.700540 0.035134 -0.007112 613153.000000 1 0 0
13.736436 -4.686915 3.226506 14.868328 -0.328817 1.352051 0.024759 -0.008128 -1569480.000000 1 0 0
-1.161964 10.244985 -5.558794 11.713671 -1.457861 2.065256 0.006496 0.000371 -1870990.000000 1 0 0
8.284636 -1.842015 -7.947794 11.627366 -0.218782 2.323401 -0.004160 -0.001816 -2243240.000000 1 0 0
2.875836 -10.242315 7.687206 13.125112 -1.297065 0.945069 -0.008413 -0.000651 451747.000000 1 0 0
-6.311064 1.348085 8.332906 10.539648 -0.210444 0.658968 0.002175 0.001411 -33238.400000 1 0 0
7.270236 -6.257515 -7.060994 11.910938 -0.710675 2.205347 -0.003837 -0.003477 -149616.000000 1 0 0
-11.275364 -4.499715 -4.139994 12.826567 0.379709 1.899448 0.010290 -0.006626 287830.000000 1 0 0
2.102036 -3.203815 2.929706 4.823501 -0.990142 0.918036 0.000531 -0.001218 1614290.000000 1 0 0
-3.642864 -4.258215 8.807606 10.439194 0.863123 0.566647 -0.000981 -0.000703 -2050340.000000 1 0 0
-4.725664 -1.124715 -2.459994 5.445040 0.233654 2.039563 0.003045 -0.002072 -308318.000000 1 0 0
5.043836 -5.235115 -3.606294 8.114928 -0.804005 2.031303 0.002054 -0.006194 37721.900000 1 0 0
2.710236 14.176585 -8.748294 16.877607 1.381899 2.115702 0.011002 -0.004223 865249.000000 1 0 0
5.375836 -5.509315 13.712406 15.725210 -0.797660 0.511520 -0.001127 -0.002419 -869003.000000 1 0 0
-4.749964 -1.016415 9.901906 11.029189 0.210804 0.456068 0.007780 0.000997 -1578760.000000 1 0 0
-0.938664 11.991585 -2.642094 12.315026 -1.492679 1.787020 0.003248 0.000437 654323.000000 1 0 0
3.158536 9.307985 -10.501494 14.383891 1.243653 2.389246 0.007200 -0.002449 -192256.000000 1 0 0
-10.615764 2.640885 1.066806 10.991215 -0.243821 1.473583 0.001933 0.000291 198115.000000 1 0 0
5.699736 -8.967815 -0.746694 10.652053 -1.004627 1.640952 -0.001689 -0.006568 723584.000000 1 0 0
-7.027664 5.487685 9.414906 12.967005 -0.662966 0.758212 0.002644 -0.003037 17069.500000 1 0 0
-5.560364 -1.898515 5.211206 7.853577 0.329026 0.845248 -0.001136 -0.000754 452655.000000 1 0 0
6.614936 -3.808315 -7.297794 10.560229 -0.522371 2.333756 -0.001840 -0.003807 381246.000000 1 0 0
6.276836 4.855785 11.153306 13.688446 0.658437 0.618417 0.003563 0.000963 408853.000000 1 0 0
3.685036 -9.830015 3.290806 11.001731 -1.212134 1.267029 -0.009394 -0.001969 1357810.000000 1 0 0
-6.697964 6.510885 -5.751494 10.969687 -0.771236 2.122698 -0.002805 -0.000029 -346835.000000 1 0 0
-11.089864 8.441085 5.240806 14.889696 -0.650601 1.211116 -0.000902 -0.005912 343311.000000 1 0 0
-9.142864 -5.518815 5.147606 11.855257 0.543077 1.121641 0.003582 -0.001306 -757174.000000 1 0 0
3.304236 9.744085 -8.021894 13.046684 1.243863 2.233006 0.007639 -0.001322 959909.000000 1 0 0
-8.150464 -8.611815 6.021306 13.298479 0.812914 1.100914 0.005916 -0.001306 -2269070.000000 1 0 0
-7.763364 -5.764815 -7.450094 12.206835 0.638727 2.227263 0.014932 -0.003199 -5710.570000 1 0 0
9.248536 -1.627315 7.085906 11.764082 -0.174171 0.924375 0.005585 -0.009743 1232470.000000 1 0 0
-4.058064 -0.390015 -4.836394 6.325401 0.095814 2.441215 0.006312 -0.005765 -1995330.000000 1 0 0
9.078236 1.154585 -4.452594 10.177083 0.126503 2.023626 0.000905 -0.001080 -2556320.000000 1 0 0
-1.785464 -10.629015 10.640606 15.145505 1.404370 0.791810 -0.010075 -0.004019 -471413.000000 1 0 0
-12.948864 0.298485 -2.698794 13.230483 -0.023047 1.776221 0.012491 -0.003482 -995888.000000 1 0 0
-9.856264 -5.208315 -6.003394 12.661486 0.486130 2.064790 0.011281 -0.006262 -1220470.000000 1 0 0
-5.673364 8.290985 -0.124294 10.047037 -0.970698 1.583168 -0.002607 -0.001856 1129540.000000 1 0 0
6.218236 9.606385 0.397506 11.450201 0.996320 1.536073 0.011041 -0.003458 513174.000000 1 0 0
-0.503964 -12.077215 -0.085694 12.088029 1.529092 1.577886 0.005169 -0.004027 -773237.000000 1 0 0
6.176836 4.765685 2.399706 8.162331 0.657146 1.272390 0.002773 -0.000072 90473.700000 1 0 0
3.538936 -7.531115 -8.288794 11.745035 -1.131510 2.354246 -0.002551 -0.005306 850142.000000 1 0 0
-6.515664 -9.903815 4.533306 12.692135 0.988891 1.205555 0.007951 -0.001563 -1736330.000000 1 0 0
-0.133464 6.525285 -9.185794 11.268362 -1.550346 2.523844 0.006769 -0.001828 -2710850.000000 1 0 0
-17.324764 -2.813415 4.205806 18.048589 0.160987 1.335607 0.034649 -0.012238 297569.000000 1 0 0
-8.315564 0.793785 -9.188794 12.418238 -0.095169 2.403783 0.001925 -0.000460 1358270.000000 1 0 0
-10.002364 -6.029115 -11.822394 16.618258 0.542453 2.362299 0.015544 0.006585 -1020500.000000 1 0 0
2.089336 9.534785 6.495706 11.724831 1.355078 0.983620 -0.001192 0.004784 828170.000000 1 0 0
-11.310764 1.625585 -1.281494 11.498615 -0.142743 1.682476 0.009197 -0.001276 -1004890.000000 1 0 0
-6.143664 -5.324915 -3.042294 8.680719 0.714128 1.928865 0.014300 -0.003984 868716.000000 1 0 0
-6.995564 -8.296515 1.225706 10.921192 0.870267 1.458327 0.010443 -0.000675 -130404.000000 1 0 0
0.022936 11.088585 -7.820194 13.568813 1.568728 2.185034 0.009848 0.000703 201687.000000 1 0 0
-2.999364 9.270685 -4.289994 10.646400 -1.257893 1.985537 0.002469 0.000423 199256.000000 1 0 0
3.448836 -4.795415 9.372006 11.078130 -0.947304 0.562374 -0.004142 -0.000220 -773555.000000 1 0 0
-8.958464 1.550185 -0.503894 9.105551 -0.171345 1.626164 -0.000658 -0.001202 -1843370.000000 1 0 0
2.508336 3.575185 -10.265594 11.155990 0.959000 2.739353 0.002247 -0.004328 -880464.000000 1 0 0
-13.658564 0.499385 1.112806 13.712917 -0.036546 1.489557 0.008461 -0.002226 113829.000000 1 0 0
9.509236 -12.620615 -5.062594 16.593232 -0.925079 1.880840 0.018089 -0.002804 -1032250.000000 1 0 0
-4.754164 9.506885 -8.477794 13.596174 -1.107088 2.244062 -0.004529 0.002527 -399340.000000 1 0 0
-2.291664 7.231185 8.441006 11.348672 -1.263895 0.732077 0.005503 -0.000058 -578865.000000 1 0 0
-10.635464 -1.184715 -4.483194 11.602400 0.110936 1.967524 0.007874 -0.003423 -3536480.000000 1 0 0
2.708436 -7.175915 9.692806 12.360415 -1.209893 0.669421 -0.006847 0.002321 -773470.000000 1 0 0
-16.056864 -6.365415 3.323006 17.589308 0.377425 1.380732 0.014842 -0.009478 286212.000000 1 0 0
-10.731964 -0.045615 6.168106 12.378314 0.004250 1.049160 0.001909 -0.000528 919123.000000 1 0 0
-8.403064 9.966485 9.236306 15.976598 -0.870303 0.954380 0.002447 -0.010800 417661.000000 1 0 0
0.207836 -6.140515 -3.829694 7.239867 -1.536963 2.128186 0.001424 -0.002357 711004.000000 1 0 0
4.937836 1.397085 -3.013294 5.950967 0.275728 2.101747 0.000856 -0.001102 1363790.000000 1 0 0
0.386336 5.345285 3.818906 6.580682 1.498646 0.951674 -0.002309 0.002445 -2129640.000000 1 0 0
6.053036 -11.279015 -1.515294 12.889978 -1.078250 1.688625 -0.002852 -0.006008 -2331140.000000 1 0 0
6.120136 -13.345615 5.282106 15.603273 -1.140824 1.225447 0.001030 -0.006023 536935.000000 1 0 0
8.255836 -8.206315 -5.897794 13.049383 -0.782390 2.039757 0.001830 -0.005994 575785.000000 1 0 0
-13.062564 -1.378915 -4.631494 13.927768 0.105173 1.909788 0.011258 -0.002748 -2991950.000000 1 0 0
-6.664064 -1.455115 -7.141394 9.875557 0.214978 2.379132 0.010499 -0.004497 -1423700.000000 1 0 0
-5.694964 12.912885 -4.540194 14.825269 -1.155427 1.882044 -0.000083 0.003704 326912.000000 1 0 0
-4.370564 6.964685 -6.798194 10.668839 -1.010378 2.261657 0.001380 0.001095 -2107720.000000 1 0 0
-9.362764 -3.734815 -8.160194 12.969154 0.379558 2.251320 0.010534 -0.002428 510426.000000 1 0 0
-2.237164 -6.414515 9.160406 11.404558 1.235221 0.638110 -0.001489 -0.000483 -472885.000000 1 0 0
7.388936 -6.037215 10.050206 13.858246 -0.685058 0.759450 -0.003598 -0.000643 242396.000000 1 0 0
9.688936 -5.139215 12.299206 16.479001 -0.487687 0.728226 0.009288 0.002493 -94039.600000 1 0 0
-6.471064 2.783885 -9.021894 11.446365 -0.406271 2.478656 -0.000833 -0.001256 253493.000000 1 0 0
7.433136 5.455785 8.834106 12.769437 0.633170 0.806795 -0.000939 0.002182 458362.000000 1 0 0
12.735236 3.265085 11.209406 17.277089 0.250976 0.864788 0.024712 0.002473 -418620.000000 1 0 0
-7.515864 -7.216015 -3.939994 11.139238 0.765047 1.932325 0.017401 -0.009191 -1491610.000000 1 0 0
2.370836 1.455185 -5.826294 6.456325 0.550495 2.696142 -0.000435 -0.002042 11415.900000 1 0 0
12.732236 6.864985 -7.008794 16.073613 0.494499 2.021994 -0.000443 -0.009151 219837.000000 1 0 0
0.815736 -7.836015 1.026006 7.944887 -1.467069 1.441294 -0.000605 -0.002691 -54953.700000 1 0 0
-10.195164 -6.124515 -8.492294 14.614038 0.540954 2.190882 0.015552 -0.004268 509699.000000 1 0 0
-6.664664 0.256585 3.179006 7.388482 -0.038480 1.126010 -0.001591 -0.001069 661952.000000 1 0 0
10.786236 -7.870815 1.368306 13.422551 -0.630388 1.468678 0.009581 -0.009627 -72554.600000 1 0 0
6.230336 1.050585 10.666206 12.397127 0.167053 0.534787 0.000158 0.001698 195092.000000 1 0 0
-12.905364 5.276785 1.851406 14.064871 -0.388141 1.438780 0.004205 0.000552 122010.000000 1 0 0
1.997736 7.403585 3.700106 8.514388 1.307240 1.121234 -0.005563 0.003965 78892.100000 1 0 0
10.084936 -9.343015 -0.805794 13.771244 -0.747228 1.629343 0.007794 -0.008295 778153.000000 1 0 0
6.801436 -11.651815 -9.105294 16.276692 -1.042431 2.164466 -0.001201 -0.003782 -654145.000000 1 0 0
10.310036 3.523385 11.970406 16.186467 0.329300 0.738422 0.005208 0.004461 -277467.000000 1 0 0
-11.029564 -3.050615 -1.897694 11.599947 0.269839 1.735130 0.006824 -0.002240 -20176.500000 1 0 0
12.327636 1.007085 6.878606 14.152740 0.081512 1.063259 0.014975 -0.004177 -193432.000000 1 0 0
-9.533864 9.102085 3.111606 13.543435 -0.762233 1.338975 -0.001481 -0.004989 -12791.300000 1 0 0
-6.599464 7.741285 -8.827594 13.468736 -0.864851 2.285527 -0.004768 0.001649 -812737.000000 1 0 0
8.602336 5.462885 12.097806 15.817718 0.565791 0.700025 0.011741 0.001072 -3763620.000000 1 0 0
1.290036 4.831885 -2.674294 5.671257 1.309898 2.061847 -0.000237 -0.002159 1046270.000000 1 0 0
1.418736 0.494685 9.522706 9.640511 0.335499 0.156491 0.005146 -0.000212 734694.000000 1 0 0
2.640136 12.595085 -3.951694 13.461886 1.364172 1.868731 0.008168 -0.004119 484507.000000 1 0 0
2.052236 0.610985 13.239206 13.411247 0.289361 0.160347 0.002643 -0.002188 439618.000000 1 0 0
-12.145464 -1.810515 0.812906 12.306546 0.147979 1.504693 0.007120 -0.002572 241696.000000 1 0 0
3.217936 8.663685 -1.262394 9.327818 1.215161 1.706549 0.004000 -0.001627 483181.000000 1 0 0
3.675836 -2.805615 -5.847194 7.454725 -0.651933 2.472461 -0.000677 -0.002421 -1048410.000000 1 0 0
-7.624664 -7.287615 9.250906 14.029401 0.762800 0.850784 0.006107 -0.003470 -288069.000000 1 0 0
-7.051364 10.845385 -3.523794 13.407507 -0.994300 1.836743 0.003525 0.003394 195969.000000 1 0 0
0.263536 0.428385 2.488406 2.538726 1.019287 0.199433 0.000790 0.000653 -2624300.000000 1 0 0
-6.992164 4.539785 -1.945494 8.560664 -0.575860 1.800059 0.001834 -0.002334 -605269.000000 1 0 0
-7.106964 -3.825415 -6.003094 10.058821 0.493787 2.210302 0.006336 -0.005257 -599109.000000 1 0 0
2.809836 -6.198015 13.520806 15.136801 -1.145165 0.466294 -0.005614 -0.003183 1188790.000000 1 0 0
-5.410364 -0.614515 -11.812594 13.007192 0.113096 2.709661 0.014930 -0.002324 -180179.000000 1 0 0
11.938636 2.469385 -0.637694 12.208011 0.203964 1.623056 0.006702 -0.002276 -1820020.000000 1 0 0
6.143536 -10.986915 10.761606 16.561023 -1.060941 0.863455 0.007148 0.001872 396067.000000 1 0 0
-8.136364 6.531485 -10.518794 14.815727 -0.676417 2.360259 -0.007392 0.000987 149357.000000 1 0 0
2.825536 7.815385 11.183406 13.933143 1.223882 0.639075 0.005788 -0.002963 855417.000000 1 0 0
-6.209564 -10.215115 -0.436594 11.962352 1.024603 1.607302 0.015391 -0.004644 -328624.000000 1 0 0
11.333036 4.313685 6.099906 13.574035 0.363697 1.104725 0.004422 0.000196 726124.000000 1 0 0
-7.887064 10.631785 1.483806 13.320748 -0.932539 1.459174 0.000312 -0.000544 541234.000000 1 0 0
4.322236 -2.652315 -3.467194 6.143120 -0.550392 2.170506 0.001213 -0.003994 -4751380.000000 1 0 0
6.337236 6.571485 6.351406 11.121391 0.803543 0.962953 0.002511 0.002704 -5045500.000000 1 0 0
-0.437964 10.231185 -10.168094 14.431185 -1.528016 2.352644 0.004884 -0.000155 -776979.000000 1 0 0
14.146836 6.603585 -2.513294 15.813189 0.436728 1.730410 0.011658 0.003169 754598.000000 1 0 0
1.408036 9.454085 -6.137294 11.359079 1.422949 2.141588 0.007957 -0.001808 2338070.000000 1 0 0
0.673936 7.352985 7.291006 10.376866 1.479397 0.791722 -0.001392 0.003973 -58750.800000 1 0 0
12.268736 6.359985 1.825106 13.939236 0.478251 1.439486 0.004918 0.000160 -1521930.000000 1 0 0
-6.915064 6.669185 -3.130694 10.104325 -0.767300 1.885818 -0.002052 -0.001367 -119752.000000 1 0 0
1.007236 9.834185 11.214906 14.949911 1.468730 0.722484 0.011594 -0.004710 -219352.000000 1 0 0
-3.777264 13.653785 -11.019994 17.948088 -1.300901 2.231905 -0.004219 0.002952 230910.000000 1 0 0
-10.028364 -5.424115 -2.264794 11.624044 0.495812 1.766888 0.009434 -0.005577 -374541.000000 1 0 0
-3.946064 3.970185 -12.488394 13.685532 -0.788445 2.720213 0.008478 -0.005049 -841392.000000 1 0 0
-3.131964 8.502485 2.428106 9.380680 -1.217861 1.308974 -0.000887 0.001869 -889900.000000 1 0 0
7.123736 8.954985 7.147706 13.491815 0.898802 1.012454 0.004444 0.003311 -383721.000000 1 0 0
-1.315364 -2.287215 -8.223094 8.636018 1.048891 2.831109 0.007495 -0.006415 -1129660.000000 1 0 0
0.790736 -1.318015 4.861006 5.098216 -1.030418 0.306246 0.003283 -0.001536 -905655.000000 1 0 0
2.884336 -8.824715 -6.076694 11.095999 -1.254894 2.150346 -0.003147 -0.003853 424692.000000 1 0 0
5.340036 3.899585 8.858706 11.054385 0.630744 0.641206 0.000949 0.002926 -1047690.000000 1 0 0
6.066736 -7.577015 -2.787994 10.098977 -0.895643 1.850496 0.000270 -0.008075 573906.000000 1 0 0
1.750136 2.165685 -8.265794 8.722185 0.891123 2.816668 0.003623 -0.003973 67559.600000 1 0 0
-5.380764 10.886585 -0.642394 12.160717 -1.111754 1.623646 -0.004789 0.001926 271519.000000 1 0 0
-5.274364 3.299985 -3.374994 7.078093 -0.559077 2.067833 -0.001953 -0.000396 39387.700000 1 0 0
2.030236 13.701885 -6.276094 15.207001 1.423695 1.996225 0.006192 -0.000678 842685.000000 1 0 0
-5.346864 -2.503415 2.658706 6.474933 0.437887 1.147668 -0.006849 -0.001496 1043980.000000 1 0 0
10.546436 -3.354415 -1.870394 11.223982 -0.307943 1.738220 0.004565 -0.002808 192795.000000 1 0 0
2.519336 -3.430815 7.127106 8.301396 -0.937402 0.538375 -0.001544 0.000186 -2094400.000000 1 0 0
-2.861064 9.918785 -11.634294 15.553932 -1.289970 2.415835 0.002591 0.001162 -2566360.000000 1 0 0
0.544036 -2.056415 9.309606 9.549533 -1.312166 0.224635 0.004328 -0.001391 1034090.000000 1 0 0
9.517536 2.663885 4.989306 11.071267 0.272909 1.103299 0.003149 -0.001589 1292750.000000 1 0 0
13.449036 1.931285 -4.847594 14.425865 0.142625 1.913500 0.008141 0.001452 -643445.000000 1 0 0
-6.497664 3.884685 7.669106 10.776159 -0.538844 0.778919 0.002205 -0.002004 -248598.000000 1 0 0
10.683636 -0.004415 1.980806 10.865711 -0.000413 1.387472 0.007330 0.000180 1215970.000000 1 0 0
15.377936 6.440785 -4.764394 17.339668 0.396635 1.849145 0.012099 -0.007006 261540.000000 1 0 0
8.074236 -4.938715 -9.144294 13.160634 -0.548951 2.338968 0.001852 0.000452 71881.100000 1 0 0
4.422836 5.699485 -2.168894 7.533240 0.910858 1.862840 0.001790 -0.002355 323940.000000 1 0 0
-1.559164 -10.522715 1.455606 10.736727 1.423695 1.434805 0.003558 -0.004777 -597851.000000 1 0 0
-2.679364 12.277985 -12.893994 18.005083 -1.355940 2.369039 0.004465 -0.001888 680151.000000 1 0 0
8.327236 4.159685 -9.517994 13.313078 0.463270 2.367328 -0.001306 -0.001586 -1412130.000000 1 0 0
4.152136 7.518785 -8.946394 12.402029 1.066239 2.376568 0.005370 -0.004776 -706208.000000 1 0 0
-1.636164 -5.045815 -2.441494 5.839364 1.257232 2.002160 0.006170 -0.003574 -1235370.000000 1 0 0
-3.264564 -9.036215 7.023906 11.901504 1.224112 0.939527 0.002623 -0.003178 -2182720.000000 1 0 0
1.010536 7.213385 -1.409594 7.418967 1.431610 1.761957 0.000369 -0.001913 1030410.000000 1 0 0
0.407936 -0.924715 -2.183794 2.406338 -1.155328 2.708131 -0.000166 -0.000309 -1092020.000000 1 0 0
4.184536 -6.692915 7.594406 10.953559 -1.012040 0.804700 -0.004325 0.001052 -95351.700000 1 0 0
-13.971964 3.906285 5.988606 15.695167 -0.272619 1.179316 0.002352 -0.000527 -366898.000000 1 0 0
4.337136 6.389785 12.549906 14.735679 0.974468 0.551637 0.007028 -0.004305 -1303790.000000 1 0 0
8.316836 10.055585 -7.218594 14.912835 0.879756 2.076076 0.008736 -0.006660 -103243.000000 1 0 0
12.445636 5.205085 9.431006 16.459971 0.396119 0.960676 0.012238 0.002622 790602.000000 1 0 0
7.492336 4.064385 0.326706 8.530009 0.497046 1.532486 0.006874 -0.000205 -1984330.000000 1 0 0
-10.821364 -7.549015 -1.050194 13.236029 0.609115 1.650223 0.008692 -0.003269 -1622840.000000 1 0 0
10.446536 6.825485 0.087206 12.478981 0.578743 1.563808 0.008346 -0.001139 -162899.000000 1 0 0
14.668136 3.564085 4.204106 15.669442 0.238362 1.299169 0.011917 0.001018 200095.000000 1 0 0
2.150736 5.503485 8.288706 10.179227 1.198250 0.619315 -0.001782 0.003947 470716.000000 1 0 0
4.177836 0.100385 11.776806 12.496301 0.024023 0.340992 0.001542 0.000375 -2696710.000000 1 0 0
-1.521164 -1.568815 -0.481594 2.237644 0.800818 1.787717 0.003896 -0.003858 -1287200.000000 1 0 0
3.164536 -5.224115 -9.453794 11.255216 -1.026156 2.567983 -0.003744 -0.001381 251380.000000 1 0 0
-3.939364 -5.377415 -1.380594 6.807438 0.938540 1.775020 0.005808 -0.003501 265273.000000 1 0 0
-1.227264 -8.682015 8.585906 12.271974 1.430370 0.795909 -0.001701 -0.002268 -132364.000000 1 0 0
3.951536 8.586685 -5.941594 11.164602 1.139498 2.131971 0.007528 -0.001805 89301.300000 1 0 0
-14.366264 -1.739415 -2.754594 14.731018 0.120490 1.758896 0.014157 -0.005618 -1170030.000000 1 0 0
8.942636 -10.588315 -6.653494 15.373748 -0.869460 2.018374 0.002385 -0.004493 720676.000000 1 0 0
14.826336 6.160685 1.603106 16.135186 0.393816 1.471277 -0.006826 0.004967 -1119440.000000 1 0 0
-5.670764 0.422585 -8.578694 10.292237 -0.074383 2.556229 0.004846 -0.003750 338672.000000 1 0 0
-8.059164 -4.620515 -13.009794 15.986057 0.520574 2.521494 0.011289 0.002995 767691.000000 1 0 0
0.902536 -10.671215 12.074006 16.139114 -1.486420 0.725571 -0.008739 -0.001435 -576917.000000 1 0 0
0.218036 11.669485 3.211006 12.105164 1.552114 1.302324 0.002373 0.003464 -1991890.000000 1 0 0
5.168936 -13.051315 -3.674594 14.510594 -1.193702 1.826819 -0.002448 -0.001611 -318968.000000 1 0 0
-7.415764 1.463585 -6.939194 10.260997 -0.194857 2.313482 0.000824 -0.000638 938860.000000 1 0 0
1.473136 2.706985 4.010706 5.058029 1.072419 0.655180 -0.004140 0.000648 -986635.000000 1 0 0
17.202236 5.530185 2.199006 18.202623 0.311045 1.449693 0.000997 0.002907 -537679.000000 1 0 0
2.675136 -8.119315 -3.536594 9.251331 -1.252520 1.963058 -0.003598 -0.003965 243233.000000 1 0 0
-0.350064 -9.400815 -0.667794 9.431002 1.533576 1.641664 0.006410 -0.003371 -431556.000000 1 0 0
0.761136 11.818785 -5.530194 13.070810 1.506485 2.007655 0.009915 -0.000908 -242946.000000 1 0 0
5.997236 -4.905315 7.818606 11.007250 -0.685578 0.780852 -0.001759 -0.001399 -1101790.000000 1 0 0
-5.930764 -1.910315 -9.478894 11.343399 0.311609 2.560077 0.011685 -0.002750 -237959.000000 1 0 0
2.054936 -1.213615 11.347706 11.595950 -0.533468 0.207290 0.000448 -0.001716 -665126.000000 1 0 0
18.002236 2.073685 -5.648494 18.981205 0.114685 1.872957 0.023979 0.001865 896294.000000 1 0 0
-8.974664 4.854985 7.789106 12.836886 -0.495881 0.918799 0.003709 -0.006343 -359641.000000 1 0 0
11.509436 -7.148715 -4.754494 14.358846 -0.555803 1.908286 0.009296 -0.006498 56560.200000 1 0 0
10.802936 0.516585 8.852506 13.976307 0.047783 0.884865 0.007511 -0.006389 -186162.000000 1 0 0
-8.409264 -7.388215 -1.590194 11.306200 0.720854 1.711912 0.014061 -0.005101 -24201.000000 1 0 0
10.250036 -10.499715 -3.235794 15.025898 -0.797430 1.787844 0.014951 -0.005987 592469.000000 1 0 0
7.641436 -13.828415 -3.768294 16.242433 -1.065967 1.804933 0.008937 -0.003240 -1534560.000000 1 0 0
1.770536 -1.163915 -11.763894 11.953188 -0.581546 2.963389 0.002842 -0.004683 20379.200000 1 0 0
-11.773464 -2.621115 -6.379494 13.644876 0.219057 2.057300 0.013704 -0.006359 -296603.000000 1 0 0
2.766236 -12.135215 -6.465594 14.025669 -1.346675 2.049899 -0.002610 -0.001154 297344.000000 1 0 0
-5.496264 1.502485 1.211906 5.825384 -0.266845 1.361227 -0.002355 -0.001405 546277.000000 1 0 0
0.046136 6.835085 -3.987994 7.913572 1.564047 2.098955 0.004109 -0.002568 1040920.000000 1 0 0
5.455836 -11.728115 3.606106 13.428284 -1.135380 1.298914 -0.010335 -0.006470 -1308450.000000 1 0 0
-4.473864 -9.210515 1.021406 10.290399 1.118626 1.471374 0.007638 -0.002829 -1346290.000000 1 0 0
7.302836 -6.226115 -4.476294 10.589293 -0.705979 2.007240 0.003858 -0.006248 -1191080.000000 1 0 0
-6.867364 -6.053415 2.285006 9.435347 0.722486 1.326189 0.004932 -0.002655 126752.000000 1 0 0
-6.133664 -0.700915 7.167906 9.460021 0.113780 0.711007 0.000637 0.000640 -1093860.000000 1 0 0
4.233436 -4.968115 3.203206 7.270809 -0.865072 1.114577 -0.004216 -0.001592 -208243.000000 1 0 0
-2.474864 10.663885 -8.768994 14.026356 -1.342754 2.246158 0.002030 0.001967 782065.000000 1 0 0
-2.207464 -4.948715 2.776106 6.088468 1.151217 1.097344 -0.001411 -0.000876 1567560.000000 1 0 0
15.035936 4.983585 6.380006 17.076884 0.320050 1.187904 0.011802 -0.004203 982893.000000 1 0 0
6.873136 0.412785 0.063206 6.885810 0.059986 1.561617 0.007116 -0.000088 4821140.000000 1 0 0
-9.710364 9.266085 0.445906 13.429458 -0.761990 1.537587 0.006391 -0.000924 -2116570.000000 1 0 0
7.121036 10.507985 -2.627094 12.962582 0.975209 1.774878 0.005768 -0.003475 209294.000000 1 0 0
1.694036 -4.359915 -5.365494 7.118085 -1.200201 2.424597 0.002238 -0.003950 94033.100000 1 0 0
1.014836 -8.091015 -7.793094 11.279482 -1.446020 2.333542 -0.001015 -0.001267 792772.000000 1 0 0
-10.377364 0.192685 -10.590794 14.828747 -0.018566 2.366287 0.002661 -0.000180 -3906390.000000 1 0 0
5.867636 -2.445315 0.456306 6.373141 -0.394859 1.499137 0.006405 -0.003069 -19338.100000 1 0 0
-3.363864 5.258285 -1.173094 6.351480 -1.001677 1.756559 -0.000573 -0.003711 464925.000000 1 0 0
-0.346964 4.554785 -5.148794 6.883061 -1.494767 2.415898 0.002155 -0.003018 -885456.000000 1 0 0
3.951636 -9.807415 10.120306 14.636304 -1.187772 0.807299 -0.005932 -0.001013 -1882390.000000 1 0 0
7.337536 -13.405515 -0.699094 15.298235 -1.069988 1.616510 0.007751 -0.003417 725996.000000 1 0 0
13.079736 0.001085 0.659506 13.096352 0.000083 1.520417 0.009430 -0.005372 512964.000000 1 0 0
9.365736 2.430285 -0.473994 9.687516 0.253887 1.619744 0.007736 -0.001754 1109820.000000 1 0 0
-0.752664 -5.691015 4.494206 7.290544 1.439305 0.906579 -0.002443 0.000131 -1112160.000000 1 0 0
11.459736 -3.730215 3.424706 12.528713 -0.314690 1.293924 0.017209 -0.008750 -2559340.000000 1 0 0
1.598436 -8.207615 11.786806 14.451600 -1.378454 0.617021 -0.008279 -0.000548 242177.000000 1 0 0
9.561036 -5.940815 -5.854894 12.688044 -0.555975 2.050425 0.000033 -0.004089 -1691860.000000 1 0 0
3.151236 6.359885 -0.135694 7.099073 1.110766 1.589912 -0.004508 0.001845 -1006700.000000 1 0 0
6.339436 -1.284215 11.481306 13.177938 -0.199871 0.513049 -0.003557 -0.000310 505830.000000 1 0 0
-4.983464 -7.549715 -3.773394 9.801613 0.987363 1.965979 0.014379 -0.007062 -141422.000000 1 0 0
-3.360464 -8.496515 -5.640994 10.737984 1.194166 2.123900 0.014592 -0.006010 -68796.000000 1 0 0
9.812036 5.405885 2.215206 11.419579 0.503568 1.375576 0.006839 -0.001490 -130505.000000 1 0 0
8.902336 -1.352415 0.352206 9.011363 -0.150764 1.531702 0.009039 -0.003049 1212420.000000 1 0 0
-3.957364 9.580885 9.179606 13.846273 -1.179093 0.846023 0.007561 -0.004454 221369.000000 1 0 0
-14.307864 -3.443915 -6.030194 15.904049 0.236208 1.959686 0.017604 -0.009244 426262.000000 1 0 0
10.619036 6.241385 -5.701294 13.572898 0.531367 2.004297 0.000762 -0.006379 -2040090.000000 1 0 0
-1.770864 4.493885 2.788306 5.577241 -1.195420 1.047263 -0.001349 -0.002007 298648.000000 1 0 0
6.916936 -3.655815 2.672906 8.267612 -0.486211 1.241583 0.007813 -0.006260 -2383090.000000 1 0 0
8.356136 -11.121615 -1.488994 13.990440 -0.926437 1.677428 0.010688 -0.008225 -3551000.000000 1 0 0
4.529336 0.359585 1.811306 4.891320 0.079224 1.191453 0.003815 0.000708 159354.000000 1 0 0
-10.787364 2.327585 3.747706 11.654621 -0.212512 1.243416 -0.001357 -0.001601 60249.400000 1 0 0
-0.866864 -3.024715 4.423206 5.428177 1.291684 0.618308 0.000602 -0.001764 523819.000000 1 0 0
8.684536 -8.717515 -8.462094 14.933963 -0.787293 2.173212 0.007150 -0.002803 -541029.000000 1 0 0
12.100736 -4.707415 1.093106 13.030059 -0.371004 1.486807 0.011469 -0.005684 796383.000000 1 0 0
2.959336 4.820685 3.568606 6.688171 1.020231 1.007980 -0.006125 0.002085 -695996.000000 1 0 0
6.075536 7.501485 2.019106 9.862110 0.890041 1.364605 0.002184 0.000258 -106539.000000 1 0 0
-1.637864 -1.365915 -10.428294 10.644136 0.695108 2.939865 0.012784 -0.006853 1865250.000000 1 0 0
-1.001364 -8.579215 5.901306 10.460930 1.454602 0.971419 -0.006010 -0.001975 184902.000000 1 0 0
-4.219064 -0.238415 2.320706 4.821102 0.056449 1.068586 -0.002349 -0.000350 297691.000000 1 0 0
-8.304364 6.099385 -8.082394 13.095421 -0.633494 2.235966 -0.007492 0.002642 -1038330.000000 1 0 0
6.444836 11.262885 -9.471794 16.065596 1.051055 2.201323 0.008643 -0.002574 19655.000000 1 0 0
-11.124464 -5.835315 3.138406 12.948135 0.483093 1.325975 0.003461 -0.001433 1105990.000000 1 0 0
1.476436 -6.242615 3.004706 7.083668 -1.338555 1.132747 -0.002232 -0.002727 689213.000000 1 0 0
10.093436 2.325885 7.280606 12.660743 0.226482 0.958127 0.006202 -0.001935 -1802500.000000 1 0 0
-4.020964 -2.574015 -10.658194 11.678647 0.569419 2.720450 0.014985 -0.004320 -2679780.000000 1 0 0
-8.371964 11.884385 5.920606 15.696559 -0.957090 1.184035 0.004680 -0.008853 475025.000000 1 0 0
6.824036 5.947885 -2.937594 9.517051 0.716906 1.884587 0.005271 -0.000522 -2609590.000000 1 0 0
3.911336 -9.879415 -2.349194 10.882100 -1.193823 1.788386 -0.005100 -0.007169 -1195640.000000 1 0 0
8.506036 -12.812015 -7.391494 17.062665 -0.984704 2.018833 0.010714 -0.004669 288748.000000 1 0 0
-1.088664 9.483685 3.693006 10.235418 -1.456503 1.201664 0.001359 0.001918 -60053.100000 1 0 0
0.495136 -13.077315 4.629906 13.881547 -1.532952 1.230751 0.000294 -0.004774 -1548870.000000 1 0 0
-11.223764 -7.038015 -5.022194 14.167885 0.560082 1.933151 0.015632 -0.009379 42949.800000 1 0 0
3.594736 10.298785 -3.354794 11.412351 1.234973 1.869165 0.009406 -0.003027 -902867.000000 1 0 0
11.682436 -8.128915 -7.331994 16.009894 -0.607918 2.046503 0.022925 -0.007827 202043.000000 1 0 0
11.773336 -4.774915 -5.810294 13.970353 -0.385299 1.999730 0.005942 -0.004800 -1423940.000000 1 0 0
1.295136 -10.253715 -2.805894 10.709299 -1.445153 1.835896 -0.003441 -0.002973 -770764.000000 1 0 0
2.422336 -11.982915 -3.998894 12.862702 -1.371335 1.886926 -0.002335 -0.001923 -1112160.000000 1 0 0
-7.619564 -5.799615 7.261306 12.017481 0.650598 0.921999 0.003086 -0.000293 -3018430.000000 1 0 0
-7.322264 -0.834715 9.502106 12.025070 0.113507 0.659675 0.003110 0.001344 96532.800000 1 0 0
16.196936 2.616385 -7.532494 18.053384 0.160152 2.001196 0.022313 0.000088 -331935.000000 1 0 0
-2.044464 6.300285 -5.513094 8.617867 -1.257014 2.264941 -0.000488 0.000296 159961.000000 1 0 0
7.582436 1.151085 8.493506 11.443687 0.150659 0.734449 -0.001733 -0.001965 -958086.000000 1 0 0
7.879136 8.189185 -3.586494 11.916647 0.804691 1.876501 0.006934 -0.001439 -266938.000000 1 0 0
8.038936 0.596085 3.954406 8.978704 0.074014 1.114729 0.005483 -0.002527 399758.000000 1 0 0
-6.994264 5.888485 5.379506 10.608161 -0.699774 1.038968 0.004660 -0.005649 313585.000000 1 0 0
-5.887464 -2.149815 -4.611094 7.781139 0.350108 2.205078 0.009749 -0.003658 -623778.000000 1 0 0
-15.122064 -2.201715 3.031506 15.579294 0.144580 1.374961 0.012409 -0.005278 328899.000000 1 0 0
1.113836 1.249985 -10.587994 10.719548 0.842932 2.984764 0.006003 -0.007680 623039.000000 1 0 0
1.513136 -9.263415 9.430706 13.305587 -1.408881 0.783032 -0.007223 -0.002521 -180399.000000 1 0 0
-0.178864 -6.837715 -1.256194 6.954449 1.544644 1.752425 0.002854 -0.002770 859169.000000 1 0 0
-0.382164 -10.156715 -8.509194 13.255613 1.533187 2.267811 0.000639 -0.001373 -637805.000000 1 0 0
-4.343864 6.553485 3.839106 8.749632 -0.985453 1.116563 0.001443 -0.001563 -282400.000000 1 0 0
10.739736 -1.106015 -8.582694 13.792310 -0.102622 2.242450 0.005213 -0.000259 447778.000000 1 0 0
2.938536 -1.042215 6.349506 7.073714 -0.340830 0.456457 0.000594 0.001462 92593.100000 1 0 0
1.983736 -12.349215 6.653206 14.166985 -1.411520 1.081927 -0.004969 -0.002541 -906192.000000 1 0 0
2.893036 -4.940915 -1.312594 5.874112 -1.041087 1.796153 0.005871 -0.004301 -2124880.000000 1 0 0
-0.987264 9.454885 -1.734294 9.663194 -1.466755 1.751248 0.001195 -0.002979 513138.000000 1 0 0
4.589236 -2.518615 2.607606 5.848428 -0.501928 1.108657 0.004025 -0.001611 -604435.000000 1 0 0
17.818236 6.719285 -2.625194 19.223162 0.360612 1.707789 0.009555 0.004429 747970.000000 1 0 0
-7.088564 3.407785 -5.424294 9.554251 -0.448125 2.174550 -0.001117 0.000481 898315.000000 1 0 0
-13.759564 -6.080515 2.288106 15.216231 0.416107 1.419851 0.003160 -0.006109 341939.000000 1 0 0
6.678136 -6.047215 3.299406 9.594393 -0.735859 1.219741 0.003575 -0.006646 161746.000000 1 0 0
-4.611064 2.045185 3.565006 6.176890 -0.417468 0.955559 0.000451 -0.001420 427969.000000 1 0 0
6.899436 -12.022215 -5.543894 14.928852 -1.049796 1.951264 0.004245 -0.002533 -98560.300000 1 0 0
2.865636 -12.254915 3.273706 13.004305 -1.341088 1.316318 -0.004113 -0.005364 -329412.000000 1 0 0
3.298336 11.237685 -6.035494 13.175423 1.285307 2.046639 0.007063 -0.000996 6521.100000 1 0 0
-5.637364 -8.411915 6.499306 12.032504 0.980376 1.000186 0.006777 -0.004316 -8814.330000 1 0 0
-3.905564 6.547685 6.409106 9.960033 -1.032969 0.871757 0.005269 -0.001982 564750.000000 1 0 0
4.233036 4.299385 -7.003294 9.243886 0.793174 2.430445 0.003968 -0.002110 -3000560.000000 1 0 0
-0.321664 -2.751315 1.641806 3.220051 1.454412 1.035763 0.001530 -0.001708 1450400.000000 1 0 0
-13.175664 -0.950415 6.544906 14.742361 0.072009 1.110792 0.007279 -0.003053 -316141.000000 1 0 0
-0.467564 -9.248615 -5.916794 10.989265 1.520284 2.139352 0.002481 -0.001461 545435.000000 1 0 0
2.123436 -1.558015 -4.009594 4.797211 -0.633002 2.560417 -0.000682 -0.000178 -1865240.000000 1 0 0
11.380936 -1.970615 1.196506 11.612091 -0.171451 1.467573 0.010822 -0.004381 855177.000000 1 0 0
0.597336 -4.287615 -2.108294 4.815117 -1.432371 2.024001 0.002507 -0.001948 -1620940.000000 1 0 0
1.240636 -7.238315 -11.199094 13.392240 -1.401047 2.561182 -0.000841 0.000117 -472906.000000 1 0 0
-4.419264 4.017585 -9.977894 11.628812 -0.737824 2.602222 0.002573 -0.001654 -132097.000000 1 0 0
-1.065464 5.728385 -2.109294 6.196671 -1.386900 1.918130 -0.000001 -0.001056 -1934120.000000 1 0 0
-11.321864 1.670085 -3.939594 12.103479 -0.146454 1.902329 0.006906 -0.002021 -219444.000000 1 0 0
-1.726764 -11.228115 4.140006 12.090985 1.418203 1.221322 0.006726 -0.004118 -461684.000000 1 0 0
-3.489664 -5.472215 -9.635994 11.617886 1.003112 2.548848 0.012128 0.000335 -643848.000000 1 0 0
-12.762164 -3.725615 -8.302394 15.674271 0.284034 2.129023 0.018885 -0.006166 252203.000000 1 0 0
11.415236 4.484585 0.516206 12.275406 0.374336 1.528732 0.010185 -0.000544 154927.000000 1 0 0
-8.921764 -2.405915 -3.080594 9.740450 0.263402 1.892589 0.005497 -0.003263 -85934.900000 1 0 0
-2.373564 -6.089115 -6.289094 9.069941 1.199110 2.336993 0.007295 -0.003001 1096820.000000 1 0 0
-0.040164 2.656385 -1.905694 3.269506 -1.555678 2.193052 -0.001946 -0.001597 124150.000000 1 0 0
8.014836 6.168085 -5.126894 11.338779 0.655917 2.039977 0.002250 -0.003086 45620.900000 1 0 0
-9.684464 -0.990515 -0.941094 9.780369 0.101924 1.667168 0.002581 -0.002013 625214.000000 1 0 0
6.312336 0.460185 -8.932994 10.947864 0.072774 2.525180 -0.003187 -0.000948 543977.000000 1 0 0
-4.159564 2.534685 7.813006 9.207044 -0.547276 0.557482 0.001230 -0.000573 -1168180.000000 1 0 0
-10.141664 -3.345115 1.485706 10.781951 0.318602 1.432561 0.004069 -0.001699 724410.000000 1 0 0
-1.805264 -8.125515 -7.757994 11.378464 1.352175 2.321036 0.008174 -0.002718 311137.000000 1 0 0
-9.422264 -9.848215 4.148306 14.246924 0.807498 1.275345 0.003421 0.000424 -229175.000000 1 0 0
-1.090064 -10.686315 7.266006 12.968439 1.469142 0.976068 0.001933 -0.004220 123640.000000 1 0 0
9.435836 3.783585 -3.754094 10.837146 0.381351 1.924538 0.002612 -0.001203 -735064.000000 1 0 0
12.896136 -0.833715 3.138606 13.298731 -0.064559 1.332541 0.014373 -0.003559 280212.000000 1 0 0
6.607736 11.908585 -6.876894 15.256744 1.064221 2.038396 0.000850 -0.000945 657274.000000 1 0 0
-11.775964 -0.149315 -6.544994 13.473403 0.012679 2.078042 0.010488 -0.002773 287526.000000 1 0 0
-7.610064 -6.663815 -11.340894 15.196558 0.719203 2.413253 0.016988 -0.003162 -842068.000000 1 0 0
4.073836 6.102485 6.636606 9.893483 0.982169 0.835502 -0.001581 0.003316 -2430650.000000 1 0 0
-4.199764 -1.279415 -7.411194 8.613984 0.295708 2.606787 0.007856 -0.005632 178305.000000 1 0 0
9.638236 9.295885 0.878906 13.419447 0.767319 1.505254 0.008925 -0.002024 -1396850.000000 1 0 0
-8.914064 3.906385 4.930606 10.910145 -0.413021 1.101870 0.001322 -0.004431 696280.000000 1 0 0
-6.882664 7.921985 -12.193294 16.087428 -0.855486 2.430945 -0.005850 -0.002458 -888291.000000 1 0 0
11.295536 -3.700015 7.214306 13.904152 -0.316549 1.025280 0.012485 -0.008972 133725.000000 1 0 0
11.871736 6.917885 6.313606 15.121404 0.527616 1.140073 0.002280 -0.000886 68919.000000 1 0 0
-9.875564 -0.836415 -14.986394 17.967147 0.084494 2.557295 -0.000742 0.012200 -290451.000000 1 0 0
1.687636 -13.130615 12.031906 17.889324 -1.442970 0.833114 -0.000786 -0.000666 697681.000000 1 0 0
2.987736 2.980985 12.939106 13.610044 0.784267 0.315302 0.002950 -0.000484 -179148.000000 1 0 0
-2.600564 -1.408815 10.989606 11.380647 0.496475 0.262902 0.009816 -0.000181 -969846.000000 1 0 0
2.560936 -10.085215 -8.201394 13.248879 -1.322123 2.238298 -0.006713 -0.000965 -1007000.000000 1 0 0
13.910236 3.591685 -7.407494 16.163720 0.252686 2.046854 0.008229 -0.004335 -2831210.000000 1 0 0
7.509136 -1.524315 4.967906 9.131853 -0.200273 0.995576 0.003672 -0.002215 392240.000000 1 0 0
-1.267164 8.760485 10.231106 13.528760 -1.427147 0.713236 0.010079 -0.001791 -353173.000000 1 0 0
-12.147364 -4.695515 0.939306 13.057129 0.368855 1.498796 0.004012 -0.003839 -118771.000000 1 0 0
-4.935364 4.849185 -5.264194 8.693915 -0.776591 2.221194 -0.001510 -0.000266 -186705.000000 1 0 0
-11.176464 0.310685 1.863406 11.334997 -0.027791 1.405653 0.002171 -0.001014 -2772720.000000 1 0 0
-1.441564 2.358185 -4.029794 4.886552 -1.022108 2.540415 -0.000639 -0.004204 564718.000000 1 0 0
3.124736 -9.877415 13.089906 16.693500 -1.264406 0.669500 0.000876 -0.001678 -1929740.000000 1 0 0
8.922436 4.618685 -1.449994 10.151089 0.477667 1.714128 0.005293 -0.002503 -1589380.000000 1 0 0
4.084236 2.228885 3.677406 5.930618 0.499558 0.901963 -0.003574 0.002217 184538.000000 1 0 0
-5.646464 -3.334515 7.448206 9.923574 0.533441 0.721892 0.000580 -0.000804 294794.000000 1 0 0
1.741136 -5.801615 7.725706 9.817170 -1.279237 0.664932 -0.006211 0.000686 -231221.000000 1 0 0
-5.824764 -6.282115 -9.638694 12.895630 0.823156 2.414995 0.017824 -0.000089 -563786.000000 1 0 0
-11.681164 -5.703215 5.506006 14.117094 0.454196 1.170139 0.008205 -0.003024 -1348370.000000 1 0 0
10.530236 6.209785 4.502306 13.027588 0.532819 1.217921 0.003306 0.000257 -737985.000000 1 0 0
1.358936 -3.741115 0.342506 3.994991 -1.222372 1.484957 0.008353 -0.002685 -944708.000000 1 0 0
8.804436 4.412885 6.837106 11.989064 0.464616 0.963951 0.000293 0.003078 -590574.000000 1 0 0
-7.963464 12.172385 3.477306 14.955781 -0.991458 1.336143 0.005810 -0.006264 -310098.000000 1 0 0
-6.275564 13.256085 -7.040794 16.268967 -1.128646 2.018364 0.003657 -0.003449 636618.000000 1 0 0
4.452036 -6.936815 -0.917494 8.293480 -1.000208 1.681652 0.001255 -0.007319 -876179.000000 1 0 0
-1.849764 -8.211715 11.053006 13.893265 1.349235 0.650856 -0.003764 -0.002814 -386909.000000 1 0 0
11.566436 8.858385 -5.701694 15.644895 0.653581 1.943832 0.005383 -0.008868 580738.000000 1 0 0
-3.297564 -3.013115 -1.926894 4.864741 0.740354 1.978055 0.005096 -0.003557 -2104410.000000 1 0 0
-2.011364 6.114885 4.804306 8.032357 -1.253015 0.929644 -0.000655 0.002012 -260956.000000 1 0 0
0.347236 -11.455915 -5.745494 12.820657 -1.540495 2.035484 -0.004641 -0.005078 4559.630000 1 0 0
-8.868764 6.309885 -1.521294 10.990176 -0.618384 1.709665 0.004530 -0.000412 -706987.000000 1 0 0
2.895336 -0.056815 3.936406 4.886869 -0.019620 0.634266 -0.001649 0.001055 764217.000000 1 0 0
-10.062264 3.945285 -1.091694 10.863067 -0.373666 1.671462 0.008334 -0.001386 -387735.000000 1 0 0
6.596836 5.597285 13.656106 16.165923 0.703611 0.564705 0.012398 -0.001431 -505761.000000 1 0 0
-8.630064 -1.596815 5.667006 10.447142 0.182960 0.997451 0.000415 -0.000992 394645.000000 1 0 0
13.024636 -1.749015 -1.359494 13.211677 -0.133487 1.673880 0.010468 -0.001228 -1090100.000000 1 0 0
5.149136 -5.447815 5.432206 9.257491 -0.813576 0.943707 -0.001763 -0.003010 -26036.800000 1 0 0
-9.006164 -1.187915 3.156906 9.617078 0.131143 1.236335 -0.001249 0.000538 702171.000000 1 0 0
2.036436 5.351885 5.593406 8.004745 1.207205 0.797132 -0.004399 0.003152 -1476370.000000 1 0 0
9.332036 3.133785 -7.246594 12.223773 0.323977 2.205362 0.000107 -0.003536 -94323.800000 1 0 0
2.257936 -2.363415 -1.502694 3.597512 -0.808218 2.001713 0.002680 -0.002081 -39471.900000 1 0 0
-6.157164 0.293685 -3.938094 7.314746 -0.047662 2.139307 0.002466 -0.001393 -2228540.000000 1 0 0
-3.968964 4.245685 4.992906 7.662091 -0.819072 0.861055 0.001567 -0.000603 1059860.000000 1 0 0
-6.423464 1.734485 -12.423094 14.092643 -0.263734 2.649890 0.006142 0.000709 -984461.000000 1 0 0
-0.126364 3.147885 6.222206 6.974310 -1.530675 0.468690 -0.002134 0.001472 1526960.000000 1 0 0
-8.742364 9.505685 -2.109794 13.085802 -0.827204 1.732731 0.003925 0.001472 828278.000000 1 0 0
-1.092564 -3.729615 -6.185794 7.305325 1.285826 2.580645 0.000128 -0.003281 70403.900000 1 0 0
-3.316664 7.018985 -2.979494 8.315275 -1.129367 1.937260 -0.000669 0.001043 1288980.000000 1 0 0
7.042236 -0.415315 -4.248794 8.235158 -0.058907 2.112893 0.002464 -0.002127 -93060.600000 1 0 0
-5.063864 -10.885815 6.732606 13.764871 1.135391 1.059721 0.003339 -0.003982 865645.000000 1 0 0
9.766236 8.373985 -1.517694 12.954011 0.708799 1.688226 0.007966 -0.002355 -127354.000000 1 0 0
13.681136 4.546885 -4.247994 15.029740 0.320863 1.857341 0.005294 -0.005063 804612.000000 1 0 0
4.747536 1.049985 -6.969494 8.497965 0.217661 2.532446 -0.003215 -0.001710 -650300.000000 1 0 0
8.983636 -4.797315 3.622906 10.809504 -0.490481 1.229022 0.009497 -0.007567 354642.000000 1 0 0
-8.693664 -3.332715 -0.770994 9.342442 0.366071 1.653416 0.002597 -0.001500 30289.300000 1 0 0
-8.546464 -4.345615 -10.470494 14.197100 0.470400 2.400171 0.008440 -0.000680 -227414.000000 1 0 0
10.399536 -1.203715 10.538406 14.854537 -0.115234 0.782093 0.005003 0.001252 -494011.000000 1 0 0
2.177236 -11.694515 9.913206 15.484627 -1.386728 0.876042 -0.006730 -0.001054 602733.000000 1 0 0
-6.483664 -10.533115 2.023206 12.533067 1.019021 1.408657 0.011788 -0.001224 -622298.000000 1 0 0
-3.686164 -1.606415 6.760306 7.865756 0.410979 0.536583 0.003058 -0.000852 -1305250.000000 1 0 0
4.589236 -7.494515 3.938306 9.630114 -1.021348 1.149485 -0.007951 -0.001131 75021.400000 1 0 0
11.482536 -9.496615 -5.260294 15.802057 -0.691018 1.910160 0.017842 -0.008771 625909.000000 1 0 0
11.362136 1.147585 11.329706 16.086557 0.100660 0.789365 0.008189 0.000853 382898.000000 1 0 0
-10.187464 -3.424415 4.437506 11.627661 0.324274 1.179233 0.006935 -0.001363 1721870.000000 1 0 0
1.988736 8.835785 9.053206 12.805730 1.349408 0.785598 0.003467 0.000253 483849.000000 1 0 0
6.563736 8.740885 4.249306 11.727843 0.926704 1.200034 0.005986 0.001098 800958.000000 1 0 0
-4.263764 3.605685 0.558106 5.611785 -0.701968 1.471179 0.001151 -0.002772 79915.800000 1 0 0
4.849336 6.921785 4.263106 9.465793 0.959674 1.103617 0.001231 0.001846 -1493900.000000 1 0 0
-8.325064 13.057885 1.062906 15.522398 -1.003223 1.502267 0.011002 -0.004586 -707876.000000 1 0 0
8.935536 8.109585 -9.089994 15.107520 0.736979 2.216407 0.002073 -0.011391 -1474500.000000 1 0 0
7.162736 1.997085 6.070606 9.599239 0.271910 0.886142 0.000852 0.001221 -654137.000000 1 0 0
11.647736 -6.197215 3.151106 13.564833 -0.488960 1.336355 0.014625 -0.008496 43165.100000 1 0 0
11.392336 4.725985 -2.096694 12.510651 0.393233 1.739184 0.006646 0.000142 1078040.000000 1 0 0
-3.976464 14.251585 -6.062394 15.989765 -1.298697 1.959665 -0.000969 0.003457 -2239720.000000 1 0 0
7.170236 -2.985315 6.979806 10.442321 -0.394520 0.838720 0.001447 -0.005595 -1883290.000000 1 0 0
-7.928764 -0.409315 0.982506 7.999885 0.051578 1.447670 0.001244 -0.000076 248465.000000 1 0 0
-3.316264 0.961085 10.750606 11.291449 -0.282082 0.310760 0.007484 0.001439 -434457.000000 1 0 0
7.094236 -1.278115 -1.838194 7.439134 -0.178250 1.820480 0.007917 -0.003236 -1103440.000000 1 0 0
-7.828264 5.367285 3.020506 9.960569 -0.601016 1.262699 0.002822 -0.002106 581318.000000 1 0 0
9.418436 -2.249615 2.859506 10.096756 -0.234459 1.283656 0.010166 -0.006044 -1564420.000000 1 0 0
0.272836 3.526985 1.649906 3.903365 1.493593 1.134387 -0.004475 0.000624 -4313350.000000 1 0 0
-7.548264 -3.089015 3.993406 9.081057 0.388442 1.115475 -0.001417 -0.000948 -2620470.000000 1 0 0
-2.315364 8.448785 -6.706494 11.032676 -1.303316 2.224179 0.000299 0.000130 -197441.000000 1 0 0
4.541436 9.746085 7.333906 13.015260 1.134737 0.972198 0.003015 0.005194 1836830.000000 1 0 0
-11.806164 -3.109115 6.891406 14.019400 0.257500 1.056914 0.012224 -0.003699 -1409100.000000 1 0 0
-4.625364 2.309285 -5.547094 7.582681 -0.463060 2.391386 0.002733 -0.002820 -552446.000000 1 0 0
-2.690364 2.841085 -1.670194 4.254336 -0.812639 1.974238 0.000630 -0.003479 36310.100000 1 0 0
2.391536 5.155185 11.447706 12.780663 1.136436 0.460782 0.006079 -0.001103 277404.000000 1 0 0
-0.699464 1.668085 4.502406 4.852156 -1.173745 0.382006 0.001943 -0.001396 -571445.000000 1 0 0
5.113936 1.555685 7.741206 9.407378 0.295310 0.604324 -0.001268 0.004033 287361.000000 1 0 0
3.302036 -8.110015 1.866006 8.953086 -1.184137 1.360837 -0.005408 -0.003091 390649.000000 1 0 0
5.033036 6.468485 -4.653494 9.424848 0.909561 2.087190 0.007127 -0.002423 -2259090.000000 1 0 0
-4.043664 2.705085 -7.996694 9.360332 -0.589595 2.595032 0.003147 -0.003073 -475858.000000 1 0 0
-8.753764 -2.113215 -13.037394 15.845116 0.236874 2.537120 0.007279 0.003675 -1098090.000000 1 0 0
-7.845464 8.150385 1.395506 11.398576 -0.804458 1.448060 0.002234 -0.002044 -2422080.000000 1 0 0
7.430436 0.857285 -6.607994 9.980576 0.114867 2.294394 -0.000774 -0.000292 812207.000000 1 0 0
8.990136 8.901585 5.523206 13.804585 0.780449 1.159171 0.001509 0.003205 238068.000000 1 0 0
9.456736 -1.060115 -1.331194 9.608630 -0.111635 1.709785 0.005944 -0.002913 763338.000000 1 0 0
5.470336 0.172185 4.360906 6.997980 0.031466 0.898011 0.000210 0.001395 -1588370.000000 1 0 0
-4.189464 -7.197415 -7.828494 11.429773 1.043658 2.325292 0.017125 -0.005018 -665827.000000 1 0 0
-2.134764 7.428085 -0.608594 7.752681 -1.290947 1.649378 0.000973 -0.002432 343579.000000 1 0 0
13.337236 -3.408615 -7.328994 15.595341 -0.250215 2.060028 0.008567 -0.002142 579478.000000 1 0 0
-4.724264 -4.986115 1.613206 7.055668 0.812358 1.340116 0.003580 -0.002205 2470700.000000 1 0 0
-8.969064 1.331785 2.575706 9.426135 -0.147409 1.294025 -0.000094 -0.000698 -1825450.000000 1 0 0
-1.071764 11.184885 10.158506 15.147461 -1.475265 0.835724 0.008453 -0.004497 394866.000000 1 0 0
-8.520264 0.323585 7.445706 11.319812 -0.037960 0.852957 -0.000604 0.000055 -405756.000000 1 0 0
-6.152964 12.804585 -2.035694 14.351321 -1.122847 1.713124 0.000742 0.002298 623774.000000 1 0 0
-12.956764 -0.816615 3.203206 13.371803 0.062943 1.328895 0.009960 -0.004126 571483.000000 1 0 0
-6.836164 12.838785 8.755006 16.976975 -1.081518 1.028973 0.013677 -0.011583 195288.000000 1 0 0
-8.152564 0.833085 -14.145594 16.347971 -0.101833 2.616508 0.002532 0.005172 -374385.000000 1 0 0
7.240436 2.924985 3.731806 8.654815 0.383932 1.124993 0.003170 0.001123 -621008.000000 1 0 0
-1.588164 0.676985 -2.002394 2.643890 -0.402945 2.430067 -0.001011 -0.002473 603533.000000 1 0 0
-6.310564 9.753585 -10.416694 15.603306 -0.996533 2.301771 -0.004980 0.000306 -40213.300000 1 0 0
-10.189064 13.686185 5.252606 17.852691 -0.930839 1.272158 0.005481 -0.010860 574172.000000 1 0 0
-5.632764 8.277185 2.484006 10.315528 -0.973266 1.327604 0.001256 -0.003067 -1640960.000000 1 0 0
-2.365564 -10.763515 -1.215694 11.087247 1.354460 1.680665 0.008358 -0.004265 -446773.000000 1 0 0
-2.215664 -12.341615 8.747606 15.288729 1.393161 0.961659 -0.001620 -0.005616 284388.000000 1 0 0
-14.692264 -6.354415 -1.786294 16.106895 0.408207 1.681927 0.013280 -0.004229 527011.000000 1 0 0
-2.631964 -9.221715 3.192206 10.107296 1.292779 1.249463 0.004370 -0.002152 -359504.000000 1 0 0
4.733336 -2.527815 7.550806 9.263314 -0.490511 0.617843 -0.001739 0.003589 -618955.000000 1 0 0
-14.947864 -1.250815 -0.401394 15.005476 0.083484 1.597549 0.007197 -0.005741 105788.000000 1 0 0
5.486736 8.761185 -2.842694 10.721173 1.011295 1.839153 0.004745 -0.000352 -1349080.000000 1 0 0
-5.647264 -5.772015 8.487206 11.714965 0.796322 0.760523 0.003931 -0.001429 -3119200.000000 1 0 0
3.435936 3.573785 7.100806 8.660199 0.805061 0.609498 -0.001839 0.003002 531089.000000 1 0 0
3.314736 2.422885 9.424706 10.280220 0.631193 0.410853 0.002945 0.000868 3175.160000 1 0 0
9.936136 -3.320815 5.251906 11.719092 -0.322545 1.106102 0.013521 -0.008044 -459549.000000 1 0 0
6.610336 9.953985 -5.085494 12.986170 0.984580 1.973175 0.005622 -0.004361 391029.000000 1 0 0
-4.611764 12.074685 -8.550194 15.497491 -1.205958 2.155215 -0.002670 -0.001260 -159372.000000 1 0 0
-3.307864 -7.213115 2.104806 8.209823 1.140822 1.311525 0.005106 -0.002903 1489430.000000 1 0 0
-7.430764 -4.088315 1.173106 8.561936 0.502987 1.433350 0.001595 -0.001276 1345000.000000 1 0 0
-2.017064 -4.023015 -10.989594 11.875368 1.106044 2.752914 0.013192 -0.003247 -479431.000000 1 0 0
-5.301364 8.255385 -4.430394 10.764954 -0.999945 1.994958 -0.000589 -0.001136 -2021730.000000 1 0 0
-10.925264 -3.326115 -10.242394 15.340504 0.295527 2.301871 0.013692 -0.000430 -1734990.000000 1 0 0
4.744636 -11.384515 -7.691194 14.535240 -1.175924 2.128384 -0.003944 -0.003726 -1088850.000000 1 0 0
-9.379864 -3.955615 7.253806 12.499858 0.399084 0.951686 0.001762 -0.000208 -1215940.000000 1 0 0
-5.724864 -9.647015 -5.146594 12.342058 1.035219 2.000935 0.017820 -0.012714 167704.000000 1 0 0
4.953936 4.291785 -9.446694 11.497866 0.713903 2.535016 -0.000757 0.000553 -27811.600000 1 0 0
-3.331564 -7.127315 -14.105894 16.151600 1.133538 2.632821 0.004944 0.002078 376526.000000 1 0 0
0.706436 -0.838615 -8.878394 8.945849 -0.870740 3.018712 0.004809 -0.007224 700322.000000 1 0 0
-7.585964 2.208585 -2.879094 8.409155 -0.283310 1.920241 0.000190 -0.001654 -332572.000000 1 0 0
-2.310964 7.530585 -12.600994 14.860529 -1.273042 2.582903 0.004141 -0.001371 106471.000000 1 0 0
-9.961464 9.015685 7.528506 15.401031 -0.735602 1.060047 0.003192 -0.010105 108312.000000 1 0 0
-10.819164 -3.090615 -14.461294 18.323079 0.278251 2.480366 0.012008 0.012452 371810.000000 1 0 0
-3.163864 4.859385 8.122206 9.979674 -0.993660 0.620006 0.003918 -0.000561 -334859.000000 1 0 0
8.770536 -2.468315 -3.479794 9.753145 -0.274337 1.935622 0.001248 -0.001594 -4338390.000000 1 0 0
1.970536 -8.436715 -1.192294 8.745440 -1.341343 1.707555 -0.002444 -0.003676 -247105.000000 1 0 0
-13.544964 -2.801915 4.998706 14.707272 0.203983 1.224007 0.018081 -0.008998 499029.000000 1 0 0
7.131936 2.698985 -1.991494 7.881312 0.361780 1.826251 0.004193 -0.001978 1365620.000000 1 0 0
-11.155964 4.466185 8.891006 14.948322 -0.380800 0.933801 0.002162 -0.001868 -2182560.000000 1 0 0
-1.631364 -2.568115 7.944606 8.507251 1.004869 0.365730 0.001824 -0.000604 -1285790.000000 1 0 0
3.191736 11.826485 -9.812994 15.695470 1.307196 2.246199 0.006262 -0.007560 494360.000000 1 0 0
3.700336 -5.031815 -7.005394 9.385477 -0.936713 2.413444 -0.003049 -0.004542 480.284000 1 0 0
8.370536 -13.726115 -9.730594 18.792460 -1.023183 2.115065 0.015463 -0.001549 131735.000000 1 0 0
-6.243964 -5.784415 -0.441694 8.523006 0.747211 1.622643 0.010196 -0.002681 -386349.000000 1 0 0
-1.251764 -4.102415 9.858806 10.751408 1.274641 0.410358 0.000041 0.000602 534649.000000 1 0 0
2.751836 3.293485 1.796406 4.652604 0.874758 1.174388 -0.004580 0.002169 -1197790.000000 1 0 0
-9.221164 13.420285 7.742306 18.029898 -0.968776 1.126952 0.010799 -0.017257 -868828.000000 1 0 0
4.004036 -10.980515 0.012606 11.687778 -1.221131 1.569718 -0.003549 -0.004630 456384.000000 1 0 0
-12.361664 -1.406415 -9.090994 15.408923 0.113285 2.201833 0.011987 -0.006896 506219.000000 1 0 0
-4.238564 0.910285 -13.554994 14.231371 -0.211549 2.832050 0.015969 -0.001945 -38287.500000 1 0 0
4.001736 -2.974115 4.996406 7.058564 -0.639139 0.784346 -0.001428 0.001254 8100.750000 1 0 0
1.709636 -1.212215 1.075006 2.355410 -0.616773 1.096853 0.000741 -0.000088 363847.000000 1 0 0
7.983836 -8.953615 7.439606 14.115827 -0.842592 1.015683 0.005304 -0.004574 -1383300.000000 1 0 0
-0.011064 2.297085 -6.205694 6.617202 -1.565980 2.787070 0.001618 -0.005107 -780193.000000 1 0 0
-3.812264 -9.726715 -3.309594 10.958820 1.197260 1.877589 0.014698 -0.004642 1228310.000000 1 0 0
-9.365364 2.273985 -5.352994 11.024319 -0.238198 2.077803 0.002741 0.000539 -2815080.000000 1 0 0
8.841036 -7.590115 5.390906 12.838832 -0.709414 1.137471 0.002812 -0.006318 1710670.000000 1 0 0
-5.490664 -4.333715 4.703306 8.429090 0.668175 0.978841 -0.001916 -0.000824 -1112350.000000 1 0 0
-0.182064 -12.494715 10.373306 16.240582 1.556226 0.877953 0.002514 -0.004175 -2068720.000000 1 0 0
-14.269564 -8.398415 3.147906 16.854173 0.531961 1.382920 0.004297 -0.003945 -1445440.000000 1 0 0
10.837036 -1.162315 -3.512294 11.451137 -0.106845 1.882541 0.005868 -0.002246 -926528.000000 1 0 0
-13.610764 2.963285 2.725206 14.193686 -0.214371 1.377595 0.003716 0.000208 -5632.370000 1 0 0
-6.386664 6.150085 1.152906 8.941042 -0.766530 1.441491 0.001047 -0.002550 721306.000000 1 0 0
7.148936 -6.888415 -0.505094 9.940456 -0.766841 1.621630 0.002740 -0.006969 -60191.300000 1 0 0
-6.881564 7.927685 10.069506 14.546445 -0.855921 0.806220 0.002472 -0.005248 150898.000000 1 0 0
-12.649764 -5.068315 -1.956594 13.767084 0.381079 1.713400 0.006178 -0.006060 -3221720.000000 1 0 0
-9.382264 -5.594915 0.198606 10.925630 0.537716 1.552617 0.006378 -0.002356 -898356.000000 1 0 0
-1.758864 1.885885 2.172306 3.371807 -0.820235 0.870747 -0.000654 -0.000988 -378184.000000 1 0 0
-7.083064 7.405185 7.588106 12.750919 -0.807628 0.933403 0.003770 -0.007001 281381.000000 1 0 0
5.521036 7.167185 -0.422294 9.056971 0.914416 1.617440 0.002748 -0.001533 -2101850.000000 1 0 0
0.060636 -4.018815 7.526606 8.532546 -1.555710 0.490483 -0.000261 0.000127 -670665.000000 1 0 0
6.346036 0.706385 13.240706 14.699913 0.110855 0.449341 0.000387 0.002528 1109900.000000 1 0 0
5.791036 6.104185 -7.723494 11.421451 0.811718 2.313425 -0.001702 -0.002417 -319976.000000 1 0 0
9.943636 5.358285 9.025506 14.458453 0.494255 0.896641 0.000328 0.002601 -2741290.000000 1 0 0
-1.240464 -5.014315 -8.542494 9.982800 1.328281 2.597739 0.012306 -0.002292 367028.000000 1 0 0
9.974336 -3.546915 -7.921594 13.221937 -0.341659 2.213204 0.004544 -0.004951 651021.000000 1 0 0
8.291636 -5.573615 1.289906 10.073741 -0.591822 1.442397 0.008827 -0.007538 1278200.000000 1 0 0
15.760036 3.093085 -4.952494 16.806936 0.193798 1.869906 0.017008 0.002314 730298.000000 1 0 0
-6.963964 3.616185 1.116606 7.925932 -0.478945 1.429446 0.001832 -0.002414 341818.000000 1 0 0
-1.734164 3.934285 0.353206 4.314010 -1.155634 1.488830 -0.000111 -0.002301 -1229900.000000 1 0 0
-2.715364 10.043385 6.966606 12.521038 -1.306746 0.980759 0.002173 0.002238 1142530.000000 1 0 0
5.585736 -5.822215 -8.674194 11.846530 -0.806124 2.392363 -0.003133 -0.002297 162895.000000 1 0 0
-1.356964 -0.846415 6.199106 6.402084 0.557704 0.252484 0.005244 -0.002639 534113.000000 1 0 0
-5.688664 4.917585 -7.790494 10.827527 -0.712825 2.373890 -0.004518 0.000661 -78401.600000 1 0 0
6.793536 -1.207415 2.535106 7.350969 -0.175893 1.218699 0.005229 -0.001799 -1873650.000000 1 0 0
8.796736 7.594885 3.237906 12.064364 0.712208 1.299079 0.006216 -0.001233 194239.000000 1 0 0
-5.302964 -4.742015 -7.676994 10.466345 0.729612 2.394244 0.014402 -0.004179 694874.000000 1 0 0
-2.220564 7.848485 -10.102194 12.983988 -1.295074 2.462352 0.004108 -0.000299 526710.000000 1 0 0
-2.847364 -2.257515 1.716906 4.018908 0.670362 1.129395 -0.002762 0.000785 -1133520.000000 1 0 0
5.984636 -2.152715 -9.228394 11.207734 -0.345296 2.538165 -0.003320 -0.001288 1197690.000000 1 0 0
1.149836 -7.552615 5.073606 9.170910 -1.419713 0.984562 -0.006586 -0.001108 202008.000000 1 0 0
1.735936 11.929185 1.159206 12.110438 1.426291 1.474930 0.001770 -0.003314 604926.000000 1 0 0
-1.036764 7.038085 2.563006 7.561648 -1.424540 1.224998 -0.001093 0.000424 628788.000000 1 0 0
8.767336 7.863985 -6.565994 13.484091 0.731135 2.079384 0.004365 -0.007863 -125198.000000 1 0 0
3.804036 -10.991815 5.427606 12.835481 -1.237619 1.134198 -0.004535 -0.000350 173738.000000 1 0 0
7.807636 -7.101515 12.377106 16.266021 -0.738072 0.706070 0.004913 -0.004633 -110656.000000 1 0 0
-8.629164 0.049485 -3.889194 9.465239 -0.005735 1.994229 0.003729 -0.003311 -985367.000000 1 0 0
-3.334764 -5.132515 11.155706 12.724509 0.994609 0.501817 0.004008 -0.001331 -358543.000000 1 0 0
-8.191464 0.177585 -11.632794 14.228616 -0.021676 2.527963 0.001922 0.001534 -1648300.000000 1 0 0
1.379336 -4.969415 5.361106 7.439026 -1.300047 0.766024 -0.001993 -0.000471 -673183.000000 1 0 0
6.756036 3.700785 -7.567994 10.798813 0.501133 2.347339 -0.002902 -0.002099 -1274780.000000 1 0 0
16.364236 4.230085 -1.224694 16.946437 0.252959 1.643128 0.008530 0.008674 158049.000000 1 0 0
7.866736 7.498885 0.077106 10.868522 0.761463 1.563702 0.007835 -0.003546 -1483110.000000 1 0 0
5.331236 -10.467415 14.003206 18.277818 -1.099723 0.697997 0.011156 -0.003168 -440658.000000 1 0 0
-5.037264 -9.408715 8.964806 13.937923 1.079245 0.872132 -0.001479 -0.003963 589376.000000 1 0 0
-12.544564 -3.207115 2.858706 13.259860 0.250296 1.353499 0.009470 -0.003655 -379091.000000 1 0 0
-2.068764 -1.342015 -5.893194 6.388312 0.575463 2.745295 0.005027 -0.006549 -921093.000000 1 0 0
-2.565864 12.887285 -4.361894 13.845285 -1.374266 1.891301 0.004328 0.003220 407073.000000 1 0 0
4.040236 -0.420715 -5.031994 6.466952 -0.103757 2.462446 -0.001751 -0.001101 -527388.000000 1 0 0
-8.753164 3.882785 -7.348494 12.070388 -0.417508 2.225348 -0.000322 0.001115 496800.000000 1 0 0
-4.525864 8.101085 -11.377194 14.681675 -1.061318 2.457392 -0.000433 0.002260 -2251760.000000 1 0 0
-10.081764 -6.478515 7.385706 14.076994 0.571154 1.018475 0.005001 -0.002257 -945427.000000 1 0 0
8.050436 5.329785 4.103906 10.490861 0.584799 1.168874 0.002899 0.001862 -1301110.000000 1 0 0
-6.647364 -7.708915 3.966206 10.924541 0.859207 1.199252 0.008042 -0.000517 -999344.000000 1 0 0
-4.291564 11.831185 8.164006 15.001515 -1.222823 0.995347 0.009668 -0.004526 208043.000000 1 0 0
-7.260964 10.042285 -7.900394 14.696439 -0.944775 2.138351 -0.002122 0.000038 102221.000000 1 0 0
13.097536 5.421185 4.567106 14.892721 0.392439 1.259107 0.000595 -0.000769 -890208.000000 1 0 0
5.328136 3.913485 -3.709394 7.580502 0.633503 2.082122 0.004120 -0.002011 706343.000000 1 0 0
-2.901264 -4.170215 5.185606 7.259376 0.962955 0.775127 0.000319 -0.000104 -1658630.000000 1 0 0
12.328836 -2.434215 -5.101394 13.562810 -0.194934 1.956413 0.006399 -0.001236 -1908460.000000 1 0 0
-5.452964 9.788085 7.002206 13.212582 -1.062517 1.012237 0.005056 -0.004146 980003.000000 1 0 0
1.696336 3.815585 -0.507494 4.206400 1.152458 1.691739 -0.002507 0.000396 472246.000000 1 0 0
-0.218664 9.589985 7.735106 12.322642 -1.547999 0.892182 0.000785 0.003367 -919262.000000 1 0 0
-5.595464 2.181585 5.898506 8.417892 -0.371756 0.794403 0.001771 -0.000961 1126500.000000 1 0 0
8.897536 0.908285 10.720406 13.961312 0.101730 0.695294 0.004048 0.002810 -1045010.000000 1 0 0
0.481936 -2.931615 -10.249594 10.671495 -1.407861 2.859463 0.004880 -0.003964 -1063180.000000 1 0 0
1.234736 10.633385 -2.783194 11.060725 1.455195 1.825159 0.005161 -0.002078 -856596.000000 1 0 0
2.267236 -4.306215 11.712206 12.683044 -1.086172 0.393810 -0.004060 0.001472 85960.900000 1 0 0
6.583136 -2.973715 9.487106 11.924170 -0.424281 0.650766 -0.002412 -0.001008 403242.000000 1 0 0
-10.645064 -8.178615 5.669106 14.572093 0.655111 1.171209 0.006226 -0.002572 -489876.000000 1 0 0
-2.884464 0.902685 -6.864594 7.500508 -0.303292 2.726843 0.005712 -0.006514 556893.000000 1 0 0
11.080236 2.500885 -5.056394 12.433550 0.221987 1.989606 0.003396 -0.001854 -4621570.000000 1 0 0
-1.965064 -4.096415 0.044306 4.543573 1.123517 1.561045 0.002104 -0.002665 1231870.000000 1 0 0
-1.202864 -6.457415 -10.611994 12.480365 1.386631 2.587342 0.010336 -0.000152 676281.000000 1 0 0
0.316236 6.802785 -6.591994 9.477989 1.524344 2.339920 0.006756 -0.001385 -2380250.000000 1 0 0
2.006536 3.816885 -6.286194 7.623059 1.086801 2.540342 0.002066 -0.002079 -2124810.000000 1 0 0
1.541436 -14.758015 6.260706 16.105013 -1.466726 1.171530 0.010308 -0.004981 -267202.000000 1 0 0
-1.738864 5.345285 -10.534894 11.940675 -1.256286 2.651458 0.007635 -0.002751 -184843.000000 1 0 0
13.703336 4.410585 -0.769994 14.416226 0.311391 1.624233 0.005761 0.000456 -249016.000000 1 0 0
-2.309064 3.389985 -6.275994 7.497458 -0.972839 2.562725 0.003255 -0.003980 -1413650.000000 1 0 0
5.620936 7.943985 14.129806 17.156726 0.955007 0.603116 0.010352 -0.006519 780959.000000 1 0 0
15.850236 0.580785 -5.859794 16.908710 0.036626 1.924692 0.014266 0.000940 -29234.200000 1 0 0
6.155836 -8.310415 10.583206 14.797350 -0.933250 0.773872 0.000154 0.001739 684564.000000 1 0 0
0.161236 -5.861315 -6.454594 8.720252 -1.543295 2.404141 0.002440 -0.003240 -962063.000000 1 0 0
8.724936 5.511585 -7.454794 12.730909 0.563406 2.196375 -0.000432 -0.002687 16342.200000 1 0 0
-16.089664 -0.829015 5.222706 16.936387 0.051479 1.257315 0.022269 -0.009128 -187453.000000 1 0 0
-0.264764 3.987885 -12.315694 12.947959 -1.504501 2.827797 0.007513 -0.005797 957779.000000 1 0 0
-11.267164 3.652685 5.923206 13.242940 -0.313498 1.107083 0.001669 -0.002816 451589.000000 1 0 0
5.269836 -9.606615 -9.586894 14.559078 -1.069057 2.289597 -0.005047 -0.001352 -253580.000000 1 0 0
1.523936 11.089285 -11.599894 16.119931 1.434228 2.374022 0.003368 -0.003199 -2844420.000000 1 0 0
5.820536 2.347385 1.249806 6.399287 0.383343 1.374229 0.002936 0.001271 -200072.000000 1 0 0
5.698436 4.581985 4.964106 8.837936 0.677222 0.974379 -0.001445 0.002279 -290656.000000 1 0 0
0.388536 -1.377615 -6.422794 6.580354 -1.295901 2.922320 0.003224 -0.002874 -157864.000000 1 0 0
12.714936 6.877185 -4.493994 15.138073 0.495810 1.872206 0.005782 -0.008537 -650243.000000 1 0 0
7.405036 3.189185 12.757806 15.091954 0.406670 0.563598 0.003825 0.002113 -336924.000000 1 0 0
-2.538764 -0.181115 8.596506 8.965380 0.071219 0.287853 0.003266 0.000579 734512.000000 1 0 0
2.144736 -15.358715 13.207106 20.369528 -1.432051 0.865347 0.006250 0.000310 -604233.000000 1 0 0
18.939036 4.653685 -1.593394 19.567390 0.240946 1.652318 0.010017 0.007311 688919.000000 1 0 0
-0.265964 -13.105415 7.217906 14.963983 1.550505 1.067459 -0.004040 -0.005978 -1791410.000000 1 0 0
4.391636 1.621685 -0.553094 4.714047 0.353735 1.688396 0.003370 -0.001886 -98249.100000 1 0 0
2.803736 -0.549515 -7.370494 7.904877 -0.193540 2.771789 -0.000826 -0.002903 62626.000000 1 0 0
7.170736 -11.246515 0.948606 13.371739 -1.003190 1.499796 -0.003187 -0.003752 367041.000000 1 0 0
-11.771464 -7.449415 1.336106 13.994511 0.564215 1.475177 0.003448 -0.000183 293436.000000 1 0 0
0.159436 -7.057115 9.961706 12.209172 -1.548208 0.616478 -0.005475 0.000285 -2363220.000000 1 0 0
-4.716864 -7.235515 10.581206 13.658821 0.993083 0.684589 0.003360 0.001159 -1145310.000000 1 0 0
11.834036 0.644785 -1.519094 11.948548 0.054432 1.698278 0.007721 -0.003426 825489.000000 1 0 0
6.641936 -9.643215 -7.488294 13.898973 -0.967649 2.139768 -0.004072 -0.004160 -1148730.000000 1 0 0
-10.894064 4.899185 3.519806 12.452778 -0.422614 1.284238 -0.001234 -0.002329 -95648.400000 1 0 0
5.980036 -9.064315 2.109906 11.062293 -0.987609 1.378891 -0.005718 -0.005424 3395360.000000 1 0 0
11.559136 -1.388515 5.847706 13.028325 -0.119550 1.105323 0.017448 -0.010425 356683.000000 1 0 0
-6.480564 3.654985 4.158006 8.523241 -0.513522 1.061179 -0.000473 -0.001494 -1417250.000000 1 0 0
9.492436 6.293385 -3.152594 11.817440 0.585453 1.840841 0.008742 -0.002616 -1236270.000000 1 0 0
-2.275264 6.625985 11.009506 13.049511 -1.240027 0.566710 0.006056 -0.003940 -373901.000000 1 0 0
1.830336 9.800385 2.849106 10.368948 1.386162 1.292443 -0.003360 0.001689 -495140.000000 1 0 0
2.812436 6.081285 -5.623594 8.747379 1.137618 2.269060 0.003240 -0.001764 -1840500.000000 1 0 0
11.917436 0.012585 -5.633894 13.182041 0.001056 2.012402 0.006275 -0.002339 347830.000000 1 0 0
-2.626864 -12.490115 6.219706 14.198173 1.363502 1.117353 0.004744 -0.005441 -173753.000000 1 0 0
10.889336 1.922385 -2.715994 11.386388 0.174738 1.811648 0.005605 -0.001510 399312.000000 1 0 0
-8.962264 5.326285 0.818006 10.457563 -0.536219 1.492495 0.001846 -0.002411 123573.000000 1 0 0
1.204236 -10.136215 5.567706 11.627226 -1.452545 1.071451 -0.007442 -0.002559 357330.000000 1 0 0
9.435936 -5.716715 -1.066794 11.084032 -0.544706 1.667192 0.008987 -0.006582 582541.000000 1 0 0
-7.864664 8.553985 -4.490594 12.457490 -0.827358 1.939572 0.000743 0.000194 -286879.000000 1 0 0
-7.369264 -0.047815 -1.582694 7.537457 0.006488 1.782348 0.001302 -0.001865 -1358170.000000 1 0 0
4.088736 8.868185 2.861906 10.176098 1.138786 1.285712 0.001688 -0.000076 573045.000000 1 0 0
-1.311664 -10.558615 -3.775294 11.289714 1.447203 1.911766 0.006963 -0.003111 -592877.000000 1 0 0
3.191636 7.817585 -3.633594 9.192616 1.183186 1.977161 0.006844 -0.003941 -533934.000000 1 0 0
-4.242364 1.704985 -11.199594 12.096923 -0.382139 2.754000 0.009984 -0.003902 -474811.000000 1 0 0
1.261236 2.807485 10.965406 11.389154 1.148574 0.273639 0.003644 -0.000704 573506.000000 1 0 0
2.136336 5.550285 -8.164394 10.100838 1.203370 2.512036 0.004370 -0.001394 1082200.000000 1 0 0
15.571436 6.074085 4.037706 17.194976 0.371924 1.333764 0.003102 -0.000378 510805.000000 1 0 0
-4.460564 9.066785 4.626706 11.113489 -1.113595 1.141408 0.004343 -0.001044 675871.000000 1 0 0
-0.735964 -8.226215 -12.331694 14.841931 1.481568 2.551463 0.005220 -0.001922 528369.000000 1 0 0
14.207336 -4.222915 -5.061194 15.661963 -0.288918 1.899855 0.013915 -0.001773 -937580.000000 1 0 0
-5.980564 -6.084115 -5.566794 10.186893 0.793981 2.148935 0.016307 -0.005500 536373.000000 1 0 0
-8.906164 2.647285 -12.299294 15.414296 -0.288925 2.494624 0.000778 0.000706 -1503510.000000 1 0 0
10.603636 5.385785 13.879806 18.278205 0.469963 0.708462 0.025924 0.004773 792844.000000 1 0 0
-0.499064 10.977885 5.621506 12.343596 -1.525367 1.097954 -0.000450 0.006333 650707.000000 1 0 0
0.474136 11.168285 -0.596794 11.194265 1.528368 1.624134 0.002085 -0.000645 -375520.000000 1 0 0
-1.507464 -0.650115 3.614906 3.970219 0.407164 0.426292 0.001067 -0.001193 -115801.000000 1 0 0
-4.852564 6.761585 8.873406 12.165679 -0.948312 0.753381 0.003964 -0.004034 -162486.000000 1 0 0
3.507636 -8.663115 -11.311094 14.672897 -1.186079 2.451023 -0.007159 0.001292 692457.000000 1 0 0
6.721236 -3.741615 12.124206 14.358658 -0.507962 0.565384 0.002027 0.002082 -69058.200000 1 0 0
-2.392264 -1.912415 -12.624994 12.991179 0.674385 2.903598 0.014204 -0.004874 960579.000000 1 0 0
-16.148264 -4.959615 5.418306 17.740413 0.297985 1.260415 0.027229 -0.010396 1035830.000000 1 0 0
-8.981764 7.296385 5.890806 12.985027 -0.682230 1.099927 -0.003421 -0.005981 -2895760.000000 1 0 0
-12.867064 1.512485 6.019906 14.285945 -0.117010 1.135823 0.001425 -0.004936 624223.000000 1 0 0
-3.515964 3.451985 10.182306 11.311833 -0.776217 0.450691 0.005220 0.001880 540739.000000 1 0 0
2.036136 -12.255015 -1.193294 12.480192 -1.406153 1.666558 -0.003025 -0.003085 -2507520.000000 1 0 0
10.358236 -5.282015 -3.487794 12.139087 -0.471563 1.862223 0.007081 -0.003590 468238.000000 1 0 0
3.114936 -13.397615 0.956106 13.788148 -1.342356 1.501398 -0.001059 -0.004884 402964.000000 1 0 0
10.017736 -1.672915 -6.071694 11.832968 -0.165468 2.109608 0.004956 -0.003321 -175451.000000 1 0 0
12.052336 -5.297015 -1.448294 13.244422 -0.414089 1.680367 0.008732 -0.004267 -254868.000000 1 0 0
1.463836 0.959685 5.875506 6.130692 0.580299 0.289539 -0.000210 -0.000102 552233.000000 1 0 0
-10.900264 11.807685 6.601306 17.372807 -0.825337 1.181022 0.003170 -0.010043 -676394.000000 1 0 0
4.753536 -14.027415 2.997806 15.111297 -1.244067 1.371090 0.000718 -0.005498 -3508170.000000 1 0 0
5.280836 -3.494715 -1.736994 6.566384 -0.584607 1.838511 0.004430 -0.003784 -1451300.000000 1 0 0
1.975236 -2.946915 -7.700494 8.478412 -0.980302 2.709872 0.002345 -0.002554 -357481.000000 1 0 0
-2.855064 14.677485 -8.817194 17.358654 -1.378676 2.103591 0.001898 -0.005343 -2197840.000000 1 0 0
-2.389964 6.115985 -8.086194 10.416513 -1.198269 2.459549 0.004601 -0.002974 -109793.000000 1 0 0
2.670936 -3.541315 -11.424894 12.255734 -0.924599 2.771263 -0.001378 -0.000249 -1156840.000000 1 0 0
14.594636 2.793785 -2.611694 15.087398 0.189137 1.744777 0.012802 0.004310 643495.000000 1 0 0
-3.553764 13.022685 2.395806 13.709831 -1.304393 1.395144 -0.006202 0.003644 -1008470.000000 1 0 0
7.790636 -5.040815 14.067706 16.852423 -0.574288 0.583102 0.005566 -0.002353 -2003000.000000 1 0 0
-11.453964 7.298585 2.927806 13.893693 -0.567332 1.358476 -0.001151 -0.002014 1460030.000000 1 0 0
-2.322464 11.804285 4.024706 12.685947 -1.376530 1.247961 -0.002322 0.003977 -679107.000000 1 0 0
1.825236 1.497285 0.719606 2.468032 0.687012 1.274928 -0.004470 0.000231 -1327630.000000 1 0 0
-6.992764 8.630185 5.219406 12.272777 -0.889826 1.131522 0.002002 -0.004720 -482480.000000 1 0 0
-1.063564 9.116685 1.014806 9.234444 -1.454660 1.460680 -0.000061 0.000088 139057.000000 1 0 0
4.972336 13.073085 -8.473294 16.353177 1.207344 2.115475 0.008726 -0.007596 -3945000.000000 1 0 0
8.878736 6.948185 7.169006 13.360534 0.664019 1.004416 -0.004929 0.001904 -1446820.000000 1 0 0
7.276736 -13.758515 2.985606 15.848074 -1.084305 1.381275 0.008484 -0.004348 142794.000000 1 0 0
4.207836 -13.338715 -1.278094 14.044953 -1.265217 1.661923 -0.004512 0.001898 -3204280.000000 1 0 0
12.201736 -11.772915 -4.528894 17.549779 -0.767514 1.831810 0.024447 -0.005955 -668483.000000 1 0 0
2.981436 -0.032815 -1.915494 3.543890 -0.011006 2.141835 0.002615 -0.001796 785555.000000 1 0 0
-13.562864 -3.113515 -10.622194 17.506464 0.225652 2.222772 0.016095 -0.007887 658245.000000 1 0 0
-6.573864 13.718985 4.979506 16.006928 -1.123943 1.254462 0.007803 -0.009709 433781.000000 1 0 0
7.325236 -4.325215 -0.653694 8.531933 -0.533371 1.647489 0.003012 -0.004539 -276399.000000 1 0 0
11.821036 2.023185 -7.226594 14.001922 0.169509 2.113105 0.006508 -0.001798 -75575.700000 1 0 0
-7.545064 -4.604415 9.748106 13.158807 0.547926 0.736529 0.007261 0.000848 131032.000000 1 0 0
1.019336 2.743585 8.437806 8.931006 1.215068 0.333884 0.000694 0.001736 -1395650.000000 1 0 0
1.559336 8.013785 -8.706994 11.935830 1.378616 2.388363 0.008065 -0.002393 201462.000000 1 0 0
-8.461764 -1.823615 -5.703694 10.366250 0.212266 2.153421 0.013263 -0.003939 529961.000000 1 0 0
6.703836 -0.457015 7.130706 9.797818 -0.068067 0.755710 0.000848 0.000479 665464.000000 1 0 0
-11.026964 6.554685 7.234606 14.727436 -0.536309 1.057291 0.003725 -0.005301 495360.000000 1 0 0
-6.052164 11.113185 4.857506 13.554591 -1.072114 1.204279 -0.000387 -0.003900 517403.000000 1 0 0
6.094236 -1.223015 -6.879094 9.271322 -0.198053 2.406809 -0.003599 -0.000939 -1002950.000000 1 0 0
4.417836 -5.782915 11.469006 13.582985 -0.918429 0.565416 -0.006016 -0.000100 -1434490.000000 1 0 0
-8.908964 -7.482015 2.814206 11.969542 0.698560 1.333461 0.009022 -0.001479 -2794030.000000 1 0 0
-1.175064 12.709785 -9.354594 15.824912 -1.478605 2.203256 0.010786 0.001191 1068850.000000 1 0 0
-4.736164 9.204785 -2.268694 10.597467 -1.095590 1.786545 -0.002828 -0.001503 769475.000000 1 0 0
-3.209164 9.676985 -0.149794 10.196334 -1.250581 1.585488 0.000797 -0.001049 134957.000000 1 0 0
-3.600764 10.704485 -6.434494 12.998239 -1.246307 2.088664 0.004119 0.001721 1414590.000000 1 0 0
4.890136 -4.858015 0.449806 6.907681 -0.782103 1.505633 0.003121 -0.006069 -1050690.000000 1 0 0
-2.174564 2.996285 -10.914094 11.524925 -0.942995 2.814558 0.008099 -0.005277 -1858380.000000 1 0 0
-3.615764 11.981685 -2.255994 12.717077 -1.277713 1.749139 -0.003880 0.003947 -905955.000000 1 0 0
-0.134764 0.391985 -0.035394 0.416013 -1.239656 1.655978 -0.006744 -0.000571 -1284840.000000 1 0 0
-4.677464 -1.663115 0.064806 4.964758 0.341619 1.557743 -0.000548 -0.000003 -55823.700000 1 0 0
2.614536 2.473885 -2.462094 4.360942 0.757764 2.170719 -0.006305 -0.001651 1272660.000000 1 0 0
5.886536 -9.755115 8.456406 14.188882 -1.027858 0.932301 -0.004537 0.001418 -917370.000000 1 0 0
-4.246464 -5.499815 6.557206 9.553919 0.913294 0.814356 0.001904 -0.002521 385100.000000 1 0 0
-6.248264 5.335885 -12.078794 14.608550 -0.706799 2.544245 -0.001890 -0.001943 200017.000000 1 0 0
-12.895864 3.093185 7.927706 15.450554 -0.235411 1.032002 0.002629 -0.002375 693676.000000 1 0 0
4.878536 -7.404815 -4.977394 10.168866 -0.988237 2.082283 -0.005245 -0.006530 1803710.000000 1 0 0
-5.933664 2.481185 -0.974994 6.505019 -0.396058 1.721247 -0.000567 -0.001430 -714077.000000 1 0 0
-6.920964 -2.810715 -14.563594 16.367594 0.385768 2.667664 0.016290 0.006035 43372.900000 1 0 0
2.642936 -6.094215 0.903706 6.703823 -1.161597 1.435580 -0.000344 -0.002635 -128513.000000 1 0 0
4.874936 -7.951715 13.112206 16.091138 -1.020824 0.618289 0.001265 -0.001363 291446.000000 1 0 0
-10.055764 -1.691115 8.056506 12.995597 0.166615 0.902129 0.008231 -0.000454 -20346.900000 1 0 0
-4.413164 13.231785 -0.058994 13.948464 -1.248871 1.575026 -0.005414 0.002453 691553.000000 1 0 0
6.887936 2.228085 -4.484594 8.515844 0.312853 2.125413 0.001381 -0.001569 -1767470.000000 1 0 0
4.985136 4.505785 0.047306 6.719815 0.734935 1.563756 -0.001014 0.000462 -789935.000000 1 0 0
-5.913964 12.239285 1.882606 13.722947 -1.120683 1.433176 -0.001078 -0.000603 -1491070.000000 1 0 0
6.465136 -7.224415 6.528006 11.687815 -0.840806 0.978183 -0.003536 -0.001935 -3587620.000000 1 0 0
-0.279464 4.889185 7.743006 9.161680 -1.513699 0.563948 -0.000670 0.002206 -802189.000000 1 0 0
-5.732064 -3.451415 -1.492494 6.855389 0.541980 1.790265 0.005460 -0.003656 -423015.000000 1 0 0
2.425036 -6.540315 -5.119994 8.652794 -1.215728 2.203982 -0.000101 -0.003836 -1045090.000000 1 0 0
-14.428364 -4.850315 -3.844094 15.699691 0.324297 1.818163 0.014923 -0.010430 397875.000000 1 0 0
-12.486064 -5.132915 -6.262494 14.881782 0.390031 2.005141 0.017029 -0.011873 -476200.000000 1 0 0
-14.775364 -3.777715 -1.356094 15.310830 0.250314 1.659483 0.008903 -0.004707 378412.000000 1 0 0
11.852236 2.880885 8.828906 15.057376 0.238443 0.944250 0.011315 -0.001890 -1730850.000000 1 0 0
8.645036 -6.525615 7.670306 13.272298 -0.646591 0.954621 0.003655 -0.007083 -101341.000000 1 0 0
-8.828664 -1.749315 -9.809794 13.313056 0.195607 2.399203 0.005483 -0.001338 125269.000000 1 0 0
-8.769764 5.071685 -3.859794 10.841069 -0.524322 1.934817 0.001410 -0.001466 -438694.000000 1 0 0
-4.088864 -6.270215 4.054506 8.513132 0.992940 1.074394 0.003544 -0.001349 -1230590.000000 1 0 0
-0.093464 -9.275015 3.507406 9.916478 1.560720 1.209278 -0.003111 -0.003330 377371.000000 1 0 0
7.830436 -10.459515 3.382706 13.496661 -0.928165 1.317462 -0.000565 -0.006242 67142.900000 1 0 0
-0.103764 6.522085 9.607806 11.612851 -1.554888 0.596436 0.002415 -0.001469 -881393.000000 1 0 0
0.004836 3.392585 -9.767894 10.340281 1.569371 2.807307 0.008238 -0.004230 -1003720.000000 1 0 0
4.534436 -3.165515 11.059806 12.365310 -0.609453 0.463659 -0.001064 0.000731 -2056880.000000 1 0 0
8.593336 -9.106215 1.325706 12.590713 -0.814367 1.465308 0.002715 -0.006974 -127158.000000 1 0 0
-0.348464 -0.482015 11.283606 11.299271 0.944844 0.052663 0.007951 -0.001296 -386683.000000 1 0 0
10.853736 5.978785 11.377006 16.822179 0.503496 0.828055 0.010318 0.005190 -118047.000000 1 0 0
-6.501964 -2.898315 -11.824594 13.802057 0.419322 2.599686 0.014934 -0.000395 709879.000000 1 0 0
-1.706664 2.777285 8.454306 9.060977 -1.019777 0.368008 0.003120 -0.000760 -619304.000000 1 0 0
-1.660864 13.564785 -6.847694 15.285705 -1.448963 2.035301 0.005929 0.002517 536036.000000 1 0 0
7.664336 3.106485 9.791106 12.816320 0.385082 0.701374 -0.000904 0.000902 306616.000000 1 0 0
6.516036 8.426885 -7.964294 13.300417 0.912584 2.212799 0.003057 -0.004978 1288880.000000 1 0 0
6.687336 -3.012715 -3.920294 8.316587 -0.423278 2.061654 0.002820 -0.003862 -1833060.000000 1 0 0
1.992436 8.128285 1.039406 8.433219 1.330412 1.447231 -0.001273 0.000233 967247.000000 1 0 0
-17.623064 6.340585 6.349806 19.776133 -0.345369 1.243922 0.030865 -0.009115 585209.000000 1 0 0
-14.732664 2.876785 -10.160194 18.126137 -0.192839 2.165819 0.035133 -0.004161 -961248.000000 1 0 0
-18.253364 0.085285 -4.658394 18.838610 -0.004672 1.820667 0.030428 -0.008406 -99748.000000 1 0 0
-13.063864 8.026685 0.128106 15.333253 -0.550954 1.562441 0.010844 0.000776 -1063550.000000 1 0 0
-12.614964 -4.344315 -12.709994 18.427000 0.331657 2.331938 0.013656 0.003167 -1026060.000000 1 0 0
-17.304764 -0.696715 -8.697294 19.379969 0.040240 2.036193 0.028652 -0.011579 -550002.000000 1 0 0
-16.751764 -2.208915 -2.127094 17.030133 0.131105 1.696025 0.028777 -0.008111 -181628.000000 1 0 0
-15.386664 4.027285 1.735206 15.999356 -0.255996 1.462128 0.008929 -0.000308 371874.000000 1 0 0
-13.138564 5.783085 4.371406 15.005837 -0.414642 1.275197 0.000707 -0.001509 304447.000000 1 0 0
-10.069764 14.096785 2.744406 17.539991 -0.950517 1.413685 0.026221 -0.012923 -288795.000000 1 0 0
-11.627164 2.364385 -6.526994 13.541895 -0.200615 2.073715 0.002204 0.003642 -43506.600000 1 0 0
-15.919564 10.529485 3.900506 19.481184 -0.584360 1.369215 0.023773 -0.010181 899155.000000 1 0 0
-12.655564 1.031585 -8.624094 15.349348 -0.081333 2.167422 0.011663 -0.002720 567321.000000 1 0 0
-12.377364 14.280285 3.909406 19.297905 -0.856661 1.366803 0.022645 -0.016193 -537482.000000 1 0 0
-10.415964 11.211185 -1.025394 15.337354 -0.822151 1.637702 0.015152 -0.001761 608941.000000 1 0 0
-17.031964 5.660585 8.884306 20.026506 -0.320866 1.111154 0.019484 -0.009347 433835.000000 1 0 0
-11.798764 12.609485 -9.235394 19.583219 -0.818601 2.061898 0.023070 -0.013374 -1029340.000000 1 0 0
-17.197164 -0.521415 2.932806 17.453243 0.030311 1.401957 0.020284 -0.006056 762314.000000 1 0 0
-13.216564 14.904085 -0.845094 19.937992 -0.845336 1.613195 0.044702 -0.009339 -89839.700000 1 0 0
-16.304964 4.793285 -10.437294 19.944035 -0.285922 2.121549 0.044334 -0.006426 75319.000000 1 0 0
-11.843664 7.532485 -9.040394 16.695492 -0.566465 2.143001 0.009802 0.000844 -210677.000000 1 0 0
-14.849064 13.417285 -2.169594 20.130211 -0.734788 1.678784 0.056069 -0.019053 301376.000000 1 0 0
-11.933164 10.653085 -5.407794 16.885878 -0.728784 1.896795 0.027851 -0.007302 1280530.000000 1 0 0
-17.719864 2.858785 -0.816494 17.967551 -0.159954 1.616255 0.027707 -0.002539 -135720.000000 1 0 0
-9.263664 15.402185 0.782906 17.990435 -1.029310 1.527265 0.025752 -0.008014 20206.000000 1 0 0
-8.187864 13.155385 -3.663394 15.922492 -1.014071 1.802953 0.001616 0.000975 -1041650.000000 1 0 0
-17.883564 11.516885 2.314206 21.396637 -0.572141 1.462427 0.067683 -0.003824 -149582.000000 1 0 0
-8.014364 15.671285 -7.386194 19.088611 -1.098067 1.968110 0.023628 -0.021547 130218.000000 1 0 0
-6.281164 15.292385 -5.422494 17.398664 -1.181067 1.887737 0.006231 -0.000454 -556317.000000 1 0 0
-17.348664 5.251085 -0.166094 18.126711 -0.293913 1.579959 0.034622 -0.001264 775479.000000 1 0 0
-5.319764 12.326985 -12.455494 18.313760 -1.163387 2.318718 -0.014214 0.001633 -1261160.000000 1 0 0
-11.065764 3.667885 -11.354194 16.273360 -0.320066 2.343001 -0.003466 -0.001121 315076.000000 1 0 0
-11.743964 11.035085 1.160006 16.156714 -0.754288 1.498937 0.017038 -0.004565 -446862.000000 1 0 0
-12.851664 0.185585 -11.068594 16.962119 -0.014440 2.281738 0.007988 -0.006065 401093.000000 1 0 0
-14.004264 -2.156115 -12.962794 19.204225 0.152762 2.311757 0.016755 -0.005013 -14599.800000 1 0 0
-18.815964 -2.248715 -3.703294 19.308330 0.118947 1.763790 0.031365 -0.008269 580810.000000 1 0 0
-18.345464 4.933885 -5.172594 19.688957 -0.262726 1.836632 0.045104 -0.002265 -175015.000000 1 0 0
-8.188164 15.392585 -2.301094 17.586152 -1.081913 1.702020 0.019493 -0.005923 251837.000000 1 0 0
-16.166964 9.294085 -5.238494 19.369888 -0.521745 1.844652 0.042992 -0.001510 100163.000000 1 0 0
-18.355464 1.591085 1.964206 18.528700 -0.086466 1.464588 0.050337 -0.009805 164221.000000 1 0 0
-15.739264 -2.717715 -8.629294 18.154204 0.170985 2.066139 0.020738 -0.012445 643124.000000 1 0 0
-9.798964 10.502785 -7.127494 16.035254 -0.820052 2.031400 0.004609 -0.006034 569441.000000 1 0 0
-13.917264 11.967185 -7.788094 19.938861 -0.710202 1.972078 0.041439 -0.021598 595096.000000 1 0 0
-11.075664 6.434585 -3.862594 13.378859 -0.526306 1.863674 0.003941 0.001726 -1322360.000000 1 0 0
-13.053164 4.912285 -12.651994 18.830523 -0.359935 2.307551 0.022076 -0.004637 970546.000000 1 0 0
-17.804864 8.938185 2.626106 20.094795 -0.465253 1.439736 0.048457 -0.015469 1215270.000000 1 0 0
-13.295564 8.686585 -6.557394 17.182206 -0.578723 1.962365 0.021519 -0.003592 -288785.000000 1 0 0
-15.850064 7.055285 -3.971694 17.798201 -0.418794 1.795843 0.022915 0.007141 -808556.000000 1 0 0
-14.793364 -0.373615 -9.409594 17.536353 0.025250 2.137171 0.021443 -0.008884 362106.000000 1 0 0
-9.772764 5.889985 -6.035694 12.908464 -0.542398 2.057343 0.000324 0.004529 444526.000000 1 0 0
-12.802864 12.243085 -0.909494 17.737916 -0.763052 1.622093 0.037085 -0.008549 -324836.000000 1 0 0
-10.674564 3.509585 -13.966994 17.925971 -0.317647 2.464103 0.001873 -0.001138 207459.000000 1 0 0
-10.816964 6.192885 -11.920394 17.246865 -0.519966 2.333893 -0.007035 -0.001218 -95920.000000 1 0 0
-5.655264 11.585685 -14.912894 19.713055 -1.116694 2.428739 -0.004125 -0.008013 -371820.000000 1 0 0
-15.685464 13.119185 3.432806 20.734777 -0.696540 1.404473 0.026183 -0.017875 140278.000000 1 0 0
-15.245864 11.034785 -3.046394 19.065240 -0.626514 1.731272 0.057401 -0.007553 1217620.000000 1 0 0
-18.197164 7.823185 -4.711594 20.360210 -0.406024 1.804325 0.043713 -0.000564 32888.000000 1 0 0
-4.015864 16.234785 -10.521194 19.758313 -1.328302 2.132341 0.003391 -0.005886 107572.000000 1 0 0
-15.819664 4.458085 -4.583594 17.062990 -0.274683 1.842765 0.023025 0.004007 1338230.000000 1 0 0
-18.727064 -1.854415 -6.271894 19.836291 0.098701 1.892499 0.036458 -0.012327 521089.000000 1 0 0
-10.803764 8.585785 -5.747894 14.949091 -0.671503 1.965460 0.008347 0.001614 -532104.000000 1 0 0
-11.462964 13.606785 -6.852394 19.065662 -0.870705 1.938432 0.020386 -0.009903 113315.000000 1 0 0
-9.454964 10.570485 -4.415994 14.853704 -0.841046 1.872659 -0.000972 0.002598 -28731.500000 1 0 0
-11.033664 6.360985 -0.227494 12.737960 -0.522966 1.588657 0.007132 0.001817 -593786.000000 1 0 0
-14.649664 9.388585 -1.416994 17.457551 -0.569933 1.652054 0.037645 -0.004023 380783.000000 1 0 0
-18.372364 3.529085 4.634006 19.273615 -0.189775 1.327985 0.025835 -0.014388 183663.000000 1 0 0
-14.764464 13.409585 0.437306 19.949878 -0.737346 1.548874 0.035173 0.000826 516808.000000 1 0 0
-16.982664 2.546485 -9.085194 19.427718 -0.148837 2.057416 0.042446 -0.006310 -340690.000000 1 0 0
-9.176764 8.446385 -8.783094 15.254415 -0.743978 2.184347 -0.001694 0.005332 -1911270.000000 1 0 0
-17.723064 4.682885 -2.672494 18.525082 -0.258322 1.715565 0.030360 0.002375 794062.000000 1 0 0
-13.608464 5.890685 -4.339094 15.450508 -0.408517 1.855464 0.019586 0.003216 103611.000000 1 0 0
-12.156864 9.544485 3.175306 15.778755 -0.665596 1.368173 0.002654 -0.005268 853339.000000 1 0 0
-17.697264 2.625685 -4.173594 18.371344 -0.147292 1.799977 0.032142 0.004016 1024560.000000 1 0 0
-11.251864 1.434985 -12.634594 16.979299 -0.126848 2.410009 0.007019 0.002032 19371.100000 1 0 0
-11.154164 11.951585 3.540906 16.727038 -0.819896 1.357495 0.010740 -0.008741 278877.000000 1 0 0
-16.774064 12.929185 -3.974194 21.548255 -0.656671 1.756291 0.073683 -0.018913 248082.000000 1 0 0
-11.040364 4.108285 -4.715794 12.688828 -0.356239 1.951581 0.001773 0.000956 -451011.000000 1 0 0
-11.119164 15.158385 -8.817794 20.764536 -0.937918 2.009379 0.029706 -0.017048 197823.000000 1 0 0
-15.527864 7.159885 -0.318494 17.102046 -0.432046 1.589421 0.025643 -0.000177 502808.000000 1 0 0
-12.839164 8.406585 -4.034994 15.868081 -0.579715 1.827903 0.022028 -0.000844 812255.000000 1 0 0
-19.141464 1.826285 -6.275094 20.226413 -0.095122 1.886244 0.043706 -0.004721 511943.000000 1 0 0
-12.504664 10.042185 -8.898294 18.340986 -0.676613 2.077341 0.019000 -0.016411 501750.000000 1 0 0
-16.844864 10.836585 -0.943694 20.051723 -0.571663 1.617877 0.054475 -0.010206 653017.000000 1 0 0
-10.758964 6.367185 -14.456494 19.112472 -0.534370 2.428574 0.002187 -0.009899 -257272.000000 1 0 0
-14.308964 12.766185 -4.669994 19.736534 -0.728478 1.809679 0.062998 -0.015568 229408.000000 1 0 0
-18.137564 7.704985 -0.239594 19.707751 -0.401708 1.582954 0.048213 -0.005154 680652.000000 1 0 0
-12.798064 6.705385 -2.063194 14.594842 -0.482614 1.712636 0.010450 0.001567 767708.000000 1 0 0
-13.654664 8.365085 -10.627894 19.219174 -0.549645 2.156738 0.014909 -0.008701 -910260.000000 1 0 0
-14.927164 1.434285 -1.028094 15.031114 -0.095792 1.639247 0.006653 0.000759 -932626.000000 1 0 0
-13.293064 2.814485 -2.429094 13.803166 -0.208645 1.747698 0.005859 0.001292 113192.000000 1 0 0
-11.141064 9.117585 -10.950594 18.087819 -0.685846 2.221081 0.000498 -0.011896 206936.000000 1 0 0
-15.295664 4.283185 -8.068894 17.816006 -0.273033 2.040813 0.027415 0.000554 445180.000000 1 0 0
-18.444764 10.434785 4.599706 21.685280 -0.514841 1.357061 0.066301 -0.022364 484934.000000 1 0 0
-15.360564 6.234685 -6.337994 17.747913 -0.385573 1.935971 0.030400 0.006635 383758.000000 1 0 0
-7.622864 11.368685 -13.059494 18.918389 -0.980135 2.332709 -0.014052 -0.002979 -1223710.000000 1 0 0
-16.959264 9.048685 -2.759794 19.419367 -0.490129 1.713395 0.051662 -0.006993 1045090.000000 1 0 0
-20.708264 -0.805015 -4.767894 21.265302 0.038855 1.796929 0.045521 -0.010803 233633.000000 1 0 0
-15.451664 4.303385 4.152306 16.568485 -0.271623 1.317481 0.009705 -0.002948 -278772.000000 1 0 0
-7.020564 12.600285 -9.523994 17.284733 -1.062461 2.154366 -0.001346 -0.003268 -1661560.000000 1 0 0
-17.073264 1.567985 5.769806 18.089931 -0.091582 1.246174 0.023363 -0.011319 701730.000000 1 0 0
-10.376964 14.280685 -3.130294 17.928137 -0.942412 1.746298 0.029529 -0.012428 501752.000000 1 0 0
-9.859064 8.328185 -13.070394 18.368316 -0.701423 2.362531 -0.016507 -0.006064 -44403.700000 1 0 0
-13.689964 11.583185 2.744706 18.141629 -0.702230 1.418920 0.020872 -0.008011 808195.000000 1 0 0
-16.797264 6.730285 1.880106 18.192845 -0.381090 1.467268 0.022510 -0.004133 770774.000000 1 0 0
-9.391064 13.279785 -8.417494 18.313902 -0.955275 2.048367 0.013574 -0.018204 5895.980000 1 0 0
-5.583264 9.855785 -13.031194 17.266191 -1.055376 2.426028 -0.000071 0.000882 -363953.000000 1 0 0
-15.947064 1.749585 3.085506 16.336776 -0.109275 1.380786 0.008354 -0.000393 -17927.300000 1 0 0
-18.759764 -4.843015 4.683506 19.932857 0.252643 1.333615 0.054759 -0.009179 2049740.000000 1 0 0
-5.371264 14.509485 -9.116794 17.958051 -1.216249 2.103277 0.002350 -0.003325 -349147.000000 1 0 0
-15.393164 -0.750115 -6.849294 16.864905 0.048692 1.989008 0.019001 -0.007483 877033.000000 1 0 0
-8.996964 11.052485 -9.496994 17.125878 -0.887564 2.158607 -0.006888 -0.007857 298646.000000 1 0 0
-16.576564 1.476885 -6.174094 17.750581 -0.088860 1.926046 0.010779 -0.001186 241779.000000 1 0 0
-11.154364 8.639385 -1.512694 14.189682 -0.659016 1.677604 0.012026 -0.002113 -674347.000000 1 0 0
-10.574064 10.835485 -12.847094 19.856143 -0.797608 2.274451 -0.006968 -0.008867 -45480.100000 1 0 0
-13.934964 11.608985 -10.428694 20.921506 -0.694591 2.092627 0.030831 -0.020154 6046.940000 1 0 0
-13.146364 5.762785 -7.562894 16.224486 -0.413129 2.055720 0.016768 0.002133 -535316.000000 1 0 0
-8.734464 15.198385 -4.943094 18.213071 -1.049190 1.845647 0.013022 -0.015884 -389429.000000 1 0 0
-8.482464 6.083785 -13.099094 16.749654 -0.622189 2.468747 -0.007482 -0.002465 -76525.200000 1 0 0
-16.417164 7.432885 4.304006 18.528236 -0.425139 1.336360 0.026327 -0.003451 822554.000000 1 0 0
-12.608164 5.428385 -10.175694 17.087361 -0.406558 2.208697 0.011657 0.000136 279530.000000 1 0 0
-12.407964 9.026585 -13.260094 20.279717 -0.628934 2.283471 0.005350 -0.009676 -535266.000000 1 0 0
-10.733664 5.200485 -8.409694 14.593819 -0.451173 2.184930 -0.003917 0.003131 -338980.000000 1 0 0
-17.927364 -4.390615 -2.538194 18.630897 0.240184 1.707457 0.036114 -0.010482 816065.000000 1 0 0
-8.961064 13.144585 -11.016594 19.350611 -0.972437 2.176469 0.011951 -0.012755 39150.200000 1 0 0
-15.005264 6.184985 6.074206 17.329396 -0.390969 1.212676 0.013316 -0.008162 -1195540.000000 1 0 0
-16.453764 -3.213115 -4.429894 17.339966 0.192854 1.829133 0.026693 -0.009949 -202996.000000 1 0 0
-11.154664 -1.148415 -12.712694 16.951636 0.102592 2.418766 0.010230 0.004898 -7245.160000 1 0 0
-15.239464 6.792785 -8.701794 18.817663 -0.419303 2.051527 0.025557 0.000148 -520781.000000 1 0 0
-14.944164 9.264985 1.229806 17.626129 -0.554977 1.500968 0.029855 -0.005520 -3354.340000 1 0 0
-19.443264 5.339085 7.950506 21.673876 -0.267993 1.195203 0.059112 -0.020998 -455418.000000 1 0 0
-16.347464 0.533785 0.732006 16.372549 -0.032641 1.526072 0.016376 -0.003067 -214614.000000 1 0 0
-17.455864 3.809785 7.097506 19.224886 -0.214883 1.192666 0.020195 -0.011280 667269.000000 1 0 0
-15.459464 4.089885 -1.523694 16.063743 -0.258630 1.665792 0.009391 0.000228 -913324.000000 1 0 0
-10.768864 13.376685 0.280806 17.175069 -0.892985 1.554446 0.030140 -0.009555 -967972.000000 1 0 0
-13.480364 3.371085 0.082706 13.895729 -0.245048 1.564844 0.006295 0.000866 258892.000000 1 0 0
-15.116064 0.172085 -4.405294 15.745845 -0.011384 1.854356 0.017084 -0.001942 37356.100000 1 0 0
-18.908964 6.747385 3.468006 20.374082 -0.342751 1.399747 0.045005 -0.011607 993920.000000 1 0 0
-13.960964 1.337585 -6.401294 15.416686 -0.095517 1.998979 0.015976 -0.000697 -418181.000000 1 0 0
-14.309364 12.010785 5.256106 19.407306 -0.698288 1.296540 0.012465 -0.013033 101546.000000 1 0 0
17.652736 5.526385 6.380006 19.566923 0.303396 1.238663 0.016638 -0.003858 -331656.000000 1 0 0
18.501536 7.707785 -0.309494 20.045263 0.394736 1.586237 0.009800 0.008560 346110.000000 1 0 0
16.451836 5.245585 8.637506 19.307656 0.308655 1.106983 0.023075 -0.000769 485440.000000 1 0 0
11.723836 12.260485 11.010306 20.223617 0.807769 0.995089 0.011494 0.003010 478991.000000 1 0 0
-2.304264 16.270785 -0.542894 16.442105 -1.430112 1.603821 -0.005158 -0.001051 7905.220000 1 0 0
15.040036 12.720085 3.231306 19.961077 0.702021 1.408200 0.030641 0.000301 106663.000000 1 0 0
13.641936 11.803685 6.574206 19.200250 0.713281 1.221324 0.019112 -0.003157 707089.000000 1 0 0
-0.681064 15.781185 8.668506 18.018120 -1.527666 1.068888 0.009299 -0.002334 -298657.000000 1 0 0
0.733036 12.894485 9.422606 15.987201 1.514009 0.940500 0.005971 -0.001162 49188.800000 1 0 0
0.789636 15.570885 -3.920294 16.076215 1.520127 1.817137 0.005385 -0.000666 -226186.000000 1 0 0
5.567036 10.374085 13.586606 17.978025 1.078277 0.714022 0.012167 -0.010840 72672.400000 1 0 0
-1.328164 16.460385 -2.831394 16.754853 -1.490282 1.740601 0.000538 0.000540 -519848.000000 1 0 0
8.531836 10.009985 3.329506 13.567522 0.864950 1.322861 0.009641 -0.005007 486656.000000 1 0 0
12.572836 13.672785 -4.874494 19.203696 0.827283 1.827435 0.035851 -0.015459 -135938.000000 1 0 0
2.482836 11.566485 7.783206 14.160733 1.359347 0.988871 0.010339 0.002891 836119.000000 1 0 0
-0.442264 15.020985 -8.776094 17.402455 -1.541362 2.099370 0.009252 0.004668 -1401990.000000 1 0 0
2.331436 15.797785 0.430806 15.974705 1.424274 1.543825 0.008654 -0.007488 -1424520.000000 1 0 0
1.865736 13.458185 5.310506 14.587844 1.433042 1.198198 0.006653 0.004925 1021010.000000 1 0 0
17.535036 9.274785 -2.068494 19.944367 0.486522 1.674696 0.000282 0.004677 568079.000000 1 0 0
-7.252864 15.000385 7.197806 18.150042 -1.120426 1.163016 0.010867 -0.014558 -1230790.000000 1 0 0
8.509736 15.906985 -0.159194 18.040874 1.079567 1.579621 0.011599 -0.006302 -498958.000000 1 0 0
15.727536 10.424085 2.181606 18.994113 0.585315 1.455685 0.013625 0.002042 -62142.700000 1 0 0
13.995736 7.621985 8.741106 18.176419 0.498683 1.069111 0.012281 -0.001851 -1038710.000000 1 0 0
4.245436 18.453485 -1.873094 19.027962 1.344670 1.669395 0.012506 -0.011894 -1121060.000000 1 0 0
-0.505564 17.559985 -4.917594 18.242572 -1.542014 1.843740 0.010954 0.001729 588143.000000 1 0 0
1.388936 13.705185 -0.767294 13.796738 1.469797 1.626439 0.004798 -0.004426 -116518.000000 1 0 0
10.140936 14.600785 4.178306 18.261428 0.963739 1.339946 0.019433 -0.006538 -76611.900000 1 0 0
-1.746064 15.292285 -5.114994 16.219306 -1.457109 1.891637 0.006096 0.001559 1608420.000000 1 0 0
15.068036 8.635585 -6.148194 18.423336 0.520410 1.911041 0.023246 -0.014800 392619.000000 1 0 0
-2.433564 18.454485 0.902106 18.636096 -1.439684 1.522371 0.000373 -0.005225 -215607.000000 1 0 0
-3.855264 19.304585 3.547306 20.002836 -1.373682 1.392513 0.011006 -0.013824 126763.000000 1 0 0
1.860936 17.728585 -2.610994 18.016190 1.466211 1.716233 0.006380 -0.002293 -306982.000000 1 0 0
2.855636 12.262885 3.275006 13.009945 1.342006 1.316328 0.002275 0.001932 1108480.000000 1 0 0
-2.613264 16.135685 1.995606 16.467299 -1.410235 1.449312 -0.003601 -0.002967 -515468.000000 1 0 0
11.909136 12.830185 -2.584894 17.695278 0.822611 1.717399 0.017727 -0.004238 507157.000000 1 0 0
7.257236 11.704885 4.784606 14.579584 1.015788 1.236429 0.006929 -0.000910 -185717.000000 1 0 0
7.076936 15.731685 1.964506 17.361689 1.148065 1.457402 0.009174 -0.004076 -2560500.000000 1 0 0
5.488236 12.104385 10.297806 16.813140 1.145111 0.911595 0.005899 -0.000339 -386851.000000 1 0 0
-1.413864 14.121685 3.094806 14.525799 -1.471009 1.356095 -0.001896 0.002469 -529014.000000 1 0 0
4.462936 15.953685 1.655306 16.648661 1.298026 1.471206 0.006444 -0.009459 -915628.000000 1 0 0
7.240936 13.242485 11.921506 19.233223 1.070416 0.902259 0.007905 -0.003037 107525.000000 1 0 0
0.709536 17.169685 -9.371894 19.573807 1.529495 2.070081 0.012748 0.001107 289465.000000 1 0 0
9.837436 9.539085 15.451806 20.652545 0.770002 0.725483 0.024338 -0.010252 -377279.000000 1 0 0
13.448436 7.568985 -0.182994 15.433193 0.512629 1.582654 0.000717 0.003989 -222663.000000 1 0 0
12.462936 13.676585 -0.130894 18.503807 0.831795 1.577870 0.026422 -0.002567 659385.000000 1 0 0
9.412636 12.297485 3.338106 15.841995 0.917505 1.358493 0.011588 0.002171 1337270.000000 1 0 0
-0.761264 12.827485 0.640306 12.865998 -1.511520 1.521008 0.001957 -0.000255 -364047.000000 1 0 0
15.994136 7.457585 -0.908894 17.670712 0.436301 1.622254 -0.001286 0.008660 -1074020.000000 1 0 0
-4.158964 18.513185 -2.470794 19.134781 -1.349816 1.700284 0.004201 -0.004150 224022.000000 1 0 0
11.644536 9.340585 -3.214794 15.270123 0.676046 1.782912 0.011654 -0.004897 157963.000000 1 0 0
14.719236 9.713085 7.699006 19.242521 0.583297 1.159166 0.018115 -0.008245 -570951.000000 1 0 0
4.506136 13.701385 4.748406 15.184880 1.253058 1.252756 0.010190 0.003132 -9409.350000 1 0 0
2.111336 16.005585 5.786506 17.149932 1.439641 1.226635 0.008278 0.003951 20617.300000 1 0 0
6.299536 18.351285 5.423006 20.146037 1.240125 1.298250 0.025763 -0.015499 120079.000000 1 0 0
10.632536 17.117085 -0.874794 20.169549 1.014959 1.614182 0.033426 -0.008835 -843425.000000 1 0 0
9.995736 13.657785 -4.305994 17.464004 0.938999 1.819929 0.019863 -0.007797 1408860.000000 1 0 0
16.587436 7.954685 2.480206 18.562636 0.447163 1.436783 -0.003263 0.006873 128422.000000 1 0 0
3.948036 14.065185 -0.431894 14.615162 1.297143 1.600352 0.005360 -0.005352 -1116660.000000 1 0 0
5.507836 13.126485 -2.356194 14.428878 1.173511 1.734828 0.007191 -0.006986 -414489.000000 1 0 0
-6.164664 16.966285 -2.943494 18.289945 -1.222280 1.732434 0.006312 -0.000501 -2167840.000000 1 0 0
18.148836 10.097885 2.892906 20.969417 0.507738 1.432397 0.018236 0.002180 317885.000000 1 0 0
7.955936 12.888985 9.372306 17.811877 1.017778 1.016691 0.009054 -0.000307 166878.000000 1 0 0
-2.524564 15.762685 6.818506 17.358793 -1.411984 1.167124 -0.002407 -0.004193 -890015.000000 1 0 0
11.029036 16.078085 6.156906 20.446319 0.969551 1.264924 0.023910 0.000375 42781.400000 1 0 0
13.627936 11.863785 1.284006 18.114047 0.716303 1.499852 0.022096 0.000020 541644.000000 1 0 0
17.520136 7.796985 -5.496994 19.949062 0.418713 1.849960 0.023579 0.004068 -142308.000000 1 0 0
9.612836 9.292985 8.054706 15.609115 0.768482 1.028592 0.003088 0.001346 -278735.000000 1 0 0
-2.163164 14.102285 -2.058194 14.414919 -1.418592 1.714068 -0.001279 -0.000021 608059.000000 1 0 0
11.008636 11.652485 0.692506 16.045250 0.813803 1.527623 0.010843 0.002180 37941.200000 1 0 0
11.737136 9.707385 -0.563394 15.241755 0.691028 1.607769 0.004829 0.002871 -2027010.000000 1 0 0
-0.349164 16.348585 11.205606 19.823314 -1.549442 0.970031 0.013277 -0.003599 -256689.000000 1 0 0
2.257136 20.151085 -1.642094 20.343485 1.459251 1.651603 0.013421 -0.006786 -272886.000000 1 0 0
9.209636 14.318885 1.744806 17.114094 0.999230 1.468667 0.014854 -0.001601 -93523.800000 1 0 0
8.574336 11.628385 -5.119894 15.328141 0.935432 1.911361 0.009145 -0.004430 -1095330.000000 1 0 0
10.723436 9.987485 10.289106 17.905520 0.749879 0.958640 0.004727 0.000027 1138860.000000 1 0 0
-5.083364 15.745085 5.939306 17.579069 -1.258507 1.226152 -0.007997 -0.005308 887767.000000 1 0 0
14.370736 9.207785 -1.901994 17.173204 0.569832 1.681778 0.012372 0.005109 -531622.000000 1 0 0
12.228936 9.644685 6.822706 17.003416 0.667799 1.157910 0.002465 -0.003645 -1623900.000000 1 0 0
3.210336 12.943785 9.785906 16.541215 1.327681 0.937745 0.013005 0.000172 -690295.000000 1 0 0
8.514736 12.593285 -2.627894 15.427164 0.976269 1.741973 0.011101 -0.004359 -665694.000000 1 0 0
9.313136 17.002585 2.100906 19.499647 1.069684 1.462846 0.016262 -0.004194 -178565.000000 1 0 0
9.584236 14.149085 -7.475094 18.652915 0.975417 1.983128 0.024682 -0.016867 -1282510.000000 1 0 0
6.403336 11.564385 7.315906 15.108283 1.065108 1.065312 0.004586 0.004357 -1170730.000000 1 0 0
5.502436 16.928485 -5.596694 18.659405 1.256528 1.875426 0.005829 0.000366 -2138470.000000 1 0 0
-4.292664 17.281985 -4.718694 18.421728 -1.327334 1.829832 0.002383 0.003339 425550.000000 1 0 0
-0.208364 18.732585 -0.509494 18.740671 -1.559674 1.597986 -0.000956 0.000397 -62962.600000 1 0 0
6.483336 15.620485 -2.771694 17.138130 1.177381 1.733237 0.002874 -0.002778 777071.000000 1 0 0
-1.120064 20.593685 1.005006 20.648595 -1.516461 1.522105 -0.003231 -0.008500 -104609.000000 1 0 0
-1.394664 18.799085 4.255006 19.325004 -1.496744 1.348796 0.003014 -0.009774 534660.000000 1 0 0
7.294336 13.779485 -4.316794 16.177647 1.083936 1.840906 0.008878 -0.003546 -665717.000000 1 0 0
-1.040164 11.956285 7.736606 14.278998 -1.484018 0.998199 0.003703 0.005068 861631.000000 1 0 0
7.720836 10.907585 10.988106 17.301017 0.954827 0.882641 0.004540 0.000230 362112.000000 1 0 0
1.447436 15.961685 -7.182194 17.562869 1.480362 1.992091 0.008956 -0.002705 396756.000000 1 0 0
8.973136 7.213485 14.814806 18.762463 0.677113 0.660642 0.021606 -0.001138 292767.000000 1 0 0
11.401936 11.364085 -4.787794 16.794926 0.783736 1.859880 0.018294 -0.009927 -560268.000000 1 0 0
-3.346064 16.976985 4.579006 17.899203 -1.376196 1.312099 -0.003992 -0.004240 -190419.000000 1 0 0
3.922036 15.356985 -6.738894 17.223010 1.320750 1.972811 0.010802 -0.004052 -1475410.000000 1 0 0
-4.508964 14.084885 9.459906 17.555756 -1.260977 1.001726 0.013517 -0.011049 -196633.000000 1 0 0
6.125536 17.576785 0.471906 18.619567 1.235457 1.545449 0.007690 -0.016742 -324519.000000 1 0 0
9.785336 10.710785 -2.027294 14.648674 0.830520 1.709636 0.009695 -0.001162 -1160830.000000 1 0 0
7.300136 18.143285 -2.553594 19.722871 1.188257 1.700635 0.008151 -0.000505 117953.000000 1 0 0
3.541936 10.377285 10.586206 15.241428 1.241878 0.802977 0.007017 0.000022 1750590.000000 1 0 0
-0.004764 18.565185 2.040806 18.677019 -1.570540 1.461309 0.000348 -0.009377 -13576.500000 1 0 0
-1.004264 17.095585 -7.416794 18.662166 -1.512120 1.979504 0.014730 0.002171 -85176.600000 1 0 0
10.113436 8.718985 12.947506 18.599468 0.711488 0.800814 0.013847 -0.002654 -406665.000000 1 0 0
3.669136 11.428685 5.476606 13.193583 1.260145 1.142748 0.002216 0.003042 853160.000000 1 0 0
13.041636 13.891485 8.150206 20.723983 0.816942 1.166606 0.022866 -0.009282 53807.400000 1 0 0
-0.530464 17.452185 6.753506 18.720844 -1.540410 1.201727 0.004813 -0.005125 -697098.000000 1 0 0
12.045736 13.749885 5.731706 19.157546 0.851366 1.266955 0.016449 0.000723 -298092.000000 1 0 0
4.909636 14.573385 -4.496894 16.022177 1.245848 1.855285 0.004715 -0.001879 -539435.000000 1 0 0
3.837836 17.635185 4.759606 18.665010 1.356514 1.312947 0.019441 -0.005286 410833.000000 1 0 0
7.091436 11.630585 2.087006 13.780950 1.023258 1.418770 0.012655 -0.005264 324303.000000 1 0 0
6.382436 8.802685 11.665306 15.946853 0.943452 0.750260 0.003472 -0.005188 386893.000000 1 0 0
-5.416064 14.818985 1.801606 15.880235 -1.220397 1.457102 0.000816 0.000528 355827.000000 1 0 0
6.875236 13.794885 6.067906 16.564637 1.108437 1.195749 0.010937 0.000107 427583.000000 1 0 0
5.883336 15.819785 4.897406 17.574522 1.214749 1.288392 0.013172 -0.007720 841618.000000 1 0 0
1.249036 18.056585 4.293306 18.601958 1.501733 1.337898 0.012623 -0.005769 -40070.900000 1 0 0
7.356436 18.033985 -6.997594 20.695606 1.183480 1.915715 0.012922 0.001177 496222.000000 1 0 0
-2.462864 18.822785 -5.951194 19.894212 -1.440691 1.874590 0.010316 0.004039 -1088200.000000 1 0 0
13.628536 10.196385 -4.554794 17.619575 0.642325 1.832273 0.020435 -0.004608 -1952580.000000 1 0 0
-1.754264 18.007885 9.710606 20.534295 -1.473686 1.078221 0.014962 -0.012138 -346425.000000 1 0 0
3.402536 11.847785 -1.516194 12.419586 1.291135 1.693183 0.006763 -0.006030 -580053.000000 1 0 0
4.237736 14.013385 -10.869194 18.233835 1.277133 2.209432 0.018727 -0.013116 -244752.000000 1 0 0
11.616336 13.408985 2.372006 17.898787 0.856909 1.437882 0.023094 -0.002272 1837400.000000 1 0 0
16.038636 6.558585 -7.275294 18.793158 0.388176 1.968307 0.017158 -0.003303 323293.000000 1 0 0
2.385836 16.122785 3.107606 16.591975 1.423883 1.382388 0.005890 -0.003503 -570471.000000 1 0 0
13.519136 10.693885 3.566706 17.602489 0.669240 1.366758 0.009364 0.005225 -345023.000000 1 0 0
-5.120064 19.396385 -6.095794 20.966486 -1.312713 1.865796 0.011745 -0.008621 656619.000000 1 0 0
5.462736 12.039685 0.109906 13.221482 1.144847 1.562484 0.007504 -0.004214 263736.000000 1 0 0
4.495736 15.435685 9.730306 18.792309 1.287381 1.026541 0.013634 0.000069 -275456.000000 1 0 0
7.882336 9.328185 13.837506 18.455970 0.869211 0.723100 0.012068 -0.012856 -1612220.000000 1 0 0
-5.085464 13.551485 7.047306 16.098734 -1.211789 1.117696 0.000797 -0.003809 -880177.000000 1 0 0
-4.544964 17.027585 0.691206 17.637265 -1.309960 1.531596 0.003106 -0.002309 -1946220.000000 1 0 0
-0.613564 16.507585 3.550706 16.896282 -1.533645 1.359071 0.002531 -0.003588 -1596060.000000 1 0 0
7.864536 16.965685 -4.727494 19.288199 1.136727 1.818417 0.003744 -0.001728 712957.000000 1 0 0
3.229836 16.442085 -4.388294 17.321407 1.376829 1.826933 0.006989 -0.002505 -257199.000000 1 0 0
9.504336 14.464585 8.272106 19.182919 0.989463 1.124949 0.013497 -0.000799 235159.000000 1 0 0
12.832236 10.960285 8.993306 19.122596 0.706882 1.081169 0.016646 -0.011135 -576873.000000 1 0 0
3.891136 12.373785 12.317306 17.887636 1.266121 0.811249 0.015133 -0.002949 553245.000000 1 0 0
-3.270864 19.148385 6.033606 20.341180 -1.401613 1.269645 0.004136 -0.014063 -51912.400000 1 0 0
-2.660864 15.710185 10.343106 18.996578 -1.403017 0.995037 0.014248 -0.008781 -864351.000000 1 0 0
1.990236 14.206185 7.687206 16.274824 1.431606 1.078856 0.011271 0.000285 62261.600000 1 0 0
4.497836 17.333685 8.011306 19.618058 1.316910 1.150135 0.024682 -0.008133 312237.000000 1 0 0
-1.986464 13.410985 9.399106 16.496780 -1.423743 0.964590 0.013000 -0.005361 -808160.000000 1 0 0
5.791336 17.673185 3.053606 18.846898 1.254133 1.408057 0.009064 -0.014321 518579.000000 1 0 0
7.265736 15.354385 -6.785094 18.291680 1.128815 1.950816 0.005611 -0.001575 -348313.000000 1 0 0
11.019936 7.574385 9.484106 16.393858 0.602175 0.953888 0.002199 -0.000125 -202574.000000 1 0 0
9.074636 16.220485 -2.712294 18.783229 1.060723 1.715703 0.011334 -0.011467 116067.000000 1 0 0
14.842436 11.300085 -6.624694 19.795868 0.650717 1.912030 0.065144 -0.016760 564971.000000 1 0 0
11.181236 6.439185 16.093206 20.627031 0.522504 0.675811 0.046743 -0.007284 383721.000000 1 0 0
8.558636 8.549385 10.260706 15.862671 0.784857 0.867355 0.002921 -0.000467 380543.000000 1 0 0
16.253836 9.459685 4.595606 19.359556 0.527077 1.331127 0.007699 0.002615 -39836.700000 1 0 0
-3.327764 14.247485 4.809806 15.401269 -1.341341 1.253184 -0.006556 0.001039 -1179480.000000 1 0 0
4.921236 14.758385 12.857506 20.182764 1.248938 0.880126 0.018146 -0.000036 -1025020.000000 1 0 0
16.128036 10.396885 -4.534994 19.717376 0.572603 1.802874 0.037542 -0.020832 -135745.000000 1 0 0
14.569736 14.134085 6.009106 21.169764 0.770222 1.282986 0.031521 -0.002570 -314777.000000 1 0 0
6.270936 9.607785 9.247606 14.736092 0.992530 0.892396 0.005242 -0.000517 1330300.000000 1 0 0
10.467236 12.038485 8.712106 18.176604 0.855101 1.070936 0.008739 -0.005355 -63651.400000 1 0 0
7.945436 11.481285 -0.349694 13.966823 0.965437 1.595836 0.010132 -0.004792 -136940.000000 1 0 0
7.390036 13.568785 -8.703894 17.733650 1.072081 2.083818 0.013580 -0.002072 -980787.000000 1 0 0
2.703136 15.337985 -2.193894 15.728125 1.396350 1.710741 0.005863 -0.003496 679925.000000 1 0 0
12.136736 13.454185 -7.692694 19.684842 0.836834 1.972289 0.034997 -0.026604 818547.000000 1 0 0
-8.278964 14.756785 9.678706 19.493109 -1.059526 1.051212 0.026137 -0.021501 318853.000000 1 0 0
11.511836 9.588185 2.241906 15.148657 0.694481 1.422257 0.009032 0.001650 -2092000.000000 1 0 0
12.124636 8.679285 4.404806 15.547961 0.621277 1.283558 0.002422 0.001143 287273.000000 1 0 0
14.052036 7.961785 6.006006 17.231420 0.515493 1.214773 0.005224 -0.003651 -2584220.000000 1 0 0
16.109636 7.335085 7.206706 19.111788 0.427272 1.184153 0.020502 -0.006477 -743313.000000 1 0 0
13.663436 8.382885 2.339706 16.199891 0.550306 1.425862 -0.000103 0.006540 -2607740.000000 1 0 0
-4.191064 17.316285 -7.228894 19.226952 -1.333333 1.956247 0.003702 -0.010186 3840.850000 1 0 0
3.077836 19.461685 -4.019394 20.109346 1.413947 1.772029 0.010667 -0.004318 453725.000000 1 0 0
-0.160664 14.851485 6.260706 16.117967 -1.559979 1.171869 0.007396 0.003343 -498976.000000 1 0 0
6.747836 15.996285 8.514306 19.336697 1.171607 1.114843 0.021919 -0.002436 -133106.000000 1 0 0
12.842736 15.256885 -2.012094 20.043875 0.871102 1.671350 0.045426 -0.013627 -444042.000000 1 0 0
12.474436 15.694685 4.096806 20.462613 0.899222 1.369225 0.031055 -0.004457 -688237.000000 1 0 0
2.858836 18.056585 1.305306 18.328040 1.413773 1.499517 0.009335 -0.014282 -393881.000000 1 0 0
10.383736 14.511685 -1.233694 17.886671 0.949715 1.639824 0.016488 -0.001350 -1113270.000000 1 0 0
-6.339564 15.697285 -0.547794 16.937973 -1.186964 1.603143 0.001364 -0.001709 -186620.000000 1 0 0
-3.868164 15.891685 -2.658594 16.570350 -1.332031 1.731936 0.000574 0.000817 -1424030.000000 1 0 0
-6.845664 17.042285 1.725406 18.446670 -1.188837 1.477125 0.009609 -0.006202 -159674.000000 1 0 0
-0.070464 19.422185 -6.672594 20.536547 -1.567168 1.901716 0.017914 -0.000277 -34748.100000 1 0 0
4.794636 14.882785 7.130506 17.185167 1.259135 1.142939 0.017377 0.001147 -277861.000000 1 0 0
8.780736 12.347485 6.929606 16.660767 0.952636 1.141838 0.012171 -0.001381 146118.000000 1 0 0
-7.651264 17.532585 -5.538494 19.915027 -1.159307 1.852618 0.025772 -0.015278 167450.000000 1 0 0
-8.001564 17.643985 -1.169094 19.408813 -1.145035 1.631068 0.032259 -0.012410 442909.000000 1 0 0
-13.554564 -9.173215 9.278106 18.813754 0.594959 1.055083 0.027585 -0.013566 -253706.000000 1 0 0
-12.545964 -12.810915 7.691206 19.510905 0.795847 1.165599 0.028671 -0.014046 -200150.000000 1 0 0
-4.056564 -14.959315 12.391706 19.844172 1.305991 0.896368 0.017368 -0.018633 321651.000000 1 0 0
-2.179764 -14.046715 14.928706 20.613778 1.416845 0.760908 0.018858 -0.011998 -1531590.000000 1 0 0
-7.083564 -13.907915 12.527206 20.013442 1.099721 0.894461 0.020538 -0.013447 108277.000000 1 0 0
-9.824964 -11.564915 8.936706 17.610846 0.866564 1.038568 0.016624 -0.016244 882939.000000 1 0 0
-10.836564 -10.511715 11.130406 18.756684 0.770183 0.935507 0.050564 -0.024473 509552.000000 1 0 0
-6.115464 -12.411115 10.551806 17.400439 1.112973 0.919258 0.016844 -0.007731 626538.000000 1 0 0
-12.492964 -10.302115 7.220006 17.729529 0.689582 1.151377 0.016976 -0.009812 -433578.000000 1 0 0
-7.822464 -11.422615 12.270606 18.499590 0.970329 0.845589 0.019853 -0.013035 -393669.000000 1 0 0
-14.743364 -11.399515 7.364306 20.038681 0.658182 1.194472 0.032354 -0.003291 -600494.000000 1 0 0
-10.932564 -9.107615 8.931106 16.799829 0.694584 1.010286 0.015401 -0.016089 -811311.000000 1 0 0
-5.400964 -11.944315 12.956406 18.431102 1.146132 0.791240 0.022899 -0.018264 -460403.000000 1 0 0
3.856336 -12.589415 14.637906 19.688397 -1.273555 0.732539 0.009441 -0.000518 308637.000000 1 0 0
6.483836 -12.682315 14.593806 20.392656 -1.098189 0.773256 0.020692 0.002751 119468.000000 1 0 0
6.490636 -8.732715 16.181306 19.499316 -0.931626 0.591976 0.007534 -0.002469 -783757.000000 1 0 0
0.643836 -1.750315 14.473806 14.593464 -1.218318 0.128146 0.006253 -0.004151 -2309180.000000 1 0 0
-0.110764 -6.459415 15.418806 16.717532 1.553650 0.396771 0.003495 -0.009964 -76942.300000 1 0 0
-1.517764 -4.668815 18.244306 18.893283 1.256487 0.262861 0.020582 -0.024518 -4113080.000000 1 0 0
-5.245664 12.566485 12.968706 18.804810 -1.175353 0.809793 0.012709 -0.011527 -903307.000000 1 0 0
-4.039164 8.787685 11.590006 15.095248 -1.139955 0.695409 0.005592 -0.003440 -394586.000000 1 0 0
-0.767364 -3.911115 15.086406 15.604016 1.377056 0.258289 0.004816 -0.004824 117708.000000 1 0 0
-4.706764 9.181185 14.091906 17.465097 -1.097077 0.631977 0.015664 -0.012269 474138.000000 1 0 0
-13.610964 -2.449615 16.971306 21.892560 0.178067 0.683751 0.029706 -0.002184 803891.000000 1 0 0
-0.262764 0.955685 17.247606 17.276061 -1.302478 0.057403 0.009522 -0.011900 -2158840.000000 1 0 0
-3.287664 -7.395215 15.347006 17.350174 1.152470 0.485279 0.013915 -0.007347 150731.000000 1 0 0
-7.463564 5.584085 12.513706 15.603834 -0.642335 0.640221 0.005652 -0.006809 -2532370.000000 1 0 0
-10.059264 10.242085 13.111306 19.442105 -0.794403 0.830676 0.008675 -0.013939 121070.000000 1 0 0
-5.583464 2.283285 11.233206 12.750427 -0.388187 0.492811 0.010170 -0.001119 -815898.000000 1 0 0
-7.123064 -7.315615 16.956606 19.793503 0.798733 0.542006 0.030271 -0.009376 -148227.000000 1 0 0
-4.738764 3.203785 18.434406 19.301488 -0.594491 0.300877 0.023002 -0.017225 -674539.000000 1 0 0
0.919236 -8.466615 16.597506 18.654913 -1.462648 0.474082 0.005575 -0.007814 625898.000000 1 0 0
-15.181464 -3.683715 13.955606 20.947686 0.238045 0.841678 0.036080 -0.007695 226581.000000 1 0 0
-14.492464 2.309685 12.899506 19.538767 -0.158042 0.849711 0.009718 -0.008388 43385.700000 1 0 0
-5.645664 0.954385 16.191406 17.173992 -0.167464 0.339905 0.025997 -0.010527 831625.000000 1 0 0
4.585836 5.941685 15.218906 16.969049 0.913484 0.458172 0.012354 -0.005186 -213413.000000 1 0 0
-1.067964 -12.042315 13.799606 18.346308 1.482343 0.719442 -0.010326 -0.009228 390375.000000 1 0 0
-5.924264 -4.034015 16.756006 18.224542 0.597813 0.404193 0.027410 -0.010016 134485.000000 1 0 0
-12.924764 -1.591315 9.825206 16.313077 0.122505 0.924429 0.009070 0.002447 -560688.000000 1 0 0
-14.632564 10.476185 10.386206 20.778250 -0.621351 1.047360 0.010404 0.004371 461935.000000 1 0 0
-3.603664 -3.378015 17.726706 18.401997 0.753089 0.271747 0.024120 -0.015507 -626553.000000 1 0 0
-8.018364 9.379585 11.799206 17.073138 -0.863479 0.807790 0.003229 -0.010614 -176192.000000 1 0 0
-4.606464 10.725185 16.188506 19.957877 -1.165121 0.624708 0.024386 -0.007843 74423.200000 1 0 0
-12.591664 12.950985 8.204806 19.839276 -0.799465 1.144432 0.006186 -0.015421 378010.000000 1 0 0
-12.750964 3.195085 10.466706 16.803202 -0.245521 0.898353 0.005175 -0.000778 519791.000000 1 0 0
-10.227264 -3.532115 13.717506 17.471197 0.332538 0.667858 0.024574 -0.001486 -573832.000000 1 0 0
-4.216364 -6.506015 17.774306 19.391542 0.995778 0.411302 0.027190 -0.008688 -364423.000000 1 0 0
0.708436 -3.625115 17.614206 17.997322 -1.377804 0.206704 0.010464 -0.025781 -987926.000000 1 0 0
-6.026564 1.793585 13.681006 15.056771 -0.289266 0.430809 0.015795 -0.004100 -749115.000000 1 0 0
-10.569964 8.782085 10.215906 17.123490 -0.693273 0.931536 0.006819 -0.011761 -181128.000000 1 0 0
4.651736 2.451285 17.416306 18.192723 0.484983 0.293204 0.015965 -0.011623 -2286830.000000 1 0 0
0.451536 -5.220215 13.199206 14.201182 -1.484514 0.377893 -0.002663 -0.000235 -1250430.000000 1 0 0
-4.043164 5.768585 20.644106 21.812906 -0.959471 0.328842 0.030241 -0.011913 -452429.000000 1 0 0
-10.915364 10.941885 8.986706 17.878225 -0.786612 1.044121 0.010818 -0.012584 610531.000000 1 0 0
0.639136 4.132585 13.004106 13.659924 1.417354 0.311126 0.011280 -0.004309 -2143140.000000 1 0 0
-3.197364 7.198985 13.400906 15.544543 -1.152825 0.531403 0.008558 -0.002234 -171822.000000 1 0 0
0.702936 8.922885 14.019806 16.633309 1.492180 0.568192 0.016193 -0.012679 113121.000000 1 0 0
-4.227464 -6.679115 13.060906 15.266607 1.006509 0.544240 0.012156 -0.004329 -162582.000000 1 0 0
-5.293364 8.230185 16.489506 19.174448 -0.999241 0.535580 0.023970 -0.000712 458320.000000 1 0 0
1.571236 -10.813715 15.819006 19.226184 -1.426506 0.604503 0.003396 -0.004761 204949.000000 1 0 0
-15.148364 -1.120815 14.211406 20.801279 0.073855 0.818662 0.012021 -0.008504 523442.000000 1 0 0
-13.788564 -5.194015 8.328706 16.925414 0.360252 1.056316 0.034882 -0.015918 -667380.000000 1 0 0
-14.178364 -1.985215 12.125806 18.761723 0.139113 0.868063 0.018950 -0.005155 470264.000000 1 0 0
9.495636 1.212385 16.997106 19.507398 0.126991 0.512919 0.032410 -0.002569 360297.000000 1 0 0
4.988936 -6.710015 16.704606 18.680408 -0.931464 0.464085 0.013619 -0.015676 -420872.000000 1 0 0
-6.096864 -2.678015 11.067706 12.916564 0.413874 0.541646 0.007132 0.001635 917471.000000 1 0 0
0.436136 -6.284415 17.894906 18.971340 -1.501508 0.338481 0.011992 -0.020138 -195387.000000 1 0 0
-8.509364 11.929485 12.104806 19.006531 -0.951196 0.880357 0.004918 -0.011652 194863.000000 1 0 0
-6.742564 -5.751615 14.911906 17.346705 0.706251 0.536233 0.028772 -0.004999 -1437300.000000 1 0 0
-4.340564 -9.009415 17.050006 19.766455 1.121830 0.530463 0.026087 -0.009497 25731.100000 1 0 0
2.429936 -6.244015 16.247206 17.574527 -1.199667 0.391141 0.000364 -0.011745 -480571.000000 1 0 0
2.223936 5.307785 16.021306 17.023534 1.174023 0.344848 0.013682 -0.012044 -418057.000000 1 0 0
0.900336 -8.938815 14.072606 16.695845 -1.470413 0.568182 -0.007252 -0.004255 -597814.000000 1 0 0
-10.048064 -2.760715 11.262106 15.343408 0.268135 0.746599 0.007233 0.000402 497593.000000 1 0 0
-1.285564 10.172785 12.444106 16.124330 -1.445090 0.689193 0.009247 -0.007040 -597408.000000 1 0 0
-12.424364 -3.815415 11.293906 17.218436 0.297950 0.855396 0.020192 -0.001988 -1029090.000000 1 0 0
-1.721764 6.786385 19.853906 21.052247 -1.322330 0.339030 0.028005 -0.011104 793999.000000 1 0 0
0.289736 -13.478015 15.459706 20.512029 -1.549303 0.717138 0.001054 -0.013800 -506598.000000 1 0 0
3.986336 -8.747415 15.442006 18.189659 -1.143199 0.556812 0.006631 -0.006044 -387588.000000 1 0 0
4.312136 -4.344115 16.312606 17.423173 -0.789092 0.358970 0.005932 -0.004816 -97948.500000 1 0 0
8.047836 1.959785 15.025306 17.157163 0.238868 0.503819 0.010484 0.003450 813212.000000 1 0 0
-6.461264 -0.151215 11.816906 13.468856 0.023399 0.500484 0.008856 0.000355 323481.000000 1 0 0
-3.708364 -10.930315 18.607806 21.896899 1.243709 0.555206 0.033927 -0.002454 474654.000000 1 0 0
3.153836 -1.589315 13.688206 14.136463 -0.466787 0.252501 0.004076 -0.001102 350072.000000 1 0 0
-2.814464 8.899685 15.892206 18.430622 -1.264505 0.531058 0.022608 -0.005131 -1850770.000000 1 0 0
-3.253164 4.056585 14.855106 15.738905 -0.894870 0.336712 0.016420 -0.005796 -1373580.000000 1 0 0
-5.333764 -9.035215 19.546806 22.184719 1.037517 0.492628 0.065488 -0.017190 268380.000000 1 0 0
-5.822564 -2.951015 19.055906 20.142947 0.469092 0.330027 0.038050 -0.019177 -497001.000000 1 0 0
-6.570464 -8.795315 11.057306 15.581803 0.929191 0.781824 0.016148 -0.007950 -637347.000000 1 0 0
-11.852764 2.484485 12.683606 17.536663 -0.206621 0.762282 0.012586 -0.010632 -531368.000000 1 0 0
-11.656164 -7.517315 11.611706 18.088889 0.572797 0.873790 0.028672 -0.012566 754017.000000 1 0 0
-11.073464 -7.503815 15.371706 20.376903 0.595561 0.716104 0.040713 -0.020465 -44533.900000 1 0 0
0.184836 5.631885 17.670306 18.547022 1.537989 0.308697 0.018312 -0.013498 -398472.000000 1 0 0
-2.161964 -0.121015 13.233906 13.409884 0.055916 0.162184 0.011392 -0.003389 -23140.600000 1 0 0
-6.252364 -10.681715 17.734606 21.626542 1.041231 0.609317 0.044360 -0.014706 401567.000000 1 0 0
0.399436 2.725285 19.126906 19.324214 1.425266 0.143023 0.015522 -0.016352 -300541.000000 1 0 0
-0.793164 10.951685 14.864806 18.480557 -1.498499 0.636218 0.022039 -0.009848 128659.000000 1 0 0
-12.914764 -2.393315 14.390006 19.483105 0.183237 0.739821 0.026451 -0.004179 -1513460.000000 1 0 0
-13.980764 8.271385 11.697106 20.017489 -0.534239 0.946724 0.024361 -0.010259 120782.000000 1 0 0
-18.113364 -0.580615 6.806306 19.358638 0.032044 1.211527 0.049069 -0.015358 -46900.300000 1 0 0
-2.091364 -7.970815 17.698106 19.522568 1.314202 0.435768 0.010590 -0.009354 -1167530.000000 1 0 0
5.713536 2.862185 14.570706 15.910439 0.464406 0.413313 0.009208 -0.005188 -2457780.000000 1 0 0
-14.209464 -6.763315 11.131306 19.275821 0.444242 0.955164 0.036162 -0.015039 844868.000000 1 0 0
3.180536 7.771585 16.261006 18.301193 1.182340 0.476683 0.017250 -0.024140 -496835.000000 1 0 0
1.014936 2.143685 14.623906 14.814996 1.128610 0.160787 0.009652 -0.007841 -1569250.000000 1 0 0
-14.469064 0.576185 9.845706 17.510675 -0.039801 0.973670 0.015273 -0.000491 -1378090.000000 1 0 0
-9.619164 -5.238315 15.529706 19.003685 0.498665 0.614270 0.031015 -0.004249 -384617.000000 1 0 0
-2.587064 0.063885 18.137606 18.321292 -0.024689 0.141722 0.018802 -0.016669 575403.000000 1 0 0
6.842636 3.712985 17.661906 19.301576 0.497163 0.415165 0.032794 -0.006051 -476918.000000 1 0 0
-4.249164 -0.699415 14.663606 15.282864 0.163138 0.285644 0.021493 -0.003394 -292702.000000 1 0 0
4.520936 -8.949415 17.952906 20.563018 -1.103025 0.509338 0.012286 -0.003609 -192113.000000 1 0 0
1.996836 6.856485 13.488206 15.262059 1.287402 0.486930 0.015876 -0.007182 -1328600.000000 1 0 0
-3.802664 -0.861115 20.178606 20.551835 0.222694 0.190870 0.029571 -0.018446 -91778.700000 1 0 0
-10.934264 1.675585 16.242306 19.651418 -0.152059 0.597898 0.022744 -0.008553 293576.000000 1 0 0
-3.920564 7.167385 18.382906 20.116497 -1.070259 0.418198 0.027581 -0.006609 -587025.000000 1 0 0
-12.949964 0.985085 14.645206 19.574321 -0.075922 0.725475 0.023770 -0.009311 -326726.000000 1 0 0
-16.127764 -4.621615 8.392506 18.758951 0.279084 1.106955 0.038889 -0.019404 -3568570.000000 1 0 0
-2.304964 0.872985 15.652106 15.844980 -0.362047 0.156188 0.018409 -0.008838 434428.000000 1 0 0
-13.675664 -8.828115 12.537906 20.546496 0.573230 0.914457 0.029271 -0.020271 370844.000000 1 0 0
6.140936 -3.219315 14.651906 16.209671 -0.482850 0.441997 0.006958 -0.003582 980183.000000 1 0 0
-15.751264 0.134685 7.630506 17.502717 -0.008551 1.119690 0.021312 -0.010062 533085.000000 1 0 0
-13.993564 5.675385 12.299806 19.476013 -0.385300 0.887263 0.009096 -0.013052 765058.000000 1 0 0
0.505236 9.541585 16.580106 19.136275 1.517895 0.522803 0.023734 -0.024763 -395015.000000 1 0 0
-10.258164 -5.494515 10.811706 15.884351 0.491739 0.822145 0.014595 -0.006202 306065.000000 1 0 0
-3.247964 -11.124715 14.987906 18.945867 1.286733 0.658206 0.014200 -0.009474 -913249.000000 1 0 0
-3.550064 2.666285 12.694706 13.448702 -0.644175 0.336442 0.009695 -0.001383 -1779690.000000 1 0 0
-12.432364 -7.697115 7.397606 16.387002 0.554359 1.102428 0.024243 -0.009113 191877.000000 1 0 0
-8.284964 -1.857415 13.261406 15.746603 0.220544 0.569491 0.015413 -0.000627 195422.000000 1 0 0
-9.827864 6.489985 9.473906 15.114950 -0.583628 0.893369 0.005292 -0.006073 -814798.000000 1 0 0
-17.961464 -3.433815 6.619106 19.447824 0.188897 1.223505 0.043256 -0.016338 208089.000000 1 0 0
-1.242864 -0.101115 20.429506 20.467527 0.081177 0.060962 0.014470 -0.017551 -1082820.000000 1 0 0
-2.809164 2.712185 20.049406 20.426112 -0.767836 0.192350 0.026142 -0.019682 -363536.000000 1 0 0
-3.759664 11.284485 11.140106 16.296523 -1.249192 0.818129 0.010092 -0.012360 -1078160.000000 1 0 0
-4.256164 -4.867115 14.917906 16.258772 0.852264 0.408973 0.016732 -0.007653 1336180.000000 1 0 0
-0.297764 -14.477015 13.131106 19.547341 1.550231 0.834215 0.003616 -0.012733 236933.000000 1 0 0
-12.126164 0.440285 8.416306 14.767258 -0.036293 0.964375 0.003504 0.000852 283171.000000 1 0 0
-7.877264 2.105185 15.513706 17.525929 -0.261145 0.483903 0.021003 -0.002226 -48285.400000 1 0 0
3.543936 -2.187415 18.612806 19.073039 -0.552991 0.220126 0.015425 -0.006542 -267903.000000 1 0 0
-2.217864 4.874485 12.596606 13.687732 -1.143797 0.401990 0.005744 -0.003043 -80630.300000 1 0 0
-10.156164 -6.225115 13.295106 17.851038 0.549880 0.730590 0.012346 -0.009212 115526.000000 1 0 0
2.307536 -3.842315 14.387106 15.069072 -1.029966 0.301998 -0.002923 0.000747 -565314.000000 1 0 0
6.864736 1.126185 17.217706 18.569930 0.162605 0.383977 0.020374 -0.000267 -1380070.000000 1 0 0
-2.014864 -5.762315 13.842706 15.128928 1.234422 0.415331 0.004244 -0.002548 -1539280.000000 1 0 0
-13.123664 3.569185 14.626006 19.972223 -0.265543 0.749077 0.008823 -0.005174 286915.000000 1 0 0
-13.235764 -6.500415 13.477206 19.976885 0.456522 0.830319 0.021522 -0.017502 -186399.000000 1 0 0
-9.596564 6.924785 11.976206 16.836752 -0.625069 0.779431 0.004349 -0.005517 -52808.100000 1 0 0
-1.094964 -2.442015 12.929306 13.203383 1.149286 0.204109 0.004912 0.000145 268854.000000 1 0 0
0.120636 6.768185 15.328606 16.756761 1.552974 0.415855 0.015350 -0.010752 520271.000000 1 0 0
-16.612164 -0.972015 9.871806 19.348420 0.058446 1.035364 0.035197 -0.002829 158089.000000 1 0 0
-1.303464 2.756985 13.712306 14.047324 -1.129156 0.218836 0.009686 -0.003594 -1232270.000000 1 0 0
-11.291864 -3.396615 16.170506 20.013207 0.292192 0.630061 0.035630 -0.008330 162482.000000 1 0 0
-5.133864 -1.484315 17.046206 17.864291 0.281448 0.303803 0.026695 -0.010405 202344.000000 1 0 0
-11.948864 6.716385 10.990306 17.569064 -0.512081 0.894962 0.009460 -0.003695 -2578710.000000 1 0 0
-2.705664 4.847485 18.631206 19.440694 -1.061711 0.289590 0.025800 -0.013799 124576.000000 1 0 0
5.084936 -1.821215 16.429806 17.294852 -0.343925 0.317617 0.007906 -0.006496 -249486.000000 1 0 0
-8.117864 -4.085915 12.171006 15.189727 0.466303 0.641389 0.017401 -0.001314 -600105.000000 1 0 0
-11.749064 -0.764115 16.255406 20.071438 0.064945 0.626853 0.035429 -0.003591 410014.000000 1 0 0
2.124236 2.028185 17.475006 17.720094 0.762271 0.166512 0.008051 -0.011804 -1749720.000000 1 0 0
-8.916364 -7.596215 11.561306 16.458063 0.705620 0.791933 0.018929 -0.011000 800485.000000 1 0 0
-7.180764 6.784685 14.790306 17.786188 -0.757044 0.588884 0.001842 -0.007382 -1000070.000000 1 0 0
-5.679564 3.520585 15.789406 17.145183 -0.554901 0.400352 0.021124 -0.007820 495450.000000 1 0 0
-9.436764 4.325485 11.544406 15.525323 -0.429789 0.732379 0.004108 -0.006830 36645.300000 1 0 0
-10.518764 0.149885 14.173906 17.651246 -0.014248 0.638489 0.020997 -0.003637 -233763.000000 1 0 0
8.140736 -0.616615 15.761406 17.750316 -0.075600 0.477926 0.013870 -0.001954 137370.000000 1 0 0
-8.583064 -7.535415 14.842706 18.728518 0.720493 0.655868 0.030737 -0.003052 -1553390.000000 1 0 0
-0.136364 4.251185 15.519906 16.092192 -1.538731 0.267491 0.011822 -0.011389 -52974.200000 1 0 0
-8.067064 3.200085 9.696906 13.013380 -0.377646 0.730038 0.002643 -0.000061 -405930.000000 1 0 0
-2.037964 -9.708815 13.072406 16.410429 1.363892 0.649161 -0.007563 -0.003126 167106.000000 1 0 0
-6.064364 10.331485 10.500306 15.930240 -1.040006 0.851118 0.013171 -0.011568 -865303.000000 1 0 0
-8.700964 -2.809615 15.627406 18.105704 0.312339 0.529380 0.031679 -0.008236 -400306.000000 1 0 0
4.142736 5.734185 17.711806 19.072263 0.945153 0.379990 0.017633 -0.015212 142663.000000 1 0 0
-6.877564 -0.965815 15.330606 16.830364 0.139517 0.425361 0.021002 -0.000935 228082.000000 1 0 0
-0.957264 -9.999915 15.474606 18.449338 1.475360 0.575791 -0.008823 -0.004993 -237746.000000 1 0 0
-4.399564 5.801185 16.162606 17.726809 -0.921947 0.423246 0.020433 -0.010885 19882.800000 1 0 0
3.715336 0.086885 17.476306 17.867080 0.023381 0.209530 0.011334 -0.008555 -452449.000000 1 0 0
1.275336 0.259085 19.098206 19.142494 0.200423 0.068037 0.007042 -0.016040 -710247.000000 1 0 0
-6.373964 6.334285 17.878206 20.009519 -0.782276 0.465750 0.012866 -0.001345 243342.000000 1 0 0
-12.236164 0.612785 10.954806 16.434932 -0.050038 0.841217 0.014294 -0.001732 -401016.000000 1 0 0
-5.365164 5.096485 13.831806 15.686874 -0.759722 0.491250 0.011362 -0.006328 -1605010.000000 1 0 0
-8.623764 -9.575615 9.989706 16.305089 0.837652 0.911357 0.019588 -0.009640 -694549.000000 1 0 0
6.745636 -3.728015 17.117306 18.772423 -0.504880 0.423071 0.009464 -0.002060 -265865.000000 1 0 0
-16.774164 1.534385 9.527506 19.352010 -0.091219 1.056036 0.033618 -0.014018 -209241.000000 1 0 0
-4.014064 -9.563515 11.423406 15.429443 1.173401 0.737184 0.002742 -0.006071 -1113440.000000 1 0 0
-11.047464 -3.965215 9.132706 14.871977 0.344604 0.909566 0.010127 -0.000162 172482.000000 1 0 0
3.530736 -5.494015 18.518806 19.636610 -0.999604 0.339037 0.001568 -0.013781 -91368.000000 1 0 0
2.443136 -1.820015 16.229306 16.512775 -0.640261 0.185559 0.005852 -0.006986 46062.700000 1 0 0
-3.084764 -4.168715 20.240306 20.894113 0.933739 0.250823 0.033201 -0.017068 -768619.000000 1 0 0
-6.400064 -3.346915 14.369606 16.082544 0.481839 0.465737 0.022447 -0.000710 666099.000000 1 0 0
-9.641664 5.201685 14.002906 17.779218 -0.494747 0.663893 0.009510 -0.007206 391898.000000 1 0 0
-5.909164 -5.253915 11.695806 14.117851 0.726767 0.594478 0.009995 0.001423 -596857.000000 1 0 0
6.039636 2.101285 19.523206 20.543811 0.334817 0.316532 0.028715 -0.010969 -2520.130000 1 0 0
-2.860564 11.957885 13.588306 18.325281 -1.335989 0.735484 0.024547 -0.011619 -1055260.000000 1 0 0
3.436436 1.506885 15.287606 15.741369 0.413252 0.240689 0.006912 -0.008187 -772806.000000 1 0 0
-5.710364 7.360385 12.701006 15.751161 -0.910972 0.632836 0.000073 -0.012347 -1732950.000000 1 0 0
-1.876864 -1.630715 15.301606 15.502290 0.715336 0.161081 0.011788 -0.004549 544482.000000 1 0 0
-7.625664 10.511785 14.150706 19.206532 -0.943200 0.742523 0.026374 -0.010818 284126.000000 1 0 0
-10.219764 2.128685 10.526406 14.824983 -0.205355 0.781234 0.004257 -0.001378 244945.000000 1 0 0
-13.708664 5.270385 9.065406 17.259375 -0.367035 1.017793 0.004030 -0.004921 127965.000000 1 0 0
0.435636 -4.744115 19.934506 20.495876 -1.479227 0.234586 0.021884 -0.027938 -424596.000000 1 0 0
-14.455764 -2.861215 7.428706 16.502768 0.195403 1.103864 0.020386 -0.007305 484018.000000 1 0 0
-2.292064 2.604285 17.478906 17.819877 -0.849078 0.195937 0.014348 -0.015572 286269.000000 1 0 0
-6.073464 -8.279015 14.699806 17.930793 0.937876 0.609721 0.015068 -0.004224 -783913.000000 1 0 0
-8.041564 2.010285 12.016206 14.597849 -0.244966 0.603862 0.006882 -0.001977 754960.000000 1 0 0
-14.614064 -3.419415 10.048406 18.061942 0.229846 0.980833 0.023768 -0.007928 -434401.000000 1 0 0
-0.552464 6.931385 12.879806 14.636896 -1.491260 0.495029 0.014425 -0.006739 -806615.000000 1 0 0
-1.762964 -2.165215 19.169106 19.371392 0.887444 0.144643 0.023812 -0.023088 278937.000000 1 0 0
-12.987764 10.627285 7.537006 18.396404 -0.685773 1.148671 0.007331 -0.007732 -917125.000000 1 0 0
-19.500664 2.217185 6.603706 20.707505 -0.113212 1.246223 0.057014 -0.017881 1000430.000000 1 0 0
-16.218364 8.484585 6.642406 19.471648 -0.481993 1.222675 0.027184 -0.005581 383124.000000 1 0 0
-12.392964 7.469885 13.478706 19.775244 -0.542441 0.820856 0.013231 -0.005064 89739.300000 1 0 0
-16.046864 8.342485 10.304606 20.815471 -0.479427 1.052909 0.018630 -0.002887 -169396.000000 1 0 0
1.801236 11.098385 14.888006 18.656670 1.409902 0.646829 0.025736 -0.021307 26326.800000 1 0 0
2.289736 14.298285 12.614406 19.204351 1.412004 0.854161 0.016734 -0.015024 -686455.000000 1 0 0
-3.344964 13.699385 11.672506 18.305992 -1.331313 0.879375 0.012474 -0.014684 444684.000000 1 0 0
9.134736 4.838585 15.929506 18.989588 0.487117 0.575620 0.028759 0.005955 -211717.000000 1 0 0
-0.421964 12.711485 12.885906 18.105427 -1.537613 0.778860 0.014575 -0.011360 57022.600000 1 0 0
3.685736 13.510385 14.669206 20.280551 1.304470 0.762207 0.018082 -0.008194 166201.000000 1 0 0
-2.891964 -4.080315 -13.898494 14.770936 0.954215 2.796178 0.010544 -0.001597 -132853.000000 1 0 0
5.136836 -11.495215 16.482206 20.741026 -1.150551 0.652338 -0.003315 0.004553 109564.000000 1 0 0
7.669436 -13.470315 7.395806 17.174620 -1.053212 1.125612 -0.002279 -0.005236 -507933.000000 1 0 0
-0.167364 15.553185 1.274106 15.606183 -1.560036 1.489064 -0.003404 -0.002779 -3699470.000000 1 0 0
-13.739264 8.274885 9.106506 18.443686 -0.542094 1.054404 0.002281 -0.000681 261530.000000 1 0 0
-15.448464 -9.709715 5.035306 18.928495 0.561129 1.301537 0.022203 -0.005401 -787203.000000 1 0 0
9.519036 -11.158215 11.021706 18.346547 -0.864507 0.926356 0.015275 -0.006715 112199.000000 1 0 0
-5.965564 -10.274815 -16.496194 20.329392 1.044763 2.517418 0.019231 -0.011804 98082.800000 1 0 0
-1.982664 -12.337015 -14.767794 19.344783 1.411450 2.439356 0.013230 -0.004056 -40958.500000 1 0 0
5.458936 -15.777815 -12.413394 20.804609 -1.237700 2.210136 0.029503 -0.006175 261493.000000 1 0 0
2.513236 -11.535615 -16.707894 20.458262 -1.356281 2.526434 0.027104 -0.011009 200608.000000 1 0 0
0.361036 -13.992915 -14.239494 19.967353 -1.545001 2.364762 0.028178 0.003539 187423.000000 1 0 0
-6.969564 -6.071115 -14.757094 17.412785 0.716611 2.582028 0.031656 0.008816 -23724.000000 1 0 0
-5.695964 -8.131215 -17.550394 20.163754 0.959731 2.626797 0.002642 0.000869 -14906.000000 1 0 0
-2.445664 -16.238715 -13.254894 21.103775 1.421313 2.249882 0.029076 -0.000993 295937.000000 1 0 0
16.200736 -8.035915 -8.988194 20.194737 -0.460460 2.032056 0.036964 -0.008711 -130034.000000 1 0 0
19.048736 -3.067915 -3.683494 19.642672 -0.159685 1.759438 0.036262 -0.010474 144939.000000 1 0 0
15.633936 -11.179415 -9.368294 21.381398 -0.620771 2.024338 0.033618 -0.020625 83571.000000 1 0 0
18.485936 -3.358215 -7.019994 20.057112 -0.179703 1.928368 0.143787 -0.007444 -386270.000000 1 0 0
8.754136 -9.405215 -15.515194 20.144831 -0.821236 2.449923 0.049284 -0.015459 -45574.000000 1 0 0
-4.735464 9.703185 -16.059194 19.351334 -1.116769 2.549680 0.007519 -0.007057 367683.000000 1 0 0
2.567236 -9.499015 -18.598994 21.041496 -1.306839 2.654975 0.026029 -0.004415 77926.300000 1 0 0
10.944436 7.755885 -14.920994 20.064159 0.616515 2.409331 0.030854 -0.047457 295382.000000 1 0 0
18.339936 -6.708315 -8.767094 21.405996 -0.350660 1.992771 0.034239 -0.000889 64317.200000 1 0 0
12.779836 5.750385 -13.558194 19.499122 0.422819 2.339666 0.030267 -0.016655 -104416.000000 1 0 0
15.855836 6.091785 -10.764494 20.109493 0.366810 2.135652 0.017566 -0.016837 164787.000000 1 0 0
3.645336 -0.513615 -19.113994 19.465278 -0.139975 2.951323 0.039313 -0.015968 146725.000000 1 0 0
10.515536 -1.428315 -14.892494 18.286688 -0.135003 2.522473 0.026340 0.003769 204938.000000 1 0 0
12.259636 -6.043615 -13.740894 19.381334 -0.458007 2.358841 0.030049 -0.004586 419196.000000 1 0 0
10.195636 6.429085 -12.899594 17.654565 0.562596 2.390094 0.013807 -0.009532 341325.000000 1 0 0
10.273336 5.602685 -16.783694 20.460301 0.499275 2.532741 0.006251 -0.000119 173648.000000 1 0 0
12.052136 -10.097115 -15.000694 21.730774 -0.697361 2.332696 0.070161 -0.021950 328865.000000 1 0 0
-0.824464 2.622285 -17.665494 17.878082 -1.266175 2.987226 0.026171 -0.005337 306120.000000 1 0 0
6.539036 -1.061815 -17.209794 18.440809 -0.160976 2.774139 0.021893 0.011399 90566.500000 1 0 0
6.335236 -5.705115 -15.868094 18.013327 -0.733112 2.648575 -0.003858 -0.007883 204243.000000 1 0 0
-2.525864 -4.329815 -20.256194 20.867215 1.042698 2.899001 0.029673 -0.022579 332488.000000 1 0 0
15.865036 -0.224315 -13.368994 20.748004 -0.014138 2.270970 0.018657 0.000971 50249.600000 1 0 0
-4.120364 -0.532815 -18.603994 19.062263 0.128599 2.921876 0.023782 -0.006791 175997.000000 1 0 0
3.308036 8.848185 -17.800094 20.151348 1.213020 2.653695 0.020947 -0.021151 -406297.000000 1 0 0
10.130436 0.294185 -16.502994 19.366494 0.029032 2.590860 0.037264 -0.021006 -14037.900000 1 0 0
4.306436 4.374685 -18.153294 19.163125 0.793260 2.815507 0.027992 -0.012354 456730.000000 1 0 0
-2.190464 -11.295115 -18.171294 21.507526 1.379244 2.577138 0.010689 -0.007518 185837.000000 1 0 0
6.703136 -9.233115 -16.344494 19.933011 -0.942840 2.532157 0.041103 -0.006548 221803.000000 1 0 0
9.853236 -12.992115 -11.909094 20.191776 -0.921940 2.201607 0.015710 0.037473 234480.000000 1 0 0
6.193736 7.118285 -17.317094 19.720905 0.854739 2.642691 0.033767 -0.003077 307844.000000 1 0 0
9.039436 1.567685 -19.866994 21.883018 0.171719 2.708978 0.066357 -0.023556 144965.000000 1 0 0
-1.155764 -0.647215 -20.357494 20.400545 0.510479 3.076615 0.031160 -0.012954 205006.000000 1 0 0
-0.929464 6.649185 -19.658494 20.773347 -1.431910 2.812489 0.022685 -0.008767 -146574.000000 1 0 0
8.342036 5.866785 -18.012994 20.699678 0.612924 2.626418 0.035197 -0.018949 43868.500000 1 0 0
11.746436 0.198885 -12.715694 17.312053 0.016930 2.395725 -0.017164 -0.003017 -125709.000000 1 0 0
-4.909664 -2.664415 -20.118894 20.879986 0.497212 2.870763 0.034896 -0.003095 302058.000000 1 0 0
5.512636 -11.417815 -14.546794 19.296758 -1.120995 2.424693 0.005967 -0.006906 12256.200000 1 0 0
11.383236 2.920085 -15.918394 19.786365 0.251110 2.505652 0.024149 0.003464 -362236.000000 1 0 0
-2.849164 -4.486215 -17.099594 17.906423 1.004972 2.840260 0.010431 -0.005889 263673.000000 1 0 0
-6.876064 -5.042815 -17.508794 19.474807 0.632784 2.688388 0.025739 0.002003 34095.700000 1 0 0
2.687436 10.670385 -15.488794 18.999531 1.324069 2.523905 0.002539 -0.008297 187745.000000 1 0 0
16.982736 -6.090815 -10.885894 21.071640 -0.344358 2.113687 0.051941 -0.013878 -10288.400000 1 0 0
9.603936 -3.046715 -17.809494 20.462066 -0.307194 2.626742 0.024144 -0.005668 -82870.900000 1 0 0
-7.432964 -1.432315 -18.893494 20.353491 0.190364 2.760525 0.012523 0.010185 695409.000000 1 0 0
1.683036 -7.391415 -19.308394 20.743184 -1.346912 2.767476 0.020007 -0.020108 187407.000000 1 0 0
5.678236 9.974585 -14.090894 18.173828 1.053279 2.458049 0.020419 -0.022369 367534.000000 1 0 0
5.681836 -3.199815 -18.415194 19.535645 -0.512895 2.801266 0.022257 -0.007836 372396.000000 1 0 0
4.491136 13.117785 -14.969094 20.403930 1.240935 2.394456 0.026993 -0.019788 78017.700000 1 0 0
9.932636 10.755885 -15.986594 21.677581 0.825170 2.400115 0.072546 -0.024365 -9431.280000 1 0 0
16.863936 0.734285 -11.356594 20.344624 0.043514 2.163024 0.031558 -0.001240 85536.700000 1 0 0
15.040836 -3.049615 -12.169294 19.586184 -0.200044 2.241223 0.034387 -0.000002 -96470.100000 1 0 0
-9.061464 0.429085 -17.550794 19.756635 -0.047317 2.664534 0.021012 0.001257 377149.000000 1 0 0
-3.717364 4.050485 -18.926994 19.709296 -0.828257 2.858901 0.034908 -0.011439 147477.000000 1 0 0
3.922236 1.855485 -16.966994 17.513014 0.441871 2.891228 0.015351 -0.002460 541959.000000 1 0 0
-4.991864 14.487085 -13.787894 20.613112 -1.238964 2.303510 0.002199 -0.003476 115734.000000 1 0 0
0.872836 9.671285 -17.721394 20.207509 1.480790 2.640318 0.013164 -0.002134 177493.000000 1 0 0
1.075736 -5.087615 -20.237594 20.895005 -1.362423 2.890081 0.024221 0.000713 431972.000000 1 0 0
4.032536 -6.282515 -17.984394 19.472282 -1.000160 2.748136 0.031005 -0.024688 163175.000000 1 0 0
-7.432064 7.416885 -16.037994 19.169325 -0.784376 2.561933 0.008439 -0.000673 -80340.300000 1 0 0
-12.009064 3.151085 -16.819094 20.905236 -0.256608 2.505696 0.040386 -0.013087 418854.000000 1 0 0
-4.378964 6.870385 -17.137494 18.975543 -1.003353 2.697814 0.011266 0.000291 409189.000000 1 0 0
-8.245964 5.207685 -17.855694 20.345558 -0.563291 2.641673 0.015880 -0.001049 259324.000000 1 0 0
-8.792064 4.801085 -15.444394 18.408697 -0.499821 2.566189 -0.001582 -0.001394 488746.000000 1 0 0
9.420436 13.412885 -13.109394 20.988242 0.958500 2.245424 0.043254 -0.025196 384010.000000 1 0 0
14.366736 9.849985 -11.846094 21.065499 0.601003 2.168016 0.063914 -0.029286 -194931.000000 1 0 0
8.499136 15.539585 -9.997294 20.338631 1.070310 2.084656 0.020346 -0.008316 39995.000000 1 0 0
7.263636 12.743485 -14.437494 20.581498 1.052737 2.348267 0.059464 -0.038274 149601.000000 1 0 0
4.496936 15.446285 -13.164094 20.787100 1.287493 2.256583 0.028929 -0.017028 147636.000000 1 0 0
10.807936 11.726185 -11.451694 19.633038 0.826125 2.193566 0.034495 -0.020547 253353.000000 1 0 0
15.964436 10.191385 -8.568094 20.787972 0.568163 1.995626 0.054378 -0.062625 251627.000000 1 0 0
12.448236 10.617085 -9.410194 18.874131 0.706175 2.092752 0.019362 -0.036642 75275.700000 1 0 0
10.505736 11.334185 -7.529194 17.190783 0.823313 2.024145 0.016769 -0.017063 -73029.000000 1 0 0
5.730236 16.991985 -10.266194 20.662960 1.245541 2.090751 0.041493 -0.002981 -6467.580000 1 0 0
11.648836 13.865985 -10.198994 20.784138 0.872077 2.083701 0.063091 -0.027831 84062.200000 1 0 0
8.324836 -19.341315 -1.792894 21.133003 -1.164346 1.655737 0.038063 -0.003577 196125.000000 1 0 0
7.925336 -16.862315 -4.059694 19.069077 -1.131433 1.785332 0.033012 -0.006322 188957.000000 1 0 0
4.350236 -18.331515 4.610406 19.396516 -1.337797 1.330807 0.036612 -0.031770 238676.000000 1 0 0
10.339036 -17.937015 -2.445394 20.847352 -1.047905 1.688367 0.036937 -0.005242 553935.000000 1 0 0
-2.931364 -14.824315 7.894206 17.049096 1.375575 1.089388 0.011826 -0.033620 180163.000000 1 0 0
-15.261364 -12.584315 -4.180594 20.217606 0.689554 1.779079 0.015982 -0.008163 81261.600000 1 0 0
-9.122864 -12.556315 -7.114194 17.073355 0.942469 2.000591 0.026073 -0.022731 92827.000000 1 0 0
-11.280364 -15.814615 6.261606 20.409712 0.951208 1.258972 0.019759 -0.004799 220852.000000 1 0 0
-15.069564 -7.233915 -7.320894 18.248747 0.447548 1.983593 0.059042 -0.027652 -178742.000000 1 0 0
5.308236 -15.464915 6.405706 17.560581 -1.240153 1.197402 0.026869 -0.011948 286499.000000 1 0 0
2.794936 -14.056715 8.791406 16.813438 -1.374523 1.020571 0.009202 -0.008523 334069.000000 1 0 0
3.362236 -17.137915 10.292906 20.272066 -1.377070 1.038239 0.034559 -0.014170 280063.000000 1 0 0
-7.387764 -16.977015 -6.343494 19.571357 1.160349 1.900879 -0.012003 -0.007080 -4031.960000 1 0 0
2.047536 -19.589915 -3.925994 20.084088 -1.466655 1.767541 0.016816 -0.013118 8665.670000 1 0 0
-17.698064 -10.739715 -1.768994 20.777206 0.545426 1.656041 -0.029242 0.003410 -1523.850000 1 0 0
-4.053164 -14.973915 2.943806 15.789625 1.306449 1.383260 0.002516 -0.003100 48757.800000 1 0 0
-11.059564 -10.076315 -14.483694 20.823628 0.738911 2.339969 0.024688 -0.000448 264885.000000 1 0 0
0.729736 -20.357715 2.529406 20.527225 -1.534966 1.447260 0.023452 -0.016726 173470.000000 1 0 0
5.344836 -18.623315 0.689806 19.387391 -1.291311 1.535209 0.009567 0.002598 194110.000000 1 0 0
-7.810664 -19.004815 -3.419894 20.829909 1.180857 1.735725 0.030250 -0.017911 135123.000000 1 0 0
-9.768564 -15.531915 -7.710694 19.902764 1.009372 1.968626 0.042690 -0.019895 25372.100000 1 0 0
-12.100464 -11.367515 -12.314194 20.670776 0.754176 2.208970 0.041976 -0.001252 372109.000000 1 0 0
-13.372864 -15.214315 -3.660594 20.584188 0.849725 1.749583 0.022814 0.000237 206756.000000 1 0 0
-0.321964 -20.766015 -2.818494 20.958887 1.555293 1.705682 0.025886 -0.005821 397379.000000 1 0 0
-12.070064 -16.871215 -0.811894 20.760142 0.949794 1.609915 0.026612 0.003417 234978.000000 1 0 0
0.603336 -19.708315 5.253706 20.405467 -1.540193 1.310398 0.035196 -0.029835 172197.000000 1 0 0
-18.050564 -8.813615 2.618006 20.257261 0.454223 1.441196 0.038962 -0.005401 -103436.000000 1 0 0
-14.652164 -14.875615 -0.286094 20.881850 0.792965 1.584497 0.008919 -0.000977 14674.600000 1 0 0
10.332536 -15.367315 -5.089094 19.204544 -0.978855 1.838994 0.029308 -0.002707 -72332.800000 1 0 0
0.315836 -19.160315 -7.016594 20.407107 -1.554314 1.921790 0.016476 0.001106 155699.000000 1 0 0
-9.924364 -16.744215 -2.730494 19.654957 1.035759 1.710168 0.027955 -0.008300 519251.000000 1 0 0
-14.548464 -6.498615 -11.305994 19.537536 0.420096 2.187906 0.032520 -0.012386 -59505.200000 1 0 0
-12.481664 -14.844315 1.763306 19.474467 0.871645 1.480128 0.019833 -0.010694 288374.000000 1 0 0
-2.643864 -16.399515 10.505806 19.654670 1.410956 1.006857 0.006906 -0.014250 450160.000000 1 0 0
-13.254464 -14.648115 -6.359494 20.753102 0.835304 1.882243 0.061829 -0.011822 196804.000000 1 0 0
5.175436 -16.890815 -7.290394 19.111112 -1.273473 1.962187 0.014361 -0.010123 78008.600000 1 0 0
-17.241364 -7.037015 -2.919594 18.849622 0.387510 1.726311 -0.017515 -0.006330 -158989.000000 1 0 0
-12.297264 -13.563315 -8.504294 20.186858 0.834316 2.005651 0.045606 -0.046220 -23577.400000 1 0 0
-7.760664 -14.057115 9.637006 18.727046 1.066357 1.030251 0.023454 -0.015603 464832.000000 1 0 0
-16.148064 -8.445815 -5.388894 19.003472 0.481896 1.858316 0.046547 -0.001381 312258.000000 1 0 0
-0.682264 -19.671315 -0.233094 19.684523 1.536127 1.582638 0.019351 -0.011397 194687.000000 1 0 0
-14.920064 -11.380615 -2.087194 18.880760 0.651626 1.681569 0.001188 0.005250 203175.000000 1 0 0
-6.678464 -19.159215 2.358206 20.426417 1.235390 1.455089 -0.004289 -0.007951 190446.000000 1 0 0
-2.417964 -20.571015 -5.525794 21.437061 1.453791 1.831508 0.018192 -0.004831 172350.000000 1 0 0
-8.671764 -19.878115 -1.063694 21.713369 1.159438 1.619804 0.005590 0.009920 109386.000000 1 0 0
-17.879564 -7.417515 4.893906 19.966188 0.393251 1.323164 0.051849 -0.011990 46789.900000 1 0 0
-2.690164 -15.797115 -10.985194 19.428338 1.402120 2.171740 0.012534 0.002192 99286.900000 1 0 0
-2.974264 -18.602215 -7.857494 20.411488 1.412251 1.965955 0.015342 0.005276 177185.000000 1 0 0
4.692036 -17.761015 -5.258794 19.108212 -1.312521 1.849606 0.010847 0.015184 679601.000000 1 0 0
0.840836 -17.372415 -9.257394 19.702973 -1.522433 2.059914 0.016129 -0.000344 63131.200000 1 0 0
-7.457764 -11.240915 -14.557394 19.846766 0.985025 2.394238 0.010465 -0.017092 461643.000000 1 0 0
-5.116464 -19.070015 -1.823394 19.828475 1.308671 1.662885 0.017469 -0.020886 324471.000000 1 0 0
-9.868064 -16.284115 8.458006 20.834801 1.025982 1.152772 0.015528 -0.008213 148412.000000 1 0 0
-7.983864 -14.540115 -9.373794 19.053216 1.068650 2.085158 0.059144 -0.034261 266754.000000 1 0 0
-12.749764 -8.130015 -12.301594 19.493149 0.567651 2.253732 0.036739 -0.008167 421219.000000 1 0 0
-15.382264 -12.908515 3.325006 20.354348 0.698180 1.406705 0.019646 0.003290 148851.000000 1 0 0
-6.491764 -14.115815 -13.060794 20.297378 1.139746 2.269822 0.017050 -0.000208 455208.000000 1 0 0
-14.133364 -11.647315 -6.933894 19.582921 0.689265 1.932725 0.040290 -0.014512 291309.000000 1 0 0
-11.774064 -10.422415 -8.324894 17.792110 0.724578 2.057707 0.029576 -0.018341 247993.000000 1 0 0
-9.969664 -15.185215 3.482106 18.496216 0.989839 1.381406 0.005148 0.013280 536392.000000 1 0 0
4.383636 -18.257815 8.269906 20.517198 -1.335160 1.155925 0.025975 -0.010865 276717.000000 1 0 0
-4.787564 -16.807315 5.322606 18.268463 1.293296 1.275153 -0.001240 0.002814 363550.000000 1 0 0
-18.566464 -7.208415 -7.381594 21.240592 0.370335 1.925724 0.040421 -0.007723 -14883.900000 1 0 0
-17.203764 -4.641815 -11.046994 20.965496 0.263538 2.125761 0.062115 -0.003498 -244380.000000 1 0 0
-15.592264 -4.169315 -13.192494 20.845714 0.261284 2.256042 0.042126 -0.009186 217907.000000 1 0 0
-19.529764 -5.236115 -6.124194 21.126626 0.261949 1.864898 0.058299 -0.008556 -77973.300000 1 0 0
5.673736 -13.527315 8.691706 17.050668 -1.173655 1.035893 0.026229 -0.001750 23548.200000 1 0 0
20.059336 -3.246515 2.759306 20.506842 -0.160454 1.435832 0.053809 -0.005516 -85584.600000 1 0 0
18.305736 -2.392315 0.744806 18.476414 -0.129950 1.530474 0.034928 -0.014889 179391.000000 1 0 0
14.199436 -11.326615 0.352906 18.167023 -0.673325 1.551369 0.037980 -0.006619 109789.000000 1 0 0
10.887336 -13.471815 5.047806 18.041735 -0.891102 1.287226 0.013244 -0.011652 245106.000000 1 0 0
9.936836 -13.154415 8.934606 18.751174 -0.923849 1.074147 0.026185 -0.008489 226795.000000 1 0 0
17.871036 4.292285 -4.169094 18.846193 0.235716 1.793858 0.004812 0.002611 -123798.000000 1 0 0
18.581436 -6.050515 -4.522194 20.058133 -0.314794 1.798206 0.026791 -0.015176 -31181.200000 1 0 0
17.531436 -10.369715 0.094906 20.368879 -0.534141 1.566137 0.040332 -0.001180 285747.000000 1 0 0
17.537236 -8.876415 8.603206 21.456014 -0.468553 1.158221 0.092018 -0.022144 -64623.000000 1 0 0
19.851636 0.349385 -2.609594 20.025471 0.017598 1.701482 0.036073 0.006304 73162.500000 1 0 0
7.720036 -13.277615 11.510906 19.193618 -1.044141 0.927638 0.028538 -0.001621 410584.000000 1 0 0
16.041036 -6.565915 -3.300194 17.644187 -0.388515 1.758946 0.029141 -0.007574 257898.000000 1 0 0
14.382636 -6.883015 11.826506 19.852011 -0.446352 0.932618 0.026743 -0.032221 295235.000000 1 0 0
16.752436 0.879685 10.184406 19.624986 0.052463 1.025173 0.069377 -0.016993 328091.000000 1 0 0
16.517636 -10.493715 2.746806 19.760953 -0.565974 1.431343 0.030240 -0.012135 118261.000000 1 0 0
16.309736 -7.356215 -5.987894 18.867333 -0.423712 1.893749 0.041552 -0.005672 189857.000000 1 0 0
19.012536 -4.985815 4.612806 20.189424 -0.256463 1.340284 0.185308 -0.032555 -262465.000000 1 0 0
13.426236 -13.315215 7.919106 20.500512 -0.781247 1.174192 0.042924 -0.021503 260256.000000 1 0 0
15.368836 -14.083515 -1.375094 20.891084 -0.741785 1.636666 0.049104 -0.011781 198106.000000 1 0 0
18.682636 -6.185415 7.617106 21.102619 -0.319720 1.201504 0.088392 -0.029701 409772.000000 1 0 0
19.708836 3.769185 2.753306 20.254028 0.188962 1.434435 0.032740 0.011077 206102.000000 1 0 0
15.497336 -9.991515 8.310806 20.225412 -0.572658 1.147345 0.054674 -0.043389 76875.800000 1 0 0
14.144736 -4.313515 10.860306 18.347376 -0.295997 0.937349 0.036099 -0.011658 -72157.200000 1 0 0
18.739236 -7.837115 1.868006 20.397764 -0.396114 1.479089 0.064757 -0.017940 78431.400000 1 0 0
18.942236 -5.382815 -1.243094 19.731403 -0.276871 1.633839 0.040126 -0.012651 125674.000000 1 0 0
14.784636 -13.560015 -5.882194 20.905972 -0.742220 1.856012 0.061661 -0.017252 484830.000000 1 0 0
13.752736 -9.757415 10.276506 19.747189 -0.617066 1.023473 0.015992 -0.013043 417627.000000 1 0 0
14.514236 2.665785 0.765806 14.776871 0.181643 1.518948 0.005896 0.000572 -110993.000000 1 0 0
13.044836 2.429585 13.584306 18.989576 0.184139 0.773663 0.032341 -0.003012 154694.000000 1 0 0
18.190836 -3.832715 9.219006 20.750573 -0.207658 1.110429 0.061628 -0.014121 101173.000000 1 0 0
7.400736 -18.586215 5.304406 20.696738 -1.191856 1.311612 0.034766 -0.014839 411128.000000 1 0 0
12.034536 -3.215415 15.034506 19.524480 -0.261084 0.691902 0.009173 0.004247 253759.000000 1 0 0
11.474136 -13.446415 -7.019594 19.019373 -0.864376 1.948811 0.027861 -0.012699 208789.000000 1 0 0
10.726036 -17.467515 4.523306 20.991003 -1.020105 1.353605 0.029634 -0.013231 472962.000000 1 0 0
18.292636 -0.280815 -4.599694 18.864161 -0.015350 1.817112 0.042542 -0.009260 200809.000000 1 0 0
4.243236 -13.431415 11.456606 18.156590 -1.264800 0.887969 0.010160 -0.008410 62594.100000 1 0 0
8.919536 -2.666115 13.199606 16.152272 -0.290454 0.614264 -0.003171 -0.015562 318974.000000 1 0 0
9.064136 -9.668415 14.223406 19.440732 -0.817645 0.750088 0.023524 0.002002 275942.000000 1 0 0
21.109436 5.811085 -3.161094 22.121698 0.268630 1.714183 0.044884 0.002257 430107.000000 1 0 0
14.610436 -13.442815 1.888906 19.943472 -0.743801 1.475941 0.031964 -0.007836 250004.000000 1 0 0
10.838236 0.179785 14.329606 17.967673 0.016587 0.647621 0.015674 -0.018530 109984.000000 1 0 0
19.517636 0.169285 7.760406 21.004539 0.008673 1.192365 0.071396 -0.011193 -10327.600000 1 0 0
19.853936 1.505085 0.461606 19.916253 0.075663 1.547617 0.033993 0.000288 162067.000000 1 0 0
17.927036 0.633985 3.088506 18.202182 0.035350 1.400294 0.022098 0.003436 -161916.000000 1 0 0
10.009736 -8.592415 16.484206 21.112874 -0.709354 0.674906 0.016443 -0.001958 82424.400000 1 0 0
19.001136 3.007185 5.602606 20.036854 0.156962 1.287403 0.030183 0.008878 101980.000000 1 0 0
15.109736 2.370785 7.007506 16.823492 0.155636 1.141170 0.025337 -0.006950 -5631.430000 1 0 0
11.043336 -16.173415 1.892706 19.675287 -0.971702 1.474450 0.001226 0.003748 277302.000000 1 0 0
8.544836 -16.357915 6.962206 19.724804 -1.089416 1.210056 0.024857 -0.001663 507564.000000 1 0 0
6.038136 6.801885 7.223206 11.614622 0.844810 0.899622 0.004524 0.001830 -1181990.000000 1 0 0
18.554736 2.401785 -6.348094 19.757153 0.128727 1.897905 0.033619 0.001949 89594.500000 1 0 0
14.193336 4.448085 -7.109194 16.485657 0.303698 2.016658 0.011779 -0.008596 314167.000000 1 0 0
-10.648764 -3.924615 -14.039494 18.052872 0.353105 2.461775 0.013320 0.008776 -246321.000000 1 0 0
7.863336 -13.797615 -10.530694 19.055228 -1.052799 2.156326 0.010535 -0.005672 37782.300000 1 0 0
1.758936 -15.466415 14.068506 20.981580 -1.457557 0.835891 -0.003566 -0.005465 231654.000000 1 0 0
-9.457264 -7.972115 2.212806 12.565467 0.700394 1.393771 0.007815 0.001533 343285.000000 1 0 0
-13.866264 3.056985 -9.814594 17.261075 -0.216991 2.175596 0.025207 -0.001025 344183.000000 1 0 0
-12.868264 -5.013015 -13.335394 19.197793 0.371478 2.338704 0.015137 0.005798 79644.700000 1 0 0
-17.984764 -1.331015 -8.502894 19.937968 0.073873 2.011380 0.062498 -0.026555 481872.000000 1 0 0
-12.296764 15.108185 4.368306 19.963711 -0.887629 1.350199 0.022266 -0.022651 520555.000000 1 0 0
-17.593464 6.001185 9.570806 20.908002 -0.328727 1.095324 0.039818 -0.016095 267233.000000 1 0 0
-13.660564 15.488785 -0.242194 20.653623 -0.848035 1.582523 0.046567 -0.016181 70451.000000 1 0 0
-15.728664 5.020785 -11.157494 19.927088 -0.308988 2.165081 0.032391 0.005474 -87030.200000 1 0 0
-18.501964 2.979985 -0.290994 18.742670 -0.159692 1.586323 0.065694 -0.004756 -148664.000000 1 0 0
-9.450764 15.628785 -0.120494 18.264457 -1.026926 1.577394 0.021684 -0.010874 -265817.000000 1 0 0
-18.832464 11.554985 2.289306 22.213066 -0.550336 1.467552 0.094278 -0.028788 -126672.000000 1 0 0
-8.165264 16.472385 -7.874094 20.000309 -1.110599 1.975448 0.034901 -0.027404 66790.400000 1 0 0
-14.878864 -1.812915 -12.822194 19.725007 0.121247 2.278443 0.030965 -0.020109 229372.000000 1 0 0
-19.134364 5.272885 -4.766094 20.411832 -0.268897 1.806469 0.072284 -0.004606 -74496.600000 1 0 0
-16.619364 9.237885 -6.071994 19.960233 -0.507324 1.879900 0.045927 0.002403 -11707.400000 1 0 0
-18.866664 1.334685 2.722806 19.108796 -0.070625 1.427820 0.045426 -0.020316 117998.000000 1 0 0
-13.460964 11.724285 -6.991094 19.171120 -0.716551 1.944073 0.033434 -0.017251 6628.440000 1 0 0
-12.813564 4.982885 -13.568494 19.316330 -0.370880 2.349611 0.021325 -0.008528 -97666.600000 1 0 0
-13.945064 9.333185 -6.807594 18.108465 -0.589811 1.956201 0.030127 -0.010736 275368.000000 1 0 0
-6.327764 11.895785 -15.507994 20.543811 -1.081930 2.426259 -0.005261 -0.008449 -103145.000000 1 0 0
-15.159864 13.730785 2.930706 20.662647 -0.735973 1.428480 0.034312 -0.021138 58149.000000 1 0 0
-18.808164 8.550285 -4.734194 21.195920 -0.426677 1.796050 0.066982 -0.008835 199397.000000 1 0 0
-3.721064 16.873685 -9.882894 19.905757 -1.353746 2.090340 0.005299 -0.007214 26583.300000 1 0 0
-19.256364 -2.540115 -6.661994 20.533921 0.131153 1.901214 0.031279 -0.013818 -137432.000000 1 0 0
-10.827264 13.874285 -6.199094 18.658891 -0.908132 1.909466 0.019711 -0.016045 47562.400000 1 0 0
-19.221264 3.261785 4.301606 19.964971 -0.168095 1.353636 0.053839 -0.015129 83894.600000 1 0 0
-15.534564 12.864485 0.326606 20.172366 -0.691654 1.554605 0.049924 -0.000124 20155.800000 1 0 0
-16.732164 1.857685 -8.480894 18.850514 -0.110572 2.037453 -0.008311 -0.009190 93680.800000 1 0 0
-17.186164 12.093885 -4.161094 21.422909 -0.613204 1.766275 0.080133 -0.022473 181199.000000 1 0 0
-10.382064 15.705685 -8.573494 20.687209 -0.986700 1.998118 0.020639 -0.021199 31903.100000 1 0 0
-19.098764 1.622585 -7.201994 20.475944 -0.084754 1.930214 0.044803 -0.011996 83119.500000 1 0 0
-17.502264 10.318985 -0.493894 20.323746 -0.532723 1.595100 0.065528 -0.007447 -8756.080000 1 0 0
-11.629164 6.741085 -14.530094 19.794022 -0.525337 2.395085 0.007529 -0.012506 303016.000000 1 0 0
-14.510964 13.501385 -5.236694 20.500694 -0.749373 1.829099 0.062170 -0.002144 105598.000000 1 0 0
-18.955664 7.629285 0.237306 20.434762 -0.382643 1.559183 0.058551 -0.013313 147795.000000 1 0 0
-14.281264 9.043785 -10.849894 20.086432 -0.564519 2.141424 0.024652 0.001248 492132.000000 1 0 0
-18.619364 11.299585 4.952006 22.335705 -0.545458 1.347231 0.059471 -0.025144 239106.000000 1 0 0
-7.980664 12.206785 -13.327794 19.756688 -0.991762 2.311214 -0.021121 -0.002450 394564.000000 1 0 0
-21.249064 -1.333415 -5.342994 21.951043 0.062670 1.816671 0.051851 -0.015215 297908.000000 1 0 0
-10.610164 13.384785 -3.343294 17.404186 -0.900520 1.764095 0.027361 -0.003334 323722.000000 1 0 0
-18.604064 -4.959915 3.753706 19.616378 0.260544 1.378253 0.036349 -0.011218 29962.000000 1 0 0
-10.952664 11.169985 -13.651694 20.762904 -0.795221 2.288298 -0.004005 -0.008430 123492.000000 1 0 0
-14.864164 11.669885 -10.240394 21.494075 -0.665591 2.067385 0.040227 -0.006474 305801.000000 1 0 0
-12.862464 9.847385 -13.408694 21.028720 -0.653405 2.262223 0.024162 -0.018530 169723.000000 1 0 0
-18.219264 -5.044015 -3.162994 19.167373 0.270086 1.736574 0.012859 -0.008147 -319754.000000 1 0 0
-9.157364 12.403285 -11.577394 19.280427 -0.934824 2.214890 -0.001105 -0.015622 -77177.600000 1 0 0
-15.222764 7.699485 -8.418694 19.023381 -0.468267 2.029231 0.009583 0.001119 -21439.300000 1 0 0
-14.496164 8.910185 1.988706 17.131408 -0.551128 1.454449 0.024615 -0.001994 -102957.000000 1 0 0
-19.955364 6.003385 7.504606 22.148957 -0.292228 1.225129 0.077684 -0.026552 313646.000000 1 0 0
-18.762064 5.865085 3.788006 20.019073 -0.302979 1.380429 0.036711 -0.011614 221244.000000 1 0 0
-14.492964 12.893085 5.556506 20.178018 -0.727045 1.291817 0.015825 -0.018311 98279.900000 1 0 0
17.949336 6.259185 5.853106 19.890071 0.335529 1.272102 0.008259 -0.003215 78766.800000 1 0 0
18.214536 8.260385 0.407906 20.004241 0.425765 1.550404 0.010817 0.014472 26159.700000 1 0 0
16.858336 4.394985 8.755306 19.498071 0.255025 1.105112 0.030831 -0.000073 -8774.220000 1 0 0
11.785736 13.201085 10.892106 20.780043 0.841982 1.019066 0.012919 0.003131 98883.100000 1 0 0
15.185436 12.598385 4.162106 20.165314 0.692552 1.362903 0.027139 -0.001134 161758.000000 1 0 0
5.141136 10.427885 14.434006 18.534093 1.112750 0.678076 0.017994 -0.012739 256443.000000 1 0 0
13.146336 13.192185 -5.459694 19.407941 0.787139 1.855958 0.042442 -0.013487 320262.000000 1 0 0
17.442536 9.331985 -3.012294 20.010046 0.491264 1.721910 -0.013083 -0.002692 -349536.000000 1 0 0
14.476336 7.339385 9.510306 18.811613 0.469225 1.040771 0.019065 -0.000867 459.150000 1 0 0
4.750136 19.165885 -1.498594 19.802544 1.327849 1.646546 0.005717 -0.008562 570870.000000 1 0 0
-3.407264 19.501985 2.733206 19.985177 -1.397828 1.433605 -0.026376 -0.000950 -35957.300000 1 0 0
6.885336 12.809085 12.688406 19.299642 1.077573 0.853377 0.020408 -0.002277 -158259.000000 1 0 0
0.326136 16.938385 -10.209794 19.780171 1.551544 2.113161 0.011747 0.005709 -63759.600000 1 0 0
10.772836 9.397485 15.537406 21.113449 0.717317 0.743800 0.040180 -0.012167 117012.000000 1 0 0
-1.247164 12.134785 1.072306 12.245745 -1.468380 1.483118 -0.000425 0.002522 599518.000000 1 0 0
-4.789664 19.219185 -2.549494 19.970425 -1.326559 1.698809 0.006930 0.003006 54678.200000 1 0 0
6.539236 18.037185 6.287006 20.189802 1.222992 1.254136 0.030693 -0.024062 255838.000000 1 0 0
11.271536 17.407085 -1.515094 20.793019 0.996162 1.643726 0.040876 -0.006359 510922.000000 1 0 0
18.203936 10.757785 3.574006 21.444970 0.533745 1.403356 0.003349 -0.000952 283791.000000 1 0 0
11.597336 16.820185 6.326406 21.387853 0.967159 1.270509 0.034016 0.012742 -320160.000000 1 0 0
18.086636 7.333885 -6.102994 20.448932 0.385227 1.873865 0.021042 0.004439 146978.000000 1 0 0
0.246736 15.609585 11.239706 19.236710 1.554991 0.946799 0.010728 0.005623 484675.000000 1 0 0
1.355136 20.386085 -1.825394 20.512458 1.504420 1.659904 0.003872 0.001242 282509.000000 1 0 0
14.292936 9.839685 -1.196994 17.393683 0.602919 1.639669 0.008415 0.000190 -27035.500000 1 0 0
10.013936 17.348185 1.560606 20.091639 1.047286 1.493044 0.036448 -0.011095 227771.000000 1 0 0
0.261036 17.908085 -0.557094 17.918650 1.556221 1.601892 -0.003134 0.003447 142727.000000 1 0 0
-0.397164 20.993685 1.473906 21.049108 -1.551880 1.500717 -0.000190 -0.006005 260394.000000 1 0 0
5.860336 17.147285 -0.332894 18.124121 1.241477 1.589165 0.009109 -0.021611 -53060.500000 1 0 0
6.826236 18.732985 -3.128194 20.181869 1.221354 1.726424 -0.004846 -0.004418 43182.400000 1 0 0
10.082036 9.617985 12.642206 18.814315 0.761847 0.833963 0.007619 -0.003380 34683.200000 1 0 0
12.807836 14.803585 8.276206 21.252821 0.857553 1.170798 0.034587 -0.001674 218507.000000 1 0 0
-0.263264 18.095385 7.399406 19.551560 -1.556249 1.182669 0.015742 0.010871 352639.000000 1 0 0
7.462336 17.879685 -7.928994 20.934148 1.175411 1.959251 0.023108 -0.003036 111951.000000 1 0 0
-1.038664 18.626485 9.798706 21.072243 -1.515091 1.087156 0.025446 -0.004349 33884.500000 1 0 0
16.255236 7.045885 -8.061494 19.464452 0.409009 1.997822 0.040477 -0.002719 -240328.000000 1 0 0
-5.419664 19.644985 -6.962394 21.535393 -1.301612 1.900011 0.022928 -0.015336 398193.000000 1 0 0
3.584536 15.703085 9.757506 18.832013 1.346372 1.026129 0.018532 -0.004438 211436.000000 1 0 0
8.834336 14.849285 7.719306 18.924441 1.034111 1.150642 0.011972 0.001723 112645.000000 1 0 0
-2.517464 19.576585 6.422806 20.756511 -1.442903 1.256197 0.007510 -0.011506 216379.000000 1 0 0
4.759136 18.116485 8.482006 20.562122 1.313904 1.145593 0.025268 -0.008489 -92590.100000 1 0 0
13.971036 11.491785 -6.950694 19.379451 0.688337 1.937632 -0.018865 -0.032632 -155474.000000 1 0 0
11.678936 7.094085 15.618006 20.752005 0.545862 0.718791 0.041666 -0.005113 42934.400000 1 0 0
16.997336 9.524285 5.183306 20.161550 0.510747 1.310788 0.013445 -0.003084 133351.000000 1 0 0
5.249936 14.802885 11.967406 19.746039 1.229979 0.919691 0.007534 -0.027797 301916.000000 1 0 0
16.192436 11.316585 -4.306094 20.218866 0.609975 1.785414 0.050155 0.007579 15304.500000 1 0 0
15.157436 14.461985 6.679606 21.988952 0.761923 1.262148 0.037404 0.016612 285280.000000 1 0 0
12.344836 14.378285 -7.621294 20.425822 0.861345 1.953167 0.051460 -0.023813 315602.000000 1 0 0
-8.867264 15.494385 9.567406 20.254373 -1.051002 1.078827 0.039873 -0.017643 103031.000000 1 0 0
-4.866264 16.648385 -7.251094 18.799671 -1.286422 1.966766 0.003134 -0.004936 -63376.500000 1 0 0
2.279336 19.434785 -4.533394 20.086262 1.454048 1.798454 0.008326 -0.013891 -4553.000000 1 0 0
6.903436 16.588885 9.240306 20.204747 1.176447 1.095802 0.016060 0.001454 589363.000000 1 0 0
13.417436 15.495885 -1.294394 20.538391 0.857160 1.633861 0.060352 -0.015990 108113.000000 1 0 0
13.175536 15.104985 3.845106 20.409316 0.853518 1.381264 0.058472 -0.024293 273276.000000 1 0 0
3.113036 18.336585 0.433806 18.604020 1.402628 1.547476 0.017316 -0.016972 104026.000000 1 0 0
-6.722964 17.959185 1.509406 19.235615 -1.212598 1.492246 -0.018488 0.017002 210537.000000 1 0 0
0.442436 19.662885 -5.910094 20.536651 1.548299 1.862707 0.019223 -0.000466 84458.800000 1 0 0
-7.553964 17.926385 -6.397494 20.477930 -1.171989 1.888524 0.033480 -0.022168 111728.000000 1 0 0
-7.552164 18.480285 -1.135794 19.996154 -1.182846 1.627628 0.025967 -0.009646 76141.500000 1 0 0
-14.414564 -9.503015 9.045606 19.491278 0.582861 1.088195 0.038604 -0.000737 507785.000000 1 0 0
-13.064664 -13.599815 7.796006 20.406325 0.805465 1.178795 0.029540 -0.010334 108105.000000 1 0 0
-3.931264 -15.871015 12.627906 20.659331 1.327983 0.913164 0.030887 -0.010201 239609.000000 1 0 0
-2.228664 -14.236315 15.858306 21.427213 1.415509 0.737576 0.018493 -0.008542 301690.000000 1 0 0
-6.721264 -14.130315 13.376806 20.585920 1.126807 0.863470 -0.017463 -0.003162 103177.000000 1 0 0
-10.303264 -10.967715 11.770906 19.105032 0.816625 0.906995 0.050899 -0.015438 39566.100000 1 0 0
-7.603864 -10.653015 12.782806 18.294961 0.950885 0.797209 0.022124 -0.011478 370182.000000 1 0 0
-14.981364 -12.014015 8.048606 20.822053 0.675917 1.173917 0.029611 0.007098 356718.000000 1 0 0
-4.679664 -12.561615 12.991306 18.667283 1.214187 0.801068 0.023829 -0.019372 339806.000000 1 0 0
3.308636 -12.354815 13.897906 18.887570 -1.309135 0.743915 0.008597 -0.003385 444891.000000 1 0 0
6.301736 -13.483915 14.117706 20.514323 -1.133606 0.811808 0.011132 -0.014481 381144.000000 1 0 0
6.924136 -9.332115 16.777306 20.408577 -0.932455 0.605757 0.015357 -0.004061 532396.000000 1 0 0
-5.297564 13.469485 13.259306 19.629071 -1.196078 0.829163 0.005485 -0.007920 364230.000000 1 0 0
-13.726464 -1.726215 17.576206 22.367804 0.125101 0.666838 0.035188 -0.012719 372711.000000 1 0 0
-10.462864 9.530885 12.627806 18.967625 -0.738818 0.842290 0.009362 -0.012332 328087.000000 1 0 0
-7.596464 -8.121115 17.128506 20.421667 0.818766 0.575828 0.032951 -0.007602 179031.000000 1 0 0
-5.010064 2.384985 18.036406 18.870634 -0.444296 0.298454 0.029016 -0.017387 536822.000000 1 0 0
-16.058564 -3.467615 14.249706 21.747551 0.212670 0.856306 0.049818 -0.016033 66383.100000 1 0 0
-14.824464 3.177985 12.703506 19.779874 -0.211178 0.873374 0.017788 0.004808 203316.000000 1 0 0
-14.403364 10.922185 9.579306 20.457618 -0.648797 1.083486 -0.020402 0.010666 -153812.000000 1 0 0
-5.441664 11.060185 15.884006 20.105747 -1.113565 0.659950 0.060341 -0.005262 251556.000000 1 0 0
-13.314064 13.117085 7.610706 20.180314 -0.777946 1.184095 0.014567 -0.028510 222716.000000 1 0 0
-3.876564 -6.310715 18.639706 20.057206 1.019941 0.378210 0.029958 -0.013448 282912.000000 1 0 0
0.395536 -2.734915 17.724406 17.938528 -1.427168 0.154662 0.005508 -0.024851 5948.250000 1 0 0
-4.368364 6.532385 21.105906 22.521411 -0.981371 0.356430 0.028323 -0.004753 341762.000000 1 0 0
1.915836 -10.808915 16.704306 19.988419 -1.395372 0.581392 0.001658 -0.003138 320105.000000 1 0 0
-15.067364 -0.276815 13.782906 20.422306 0.018370 0.829974 -0.000257 -0.007709 -115633.000000 1 0 0
-14.022664 -5.697915 7.558106 16.918224 0.385957 1.107674 0.030182 -0.013234 -53879.300000 1 0 0
10.282736 0.793085 16.669806 19.602196 0.076975 0.554042 0.038816 0.011871 659302.000000 1 0 0
-7.647164 12.296885 11.949206 18.774345 -1.014445 0.880890 0.012510 -0.012533 77191.700000 1 0 0
-1.710164 7.712285 20.066106 21.565079 -1.352582 0.375046 0.037207 -0.010982 455552.000000 1 0 0
1.167736 -13.192315 15.235906 20.187461 -1.482510 0.715567 -0.007123 -0.023518 613037.000000 1 0 0
-3.679164 -11.682815 18.028706 21.795840 1.265707 0.596756 0.027940 -0.002790 403232.000000 1 0 0
-2.430164 9.556585 16.460806 19.188334 -1.321782 0.539716 0.031128 -0.011130 464844.000000 1 0 0
-5.946264 -9.461315 20.134906 23.028004 1.009697 0.506668 0.102376 -0.021880 150411.000000 1 0 0
-6.730864 -2.673015 19.070206 20.399076 0.378028 0.362942 0.038262 -0.018984 298587.000000 1 0 0
-10.803764 -8.190515 15.970106 20.948750 0.648676 0.703873 0.053484 -0.014235 189445.000000 1 0 0
-0.046564 6.517685 17.924006 19.072294 -1.563652 0.348773 0.023027 -0.012806 171846.000000 1 0 0
-6.611564 -11.282215 18.377106 22.554804 1.040722 0.618454 0.059634 -0.020323 375932.000000 1 0 0
0.112636 3.471485 18.613606 18.934894 1.538362 0.184479 0.013834 -0.017819 76684.400000 1 0 0
-18.477864 -0.254215 7.620606 19.989240 0.013757 1.179664 0.042423 -0.014774 96551.400000 1 0 0
-1.769364 -8.853415 17.556606 19.742037 1.373544 0.474983 0.004593 -0.005400 355469.000000 1 0 0
5.998936 3.422085 15.283106 16.771143 0.518407 0.424429 0.009814 -0.005036 400773.000000 1 0 0
-13.865364 -6.787515 10.246106 18.528394 0.455237 0.984842 0.033838 -0.013675 216515.000000 1 0 0
3.867136 8.381285 16.504606 18.910386 1.138502 0.509927 0.020795 -0.027068 118637.000000 1 0 0
6.192636 4.398585 17.562606 19.134822 0.617601 0.408205 0.029061 -0.027821 229754.000000 1 0 0
4.010736 -9.711515 17.705306 20.588282 -1.179144 0.535585 -0.011600 -0.014793 236955.000000 1 0 0
-4.533864 -0.620015 19.622106 20.148632 0.135909 0.229115 0.029151 -0.022048 731544.000000 1 0 0
-11.607364 2.248585 16.590306 20.372170 -0.191350 0.619169 0.050443 -0.017917 309756.000000 1 0 0
-16.781664 -3.994015 8.677206 19.309850 0.233652 1.104740 0.034483 -0.022174 271544.000000 1 0 0
-13.211564 -9.479915 12.025906 20.224654 0.622405 0.934008 0.039587 -0.029132 72085.700000 1 0 0
-14.776164 5.852885 12.808206 20.411797 -0.377143 0.892470 0.014622 -0.017439 317540.000000 1 0 0
1.354336 9.251785 16.892406 19.307593 1.425442 0.505546 0.034080 -0.035112 56353.400000 1 0 0
-3.952764 -10.640215 14.574406 18.473002 1.215104 0.661687 0.021595 -0.011998 497051.000000 1 0 0
-18.725464 -2.877415 6.523606 20.036965 0.152471 1.239173 0.110047 -0.021976 -285074.000000 1 0 0
-0.845964 -0.638815 21.104706 21.131312 0.646777 0.050187 0.014146 -0.016767 328756.000000 1 0 0
-1.872464 2.575485 20.129606 20.379899 -0.942157 0.156886 0.020729 -0.024574 114319.000000 1 0 0
-8.063764 2.110985 16.445206 18.437065 -0.256041 0.469125 0.015280 0.005403 617905.000000 1 0 0
2.736236 -2.091915 19.103706 19.411715 -0.652731 0.178378 0.010622 -0.003468 97316.200000 1 0 0
-12.336664 4.087785 14.507006 19.477076 -0.319967 0.730524 -0.011501 -0.002354 243188.000000 1 0 0
-13.722964 -5.704515 13.299706 19.943506 0.393960 0.840797 0.051019 -0.012311 18579.700000 1 0 0
-17.506164 -0.870115 10.176706 20.267911 0.049662 1.044760 0.044551 -0.010763 124902.000000 1 0 0
-7.644664 7.611285 14.727306 18.255577 -0.783210 0.632201 0.009939 -0.010253 137765.000000 1 0 0
-9.872964 0.821785 13.989706 17.142422 -0.083045 0.616189 0.030067 -0.007237 279154.000000 1 0 0
7.459736 -0.889615 15.157806 16.917392 -0.118695 0.460142 0.011749 -0.001853 155601.000000 1 0 0
4.104636 6.325785 18.454206 19.935429 0.995213 0.387917 0.026605 -0.013511 9440.200000 1 0 0
1.329936 0.426885 20.031606 20.080244 0.310593 0.069616 0.004368 -0.009631 90252.800000 1 0 0
-7.154864 6.647685 17.437206 19.985994 -0.748669 0.510559 0.009616 -0.005200 499986.000000 1 0 0
7.598936 -3.580215 16.726906 18.717669 -0.440300 0.465399 0.009310 0.003644 415620.000000 1 0 0
-16.443964 2.346585 9.161806 18.969689 -0.141745 1.066752 0.028582 -0.010792 201242.000000 1 0 0
3.762836 -6.235515 19.065406 20.409073 -1.027842 0.364889 0.009137 -0.022283 133646.000000 1 0 0
-3.783364 -3.590215 20.522806 21.175199 0.759209 0.248873 0.029452 -0.018019 392389.000000 1 0 0
-9.706264 5.990185 14.528706 18.470982 -0.552932 0.665563 0.002507 -0.004085 -32031.100000 1 0 0
6.537736 2.719285 20.045306 21.259134 0.394169 0.339554 0.040720 -0.012132 21094.100000 1 0 0
-7.071564 11.283485 14.158206 19.436534 -1.010962 0.754765 0.005571 -0.019176 113218.000000 1 0 0
-14.580164 5.014985 9.344106 18.028965 -0.331283 1.025954 0.009077 -0.006436 260812.000000 1 0 0
0.789936 -5.584315 20.201206 20.973729 -1.430272 0.272254 0.024365 -0.023928 233894.000000 1 0 0
-5.902164 -8.218315 13.767306 17.085519 0.947978 0.633791 0.009244 -0.000902 126738.000000 1 0 0
-12.796864 10.218285 6.701106 17.694008 -0.673825 1.182382 -0.010961 -0.016704 265140.000000 1 0 0
-19.610064 2.175885 7.546506 21.124366 -0.110506 1.205483 0.043829 -0.019276 99882.800000 1 0 0
-15.690264 9.169285 6.249006 19.217447 -0.528865 1.239601 0.013746 -0.011637 52485.600000 1 0 0
-12.866064 8.137885 13.960806 20.655868 -0.563980 0.828644 0.011896 -0.002046 148994.000000 1 0 0
-16.655664 9.054885 10.461006 21.652592 -0.497956 1.066571 0.031570 -0.014276 252547.000000 1 0 0
2.413736 11.005285 14.167906 18.101712 1.354890 0.671831 0.024540 -0.057628 461289.000000 1 0 0
1.661336 14.455385 13.309306 19.719428 1.456370 0.829922 0.017500 -0.026150 577532.000000 1 0 0
8.647636 5.205785 16.657806 19.477277 0.541881 0.544777 0.026227 -0.005074 165305.000000 1 0 0
-0.215664 13.351685 13.556706 19.028881 -1.554645 0.777844 0.014490 0.002450 209608.000000 1 0 0
4.219336 12.754885 14.886106 20.052083 1.251326 0.734192 0.032863 -0.008680 135093.000000 1 0 0
-3.644764 -4.545915 -14.243394 15.389084 0.894979 2.753287 0.010471 0.000537 19288.100000 1 0 0
5.756636 -12.001715 16.993806 21.586326 -1.123560 0.664462 -0.007314 0.016334 176889.000000 1 0 0
8.543636 -13.842115 7.386006 17.864796 -1.017811 1.144568 0.009289 -0.003064 290204.000000 1 0 0
-0.456964 15.248185 0.422306 15.260875 -1.540837 1.543120 -0.003246 -0.001094 -512016.000000 1 0 0
-14.149864 7.531185 8.681506 18.229261 -0.489109 1.074422 0.004904 -0.003527 101519.000000 1 0 0
-15.989664 -9.583115 5.805706 19.524643 0.539928 1.268878 0.024588 -0.003096 240685.000000 1 0 0
9.112436 -10.437915 11.488906 17.999486 -0.853093 0.878520 0.012972 -0.002120 103532.000000 1 0 0
-25.882574 6.269685 31.325233 41.115530 -0.237658 0.704581 0.050368 -0.014499 -693626.000000 0 0 1
-24.994464 5.200185 31.216953 40.326955 -0.205127 0.685510 0.052308 -0.016933 -445401.000000 0 0 1
-23.946764 5.482285 32.098673 40.420636 -0.225058 0.653245 0.044376 -0.014165 -143206.000000 0 0 1
-22.521264 5.045185 31.676353 39.192507 -0.220380 0.629665 0.053597 -0.018779 111806.000000 0 0 1
-22.371664 3.655585 31.980913 39.199917 -0.161971 0.616614 0.042926 -0.016485 295812.000000 0 0 1
-21.059764 3.125385 31.828253 38.292550 -0.147330 0.589558 0.051893 -0.013499 340782.000000 0 0 1
-20.761264 1.920885 32.722151 38.800246 -0.092260 0.567311 0.037769 -0.017633 -199089.000000 0 0 1
-21.336464 0.736485 32.214813 38.646880 -0.034504 0.585260 0.037875 -0.022906 123112.000000 0 0 1
-21.311464 -0.304515 33.194293 39.447843 0.014288 0.570793 0.025600 -0.016407 -26181.200000 0 0 1
-22.087564 -1.540015 32.772881 39.551155 0.069610 0.594158 0.023216 -0.024989 -127016.000000 0 0 1
-21.194464 -2.311715 31.966783 38.424270 0.108642 0.588197 0.051263 -0.026463 407505.000000 0 0 1
-21.255564 -3.757615 32.068393 38.656183 0.174975 0.592441 0.050482 -0.029816 -78756.600000 0 0 1
-22.643264 -4.423815 31.736053 39.236012 0.192940 0.628602 0.047613 -0.024434 684306.000000 0 0 1
-23.685364 -4.131015 32.641022 40.540080 0.172675 0.634861 0.044867 -0.020325 15248.700000 0 0 1
-23.610064 -4.738715 33.888987 41.573477 0.198076 0.617793 0.044718 -0.014156 -692241.000000 0 0 1
-24.810364 -4.283715 -33.743284 42.101230 0.170973 2.500562 0.042477 -0.011506 106339.000000 0 0 1
-25.037874 -4.971315 -32.527784 41.348106 0.196003 2.476211 0.036984 -0.008380 372676.000000 0 0 1
-26.182064 -4.562915 -31.779114 41.427440 0.172543 2.445109 0.026522 -0.008817 58607.100000 0 0 1
-26.320884 -5.087615 -30.307004 40.462171 0.190937 2.417379 0.012031 -0.007290 -895326.000000 0 0 1
-26.426404 -6.503615 -30.323034 40.744794 0.241307 2.410161 0.020714 -0.007948 523151.000000 0 0 1
-26.292074 -7.004115 -29.035874 39.792119 0.260350 2.388663 -0.000011 -0.008055 -179658.000000 0 0 1
-26.474734 -8.530215 -28.964034 40.157084 0.311699 2.376428 0.008285 -0.008129 324843.000000 0 0 1
-27.852614 -8.901415 -29.032134 41.205195 0.309331 2.352620 0.016573 -0.010842 205025.000000 0 0 1
-28.066874 -10.293215 -28.880654 41.566716 0.351508 2.338941 0.016143 -0.010524 130075.000000 0 0 1
-29.470914 -10.468615 -28.272464 42.159921 0.341316 2.305814 0.039362 -0.014170 127672.000000 0 0 1
-29.560864 -11.645915 -27.495544 42.017579 0.375292 2.284161 0.056695 -0.018139 313339.000000 0 0 1
-30.897814 -11.751715 -27.001074 42.682968 0.363445 2.255697 0.062542 -0.017252 254445.000000 0 0 1
-30.974424 -12.519115 -25.611984 42.096519 0.384101 2.224853 0.077533 -0.013977 123288.000000 0 0 1
-30.143714 -11.890915 -24.636194 40.706012 0.375734 2.220842 0.075018 -0.014720 345617.000000 0 0 1
-30.208404 -12.481215 -23.362894 40.176526 0.391808 2.191375 0.086524 -0.011851 -733781.000000 0 0 1
-29.260384 -11.752915 -22.458994 38.713144 0.381942 2.189695 0.098335 -0.017875 -446130.000000 0 0 1
-29.245534 -12.418715 -21.193794 38.192966 0.401563 2.159055 0.104895 -0.014693 534900.000000 0 0 1
-28.028474 -13.152415 -21.039894 37.433388 0.438748 2.167673 0.113977 -0.016789 118844.000000 0 0 1
-27.800734 -13.607615 -19.546494 36.607560 0.455188 2.134058 0.093381 -0.020188 -210175.000000 0 0 1
-27.402484 -12.460215 -18.789994 35.485447 0.426765 2.128822 0.084061 -0.019063 174093.000000 0 0 1
-27.194984 -12.792115 -17.466394 34.760326 0.439676 2.097262 0.075262 -0.012495 25036.000000 0 0 1
-26.898394 -11.543515 -16.518094 33.609876 0.405383 2.084568 0.077021 -0.020025 -202717.000000 0 0 1
-25.642954 -10.977815 -16.797994 32.561421 0.404496 2.112838 0.063782 -0.024187 -25696.700000 0 0 1
-25.561504 -9.629815 -16.439994 31.880985 0.360288 2.112583 0.064979 -0.021343 882917.000000 0 0 1
-24.086164 -9.085115 -16.241794 30.438109 0.360691 2.133649 0.077891 -0.027779 1038230.000000 0 0 1
-23.415964 -9.590815 -15.093894 29.463821 0.388741 2.108640 0.072983 -0.029471 55685.100000 0 0 1
-22.165664 -8.929715 -15.041894 28.236768 0.382972 2.132591 0.093133 -0.039430 -51674.400000 0 0 1
-21.256164 -9.464615 -13.924394 27.116272 0.418909 2.110063 0.082146 -0.023744 3374.880000 0 0 1
-20.602064 -10.726615 -14.258994 27.254802 0.480037 2.121367 0.068068 -0.018510 1244640.000000 0 0 1
-19.356764 -10.880515 -13.541694 26.008602 0.512089 2.118423 0.071088 -0.012125 814638.000000 0 0 1
-18.508764 -12.012515 -14.151994 26.213618 0.575684 2.141081 0.069625 -0.012729 191648.000000 0 0 1
-17.631064 -11.729215 -15.261794 26.102706 0.587027 2.195285 0.082012 -0.020810 368499.000000 0 0 1
-18.256264 -11.507015 -16.490694 27.159631 0.562405 2.223299 0.075659 -0.025672 -708873.000000 0 0 1
-17.357364 -10.956815 -17.558094 27.011415 0.563080 2.278414 0.064917 -0.021954 -424257.000000 0 0 1
-18.049364 -11.022815 -18.811094 28.304403 0.548253 2.297754 0.056357 -0.017641 787702.000000 0 0 1
-17.310364 -10.541915 -19.944794 28.435462 0.547007 2.348164 0.058256 -0.018058 -9352.260000 0 0 1
-18.058364 -10.810615 -21.262294 29.917538 0.539425 2.361284 0.066954 -0.018090 611465.000000 0 0 1
-19.288164 -10.071315 -21.406894 30.524085 0.481210 2.348032 0.070926 -0.024826 853008.000000 0 0 1
-20.202264 -10.891015 -22.150794 31.896761 0.494435 2.338455 0.069177 -0.017026 753086.000000 0 0 1
-21.514664 -10.119615 -22.507294 32.739359 0.439655 2.328794 0.054435 -0.021404 413155.000000 0 0 1
-21.188964 -9.089515 -23.388194 32.842033 0.405232 2.363341 0.060413 -0.030101 47748.300000 0 0 1
-22.330464 -8.611415 -24.040194 33.922515 0.368062 2.358421 0.053380 -0.033068 -304324.000000 0 0 1
-22.009064 -7.770915 -25.284244 34.410449 0.339414 2.396144 0.046565 -0.032320 -197535.000000 0 0 1
-21.173164 -8.531215 -26.114384 34.684947 0.383026 2.423258 0.058811 -0.030967 11798.500000 0 0 1
-20.710164 -7.712215 -27.155494 35.011570 0.356479 2.458485 0.054074 -0.034373 -252630.000000 0 0 1
-19.488764 -8.231315 -27.932584 35.039916 0.399634 2.493381 0.085553 -0.037960 -76058.200000 0 0 1
-19.775364 -9.360615 -28.782054 36.153738 0.442099 2.491622 0.089609 -0.034134 487456.000000 0 0 1
-18.547164 -9.785415 -29.349464 36.071355 0.485480 2.521200 0.056095 -0.025376 221411.000000 0 0 1
-18.684664 -11.075815 -30.194134 37.195108 0.535091 2.517985 0.056754 -0.017037 -228126.000000 0 0 1
-19.015064 -10.836515 -31.564514 38.409911 0.517986 2.535325 0.051554 -0.010559 228910.000000 0 0 1
-18.871264 -11.892415 -32.404924 39.339970 0.562320 2.538729 0.036031 -0.002778 -70516.100000 0 0 1
-19.787364 -11.891315 -33.664384 40.819528 0.541121 2.540490 0.040582 -0.005771 -16262.700000 0 0 1
-19.409964 -10.939815 33.893054 40.560638 0.513239 0.581546 0.042508 -0.007215 106260.000000 0 0 1
-20.028664 -11.143315 32.607639 39.856982 0.507719 0.612669 0.060910 -0.013835 158838.000000 0 0 1
-19.375564 -12.304115 31.774733 39.197416 0.565781 0.625563 0.065669 -0.016709 -202745.000000 0 0 1
-18.119864 -11.937715 31.244883 38.040521 0.582550 0.607009 0.073912 -0.014394 333225.000000 0 0 1
-17.534464 -12.788515 30.232563 37.215741 0.630144 0.622609 0.067689 -0.019447 239408.000000 0 0 1
-17.448064 -14.338615 30.509373 37.958565 0.687886 0.637217 0.057138 -0.008891 -1351570.000000 0 0 1
-18.643364 -15.011415 30.276453 38.595093 0.677896 0.668965 0.046447 -0.014971 -424152.000000 0 0 1
-18.630164 -16.358515 30.715023 39.472733 0.720564 0.679109 0.047999 -0.019321 -21206.000000 0 0 1
-18.830764 -16.531415 32.247593 40.838617 0.720467 0.660583 0.021955 -0.021033 482697.000000 0 0 1
-17.683664 -16.009715 32.926548 40.659323 0.735757 0.626959 0.032987 -0.013420 349497.000000 0 0 1
-18.077764 -15.551015 34.177725 41.674411 0.710403 0.609188 0.026220 -0.005792 434049.000000 0 0 1
-16.927764 -15.110215 -33.344634 40.332771 0.728728 2.544081 0.023713 -0.006176 346612.000000 0 0 1
-16.374664 -13.854415 -33.713584 39.958481 0.702219 2.574964 0.029841 -0.005852 476885.000000 0 0 1
-15.179464 -13.468715 -33.001924 38.742088 0.725753 2.590278 0.031349 -0.003251 499403.000000 0 0 1
-15.294964 -12.986415 -31.493284 37.341797 0.703951 2.574337 0.046840 -0.002545 -554726.000000 0 0 1
-15.521364 -14.118015 -30.695434 37.181188 0.738086 2.541996 0.028153 -0.006574 -80384.600000 0 0 1
-15.922664 -13.778315 -29.395284 36.158760 0.713325 2.519997 0.023003 -0.003574 -274970.000000 0 0 1
-16.248864 -15.053815 -28.466094 36.068843 0.747239 2.480327 0.015593 0.009298 430557.000000 0 0 1
-15.179964 -15.879115 -28.001424 35.590130 0.807905 2.476363 0.040637 -0.017684 774042.000000 0 0 1
-14.279664 -16.423915 -29.011074 36.267012 0.855122 2.497975 0.042106 -0.017092 235517.000000 0 0 1
-12.990264 -17.072415 -28.522354 35.689480 0.920361 2.496728 0.060555 -0.019438 440516.000000 0 0 1
-11.879664 -16.208215 -28.248064 34.666782 0.938303 2.523259 0.043692 -0.022830 508338.000000 0 0 1
-10.787064 -16.836715 -27.589034 34.073311 1.000996 2.514431 0.066737 -0.030579 638318.000000 0 0 1
-9.434464 -16.111815 -27.734124 33.433237 1.041061 2.549075 0.050919 -0.037872 52505.600000 0 0 1
-9.427064 -14.785215 -27.234134 32.390896 1.003187 2.569548 0.054229 -0.027403 -283975.000000 0 0 1
-8.103764 -14.320815 -27.322784 31.895004 1.055848 2.599533 0.060450 -0.029880 -224712.000000 0 0 1
-8.059064 -12.787315 -27.684494 31.541958 1.008439 2.641845 0.055013 -0.034236 -68738.000000 0 0 1
-8.341064 -12.525015 -29.068834 32.732957 0.983288 2.663905 0.068206 -0.031359 245601.000000 0 0 1
-8.314664 -11.175515 -29.422294 32.552990 0.931142 2.699428 0.051130 -0.034127 -85319.000000 0 0 1
-7.195764 -10.761015 -30.403734 33.044901 0.981395 2.739064 0.035078 -0.017916 -57997.500000 0 0 1
-5.884664 -10.885215 -29.893594 32.353425 1.075190 2.749130 0.034067 -0.017596 353934.000000 0 0 1
-4.816264 -10.579315 -30.757004 32.880261 1.143583 2.780254 0.043432 -0.018807 118924.000000 0 0 1
-4.546364 -9.129715 -31.148344 32.775608 1.108770 2.825159 0.028752 -0.013795 -1747040.000000 0 0 1
-3.339164 -8.830415 -31.732084 33.106667 1.209273 2.852420 0.033934 -0.016070 -1025180.000000 0 0 1
-3.359164 -7.529915 -32.280494 33.316871 1.151183 2.891515 0.034629 -0.015524 -197334.000000 0 0 1
-2.047664 -6.900815 -32.776714 33.557818 1.282344 2.925411 0.036578 -0.016556 -212399.000000 0 0 1
-1.612764 -7.361515 -34.033444 34.857829 1.355123 2.923677 0.036466 -0.024768 -1075170.000000 0 0 1
-0.370964 -6.798115 34.228288 34.898821 1.516282 0.196344 0.028931 -0.007941 -591137.000000 0 0 1
0.352836 -7.385215 32.988841 33.807241 -1.523057 0.220482 0.014998 -0.001410 -74909.300000 0 0 1
-0.295364 -7.092115 31.761863 32.545373 1.529174 0.219871 0.009807 0.007841 -255910.000000 0 0 1
0.250036 -7.748315 30.677553 31.641921 -1.538538 0.247522 0.002031 0.004674 -190351.000000 0 0 1
-0.135964 -7.248815 29.238223 30.123703 1.552042 0.243064 0.003810 0.006773 -14685.000000 0 0 1
0.476036 -6.039115 28.928303 29.555782 -1.492134 0.206426 0.005370 0.000443 -35074.000000 0 0 1
0.324736 -5.688515 27.565423 28.148130 -1.513772 0.203830 0.016336 -0.000964 -50610.900000 0 0 1
-0.839964 -4.712315 27.234103 27.651543 1.394400 0.173980 0.022460 0.001751 734826.000000 0 0 1
-2.148064 -5.190915 27.498323 28.066306 1.178440 0.201523 0.028779 0.009285 -140665.000000 0 0 1
-3.133764 -4.229915 27.172503 27.677745 0.933172 0.191365 0.018896 -0.000054 -451551.000000 0 0 1
-4.545564 -4.714815 27.468173 28.238133 0.803673 0.234058 0.028848 -0.001541 -517966.000000 0 0 1
-4.926264 -5.738315 26.563743 27.619355 0.861396 0.277366 0.032324 0.005949 -732724.000000 0 0 1
-6.227364 -6.190515 26.768363 28.171755 0.782431 0.316969 0.023353 -0.000914 -108204.000000 0 0 1
-6.406164 -7.711515 26.669133 28.491210 0.877598 0.359571 0.027159 -0.000925 123265.000000 0 0 1
-5.612864 -8.337715 27.637483 29.408370 0.978291 0.348802 0.023799 -0.003381 -192557.000000 0 0 1
-5.928264 -9.679515 27.779153 30.008643 1.021269 0.387901 0.018856 -0.006364 36541.800000 0 0 1
-5.187664 -10.339015 28.956053 31.181086 1.105745 0.380062 0.018490 -0.010267 -147981.000000 0 0 1
-5.561264 -11.709515 29.179763 31.929594 1.127401 0.418060 0.032957 -0.020317 -9997.410000 0 0 1
-4.894264 -12.417615 30.212153 33.029156 1.195353 0.416003 0.041753 -0.017602 -302667.000000 0 0 1
-4.971764 -13.934315 30.007883 33.456787 1.228076 0.458054 0.059293 -0.021904 233048.000000 0 0 1
-6.250064 -14.463315 30.302593 34.154032 1.162900 0.479484 0.057157 -0.027204 -177378.000000 0 0 1
-6.253064 -15.856915 30.244813 34.717305 1.195176 0.513208 0.056803 -0.024656 -65845.900000 0 0 1
-6.595264 -16.568415 31.588553 36.274599 1.191961 0.513934 0.071111 -0.026616 909026.000000 0 0 1
-7.897864 -16.316815 32.146813 36.905722 1.120004 0.513456 0.073758 -0.025628 419393.000000 0 0 1
-7.954864 -16.876115 33.422522 38.277253 1.130315 0.509129 0.073112 -0.023347 -62876.100000 0 0 1
-9.341264 -17.163315 34.100721 39.302643 1.072373 0.520352 0.066319 -0.019401 514145.000000 0 0 1
-9.942964 -18.340815 33.580184 39.533236 1.074021 0.555918 0.068746 -0.020857 350427.000000 0 0 1
-10.600564 -18.158815 32.311223 38.550352 1.042396 0.576902 0.065662 -0.025613 -382884.000000 0 0 1
-11.397564 -19.326715 31.665643 38.809011 1.037962 0.616451 0.053883 -0.020032 190334.000000 0 0 1
-12.580364 -19.700115 32.346913 39.908431 1.002482 0.625743 0.056614 -0.016914 47343.600000 0 0 1
-12.903564 -21.070315 32.347403 40.703988 1.021305 0.652285 0.041986 -0.016763 -325083.000000 0 0 1
-12.258764 -21.894815 33.517328 41.869697 1.060389 0.642642 0.053424 -0.017308 983810.000000 0 0 1
-10.832164 -22.047615 33.257814 41.346285 1.114127 0.636178 0.048210 -0.020577 1333570.000000 0 0 1
-10.100464 -22.731015 -34.199916 42.288919 1.152653 2.512770 0.056823 -0.032021 300012.000000 0 0 1
-10.456864 -24.213315 -33.927424 42.973256 1.163126 2.480792 0.069117 -0.015804 -191405.000000 0 0 1
-9.935664 -25.061065 33.533583 43.026452 1.193347 0.677135 0.068258 -0.021288 -76810.400000 0 0 1
-10.376064 -26.391915 33.603751 43.970535 1.196206 0.700944 0.076899 -0.025938 -1351420.000000 0 0 1
-9.863364 -27.332215 32.477786 43.579152 1.224471 0.729872 0.066712 -0.014083 -333174.000000 0 0 1
-8.474964 -27.410505 32.317333 43.215400 1.270933 0.726024 0.089607 -0.025479 -486522.000000 0 0 1
-7.818264 -27.997875 33.421728 44.294674 1.298488 0.715856 0.067822 -0.021425 -523438.000000 0 0 1
-6.258964 -27.980915 33.361520 43.989740 1.350732 0.709952 0.074207 -0.025901 897295.000000 0 0 1
-5.630664 -26.789145 33.842310 43.527745 1.363627 0.680134 0.079253 -0.021799 27938.000000 0 0 1
-5.402964 -25.765465 32.902940 42.138517 1.364093 0.674806 0.097055 -0.010782 -17791.000000 0 0 1
-4.938164 -24.437215 33.577893 41.821500 1.371406 0.638676 0.094557 -0.021217 520276.000000 0 0 1
-3.661764 -24.589315 34.192992 42.275331 1.422966 0.628659 0.095312 -0.027509 187789.000000 0 0 1
-3.173164 -23.364715 -33.854134 41.256287 1.435812 2.533224 0.083977 -0.027604 -29441.700000 0 0 1
34.671063 -15.153115 2.301106 37.907711 -0.412036 1.510056 0.121427 -0.034576 -702205.000000 0 0 1
35.619193 -15.653415 3.154706 39.034708 -0.414059 1.489890 0.104876 -0.034724 -587436.000000 0 0 1
35.135863 -15.768615 4.432306 38.766266 -0.421847 1.456212 0.109634 -0.038335 -409717.000000 0 0 1
36.264293 -15.861215 5.444206 39.953929 -0.412308 1.434109 0.095560 -0.015954 -268840.000000 0 0 1
-35.546256 -16.989315 5.356706 39.760124 0.445852 1.435660 0.095772 -0.010411 -194609.000000 0 0 1
-34.781552 -17.090115 6.520906 39.298226 0.456708 1.404091 0.090617 -0.004258 -434080.000000 0 0 1
-33.739754 -18.203315 6.518006 38.887223 0.494763 1.402388 0.064629 -0.017544 -347927.000000 0 0 1
-34.191576 -19.562515 6.694206 39.957080 0.519685 1.402468 0.079381 -0.021318 -244527.000000 0 0 1
-33.134324 -20.387215 7.070206 39.541241 0.551586 1.391024 0.063278 -0.015895 -398597.000000 0 0 1
-33.563964 -21.821615 7.301606 40.694422 0.576481 1.390394 0.070251 -0.010678 -328280.000000 0 0 1
-33.449354 -22.553115 6.078106 40.797618 0.593232 1.421258 0.075474 -0.011641 231762.000000 0 0 1
-33.768954 -23.914515 6.351306 41.863891 0.616195 1.418495 0.076556 -0.009748 -142844.000000 0 0 1
-33.125414 -24.883115 5.354606 41.774804 0.644255 1.442265 0.075616 -0.004217 -20906.500000 0 0 1
-33.653244 -24.798815 4.058606 41.999933 0.635059 1.474012 0.067192 -0.000546 427249.000000 0 0 1
-32.902464 -25.655635 3.184406 41.844046 0.662270 1.494621 0.062822 0.000211 376512.000000 0 0 1
-33.393504 -25.405045 1.707506 41.993547 0.650363 1.530124 0.050370 0.001591 -380244.000000 0 0 1
-34.580407 -26.046325 1.323206 43.312428 0.645553 1.540241 0.039689 0.001977 -111652.000000 0 0 1
-35.186402 -25.490675 0.168206 43.449806 0.626945 1.566925 0.035199 -0.002708 366161.000000 0 0 1
-36.028459 -24.160315 0.413106 43.381348 0.590714 1.561274 0.045172 -0.006641 748063.000000 0 0 1
35.207763 -24.422715 0.528006 42.852472 -0.606468 1.558475 0.039085 -0.004603 1061230.000000 0 0 1
34.546183 -23.196315 0.923706 41.621641 -0.591312 1.548602 0.060353 -0.009477 762105.000000 0 0 1
32.993493 -23.257015 0.768306 40.373872 -0.614005 1.551765 0.053471 -0.010929 533080.000000 0 0 1
32.552473 -23.273915 -0.545894 40.020452 -0.620700 1.584437 0.051913 -0.018464 544702.000000 0 0 1
31.137443 -23.043815 -0.585594 38.741459 -0.637114 1.585912 0.048649 -0.015831 823252.000000 0 0 1
30.615603 -22.858415 -2.037094 38.261887 -0.641338 1.624062 0.047389 -0.013684 -25868.700000 0 0 1
31.197393 -21.724015 -2.659594 38.108838 -0.608266 1.640643 0.073916 -0.023466 122386.000000 0 0 1
30.966063 -21.692315 -4.070094 38.026559 -0.611074 1.678035 0.070952 -0.035320 -70443.100000 0 0 1
30.904523 -20.222515 -4.581094 37.215938 -0.579430 1.694204 0.079085 -0.033892 879365.000000 0 0 1
29.816663 -19.440315 -4.014694 35.820064 -0.577776 1.683112 0.080269 -0.037327 805506.000000 0 0 1
29.865133 -18.059315 -4.294494 35.164011 -0.543865 1.693230 0.086027 -0.036826 -69404.000000 0 0 1
28.760903 -17.387115 -3.454294 33.785106 -0.543751 1.673218 0.091831 -0.031298 -122291.000000 0 0 1
29.026633 -17.217415 -2.061394 33.811745 -0.535374 1.631801 0.093236 -0.024685 209947.000000 0 0 1
29.519963 -18.306715 -1.238194 34.757691 -0.555102 1.606427 0.086826 -0.013327 7756.870000 0 0 1
28.641413 -19.592015 -1.080894 34.718092 -0.599937 1.601935 0.069676 -0.004681 587462.000000 0 0 1
27.555583 -19.340315 -0.155394 33.665740 -0.611977 1.575412 0.067292 0.006595 660317.000000 0 0 1
26.938183 -20.573315 0.204306 33.896441 -0.652226 1.564769 0.040390 0.007899 -147478.000000 0 0 1
25.830883 -20.431315 1.289206 32.959599 -0.669207 1.531672 0.036702 0.011097 80795.800000 0 0 1
25.029983 -21.629715 1.478406 33.113898 -0.712653 1.526135 0.027699 0.018190 760805.000000 0 0 1
24.046183 -21.494115 2.510206 32.349915 -0.729417 1.493123 0.011525 0.016105 1054220.000000 0 0 1
22.676983 -20.828615 2.100106 30.862391 -0.742938 1.502696 0.006862 0.021050 7881.980000 0 0 1
22.696083 -19.469715 1.782506 29.955956 -0.709031 1.511257 0.021700 0.005170 133692.000000 0 0 1
22.817183 -18.664415 2.950206 29.625798 -0.685620 1.471049 0.027297 0.003333 -406448.000000 0 0 1
22.748883 -17.125815 2.550106 28.588603 -0.645303 1.481478 0.029555 0.006984 321224.000000 0 0 1
21.461983 -16.634915 2.203006 27.243170 -0.659365 1.489843 0.024639 0.008472 59445.500000 0 0 1
21.525083 -15.406915 1.521506 26.514471 -0.621229 1.513381 0.037156 -0.008772 -275589.000000 0 0 1
20.145483 -14.974415 1.039606 25.122785 -0.639208 1.529404 0.037410 -0.005773 -587777.000000 0 0 1
19.231583 -14.653615 2.061606 24.265869 -0.651109 1.485735 0.047414 -0.014163 313058.000000 0 1 0
18.293783 -13.681315 1.597906 22.899654 -0.642135 1.500961 0.060976 -0.017338 2760.290000 0 1 0
18.743583 -12.271615 1.969606 22.489859 -0.579679 1.483106 0.074232 -0.016965 712782.000000 0 1 0
19.991183 -11.779715 1.408406 23.246347 -0.532474 1.510173 0.083454 -0.019392 1394670.000000 0 1 0
20.320783 -10.564315 2.051506 22.994513 -0.479423 1.481460 0.086830 -0.020929 72428.300000 0 1 0
21.126883 -9.559715 1.140406 23.217102 -0.424923 1.521657 0.093280 -0.023563 21620.700000 0 1 0
20.468583 -9.127415 -0.029794 22.411458 -0.419458 1.572126 0.095827 -0.023418 335400.000000 0 1 0
21.340383 -8.427415 -0.863094 22.960361 -0.376106 1.608396 0.094767 -0.013839 -371784.000000 0 1 0
20.726183 -8.234415 -2.288194 22.419100 -0.378173 1.673039 0.100835 -0.013413 -343628.000000 0 1 0
21.478583 -7.608415 -3.326794 23.027919 -0.340441 1.715771 0.099950 -0.019202 19299.900000 0 1 0
22.508183 -8.371615 -3.883994 24.326685 -0.356082 1.731142 0.096900 -0.020807 -603575.000000 0 1 0
21.980583 -9.550715 -4.736594 24.429439 -0.409895 1.765921 0.072037 -0.021208 -237898.000000 0 1 0
21.550283 -9.189015 -6.076494 24.202819 -0.403055 1.824577 0.077549 -0.024613 1115000.000000 0 1 0
20.172583 -8.763315 -6.097294 22.823360 -0.409820 1.841232 0.068727 -0.017840 723780.000000 0 1 0
19.508983 -8.871715 -7.550794 22.722725 -0.426797 1.909539 0.065725 -0.012065 -23705.200000 0 1 0
19.439983 -10.207415 -8.084994 23.398106 -0.483504 1.923611 0.061585 -0.012937 669933.000000 0 1 0
20.650883 -10.547715 -8.743494 24.782290 -0.472221 1.931371 0.064710 -0.011458 56404.200000 0 1 0
20.542583 -11.965615 -9.376094 25.555523 -0.527436 1.946461 0.052126 -0.013112 -36065.400000 0 0 1
19.561983 -11.998415 -10.402494 25.196131 -0.550181 1.996389 0.065964 -0.020014 439432.000000 0 0 1
19.571383 -13.267215 -11.040894 26.095198 -0.595731 2.007661 0.057086 -0.012828 138926.000000 0 0 1
18.232783 -13.511515 -11.803694 25.579730 -0.637752 2.050422 0.062779 -0.021062 333696.000000 0 0 1
18.021483 -14.905115 -12.090494 26.327102 -0.691033 2.047937 0.054263 -0.020871 559867.000000 0 0 1
16.929183 -15.074415 -12.996894 26.129570 -0.727508 2.091397 0.061478 -0.026059 46265.700000 0 0 1
16.872083 -16.551115 -13.458994 27.198365 -0.775795 2.088454 0.044736 -0.016766 -648065.000000 0 0 1
16.341183 -17.402115 -12.491794 26.942768 -0.816829 2.052897 0.036984 -0.012092 244221.000000 0 0 1
16.509683 -18.744715 -12.798794 28.066761 -0.848711 2.044306 0.032888 -0.011893 -469425.000000 0 0 1
15.539583 -19.686115 -12.031794 27.817006 -0.902572 2.018097 0.038037 -0.012318 259976.000000 0 0 1
14.188583 -19.576215 -12.454294 27.196571 -0.943628 2.046469 0.026716 -0.011340 -116142.000000 0 0 1
13.350783 -20.380615 -11.638194 27.001119 -0.990863 2.016426 0.034339 -0.010667 312957.000000 0 0 1
11.893983 -19.929815 -11.983994 26.120498 -1.032738 2.047437 0.046005 -0.016763 411829.000000 0 0 1
10.961183 -20.736715 -11.271094 26.022998 -1.084541 2.018748 0.055256 -0.022689 -515713.000000 0 0 1
9.640283 -20.387015 -11.569094 25.345795 -1.129092 2.044798 0.055254 -0.019766 -490921.000000 0 0 1
8.621683 -20.856615 -10.548694 24.911980 -1.178810 2.008034 0.042026 -0.022133 -448237.000000 0 1 0
8.376883 -22.226515 -10.565094 25.996371 -1.210372 1.989314 0.064889 -0.022530 96841.900000 0 0 1
7.525183 -22.605515 -9.490494 25.645802 -1.249444 1.949870 0.064832 -0.027828 298889.000000 0 0 1
7.488883 -24.147415 -9.351894 26.956241 -1.270070 1.925091 0.059381 -0.025798 885674.000000 0 0 1
8.752683 -24.572115 -8.813294 27.533115 -1.228605 1.896629 0.058094 -0.020929 419580.000000 0 0 1
9.033783 -25.867125 -9.317794 28.940260 -1.234801 1.898602 0.046437 -0.020321 659571.000000 0 0 1
10.504583 -26.389485 -9.202194 29.856851 -1.191964 1.884108 0.033790 -0.012809 661675.000000 0 0 1
10.898083 -26.747475 -7.894594 29.941947 -1.183890 1.837614 0.047855 -0.023023 528530.000000 0 0 1
12.275083 -27.135275 -7.822094 30.792628 -1.145976 1.827636 0.057734 -0.012378 487735.000000 0 0 1
12.783683 -27.688125 -6.435694 31.168461 -1.138253 1.778773 0.049048 -0.016954 -47690.700000 0 0 1
12.233383 -28.903335 -5.942694 31.943294 -1.170408 1.757925 0.050947 -0.019254 -613166.000000 0 0 1
10.877183 -28.805645 -5.656594 31.306155 -1.209743 1.752481 0.049640 -0.018414 -825987.000000 0 0 1
10.378483 -29.967465 -4.775394 32.071268 -1.237399 1.720252 0.055653 -0.016502 77623.600000 0 0 1
10.547383 -31.316665 -5.165394 33.446406 -1.245931 1.725855 0.047563 -0.016784 153099.000000 0 0 1
9.578083 -31.755355 -6.125294 33.729237 -1.277853 1.753412 0.048226 -0.018464 519298.000000 0 0 1
9.701283 -33.236265 -6.442394 35.217447 -1.286798 1.754764 0.050537 -0.011755 -92428.100000 0 0 1
9.338583 -34.078818 -5.426194 35.749385 -1.303333 1.723170 0.054089 -0.012652 -61645.700000 0 0 1
9.774783 33.065383 -5.623794 34.935555 1.283363 1.732476 0.054704 -0.013739 58901.700000 0 0 1
9.422283 32.120448 -4.439794 33.767061 1.285459 1.702661 0.062076 -0.011078 -729726.000000 0 0 1
8.117883 31.686028 -4.475194 33.014115 1.319993 1.706769 0.066083 -0.012105 -1386000.000000 0 0 1
7.713683 30.781758 -3.465294 31.922184 1.325260 1.679565 0.038396 -0.007273 909574.000000 0 0 1
6.337683 30.108948 -3.829594 31.006141 1.363333 1.694623 0.031780 -0.009246 758703.000000 0 0 1
6.290683 29.427328 -5.089994 30.519639 1.360196 1.738357 0.030369 -0.013508 -157423.000000 0 0 1
5.708383 30.142688 -6.164394 31.291645 1.383634 1.769091 0.018229 -0.005991 34197.000000 0 0 1
5.655683 29.444358 -7.557194 30.920352 1.381027 1.817706 0.028810 -0.013122 -240462.000000 0 0 1
4.881183 28.255148 -7.607794 29.665770 1.399731 1.830144 0.026271 -0.015947 -313295.000000 0 0 1
5.482783 27.131648 -7.065694 28.567661 1.371401 1.820722 0.019542 -0.014344 -427635.000000 0 0 1
4.705383 25.813678 -7.350594 27.249181 1.390493 1.843935 0.018660 -0.010159 785203.000000 0 0 1
3.335883 25.759848 -6.938694 26.885747 1.442014 1.831831 0.014315 -0.011625 1312520.000000 0 0 1
2.347083 26.302978 -7.899894 27.563813 1.481799 1.861476 0.033637 -0.018579 941743.000000 0 0 1
2.010983 25.616848 -9.263194 27.314350 1.492455 1.916791 0.033894 -0.016366 -338656.000000 0 0 1
3.049483 25.550598 -10.219294 27.686935 1.452008 1.948839 0.030352 -0.015843 -9425.610000 0 0 1
2.652283 24.919008 -11.462694 27.556940 1.464759 1.999799 0.046993 -0.019983 -404675.000000 0 0 1
2.505283 23.353188 -11.435894 26.123314 1.463927 2.023909 0.061626 -0.013463 -61722.600000 0 0 1
1.359483 22.982488 -10.688094 25.382638 1.511712 2.005431 0.082415 -0.014617 135977.000000 0 0 1
1.223483 21.549788 -10.653094 24.070287 1.514083 2.029273 0.044572 -0.008043 -675839.000000 0 1 0
0.135483 21.049988 -9.732394 23.191375 1.564360 2.003862 0.045504 -0.003953 609415.000000 0 1 0
-1.220217 21.189888 -10.211794 23.553790 -1.513275 2.019227 0.046510 -0.008870 998907.000000 0 1 0
-2.152217 20.631088 -9.282494 22.725284 -1.466853 1.991569 0.033065 -0.005893 400132.000000 0 1 0
-3.627617 20.923888 -9.604194 23.306850 -1.399131 1.995528 0.033732 -0.006618 533432.000000 0 1 0
-4.589017 20.024488 -9.028894 22.440146 -1.345516 1.984884 0.029950 -0.016362 429521.000000 0 1 0
-5.397217 19.394788 -10.003794 22.480295 -1.299382 2.031974 0.026862 -0.015391 -869554.000000 0 1 0
-6.297917 18.347588 -9.392194 21.552519 -1.240142 2.021703 0.019772 -0.022834 -489064.000000 0 1 0
-7.416417 18.830288 -8.655594 22.011413 -1.195598 1.974941 0.041067 -0.019748 627257.000000 0 1 0
-8.582617 18.914588 -9.489894 22.835960 -1.144823 1.999364 0.043385 -0.024813 40574.900000 0 1 0
-9.845817 19.290288 -8.696294 23.338399 -1.098861 1.952624 0.054255 -0.028942 -42081.700000 0 1 0
-10.170817 18.245288 -7.755694 22.281985 -1.062252 1.926308 0.049502 -0.024805 -114365.000000 0 1 0
-11.147117 18.624088 -6.807794 22.747768 -1.031457 1.874727 0.062878 -0.014332 -342611.000000 0 1 0
-11.582017 17.403088 -5.923294 21.727771 -0.983591 1.846905 0.035739 -0.012888 -655985.000000 0 1 0
-12.521217 17.642888 -4.941794 22.191749 -0.953588 1.795365 0.058838 -0.016919 -178683.000000 0 1 0
-13.023017 16.453088 -4.356694 21.430909 -0.901245 1.775513 0.054545 -0.014400 339997.000000 0 1 0
-14.341217 16.617388 -3.540994 22.233910 -0.858789 1.730738 0.048986 -0.022279 288390.000000 0 1 0
-15.517617 16.739788 -4.322494 23.231464 -0.823268 1.757949 0.070235 -0.034328 243180.000000 0 1 0
-16.581717 16.997788 -3.397594 23.987951 -0.797788 1.712912 0.074250 -0.033496 -260412.000000 0 1 0
-17.915717 17.167488 -4.119494 25.152849 -0.764074 1.735316 0.078318 -0.038785 -726587.000000 0 0 1
-17.918017 18.200488 -5.097994 26.044244 -0.793219 1.767812 0.067474 -0.034007 -416987.000000 0 0 1
-19.161717 18.423688 -5.693894 27.184998 -0.765765 1.781809 0.058675 -0.028231 -599226.000000 0 0 1
-19.162517 19.333688 -6.876794 28.076394 -0.789845 1.818245 0.044456 -0.013455 -218253.000000 0 0 1
-18.840017 20.645088 -6.567694 28.710634 -0.831082 1.801595 0.043378 -0.020325 115208.000000 0 0 1
-18.669117 21.525188 -7.655994 29.503965 -0.856336 1.833291 0.030884 -0.007341 28903.700000 0 0 1
-18.517217 23.036188 -7.327994 30.450826 -0.893723 1.813832 0.044556 -0.010040 -150611.000000 0 0 1
-17.286717 23.485848 -6.823394 29.949530 -0.936284 1.800645 0.045825 -0.014232 -80938.700000 0 0 1
-17.469317 24.147378 -5.614494 30.328130 -0.944508 1.756995 0.061406 -0.022266 -518748.000000 0 0 1
-16.127617 24.624108 -5.093194 29.872854 -0.990948 1.742129 0.063530 -0.025013 -897757.000000 0 0 1
-16.256317 25.549288 -4.004294 30.546168 -1.004132 1.702265 0.061656 -0.023869 -222626.000000 0 0 1
-15.050017 25.954138 -3.417994 30.196076 -1.045310 1.684233 0.060012 -0.025102 -372941.000000 0 0 1
-14.308017 27.016958 -4.202794 30.859340 -1.083755 1.707413 0.074127 -0.025898 -469793.000000 0 0 1
-14.966517 28.271208 -4.174294 32.259612 -1.083913 1.700557 0.070055 -0.019104 -241934.000000 0 0 1
-14.380917 29.224998 -4.967394 32.948237 -1.113508 1.722137 0.056824 -0.017954 -606829.000000 0 0 1
-14.998017 30.625338 -4.781594 34.434220 -1.115402 1.710108 0.055475 -0.024035 -8509.800000 0 0 1
-16.340417 30.670158 -5.210394 35.139950 -1.081271 1.719621 0.078156 -0.027908 -293229.000000 0 0 1
-17.004517 31.822308 -4.787094 36.396829 -1.080041 1.702704 0.076618 -0.024282 -119476.000000 0 0 1
12.746536 -8.531515 19.039653 24.449321 -0.589837 0.678142 0.057132 -0.014983 -109937.000000 0 1 0
13.303136 -9.716215 19.526353 25.547147 -0.630819 0.700801 0.052186 -0.014890 -126474.000000 0 0 1
13.411236 -10.697215 18.488053 25.221018 -0.673295 0.748013 0.052384 -0.015043 -133875.000000 0 0 1
13.770036 -12.128715 19.054753 26.453794 -0.722108 0.766557 0.082379 -0.023237 -443208.000000 0 0 1
15.037736 -12.096915 19.674853 27.560274 -0.677441 0.775766 0.069276 -0.017922 80707.800000 0 0 1
15.394836 -13.342615 20.184753 28.678399 -0.714106 0.790020 0.072764 -0.014503 -217189.000000 0 0 1
15.767236 -14.524115 19.233953 28.801052 -0.744382 0.839519 0.078539 -0.015648 -578159.000000 0 0 1
14.755736 -14.927715 18.343853 27.875892 -0.791192 0.852564 0.082726 -0.017345 -11217.400000 0 0 1
15.178136 -16.024815 17.609753 28.236039 -0.812526 0.897377 0.089459 -0.022574 -235772.000000 0 0 1
14.635636 -16.169115 16.146653 27.135890 -0.835138 0.933494 0.081667 -0.020441 -43046.800000 0 0 1
13.250436 -16.471515 16.100253 26.572598 -0.893351 0.919904 0.087032 -0.026482 102915.000000 0 0 1
12.858036 -16.210915 14.780953 25.428319 -0.900233 0.950496 0.109292 -0.039619 -208248.000000 0 0 1
12.472136 -17.503015 14.002453 25.651089 -0.951683 0.993356 0.070575 -0.024532 481214.000000 0 0 1
13.622736 -18.316515 13.681653 26.613178 -0.931313 1.030846 0.077529 -0.020115 609182.000000 0 0 1
13.280136 -19.537615 13.069553 26.998030 -0.973810 1.065470 0.069284 -0.024706 326081.000000 0 0 1
14.434236 -20.619215 12.930953 28.296797 -0.960045 1.096204 0.079291 -0.022840 369906.000000 0 0 1
14.821436 -21.137415 14.185753 29.456762 -0.959269 1.068341 0.079926 -0.019766 -56748.000000 0 0 1
15.435236 -22.388515 13.913953 30.546525 -0.967202 1.097862 0.067979 -0.025508 27542.500000 0 0 1
16.295736 -22.990715 15.074853 31.958960 -0.954191 1.079585 0.067505 -0.030797 524684.000000 0 0 1
17.662436 -22.611815 15.054253 32.401949 -0.907677 1.087603 0.048924 -0.021340 46096.700000 0 0 1
18.336336 -23.076515 16.215453 33.640566 -0.899364 1.067837 0.055413 -0.030296 1254930.000000 0 0 1
19.874836 -22.682515 16.258153 34.261248 -0.851277 1.076361 0.029799 -0.009929 938790.000000 0 0 1
20.681536 -23.536515 15.523753 34.966846 -0.849875 1.110787 0.038303 -0.020189 -1168310.000000 0 0 1
21.975336 -23.032215 15.642453 35.469489 -0.808876 1.114071 0.034826 -0.007856 -558435.000000 0 0 1
23.053736 -23.922415 14.982153 36.444774 -0.803888 1.147145 0.017272 -0.016129 -49278.200000 0 0 1
23.417236 -24.934415 15.904653 37.723334 -0.816766 1.135573 0.027870 -0.014562 903299.000000 0 0 1
24.644736 -25.563855 15.477353 38.735283 -0.803702 1.159752 0.026968 -0.021075 346335.000000 0 0 1
25.095836 -26.701265 16.416653 40.153020 -0.816383 1.149600 0.028730 -0.021604 -208429.000000 0 0 1
25.580336 -26.248105 17.643053 40.676700 -0.798282 1.122159 0.025064 -0.012133 9765.340000 0 0 1
26.163136 -27.221555 18.458353 42.026581 -0.805222 1.116081 0.050739 -0.016129 80114.800000 0 0 1
26.471636 -26.716025 19.871253 42.536574 -0.789993 1.084724 0.036542 -0.015995 416009.000000 0 0 1
25.220636 -26.497595 20.496953 41.932423 -0.810084 1.060072 0.058561 -0.009340 625840.000000 0 0 1
25.548436 -25.748595 21.620353 42.227389 -0.789300 1.033287 0.059975 -0.004385 94345.900000 0 0 1
24.262336 -25.585625 22.443953 41.797322 -0.811938 1.003954 0.061726 -0.006741 -37135.800000 0 0 1
23.825536 -26.832715 22.896453 42.566399 -0.844691 1.002853 0.068576 -0.006418 -573102.000000 0 0 1
22.634136 -26.734365 23.631743 42.255054 -0.868262 0.977298 0.068323 -0.007650 -242324.000000 0 0 1
21.895336 -28.080045 23.462733 42.642637 -0.908527 0.988171 0.078343 -0.006327 -259032.000000 0 0 1
22.545036 -29.118475 24.177213 44.053397 -0.911954 0.989849 0.064533 -0.000927 279443.000000 0 0 1
22.491436 -30.387765 23.537213 44.534047 -0.933631 1.013938 0.078071 -0.002530 -555956.000000 0 0 1
23.515736 -31.369625 24.063263 46.000911 -0.927530 1.020307 0.052448 0.003087 -291017.000000 0 0 1
23.162236 -31.833065 25.377843 46.838746 -0.941776 0.998204 0.040672 0.013611 71974.200000 0 0 1
24.340336 -32.164155 26.051003 48.017076 -0.922987 0.997343 0.035171 0.013797 -574163.000000 0 0 1
24.109436 -32.614535 27.580843 49.047688 -0.934228 0.973599 0.027281 0.005710 239133.000000 0 0 1
23.545236 -33.890345 27.835223 49.776834 -0.963604 0.977375 0.021051 0.012171 218710.000000 0 0 1
22.226136 -34.116212 27.376563 49.065193 -0.993379 0.978867 0.025491 0.018390 -287603.000000 0 0 1
21.717636 33.039528 27.937383 48.412431 0.989290 0.955659 0.055296 0.000444 -111488.000000 0 0 1
21.333836 33.114848 29.289073 49.087427 0.998483 0.931449 0.039704 -0.003695 555327.000000 0 0 1
20.546536 31.996438 29.780483 48.299165 0.999959 0.906400 0.043650 -0.014528 215918.000000 0 0 1
20.358436 32.146738 31.278023 49.256405 1.006253 0.882782 0.034488 -0.018094 85856.800000 0 0 1
21.567836 32.126998 32.020793 50.225957 0.979572 0.879502 0.030447 -0.012054 -39647.400000 0 0 1
21.302936 32.529557 33.341294 51.221373 0.990999 0.861993 0.028710 -0.017153 -160973.000000 0 0 1
22.481736 32.525792 -34.152798 52.247193 0.966003 2.283230 0.011454 -0.009559 -59019.400000 0 0 1
22.863736 31.189588 -33.910414 51.434006 0.938227 2.290683 0.010925 -0.007100 141630.000000 0 0 1
24.124236 31.090598 -33.270184 51.531633 0.910903 2.272640 0.000493 0.002749 122887.000000 0 0 1
24.549636 29.604098 -33.076454 50.726118 0.878464 2.281094 0.010159 -0.004504 -58003.800000 0 0 1
24.866036 28.934318 34.160222 51.209719 0.860873 0.840534 0.018952 -0.006985 351562.000000 0 0 1
24.524836 27.589238 -34.139088 50.280324 0.844132 2.317162 0.026517 -0.021950 -46987.200000 0 0 1
24.551136 26.889838 33.033960 49.163647 0.830831 0.834000 0.063896 -0.024108 -1497.340000 0 0 1
25.890836 26.557378 32.750043 49.479239 0.798106 0.847453 0.058142 -0.031380 226488.000000 0 0 1
26.042536 25.821148 31.566003 48.387580 0.781130 0.860105 0.083407 -0.042008 123385.000000 0 0 1
27.267836 24.870908 31.680623 48.639067 0.739458 0.861446 0.059356 -0.025895 -7698.030000 0 0 1
27.157636 23.940348 32.747557 48.816800 0.722518 0.835475 0.061865 -0.024820 61263.100000 0 0 1
27.897736 24.197898 33.922403 50.145303 0.714497 0.827821 0.059657 -0.034326 -1033740.000000 0 0 1
27.638636 23.260988 -33.386974 49.190017 0.699604 2.316835 0.051808 -0.030599 354881.000000 0 0 1
26.401236 23.458978 -32.684284 48.120799 0.726456 2.317486 0.059904 -0.031134 1250530.000000 0 0 1
25.212736 23.054988 -33.365224 47.754086 0.740724 2.344359 0.060977 -0.025284 -158294.000000 0 0 1
24.875336 21.529488 -33.280854 46.796543 0.713421 2.361974 0.052083 -0.031145 -834486.000000 0 0 1
24.834436 21.155088 -31.952554 45.664567 0.705564 2.345806 0.041920 -0.037797 437718.000000 0 0 1
24.747036 19.753288 -31.853144 44.913594 0.673647 2.359173 0.042396 -0.034584 -385894.000000 0 0 1
24.683836 19.280388 -30.383194 43.636723 0.663106 2.340992 0.041417 -0.034502 778688.000000 0 0 1
23.361336 19.516688 -29.853524 42.636675 0.695973 2.346452 0.036350 -0.034468 970264.000000 0 0 1
23.295836 18.903888 -28.623394 41.465065 0.681696 2.332702 0.041384 -0.030077 -78278.400000 0 0 1
21.924336 18.958088 -27.905074 40.234050 0.712970 2.337227 0.050533 -0.030538 -49975.200000 0 0 1
21.864636 18.352488 -26.603444 39.020755 0.698290 2.320985 0.055109 -0.021492 -304271.000000 0 0 1
22.464936 19.060888 -25.572944 39.012386 0.703607 2.285652 0.043994 -0.011563 -228229.000000 0 0 1
22.496536 18.188788 -24.317594 37.792480 0.679912 2.269794 0.050960 -0.010040 58835.100000 0 0 1
23.310036 17.062988 -24.565894 37.920792 0.631882 2.275517 0.052736 -0.019869 222798.000000 0 0 1
23.458136 16.320188 -23.396994 36.933075 0.607845 2.256861 0.059676 -0.019696 -514605.000000 0 0 1
24.216636 15.023888 -23.590894 36.995850 0.555281 2.262257 0.086506 -0.023816 895058.000000 0 0 1
25.656636 15.187588 -23.635594 38.046907 0.534483 2.241098 0.118516 -0.032836 1143100.000000 0 0 1
26.497236 14.087188 -23.538094 38.139143 0.488644 2.235929 0.128641 -0.039925 -35864.300000 0 0 1
26.507336 13.219788 -22.230094 37.034831 0.462625 2.214608 0.117423 -0.035360 -686650.000000 0 0 1
25.292336 12.533488 -22.133894 35.870599 0.460077 2.235783 0.100070 -0.026080 -223628.000000 0 0 1
25.070436 11.859888 -20.909794 34.733315 0.441866 2.216812 0.084038 -0.028164 230911.000000 0 0 1
23.580536 11.470188 -20.723794 33.422785 0.452730 2.239603 0.077509 -0.023947 512901.000000 0 0 1
22.670836 12.526188 -20.469594 33.013277 0.504779 2.239592 0.093280 -0.022432 -157778.000000 0 0 1
21.427536 12.326688 -21.076894 32.485720 0.522040 2.276809 0.060401 -0.018219 -459281.000000 0 0 1
20.423736 13.488888 -20.960194 32.224351 0.583687 2.278968 0.050469 -0.015976 -558723.000000 0 0 1
20.820636 14.688288 -21.614394 33.412972 0.614386 2.274291 0.043636 -0.012262 380104.000000 0 0 1
19.931536 15.770888 -21.403994 33.228271 0.669385 2.270708 0.033753 -0.010712 -64672.900000 0 0 1
18.591936 15.767588 -22.177494 32.956307 0.703383 2.308968 0.026444 0.002109 141301.000000 0 0 1
17.594236 14.950188 -21.562094 31.590966 0.704332 2.322029 0.016653 -0.003684 -66827.400000 0 0 1
16.561936 14.731088 -22.462194 31.557136 0.726958 2.362846 0.019805 -0.011668 128903.000000 0 0 1
15.305936 13.907388 -22.036694 30.220903 0.737561 2.387930 -0.001557 -0.003796 832395.000000 0 0 1
14.204436 13.981588 -22.937694 30.387310 0.777492 2.426213 0.013055 -0.004215 -30544.900000 0 0 1
13.053436 13.521888 -22.268394 29.139578 0.803024 2.440593 0.032752 -0.013767 192944.000000 0 0 1
11.747936 13.804688 -23.084194 29.350697 0.865716 2.475910 0.047192 -0.011853 168465.000000 0 0 1
11.277136 15.126788 -23.078994 29.809956 0.930177 2.456253 0.026044 -0.013242 205889.000000 0 0 1
10.818336 15.496288 -24.375894 30.844052 0.961330 2.482086 0.031315 -0.011246 -761066.000000 0 0 1
10.943936 17.039188 -24.616794 31.876170 0.999867 2.453192 0.024002 -0.010920 -16069.600000 0 0 1
12.189636 17.720188 -24.439194 32.555591 0.968241 2.419904 0.020273 -0.005940 -258712.000000 0 0 1
13.259136 17.389388 -25.246204 33.400095 0.919353 2.427782 0.024499 -0.007735 -838178.000000 0 0 1
13.091936 17.707788 -26.757474 34.654393 0.934158 2.452972 0.045912 -0.018687 -440409.000000 0 0 1
14.127236 17.331588 -27.671664 35.576449 0.886907 2.461968 0.040436 -0.019818 -56413.400000 0 0 1
13.663736 17.298388 -28.995004 36.423099 0.902254 2.491555 0.060258 -0.023242 -445007.000000 0 0 1
14.704436 17.550788 -30.084564 37.806502 0.873415 2.491043 0.061564 -0.033783 -256779.000000 0 0 1
15.802436 16.670588 -30.085274 37.851674 0.812126 2.489508 0.042310 -0.026978 -208113.000000 0 0 1
16.314536 16.561788 -31.397194 39.067131 0.792919 2.504238 0.051772 -0.027282 -550271.000000 0 0 1
17.727636 15.996288 -31.363974 39.418894 0.734104 2.490890 0.047923 -0.023844 -839459.000000 0 0 1
18.790236 16.878988 -31.187454 40.132661 0.731867 2.460856 0.058653 -0.036467 -435838.000000 0 0 1
19.958036 16.222688 -30.791994 40.120390 0.682521 2.445713 0.057504 -0.024372 27168.900000 0 0 1
21.276836 16.863388 -31.304824 41.437539 0.670194 2.427168 0.052392 -0.029209 66677.000000 0 0 1
21.490436 16.627388 -32.699654 42.515600 0.658504 2.448261 0.070618 -0.032211 444965.000000 0 0 1
22.496536 17.523088 -33.191754 43.758945 0.661757 2.431825 0.066890 -0.034440 50086.600000 0 0 1
22.590636 17.745888 33.754633 44.324132 0.665863 0.705109 0.040074 -0.017284 35488.200000 0 0 1
23.620636 18.700188 33.502514 45.056075 0.669652 0.732397 0.041682 -0.016128 429952.000000 0 0 1
23.779136 18.884888 32.078463 44.171417 0.671181 0.757979 0.053632 -0.019716 -491361.000000 0 0 1
24.582436 20.110588 31.633273 44.826286 0.685673 0.787406 0.063915 -0.014580 -1189580.000000 0 0 1
25.922136 19.809188 31.578373 45.404347 0.652515 0.801692 0.027153 -0.005032 -1686380.000000 0 0 1
26.639336 20.998288 31.574223 46.341276 0.667531 0.821203 0.032614 -0.013387 451580.000000 0 0 1
28.180836 20.700788 31.512963 47.071743 0.633552 0.837306 0.038954 -0.011603 435040.000000 0 0 1
28.612736 20.129488 32.729762 47.907434 0.613081 0.818678 0.029788 -0.016027 1302060.000000 0 0 1
30.067936 20.103288 32.745455 48.790243 0.589337 0.835041 0.022371 -0.012207 1767780.000000 0 0 1
30.777536 19.479988 34.047822 49.859611 0.564281 0.819107 0.027808 -0.006993 340068.000000 0 0 1
30.500436 20.202688 -33.248084 49.435415 0.585025 2.308454 0.028976 -0.017500 111677.000000 0 0 1
29.356736 19.756788 -32.555534 48.083380 0.592367 2.314562 0.030241 -0.026095 -46950.600000 0 0 1
29.678136 20.028288 -31.071784 47.406538 0.593647 2.285551 0.061163 -0.029122 229888.000000 0 0 1
30.875436 19.315988 -30.856564 47.733924 0.559038 2.273690 0.071308 -0.038328 -423428.000000 0 0 1
31.516036 19.664788 -29.690074 47.554862 0.557852 2.245074 0.075346 -0.036152 -539382.000000 0 0 1
32.948036 19.144888 -29.488774 48.183894 0.526379 2.229389 0.073884 -0.020876 195480.000000 0 0 1
33.805036 19.940588 -30.336884 49.605786 0.532938 2.228826 0.050398 -0.025706 308411.000000 0 0 1
35.091136 20.071288 -29.751334 50.193489 0.519559 2.205244 0.052950 -0.006939 -90331.000000 0 0 1
36.227836 20.758888 -30.469284 51.689117 0.520337 2.201201 0.038806 -0.012289 -257940.000000 0 0 1
-35.864611 20.018688 -31.538584 51.785138 -0.509097 2.225630 0.028323 -0.011416 146765.000000 0 0 1
-34.693411 20.720388 -31.922634 51.497785 -0.538390 2.239391 0.028948 -0.007275 334839.000000 0 0 1
-33.818911 20.044088 -33.032364 51.348041 -0.535026 2.269601 0.029596 -0.004578 229755.000000 0 0 1
-33.204011 18.829388 -32.659204 50.236200 -0.515863 2.278529 0.051207 -0.012711 291009.000000 0 0 1
-32.142711 18.459788 -33.511564 49.969416 -0.521313 2.305870 0.049152 -0.016117 213473.000000 0 0 1
-31.430911 17.093388 -33.138724 48.767419 -0.498102 2.317913 0.037128 -0.007247 154653.000000 0 0 1
-32.266111 15.935288 -33.239444 48.988733 -0.458732 2.316531 0.048825 -0.006436 -144542.000000 0 0 1
-31.630911 14.682888 -33.237874 48.175284 -0.434595 2.332197 0.046702 0.001442 -658400.000000 0 0 1
-32.544011 13.422988 -33.255754 48.427621 -0.391198 2.327750 0.055232 -0.002344 -734694.000000 0 0 1
-31.934311 12.209088 -33.649414 47.970253 -0.365172 2.348246 0.061311 -0.006589 -177464.000000 0 0 1
-32.677411 11.098088 -33.308094 47.962588 -0.327403 2.338465 0.057131 -0.004858 -311565.000000 0 0 1
-32.163111 9.833888 -34.096808 47.893250 -0.296724 2.363044 0.058082 0.004324 169906.000000 0 0 1
-32.614011 9.785688 33.030231 47.438693 -0.291499 0.800606 0.068658 -0.005482 158997.000000 0 0 1
-32.686411 8.443088 32.589275 46.922788 -0.252780 0.803030 0.056104 -0.018530 -625304.000000 0 0 1
-31.434511 7.905888 31.929233 45.498434 -0.246393 0.792924 0.071332 -0.012491 124316.000000 0 0 1
-30.349211 7.722088 32.878345 45.405846 -0.249154 0.761069 0.055087 -0.004188 -14703.900000 0 0 1
-29.212811 7.450988 32.116493 44.049684 -0.249734 0.753795 0.051010 -0.005245 -730815.000000 0 0 1
20.383936 -4.519015 -31.678874 37.940445 -0.218166 2.558862 0.047889 -0.029743 120959.000000 0 0 1
21.743136 -4.854915 -31.955024 38.954560 -0.219681 2.532759 0.055857 -0.028246 733796.000000 0 0 1
22.690036 -3.853715 -31.586914 39.082246 -0.168236 2.511913 0.070652 -0.031484 279773.000000 0 0 1
22.794236 -2.534215 -32.469844 39.752864 -0.110723 2.526626 0.061212 -0.033652 -331517.000000 0 0 1
23.692436 -1.660315 -31.802064 39.692058 -0.069963 2.500127 0.072703 -0.027503 367843.000000 0 0 1
23.606336 -0.418715 -32.465914 40.143119 -0.017736 2.512827 0.058936 -0.020087 -549731.000000 0 0 1
24.461936 0.696185 -31.907724 40.211613 0.028452 2.487327 0.066486 -0.017449 -812449.000000 0 0 1
25.815036 0.373485 -32.066404 41.168068 0.014467 2.463729 0.072707 -0.022271 -695148.000000 0 0 1
26.528836 1.400485 -31.405954 41.134832 0.052742 2.439493 0.068231 -0.017740 224668.000000 0 0 1
28.065336 1.485985 -31.617914 42.303235 0.052898 2.414953 0.058443 -0.020066 350342.000000 0 0 1
28.496736 2.114085 -32.771414 43.479868 0.074051 2.424492 0.058322 -0.011871 110908.000000 0 0 1
29.079736 1.191485 -33.712314 44.537297 0.040950 2.429423 0.048561 -0.010652 57537.000000 0 0 1
29.821736 1.899985 33.600997 44.966353 0.063625 0.726886 0.046722 -0.020400 -176551.000000 0 0 1
29.021436 2.681385 32.744370 43.836370 0.092132 0.727306 0.047342 -0.018539 -74617.600000 0 0 1
29.267736 4.031585 32.758414 44.113124 0.136887 0.733852 0.048933 -0.010117 -231828.000000 0 0 1
28.260636 4.880685 31.950003 42.933522 0.171016 0.731499 0.053433 -0.008505 -105349.000000 0 0 1
28.530836 6.300985 32.040983 43.362837 0.217359 0.739354 0.056104 -0.012773 412782.000000 0 0 1
27.681736 7.063685 31.163263 42.276744 0.249843 0.741990 0.049266 -0.009537 -72809.300000 0 0 1
27.947936 8.558185 31.283293 42.813247 0.297152 0.751461 0.042027 -0.006886 957240.000000 0 0 1
29.309436 8.954985 30.982173 43.579007 0.296525 0.779959 0.030440 -0.010503 1015160.000000 0 0 1
29.475236 10.319085 31.206263 44.148657 0.336758 0.785768 0.033731 -0.014577 -646168.000000 0 0 1
30.804736 10.858985 30.719533 44.839035 0.338909 0.816046 0.031516 -0.009690 -1341120.000000 0 0 1
31.899436 10.458585 31.492643 46.029801 0.316818 0.817318 0.046221 -0.020209 -55339.500000 0 0 1
33.195936 10.776885 31.046763 46.712021 0.313911 0.843782 0.058282 -0.021323 154634.000000 0 0 1
33.552336 12.275485 31.070393 47.347821 0.350734 0.855003 0.069850 -0.019597 -1079060.000000 0 0 1
33.817736 12.733885 32.363973 48.509977 0.360124 0.840405 0.076160 -0.013660 307052.000000 0 0 1
34.209236 14.117085 32.414708 49.196313 0.391380 0.851461 0.085993 -0.010226 7367.710000 0 0 1
33.019536 15.103785 32.425057 48.680575 0.429007 0.841858 0.071111 -0.017659 -966674.000000 0 0 1
32.575336 15.428785 31.090023 47.600309 0.442333 0.859063 0.058001 -0.014887 74749.500000 0 0 1
31.418636 16.233285 31.133163 47.116070 0.476900 0.848944 0.032683 -0.010535 832962.000000 0 0 1
30.104436 15.406485 31.468583 46.194248 0.473018 0.821364 0.032769 -0.007933 -387888.000000 0 0 1
29.574036 14.739085 30.341553 44.860607 0.462350 0.827998 0.015214 0.003776 -188088.000000 0 0 1
28.366536 14.118185 30.700703 44.119346 0.461810 0.801185 0.004409 0.006889 -424123.000000 0 0 1
27.740136 13.548385 29.415473 42.642044 0.454328 0.809551 0.014120 0.008579 -202676.000000 0 0 1
28.196236 12.314285 28.902113 42.213759 0.411768 0.816658 0.017651 -0.000531 10427.500000 0 0 1
27.253036 11.841385 27.984323 40.817505 0.409888 0.815374 0.026797 -0.010715 -59928.500000 0 0 1
27.319836 10.298185 28.018513 40.465580 0.360478 0.805981 0.030579 -0.000197 121568.000000 0 0 1
28.401836 9.738585 27.293403 40.576276 0.330323 0.833020 0.033850 -0.003331 168967.000000 0 0 1
28.348536 8.355285 27.227413 40.184354 0.286619 0.826353 0.053067 -0.006351 379241.000000 0 0 1
29.536736 7.706485 26.438703 40.383334 0.255222 0.857019 0.035364 -0.011151 341810.000000 0 0 1
29.599636 8.126285 25.089263 39.643992 0.267939 0.885549 0.048150 -0.012137 394918.000000 0 0 1
30.772936 7.480485 24.597073 40.099217 0.238461 0.910431 0.058136 -0.006992 456600.000000 0 0 1
31.130536 7.904285 23.140453 39.586217 0.248653 0.946461 0.066767 -0.009568 -245378.000000 0 0 1
31.659536 9.192285 23.028653 40.213719 0.282578 0.961054 0.063745 -0.019085 49779.800000 0 0 1
30.714736 10.174785 22.648253 39.495121 0.319890 0.960092 0.069331 -0.017002 -430846.000000 0 0 1
30.332836 10.194885 21.127653 38.345721 0.324239 0.987260 0.064719 -0.000219 -387864.000000 0 0 1
31.445236 10.299285 20.293153 38.816107 0.316519 1.020661 0.071297 -0.013924 -138347.000000 0 0 1
31.083836 9.919285 18.958353 37.736139 0.308899 1.044433 0.069187 -0.025308 -780571.000000 0 0 1
31.986436 10.502085 17.831453 38.097068 0.317240 1.083710 0.079372 -0.055928 628617.000000 0 0 1
33.315436 10.038885 17.630053 39.006618 0.292675 1.101817 0.080345 -0.040629 524666.000000 0 0 1
34.180436 10.310585 18.709553 40.307043 0.292971 1.088092 0.073359 -0.030695 -586208.000000 0 0 1
35.640136 9.783385 18.617953 41.383114 0.267906 1.104151 0.074861 -0.025515 287246.000000 0 0 1
35.676836 8.396385 18.531053 41.069890 0.231139 1.102678 0.070706 -0.015865 -107320.000000 0 0 1
-36.008011 8.036985 17.602153 40.877938 -0.219600 1.125636 0.080299 -0.011114 -475256.000000 0 0 1
-36.063711 6.484085 17.336553 40.536289 -0.177895 1.128872 0.082656 -0.009046 -25984.600000 0 0 1
35.447036 6.039685 16.632953 39.618497 0.168765 1.137541 0.066161 -0.009548 -52062.200000 0 0 1
35.542636 4.656885 16.332253 39.391725 0.130280 1.143281 0.071254 -0.011862 -575235.000000 0 0 1
34.265136 3.794785 16.222253 38.100675 0.110298 1.130980 0.064495 -0.012998 -324557.000000 0 0 1
33.777936 3.451685 17.471153 38.185131 0.101834 1.095572 0.072284 -0.006432 24335.000000 0 0 1
32.566736 2.725385 17.392553 37.020547 0.083492 1.081723 0.059087 -0.010871 233924.000000 0 0 1
32.367036 1.779185 18.624353 37.385252 0.054914 1.049305 0.057034 -0.014591 474156.000000 0 0 1
33.293736 0.670785 18.513353 38.100749 0.020145 1.063398 0.067940 -0.016209 547075.000000 0 0 1
33.141436 -0.177215 19.590053 38.498784 -0.005347 1.036950 0.075658 -0.022756 259924.000000 0 0 1
33.949636 -1.499115 19.557153 39.208511 -0.044128 1.048584 0.080211 -0.023604 375977.000000 0 0 1
33.579736 -2.298315 20.698253 39.513271 -0.068337 1.019455 0.080143 -0.014524 95776.700000 0 0 1
34.156236 -3.569815 20.575653 40.034354 -0.104136 1.031013 0.062907 -0.013343 48428.800000 0 0 1
33.713736 -4.423315 21.817253 40.400176 -0.130457 1.000325 0.061854 -0.011348 451530.000000 0 0 1
34.441436 -4.067815 23.011253 41.620636 -0.117564 0.984979 0.064167 -0.017154 777162.000000 0 0 1
33.723736 -4.569815 24.169323 41.741223 -0.134687 0.953261 0.065490 -0.019416 579241.000000 0 0 1
34.009836 -3.767715 25.451503 42.645558 -0.110333 0.931271 0.041907 -0.016001 -139626.000000 0 0 1
33.141436 -4.152515 26.483183 42.625780 -0.124647 0.900402 0.050500 -0.006436 -43313.100000 0 0 1
33.559436 -3.661315 27.771573 43.713856 -0.108670 0.882395 0.050485 -0.005736 -82951.100000 0 0 1
32.704036 -4.235815 28.922293 43.863369 -0.128803 0.850813 0.053241 -0.012261 68829.000000 0 0 1
33.114836 -5.499915 29.378683 44.608838 -0.164584 0.851860 0.049112 -0.008708 672104.000000 0 0 1
32.046136 -6.002415 30.203453 44.443586 -0.185160 0.823592 0.054088 -0.020248 617789.000000 0 0 1
32.200536 -7.503815 30.470863 44.962821 -0.228948 0.826179 0.047782 -0.014136 -114443.000000 0 0 1
33.244636 -7.772815 31.361613 46.359176 -0.229681 0.827808 0.036793 -0.009337 -430044.000000 0 0 1
33.749336 -9.088815 31.152213 46.819703 -0.263063 0.842813 0.026320 -0.001031 251097.000000 0 0 1
34.988836 -9.430115 32.012063 48.352020 -0.263262 0.847229 0.016937 0.008917 209459.000000 0 0 1
34.717936 -9.553215 33.388558 49.105955 -0.268521 0.823131 0.003359 -0.002711 200495.000000 0 0 1
35.950036 -9.777815 34.048386 50.470817 -0.265560 0.830353 -0.013607 -0.000832 75289.400000 0 0 1
35.851836 -9.976715 -32.908184 49.677334 -0.271410 2.294866 0.005874 -0.005712 -191287.000000 0 0 1
35.451536 -8.890515 -32.068244 48.623296 -0.245712 2.290982 0.008128 -0.014269 383988.000000 0 0 1
36.321536 -7.770015 -32.102944 49.094054 -0.210747 2.283533 0.007132 -0.010138 149291.000000 0 0 1
35.779736 -6.592115 -31.225234 47.944350 -0.182198 2.280067 0.019304 -0.016183 84527.600000 0 0 1
35.767736 -6.794415 -29.844944 47.076700 -0.187723 2.257465 0.035987 -0.011193 226542.000000 0 0 1
35.235636 -5.658215 -29.169204 46.091299 -0.159223 2.256034 0.050481 -0.027315 8328.690000 0 0 1
35.837936 -5.576115 -27.736944 45.659487 -0.154355 2.223673 0.050420 -0.026062 250677.000000 0 0 1
-35.535711 -4.976615 -27.671454 45.312943 0.139141 2.227708 0.051076 -0.021420 -119079.000000 0 0 1
-35.158711 -4.767015 -26.323584 44.179073 0.134764 2.209105 0.067912 -0.022869 115059.000000 0 0 1
-33.636911 -4.696715 -26.034524 42.793660 0.138733 2.224806 0.050751 -0.010550 -715428.000000 0 0 1
-33.443911 -4.250615 -24.723094 41.806630 0.126419 2.203550 0.065916 -0.014882 443334.000000 0 0 1
-32.108811 -4.145015 -24.240894 40.444750 0.128383 2.213495 0.065102 -0.014593 521102.000000 0 0 1
-31.144611 -3.159915 -24.987794 40.054484 0.101113 2.244449 0.037262 -0.010079 -645096.000000 0 0 1
-30.720211 -3.708715 -26.181294 40.533271 0.120144 2.273026 0.042599 -0.015591 -400421.000000 0 0 1
-29.936611 -2.743015 -26.834544 40.296620 0.091372 2.299530 0.026908 -0.016404 -116179.000000 0 0 1
-29.387611 -3.282115 -28.135744 40.816958 0.111223 2.331340 0.015008 -0.011332 -429330.000000 0 0 1
-30.393211 -3.474715 -29.068734 42.199671 0.113831 2.330681 0.026747 -0.014507 -290793.000000 0 0 1
-29.924011 -4.315715 -30.113864 42.672200 0.143235 2.354210 0.028150 -0.009932 -196386.000000 0 0 1
-31.049911 -4.606715 -31.168454 44.235634 0.147290 2.352656 0.015500 -0.002799 743659.000000 0 0 1
-32.175811 -5.454815 -30.870094 44.922161 0.167935 2.328411 0.013781 -0.006748 504126.000000 0 0 1
-33.102311 -4.882115 -30.008184 44.945402 0.146430 2.301856 0.032861 -0.017445 -726753.000000 0 0 1
-34.145211 -3.844315 -30.525714 45.961869 0.112115 2.297157 0.049578 -0.021760 -627915.000000 0 0 1
-33.649011 -2.614715 -31.099454 45.894103 0.077550 2.315338 0.046949 -0.021523 -127181.000000 0 0 1
-33.019311 -1.661315 -30.282554 44.833781 0.050271 2.312358 0.048009 -0.025704 -85782.800000 0 0 1
-32.484011 -0.426715 -31.069514 44.952283 0.013135 2.333898 0.059048 -0.027504 -474493.000000 0 0 1
-33.514011 0.140985 -31.789484 46.192858 -0.004207 2.329788 0.062050 -0.023671 -552297.000000 0 0 1
-33.165711 1.389185 -32.353354 46.353357 -0.041862 2.343358 0.067947 -0.019768 8562.350000 0 0 1
-34.397211 2.195085 -32.809684 47.586362 -0.063729 2.331563 0.060207 -0.017143 242842.000000 0 0 1
-35.087311 1.535185 -33.896014 48.809999 -0.043725 2.338449 0.054680 -0.023261 679210.000000 0 0 1
36.228636 2.070585 -33.961504 49.700957 0.057091 2.323092 0.044712 -0.019073 976369.000000 0 0 1
35.368236 1.326885 33.457475 48.703957 0.037499 0.813504 0.036186 -0.019204 50164.100000 0 0 1
35.588536 1.851285 32.149243 47.995260 0.051972 0.836800 0.034728 -0.008868 621328.000000 0 0 1
-36.277711 0.984185 31.303043 47.926208 -0.027123 0.859058 0.017493 -0.008111 -76803.800000 0 0 1
-36.323411 1.429685 29.834523 47.026939 -0.039340 0.883547 0.034500 -0.011169 133589.000000 0 0 1
-35.561511 2.644585 29.638783 46.368873 -0.074230 0.877344 0.052897 -0.018583 456455.000000 0 0 1
-35.291711 2.857885 28.284243 45.317445 -0.080803 0.896771 0.055119 -0.020116 289245.000000 0 0 1
-34.645211 4.282685 28.025933 44.767008 -0.122992 0.894332 0.053677 -0.023500 118961.000000 0 0 1
-34.217011 4.595285 26.702973 43.645954 -0.133499 0.912451 0.062175 -0.022221 385295.000000 0 0 1
-33.522611 5.826585 26.628763 43.206546 -0.172091 0.906744 0.063856 -0.019733 -545657.000000 0 0 1
-32.617411 5.990885 25.426393 41.788607 -0.181647 0.916687 0.060680 -0.016476 -205317.000000 0 0 1
-31.494111 5.113385 25.391503 40.776883 -0.160956 0.898616 0.055731 -0.016064 253257.000000 0 0 1
-30.692811 5.342585 24.252403 39.481273 -0.172340 0.909328 0.055594 -0.015126 -33580.900000 0 0 1
-31.131711 4.773385 22.862053 38.918403 -0.152144 0.942910 0.073553 -0.016014 -114999.000000 0 0 1
-31.126411 3.340785 22.793953 38.724393 -0.106920 0.941446 0.070625 -0.011780 -277346.000000 0 0 1
-31.995711 2.917185 21.786353 38.818561 -0.090923 0.974919 0.083646 -0.017050 -491426.000000 0 0 1
-31.782311 1.389285 21.448353 38.367659 -0.043685 0.977591 0.085422 -0.023292 -511929.000000 0 0 1
-30.698111 0.976485 20.675853 37.024565 -0.031799 0.978297 0.099858 -0.022117 -326301.000000 0 0 1
-30.699811 1.346285 19.318153 36.297134 -0.043825 1.009573 0.101355 -0.018740 59342.500000 0 0 1
-29.282211 1.216085 18.694353 34.762129 -0.041506 1.002995 0.104262 -0.016095 -69042.800000 0 0 1
-28.820611 -0.127515 18.570753 34.285810 0.004424 0.998403 0.117037 -0.019460 348016.000000 0 0 1
-27.495111 -0.229715 18.071053 32.902840 0.008355 0.989360 0.114217 -0.026429 119202.000000 0 0 1
-27.314711 0.045985 16.553353 31.939146 -0.001684 1.025960 0.140263 -0.015404 -613213.000000 0 0 1
-27.470211 1.389485 16.192653 31.917788 -0.050538 1.038720 0.130503 -0.020689 285334.000000 0 0 1
-27.777011 1.537385 14.828553 31.524782 -0.055291 1.081078 0.142356 -0.014976 38002.900000 0 0 1
-27.035011 2.807285 14.364853 30.742831 -0.103468 1.084609 0.132480 -0.011187 -390992.000000 0 0 1
-25.654811 2.650085 14.237453 29.460098 -0.102933 1.066400 0.119206 -0.017472 -671805.000000 0 0 1
-25.175311 3.815085 13.598953 28.866636 -0.150396 1.080264 0.118871 -0.020792 -1328100.000000 0 0 1
-23.704711 3.763085 13.319953 27.449869 -0.157435 1.064151 0.106874 -0.022492 -1319760.000000 0 0 1
-22.970411 3.917485 14.497853 27.444020 -0.168920 1.014235 0.090702 -0.014084 -178176.000000 0 0 1
-21.601011 4.167085 14.241053 26.206409 -0.190571 0.996292 0.076819 -0.010710 73178.900000 0 0 1
-20.914611 4.889785 15.423253 26.442536 -0.229672 0.948042 0.059433 -0.011755 -353101.000000 0 0 1
-21.205611 6.246385 15.544253 27.024416 -0.286461 0.957956 0.061762 -0.002766 205836.000000 0 0 1
-20.782211 6.806885 16.739853 27.540092 -0.316522 0.917464 0.046722 0.003550 -322075.000000 0 0 1
-20.788511 8.356985 16.725353 27.959593 -0.382229 0.929547 0.051588 -0.006838 -521674.000000 0 0 1
-19.827811 8.969885 15.863853 26.930703 -0.424839 0.940899 0.035934 -0.010886 740281.000000 0 0 1
-19.858811 10.408685 15.963753 27.523708 -0.482768 0.952068 0.045180 -0.007956 -253806.000000 0 0 1
-19.340511 10.892385 17.330853 28.161284 -0.512914 0.907885 0.045282 -0.004418 -503001.000000 0 0 1
-20.295211 10.922785 18.386253 29.483167 -0.493735 0.897433 0.059861 -0.013516 549681.000000 0 0 1
-19.657811 11.238585 19.597953 29.946871 -0.519359 0.857376 0.062232 -0.010027 -205164.000000 0 0 1
-12.266064 -33.754017 -20.741294 41.472778 1.222238 2.094532 0.087513 -0.049803 -502555.000000 0 0 1
-13.382164 34.223685 -20.066794 41.869072 -1.198055 2.070625 0.120208 -0.049220 -78688.800000 0 0 1
-14.358564 -33.203717 -19.907694 41.291300 1.162642 2.073878 0.106099 -0.059334 146418.000000 0 0 1
-15.619864 -33.742017 -19.205194 41.849055 1.137250 2.047571 0.095598 -0.046961 -912514.000000 0 0 1
-16.275464 33.809385 -20.054294 42.545740 -1.122148 2.061627 0.089913 -0.043554 9149.850000 0 0 1
-17.048464 32.806285 -19.364594 41.735956 -1.091536 2.053278 0.084894 -0.022609 997628.000000 0 0 1
-18.410564 33.233185 -18.712794 42.350468 -1.064902 2.028462 0.079794 -0.020030 -36646.500000 0 0 1
-18.249164 33.838585 -17.433594 42.213885 -1.076205 1.996523 0.082080 -0.025267 105320.000000 0 0 1
-19.523564 34.009485 -16.850794 42.682126 -1.049667 1.976644 0.055652 -0.021854 -836.588000 0 0 1
-19.633064 33.502085 -15.374794 41.763994 -1.040716 1.947799 0.050869 -0.012395 -34992.400000 0 0 1
-19.560364 32.052485 -15.279994 40.539461 -1.022867 1.957261 0.046961 -0.010332 116108.000000 0 0 1
-20.011664 31.694385 -13.982294 40.006316 -1.007612 1.927836 0.050799 -0.003648 41766.400000 0 0 1
-20.183064 30.133385 -13.836994 38.818029 -0.980634 1.935270 0.040915 -0.006041 365022.000000 0 0 1
-18.971464 29.433785 -13.544194 37.546097 -0.998264 1.939852 0.055837 -0.016910 410712.000000 0 0 1
-19.102864 28.077185 -13.311994 36.475429 -0.973367 1.944384 0.058850 -0.025135 723077.000000 0 0 1
-17.669064 27.566285 -12.894294 35.190322 -1.000798 1.945950 0.074953 -0.018766 816108.000000 0 0 1
-16.796664 27.382385 -13.982794 35.034861 -1.020574 1.981343 0.081932 -0.019359 -1155850.000000 0 0 1
-15.680364 26.687485 -13.549694 33.788902 -1.039578 1.983416 0.102809 -0.035583 383901.000000 0 0 1
-14.359064 27.292685 -14.201694 33.952342 -1.086476 2.002351 0.094287 -0.034016 580061.000000 0 0 1
-14.386564 27.266885 -15.614594 34.558238 -1.085297 2.039617 0.085010 -0.037915 -376982.000000 0 0 1
-13.377264 28.078985 -16.144294 35.043100 -1.126194 2.049578 0.099083 -0.033279 -222560.000000 0 0 1
-13.535064 28.337585 -17.688194 36.042876 -1.125199 2.083752 0.110203 -0.047149 112137.000000 0 0 1
-12.983064 27.252285 -18.426894 35.366615 -1.126204 2.118848 0.096166 -0.044246 -86624.500000 0 0 1
-13.715864 27.005085 -19.564194 36.057693 -1.100849 2.144302 0.074427 -0.045940 -439173.000000 0 0 1
-13.020964 26.098285 -20.575694 35.693490 -1.108013 2.185180 0.053566 -0.025330 413954.000000 0 0 1
-11.749264 26.515685 -21.091494 35.860534 -1.153690 2.199570 0.036082 -0.022751 357749.000000 0 0 1
-11.017364 25.422185 -21.513694 35.078610 -1.161853 2.231028 0.038134 -0.020564 585714.000000 0 0 1
-9.716364 25.732985 -22.337594 35.433916 -1.209762 2.252867 0.066412 -0.027088 580857.000000 0 0 1
-9.985764 26.092685 -23.645394 36.601207 -1.205289 2.273165 0.053429 -0.024633 -71525.500000 0 0 1
-8.838364 26.377085 -24.421694 37.017380 -1.247477 2.291264 0.050567 -0.029236 -619830.000000 0 0 1
-9.192564 26.894285 -25.896144 38.450177 -1.241442 2.309728 0.041033 -0.024320 -253424.000000 0 0 1
-9.782264 25.979285 -26.776824 38.569603 -1.210675 2.338169 0.026995 -0.016555 -89200.400000 0 0 1
-10.310164 26.779085 -27.850594 39.988429 -1.203280 2.341258 0.026325 -0.009377 -462792.000000 0 0 1
-11.754764 26.419585 -28.173104 40.371930 -1.152170 2.343172 0.013903 -0.005569 -727797.000000 0 0 1
-12.210964 27.161085 -29.238264 41.733779 -1.148295 2.347020 0.024003 -0.000836 19418.100000 0 0 1
-13.440164 26.654485 -29.752444 42.146264 -1.103765 2.354536 0.008191 0.002895 16951.400000 0 0 1
-13.650564 27.134585 -31.187684 43.534989 -1.104697 2.369399 0.007046 -0.000558 221314.000000 0 0 1
-12.783064 26.467685 -32.129154 43.545696 -1.120866 2.400640 0.020739 -0.004157 376683.000000 0 0 1
-13.040264 25.063085 -32.387904 42.978868 -1.091043 2.424284 0.006374 -0.004239 1290.700000 0 0 1
-12.221164 24.389585 -33.519034 43.217293 -1.106284 2.458450 0.014750 -0.002211 247018.000000 0 0 1
-12.782964 24.618085 33.687564 43.638358 -1.091867 0.688860 0.016838 0.002457 -24380.800000 0 0 1
-12.075364 23.832185 32.777887 42.286846 -1.101817 0.683872 0.010610 0.000924 -294710.000000 0 0 1
-12.709664 23.785885 31.341553 41.347272 -1.080058 0.710543 0.019298 0.012180 798299.000000 0 0 1
-13.996264 23.132785 31.386713 41.426404 -1.026679 0.711091 0.017044 0.002130 590739.000000 0 0 1
-14.582764 23.143285 30.091593 40.666604 -1.008532 0.737788 0.031655 0.010352 -598632.000000 0 0 1
-15.624664 22.094785 29.953433 40.367287 -0.955278 0.734714 0.027914 0.010613 -502660.000000 0 0 1
-15.101964 20.745385 29.919373 39.415850 -0.941546 0.708914 0.016459 0.003833 139402.000000 0 0 1
-16.141464 19.782985 29.853633 39.282983 -0.886419 0.707539 0.010992 0.005486 137887.000000 0 0 1
-15.586464 18.340385 29.892793 38.378206 -0.866393 0.677886 -0.002191 0.005923 -76770.100000 0 0 1
-15.202664 17.805485 28.657293 37.005361 -0.864089 0.685016 0.019940 -0.001004 34514.400000 0 0 1
-14.566964 16.552185 28.703083 36.194451 -0.849106 0.655039 0.006330 -0.008393 -92315.900000 0 0 1
-14.111564 16.012185 27.357233 34.697904 -0.848408 0.662527 0.031036 -0.014065 -118086.000000 0 0 1
-13.079964 16.796285 26.831023 34.250613 -0.909153 0.670721 0.000280 -0.009909 -276325.000000 0 0 1
-12.388964 16.236285 25.761973 32.875259 -0.919001 0.670312 -0.013456 -0.010573 -358383.000000 0 0 1
-11.315664 17.120185 25.144383 32.455893 -0.986759 0.684517 0.005713 -0.005072 -448608.000000 0 0 1
-11.688864 18.133085 24.246183 32.454826 -0.998216 0.727146 0.010826 -0.000292 -48026.700000 0 0 1
-12.382664 19.284085 24.734153 33.719203 -0.999982 0.747290 0.015679 -0.004995 669880.000000 0 0 1
-11.465464 20.332185 25.529903 34.592349 -1.057339 0.740663 0.010164 -0.012029 537604.000000 0 0 1
-11.191564 20.078485 26.871453 35.362009 -1.062296 0.707643 0.017565 -0.012043 -486475.000000 0 0 1
-12.304564 20.130185 27.691653 36.379312 -1.022146 0.705647 0.033421 -0.006697 -543372.000000 0 0 1
-11.960564 19.559785 29.066363 37.020181 -1.021973 0.667859 0.024696 0.000531 211185.000000 0 0 1
-10.969464 20.368385 29.694543 37.642611 -1.076784 0.661853 0.023746 -0.007798 120412.000000 0 0 1
-10.880464 20.021585 31.037783 38.504446 -1.073006 0.633293 0.018196 -0.006192 115748.000000 0 0 1
-9.825364 20.841085 31.813423 39.280816 -1.130255 0.626819 0.010198 -0.002293 -592928.000000 0 0 1
-8.491464 20.511585 31.671573 38.677108 -1.178293 0.611355 0.015453 -0.005193 -922601.000000 0 0 1
-7.694864 21.299785 32.498628 39.611269 -1.224121 0.608618 0.033835 -0.005940 5282.060000 0 0 1
-6.435964 20.585685 33.046117 39.461854 -1.267781 0.578252 0.026204 -0.000673 -299881.000000 0 0 1
-6.629564 19.752085 34.147922 40.002207 -1.246972 0.547841 0.029139 -0.006770 354260.000000 0 0 1
-5.429364 19.225385 -33.765694 39.232837 -1.295558 2.607339 0.022073 -0.001887 533269.000000 0 0 1
-4.710664 18.103385 33.917429 38.733899 -1.316232 0.504011 0.006872 0.005212 -265077.000000 0 0 1
-5.388564 16.876085 33.829368 38.187237 -1.261727 0.482406 0.009546 0.003994 17071.000000 0 0 1
-4.895064 15.983185 32.789673 36.804708 -1.273603 0.471452 0.023946 0.004042 -253698.000000 0 0 1
-5.464664 14.569485 32.804364 36.307833 -1.211959 0.442914 0.037458 -0.004167 -592812.000000 0 0 1
-4.905264 13.543385 33.559309 36.520024 -1.223304 0.405440 0.040912 0.001965 -589655.000000 0 0 1
-5.522964 12.334385 33.311056 35.948110 -1.149799 0.385414 0.052532 -0.004934 -317753.000000 0 0 1
-4.584764 11.155285 33.596214 35.695463 -1.180848 0.344661 0.064257 -0.015694 35351.900000 0 0 1
-4.315464 10.994585 -33.499754 35.520947 -1.196765 2.802625 0.075835 -0.018555 -95140.700000 0 0 1
-3.531664 9.820685 -33.312944 34.909465 -1.225582 2.837994 0.085471 -0.026263 176875.000000 0 0 1
-3.476864 9.357085 -31.847844 33.375572 -1.215031 2.837858 0.083781 -0.025672 99948.700000 0 0 1
-4.736264 8.946985 -31.360994 32.954403 -1.083930 2.829353 0.083052 -0.029359 -47534.800000 0 0 1
-4.643364 8.326985 -30.134884 31.607131 -1.062115 2.835175 0.088436 -0.022384 298703.000000 0 0 1
-5.942664 7.572485 -29.751744 31.270179 -0.905411 2.828681 0.080632 -0.031078 154823.000000 0 0 1
-5.751664 6.779685 -28.573944 29.925174 -0.867251 2.839939 0.075328 -0.023880 3879.670000 0 0 1
-6.931464 6.083685 -28.236444 29.704431 -0.720352 2.825896 0.082102 -0.041871 -669382.000000 0 0 1
-6.985864 5.386585 -26.873204 28.284036 -0.656850 2.824414 0.064203 -0.038552 -317360.000000 0 0 1
-7.140164 6.322485 -25.847164 27.550529 -0.724736 2.788111 0.035647 -0.020030 287832.000000 0 0 1
-5.906364 6.923985 -25.462784 27.040342 -0.864546 2.798323 0.050915 -0.021094 1115.020000 0 0 1
-6.061364 7.981485 -24.312694 26.297364 -0.921288 2.750596 0.024493 -0.002920 -50029.800000 0 0 1
-6.346664 7.305085 -23.093294 25.038863 -0.855488 2.744781 0.013669 -0.000286 606541.000000 0 0 1
-7.688064 7.598085 -22.681394 25.125343 -0.779512 2.696869 0.019451 0.002801 666364.000000 0 0 1
-7.697064 7.681185 -21.158494 23.789226 -0.784366 2.666860 0.018874 -0.000243 -818.039000 0 1 0
-7.074364 8.898385 -20.687394 23.605003 -0.899101 2.639129 0.000970 0.004313 139445.000000 0 1 0
-7.054364 9.039885 -19.276594 22.429237 -0.908146 2.604971 0.006110 0.003352 -185504.000000 0 1 0
-8.351664 9.365085 -18.522194 22.372456 -0.842537 2.546152 0.003117 0.008770 -693282.000000 0 1 0
-8.002764 9.396585 -17.142894 21.123893 -0.865335 2.517580 -0.005685 0.001829 67001.200000 0 1 0
-9.060464 9.682685 -16.253994 20.977100 -0.818583 2.457266 -0.004005 -0.003780 11025.700000 0 1 0
-9.599564 11.146385 -16.402294 22.032449 -0.859821 2.410523 -0.007133 -0.005032 -285086.000000 0 1 0
-8.593864 12.079585 -15.991994 21.806301 -0.952436 2.394056 -0.022476 -0.006487 51025.700000 0 1 0
-8.918764 13.423185 -16.114294 22.790277 -0.984344 2.356141 -0.002886 -0.010036 201985.000000 0 1 0
-7.827964 14.489785 -15.698094 22.752166 -1.075477 2.332231 0.010867 -0.006486 420394.000000 0 1 0
-7.261064 14.617285 -14.363994 21.741951 -1.109756 2.292491 0.006765 -0.008120 428501.000000 0 1 0
-8.110964 15.109885 -13.340294 21.726938 -1.078145 2.231912 0.000817 -0.026931 -712319.000000 0 1 0
-7.254764 15.848385 -12.308794 21.337979 -1.141508 2.185662 0.004156 -0.026532 11910.400000 0 1 0
-6.985764 17.184185 -12.661194 22.458917 -1.184679 2.169714 0.019852 -0.024845 -83597.100000 0 1 0
-5.970064 17.380485 -13.623594 22.876303 -1.239931 2.208725 0.028058 -0.011903 -339495.000000 0 1 0
-5.940364 18.832485 -14.171694 24.306117 -1.265243 2.193275 0.063461 -0.002959 193262.000000 0 1 0
-5.307064 19.718185 -13.264294 24.349810 -1.307881 2.146874 0.061349 -0.013005 -40386.400000 0 1 0
-5.288864 20.991785 -13.842694 25.695278 -1.323984 2.139720 0.067301 -0.006369 -22946.500000 0 0 1
-4.834864 22.032985 -12.774094 25.923075 -1.354783 2.086066 0.072867 -0.010470 -259371.000000 0 0 1
-5.078864 23.447885 -13.023894 27.298718 -1.357489 2.068135 0.086418 -0.017042 134312.000000 0 0 1
-6.385464 23.987685 -12.908694 27.978878 -1.310632 2.050338 0.088679 -0.016354 268202.000000 0 0 1
-7.138464 23.949585 -11.534994 27.524469 -1.281118 2.003230 0.061891 -0.020429 -15880.200000 0 0 1
-7.486564 22.661085 -11.054194 26.301495 -1.251714 2.004559 0.065951 -0.016692 -241264.000000 0 0 1
-7.829364 22.516885 -9.714494 25.742581 -1.236162 1.957752 0.071206 -0.024758 -61450.600000 0 0 1
-6.850364 22.948285 -8.580394 25.439624 -1.280704 1.914827 0.069618 -0.027250 64183.100000 0 0 1
-6.783764 24.374985 -8.589194 26.719536 -1.299357 1.898065 0.080155 -0.025950 -320084.000000 0 0 1
-6.168664 24.864685 -7.410594 26.668744 -1.327617 1.852378 0.078780 -0.022585 111547.000000 0 0 1
-6.315264 26.391485 -7.236894 28.084973 -1.335921 1.831415 0.064447 -0.024119 -44955.700000 0 0 1
-5.743664 27.295385 -8.157194 29.061445 -1.363396 1.855307 0.070454 -0.029179 -272000.000000 0 0 1
-6.064264 27.256385 -9.543594 29.508745 -1.351873 1.900133 0.075982 -0.025351 -545.100000 0 0 1
-5.465464 28.483985 -10.288894 30.774504 -1.381222 1.911692 0.075259 -0.019146 366149.000000 0 0 1
-6.208364 29.705685 -10.191294 32.013029 -1.364766 1.894783 0.073042 -0.016952 -49296.300000 0 0 1
-7.158864 29.831885 -11.231694 32.670196 -1.335276 1.921747 0.081894 -0.014814 -456371.000000 0 0 1
-8.194664 30.926785 -11.006894 33.834454 -1.311779 1.902142 0.083208 -0.017068 -769246.000000 0 0 1
-9.215664 30.404885 -10.225994 33.375987 -1.276500 1.882192 0.078104 -0.012937 -717974.000000 0 0 1
-10.221264 31.351185 -9.938894 34.440567 -1.255638 1.863541 0.058814 -0.018495 678627.000000 0 0 1
-11.411464 30.751285 -9.119894 34.044611 -1.215459 1.841989 0.059985 -0.017902 651217.000000 0 0 1
-12.242164 29.781485 -9.712494 33.632425 -1.180787 1.863752 0.067423 -0.019440 254264.000000 0 0 1
-13.429664 29.571585 -8.950994 33.689091 -1.144504 1.839720 0.083149 -0.018997 742282.000000 0 0 1
-14.346964 28.404885 -9.425494 33.189047 -1.103087 1.858754 0.086108 -0.019377 347813.000000 0 0 1
-13.911664 27.051385 -9.194394 31.778117 -1.095800 1.864324 0.087040 -0.028049 332345.000000 0 0 1
-14.979664 26.169985 -9.540294 31.627135 -1.050919 1.877218 0.101986 -0.028824 343465.000000 0 0 1
-14.850364 24.847385 -8.803394 30.256002 -1.032097 1.866030 0.093229 -0.027748 -407899.000000 0 0 1
-13.903264 23.984685 -9.342194 29.254786 -1.045458 1.895828 0.100212 -0.027668 -285920.000000 0 0 1
-14.150164 22.684685 -8.905194 28.180216 -1.013078 1.892316 0.090731 -0.028032 -120463.000000 0 0 1
-13.198064 21.594485 -9.445394 27.013444 -1.022199 1.927999 0.101530 -0.029904 -161896.000000 0 0 1
-13.485264 21.238885 -10.737394 27.353871 -1.005086 1.974184 0.099995 -0.024490 298761.000000 0 0 1
-12.698264 20.122385 -11.181094 26.290173 -1.007857 2.010085 0.087755 -0.024648 174723.000000 0 0 1
-12.933964 19.801485 -12.694294 26.842715 -0.992188 2.063391 0.092478 -0.011811 160111.000000 0 0 1
-14.235764 19.318185 -12.949294 27.267810 -0.935726 2.065639 0.104430 -0.010625 -167742.000000 0 0 1
-14.491564 19.102385 -14.311294 27.923461 -0.921797 2.108912 0.104552 -0.000514 -157372.000000 0 0 1
-15.975964 18.827985 -14.609194 28.690643 -0.867161 2.105048 0.099397 0.001644 -29941.800000 0 0 1
-16.768164 20.001485 -14.570494 29.891973 -0.873107 2.079950 0.070480 -0.003043 -587013.000000 0 0 1
-18.046064 19.687385 -15.024894 30.643124 -0.828869 2.083252 0.048619 0.001830 -541480.000000 0 0 1
-18.870464 20.762085 -15.780394 32.189741 -0.833091 2.083151 0.029191 -0.005482 66919.000000 0 0 1
-19.330764 21.858285 -15.024294 32.820611 -0.846685 2.046282 0.045235 -0.023943 369734.000000 0 0 1
-19.876464 22.928285 -15.802694 34.212647 -0.856574 2.050928 0.041320 -0.023553 -26575.000000 0 0 1
-20.201164 24.150285 -14.889894 34.828613 -0.874205 2.012543 0.029686 -0.008453 -317679.000000 0 0 1
-21.297064 24.002885 -14.044694 35.027944 -0.845058 1.983357 0.042537 -0.007343 -297465.000000 0 0 1
-21.581664 25.197285 -13.384494 35.774518 -0.862536 1.954260 0.045790 -0.014747 -137102.000000 0 0 1
-25.831044 -0.510715 4.164906 26.169641 0.019769 1.410966 0.135208 -0.038178 94439.400000 0 0 1
-26.449814 0.144585 5.251606 26.966515 -0.005466 1.374798 0.154027 -0.035210 -96360.000000 0 0 1
-27.693714 -0.403415 5.613506 28.259795 0.014566 1.370827 0.142528 -0.040957 -105049.000000 0 0 1
-28.337124 0.520385 6.665606 29.115180 -0.018362 1.339809 0.149656 -0.034694 -444130.000000 0 0 1
-28.881204 1.701585 6.118106 29.571110 -0.058849 1.362396 0.170088 -0.041329 -133992.000000 0 0 1
-29.288594 2.536485 7.170306 30.260020 -0.086388 1.331564 0.166708 -0.031456 -19930.000000 0 0 1
-28.251014 3.266185 8.109506 29.572823 -0.115102 1.293016 0.186506 -0.037881 145149.000000 0 0 1
-27.663624 2.384485 9.040206 29.200808 -0.085983 1.256037 0.178781 -0.039139 588704.000000 0 0 1
-26.576444 2.996185 9.750706 28.466837 -0.112264 1.221189 0.171437 -0.036014 906416.000000 0 0 1
-25.577614 1.851385 10.287306 27.630973 -0.072257 1.189299 0.147060 -0.032178 250146.000000 0 0 1
-24.688864 1.353585 9.319306 26.423885 -0.054771 1.210357 0.157522 -0.030614 -68644.800000 0 0 1
-24.923064 -0.003115 9.033706 26.509753 0.000125 1.223061 0.125614 -0.030179 8943.450000 0 0 1
-23.834664 -0.794815 8.232006 25.228731 0.033335 1.238415 0.116179 -0.032212 -4014.540000 0 0 1
-22.733764 -1.170015 9.009906 24.482062 0.051421 1.193917 0.101223 -0.046233 -362177.000000 0 1 0
-21.720064 -1.749715 8.224206 23.290776 0.080384 1.209903 0.112445 -0.037397 -41452.900000 0 1 0
-20.404664 -2.018515 8.991406 22.389062 0.098603 1.157535 0.085140 -0.027419 146235.000000 0 1 0
-19.777364 -0.804315 9.521906 21.964921 0.040646 1.122418 0.069839 -0.025971 643061.000000 0 1 0
-20.419864 -0.236615 10.662606 23.037318 0.011587 1.089599 0.078329 -0.024537 -849490.000000 0 1 0
-19.951964 1.194285 11.108006 22.866897 -0.059787 1.063555 0.048960 -0.014819 -5933.610000 0 1 0
-20.418064 2.250285 10.248606 22.956373 -0.109768 1.108015 0.069868 -0.011464 1830920.000000 0 1 0
-21.836864 2.527085 10.076306 24.181951 -0.115213 1.140998 0.105999 -0.026110 908039.000000 0 1 0
-22.169564 3.839185 9.350506 24.365157 -0.171473 1.176926 0.101197 -0.036475 -250900.000000 0 1 0
-22.054264 4.949085 10.271306 24.827077 -0.220748 1.144267 0.089514 -0.031926 365672.000000 0 1 0
-22.598964 6.116185 9.712906 25.346823 -0.264308 1.177538 0.091212 -0.028812 -169662.000000 0 0 1
-22.725064 7.286585 10.725706 26.164167 -0.310284 1.148409 0.090692 -0.024500 -229391.000000 0 0 1
-23.536864 6.898885 11.791706 27.214388 -0.285124 1.122657 0.082201 -0.020950 -211623.000000 0 0 1
-23.723964 7.946985 12.671906 28.045646 -0.323229 1.101979 0.079348 -0.014408 711556.000000 0 0 1
-24.797264 7.546585 13.764106 29.348013 -0.295426 1.082642 0.094704 -0.011879 1903240.000000 0 0 1
-26.165934 7.302885 13.353606 30.270564 -0.272173 1.113926 0.096493 -0.011889 1287980.000000 0 0 1
-26.992324 6.910885 14.459106 31.391267 -0.250647 1.092115 0.110731 -0.011527 90149.700000 0 0 1
-28.439204 6.665285 14.014106 32.397678 -0.230214 1.123460 0.107331 0.000453 -213530.000000 0 0 1
-28.444434 5.569185 13.057406 31.789896 -0.193346 1.147530 0.125306 0.006695 -162895.000000 0 0 1
-29.547704 5.772285 12.218506 32.491199 -0.192925 1.185260 0.121950 -0.015654 -278559.000000 0 0 1
-29.918484 4.456685 11.428506 32.335561 -0.147874 1.209556 0.141095 -0.020256 -100535.000000 0 0 1
-30.641994 3.504485 12.175206 33.157938 -0.113874 1.194812 0.132280 -0.014433 291373.000000 0 0 1
-31.357574 2.642485 11.298006 33.435387 -0.084071 1.226106 0.134284 -0.016658 -462916.000000 0 0 1
-32.378604 1.694985 11.872706 34.528367 -0.052301 1.219779 0.096907 -0.006540 -570039.000000 0 0 1
-31.933374 0.654985 12.710206 34.376136 -0.020508 1.192068 0.122984 -0.014125 -359246.000000 0 0 1
-33.031964 0.075485 13.350806 35.628084 -0.002285 1.186694 0.088428 -0.005803 -199763.000000 0 0 1
-32.636694 -0.844215 14.504306 35.724521 0.025861 1.152719 0.087321 -0.010153 -267663.000000 0 0 1
-32.260334 -2.123615 14.104906 35.273039 0.065733 1.159413 0.091649 -0.010873 186100.000000 0 0 1
-32.549494 -3.077315 15.097406 36.012097 0.094262 1.138198 0.082520 -0.012296 -361382.000000 0 0 1
-32.401074 -4.507715 14.581906 35.815933 0.138235 1.151482 0.081201 -0.013210 130335.000000 0 0 1
-33.367904 -4.915215 13.614706 36.372195 0.146252 1.187137 0.069786 -0.011947 327183.000000 0 0 1
-33.186074 -6.272215 13.289406 36.294139 0.186798 1.195919 0.074574 -0.016480 145069.000000 0 0 1
-34.251071 -6.880915 12.260106 37.024223 0.198257 1.233288 0.071791 -0.005363 2005170.000000 0 0 1
-35.639206 -6.971515 12.637706 38.450834 0.193174 1.235899 0.065006 -0.003212 1336670.000000 0 0 1
36.304943 -5.770215 12.946906 38.973922 -0.157619 1.232168 0.067779 -0.008515 -584094.000000 0 0 1
34.827273 -5.707815 12.577706 37.466208 -0.162445 1.228440 0.068489 -0.005444 156407.000000 0 0 1
33.898903 -6.475615 13.350806 37.004232 -0.188753 1.201680 0.059440 -0.001170 672619.000000 0 0 1
32.562003 -6.030015 13.105806 35.614705 -0.183111 1.193951 0.065060 -0.001893 972183.000000 0 0 1
31.484403 -7.152515 13.314206 34.924120 -0.223385 1.179667 0.069337 -0.004024 243354.000000 0 0 1
31.033263 -7.305815 14.637606 35.081303 -0.231209 1.140381 0.070846 -0.004014 512234.000000 0 0 1
30.065433 -8.356315 14.797206 34.535714 -0.271095 1.128008 0.064328 0.000842 549721.000000 0 0 1
29.414873 -8.539015 16.177606 34.639059 -0.282530 1.084863 0.062893 -0.004789 -226756.000000 0 0 1
30.341233 -8.952815 17.144106 35.981435 -0.286929 1.074160 0.052683 0.000030 -269542.000000 0 0 1
29.846893 -8.944815 18.469906 36.221322 -0.291172 1.035707 0.051759 -0.004414 -150831.000000 0 0 1
30.943713 -9.264115 19.526406 37.744108 -0.290893 1.027061 0.050040 -0.002339 311476.000000 0 0 1
31.848063 -8.189215 19.757906 38.363227 -0.251682 1.029763 0.056030 -0.002407 705923.000000 0 0 1
33.137103 -8.606815 19.258206 39.281336 -0.254118 1.058404 0.036775 -0.001296 821062.000000 0 0 1
34.392943 -7.899515 19.827606 40.477287 -0.225768 1.058884 0.036396 -0.003311 389275.000000 0 0 1
34.817983 -8.386315 21.098106 41.566239 -0.236359 1.038425 0.031201 -0.004486 -66340.400000 0 0 1
36.137003 -7.995015 21.416206 42.760462 -0.217734 1.046226 0.021256 -0.001719 -3952.330000 0 0 1
-36.066184 -8.722715 22.695106 43.496244 0.237296 1.021870 0.025983 -0.003009 -148787.000000 0 0 1
36.015433 -8.133815 23.876806 43.970128 -0.222116 0.996763 0.029321 -0.000947 311672.000000 0 0 1
35.854143 -9.106015 24.911306 44.598343 -0.248715 0.978135 0.019230 0.001894 -354311.000000 0 0 1
35.407683 -8.418415 26.168706 44.826051 -0.233423 0.947415 0.034645 0.000976 -399835.000000 0 0 1
-36.276884 -7.641515 26.820106 45.757220 0.207609 0.944511 0.000035 -0.006745 -585000.000000 0 0 1
35.927153 -7.058015 27.980906 46.081525 -0.193983 0.918259 0.000587 -0.007737 63811.200000 0 0 1
-35.606616 -6.606515 28.964506 46.372619 0.183456 0.896172 -0.002301 0.000819 483593.000000 0 0 1
-35.376910 -7.559515 30.020506 47.009603 0.210519 0.878114 -0.004932 0.002877 1380160.000000 0 0 1
-33.987144 -7.373315 30.455206 46.227820 0.213634 0.851565 -0.012455 0.004931 1851610.000000 0 0 1
-33.599254 -8.098915 31.758306 46.937110 0.236532 0.827642 -0.022605 0.009364 -164828.000000 0 0 1
-33.555894 -9.471615 31.627206 47.074300 0.275107 0.834083 -0.018425 0.003339 471166.000000 0 0 1
-32.928584 -10.174015 32.717106 47.520640 0.299668 0.811402 -0.016241 0.002007 -152269.000000 0 0 1
-33.262534 -11.706115 32.585206 48.012758 0.338394 0.824835 0.008426 -0.001983 -1024000.000000 0 0 1
-34.598584 -11.934715 32.840806 49.173346 0.332167 0.839469 -0.009518 -0.000013 -1051020.000000 0 0 1
-34.898782 -13.255015 33.018506 49.838160 0.362984 0.846626 0.011325 -0.006494 -23870.100000 0 0 1
36.308903 -13.584015 33.426206 51.187626 -0.358002 0.859240 0.019749 -0.003180 53582.300000 0 0 1
36.249573 -14.973215 33.697906 51.708583 -0.391713 0.860987 0.022361 -0.012642 -99718.400000 0 0 1
34.927113 -15.258315 34.088406 51.134517 -0.411874 0.841102 0.015556 -0.011275 -174552.000000 0 0 1
34.635023 -16.738415 -34.120441 51.419489 -0.450182 2.296377 0.011272 -0.003352 -72826.200000 0 0 1
34.952353 -17.157715 -32.761141 50.885622 -0.456332 2.270275 0.027380 -0.009490 142039.000000 0 0 1
34.994623 -18.538715 -32.606841 51.298281 -0.487170 2.259624 0.026667 -0.014140 -287008.000000 0 0 1
35.473143 -19.039115 -31.281841 50.984167 -0.492590 2.231357 0.043062 -0.028274 388255.000000 0 0 1
34.474253 -18.949415 -30.244241 49.621251 -0.502589 2.226228 0.049058 -0.022202 224901.000000 0 0 1
34.750793 -19.886715 -29.248241 49.583854 -0.519778 2.201699 0.046659 -0.017687 -1100410.000000 0 0 1
33.628103 -20.097315 -28.239141 48.292861 -0.538678 2.195365 0.038187 -0.016214 -583771.000000 0 0 1
32.499473 -20.708315 -28.777941 48.095945 -0.567317 2.212230 0.056584 -0.019286 -417649.000000 0 0 1
31.584553 -19.785215 -29.350641 47.439423 -0.559620 2.237880 0.042865 -0.011697 -873880.000000 0 0 1
30.352983 -20.586215 -29.851841 47.288775 -0.595963 2.253982 0.037114 -0.010333 -262842.000000 0 0 1
29.317453 -19.742915 -30.274941 46.538884 -0.592662 2.279078 0.013811 -0.000219 -192058.000000 0 0 1
28.133933 -20.507315 -30.403341 46.221545 -0.629871 2.288656 0.017441 -0.000644 466156.000000 0 0 1
27.108483 -19.885315 -31.409841 46.009496 -0.632887 2.322223 0.018811 0.009076 492762.000000 0 0 1
27.627953 -19.943515 -32.734941 47.250650 -0.625247 2.336152 0.010568 0.004298 205271.000000 0 0 1
26.636883 -19.605115 -33.677341 47.202196 -0.634490 2.365234 0.042207 0.002410 -78993.600000 0 0 1
27.087383 -19.953815 33.376706 47.390775 -0.634900 0.789378 0.050575 -0.004054 298205.000000 0 0 1
28.149923 -19.121715 32.894606 47.329834 -0.596685 0.802366 0.024947 -0.003587 463901.000000 0 0 1
28.324643 -19.204815 31.499206 46.511399 -0.595825 0.826796 0.029399 -0.006636 -318767.000000 0 0 1
27.379883 -18.342415 30.660506 45.012984 -0.590254 0.821467 0.035466 -0.008035 -412073.000000 0 0 1
27.440883 -16.961115 30.916806 44.682551 -0.553620 0.806650 0.040335 -0.014557 236867.000000 0 0 1
26.508383 -16.281815 30.111206 43.295226 -0.550805 0.801701 0.054129 -0.020251 -187521.000000 0 0 1
26.303283 -14.776315 30.521406 42.915712 -0.511832 0.779601 0.065008 -0.024937 -229010.000000 0 0 1
27.421983 -13.966715 30.276106 43.170324 -0.471080 0.793552 0.051456 -0.017076 -32430.400000 0 0 1
27.267583 -12.724815 30.853806 43.097556 -0.436625 0.772875 0.080407 -0.017710 584108.000000 0 0 1
28.591643 -11.872815 30.886006 43.730894 -0.393587 0.786575 0.064842 -0.014287 548592.000000 0 0 1
28.860563 -11.259615 29.643206 42.876924 -0.371976 0.807433 0.049592 -0.016038 -154333.000000 0 0 1
30.222323 -10.904215 29.616306 43.696868 -0.346264 0.826075 0.038454 -0.009101 -92948.200000 0 0 1
30.581923 -10.251515 28.260606 42.883673 -0.323443 0.851300 0.038700 -0.009948 -203354.000000 0 0 1
30.357453 -8.854415 28.176706 42.354484 -0.283799 0.842956 0.052035 -0.011480 -215749.000000 0 0 1
30.822513 -8.302915 26.958606 41.781959 -0.263132 0.869484 0.047577 -0.004681 131344.000000 0 0 1
30.710893 -6.755315 26.827406 41.334041 -0.216517 0.864476 0.059698 -0.011933 379144.000000 0 0 1
29.356973 -6.354115 26.687506 40.179965 -0.213155 0.844374 0.067540 -0.011871 56901.000000 0 0 1
29.238063 -4.935315 26.564406 39.810668 -0.167221 0.840261 0.071366 -0.010986 -288577.000000 0 0 1
27.778233 -4.532415 26.430606 38.610231 -0.161739 0.816811 0.057813 -0.009358 -438362.000000 0 0 1
27.194083 -4.879415 25.166706 37.372315 -0.177540 0.831991 0.059030 -0.010368 -111481.000000 0 0 1
25.795983 -4.733515 25.222606 36.387068 -0.181479 0.804912 0.066052 -0.012991 -305576.000000 0 0 1
25.065183 -5.193215 23.944806 35.051200 -0.204298 0.818745 0.057119 -0.004040 -405978.000000 0 0 1
25.330683 -4.353415 22.868706 34.403102 -0.170201 0.843667 0.066385 -0.000228 110459.000000 0 0 1
25.027483 -4.916915 21.618706 33.435301 -0.193990 0.867699 0.063677 0.001461 61263.200000 0 0 1
25.513383 -3.943415 20.529606 32.984056 -0.153349 0.898978 0.083892 -0.010901 108874.000000 0 0 1
24.571283 -2.933315 20.260106 31.981622 -0.118817 0.884738 0.072117 -0.002378 -219810.000000 0 0 1
24.992583 -2.014615 19.312906 31.649268 -0.080435 0.914462 0.080147 -0.020783 -833909.000000 0 0 1
23.976783 -0.971015 18.919606 30.557822 -0.040476 0.903148 0.046721 -0.013811 -461870.000000 0 0 1
22.880983 -1.593915 18.275706 29.327144 -0.069549 0.898011 0.063610 -0.019848 591121.000000 0 0 1
21.749483 -0.729815 17.993106 28.236935 -0.033543 0.879912 0.065844 -0.018996 798958.000000 0 0 1
20.645583 -1.643715 17.426206 27.066853 -0.079448 0.871315 0.056118 -0.022632 -722279.000000 0 0 1
20.956683 -2.209915 16.166806 26.559968 -0.105063 0.916387 0.076740 -0.024124 -171705.000000 0 0 1
19.882783 -2.914315 15.611706 25.446879 -0.145538 0.910309 0.084927 -0.031068 -447360.000000 0 0 1
20.217783 -3.632415 14.301306 25.029593 -0.177768 0.962615 0.090028 -0.033767 -363554.000000 0 0 1
19.129983 -4.366515 13.824606 24.002967 -0.224410 0.957026 0.082714 -0.030322 374691.000000 0 1 0
19.415183 -4.756315 12.479806 23.565173 -0.240248 1.012683 0.086613 -0.027374 83132.400000 0 1 0
18.363783 -5.757915 11.908306 22.631612 -0.303839 1.016694 0.065145 -0.028919 52520.000000 0 1 0
18.325083 -7.032615 12.585506 23.316545 -0.366437 1.000636 0.089566 -0.034696 1082180.000000 0 1 0
17.153683 -7.731815 12.159406 22.402699 -0.423467 0.997070 0.056151 -0.023282 -15070.100000 0 1 0
17.287983 -9.257715 12.404006 23.204288 -0.491643 1.006813 0.086540 -0.045290 -44592.500000 0 1 0
18.190583 -9.878015 11.496206 23.677737 -0.497475 1.063829 0.070976 -0.050383 615874.000000 0 1 0
18.017483 -11.261615 11.362606 24.094864 -0.558627 1.079717 0.083900 -0.046515 -55171.800000 0 1 0
18.793983 -11.770615 10.119706 24.375594 -0.559531 1.142681 0.092107 -0.046286 -59081.100000 0 1 0
18.334183 -11.226715 8.915806 23.273869 -0.549442 1.177666 0.095423 -0.039611 20463.600000 0 1 0
18.946483 -11.767115 7.807406 23.630272 -0.555769 1.234071 0.087183 -0.050898 -249980.000000 0 1 0
18.602983 -11.007615 6.510406 22.574852 -0.534303 1.278249 0.081797 -0.042236 -20742.000000 0 1 0
19.221483 -9.710115 6.540606 22.506249 -0.467775 1.275929 0.099142 -0.034081 797991.000000 0 1 0
19.342083 -9.176115 5.231106 22.038187 -0.442968 1.331143 0.057368 -0.035375 -342675.000000 0 1 0
20.270783 -7.918815 5.165606 22.367292 -0.372422 1.337748 0.119542 -0.031502 156799.000000 0 1 0
20.796783 -7.447815 3.943106 22.439345 -0.343893 1.394156 0.090153 -0.026941 669025.000000 0 1 0
21.519283 -6.253215 3.984506 22.760899 -0.282798 1.394830 0.126790 -0.020958 -654853.000000 0 1 0
21.941183 -5.868515 2.540206 22.854050 -0.261348 1.459417 0.106771 -0.020174 -4255.290000 0 1 0
20.937783 -5.234215 1.780406 21.655429 -0.244968 1.488488 0.087052 -0.039145 754046.000000 0 1 0
21.570883 -4.640415 0.666306 22.074428 -0.211895 1.540607 0.099650 -0.026260 192873.000000 0 1 0
-25.752144 -15.340315 0.144406 29.975307 0.537245 1.565979 0.087883 -0.016078 -376643.000000 0 0 1
-24.873464 -14.590115 -0.732994 28.846108 0.530489 1.596210 0.078319 -0.009262 1238260.000000 0 0 1
-23.492764 -14.996115 -0.705894 27.879952 0.568127 1.596118 0.079284 -0.003944 1042430.000000 0 0 1
-22.726164 -14.671215 0.597906 27.056987 0.573251 1.548697 0.089373 -0.015877 -1074380.000000 0 0 1
-23.151164 -15.300615 1.752406 27.805685 0.584000 1.507731 0.080342 -0.002973 -350302.000000 0 0 1
-22.366964 -14.932015 2.882706 27.047295 0.588643 1.464013 0.084797 0.010459 285567.000000 0 0 1
-22.733764 -15.616315 4.217506 27.901267 0.601895 1.419056 0.080651 0.009511 -177321.000000 0 0 1
-22.349964 -16.984615 4.198606 28.383557 0.649832 1.422328 0.095597 -0.005088 115971.000000 0 0 1
-22.952864 -17.659015 5.275106 29.436398 0.655777 1.390620 0.089976 -0.013192 -69869.500000 0 0 1
-23.049364 -19.175815 5.147406 30.421717 0.693919 1.400777 0.070308 -0.010134 325842.000000 0 0 1
-23.635864 -19.790115 6.353306 31.474866 0.697070 1.367547 0.055697 -0.012363 351587.000000 0 0 1
-23.914164 -21.163415 6.068606 32.505466 0.724451 1.382999 0.065414 -0.018469 72244.300000 0 0 1
-24.599764 -21.843315 7.299106 33.698008 0.726117 1.352462 0.059071 -0.012739 366694.000000 0 0 1
-23.720664 -21.945815 8.432206 33.397467 0.746552 1.315553 0.046897 -0.006753 102785.000000 0 0 1
-24.244564 -22.801415 9.425706 34.591145 0.754732 1.294817 0.049231 -0.004495 -362700.000000 0 0 1
-23.224164 -23.224115 10.470006 34.472341 0.785397 1.262200 0.027632 -0.003924 -222074.000000 0 0 1
-23.084164 -22.202315 11.460806 34.017223 0.765928 1.227161 0.029165 -0.000935 -76807.400000 0 0 1
-22.266364 -22.738315 12.465906 34.179244 0.795884 1.197463 0.031932 -0.003347 -774904.000000 0 0 1
-22.412764 -22.013715 13.841106 34.329460 0.776416 1.155802 0.033673 0.001196 324269.000000 0 0 1
-23.631464 -22.327915 14.535406 35.612637 0.757043 1.150366 0.022669 0.000172 570470.000000 0 0 1
-23.926564 -21.357415 15.494006 35.618589 0.728725 1.120761 0.025692 0.008379 233455.000000 0 0 1
-25.366234 -21.364715 16.098906 36.865589 0.699978 1.118878 0.027885 -0.002739 751312.000000 0 0 1
-26.459044 -21.170415 15.197506 37.138008 0.674814 1.149201 0.031586 0.000603 666362.000000 0 0 1
-26.945334 -22.275715 14.377306 37.801659 0.690811 1.180637 0.028688 -0.001387 182324.000000 0 0 1
-27.960224 -23.261315 15.037506 39.357204 0.693917 1.178753 0.035705 -0.008965 155192.000000 0 0 1
-27.391724 -24.065715 16.079906 39.850076 0.720852 1.155446 0.019053 -0.002349 323448.000000 0 0 1
-28.232134 -25.184165 16.472206 41.262927 0.728399 1.160151 0.034238 -0.006247 230689.000000 0 0 1
-28.123744 -26.475345 15.591506 41.653138 0.755216 1.187135 0.025960 -0.000256 -19216.400000 0 0 1
-28.825204 -26.452245 14.376106 41.680764 0.742496 1.218654 0.042503 -0.011087 1415490.000000 0 0 1
-30.151694 -27.077445 14.441606 43.021770 0.731731 1.228468 0.081804 -0.024434 1739910.000000 0 0 1
-30.941544 -27.399035 13.126806 43.363571 0.724751 1.263256 0.102835 -0.029205 272012.000000 0 0 1
-30.393464 -28.479635 12.402506 43.458882 0.752902 1.281388 0.093660 -0.029793 586711.000000 0 0 1
-31.214684 -28.793115 11.278306 43.938595 0.745066 1.311207 0.094625 -0.020955 267437.000000 0 0 1
-30.552364 -29.993305 10.595506 44.105669 0.776165 1.328194 0.080979 -0.020743 82685.600000 0 0 1
-30.741514 -31.211405 11.327506 45.249363 0.792983 1.317770 0.073399 -0.017683 -151403.000000 0 0 1
-30.114514 -32.259375 10.666606 45.401847 0.819772 1.333642 0.073513 -0.022754 -370729.000000 0 0 1
-30.406894 -33.647855 11.253906 46.726949 0.835952 1.327561 0.055412 -0.019038 320281.000000 0 0 1
-31.753394 -34.099456 11.250806 47.933616 0.821009 1.333870 0.047132 -0.024917 178290.000000 0 0 1
-31.882924 33.096581 11.911006 47.473957 -0.804074 1.317191 0.056326 -0.026413 -785466.000000 0 0 1
-33.263864 32.663452 12.385506 48.236776 -0.776291 1.311123 0.079984 -0.025742 -3779.400000 0 0 1
-34.284508 32.379568 11.436306 48.524767 -0.756831 1.332878 0.060321 -0.028129 292573.000000 0 0 1
-34.947769 33.482345 10.869406 49.604012 -0.763987 1.349880 0.074926 -0.025496 1049590.000000 0 0 1
36.212543 33.079698 10.452206 50.148413 0.740217 1.360832 0.065701 -0.014545 1273940.000000 0 0 1
36.156953 32.449569 9.173506 49.441410 0.731412 1.384172 0.046878 -0.011377 559200.000000 0 0 1
34.839183 32.049668 8.803906 48.150375 0.743719 1.386920 0.048242 -0.011225 257834.000000 0 0 1
34.739383 31.667568 7.333706 47.575654 0.739174 1.416031 0.053154 -0.015778 18392.100000 0 0 1
35.077523 30.330678 7.136206 46.918100 0.712953 1.418104 0.060750 -0.017985 53771.700000 0 0 1
34.879833 29.980748 5.787806 46.356733 0.710009 1.445616 0.076499 -0.020931 36045.600000 0 0 1
35.315963 28.524728 5.486606 45.727237 0.679419 1.450521 0.079496 -0.016499 121688.000000 0 0 1
34.440703 27.542758 6.024006 44.509035 0.674567 1.435036 0.074586 -0.014148 335302.000000 0 0 1
34.810123 27.105098 7.368306 44.729441 0.661590 1.405311 0.059773 -0.015097 -322410.000000 0 0 1
33.839203 26.057628 7.827406 43.420731 0.656205 1.389537 0.052129 -0.017655 -603912.000000 0 0 1
33.914063 24.902548 7.014906 42.655708 0.633367 1.405592 0.058063 -0.018361 30515.000000 0 0 1
32.879293 23.971678 7.237706 41.328847 0.629978 1.394764 0.048691 -0.012727 -769680.000000 0 0 1
33.029553 22.692988 6.312806 40.568147 0.601982 1.414551 0.048193 -0.014539 573654.000000 0 0 1
34.086483 21.779488 6.723006 41.005283 0.568566 1.406098 0.056964 -0.011992 173628.000000 0 0 1
35.398953 22.226488 6.525306 42.304636 0.560672 1.415932 0.062453 -0.014573 -1360390.000000 0 0 1
36.261663 21.013988 6.425406 42.400256 0.525217 1.418669 0.060201 -0.019349 -893710.000000 0 0 1
35.941113 20.082288 5.462606 41.531939 0.509540 1.438886 0.073813 -0.022732 27537.900000 0 0 1
-35.925959 18.926588 5.664806 40.999760 -0.484874 1.432186 0.084149 -0.020718 54644.600000 0 0 1
36.220643 17.762688 4.782106 40.624089 0.455940 1.452807 0.079967 -0.024244 -46659.400000 0 0 1
36.298763 18.007188 3.373806 40.660073 0.460509 1.487725 0.107947 -0.023945 172223.000000 0 0 1
35.823683 16.906088 2.614206 39.698692 0.440936 1.504897 0.090234 -0.021203 -509471.000000 0 0 1
-35.865358 16.264488 1.535306 39.410845 -0.425750 1.531830 0.119936 -0.018555 1314300.000000 0 0 1
-34.687321 15.536588 1.981706 38.059467 -0.421109 1.518704 0.114592 -0.036970 1282150.000000 0 0 1
-33.631464 16.368588 2.436206 37.482545 -0.452955 1.505755 0.111576 -0.031197 -703337.000000 0 0 1
-32.286194 15.672588 2.637706 35.985912 -0.451921 1.497432 0.104074 -0.032535 -374390.000000 0 0 1
-32.240644 14.712188 3.742906 35.635894 -0.428101 1.465570 0.104684 -0.027090 -387498.000000 0 0 1
-30.911944 14.435888 4.052006 34.356396 -0.436901 1.452581 0.088775 -0.031011 -711075.000000 0 0 1
-30.735524 13.531788 5.325406 34.002084 -0.414729 1.413529 0.100982 -0.021859 -82230.600000 0 0 1
-30.915824 12.122088 5.113506 33.598827 -0.373677 1.418010 0.114865 -0.018914 339160.000000 0 0 1
-30.565134 11.458688 6.303806 33.245555 -0.358678 1.380028 0.105334 -0.013345 -65390.800000 0 0 1
-30.752924 9.901388 6.319506 32.919842 -0.311485 1.377631 0.114055 -0.028673 -115347.000000 0 0 1
-32.106624 9.587988 6.519006 34.135938 -0.290199 1.378644 0.111654 -0.013418 -115830.000000 0 0 1
-32.327854 8.161888 6.384906 33.948102 -0.247304 1.381591 0.115813 -0.022616 81929.900000 0 0 1
-33.830664 7.813188 6.408106 35.307557 -0.226970 1.388291 0.113804 -0.016494 36106.000000 0 0 1
-34.497780 7.857488 7.645806 36.198002 -0.223947 1.357972 0.104250 -0.011550 -884341.000000 0 0 1
-35.747207 7.287988 7.533006 37.252165 -0.201119 1.367176 0.080295 -0.006745 -759278.000000 0 0 1
-36.166444 6.387988 8.736606 37.751111 -0.174824 1.337253 0.077053 -0.005305 -390990.000000 0 0 1
35.941953 7.054388 9.847106 37.928272 0.193808 1.308163 0.077409 -0.011463 138106.000000 0 0 1
-35.927466 8.089088 10.474606 38.287512 -0.221458 1.293686 0.083334 -0.011740 -95023.300000 0 0 1
35.990913 8.993788 11.515106 38.843683 0.244876 1.269826 0.074460 -0.019320 -303742.000000 0 0 1
35.517893 8.282388 12.638206 38.598483 0.229095 1.237217 0.051968 -0.018720 259897.000000 0 0 1
34.855053 9.122988 13.515106 38.480667 0.255998 1.211925 0.067536 -0.026561 -496065.000000 0 0 1
34.091673 8.437388 14.661606 38.057777 0.242616 1.175322 0.067020 -0.025518 -405478.000000 0 0 1
32.796443 7.950088 14.437206 36.704815 0.237820 1.166543 0.052841 -0.023512 -127863.000000 0 0 1
32.378683 7.144588 15.491406 36.597922 0.217177 1.133727 0.053226 -0.021000 -931437.000000 0 0 1
30.881023 7.002788 15.538206 35.271978 0.222995 1.114612 0.038474 -0.009994 -592130.000000 0 0 1
30.089693 8.178288 15.877106 34.990806 0.265386 1.099826 0.032223 -0.012431 1974390.000000 0 0 1
28.652743 7.959188 15.971006 33.755020 0.270950 1.077940 0.038651 -0.012629 1571190.000000 0 0 1
28.097183 7.391088 17.301306 33.814421 0.257227 1.033687 0.031767 -0.010209 -283704.000000 0 0 1
28.164533 8.368188 18.309006 34.619173 0.288811 1.013529 0.056480 -0.018257 386882.000000 0 0 1
27.323883 8.032688 19.423906 34.473276 0.285925 0.972243 0.053722 -0.007909 92489.000000 0 0 1
27.677673 6.802688 20.346306 35.018599 0.241005 0.950822 0.049905 -0.006962 -399314.000000 0 0 1
26.891983 6.690688 21.460506 35.049927 0.243848 0.911850 0.047263 -0.000070 -286253.000000 0 0 1
27.464483 5.724688 22.322406 35.851913 0.205497 0.898700 0.045051 0.003371 -154783.000000 0 0 1
26.806183 5.639388 23.735106 36.245405 0.207353 0.856819 0.051499 0.005886 979227.000000 0 0 1
25.480283 5.102188 23.853106 35.273897 0.197627 0.828169 0.024261 0.014160 844731.000000 0 0 1
24.459183 6.084088 23.634106 34.551971 0.243797 0.817542 0.035312 0.013060 -32546.300000 0 0 1
23.028383 5.517188 23.679506 33.488278 0.235150 0.785410 0.042707 0.012825 -38163.800000 0 0 1
22.792583 4.778188 22.507806 32.387254 0.206645 0.802434 0.028411 0.015032 516018.000000 0 0 1
21.438883 4.886588 22.076206 31.158679 0.224103 0.783413 0.036164 0.007010 -97280.400000 0 0 1
20.681883 3.485288 22.016006 30.407105 0.166950 0.761153 0.049132 0.001964 401897.000000 0 0 1
19.552083 3.376188 21.188206 29.027963 0.170990 0.752586 0.049508 -0.006912 413845.000000 0 0 1
18.377883 4.085188 21.523506 28.595395 0.218732 0.718656 0.067484 -0.006709 409768.000000 0 0 1
17.108483 3.748888 20.653606 27.079989 0.215715 0.703336 0.094685 -0.011220 540079.000000 0 0 1
16.367483 2.620788 21.006206 26.758619 0.158774 0.668059 0.074632 -0.013716 -624425.000000 0 0 1
15.158883 2.486988 20.343006 25.491464 0.162613 0.646774 0.087045 -0.022779 -719861.000000 0 0 1
14.232683 1.492388 21.113806 25.506652 0.104475 0.595663 0.088904 -0.021863 -230258.000000 0 0 1
14.690083 0.111788 21.171106 25.768717 0.007610 0.606616 0.066609 -0.031359 615958.000000 0 0 1
13.775683 -0.741412 21.886306 25.871403 -0.053768 0.562424 0.067974 -0.031309 202811.000000 0 0 1
14.069183 -2.273912 21.875806 26.108686 -0.160238 0.577418 0.040474 -0.020575 -130782.000000 0 0 1
13.708483 -2.836312 20.607206 24.912328 -0.204023 0.596710 0.035439 -0.008942 248906.000000 0 1 0
13.867983 -4.209312 20.622106 25.205367 -0.294690 0.612587 0.025118 -0.000331 -238437.000000 0 0 1
13.629683 -4.785212 19.221006 24.043992 -0.337643 0.644484 0.031520 -0.005901 -26284.500000 0 1 0
12.240683 -4.850612 18.977506 23.097802 -0.377286 0.606558 0.031470 -0.009202 -143044.000000 0 1 0
12.062683 -5.169612 17.622306 21.972229 -0.404884 0.640116 0.039128 -0.007821 372493.000000 0 1 0
10.553883 -5.314112 17.290406 20.942358 -0.466461 0.599498 0.040033 -0.012762 435958.000000 0 1 0
9.993383 -6.436912 18.006006 21.575861 -0.572229 0.583492 0.040554 -0.013214 -1435090.000000 0 1 0
8.620983 -6.306112 17.914706 20.857255 -0.631545 0.537640 0.035824 -0.021885 -1022380.000000 0 1 0
7.979783 -7.268212 18.951906 21.810057 -0.738765 0.517714 0.047365 -0.024470 -274569.000000 0 1 0
7.968883 -8.620712 18.613006 22.005994 -0.824669 0.562705 0.041391 -0.028002 -490910.000000 0 1 0
8.915583 -9.284812 19.372206 23.258927 -0.805682 0.586481 0.053186 -0.023929 -270263.000000 0 1 0
9.017883 -10.767012 19.002206 23.629104 -0.873576 0.636491 0.061667 -0.023034 94941.900000 0 1 0
9.330383 -10.817812 17.611606 22.677076 -0.859089 0.681504 0.048949 -0.013629 46276.900000 0 1 0
9.603883 -12.083312 17.094306 23.031636 -0.899231 0.734435 0.041655 -0.013432 -122491.000000 0 1 0
10.701583 -11.924212 16.047906 22.676992 -0.839383 0.784596 0.062455 -0.011420 -194170.000000 0 1 0
11.009583 -13.074612 15.236806 22.897961 -0.870931 0.842737 0.071363 -0.015040 -51484.300000 0 1 0
10.701483 -12.860312 13.881606 21.739557 -0.876767 0.878195 0.062525 -0.014756 -160346.000000 0 1 0
11.132483 -13.936312 12.849906 21.983472 -0.896781 0.946501 0.065358 -0.024124 -321347.000000 0 1 0
12.445783 -13.872012 12.369706 22.368277 -0.839538 0.984833 0.051322 -0.025142 -377011.000000 0 1 0
12.535583 -13.115412 11.183006 21.312308 -0.807999 1.018410 0.025500 -0.023569 36041.600000 0 1 0
13.974983 -13.103812 10.585406 21.887458 -0.753238 1.066000 0.045559 -0.036945 444279.000000 0 1 0
14.460883 -14.307112 9.999106 22.666996 -0.780053 1.113938 0.058066 -0.034905 -303874.000000 0 1 0
15.771083 -14.030912 9.572106 23.177980 -0.727073 1.145070 0.059049 -0.036865 -495760.000000 0 1 0
16.551683 -15.342012 9.346506 24.427294 -0.747488 1.178160 0.062456 -0.033491 -411376.000000 0 1 0
16.895483 -16.027512 10.519606 25.553876 -0.759041 1.146517 0.059796 -0.023582 284728.000000 0 0 1
15.988783 -17.030212 11.004306 25.821774 -0.816928 1.130548 0.080241 -0.019281 318389.000000 0 0 1
16.494783 -17.551812 12.356506 27.070781 -0.816435 1.096793 0.076392 -0.018772 243199.000000 0 0 1
17.575583 -18.479212 12.285206 28.307396 -0.810456 1.121876 0.104764 -0.021737 153384.000000 0 0 1
17.969583 -18.925012 13.565906 29.412510 -0.811289 1.091416 0.087268 -0.021012 -519998.000000 0 0 1
19.325183 -19.627212 13.449306 30.652471 -0.793152 1.116570 0.052003 -0.019145 -795775.000000 0 0 1
20.395283 -18.740612 13.395206 30.767022 -0.743143 1.120341 0.044181 -0.011154 -293762.000000 0 0 1
21.549383 -19.491012 12.975106 31.821829 -0.735285 1.150816 0.032878 -0.010859 549307.000000 0 0 1
22.332883 -18.765212 11.852206 31.485959 -0.698807 1.184858 0.031109 0.000284 -401196.000000 0 0 1
21.906783 -18.916012 10.486906 30.784701 -0.712267 1.223185 0.037577 -0.001701 8846.980000 0 0 1
20.746083 -18.264312 10.005206 29.395394 -0.721866 1.223490 0.048378 -0.005875 190016.000000 0 0 1
20.758783 -16.713912 10.055506 28.484998 -0.677873 1.210009 0.076139 -0.028716 -252759.000000 0 0 1
21.552783 -16.209712 9.010406 28.433512 -0.644840 1.248344 0.060003 -0.016019 -78348.500000 0 0 1
21.714183 -14.826612 9.063606 27.811564 -0.599094 1.238840 0.075408 -0.031664 -121179.000000 0 0 1
-34.432807 25.227285 8.064206 43.440368 -0.632306 1.384075 0.084746 -0.005134 -388169.000000 0 0 1
-33.639234 24.354185 8.763306 42.444316 -0.626640 1.362835 0.062518 -0.012264 -976346.000000 0 0 1
-32.604084 25.043885 9.335006 42.158805 -0.654998 1.347521 0.067427 -0.009454 -989788.000000 0 0 1
-31.697924 24.172685 10.245306 41.158759 -0.651513 1.319230 0.061313 -0.021744 5826.570000 0 0 1
-30.904084 23.351685 9.414406 39.862196 -0.647087 1.332370 0.062250 -0.022303 -257930.000000 0 0 1
-30.024314 22.475185 10.042806 38.825911 -0.642583 1.309159 0.049965 -0.019110 159189.000000 0 0 1
-29.183684 21.695385 8.994306 37.460309 -0.639269 1.328325 0.053482 -0.028708 675452.000000 0 0 1
-30.092114 20.824485 8.312906 37.527309 -0.605353 1.347427 0.066657 -0.031979 918833.000000 0 0 1
-29.339894 20.074385 7.350606 36.302090 -0.600044 1.366902 0.064006 -0.032941 230026.000000 0 0 1
-30.221334 19.311185 6.352306 36.422558 -0.568598 1.395494 0.070151 -0.031317 -104039.000000 0 0 1
-30.966504 18.238485 6.901206 36.594991 -0.532273 1.381077 0.079053 -0.029380 71614.700000 0 0 1
-31.830514 17.711585 5.944106 36.908187 -0.507770 1.409041 0.081847 -0.025760 -32992.700000 0 0 1
-32.786294 16.599185 6.473606 37.314630 -0.468662 1.396427 0.092090 -0.024463 -404082.000000 0 0 1
-33.858594 16.973285 7.269906 38.566156 -0.464686 1.381157 0.087328 -0.025117 -684465.000000 0 0 1
-34.633873 15.870485 7.553306 38.838511 -0.429682 1.375069 0.095420 -0.027498 -633873.000000 0 0 1
-35.476193 16.100285 8.777206 39.935183 -0.426037 1.349201 0.083833 -0.022276 -216607.000000 0 0 1
36.252533 17.166485 8.718706 41.048145 0.442244 1.356764 0.076781 -0.013578 154873.000000 0 0 1
35.774333 17.604085 9.983506 41.102033 0.457297 1.325447 0.076305 -0.006115 -279508.000000 0 0 1
35.097923 18.959085 9.798506 41.077023 0.495270 1.329934 0.061593 -0.004540 638666.000000 0 0 1
33.757353 18.694985 9.328806 39.699974 0.505760 1.333596 0.034142 0.003957 959106.000000 0 0 1
33.029193 19.911185 9.021506 39.607707 0.542502 1.341008 0.028596 0.007418 825644.000000 0 0 1
31.584043 19.724785 8.469306 38.188324 0.558252 1.347159 0.006314 0.002716 623757.000000 0 0 1
30.874193 20.989185 8.352706 38.256102 0.597060 1.350687 0.004612 -0.007069 602838.000000 0 0 1
29.597223 20.966385 7.715706 37.082570 0.616335 1.361197 -0.013561 -0.006634 520285.000000 0 0 1
29.461363 20.467485 6.255406 36.414557 0.607176 1.398157 -0.034565 0.008220 -684180.000000 0 0 1
29.489223 19.105485 6.027306 35.650557 0.574884 1.400914 -0.017686 0.002122 34694.500000 0 0 1
29.213923 18.721485 4.631606 35.005700 0.569910 1.438097 -0.014816 0.008202 266307.000000 0 0 1
27.819453 18.991985 3.950706 33.914975 0.599012 1.454043 0.005810 0.015731 -576198.000000 0 0 1
26.891383 18.155085 4.565406 32.765783 0.593837 1.431007 0.002731 0.007859 721662.000000 0 0 1
25.520783 18.628585 4.523406 31.918580 0.630537 1.428601 0.043267 0.004573 1263130.000000 0 0 1
25.129283 19.933485 5.311306 32.512069 0.670604 1.406697 0.073127 0.001941 -813298.000000 0 0 1
25.606083 21.056485 4.632206 33.473936 0.688205 1.431968 0.045688 -0.005939 -30330.700000 0 0 1
25.027083 22.246685 5.093106 33.870483 0.726651 1.419854 0.068235 -0.004663 -841574.000000 0 0 1
25.839183 23.515485 4.852006 35.272984 0.738351 1.432803 0.046810 -0.006521 -430952.000000 0 0 1
27.032583 23.485185 5.583406 36.242087 0.715292 1.416122 0.030363 -0.012914 -200012.000000 0 0 1
27.792603 24.661885 5.501206 37.561957 0.725784 1.423811 0.028688 -0.008935 -904599.000000 0 0 1
29.237303 24.520285 5.960406 38.621117 0.697876 1.415847 0.026989 -0.011818 -655526.000000 0 0 1
30.085353 23.547385 5.371606 38.580590 0.664094 1.431112 0.017836 -0.011496 209004.000000 0 0 1
30.374583 23.547885 3.984806 38.639317 0.659466 1.467484 0.025905 -0.014673 -625428.000000 0 0 1
31.126173 24.719585 3.355906 39.889330 0.671178 1.486566 0.040118 -0.026949 -570675.000000 0 0 1
30.336293 25.868185 3.209506 39.996932 0.706068 1.490466 0.029005 -0.024919 -480485.000000 0 0 1
31.073713 26.949985 2.718806 41.222194 0.714448 1.504794 0.073877 -0.024837 -1585300.000000 0 0 1
30.524543 28.346785 2.893306 41.757145 0.748423 1.501452 0.071723 -0.019643 -206428.000000 0 0 1
29.317633 28.687385 2.258006 41.080266 0.774533 1.515803 0.100474 -0.025994 230139.000000 0 0 1
28.186023 27.952885 2.740006 39.790995 0.781245 1.501882 0.067777 -0.013088 -1077370.000000 0 0 1
26.861283 28.595585 2.331106 39.302291 0.816661 1.511449 0.033122 -0.003223 -475967.000000 0 0 1
26.761283 29.930985 2.763906 40.245115 0.841251 1.502065 0.039311 -0.011903 1044470.000000 0 0 1
25.470683 30.464885 2.373306 39.780617 0.874447 1.511101 0.032886 -0.003095 1064040.000000 0 0 1
25.180783 31.852685 2.987406 40.713511 0.901851 1.497354 0.038239 -0.015862 -438007.000000 0 0 1
24.945983 31.816185 4.349306 40.663106 0.905847 1.463632 0.026297 -0.028659 339419.000000 0 0 1
26.113183 31.957285 5.163106 41.591154 0.885699 1.446336 0.040829 -0.030861 293545.000000 0 0 1
25.746583 31.650285 6.610306 41.331867 0.887895 1.410174 0.037827 -0.034852 36623.000000 0 0 1
25.398983 30.345785 7.089206 40.202386 0.873907 1.393531 0.043225 -0.037598 210228.000000 0 0 1
26.329283 29.361585 6.704306 40.003519 0.839793 1.402409 0.059024 -0.038392 -194129.000000 0 0 1
25.871583 27.964685 7.117406 38.755901 0.824258 1.386101 0.060921 -0.030511 -223268.000000 0 0 1
24.610683 27.748185 6.538606 37.661663 0.845250 1.396298 0.047874 -0.028732 -348380.000000 0 0 1
24.147483 26.493585 6.873906 36.500158 0.831693 1.381340 0.053044 -0.025950 -328161.000000 0 0 1
22.777983 26.214685 6.193606 35.276153 0.855431 1.394307 0.062152 -0.015405 -7613.680000 0 0 1
22.670883 26.117985 4.756706 34.910519 0.855934 1.434117 0.045537 -0.011198 126654.000000 0 0 1
22.897283 27.325885 4.075606 35.883146 0.873349 1.456971 0.044034 -0.009811 -354285.000000 0 0 1
23.147783 27.182085 2.592806 35.796763 0.865384 1.498302 0.041029 0.004292 -67038.500000 0 0 1
24.318983 26.520385 2.163606 36.047537 0.828672 1.510739 0.027082 0.016397 125809.000000 0 0 1
24.176383 26.051085 0.810206 35.550147 0.822705 1.548004 0.048547 0.013337 548817.000000 0 0 1
25.470083 25.301485 0.286406 35.902260 0.782077 1.562819 0.049033 0.011048 255456.000000 0 0 1
26.498783 26.272885 -0.024494 37.315554 0.781118 1.571453 0.033635 0.010897 1251030.000000 0 0 1
27.622203 25.756185 -0.765794 37.775039 0.750454 1.591070 0.030435 0.018496 1198630.000000 0 0 1
28.498403 24.606285 -0.136094 37.651650 0.712238 1.574411 0.026227 0.009937 -592131.000000 0 0 1
27.771603 23.378985 -0.211194 36.302665 0.699732 1.576614 0.026538 0.008567 481525.000000 0 0 1
28.390633 22.393085 0.589906 36.163881 0.667843 1.554484 0.029800 0.000864 175299.000000 0 0 1
27.359583 21.387185 1.199606 34.747626 0.663487 1.536266 0.016142 0.007094 276735.000000 0 0 1
26.766083 20.414585 0.354506 33.664583 0.651582 1.560266 0.027988 -0.003933 564011.000000 0 0 1
25.716283 19.741885 1.017506 32.436161 0.654721 1.539422 0.033918 -0.004184 -168053.000000 0 0 1
25.083083 18.615785 0.184306 31.236877 0.638468 1.564896 0.040673 -0.012286 -718762.000000 0 0 1
23.774383 18.235885 0.491606 29.966823 0.654317 1.554391 0.047188 -0.016922 -286824.000000 0 0 1
23.307383 17.343985 -0.505994 29.056909 0.639741 1.588211 0.070338 -0.031691 -297835.000000 0 0 1
21.838583 16.972585 -0.245994 27.659589 0.660673 1.579690 0.080500 -0.021313 -852117.000000 0 0 1
21.345283 16.094785 -1.251194 26.762449 0.646069 1.617565 0.085366 -0.019739 153855.000000 0 0 1
20.038083 15.622185 -1.078394 25.431091 0.662193 1.613214 0.084498 -0.019129 -74357.500000 0 0 1
18.835983 16.546085 -1.378294 25.109100 0.720769 1.625716 0.086244 -0.025047 -364214.000000 0 0 1
18.878383 17.686085 -0.580994 25.875249 0.752802 1.593252 0.082772 -0.023222 -418696.000000 0 0 1
17.793983 18.466885 -0.968294 25.662994 0.803953 1.608536 0.068791 -0.026391 -452695.000000 0 0 1
17.835983 19.972485 -0.466894 26.781345 0.841847 1.588231 0.074986 -0.018482 -12312.000000 0 0 1
17.475583 20.159485 0.918706 26.695409 0.856592 1.536375 0.086488 -0.016184 148526.000000 0 0 1
17.728583 21.462085 1.409506 27.873114 0.880377 1.520206 0.090476 -0.013024 18207.000000 0 0 1
16.657583 22.502185 0.992006 28.014416 0.933555 1.535378 0.080413 -0.016780 419039.000000 0 0 1
15.382783 22.350985 1.622106 27.181387 0.968008 1.511084 0.081298 -0.015380 280097.000000 0 0 1
14.578683 23.403385 1.168506 27.597497 1.013687 1.528443 0.054563 -0.010300 487357.000000 0 0 1
13.040483 23.353685 1.462706 26.787839 1.061534 1.516166 0.038843 -0.011740 864977.000000 0 0 1
12.892683 23.757685 2.837206 27.179011 1.073595 1.466216 0.041589 -0.000106 308673.000000 0 0 1
11.538283 23.603585 3.241606 26.472046 1.116120 1.448034 0.025760 0.000303 431094.000000 0 0 1
11.225383 23.765285 4.720706 26.703615 1.129518 1.393081 0.036507 0.000088 95414.100000 0 0 1
11.803083 22.748685 5.559706 26.224526 1.092185 1.357171 0.045411 -0.020505 642934.000000 0 0 1
11.126483 22.787985 6.858606 26.270352 1.116584 1.306658 0.045801 -0.006550 -184588.000000 0 0 1
11.614483 21.768685 7.928606 25.915915 1.080677 1.259875 0.051679 -0.001596 245648.000000 0 0 1
12.828983 21.944385 8.644506 26.848954 1.041767 1.242989 0.058973 -0.004194 73536.300000 0 0 1
14.004583 21.780585 7.918206 27.078040 0.999369 1.274038 0.078942 -0.008489 -818382.000000 0 0 1
15.320983 21.761585 8.705306 28.001455 0.957365 1.254670 0.088608 -0.012743 -238011.000000 0 0 1
15.559883 20.581985 9.429306 27.470710 0.923469 1.220422 0.100993 -0.015244 597249.000000 0 0 1
16.865183 20.483285 10.016206 28.360602 0.881971 1.209836 0.103493 -0.020928 696897.000000 0 0 1
17.287583 21.335285 11.244806 29.673230 0.889818 1.182130 0.086753 -0.020906 -595929.000000 0 0 1
16.769783 20.891785 12.460606 29.545880 0.894413 1.135436 0.086363 -0.019358 -129569.000000 0 0 1
17.042083 21.726185 13.514706 30.742592 0.905638 1.115634 0.070744 -0.016244 -842134.000000 0 0 1
18.054383 21.079685 14.459806 31.295365 0.862551 1.090499 0.062512 -0.013203 482768.000000 0 0 1
19.372083 21.424585 13.999706 32.098010 0.835666 1.119475 0.071112 -0.008125 492013.000000 0 0 1
20.368683 21.051985 14.982406 32.902003 0.801893 1.098015 0.059429 -0.007020 534891.000000 0 0 1
21.754083 21.482185 14.455306 33.818342 0.779110 1.129137 0.053053 -0.007891 -8426.960000 0 0 1
22.236183 20.778585 13.269706 33.200640 0.751525 1.159626 0.060213 -0.008449 554449.000000 0 0 1
23.634083 21.048085 13.179306 34.282443 0.727587 1.176203 0.049179 -0.003296 601990.000000 0 0 1
24.325783 20.631885 11.846906 34.025984 0.703418 1.215176 0.060845 -0.007597 148656.000000 0 0 1
23.899583 21.433085 10.754706 33.856032 0.731043 1.247536 0.074321 -0.013660 742323.000000 0 0 1
24.808183 21.301185 9.655006 34.094069 0.709486 1.283681 0.076202 -0.015165 101794.000000 0 0 1
24.566583 22.397485 8.651806 34.351391 0.739245 1.316193 0.068089 -0.012326 -58765.900000 0 0 1
24.843783 23.723685 9.061006 35.526450 0.762340 1.312897 0.054413 -0.018183 1145460.000000 0 0 1
26.244783 23.998685 8.808006 36.637501 0.740724 1.328009 0.037646 -0.005142 970529.000000 0 0 1
26.942083 25.099185 9.688706 38.075136 0.750001 1.313504 0.062766 -0.009606 1635840.000000 0 0 1
28.302713 25.413185 9.244806 39.145114 0.731657 1.332376 0.057468 -0.011679 1486120.000000 0 0 1
28.888483 26.395585 10.024106 40.394976 0.740336 1.320024 0.069923 -0.017883 184781.000000 0 0 1
30.152293 26.980785 9.349906 41.527633 0.729944 1.343700 0.071276 -0.025798 231181.000000 0 0 1
29.790493 27.721885 8.213606 41.514331 0.749446 1.371632 0.084697 -0.029236 68711.300000 0 0 1
30.954993 28.126085 7.537406 42.498244 0.737553 1.392495 0.073090 -0.022532 -383576.000000 0 0 1
30.865683 29.104685 6.357006 42.897373 0.756042 1.422057 0.083129 -0.018322 -69487.700000 0 0 1
30.590993 30.423485 6.729206 43.665541 0.782653 1.416072 0.096789 -0.024676 113677.000000 0 0 1
30.318953 31.205685 5.555006 43.862191 0.799810 1.443809 0.101131 -0.028046 68106.300000 0 0 1
30.239583 32.733585 5.849806 44.945970 0.824982 1.440274 0.073563 -0.022967 -187288.000000 0 0 1
29.111253 33.165785 6.553006 44.613633 0.850411 1.423379 0.065170 -0.026614 -331179.000000 0 0 1
29.170063 -33.934817 6.888606 45.276012 -0.860760 1.418056 0.054457 -0.020022 105858.000000 0 0 1
27.829773 -33.322317 7.381406 44.038145 -0.874976 1.402387 0.062995 -0.024479 310782.000000 0 0 1
26.915783 -33.256917 6.311406 43.247147 -0.890393 1.424335 0.053482 -0.031620 386458.000000 0 0 1
25.671783 -32.569917 6.599506 41.992778 -0.903289 1.412984 0.039930 -0.030288 1118980.000000 0 0 1
24.656883 -32.938317 5.465706 41.506247 -0.928206 1.438729 0.034633 -0.021541 -293763.000000 0 0 1
25.034983 -32.544017 4.192306 41.272737 -0.915079 1.469045 0.025470 -0.009720 11717.700000 0 0 1
24.023483 -32.664017 3.165606 40.670466 -0.936658 1.492882 0.035177 -0.015952 183157.000000 0 0 1
24.375783 -31.971017 1.887806 40.247839 -0.919385 1.523875 0.038353 -0.011240 -91996.000000 0 0 1
24.380683 -30.544517 2.073806 39.136759 -0.897153 1.517783 0.043101 -0.003888 640229.000000 0 0 1
25.293983 -30.015217 1.068306 39.266272 -0.870552 1.543586 0.041304 -0.002722 317431.000000 0 0 1
25.620883 -28.503517 1.267606 38.346929 -0.838607 1.537734 0.049885 -0.007670 74789.000000 0 0 1
24.470683 -27.680817 1.186906 36.965534 -0.846875 1.538682 0.047644 -0.005898 23873.600000 0 0 1
23.883483 -27.599617 -0.117494 36.498951 -0.857455 1.574015 0.039963 -0.004698 -828143.000000 0 0 1
22.571183 -26.858617 -0.117494 35.083578 -0.871919 1.574145 0.039945 -0.006554 -702460.000000 0 0 1
22.785483 -25.448617 0.024306 34.158614 -0.840555 1.570085 0.038588 -0.003382 46182.000000 0 0 1
22.932783 -24.875517 1.336106 33.859844 -0.826012 1.531326 0.027789 0.006588 817572.000000 0 0 1
21.551383 -24.602117 2.043206 32.770428 -0.851402 1.508407 0.028857 0.009398 827352.000000 0 0 1
21.684083 -23.855517 3.257006 32.402056 -0.833044 1.470108 0.020611 0.009634 666135.000000 0 0 1
20.387783 -23.517917 3.805706 31.356618 -0.856570 1.449128 0.025881 0.014811 871555.000000 0 0 1
20.436183 -22.738717 5.131706 31.000342 -0.838678 1.404494 0.023896 0.016843 -76874.400000 0 0 1
20.602583 -21.329917 5.104006 30.091239 -0.802742 1.400355 0.032085 0.015087 248446.000000 0 0 1
19.482583 -20.601017 4.623506 28.728901 -0.813293 1.409158 0.023324 0.012125 -116179.000000 0 0 1
19.577883 -19.020717 4.919406 27.735929 -0.770964 1.392487 0.029164 0.009339 43873.000000 0 0 1
19.460283 -18.624417 6.289306 27.660927 -0.763454 1.341419 0.046049 -0.004479 276464.000000 0 0 1
18.081283 -18.495417 6.614306 26.697608 -0.796720 1.320440 0.038224 -0.001438 557939.000000 0 0 1
19.624536 -26.207105 -11.875494 34.827605 -0.928048 1.918755 0.046276 -0.007585 -137891.000000 0 0 1
19.385836 -24.887515 -12.323094 33.868240 -0.909031 1.943198 0.061149 -0.009064 -146794.000000 0 0 1
17.992436 -24.664115 -12.416594 32.957823 -0.940546 1.957073 0.045118 -0.010781 -131085.000000 0 0 1
17.682736 -23.251315 -12.924794 31.942966 -0.920606 1.987361 0.037927 -0.014869 -106519.000000 0 0 1
17.774836 -22.158915 -12.053394 30.858493 -0.894744 1.972082 0.047551 -0.020069 329771.000000 0 0 1
19.075136 -21.831215 -11.546694 31.205590 -0.852672 1.949827 0.039712 -0.020381 -38449.500000 0 0 1
19.361036 -22.350215 -10.110394 31.250630 -0.856939 1.900250 0.052665 -0.006448 -80512.600000 0 0 1
18.575436 -21.851015 -9.043394 30.071525 -0.866247 1.876254 0.053763 -0.012091 233781.000000 0 0 1
17.210636 -22.239815 -9.063594 29.545965 -0.912195 1.882586 0.066588 -0.001555 -41768.700000 0 0 1
16.345636 -21.373615 -8.103294 28.101149 -0.917917 1.863312 0.060910 -0.015744 -946483.000000 0 0 1
16.052736 -20.038215 -8.375894 27.006961 -0.895381 1.886135 0.052202 -0.023009 58286.200000 0 0 1
15.280036 -19.463015 -7.335694 25.808929 -0.905219 1.859000 0.056978 -0.029942 -122895.000000 0 0 1
13.783636 -19.500015 -7.700394 25.090541 -0.955486 1.882735 0.056336 -0.020826 -424726.000000 0 0 1
13.330736 -20.872015 -7.761794 25.953708 -1.002413 1.874507 0.048327 -0.021986 67855.600000 0 0 1
11.977936 -20.882315 -8.230994 25.441919 -1.050021 1.900245 0.058553 -0.019388 433944.000000 0 0 1
11.320136 -22.236715 -7.887694 26.169308 -1.099916 1.876968 0.066467 -0.018230 8464.290000 0 0 1
10.887236 -22.410015 -6.508594 25.750776 -1.118557 1.826321 0.067628 -0.026262 289222.000000 0 0 1
10.290736 -23.639615 -6.245794 26.528109 -1.160219 1.808468 0.059100 -0.025075 -51536.600000 0 0 1
11.002436 -24.301215 -5.061094 27.151746 -1.145656 1.758293 0.064360 -0.021161 590324.000000 0 0 1
10.085836 -25.222665 -4.431294 27.523504 -1.190400 1.732500 0.063449 -0.017749 715163.000000 0 0 1
10.721836 -25.877125 -3.314194 28.205801 -1.177992 1.688569 0.057536 -0.021281 203653.000000 0 0 1
9.791636 -26.842705 -2.522794 28.683992 -1.221017 1.658861 0.061430 -0.020117 421281.000000 0 0 1
8.901336 -26.154135 -1.644494 27.676288 -1.242752 1.630250 0.050929 -0.016080 -55603.100000 0 0 1
8.242336 -27.121005 -0.849094 28.358525 -1.275757 1.600742 0.052023 -0.017150 36986.300000 0 0 1
7.453336 -26.541735 0.337506 27.570451 -1.297031 1.558554 0.053357 -0.012168 -718237.000000 0 0 1
6.251536 -25.937215 0.028106 26.679985 -1.334282 1.569743 0.052984 -0.021095 -822917.000000 0 0 1
5.573836 -25.615905 1.226906 26.243999 -1.356543 1.524029 0.053529 -0.014005 279084.000000 0 0 1
4.139036 -25.033815 1.107806 25.397849 -1.406941 1.527164 0.043252 -0.021519 369709.000000 0 0 1
3.121936 -25.876945 0.655306 26.072824 -1.450731 1.545660 0.045103 -0.024905 -108015.000000 0 0 1
1.847036 -25.336295 0.969306 25.422016 -1.498024 1.532658 0.038174 -0.020495 -255844.000000 0 0 1
0.697836 -26.138985 0.403806 26.151416 -1.544106 1.555355 0.036834 -0.013271 -543002.000000 0 0 1
0.344436 -27.274635 1.148606 27.300982 -1.558169 1.528712 0.033581 -0.008462 -183489.000000 0 0 1
0.985836 -28.516405 0.855806 28.546271 -1.536239 1.540812 0.027882 -0.010821 -113315.000000 0 0 1
0.483136 -29.700035 1.693006 29.752172 -1.554531 1.513862 0.039354 -0.002368 44240.000000 0 0 1
0.765336 -29.556115 3.066406 29.724611 -1.544908 1.467452 0.040438 -0.005376 143411.000000 0 0 1
0.136836 -30.577895 3.835106 30.817761 -1.566321 1.446028 0.043227 -0.003831 129616.000000 0 0 1
0.439636 -30.422185 5.364006 30.894581 -1.556346 1.396289 0.045097 -0.008713 -232652.000000 0 0 1
1.740136 -30.729755 5.813106 31.323124 -1.514230 1.384129 0.030940 0.001084 -222885.000000 0 0 1
1.794536 -30.778845 7.180406 31.656214 -1.512558 1.341980 0.035511 -0.000545 -532575.000000 0 0 1
3.172836 -31.147525 7.698406 32.241288 -1.469282 1.329692 0.030221 -0.000293 -368968.000000 0 0 1
3.530036 -32.502225 7.395206 33.519320 -1.462611 1.348341 0.030388 -0.003434 1071790.000000 0 0 1
4.899236 -32.828735 7.734706 34.081579 -1.422653 1.341855 0.020534 -0.002794 1179840.000000 0 0 1
5.318836 34.217875 7.495206 35.430652 1.416590 1.357640 0.023016 0.004315 -317202.000000 0 0 1
5.148636 33.799127 6.163006 34.740065 1.419628 1.392449 0.023261 0.000327 3370.780000 0 0 1
4.975736 32.417198 6.075806 33.354881 1.418494 1.387617 0.015154 -0.002287 -586174.000000 0 0 1
5.221436 31.982718 4.576606 32.727710 1.408966 1.430498 0.027331 -0.007200 625829.000000 0 0 1
6.531936 31.885958 3.995606 32.792459 1.368739 1.448648 0.033487 -0.003515 497533.000000 0 0 1
7.257136 30.775818 4.581606 31.950088 1.339220 1.426901 0.020419 -0.005265 -118949.000000 0 0 1
8.633336 30.658758 3.872106 32.085622 1.296310 1.449821 0.009737 -0.004078 367008.000000 0 0 1
9.522436 31.725228 4.253506 33.395497 1.279199 1.443082 0.013163 -0.010890 9796.340000 0 0 1
10.797936 31.577408 3.676906 33.574511 1.241310 1.461061 0.018734 -0.017870 171465.000000 0 0 1
11.947936 32.042348 4.614906 34.507428 1.213886 1.436658 0.034675 -0.029241 423.448000 0 0 1
12.168836 31.196398 5.700506 33.967508 1.198878 1.402176 0.035481 -0.023832 157090.000000 0 0 1
13.391036 31.630438 6.276606 34.917048 1.170316 1.390056 0.074678 -0.029839 174384.000000 0 0 1
14.053136 30.556738 7.155706 34.386175 1.139738 1.361166 0.069265 -0.027490 -419002.000000 0 0 1
13.490436 30.369568 8.416306 34.280268 1.152769 1.322746 0.048942 -0.020892 -115102.000000 0 0 1
14.109536 29.353698 9.137106 33.826104 1.122729 1.297279 0.041214 -0.014786 -246020.000000 0 0 1
13.908436 29.386578 10.675906 34.219739 1.128742 1.253519 0.043311 -0.004725 -131725.000000 0 0 1
14.610036 30.414578 11.333406 35.594182 1.122981 1.246749 0.045546 -0.012400 398733.000000 0 0 1
13.937136 30.748218 12.528406 36.009133 1.145229 1.215442 0.029858 0.000739 73226.900000 0 0 1
14.853836 31.630218 13.379606 37.418191 1.131756 1.205132 0.033877 0.006099 633375.000000 0 0 1
15.981436 31.016338 14.011106 37.599609 1.095016 1.188944 0.038516 0.003093 61950.700000 0 0 1
16.727536 31.906868 14.709806 38.913199 1.087929 1.183144 0.044230 0.004174 -639388.000000 0 0 1
17.674236 31.335998 15.775906 39.283618 1.057250 1.157544 0.030731 0.002040 222313.000000 0 0 1
18.979436 30.971938 15.369006 39.442189 1.021022 1.170535 0.038633 0.002623 239290.000000 0 0 1
19.187436 29.553168 15.093406 38.332210 0.994948 1.166086 0.025367 0.003863 -458738.000000 0 0 1
20.604836 29.309878 14.617706 38.695033 0.958060 1.183413 0.039286 -0.005992 -452445.000000 0 0 1
21.678536 29.375038 15.505206 39.664382 0.935025 1.169176 0.057337 -0.011220 77797.500000 0 0 1
22.961036 29.547618 14.922306 40.285806 0.910184 1.191345 0.069173 -0.016424 -439343.000000 0 0 1
24.006936 29.750658 15.956006 41.424978 0.891839 1.175395 0.094182 -0.031945 -1033150.000000 0 0 1
24.156736 28.523868 16.592806 40.895968 0.868107 1.153017 0.079087 -0.014199 851522.000000 0 0 1
25.207336 28.526998 17.627006 41.951290 0.847099 1.137155 0.086337 -0.031914 904578.000000 0 0 1
25.974336 27.176878 17.751806 41.573735 0.808019 1.129629 0.056832 -0.013495 184925.000000 0 0 1
25.253636 26.106998 18.405106 40.719398 0.802012 1.101792 0.040840 -0.002313 294466.000000 0 0 1
25.293336 26.081118 19.823006 41.387548 0.800731 1.071326 0.083921 -0.008030 -209142.000000 0 0 1
24.858736 24.693668 20.325406 40.507482 0.782067 1.045153 0.078144 -0.006192 211091.000000 0 0 1
25.745736 23.593488 20.110506 40.297991 0.741804 1.048300 0.045774 -0.007432 109658.000000 0 0 1
25.175736 22.417988 20.574806 39.493120 0.727519 1.022807 0.043194 -0.003624 -14396.100000 0 0 1
26.097636 21.212088 20.364706 39.316161 0.682496 1.026317 0.022502 -0.010309 -97839.100000 0 0 1
25.352636 20.018588 20.585506 38.304870 0.668371 1.003431 0.021727 0.012116 -33671.800000 0 0 1
26.003336 18.839388 20.253506 37.964464 0.626980 1.008080 0.018474 -0.001717 -120013.000000 0 0 1
26.798636 18.211788 21.443606 38.854399 0.596889 0.986160 0.036113 0.010369 235279.000000 0 0 1
25.955336 17.753388 22.501006 38.667267 0.599905 0.949717 0.016539 0.016281 336065.000000 0 0 1
26.712736 17.354488 23.655706 39.677965 0.576144 0.932046 0.039966 0.022334 84896.800000 0 0 1
25.878936 16.678388 24.777206 39.519589 0.572483 0.893151 0.026174 0.029542 75452.700000 0 0 1
25.434236 15.464188 24.205106 38.365722 0.546286 0.888078 0.034306 0.017975 -20862.900000 0 0 1
24.487036 14.748188 24.938806 37.935050 0.542098 0.853423 0.034551 0.018673 -380705.000000 0 0 1
23.983736 13.548188 24.142306 36.628185 0.514204 0.851151 0.043501 0.011672 -678386.000000 0 0 1
22.856636 13.117088 24.828306 36.206748 0.520996 0.815181 0.030114 0.007201 -626367.000000 0 0 1
22.232536 12.062288 24.196406 35.003579 0.497106 0.807572 0.036527 0.007403 292498.000000 0 0 1
20.879336 11.603188 24.817306 34.445309 0.507229 0.766296 0.035628 0.005725 1060470.000000 0 0 1
19.699536 12.371588 24.559806 33.827681 0.560764 0.758270 0.034609 -0.001911 790320.000000 0 0 1
18.525536 11.633688 24.863306 33.116796 0.560740 0.721560 0.047622 0.001896 80576.700000 0 0 1
17.220336 12.423188 24.944706 32.758418 0.624961 0.705211 0.049913 -0.012651 -226895.000000 0 0 1
17.189636 13.099788 26.189606 33.955611 0.651184 0.689932 0.058486 0.000548 -85607.800000 0 0 1
16.005036 13.837588 26.285406 33.742593 0.712896 0.677730 0.068323 -0.009382 -441986.000000 0 0 1
15.559836 14.252788 27.702906 34.823863 0.741584 0.650939 0.062832 0.006691 -87871.200000 0 0 1
14.939336 13.229788 28.492206 34.785297 0.724784 0.610978 0.050912 0.007297 176136.000000 0 0 1
15.164636 13.442788 29.914806 36.132677 0.725282 0.595415 0.041998 0.009144 -498294.000000 0 0 1
16.575236 13.228288 30.462806 37.117497 0.673566 0.608139 0.052270 0.007362 -691396.000000 0 0 1
17.445436 14.251088 30.092706 37.589995 0.684958 0.642582 0.068561 -0.011212 589315.000000 0 0 1
18.809336 13.779588 30.060906 38.043741 0.632267 0.659715 0.066344 0.006502 750336.000000 0 0 1
19.779436 14.891888 29.577106 38.572006 0.645353 0.696952 0.067806 0.003810 -375800.000000 0 0 1
19.630336 15.340588 28.239306 37.658228 0.663342 0.722909 0.062971 -0.003346 324791.000000 0 0 1
19.959436 14.508288 27.121406 36.666608 0.628545 0.738208 0.053956 0.000389 -460024.000000 0 0 1
19.774336 15.384588 25.822306 35.979180 0.661187 0.770301 0.035285 -0.002296 -810694.000000 0 0 1
20.712936 16.371088 25.675006 36.827221 0.668847 0.799347 0.030514 0.005743 -441241.000000 0 0 1
20.855836 16.822888 24.323906 36.188781 0.678769 0.833702 0.016811 0.004168 160516.000000 0 0 1
21.929236 17.926788 24.079606 37.176451 0.685311 0.866220 0.027491 0.007831 138679.000000 0 0 1
21.760036 18.569388 22.875506 36.627996 0.706448 0.896259 0.018312 0.000404 -388210.000000 0 0 1
22.817236 19.425288 22.532006 37.492124 0.705273 0.926070 0.034206 0.000980 -271310.000000 0 0 1
22.889036 20.784888 23.280306 38.702612 0.737257 0.925397 0.043973 -0.009733 4821.620000 0 0 1
21.832036 21.660088 22.961306 38.379927 0.781445 0.929464 0.049830 -0.002475 -53883.300000 0 0 1
22.026736 22.796888 23.684706 39.570703 0.802578 0.929117 0.074812 -0.004722 428070.000000 0 0 1
21.107436 23.978238 23.242606 39.505677 0.848987 0.941797 0.078127 -0.015389 321071.000000 0 0 1
21.466036 24.348358 21.934806 39.176127 0.848228 0.976528 0.093749 -0.013484 238208.000000 0 0 1
20.724136 25.510108 21.658206 39.361572 0.888547 0.988148 0.085189 -0.017137 -98758.000000 0 0 1
21.345736 26.414988 20.526206 39.682706 0.891141 1.027152 0.087546 -0.018470 -157846.000000 0 0 1
21.278136 25.920338 19.251106 38.668179 0.883438 1.049674 0.073036 -0.007351 -5668.370000 0 0 1
21.722436 26.739888 18.199906 38.963091 0.888564 1.084781 0.078322 -0.013496 -334170.000000 0 0 1
21.790636 26.091888 16.812306 37.924558 0.874987 1.111509 0.057909 -0.006352 -36850.900000 0 0 1
20.581336 25.744908 16.132806 36.696854 0.896401 1.115617 0.034709 -0.001398 109706.000000 0 0 1
20.779036 25.302998 14.792606 35.928140 0.883257 1.146447 0.037905 0.004160 -896520.000000 0 0 1
19.532136 24.723528 14.142906 34.536632 0.902169 1.148885 0.052207 -0.001123 656466.000000 0 0 1
18.397536 25.594968 13.954706 34.471808 0.947567 1.154020 0.047140 0.002135 710597.000000 0 0 1
17.556136 25.883378 15.074506 34.718985 0.974798 1.121662 0.043426 -0.006549 -334034.000000 0 0 1
16.096336 26.194258 14.622306 34.044721 1.019784 1.126854 0.045622 -0.009355 679528.000000 0 0 1
15.278836 25.072098 14.143706 32.589835 1.023497 1.121878 0.051753 -0.002663 693166.000000 0 0 1
14.958936 24.088538 15.121406 32.135407 1.015080 1.080879 0.061476 -0.010615 241064.000000 0 0 1
13.838436 24.482068 16.184206 32.446918 1.056322 1.048594 0.073345 -0.017352 576767.000000 0 0 1
14.344436 25.444628 17.101806 33.847655 1.057457 1.041115 0.060465 -0.019358 563862.000000 0 0 1
13.259136 25.958348 17.867406 34.188956 1.098558 1.020890 0.047909 -0.011579 378191.000000 0 0 1
13.590336 27.319948 18.589906 35.730399 1.109190 1.023614 0.046096 -0.021771 -156113.000000 0 0 1
13.797336 28.484308 17.840106 36.331690 1.119720 1.057520 0.041048 -0.009682 353899.000000 0 0 1
14.398936 29.519828 18.636206 37.763180 1.116979 1.054685 0.030544 -0.004127 -344025.000000 0 0 1
14.383136 30.973988 18.090806 38.646343 1.136064 1.083644 0.016424 -0.010872 195826.000000 0 0 1
13.072836 31.528878 18.157106 38.660700 1.177741 1.081899 0.015318 -0.000194 454162.000000 0 0 1
12.982636 32.693399 17.309306 39.204837 1.192790 1.113516 0.013777 0.004579 -271081.000000 0 0 1
11.601236 33.340518 17.446206 39.377010 1.235938 1.111792 0.024582 0.001683 -808890.000000 0 0 1
11.449736 -33.906475 16.858606 39.559551 -1.245134 1.130555 0.030333 0.002723 -54052.600000 0 0 1
12.115436 -32.709355 17.297506 38.934424 -1.216068 1.110434 0.023117 -0.008779 -242603.000000 0 0 1
12.104836 -32.297775 18.770106 39.268183 -1.212211 1.072422 0.036205 -0.021169 -567242.000000 0 0 1
12.904036 -33.069565 19.587206 40.543420 -1.198759 1.066585 0.047453 -0.015360 -70846.200000 0 0 1
12.729936 -32.667425 20.912506 40.823336 -1.199216 1.032972 0.040121 -0.014096 771322.000000 0 0 1
13.934936 -33.160895 21.825006 42.073249 -1.172980 1.025422 0.057254 -0.013577 521149.000000 0 0 1
15.183636 -32.641525 21.508706 41.936098 -1.135404 1.032246 0.062222 -0.013888 -561686.000000 0 0 1
16.258936 -33.116205 22.320406 43.118865 -1.114402 1.026696 0.065905 -0.008862 217585.000000 0 0 1
17.458036 -32.273575 21.856106 42.708969 -1.074936 1.033582 0.076505 -0.017397 -428715.000000 0 0 1
17.557336 -30.940525 22.360406 42.018613 -1.054651 1.009653 0.085886 -0.017868 -162042.000000 0 0 1
18.661336 -30.263995 21.827406 41.720384 -1.018247 1.020214 0.085597 -0.014425 -302505.000000 0 0 1
-5.109164 13.163985 18.162253 23.005684 -1.200576 0.660854 0.023403 -0.000606 -374962.000000 0 1 0
-4.846564 14.544985 17.974653 23.624859 -1.249155 0.706195 0.022432 0.000200 502862.000000 0 1 0
-6.015464 15.326785 17.676053 24.156552 -1.196789 0.749941 0.011175 0.000838 410916.000000 0 1 0
-5.710764 16.838685 17.484653 24.937266 -1.243824 0.793793 0.023998 -0.005425 -315793.000000 0 1 0
-5.382164 17.363985 18.698253 26.078734 -1.270226 0.771318 0.042462 -0.001296 180757.000000 0 0 1
-4.875564 18.681785 18.442053 26.699992 -1.315511 0.808321 0.041670 -0.004990 -129340.000000 0 0 1
-4.241864 19.307685 19.722353 27.924028 -1.354534 0.786558 0.042781 -0.004664 -117484.000000 0 0 1
-5.211764 19.742785 20.617553 29.017642 -1.312701 0.780562 0.042878 -0.003280 -257922.000000 0 0 1
-4.584664 20.436685 21.654353 30.126206 -1.350115 0.768739 0.042493 0.004443 -315521.000000 0 0 1
-5.504664 20.813885 22.798553 31.357506 -1.312245 0.756777 0.017756 0.006040 -266702.000000 0 0 1
-5.736164 19.677285 23.611543 31.266661 -1.287145 0.714888 0.013995 -0.001303 65220.500000 0 0 1
-6.391064 19.956785 24.873013 32.523619 -1.260871 0.700116 0.005733 -0.003943 313402.000000 0 0 1
-5.446564 20.353385 26.037123 33.494136 -1.309323 0.680332 0.000156 0.006834 -197122.000000 0 0 1
-5.030064 21.725885 25.767183 34.077315 -1.343281 0.713404 0.014270 -0.001508 780917.000000 0 0 1
-3.854064 22.225785 26.444043 34.758118 -1.399099 0.706248 0.011268 0.003492 1533320.000000 0 0 1
-2.465864 21.661985 25.986033 33.920437 -1.457451 0.698064 0.015973 0.009184 220211.000000 0 0 1
-2.165164 20.351585 26.401813 33.405549 -1.464807 0.659429 0.029547 0.012532 -135991.000000 0 0 1
-0.832964 20.069585 26.019633 32.871012 -1.529316 0.657426 0.021658 0.012218 91335.700000 0 0 1
-0.256464 18.867985 26.740713 32.728159 -1.557205 0.614511 0.032543 0.016978 -231575.000000 0 0 1
-0.736064 17.673985 26.167703 31.585760 -1.529174 0.594435 0.039656 0.012490 -210112.000000 0 0 1
-0.174464 16.533285 26.799013 31.489158 -1.560244 0.552805 0.038050 0.011310 188345.000000 0 0 1
1.219136 16.076085 26.303483 30.851257 1.495106 0.549874 0.057719 0.003454 -93462.200000 0 0 1
1.269536 15.802585 24.886313 29.506982 1.490631 0.567208 0.048496 0.004886 -335484.000000 0 0 1
0.646236 14.644585 24.396733 28.461941 1.526697 0.541046 0.059753 -0.002795 -329822.000000 0 0 1
0.793936 14.604485 22.891353 27.164966 1.516487 0.568556 0.073097 -0.018989 380015.000000 0 0 1
2.154536 14.427685 22.512753 26.825812 1.422558 0.574949 0.075099 -0.025550 148502.000000 0 0 1
2.327736 13.786485 21.239053 25.427995 1.403532 0.582186 0.068139 -0.028137 -880073.000000 0 0 1
3.751136 13.455485 20.880953 25.122407 1.298918 0.589590 0.054606 -0.030759 -583966.000000 0 0 1
4.411036 14.540385 20.210253 25.285062 1.276256 0.644673 0.057365 -0.027188 230925.000000 0 0 1
5.820836 14.386385 20.144753 25.429536 1.186325 0.656425 0.045583 -0.021429 261191.000000 0 0 1
6.549636 15.458885 19.350653 25.618795 1.170043 0.714638 0.054446 -0.030949 -320768.000000 0 0 1
6.244736 15.460385 17.949753 24.499263 1.186917 0.748567 0.048364 -0.034472 32065.200000 0 1 0
6.762536 16.623885 17.310853 24.934937 1.184445 0.803432 0.034873 -0.016411 82082.700000 0 1 0
6.933236 16.398885 15.837453 23.828935 1.170802 0.843796 0.029063 -0.010324 -84113.700000 0 1 0
7.936836 15.487985 15.436153 23.262542 1.097237 0.845225 0.029257 -0.002317 -76568.300000 0 1 0
7.745536 14.105785 15.714053 22.492176 1.068642 0.797294 0.032952 -0.016841 -628497.000000 0 1 0
8.659036 13.247885 14.841753 21.697074 0.991883 0.817504 0.024459 -0.022940 -241375.000000 0 1 0
9.983436 13.723485 14.957453 22.621416 0.941870 0.848369 0.015834 -0.018041 -491248.000000 0 1 0
10.843736 12.915385 14.230553 22.065866 0.872372 0.869888 0.012605 -0.005733 -83965.800000 0 1 0
12.308736 13.388485 14.066853 22.992018 0.827392 0.912444 0.020393 -0.002918 -352799.000000 0 1 0
13.011736 13.359285 15.333353 24.143063 0.798577 0.882653 0.025349 -0.004079 570997.000000 0 1 0
14.371436 13.757485 15.292653 25.093262 0.763575 0.915452 0.035283 -0.000156 321456.000000 0 0 1
15.354636 12.902285 14.455653 24.722454 0.698827 0.946264 0.031826 -0.006003 -1729110.000000 0 1 0
16.642236 13.360985 14.677353 25.901827 0.676468 0.968358 0.048879 -0.013056 -980510.000000 0 0 1
17.492936 13.020285 13.655753 25.729559 0.639854 1.011321 0.055131 -0.012014 -538435.000000 0 0 1
18.882136 13.692785 13.730453 27.065712 0.627421 1.038747 0.066721 -0.017566 298440.000000 0 0 1
19.783436 13.097585 14.668253 27.894242 0.584798 1.017079 0.040612 -0.012743 -386526.000000 0 0 1
21.085236 13.485885 14.365853 28.858864 0.569022 1.049740 0.066783 -0.027279 -335426.000000 0 0 1
22.049536 13.035185 15.513153 29.945885 0.533907 1.026239 0.062647 -0.019563 -170480.000000 0 0 1
22.505136 11.721585 15.693353 29.835516 0.480181 1.016911 0.067491 -0.019978 619860.000000 0 0 1
23.429336 11.764885 16.781953 31.128448 0.465361 1.001405 0.044540 -0.015027 120978.000000 0 0 1
23.876536 10.400585 17.284753 31.257380 0.410813 0.984858 0.061261 -0.009393 512938.000000 0 0 1
22.760836 9.789585 17.971153 30.608070 0.406188 0.943278 0.032728 -0.004305 1106840.000000 0 0 1
22.596736 8.435985 17.562953 29.836817 0.357304 0.941429 0.027257 0.004227 64886.600000 0 0 1
21.323836 7.742285 18.119653 29.033959 0.348281 0.896837 0.045297 0.005163 9416.950000 0 0 1
21.134636 6.370085 17.705653 28.297367 0.292745 0.894768 0.046327 -0.003530 142662.000000 0 0 1
20.185536 5.707485 18.484553 27.959076 0.275558 0.848474 0.050544 0.000411 -571641.000000 0 0 1
19.810136 4.321585 17.948953 27.079189 0.214785 0.846202 0.063302 -0.004430 -848188.000000 0 0 1
19.205336 4.449185 16.692753 25.831922 0.227648 0.868193 0.072137 -0.016706 353305.000000 0 0 1
19.271136 3.287185 15.902953 25.200916 0.168950 0.887895 0.062282 -0.018163 392087.000000 0 0 1
18.324736 2.106885 16.429253 24.701321 0.114472 0.843147 0.077945 -0.012743 69922.100000 0 1 0
18.844536 1.370285 17.490653 25.747178 0.072588 0.823956 0.083145 -0.024218 -353357.000000 0 0 1
17.814336 0.951185 18.336253 25.582679 0.053344 0.771673 0.074115 -0.019350 -535746.000000 0 0 1
18.250836 0.209885 19.639353 26.811215 0.011500 0.748802 0.074821 -0.027566 -73305.300000 0 0 1
18.485236 -1.176115 19.469653 26.872934 -0.063539 0.760476 0.075624 -0.026074 655223.000000 0 0 1
17.241236 -1.886315 19.654053 26.212596 -0.108974 0.723045 0.054606 -0.015390 699467.000000 0 0 1
17.284736 -3.345315 19.269753 26.101276 -0.191178 0.740296 0.028970 -0.012924 -284547.000000 0 0 1
17.065336 -3.531115 17.877953 24.966291 -0.204038 0.772621 0.035174 -0.023168 296292.000000 0 1 0
17.123536 -4.882815 17.463753 24.940730 -0.277780 0.795104 0.059336 -0.018694 -232833.000000 0 1 0
16.698336 -5.060615 15.993953 23.669617 -0.294263 0.828860 0.038457 -0.016891 364287.000000 0 1 0
15.308836 -4.807815 15.740253 22.477346 -0.304301 0.795018 0.023301 -0.011430 735038.000000 0 1 0
14.921936 -4.778415 14.360153 21.253503 -0.309909 0.828936 0.023922 -0.014632 289846.000000 0 1 0
15.441836 -3.572515 13.537753 20.844278 -0.227353 0.863908 0.027896 -0.010502 -62541.900000 0 1 0
14.696736 -2.421415 13.740253 20.264547 -0.163292 0.825698 0.019811 -0.007865 112979.000000 0 1 0
15.429336 -1.387015 13.132053 20.308595 -0.089654 0.867644 0.030680 -0.005787 304428.000000 0 1 0
14.575636 -0.072415 12.912853 19.472960 -0.004968 0.845821 0.032939 -0.007582 -130748.000000 0 1 0
15.238936 1.115885 12.548253 19.771925 0.073095 0.883241 0.047961 -0.005010 601002.000000 0 1 0
16.064736 1.763185 13.568353 21.101772 0.109317 0.872393 0.059170 -0.008377 458068.000000 0 1 0
16.346036 3.263685 13.255853 21.296999 0.197071 0.898955 0.061806 -0.008380 687793.000000 0 1 0
15.174236 4.113285 13.330653 20.612687 0.264709 0.867519 0.052565 -0.006296 1188590.000000 0 1 0
15.345936 5.319685 12.622653 20.570079 0.333688 0.910132 0.055614 -0.010580 86607.700000 0 1 0
14.148936 6.236185 12.964653 20.178321 0.415138 0.873035 0.045336 -0.007786 111924.000000 0 1 0
14.292236 7.432285 12.140453 20.171700 0.479537 0.924974 0.031379 -0.013907 323660.000000 0 1 0
13.348236 8.469685 12.357753 20.065518 0.565414 0.907306 0.020526 -0.004170 -309122.000000 0 1 0
13.623136 9.408685 13.591353 21.420506 0.604417 0.883432 0.033653 -0.011207 -743.468000 0 1 0
13.113536 8.929285 14.828053 21.715619 0.597806 0.819168 0.034822 -0.010776 334466.000000 0 1 0
13.859136 9.446385 15.857753 23.081988 0.598270 0.813418 0.058679 -0.020041 -267576.000000 0 1 0
13.340836 8.927885 17.253353 23.566146 0.589765 0.749361 0.062391 -0.019536 197557.000000 0 1 0
12.080836 9.387785 17.703253 23.398339 0.660609 0.712694 0.060733 -0.020378 57700.600000 0 1 0
11.558436 8.841085 18.911753 23.862452 0.652971 0.655847 0.069562 -0.005622 -111248.000000 0 1 0
12.194936 9.252085 20.254153 25.387955 0.649035 0.647182 0.092339 -0.005653 571559.000000 0 0 1
13.505536 8.639385 20.333053 25.893465 0.569095 0.667683 0.098908 -0.008597 841843.000000 0 0 1
14.146736 8.972385 21.573753 27.314111 0.565214 0.660250 0.087899 0.002600 -260384.000000 0 0 1
15.665836 8.841985 21.437053 27.984752 0.513841 0.698160 0.076808 -0.000134 -514996.000000 0 0 1
16.199936 9.787585 20.551353 27.939092 0.543483 0.744278 0.087822 0.006364 -293467.000000 0 0 1
17.303436 9.232185 19.886553 27.930577 0.490123 0.778455 0.069576 -0.003989 -570468.000000 0 0 1
18.098436 10.224885 19.076953 28.214036 0.514256 0.828270 0.068350 -0.003929 -38533.100000 0 0 1
19.085136 10.966885 19.787953 29.598616 0.521556 0.838548 0.056832 -0.006813 756865.000000 0 0 1
19.879736 11.841485 18.967253 29.919582 0.537219 0.884158 0.048672 -0.003125 -265439.000000 0 0 1
20.896236 12.593285 19.732353 31.378484 0.542372 0.890723 0.036302 -0.000493 -1280950.000000 0 0 1
20.250036 13.636585 20.396753 31.812701 0.592657 0.874799 0.032105 -0.002559 595529.000000 0 0 1
21.066636 14.327485 21.355153 33.243383 0.597247 0.873186 0.005212 0.003348 100225.000000 0 0 1
22.346336 15.053385 20.910353 34.105806 0.592815 0.910815 0.011729 0.004951 26679.500000 0 0 1
23.418936 14.171085 20.668153 34.299253 0.544170 0.924062 0.007135 0.007893 879971.000000 0 0 1
24.715836 14.819185 20.581553 35.413008 0.540113 0.950611 0.019761 -0.002630 403969.000000 0 0 1
25.838736 13.831285 20.603753 35.825401 0.491482 0.958051 0.021745 -0.012347 -915532.000000 0 0 1
26.064436 13.254485 19.347353 35.062177 0.470446 0.986274 0.028235 -0.032775 885325.000000 0 0 1
27.176036 12.334285 19.479853 35.638970 0.426064 0.992511 0.045452 -0.042991 653032.000000 0 0 1
27.473236 11.626385 18.162253 34.925907 0.400336 1.023919 0.061474 -0.043575 -242138.000000 0 0 1
28.119936 12.385485 17.154953 35.191241 0.414886 1.061597 0.074527 -0.055358 425640.000000 0 0 1
28.392236 11.745385 15.927953 34.608855 0.392246 1.092545 0.078176 -0.054294 226554.000000 0 0 1
27.098836 11.508585 15.082653 33.079916 0.401607 1.097362 0.073072 -0.050453 86880.100000 0 0 1
26.571136 12.702385 14.643753 32.890962 0.445936 1.109375 0.085209 -0.045813 28370.000000 0 0 1
25.527736 12.414485 13.714653 31.525806 0.452639 1.120725 0.084918 -0.040743 131668.000000 0 0 1
25.156436 13.603285 12.772953 31.321621 0.495712 1.150753 0.074481 -0.029930 -250102.000000 0 0 1
24.258136 14.550585 13.296153 31.256429 0.540289 1.131404 0.070437 -0.027196 243880.000000 0 0 1
24.348736 15.776685 12.622053 31.639863 0.574930 1.160448 0.051334 -0.008906 6849.350000 0 0 1
23.337436 16.872585 13.155553 31.660522 0.625985 1.142283 0.055530 -0.007867 1313860.000000 0 0 1
21.991536 16.699685 12.682053 30.386537 0.649470 1.140261 0.081699 -0.027953 1005410.000000 0 0 1
21.205336 17.855985 12.862653 30.560601 0.699861 1.136370 0.070418 -0.020781 -913273.000000 0 0 1
20.303836 18.339485 11.741553 29.773252 0.734609 1.165419 0.083736 -0.009981 772938.000000 0 0 1
19.096136 17.675485 11.316253 28.375038 0.746783 1.160577 0.099739 -0.015711 1390870.000000 0 0 1
18.105236 17.613085 12.372953 28.126683 0.771620 1.115308 0.082120 -0.009485 112157.000000 0 0 1
16.726336 17.034385 11.937953 26.691859 0.794522 1.107107 0.084315 -0.001552 210483.000000 0 0 1
16.801836 15.671585 11.525853 25.704972 0.750607 1.105833 0.076335 -0.005670 95500.900000 0 0 1
15.625736 15.299985 10.850953 24.413037 0.774865 1.110210 0.071619 -0.002285 -77118.800000 0 1 0
15.690036 13.934185 10.183553 23.324740 0.726197 1.118982 0.066500 -0.009384 -98430.500000 0 1 0
15.894236 12.757385 10.988653 23.154440 0.676350 1.076309 0.054270 -0.002349 419657.000000 0 1 0
16.230436 11.698485 10.096653 22.410355 0.624533 1.103432 0.046347 -0.009452 -181703.000000 0 1 0
16.501436 10.345985 10.776953 22.259369 0.560018 1.065401 0.047894 -0.022825 -787446.000000 0 1 0
17.054836 9.355685 9.988353 21.866949 0.501741 1.096426 0.038865 -0.020008 190111.000000 0 1 0
17.483936 8.226685 10.682453 22.078976 0.439793 1.065771 0.036582 -0.016242 540052.000000 0 1 0
18.808336 8.356985 11.507053 23.579758 0.418123 1.060993 0.054983 -0.020454 57860.600000 0 1 0
18.548836 8.957785 12.762653 24.231932 0.449898 1.016097 0.062505 -0.023187 318792.000000 0 1 0
19.738836 9.087585 13.515253 25.590387 0.431462 1.014390 0.071423 -0.025832 -802614.000000 0 0 1
19.482836 9.643585 14.953853 26.385552 0.459622 0.968248 0.058971 -0.007927 399304.000000 0 0 1
18.796536 8.780585 15.903153 26.140366 0.437015 0.916784 0.049692 -0.007082 1602940.000000 0 0 1
17.568136 8.166185 15.441153 24.774083 0.435117 0.897868 0.060832 -0.023742 123381.000000 0 1 0
17.067136 6.958185 16.227153 24.556546 0.387122 0.848902 0.061825 -0.010941 -672924.000000 0 1 0
16.472836 7.102385 17.548853 25.095028 0.407074 0.796384 0.085450 -0.008791 583241.000000 0 0 1
15.833336 5.931885 18.052553 24.734115 0.358460 0.752673 0.082407 0.012023 -85120.500000 0 1 0
14.597436 5.475485 17.266753 23.263853 0.358858 0.734429 0.095408 -0.016314 -1078720.000000 0 1 0
14.190836 4.206885 17.691053 23.066232 0.288198 0.696694 0.100678 -0.005211 -12124.900000 0 1 0
13.512636 3.470885 16.716653 21.773490 0.251427 0.695470 0.079094 -0.003184 -137557.000000 0 1 0
13.281036 1.982185 16.973453 21.642853 0.148156 0.669307 0.056522 -0.000501 -86587.700000 0 1 0
14.494836 1.333585 17.264953 22.582235 0.091746 0.700474 0.047827 0.001920 174577.000000 0 1 0
14.333236 -0.055515 16.994353 22.231796 -0.003873 0.700660 0.043415 0.002801 313082.000000 0 1 0
13.443136 -0.943215 17.957753 22.451914 -0.070048 0.643782 0.044540 -0.001584 694619.000000 0 1 0
12.058436 -0.675515 17.825153 21.531332 -0.055962 0.595496 0.042758 0.005504 109142.000000 0 1 0
11.257636 -1.395415 18.743053 21.908528 -0.123324 0.544254 0.032199 -0.006257 -136132.000000 0 1 0
-25.957684 14.281485 28.368623 41.018788 -0.502984 0.807093 0.075028 -0.024002 -748304.000000 0 0 1
-25.391164 13.994185 29.583533 41.421418 -0.503721 0.775304 0.069275 -0.016613 181976.000000 0 0 1
-24.661264 12.772485 29.484423 40.504883 -0.477878 0.755509 0.073239 -0.015013 -202446.000000 0 0 1
-23.357364 12.820385 30.317443 40.361815 -0.501983 0.721006 0.054071 -0.017959 -321203.000000 0 0 1
-23.503764 12.903785 31.742643 41.551534 -0.502082 0.701408 0.056412 -0.029056 -7930.720000 0 0 1
-22.279564 12.895585 32.459250 41.427986 -0.524691 0.670501 0.029439 -0.013081 -208531.000000 0 0 1
-22.415464 13.214985 33.953683 42.777815 -0.532699 0.653893 0.020523 -0.001999 185888.000000 0 0 1
-23.087764 12.213085 -33.734104 42.663733 -0.486566 2.482744 0.019664 -0.011265 262750.000000 0 0 1
-23.412264 12.686085 -32.433524 41.964322 -0.496569 2.454169 -0.010401 -0.002224 376461.000000 0 0 1
-24.272664 11.752585 -31.484684 41.455649 -0.450920 2.433308 -0.010181 -0.016446 367298.000000 0 0 1
-23.589164 10.639885 -30.881874 40.290768 -0.423727 2.444131 -0.000657 -0.013959 309038.000000 0 0 1
-23.490264 9.527485 -31.702224 40.590596 -0.385319 2.467100 0.005450 -0.017182 -156328.000000 0 0 1
-22.835664 8.313285 -31.018324 39.404501 -0.349135 2.477015 0.017105 -0.008463 -207640.000000 0 0 1
-23.634664 7.588185 -30.093604 39.010292 -0.310666 2.451877 0.017742 -0.005914 -47216.500000 0 0 1
-22.840764 6.766185 -29.329444 37.784892 -0.287997 2.459447 0.021974 -0.006907 -367999.000000 0 0 1
-23.627264 5.962985 -28.249374 37.307264 -0.247215 2.429825 0.027622 -0.005818 139106.000000 0 0 1
-24.306964 4.798185 -28.707804 37.920827 -0.194894 2.429576 0.035224 -0.014750 211575.000000 0 0 1
-24.707164 4.067885 -27.535964 37.218557 -0.163180 2.403636 0.055394 -0.007591 -409098.000000 0 0 1
-25.264934 2.645885 -27.884834 37.721103 -0.104345 2.402733 0.043650 -0.009257 1549740.000000 0 0 1
-26.625674 2.522285 -28.406274 39.015444 -0.094449 2.386310 0.033194 -0.012645 1563500.000000 0 0 1
-26.853134 3.242585 -29.657424 40.139357 -0.120171 2.402176 0.020336 -0.012771 -113749.000000 0 0 1
-28.252954 2.884885 -30.269954 41.506892 -0.101756 2.388059 0.035939 -0.026245 468304.000000 0 0 1
-29.303914 3.270985 -29.417394 41.650952 -0.111163 2.355031 0.031317 -0.025375 -3898.960000 0 0 1
-30.592164 3.436185 -29.976354 42.968240 -0.111854 2.342894 0.046985 -0.028167 467076.000000 0 0 1
-30.880124 4.803885 -30.670144 43.787180 -0.154329 2.346805 0.055480 -0.034312 -678849.000000 0 0 1
-30.180374 4.969885 -31.862214 44.167357 -0.163208 2.376614 0.060667 -0.032133 -63848.100000 0 0 1
-30.313004 6.283885 -32.434934 44.837377 -0.204405 2.379497 0.067566 -0.031415 -612220.000000 0 0 1
-29.841774 7.581785 -31.661944 44.164394 -0.248802 2.370158 0.052198 -0.022772 198196.000000 0 0 1
-28.425584 7.776585 -31.599844 43.209250 -0.267043 2.391054 0.036926 -0.023716 680265.000000 0 0 1
-27.864214 7.178485 -30.445484 41.891199 -0.252141 2.384412 0.028303 -0.024785 -541426.000000 0 0 1
-27.921934 8.078185 -29.153334 41.168050 -0.281624 2.357677 0.017100 -0.010959 -875907.000000 0 0 1
-29.209134 8.310685 -28.689584 41.777186 -0.277198 2.327775 0.027294 -0.017764 -425992.000000 0 0 1
-29.615114 7.404485 -27.688094 41.213007 -0.245001 2.307472 0.020276 -0.004814 -908936.000000 0 0 1
-30.938414 7.671985 -27.012794 41.782004 -0.243073 2.273807 0.013681 0.001159 -733348.000000 0 0 1
-30.922194 8.508785 -25.893254 41.219439 -0.268522 2.250009 0.006039 0.006512 -25633.800000 0 0 1
-30.761164 7.937585 -24.638094 40.203111 -0.252531 2.230447 0.011555 0.005496 -126162.000000 0 0 1
-30.298564 8.868085 -23.522894 39.369690 -0.284737 2.211160 0.015197 0.004334 34751.000000 0 0 1
-31.225954 9.885985 -23.159794 40.114449 -0.306611 2.186267 0.024843 0.005206 79134.800000 0 0 1
-30.630134 10.867585 -22.323094 39.428797 -0.340945 2.172639 0.024467 0.005368 -24026.700000 0 0 1
-31.611394 11.932785 -21.735094 40.175688 -0.360946 2.142423 0.019388 0.000363 -66842.700000 0 0 1
-32.277694 11.419985 -20.620894 39.968574 -0.340060 2.112887 0.027785 0.002016 -131029.000000 0 0 1
-32.682974 12.314585 -19.575694 40.037902 -0.360338 2.081658 0.018085 0.001269 257989.000000 0 0 1
-31.609444 12.980485 -18.622094 38.915708 -0.389655 2.069769 0.025240 -0.002791 290456.000000 0 0 1
-31.067164 12.182485 -17.549194 37.703526 -0.373707 2.054942 0.056214 -0.002768 475129.000000 0 0 1
-31.942234 11.784685 -16.474294 37.823108 -0.353445 2.021458 0.055158 -0.006911 205004.000000 0 0 1
-32.472584 12.896885 -15.537594 38.238923 -0.378058 1.989229 0.039489 0.001625 -11239.600000 0 0 1
-33.307024 13.855585 -16.124094 39.513561 -0.394219 1.991130 0.020864 0.001911 -66843.200000 0 0 1
-34.132128 14.516685 -15.194794 40.082641 -0.402132 1.959605 0.006307 0.004947 -17897.700000 0 0 1
-34.772636 15.756985 -15.802694 41.317599 -0.425465 1.963263 -0.001601 0.001841 -607045.000000 0 0 1
-35.626831 15.457685 -16.820794 42.321983 -0.409366 1.979531 0.008816 -0.010592 -206668.000000 0 0 1
36.206333 16.555885 -17.218794 43.376062 0.428879 1.979004 0.018770 -0.017026 -333746.000000 0 0 1
35.887643 16.481785 -18.746394 43.714979 0.430528 2.013996 0.027163 -0.014150 38288.400000 0 0 1
34.822283 15.611285 -19.043694 42.649336 0.421450 2.033666 0.062193 -0.015248 -54336.400000 0 0 1
33.565493 16.241785 -18.973394 41.838111 0.450671 2.041480 0.117435 -0.026579 61309.100000 0 0 1
32.334183 15.277685 -19.177694 40.579440 0.441401 2.063031 0.133298 -0.032741 455930.000000 0 0 1
32.304473 14.700685 -20.452294 40.963220 0.427059 2.093569 0.134475 -0.029564 224299.000000 0 0 1
31.321043 13.679985 -20.561694 39.886501 0.411795 2.112393 0.093595 -0.028219 100326.000000 0 0 1
31.739913 12.249485 -20.094494 39.512791 0.368321 2.104304 0.078293 -0.009127 -11894.100000 0 0 1
31.875563 12.152585 -18.694894 38.900333 0.364240 2.072117 0.088205 -0.007887 174465.000000 0 0 1
32.481453 10.894185 -18.392894 38.884786 0.323607 2.063500 0.056757 -0.006354 81325.500000 0 0 1
32.598713 10.744585 -16.858194 38.240304 0.318388 2.027340 0.050915 0.002468 -580756.000000 0 0 1
31.312953 10.522285 -16.343694 36.855608 0.324181 2.030243 0.060779 -0.001911 32909.800000 0 0 1
31.405743 10.222885 -14.968294 36.261245 0.314693 1.996312 0.040476 0.000272 -21551.800000 0 0 1
30.829763 11.330485 -14.023594 35.714358 0.352195 1.974318 0.056872 -0.007235 -438928.000000 0 0 1
29.430923 11.291785 -14.108194 34.535847 0.366351 1.991616 0.064711 -0.009030 -188540.000000 0 0 1
28.779073 12.099885 -13.148594 33.875179 0.398002 1.969418 0.080624 -0.015047 315589.000000 0 0 1
27.226183 12.058785 -13.208794 32.575321 0.416943 1.988305 0.091032 -0.010782 19903.700000 0 0 1
26.720083 10.835885 -12.768894 31.534487 0.385267 1.987686 0.071618 -0.010982 127435.000000 0 0 1
25.396483 10.510585 -13.143294 30.466373 0.392397 2.016844 0.075850 0.005238 -293945.000000 0 0 1
25.231183 9.913985 -14.608494 30.794606 0.374393 2.065061 0.066921 -0.012386 -616501.000000 0 0 1
25.720583 8.590885 -14.825294 30.905356 0.322358 2.071109 0.059157 -0.005796 842667.000000 0 0 1
27.134883 8.436385 -14.843194 32.059240 0.301432 2.052165 0.062830 -0.016887 8579.110000 0 0 1
27.591483 7.579785 -13.634294 31.696010 0.268101 2.015464 0.065323 -0.021361 -475507.000000 0 0 1
27.265583 6.211385 -13.916194 31.235457 0.223988 2.032558 0.064622 -0.027685 779754.000000 0 0 1
26.229083 5.781185 -13.037794 29.855836 0.216943 2.022714 0.068792 -0.021236 -80663.500000 0 0 1
25.804783 4.294285 -13.343294 29.366157 0.164903 2.042469 0.077075 -0.021624 -405664.000000 0 0 1
24.927183 3.823585 -12.356994 28.083439 0.152204 2.026406 0.078997 -0.025568 171979.000000 0 0 1
24.621783 2.431585 -12.417294 27.682738 0.098438 2.035947 0.070145 -0.025853 146418.000000 0 0 1
23.841483 1.928385 -11.156794 26.393352 0.080708 2.007232 0.056491 -0.021304 605329.000000 0 0 1
24.730083 1.902185 -10.029394 26.754141 0.076767 1.955056 0.068638 -0.013385 1461920.000000 0 0 1
23.920083 1.778085 -8.870094 25.573629 0.074198 1.925002 0.070435 -0.004134 336464.000000 0 0 1
24.816083 1.295785 -7.663694 26.004792 0.052168 1.869941 0.086063 -0.004142 -58283.900000 0 0 1
24.869883 -0.142615 -7.520194 25.982392 -0.005734 1.864432 0.070606 -0.007793 391799.000000 0 0 1
25.674883 -0.903215 -8.383794 27.024126 -0.035164 1.886235 0.072320 -0.010644 -632037.000000 0 0 1
26.033583 -2.358915 -8.018894 27.342541 -0.090364 1.868447 0.081339 -0.018470 282633.000000 0 0 1
26.986083 -2.400915 -6.920194 27.962513 -0.088735 1.820876 0.088971 -0.025507 842604.000000 0 0 1
26.958483 -3.618515 -6.226594 27.903833 -0.133428 1.795836 0.107306 -0.035003 458337.000000 0 0 1
28.222833 -3.934115 -5.303094 28.984968 -0.138502 1.754793 0.100669 -0.032183 1035450.000000 0 0 1
29.368423 -4.240315 -6.083394 30.290134 -0.143393 1.773009 0.088148 -0.021247 657026.000000 0 0 1
30.478173 -4.693315 -5.319094 31.292794 -0.152789 1.741604 0.095901 -0.023638 800120.000000 0 0 1
31.794053 -4.941815 -6.147394 32.757805 -0.154198 1.759578 0.093763 -0.021402 482760.000000 0 0 1
31.886673 -6.176915 -6.832594 33.190337 -0.191345 1.778140 0.083361 -0.015451 293833.000000 0 0 1
32.442643 -6.017615 -8.154694 33.988760 -0.183400 1.813083 0.082745 -0.024658 -953645.000000 0 0 1
31.826483 -6.901315 -9.300594 33.868188 -0.213536 1.848982 0.071510 -0.022590 907497.000000 0 0 1
30.531873 -6.512415 -9.778094 32.714185 -0.210150 1.874330 0.070171 -0.016143 1338320.000000 0 0 1
29.457773 -6.732815 -8.840294 31.483995 -0.224699 1.855410 0.073117 -0.011156 -640370.000000 0 0 1
28.177103 -5.976815 -9.113794 30.211466 -0.209018 1.877237 0.071177 -0.012968 -724076.000000 0 0 1
27.398083 -6.248315 -10.269894 29.919343 -0.224222 1.921174 0.059639 -0.010973 341269.000000 0 0 1
26.204483 -5.509715 -10.287594 28.685649 -0.207240 1.937598 0.076050 -0.011050 7539.430000 0 0 1
24.962783 -6.351115 -9.912094 27.599398 -0.249137 1.938144 0.102667 -0.003401 -690560.000000 0 0 1
24.933683 -6.645415 -8.500394 27.168120 -0.260469 1.889021 0.095269 -0.013577 1157420.000000 0 0 1
23.710083 -7.215715 -8.003694 26.044072 -0.295425 1.883165 0.088578 -0.016262 -118151.000000 0 0 1
22.727683 -6.205415 -7.425194 24.701988 -0.266537 1.876109 0.100702 -0.013455 -649855.000000 0 1 0
22.093183 -5.425815 -8.406094 24.253053 -0.240822 1.924740 0.089838 -0.013712 433997.000000 0 1 0
21.611283 -4.200015 -7.885994 23.385392 -0.191951 1.914757 0.070892 -0.017593 -233960.000000 0 1 0
21.475583 -3.136915 -9.031894 23.507786 -0.145043 1.965147 0.067122 -0.014008 167533.000000 0 1 0
22.676783 -2.755815 -9.714294 24.823346 -0.120933 1.972880 0.067591 -0.012208 1018530.000000 0 1 0
22.476183 -2.256115 -11.006394 25.127864 -0.100043 2.024186 0.066784 -0.011218 822394.000000 0 0 1
23.850683 -2.249315 -11.809394 26.709104 -0.094030 2.028789 0.069895 -0.016717 677613.000000 0 0 1
24.758783 -1.284815 -11.403194 27.288842 -0.051847 2.001896 0.054619 -0.020343 543440.000000 0 0 1
25.977683 -1.384515 -12.128294 28.702829 -0.053246 2.007050 0.052874 -0.016397 254227.000000 0 0 1
27.150383 -0.462315 -11.690894 29.564066 -0.017026 1.977346 0.057647 -0.005249 -105331.000000 0 0 1
28.365313 -0.931915 -12.287094 30.926236 -0.032842 1.979373 0.057200 -0.012252 619643.000000 0 0 1
29.496653 -0.143815 -11.978094 31.836268 -0.004876 1.956532 0.064353 -0.014104 -65129.500000 0 0 1
29.591483 1.237085 -12.601794 32.186821 0.041781 1.973080 0.070245 -0.013668 -926969.000000 0 0 1
29.952583 1.210985 -13.905394 33.045176 0.040408 2.005123 0.066299 -0.014866 221752.000000 0 0 1
29.678213 2.478785 -14.455894 33.104585 0.083329 2.022694 0.059269 -0.017596 -45320.700000 0 0 1
29.969273 2.502085 -15.935294 34.034561 0.083295 2.058059 0.054953 -0.001904 260754.000000 0 0 1
29.065003 1.709185 -16.705694 33.567483 0.058738 2.091712 0.052094 -0.012146 50680.200000 0 0 1
29.594033 1.600685 -17.989494 34.669740 0.054035 2.116339 0.043028 -0.014219 146056.000000 0 0 1
28.663423 1.023785 -19.119294 34.470093 0.035702 2.158755 0.042297 -0.006681 257577.000000 0 0 1
28.304573 -0.338315 -19.018794 34.102460 -0.011952 2.162403 0.038973 -0.009551 158767.000000 0 0 1
27.741873 -0.854615 -20.212094 34.334685 -0.030796 2.200220 0.024819 -0.008117 -116239.000000 0 0 1
27.542983 -2.417315 -20.146294 34.210122 -0.087541 2.200492 0.028549 -0.011529 -502506.000000 0 0 1
26.391983 -2.813415 -19.461194 32.911854 -0.106200 2.203482 0.035720 -0.013059 -76593.700000 0 0 1
26.110983 -4.235515 -19.428794 32.820741 -0.160811 2.204293 0.038248 -0.017825 -53254.800000 0 0 1
26.922283 -5.127415 -18.387194 33.002857 -0.188199 2.161733 0.028206 -0.015064 825428.000000 0 0 1
28.294163 -5.211215 -18.814794 34.376051 -0.182139 2.149958 0.021332 -0.009661 725520.000000 0 0 1
29.101743 -5.475215 -17.671694 34.484463 -0.185967 2.108836 0.020240 -0.005800 -274959.000000 0 0 1
30.604913 -5.367415 -17.948794 35.883548 -0.173612 2.094621 0.027737 -0.001951 -375494.000000 0 0 1
31.130943 -6.493915 -18.620294 36.851348 -0.205651 2.100504 0.015390 0.003714 -374438.000000 0 0 1
32.440003 -6.210715 -19.029394 38.118822 -0.189163 2.093486 0.027631 0.004864 -409484.000000 0 0 1
33.065953 -7.401315 -19.777794 39.233886 -0.220205 2.099136 0.023506 0.008712 -161097.000000 0 0 1
33.331153 -8.457715 -18.858094 39.218954 -0.248503 2.072410 0.023836 0.001043 -167646.000000 0 0 1
34.010613 -9.513015 -19.471094 40.327940 -0.272737 2.074667 0.022033 0.010218 -630856.000000 0 0 1
34.724473 -10.275015 -18.358494 40.600483 -0.287692 2.039998 0.036485 0.007713 -537889.000000 0 0 1
33.893763 -10.799215 -17.316194 39.563376 -0.308450 2.023816 0.019047 0.001921 598138.000000 0 0 1
34.693033 -11.554515 -16.370894 40.063942 -0.321496 1.991737 0.041259 -0.012913 68611.900000 0 0 1
35.831413 -10.940015 -15.505694 40.546277 -0.296330 1.963210 0.062560 -0.015044 67043.800000 0 0 1
-36.308094 -11.727115 -14.419794 40.788888 0.312412 1.932131 0.061257 -0.018914 438036.000000 0 0 1
-35.629129 -12.905815 -14.822194 40.690199 0.347525 1.943644 0.072504 -0.018324 -193039.000000 0 0 1
-34.134742 -12.868115 -15.241694 39.535784 0.360505 1.966564 0.088926 -0.019782 -107144.000000 0 0 1
-33.966754 -12.633615 -16.658994 39.885720 0.356086 2.001674 0.082420 -0.007053 -375183.000000 0 0 1
-32.596894 -12.493215 -16.906394 38.787422 0.365996 2.021804 0.107069 -0.012945 -625299.000000 0 0 1
-32.309904 -11.689015 -18.191094 38.877743 0.347129 2.057715 0.107277 -0.007185 158303.000000 0 0 1
-32.586514 -10.248415 -18.156594 38.685563 0.304705 2.059337 0.107983 -0.011567 72333.700000 0 0 1
-33.944224 -9.955815 -18.395094 39.871144 0.285298 2.050328 0.083118 -0.009421 -342797.000000 0 0 1
-34.314257 -8.462515 -18.143994 39.727659 0.241793 2.045089 0.091987 -0.007530 -202332.000000 0 0 1
-35.630187 -8.177115 -18.546694 40.992137 0.225593 2.040302 0.068522 -0.010160 -316528.000000 0 0 1
-35.876399 -6.788215 -18.388794 40.882070 0.187000 2.037339 0.058806 -0.011579 -66096.200000 0 0 1
24.308836 27.264585 -27.056414 45.456866 0.842647 2.208324 0.024624 0.020125 82443.600000 0 0 1
24.849036 26.272285 -26.188644 44.649218 0.813232 2.197579 0.030511 0.006331 63952.900000 0 0 1
26.196636 25.985085 -26.524584 45.442733 0.781344 2.194065 0.032273 0.001526 -77143.100000 0 0 1
26.878836 25.135285 -25.465804 44.752224 0.751890 2.176134 0.037093 -0.001431 -412141.000000 0 0 1
27.167236 25.779385 -24.231694 44.607291 0.759192 2.145067 0.037241 0.005055 22754.000000 0 0 1
27.609036 24.811685 -23.337794 43.846679 0.732085 2.132063 0.044198 0.003171 -271544.000000 0 0 1
28.455836 25.304285 -22.150994 44.053467 0.726843 2.097655 0.042450 0.006345 -46934.900000 0 0 1
27.727136 26.118485 -21.239094 43.612710 0.755532 2.079440 0.046666 0.009613 -78742.200000 0 0 1
28.420436 26.382185 -20.070594 43.664283 0.748223 2.048405 0.038037 0.011316 312.745000 0 0 1
27.669636 27.496485 -19.309494 43.526107 0.782259 2.030442 0.050469 0.011980 192322.000000 0 0 1
26.495936 27.189785 -18.597494 42.275121 0.798322 2.026301 0.056904 0.009493 -62358.700000 0 0 1
25.889736 28.408485 -18.224394 42.537619 0.831752 2.013551 0.070280 0.005694 107763.000000 0 0 1
24.586436 28.320785 -17.396094 41.342276 0.855864 2.005104 0.073394 0.004232 -136846.000000 0 0 1
23.513536 27.757685 -18.104894 40.634501 0.867988 2.032590 0.074426 0.004094 -651337.000000 0 0 1
22.487136 27.516385 -17.184994 39.473368 0.885639 2.021231 0.061645 0.002205 -540349.000000 0 0 1
21.560136 26.432285 -17.718494 38.437614 0.886571 2.049882 0.061032 -0.007170 -162363.000000 0 0 1
20.785936 26.750285 -18.869394 38.777402 0.910215 2.078999 0.051716 -0.003820 -192806.000000 0 0 1
19.982836 25.672585 -19.220894 37.786746 0.909383 2.104433 0.037818 -0.001824 -141381.000000 0 0 1
19.327036 25.842185 -20.603194 38.286348 0.928649 2.139018 0.024104 0.001169 532070.000000 0 0 1
18.380736 26.917285 -20.606094 38.561675 0.971667 2.134555 0.010409 -0.000056 -27768.500000 0 0 1
17.430836 26.817285 -21.646794 38.621037 0.994432 2.165776 0.004538 -0.005468 -228844.000000 0 0 1
16.264636 27.775685 -21.395394 38.649579 1.041054 2.157446 0.001653 -0.000612 -218077.000000 0 0 1
15.544736 27.582085 -20.176394 37.543270 1.057586 2.138168 0.005263 0.002830 83493.400000 0 0 1
14.503436 28.504085 -19.963994 37.701374 1.100118 2.128842 -0.006489 0.001560 -109096.000000 0 0 1
14.033136 28.462585 -18.479594 36.722514 1.112734 2.098120 -0.005415 0.000626 -40613.600000 0 0 1
13.298936 27.280685 -18.109094 35.341714 1.117210 2.108774 -0.007845 0.001321 -10436.500000 0 0 1
12.809236 27.286585 -16.811194 34.514497 1.131900 2.079535 0.011926 -0.003395 -336709.000000 0 0 1
11.912236 26.124185 -16.442294 33.086605 1.142976 2.090874 0.022020 -0.002492 -125375.000000 0 0 1
12.656436 24.969685 -16.030994 32.259314 1.101666 2.090867 0.006185 0.000585 223802.000000 0 0 1
11.732936 23.939285 -15.833394 31.007217 1.115090 2.106720 0.031111 -0.003003 413709.000000 0 0 1
12.484636 22.622285 -16.111794 30.450350 1.066516 2.128356 0.015229 -0.001348 482327.000000 0 0 1
13.010536 22.451885 -17.414694 31.251124 1.045598 2.161867 0.020171 0.003569 295702.000000 0 0 1
14.026336 21.457785 -17.590694 31.090307 0.991845 2.172192 0.024536 0.005879 356197.000000 0 0 1
13.476336 20.017385 -17.810094 29.991779 0.978263 2.206610 0.035791 0.005987 36197.800000 0 0 1
12.751036 19.502085 -16.704094 28.669618 0.991734 2.192771 0.043709 -0.001024 78989.300000 0 0 1
12.192836 18.204685 -16.893194 27.666872 0.980653 2.227605 0.035780 -0.003272 -243934.000000 0 0 1
13.167536 17.027485 -16.882994 27.356073 0.912543 2.235921 0.037423 -0.003158 -502569.000000 0 0 1
13.780736 16.848385 -15.651794 26.809614 0.885220 2.194213 0.045237 -0.006160 349878.000000 0 0 1
14.870836 15.917485 -15.716894 26.861289 0.819380 2.195816 0.049189 -0.005865 -451252.000000 0 0 1
15.213836 15.344885 -14.319694 25.922576 0.789687 2.156040 0.073677 -0.004253 -660894.000000 0 0 1
15.990036 16.160785 -13.416194 26.397850 0.790709 2.103925 0.048468 -0.000929 1986970.000000 0 0 1
17.370536 16.453085 -13.792294 27.616425 0.758280 2.093730 0.030874 0.006737 1287830.000000 0 0 1
18.339936 15.329085 -14.325894 27.866922 0.696210 2.110734 0.027635 0.005225 -717589.000000 0 0 1
18.891736 14.437885 -13.415094 27.300457 0.652555 2.084478 0.057370 -0.003059 196289.000000 0 0 1
19.836736 14.932485 -12.512794 27.803691 0.645271 2.037607 0.059936 -0.002608 -937736.000000 0 0 1
20.663936 13.882985 -11.759894 27.532356 0.591580 2.012113 0.074690 -0.015949 -297314.000000 0 0 1
20.011736 13.071985 -10.761994 26.213868 0.578633 1.993849 0.123735 -0.023160 638168.000000 0 0 1
20.768636 11.901585 -10.440894 26.115058 0.520372 1.982099 0.139247 -0.014598 -95826.300000 0 0 1
20.718736 10.659785 -11.420394 25.948457 0.475180 2.026527 0.100627 -0.011447 -519563.000000 0 0 1
21.264136 10.891185 -12.714594 27.063671 0.473349 2.059864 0.074771 0.004627 429479.000000 0 0 1
21.043836 9.849485 -13.604494 26.924666 0.437759 2.100503 0.068763 0.005631 61724.900000 0 0 1
21.869536 8.526785 -13.363394 27.010423 0.371763 2.088343 0.062413 0.014231 -243652.000000 0 0 1
21.500736 7.995185 -12.074894 25.923111 0.356012 2.055331 0.064937 -0.001945 637375.000000 0 0 1
22.307736 6.979285 -11.485294 26.043377 0.303216 2.027516 0.069994 0.022153 -904081.000000 0 0 1
22.305236 5.531185 -12.138894 25.989812 0.243074 2.056763 0.072062 0.007425 -46844.100000 0 0 1
21.147236 4.680585 -12.085394 24.802625 0.217822 2.079749 0.063127 -0.007242 466909.000000 0 1 0
20.064436 5.154785 -12.822094 24.363076 0.251473 2.125030 0.015934 -0.020310 -956682.000000 0 1 0
19.088936 4.011885 -13.076194 23.483389 0.207153 2.161358 0.016927 -0.033530 -582745.000000 0 1 0
19.684336 3.164785 -13.963794 24.340840 0.159413 2.181785 0.025080 -0.030742 461715.000000 0 1 0
19.117136 1.868085 -13.887594 23.702740 0.097409 2.196795 0.042946 -0.025617 -99470.800000 0 1 0
20.032836 0.856485 -14.650694 24.833262 0.042728 2.201809 0.062049 -0.020947 285195.000000 0 1 0
21.192236 0.517385 -13.882394 25.339680 0.024409 2.150591 0.073546 -0.016083 940472.000000 0 0 1
22.348236 0.231985 -14.672794 26.735526 0.010380 2.151739 0.057234 -0.028030 157940.000000 0 0 1
22.556136 -1.123015 -15.325394 27.293005 -0.049746 2.167010 0.054073 -0.019232 -700119.000000 0 0 1
21.578836 -1.455815 -16.304994 27.085390 -0.067363 2.216781 0.047326 -0.014739 487332.000000 0 0 1
22.031336 -2.494915 -17.164194 28.039506 -0.112764 2.229564 0.043818 -0.017320 160414.000000 0 0 1
20.857836 -3.053515 -18.022994 27.734484 -0.145364 2.278171 0.035183 -0.018497 -8860.060000 0 0 1
19.927736 -3.788215 -17.261294 26.634892 -0.187856 2.275845 0.047440 -0.014204 -356888.000000 0 0 1
19.169936 -4.482415 -18.154794 26.780124 -0.229698 2.315726 0.044996 -0.011824 -312599.000000 0 0 1
18.337836 -5.655515 -17.565294 26.015392 -0.299152 2.312017 0.053215 -0.007080 494814.000000 0 0 1
19.306236 -6.635515 -17.200894 26.695160 -0.331050 2.270963 0.051810 -0.004615 985495.000000 0 0 1
18.675036 -7.804215 -16.696394 26.237993 -0.395838 2.260546 0.060722 0.001699 -587126.000000 0 0 1
19.476836 -8.746915 -15.839494 26.584680 -0.422100 2.209074 0.067549 -0.003236 -745256.000000 0 0 1
20.201536 -9.624615 -16.623994 27.876378 -0.444614 2.209739 0.068201 -0.007432 394055.000000 0 0 1
21.157136 -10.362015 -15.861094 28.400177 -0.455426 2.163356 0.059096 -0.006951 41486.200000 0 0 1
21.908336 -11.453115 -16.724894 29.847464 -0.481701 2.165599 0.053605 -0.009356 404539.000000 0 0 1
22.780436 -10.889415 -17.741894 30.859397 -0.445906 2.183311 0.048892 -0.006661 554744.000000 0 0 1
23.322836 -11.954615 -18.528394 32.096244 -0.473654 2.186185 0.052689 -0.011372 -184525.000000 0 0 1
22.636336 -12.217915 -19.909094 32.527729 -0.494938 2.229466 0.052752 -0.009396 217919.000000 0 0 1
21.350836 -12.792515 -19.993094 31.925388 -0.539800 2.247523 0.054555 -0.009859 -46443.500000 0 0 1
21.209936 -14.174715 -19.710894 32.238227 -0.589136 2.228642 0.049340 -0.004067 -470184.000000 0 0 1
19.717836 -14.454015 -19.476694 31.257850 -0.632560 2.243493 0.044603 -0.006630 -125241.000000 0 0 1
19.029336 -14.288515 -20.700094 31.539993 -0.644056 2.286717 0.039892 0.000225 -664354.000000 0 0 1
17.638136 -14.340815 -20.588494 30.670000 -0.682652 2.306745 0.055373 -0.007779 -325312.000000 0 0 1
16.892236 -13.590015 -21.701194 30.675364 -0.677486 2.356676 0.057581 -0.004339 -85719.600000 0 0 1
17.185136 -14.180415 -22.970294 32.000741 -0.689893 2.371441 0.040090 -0.004120 512767.000000 0 0 1
16.477736 -13.577015 -24.070694 32.175292 -0.689182 2.416007 0.055684 -0.011604 153511.000000 0 0 1
16.498436 -14.307915 -25.415864 33.509416 -0.714411 2.431758 0.057961 -0.016384 431849.000000 0 0 1
15.413736 -15.266115 -25.475954 33.461347 -0.780587 2.436196 0.056880 -0.022828 811518.000000 0 0 1
15.354236 -15.883915 -26.737594 34.683573 -0.802353 2.451050 0.063031 -0.021313 -98657.700000 0 0 1
16.262136 -17.134315 -26.984604 35.863779 -0.811508 2.422524 0.055858 -0.023262 164096.000000 0 0 1
17.638436 -16.836915 -26.873234 36.287282 -0.762153 2.404713 0.053257 -0.014304 -267369.000000 0 0 1
18.438436 -17.939915 -26.866324 37.196987 -0.771695 2.377877 0.049562 -0.012441 363919.000000 0 0 1
19.992236 -17.788415 -26.892744 37.938593 -0.727132 2.358662 0.028571 -0.003373 659566.000000 0 0 1
20.552536 -17.409515 -25.677114 37.213064 -0.702793 2.332289 0.029803 -0.004679 499398.000000 0 0 1
21.944236 -17.071615 -25.777524 37.913985 -0.661153 2.318416 0.017207 0.002592 611007.000000 0 0 1
22.553736 -16.492515 -24.496394 37.158409 -0.631395 2.290607 0.027941 0.002620 -162409.000000 0 0 1
22.309836 -15.172515 -24.095894 36.173831 -0.597233 2.299783 0.031570 0.001154 -15417.400000 0 0 1
20.953836 -14.831615 -23.829394 35.026847 -0.615957 2.318993 0.047359 -0.004037 350721.000000 0 0 1
20.744536 -13.401015 -23.200694 33.885029 -0.573560 2.324973 0.048229 -0.000030 -168109.000000 0 0 1
20.744636 -12.397315 -24.216794 34.212373 -0.538664 2.357228 0.055065 -0.000743 223315.000000 0 0 1
20.653936 -11.117715 -23.561194 33.246331 -0.493805 2.358430 0.061537 -0.001652 -42557.900000 0 0 1
20.667436 -10.032915 -24.657194 33.701328 -0.451936 2.391519 0.069192 -0.006379 -7931.550000 0 0 1
20.198936 -8.801015 -24.068494 32.630465 -0.410913 2.400317 0.071517 -0.003512 481695.000000 0 0 1
20.103636 -7.707615 -24.926494 32.937723 -0.366109 2.429164 0.056913 -0.001414 -256204.000000 0 0 1
19.843236 -6.320015 -24.294994 31.999114 -0.308339 2.432940 0.055566 -0.011906 662908.000000 0 0 1
18.519836 -6.211115 -23.698294 30.711096 -0.323588 2.452232 0.065553 -0.009077 1157160.000000 0 0 1
18.440736 -5.298615 -22.627894 29.667451 -0.279795 2.438302 0.052825 -0.012280 -61123.400000 0 0 1
19.041736 -5.878215 -21.290194 29.161850 -0.299421 2.389221 0.042414 -0.014308 -136126.000000 0 0 1
18.397236 -6.892715 -20.522794 28.410436 -0.358473 2.378017 0.046775 -0.012315 205465.000000 0 0 1
18.326936 -8.157015 -21.084594 29.102810 -0.418758 2.381086 0.052295 -0.009590 -225257.000000 0 0 1
17.828236 -9.294415 -20.234194 28.524634 -0.480567 2.359384 0.049891 -0.013975 675293.000000 0 0 1
16.454236 -9.292215 -19.826294 27.389214 -0.514082 2.380195 0.056008 -0.013299 609612.000000 0 0 1
16.094936 -10.426915 -19.106794 27.070964 -0.574854 2.354354 0.064853 -0.006698 -109265.000000 0 0 1
14.652936 -10.441115 -18.554994 25.845951 -0.619107 2.371588 0.064665 -0.010747 -17042.000000 0 0 1
14.405036 -9.758115 -17.310194 24.543200 -0.595403 2.353635 0.082698 -0.016060 198973.000000 0 1 0
14.505536 -8.333915 -17.343394 24.096847 -0.521484 2.374220 0.092345 -0.030864 -230622.000000 0 1 0
13.240736 -7.624915 -16.816294 22.721007 -0.522486 2.404047 0.088509 -0.028008 36852.900000 0 1 0
12.053236 -7.819315 -17.536894 22.670792 -0.575483 2.455213 0.077326 -0.028061 -349383.000000 0 1 0
11.172036 -6.759515 -17.462294 21.804521 -0.544116 2.499521 0.058914 -0.024398 502523.000000 0 1 0
9.683436 -7.025915 -17.885594 21.518059 -0.627675 2.552041 0.061772 -0.020551 857089.000000 0 1 0
9.435936 -6.605515 -19.217094 22.404607 -0.610752 2.601633 0.057027 -0.030198 631606.000000 0 1 0
8.077636 -6.175115 -19.362094 21.869406 -0.652698 2.658044 0.058474 -0.035850 561378.000000 0 1 0
7.622036 -5.736715 -20.700294 22.792707 -0.645194 2.709755 0.063235 -0.043360 -80317.900000 0 1 0
7.572036 -6.797415 -21.611094 23.886815 -0.731543 2.701539 0.066234 -0.033229 -6376.360000 0 1 0
6.772236 -6.390815 -22.676794 24.514132 -0.756430 2.751963 0.066610 -0.037455 -317425.000000 0 1 0
6.719236 -7.365315 -23.893494 25.890057 -0.831237 2.746298 0.064328 -0.032991 -295721.000000 0 0 1
6.362836 -8.707715 -23.568694 25.918976 -0.939754 2.712448 0.070049 -0.035837 118338.000000 0 0 1
6.449636 -9.579415 -24.672294 27.241239 -0.978229 2.703816 0.070473 -0.022338 -213312.000000 0 0 1
5.669836 -10.930615 -24.480794 27.403187 -1.092292 2.675555 0.060381 -0.021194 331930.000000 0 0 1
6.080836 -11.776115 -23.380694 26.875831 -1.094138 2.625902 0.061621 -0.029853 -172018.000000 0 0 1
5.313536 -12.946015 -23.418194 27.280850 -1.181324 2.602961 0.079396 -0.030164 -637572.000000 0 0 1
5.929036 -14.117715 -22.664394 27.352113 -1.173193 2.547427 0.091702 -0.022953 439542.000000 0 0 1
6.990936 -14.792315 -23.369294 28.527349 -1.129303 2.530792 0.069449 -0.014771 1391220.000000 0 0 1
8.297136 -14.196215 -23.514394 28.693234 -1.041881 2.531352 0.073876 -0.015795 1236100.000000 0 0 1
9.199536 -14.008615 -22.220694 27.832211 -0.989722 2.495397 0.068215 -0.007743 -194464.000000 0 0 1
9.563836 -15.226015 -21.616694 28.117253 -1.009953 2.447767 0.060417 0.007805 720871.000000 0 0 1
8.559736 -15.704615 -20.689694 27.348993 -1.071765 2.428751 0.057182 0.001598 231818.000000 0 0 1
8.936936 -15.666315 -19.188194 26.334180 -1.052384 2.387134 0.058610 -0.003527 -192011.000000 0 0 1
10.014036 -16.531415 -18.949794 27.067753 -1.026154 2.346316 0.064531 -0.003379 -399352.000000 0 0 1
10.279536 -16.749215 -17.563894 26.357075 -1.020341 2.300143 0.055092 -0.008110 -83059.200000 0 0 1
9.380936 -17.713715 -16.722594 26.104076 -1.083761 2.266092 0.053937 -0.007752 -902139.000000 0 0 1
9.432536 -19.070215 -17.151394 27.327937 -1.111461 2.249281 0.044689 -0.009174 76699.900000 0 0 1
8.534936 -19.475715 -18.187494 27.980949 -1.157769 2.278375 0.068607 -0.004475 -371891.000000 0 0 1
7.037236 -19.290815 -17.975694 27.290727 -1.221000 2.289852 0.073825 -0.002393 -912623.000000 0 0 1
6.559136 -17.961415 -17.922294 26.207695 -1.220663 2.323831 0.075730 -0.006531 -994343.000000 0 0 1
5.178736 -17.846315 -18.019094 25.884319 -1.288368 2.340802 0.076560 -0.006891 -573032.000000 0 0 1
4.774936 -16.347615 -17.800494 24.635383 -1.286614 2.378292 0.071255 0.002463 -40003.000000 0 1 0
4.769636 -15.888115 -16.497394 23.395419 -1.279155 2.353438 0.040575 -0.002129 95764.600000 0 1 0
4.453436 -14.519715 -16.378594 22.336373 -1.273189 2.393915 0.027643 0.006029 179874.000000 0 1 0
10.930836 30.046685 -18.050494 36.716574 1.221885 2.084742 0.016149 -0.012034 -963238.000000 0 0 1
9.898636 29.697385 -18.897394 36.565410 1.249061 2.113918 0.042734 -0.013355 -602178.000000 0 0 1
9.015036 28.805185 -18.254994 35.273990 1.267487 2.114746 0.042803 -0.014731 738212.000000 0 0 1
7.909036 28.242185 -19.256094 35.085197 1.297747 2.151770 0.060343 -0.017570 506304.000000 0 0 1
7.093336 29.251885 -19.784494 36.019639 1.332897 2.152286 0.064926 -0.026209 -842282.000000 0 0 1
6.080836 28.603385 -20.471094 35.695881 1.361323 2.181551 0.074962 -0.037293 -550643.000000 0 0 1
5.018236 29.522285 -21.083594 36.623298 1.402424 2.184242 0.064114 -0.035254 -106596.000000 0 0 1
3.951836 29.919685 -20.251594 36.344623 1.439475 2.161819 0.062868 -0.036474 -217790.000000 0 0 1
3.103936 30.833885 -20.933094 37.397290 1.470468 2.164879 0.050717 -0.033107 -117032.000000 0 0 1
1.636236 30.664585 -20.420494 36.878051 1.517488 2.157634 0.070113 -0.032273 -146301.000000 0 0 1
1.008036 29.483285 -20.712694 36.045748 1.536620 2.182939 0.074725 -0.040378 -514856.000000 0 0 1
0.776036 29.194285 -22.114594 36.632824 1.544221 2.218909 0.093539 -0.048225 -855855.000000 0 0 1
0.190936 27.819685 -22.385094 35.708035 1.563933 2.248354 0.094691 -0.045237 875584.000000 0 0 1
-1.059464 27.682285 -21.669194 35.170803 -1.532543 2.234595 0.104132 -0.049270 768898.000000 0 0 1
-1.746364 26.520885 -22.063594 34.542862 -1.505043 2.263644 0.108757 -0.050232 -777091.000000 0 0 1
-2.911564 26.089585 -21.250494 33.774653 -1.459657 2.251300 0.095300 -0.051497 359778.000000 0 0 1
-4.128364 26.888085 -21.376894 34.597458 -1.418447 2.236833 0.085127 -0.046516 918417.000000 0 0 1
-5.137164 26.371085 -20.567694 33.835701 -1.378403 2.224171 0.076392 -0.046339 -357853.000000 0 0 1
-6.236064 27.382085 -20.191294 34.588372 -1.346873 2.194148 0.077132 -0.054468 338360.000000 0 0 1
-7.304764 26.695685 -19.540394 33.879879 -1.303703 2.185547 0.074136 -0.032568 -195274.000000 0 0 1
-8.175464 27.555385 -18.865994 34.381146 -1.282377 2.151642 0.073195 -0.042169 526845.000000 0 0 1
-9.476864 26.942785 -18.267094 33.902970 -1.232572 2.139814 0.082590 -0.025939 659987.000000 0 0 1
-9.165764 25.968885 -17.247594 32.494211 -1.231494 2.130328 0.085100 -0.035883 -506677.000000 0 0 1
-10.323964 25.237085 -16.976894 32.120237 -1.182488 2.127678 0.056669 -0.029418 -175233.000000 0 0 1
-10.275764 24.513685 -15.564594 30.802089 -1.173862 2.100537 0.058721 -0.017944 340031.000000 0 0 1
-9.356364 23.435785 -15.496694 29.612921 -1.190950 2.121525 0.066331 -0.018514 -5638.750000 0 0 1
-9.566464 22.822885 -14.227994 28.545353 -1.173882 2.092589 0.082591 -0.019582 -223384.000000 0 0 1
-9.030964 21.367085 -14.109394 27.151163 -1.170911 2.117250 0.088854 -0.003760 -85197.900000 0 0 1
-9.814964 20.206585 -14.444694 26.707467 -1.118629 2.142242 0.061102 0.002902 -278393.000000 0 0 1
-10.104364 20.048285 -15.822794 27.466211 -1.103953 2.184724 0.073013 0.013617 487375.000000 0 0 1
-8.949064 19.903285 -16.890194 27.595383 -1.148252 2.229467 0.062635 0.008814 329908.000000 0 0 1
-8.209664 18.724485 -16.867794 26.505234 -1.157593 2.260612 0.058021 0.005927 -154339.000000 0 0 1
-7.323164 18.646685 -17.987394 26.923483 -1.196570 2.302439 0.063174 0.001386 219270.000000 0 0 1
-6.882264 17.167185 -18.152094 25.914790 -1.189517 2.346828 0.044858 0.000718 -150009.000000 0 0 1
-7.892164 16.293585 -18.613894 25.966213 -1.119729 2.370071 0.044221 -0.004648 -437841.000000 0 0 1
-7.689064 15.559185 -19.815294 26.341143 -1.111814 2.422276 0.053940 -0.011499 -249720.000000 0 0 1
-6.395364 14.737385 -19.781094 25.482992 -1.161365 2.459487 0.043884 -0.007318 -299453.000000 0 0 1
-6.505864 13.709685 -18.769294 24.136448 -1.127719 2.461688 0.013053 -0.006778 57397.300000 0 1 0
-5.357364 12.903885 -18.578294 23.245744 -1.177277 2.496781 0.023547 -0.004537 571502.000000 0 1 0
-4.388464 13.365785 -17.406794 22.380780 -1.253550 2.461885 0.019653 -0.000065 146560.000000 0 1 0
-3.737564 14.535585 -17.745694 23.241392 -1.319117 2.439571 0.017981 -0.005839 -499489.000000 0 1 0
-3.348164 15.182685 -16.556794 22.712366 -1.353745 2.387623 0.016364 0.010585 -245669.000000 0 1 0
-2.575264 16.472785 -16.777194 23.652883 -1.415717 2.359313 0.027503 -0.001053 -164605.000000 0 1 0
-3.289764 17.629685 -17.129594 24.800229 -1.386314 2.333257 0.028624 0.002232 -192665.000000 0 1 0
-2.382164 18.702485 -17.147194 25.484975 -1.444107 2.308831 0.041182 -0.002681 137414.000000 0 0 1
-2.992264 20.039085 -17.608694 26.843709 -1.422570 2.286265 0.052313 -0.001203 394289.000000 0 0 1
-3.504664 20.065685 -18.965394 27.831647 -1.397881 2.320515 0.060751 -0.006937 204198.000000 0 0 1
-4.143564 21.242385 -19.374094 29.047609 -1.378154 2.300941 0.079290 -0.010450 415879.000000 0 0 1
-3.092064 22.379885 -19.610194 29.916214 -1.433503 2.285646 0.086478 -0.025960 385490.000000 0 0 1
-2.117664 22.209885 -20.625694 30.383923 -1.475736 2.316972 0.098277 -0.021593 581334.000000 0 0 1
-0.847064 22.817385 -20.471694 30.666608 -1.533690 2.301718 0.093469 -0.032154 746813.000000 0 0 1
0.120836 22.272785 -19.389294 29.530261 1.565371 2.287086 0.095100 -0.032814 -259775.000000 0 0 1
-0.237864 22.567385 -18.029594 28.886151 -1.560257 2.244853 0.084419 -0.027505 -224586.000000 0 0 1
0.727736 21.954985 -17.220194 27.912113 1.537662 2.235649 0.088474 -0.029890 -224546.000000 0 0 1
0.422836 22.158685 -15.754894 27.191962 1.551716 2.188783 0.091531 -0.025067 -444731.000000 0 0 1
-0.462364 21.168485 -15.295494 26.120312 -1.548958 2.196390 0.070015 -0.013527 -220000.000000 0 0 1
-0.573964 21.140985 -13.876194 25.294653 -1.543654 2.151464 0.080576 -0.017213 331321.000000 0 0 1
-1.457564 19.981885 -13.291794 24.043129 -1.497981 2.156554 0.048121 -0.006568 392094.000000 0 1 0
-0.929964 18.711085 -13.507094 23.095695 -1.521136 2.195469 0.039434 -0.002345 -59267.300000 0 1 0
-1.796564 17.813585 -12.879094 22.054989 -1.470283 2.194387 0.022409 -0.001054 235225.000000 0 1 0
-1.234164 16.381085 -13.053794 20.982485 -1.495598 2.242254 0.006105 0.005467 -384030.000000 0 1 0
-0.177864 16.067685 -12.190894 20.169781 -1.559727 2.219826 0.005949 0.003009 -224727.000000 0 1 0
0.162436 14.706985 -12.144694 19.073946 1.559752 2.261029 0.008834 0.002751 338127.000000 0 1 0
0.794336 13.966785 -13.384594 19.361028 1.513984 2.334105 0.002911 -0.003590 418011.000000 0 1 0
-0.177964 13.766785 -14.418794 19.936341 -1.557870 2.379281 0.005939 -0.011423 705606.000000 0 1 0
0.358836 12.769085 -15.331494 19.955776 1.542702 2.446936 0.008893 -0.015431 -166333.000000 0 1 0
-0.211164 12.730685 -16.705794 21.004726 -1.554211 2.490356 0.016790 -0.008968 -351414.000000 0 1 0
-0.057864 13.923285 -17.377594 22.267510 -1.566640 2.466104 0.022098 -0.015733 -56378.400000 0 1 0
-0.359464 13.717685 -18.739094 23.226230 -1.544598 2.509525 0.037280 -0.018168 -498081.000000 0 1 0
-0.763064 15.032785 -19.528694 24.656374 -1.520080 2.484930 0.046799 -0.013197 -929042.000000 0 1 0
0.192336 15.991585 -19.763894 25.423991 1.558770 2.461273 0.038318 -0.016652 -1078240.000000 0 0 1
-0.422364 17.193885 -20.104994 26.457870 -1.546236 2.433936 0.081261 -0.024173 -114175.000000 0 0 1
0.546336 18.350985 -20.427694 27.465393 1.541034 2.409476 0.096562 -0.030019 -206082.000000 0 0 1
1.093536 18.286285 -21.725694 28.418125 1.511067 2.441064 0.084562 -0.040497 -152423.000000 0 0 1
1.787236 19.462485 -22.038194 29.456146 1.479223 2.416095 0.087236 -0.033485 -60993.000000 0 0 1
2.352836 19.387185 -23.508094 30.561893 1.450027 2.448379 0.096274 -0.046641 131109.000000 0 0 1
3.422236 18.450285 -23.537894 30.102445 1.387396 2.468546 0.077795 -0.040016 50203.900000 0 0 1
3.812236 18.198285 -24.923594 31.094956 1.364299 2.500649 0.074934 -0.046380 637113.000000 0 0 1
4.852436 17.031885 -24.975294 30.616933 1.293247 2.524795 0.050916 -0.039498 316.419000 0 0 1
6.156036 17.209785 -24.421894 30.504137 1.227273 2.499108 0.045098 -0.029320 458591.000000 0 0 1
6.993136 16.100885 -24.742894 30.337325 1.161048 2.524549 0.043309 -0.028745 114228.000000 0 0 1
7.423836 15.943685 -26.243724 31.591890 1.135022 2.551180 0.036462 -0.034191 -1341250.000000 0 0 1
8.454736 16.840885 -26.589724 32.590051 1.105521 2.525054 0.022192 -0.026998 116842.000000 0 0 1
8.867936 16.892485 -27.963664 33.852073 1.087378 2.542867 0.031245 -0.027692 289170.000000 0 0 1
9.558636 15.667385 -28.629374 34.006993 1.022985 2.571530 0.026962 -0.027059 -736025.000000 0 0 1
10.770536 15.284685 -28.064064 33.722659 0.956948 2.553864 0.044856 -0.023001 -376998.000000 0 0 1
11.046536 13.961885 -28.420374 33.536217 0.901449 2.581966 0.033844 -0.007011 -142724.000000 0 0 1
10.511336 12.985485 -27.356104 32.054133 0.890309 2.593336 0.035610 -0.009205 386358.000000 0 0 1
9.100636 12.826785 -27.254754 31.466961 0.953721 2.618221 0.050416 -0.009024 280810.000000 0 0 1
8.674636 12.058785 -26.150934 30.075488 0.947193 2.625005 0.061751 -0.010300 -328694.000000 0 0 1
7.200136 11.672685 -26.247584 29.614679 1.018089 2.660097 0.056921 -0.017725 -305117.000000 0 0 1
6.339036 12.764385 -26.078704 29.718878 1.109857 2.641448 0.060058 -0.012155 -1065060.000000 0 0 1
5.043036 12.353985 -25.789984 29.037501 1.183231 2.664125 0.074798 -0.026075 -167040.000000 0 0 1
3.974236 13.479785 -25.827114 29.403044 1.284090 2.643263 0.089442 -0.026399 -191504.000000 0 0 1
3.368036 13.777785 -27.073284 30.563602 1.331044 2.659015 0.072732 -0.019662 -19004.700000 0 0 1
4.173536 14.605785 -27.931584 31.794980 1.292468 2.643489 0.066319 -0.012878 105029.000000 0 0 1
3.839136 14.454485 -29.415544 32.999172 1.311188 2.671227 0.077515 -0.012471 -429494.000000 0 0 1
4.600736 13.420985 -29.899844 33.095170 1.240549 2.698547 0.069361 -0.016098 -134595.000000 0 0 1
4.451936 13.183685 -31.287514 34.242340 1.245134 2.723114 0.070331 -0.014499 -721674.000000 0 0 1
5.385136 12.082285 -31.881594 34.516914 1.151520 2.748298 0.074779 0.001664 1963530.000000 0 0 1
6.807036 12.459485 -32.001274 35.009371 1.070772 2.724023 0.058426 0.004525 2210440.000000 0 0 1
7.561736 12.551585 -30.792184 34.101037 1.028575 2.697426 0.052612 -0.000723 -380125.000000 0 0 1
7.790536 11.257885 -29.985094 32.962680 0.965455 2.713280 0.057489 0.000810 -675514.000000 0 0 1
8.759436 10.429685 -30.540284 33.439722 0.872221 2.722095 0.043195 0.007202 -219046.000000 0 0 1
8.514636 9.183285 -30.026104 32.533040 0.823161 2.746451 0.061900 -0.000001 -12282.400000 0 0 1
9.549336 8.110285 -30.458284 32.934383 0.704090 2.751351 0.061240 -0.003198 -287626.000000 0 0 1
10.757836 8.232885 -29.777044 32.713664 0.653216 2.714642 0.056062 -0.004724 -502333.000000 0 0 1
11.422936 6.987085 -29.748904 32.623613 0.548957 2.718644 0.045015 -0.007418 -384851.000000 0 0 1
12.490236 6.965185 -28.618864 31.993111 0.508698 2.678180 0.032548 0.013530 375018.000000 0 0 1
13.304336 5.803185 -28.547424 32.025579 0.411308 2.671209 0.048039 -0.003724 294586.000000 0 0 1
14.412036 5.769985 -29.406544 33.252734 0.380816 2.655863 0.035342 -0.000460 -1062030.000000 0 0 1
15.349336 4.583985 -29.291334 33.385585 0.290212 2.641138 0.033147 -0.011985 -122747.000000 0 0 1
16.112036 4.622885 -28.077284 32.700193 0.279415 2.603382 0.031572 -0.011905 414111.000000 0 0 1
17.016436 3.538585 -28.012444 32.966311 0.205029 2.586268 0.045288 -0.021544 -332611.000000 0 0 1
17.890736 3.481885 -26.783844 32.397164 0.192217 2.544074 0.048989 -0.022617 -208018.000000 0 0 1
18.871836 4.512285 -26.767154 33.060361 0.234695 2.514343 0.069788 -0.022467 380216.000000 0 0 1
19.422936 4.616085 -25.430274 32.330443 0.233333 2.476037 0.068794 -0.018296 -167881.000000 0 0 1
20.408036 5.783785 -25.432944 33.117590 0.276165 2.446444 0.055225 -0.015280 -243752.000000 0 0 1
19.785436 7.085285 -25.644004 33.155387 0.343878 2.455061 0.055880 -0.010569 366034.000000 0 0 1
20.696836 8.115085 -25.978954 34.192392 0.373672 2.433783 0.048411 -0.020565 -279101.000000 0 0 1
21.098836 8.298185 -27.501004 35.641633 0.374718 2.452145 0.084689 -0.008391 414235.000000 0 0 1
19.981236 8.494085 -28.376474 35.729869 0.401958 2.488478 0.071651 -0.004412 667480.000000 0 0 1
19.371436 7.330285 -28.865454 35.527455 0.361754 2.519195 0.063123 -0.007320 -199654.000000 0 0 1
17.930236 7.342185 -29.417324 35.224707 0.388657 2.559171 0.054052 -0.000614 -303130.000000 0 0 1
17.739536 7.765385 -30.704884 36.301271 0.412616 2.578925 0.043708 0.003818 270218.000000 0 0 1
16.569536 8.548185 -30.777034 35.983980 0.476285 2.596922 0.033625 0.008566 -244711.000000 0 0 1
15.692736 8.410885 -32.009404 36.627952 0.492010 2.633978 0.027982 0.014884 125364.000000 0 0 1
14.998936 7.163085 -32.175974 36.215621 0.445546 2.664766 0.030824 0.006860 505484.000000 0 0 1
13.948536 7.202385 -33.111694 36.644512 0.476645 2.698878 0.033462 0.015263 119593.000000 0 0 1
13.379836 5.793385 -33.390654 36.435135 0.408622 2.729891 0.034445 0.002194 -101117.000000 0 0 1
12.959536 5.109585 -32.227064 35.108989 0.375559 2.733589 0.044238 -0.006351 -474372.000000 0 0 1
12.174236 4.092385 -32.610334 35.048445 0.324285 2.766397 0.040248 -0.016465 -708861.000000 0 0 1
12.001536 3.039285 -31.505134 33.850371 0.248027 2.767166 0.049018 -0.021392 208413.000000 0 0 1
13.212236 2.322485 -31.316864 34.069093 0.174005 2.736882 0.049096 -0.027697 464896.000000 0 0 1
13.047336 1.213985 -30.467004 33.165420 0.092778 2.735415 0.050415 -0.023245 -348680.000000 0 0 1
12.413936 -0.042915 -31.061454 33.450285 -0.003457 2.761380 0.054459 -0.019767 22849.700000 0 0 1
13.179936 -0.899215 -31.944534 34.568375 -0.068120 2.749462 0.068091 -0.019785 119221.000000 0 0 1
14.152536 -1.586615 -31.184184 34.282137 -0.111642 2.713198 0.067731 -0.018181 -116806.000000 0 0 1
14.489236 -3.034015 -31.785434 35.063614 -0.206415 2.705733 0.077539 -0.018760 79141.700000 0 0 1
13.434136 -3.974115 -31.776334 34.727583 -0.287619 2.726347 0.080241 -0.023426 187636.000000 0 0 1
13.784136 -5.107515 -32.638954 35.796514 -0.354851 2.718422 0.084018 -0.025168 -45782.900000 0 0 1
12.840636 -6.319015 -32.618184 35.619627 -0.457316 2.728133 0.080545 -0.024324 -191527.000000 0 0 1
12.890436 -7.009115 -31.379614 34.640600 -0.498028 2.704207 0.081792 -0.023112 -277240.000000 0 0 1
12.263736 -8.199515 -31.497984 34.781522 -0.589339 2.703578 0.097570 -0.025408 -541433.000000 0 0 1
12.170236 -8.997615 -30.152954 33.738292 -0.636626 2.676391 0.097407 -0.030204 155828.000000 0 0 1
13.467236 -8.946715 -29.560344 33.693086 -0.586384 2.641090 0.065599 -0.025864 574007.000000 0 0 1
13.538736 -9.536215 -28.227864 32.726886 -0.613650 2.611041 0.072991 -0.024681 -81303.300000 0 0 1
13.699636 -11.063615 -28.227744 33.269943 -0.679349 2.583838 0.079889 -0.025166 -316970.000000 0 0 1
12.567436 -11.730815 -28.707944 33.461896 -0.750980 2.602022 0.073903 -0.024921 -178857.000000 0 0 1
12.977336 -12.970715 -29.090384 34.393330 -0.785143 2.578887 0.070353 -0.029195 91693.900000 0 0 1
-10.395064 -3.337515 -17.919194 20.983181 0.310671 2.594382 0.019977 0.017523 370698.000000 0 1 0
-11.049264 -2.669215 -19.028794 22.165422 0.237033 2.603114 0.024492 0.009382 567635.000000 0 1 0
-11.917564 -3.599815 -19.677594 23.285075 0.293345 2.577498 0.023677 0.014431 -116379.000000 0 1 0
-12.786164 -3.055515 -20.862594 24.659075 0.234571 2.579312 0.023958 0.000343 -193324.000000 0 1 0
-13.584464 -2.029515 -20.360694 24.560425 0.148303 2.548121 0.028904 0.001265 -410823.000000 0 1 0
-14.371864 -1.478115 -21.393794 25.815300 0.102487 2.547623 0.033676 -0.005082 -330837.000000 0 0 1
-15.159564 -0.320415 -20.898894 25.820124 0.021133 2.513932 0.037619 0.000442 -547231.000000 0 0 1
-14.498564 0.910785 -21.146494 25.655645 -0.062737 2.539661 0.028726 -0.008022 56404.300000 0 0 1
-15.231664 2.027785 -20.670794 25.756499 -0.132351 2.502348 0.027843 -0.000534 -51444.200000 0 0 1
-14.703864 3.410085 -21.227294 26.046695 -0.227889 2.523475 0.032052 -0.013057 -388799.000000 0 0 1
-13.419164 3.740485 -20.804694 25.037981 -0.271842 2.551565 0.037661 -0.014032 -302366.000000 0 0 1
-12.967464 4.920585 -21.502094 25.587249 -0.362672 2.568714 0.036003 -0.018907 1115900.000000 0 0 1
-11.637564 5.530085 -20.858894 24.517508 -0.443606 2.588255 0.013969 -0.018783 1116700.000000 0 1 0
-12.037064 6.135285 -19.681994 23.872862 -0.471377 2.540027 0.025649 -0.024769 910585.000000 0 1 0
-10.890564 6.441185 -18.895094 22.740225 -0.534106 2.551539 0.017299 -0.020061 110915.000000 0 1 0
-11.291964 6.944085 -17.545994 21.990695 -0.551346 2.494571 0.028010 -0.017918 -132850.000000 0 1 0
-11.918864 8.179485 -17.565894 22.749153 -0.601447 2.453023 0.022246 -0.018417 -98705.700000 0 1 0
-12.936864 8.318685 -16.617994 22.643337 -0.571454 2.394845 0.031258 -0.012034 -659332.000000 0 1 0
-13.514964 9.702285 -16.584994 23.491501 -0.622633 2.354630 0.033529 -0.008228 -373113.000000 0 1 0
-12.669664 10.719585 -16.092794 23.117265 -0.702216 2.340799 -0.002775 0.000954 279290.000000 0 1 0
-13.414364 11.925485 -16.137994 24.137051 -0.726709 2.303119 0.020434 -0.002328 71753.000000 0 1 0
-12.679264 13.098185 -15.475794 23.912892 -0.801648 2.274667 0.030428 0.003430 -281202.000000 0 1 0
-12.475764 12.997585 -14.038094 22.839659 -0.805880 2.232722 0.059034 -0.007700 135226.000000 0 1 0
-11.994664 14.225685 -13.526994 23.004818 -0.870281 2.199389 0.054132 -0.010643 -818464.000000 0 1 0
-12.463264 14.393085 -12.063194 22.539177 -0.857132 2.135553 0.046427 -0.021513 984622.000000 0 1 0
-13.767464 14.847085 -11.667394 23.368935 -0.823110 2.093552 0.044043 -0.020215 1642030.000000 0 1 0
-14.880964 14.112585 -12.236894 23.881996 -0.758903 2.108762 0.045212 -0.009177 310969.000000 0 1 0
-16.277864 14.379185 -11.641694 24.642623 -0.723544 2.062832 0.036218 -0.008905 254794.000000 0 1 0
-17.356564 13.681285 -12.267494 25.276853 -0.667534 2.077531 0.033723 -0.007369 617083.000000 0 0 1
-18.514764 14.006885 -11.480194 25.899502 -0.647664 2.030028 0.083856 -0.010694 5681.540000 0 0 1
-19.831264 13.620685 -12.158594 26.956141 -0.601831 2.038739 0.077076 -0.014737 -407318.000000 0 0 1
-20.058564 12.216785 -12.256794 26.491977 -0.547052 2.051790 0.078764 -0.015307 222567.000000 0 0 1
-21.374164 11.896085 -12.655494 27.541483 -0.507869 2.048236 0.102030 -0.010748 -212435.000000 0 0 1
-21.952664 10.611285 -12.111494 27.225120 -0.450256 2.031819 0.088729 -0.012458 -312838.000000 0 0 1
-21.309364 9.439985 -12.503294 26.448718 -0.417015 2.063191 0.080200 -0.008996 462482.000000 0 0 1
-21.987564 8.323385 -11.867594 26.335746 -0.361879 2.038264 0.083279 -0.009370 73948.900000 0 0 1
-21.122164 7.084485 -11.690494 25.159559 -0.323614 2.054040 0.093875 -0.006733 -306040.000000 0 0 1
-20.866664 6.439485 -12.904994 25.365794 -0.299329 2.104535 0.096065 -0.006481 -543984.000000 0 0 1
-19.705264 5.709385 -12.845794 24.205556 -0.282017 2.130218 0.085211 -0.013787 -928651.000000 0 1 0
-19.713564 4.462585 -13.744794 24.442967 -0.222619 2.167986 0.088037 -0.020370 -302641.000000 0 1 0
-20.554364 3.431085 -13.335894 24.740661 -0.165402 2.140078 0.084658 -0.026636 43115.600000 0 1 0
-20.524964 2.471285 -14.320994 25.149002 -0.119827 2.176628 0.083182 -0.027667 -197075.000000 0 0 1
-21.194364 1.095885 -14.086594 25.472224 -0.051660 2.156778 0.086249 -0.025813 -333892.000000 0 0 1
-22.540664 1.047985 -14.462794 26.802094 -0.046460 2.140775 0.076116 -0.025527 -109493.000000 0 0 1
-23.052164 -0.265415 -14.506194 27.237885 0.011513 2.132435 0.074227 -0.031614 773360.000000 0 0 1
-24.432664 -0.551115 -15.215094 28.788155 0.022553 2.127652 0.076865 -0.034943 388771.000000 0 0 1
-25.536224 0.104785 -14.693394 29.461934 -0.004103 2.092923 0.101103 -0.042057 -1014170.000000 0 0 1
-26.702384 -0.465215 -15.167094 30.712774 0.017420 2.087293 0.088257 -0.026836 -859271.000000 0 0 1
-27.974394 0.099985 -14.538494 31.526886 -0.003574 2.050082 0.083862 -0.030196 -605450.000000 0 0 1
-28.132064 -0.488415 -13.279394 31.112600 0.017360 2.011767 0.094510 -0.026672 260395.000000 0 0 1
-29.279634 0.013085 -12.601794 31.876361 -0.000447 1.977227 0.117691 -0.032302 377577.000000 0 0 1
-29.497324 -0.761615 -11.290194 31.593364 0.025814 1.936236 0.113842 -0.031748 -325811.000000 0 0 1
-29.848644 -2.160715 -11.339894 32.003179 0.072263 1.933001 0.116105 -0.020522 -442813.000000 0 0 1
-28.887654 -3.058615 -11.696694 31.315561 0.105487 1.953587 0.116261 -0.027455 -1154590.000000 0 0 1
-29.172994 -4.516715 -11.247194 31.590563 0.153606 1.934813 0.105511 -0.026390 -213347.000000 0 0 1
-30.295784 -5.124415 -11.862694 32.936570 0.167560 1.939244 0.102821 -0.020694 251587.000000 0 0 1
-30.597844 -6.387215 -11.305594 33.239149 0.205792 1.917850 0.098026 -0.020252 98760.800000 0 0 1
-29.689744 -7.620915 -11.620494 32.781018 0.251261 1.933163 0.100433 -0.023650 -690260.000000 0 0 1
-28.364684 -7.573715 -11.239794 31.436435 0.260925 1.936429 0.069249 -0.020295 -719037.000000 0 0 1
-27.748564 -8.770115 -11.755094 31.385984 0.306122 1.954690 0.073997 -0.026293 131173.000000 0 0 1
-26.240434 -8.936515 -11.445594 29.990387 0.328243 1.962369 0.081105 -0.026994 -147225.000000 0 0 1
-25.443194 -7.960015 -12.133994 29.290814 0.303208 1.997925 0.078376 -0.021247 874682.000000 0 0 1
-24.087964 -7.852415 -11.706494 27.909361 0.315126 2.003632 0.085143 -0.023509 268160.000000 0 0 1
-23.822264 -7.365215 -10.240694 26.955862 0.299852 1.960491 0.075729 -0.028875 -925353.000000 0 0 1
-24.174064 -6.060715 -9.846494 26.796848 0.245648 1.947062 0.072615 -0.015572 692887.000000 0 0 1
-25.553614 -5.941815 -9.534294 27.914067 0.228464 1.919371 0.074995 -0.026485 -105472.000000 0 0 1
-26.032614 -4.539515 -9.048794 27.931790 0.172642 1.900709 0.079737 -0.025234 -290670.000000 0 0 1
-25.752704 -4.361715 -7.658294 27.219034 0.167777 1.856005 0.077899 -0.026468 528018.000000 0 0 1
-26.156754 -3.091815 -7.179094 27.299716 0.117657 1.836899 0.112158 -0.031288 -30714.200000 0 0 1
-26.048334 -2.971815 -5.671094 26.823659 0.113597 1.783825 0.112380 -0.026178 -12059.600000 0 0 1
-24.691064 -2.944015 -5.295594 25.423595 0.118674 1.780627 0.091968 -0.018153 36346.600000 0 0 1
-24.601164 -2.889315 -3.913294 25.077466 0.116911 1.727485 0.086359 -0.015421 -249575.000000 0 0 1
-23.215364 -3.148215 -3.304894 23.659812 0.134787 1.710938 0.078041 -0.011760 -164596.000000 0 1 0
-22.856464 -4.518015 -3.454294 23.553398 0.195153 1.717985 0.071626 -0.005699 219435.000000 0 1 0
-21.619864 -4.771615 -2.828194 22.320070 0.217223 1.697849 0.064327 -0.003927 -168902.000000 0 1 0
-21.183664 -6.240915 -2.760594 22.255730 0.286504 1.695156 0.062109 -0.006271 -22650.900000 0 1 0
-21.702564 -6.912815 -1.611194 22.833840 0.308365 1.641417 0.066039 -0.005278 915237.000000 0 1 0
-22.674264 -7.956515 -1.790494 24.096353 0.337481 1.645170 0.090896 -0.009375 394520.000000 0 1 0
-22.869364 -8.883415 -0.539994 24.540058 0.370503 1.592803 0.089235 -0.008663 -267161.000000 0 1 0
-21.758364 -9.654515 -0.199194 23.804952 0.417615 1.579164 0.068233 0.000119 -103009.000000 0 1 0
-22.115164 -10.510315 0.917706 24.502844 0.443655 1.533335 0.052379 0.003881 101263.000000 0 1 0
-20.951064 -11.131215 1.715406 23.786417 0.488370 1.498617 0.055733 0.000889 228258.000000 0 1 0
-20.102564 -11.965515 0.910706 23.411878 0.536900 1.531887 0.053873 0.004509 805576.000000 0 1 0
-19.047364 -12.489515 1.712006 22.841213 0.580378 1.495773 0.028003 0.001709 173585.000000 0 1 0
-18.371664 -13.746515 1.091006 22.971178 0.642377 1.523284 0.022204 0.008038 88254.800000 0 1 0
-19.151564 -14.946515 1.128806 24.319846 0.662696 1.524365 0.038757 0.010852 432341.000000 0 1 0
-18.462364 -16.021715 0.548406 24.451073 0.714740 1.548366 0.028586 0.000636 69429.400000 0 1 0
-17.343264 -16.733715 1.373106 24.139002 0.767513 1.513882 0.033788 0.004759 -233341.000000 0 1 0
-16.133664 -16.012815 1.220106 22.763875 0.781639 1.517172 0.028803 0.004422 -286278.000000 0 1 0
-15.059964 -16.684815 1.825206 22.550320 0.836538 1.489768 0.036769 -0.000922 -21601.400000 0 1 0
-14.950664 -16.480715 3.391506 22.508634 0.834039 1.419545 0.040648 -0.011548 -502951.000000 0 1 0
-14.636764 -15.189715 3.750806 21.425005 0.803935 1.394823 0.022567 -0.006147 -162374.000000 0 1 0
-13.979664 -15.178415 5.021706 21.237533 0.826487 1.332081 0.013402 -0.005027 -380675.000000 0 1 0
-14.694164 -15.577715 6.327506 22.329823 0.814577 1.283494 0.047436 -0.011843 -781799.000000 0 1 0
-15.509064 -14.590415 6.932206 22.393453 0.754887 1.256062 0.042436 -0.007293 117567.000000 0 1 0
-15.735664 -14.801715 8.309106 23.146125 0.754824 1.203616 0.050305 -0.006271 -297915.000000 0 1 0
-16.778264 -15.872415 8.715406 24.686069 0.757662 1.209968 0.043662 -0.001858 -462212.000000 0 1 0
-16.411264 -17.167515 8.319306 25.164737 0.807916 1.233864 0.046365 -0.007679 -120285.000000 0 0 1
-17.154364 -18.281115 8.813706 26.573535 0.817185 1.232721 0.055125 -0.011671 42702.600000 0 0 1
-16.698264 -18.769915 10.225206 27.123727 0.843741 1.184259 0.053677 -0.012468 749719.000000 0 0 1
-15.353764 -19.257615 10.322806 26.704946 0.897714 1.173908 0.043608 -0.011142 568633.000000 0 0 1
-15.151664 -19.809615 11.573806 27.494486 0.917850 1.136304 0.043763 -0.011419 -866139.000000 0 0 1
-13.811764 -20.477315 11.743906 27.349672 0.977396 1.126970 0.036703 -0.003252 183695.000000 0 0 1
-12.703664 -19.542015 11.685706 26.073533 0.994372 1.106065 0.035324 -0.010641 483341.000000 0 0 1
-11.473564 -20.123315 12.036406 26.104895 1.052605 1.091586 0.026885 -0.006201 324917.000000 0 0 1
-10.266164 -19.205715 12.280106 25.001092 1.079902 1.057349 0.030003 -0.018265 151205.000000 0 0 1
-9.525564 -18.700215 11.203906 23.789954 1.099671 1.080428 0.025152 -0.017806 -247561.000000 0 1 0
-8.492264 -17.933515 11.800306 23.086289 1.128539 1.034287 0.029945 -0.013625 96978.200000 0 1 0
-7.623964 -17.130715 10.789006 21.633050 1.152069 1.048666 0.017997 -0.017970 737987.000000 0 1 0
-6.711464 -18.041415 10.106206 21.741016 1.214656 1.087337 0.016078 -0.016093 816529.000000 0 1 0
-5.839064 -17.352015 9.175706 20.478786 1.246193 1.106203 0.012066 -0.017329 214751.000000 0 1 0
-4.727764 -18.248815 8.594806 20.718148 1.317297 1.143025 0.005429 -0.015610 233523.000000 0 1 0
-3.550464 -18.273815 9.397306 20.852996 1.378895 1.103308 0.018762 -0.013105 -25913.800000 0 1 0
-2.528964 -18.893915 8.636506 20.927611 1.437736 1.145397 0.025916 -0.011634 -129446.000000 0 1 0
-1.129764 -18.942015 9.253106 21.111519 1.511224 1.117094 0.029357 -0.018030 87134.800000 0 1 0
-0.221064 -19.525815 8.321906 21.226409 1.559475 1.167933 0.042125 -0.012655 -376456.000000 0 1 0
1.044836 -19.764315 8.870506 21.688838 -1.517981 1.149450 0.048734 -0.017249 -301991.000000 0 1 0
2.037936 -20.380715 7.882606 21.946804 -1.471134 1.203419 0.049957 -0.019179 -274449.000000 0 1 0
1.820336 -21.747015 7.550606 23.092378 -1.487286 1.237697 0.051049 -0.016828 -56813.600000 0 1 0
2.161936 -22.717715 8.544406 24.367507 -1.475917 1.212534 0.047587 -0.016023 -16998.700000 0 1 0
1.902536 -24.169415 8.165506 25.582332 -1.492242 1.245927 0.044166 -0.014164 61981.200000 0 0 1
2.076436 -25.034115 9.231606 26.762680 -1.488042 1.218618 0.034955 -0.011497 -166690.000000 0 0 1
1.702136 -26.343315 8.906106 27.860119 -1.506272 1.245413 0.036381 -0.009014 -878509.000000 0 0 1
1.769836 -27.171325 10.181406 29.070160 -1.505752 1.212974 0.034902 -0.015040 858221.000000 0 0 1
0.737936 -27.014615 11.194806 29.251626 -1.543487 1.178072 0.035849 -0.019796 639915.000000 0 0 1
-0.572064 -27.358285 10.757706 29.402912 1.549889 1.196227 0.024420 -0.011762 -415506.000000 0 0 1
-1.469164 -27.712915 11.902406 30.196545 1.517832 1.165638 0.026372 -0.021357 -436031.000000 0 0 1
-0.985264 -28.830245 12.631206 31.491286 1.536635 1.158077 0.022877 -0.025429 -57488.500000 0 0 1
-1.128464 -28.619075 14.035906 31.895635 1.531386 1.115134 0.021432 -0.028133 -79297.100000 0 0 1
-0.592264 -29.772925 14.913006 33.304287 1.550906 1.106515 0.011171 -0.018167 79764.400000 0 0 1
-0.762764 -29.450425 16.250506 33.645033 1.544902 1.066720 0.011756 -0.014729 -65924.400000 0 0 1
-0.416264 -30.502805 17.132606 34.987434 1.557150 1.059075 0.004772 -0.008585 -33066.500000 0 0 1
-0.849364 -30.217705 18.578406 35.482225 1.542696 1.019728 0.011639 -0.007560 253464.000000 0 0 1
-2.241564 -30.252505 18.831506 35.705241 1.496836 1.015240 0.004267 -0.002464 121934.000000 0 0 1
-2.625964 -30.008045 20.185806 36.260794 1.483510 0.980408 0.021331 -0.009954 -1089290.000000 0 0 1
-4.102364 -30.141515 20.425806 36.640877 1.435524 0.979474 0.043520 -0.020017 -1407430.000000 0 0 1
-4.787164 -29.036475 19.912406 35.532207 1.407399 0.975922 0.039516 -0.028892 236735.000000 0 0 1
-6.009764 -28.725825 20.579806 35.844367 1.364560 0.959239 0.048954 -0.036774 546407.000000 0 0 1
-5.775764 -27.700075 21.765506 35.698611 1.365231 0.915112 0.063955 -0.042189 -634124.000000 0 0 1
-4.895164 -28.138315 22.749106 36.513685 1.398552 0.898186 0.065573 -0.039315 -214689.000000 0 0 1
-4.781464 -27.226405 23.869206 36.522301 1.396950 0.858529 0.067009 -0.041857 -255706.000000 0 0 1
-3.823864 -27.742475 24.946806 37.504799 1.433825 0.843084 0.073413 -0.038951 87806.100000 0 0 1
-4.379764 -28.882525 25.595206 38.839376 1.420302 0.851306 0.068017 -0.036947 375253.000000 0 0 1
-3.765964 -30.102065 25.156006 39.409915 1.446336 0.878487 0.053330 -0.028260 79393.700000 0 0 1
-3.969764 -31.282265 26.116206 40.943807 1.444570 0.879087 0.050688 -0.019393 -91549.100000 0 0 1
-3.417064 -31.098085 27.403606 41.589960 1.461355 0.851441 0.059175 -0.023165 -108404.000000 0 0 1
-3.843664 -32.018725 28.341306 42.932530 1.451324 0.849797 0.052461 -0.020597 -248556.000000 0 0 1
-3.289864 -31.726575 29.781506 43.638708 1.467471 0.819679 0.085968 -0.019843 -378233.000000 0 0 1
-1.903364 -31.872385 29.836306 43.699849 1.511149 0.819269 0.072068 -0.015568 -526420.000000 0 0 1
-1.456264 -31.528465 31.135206 44.334702 1.524640 0.792207 0.074767 -0.019839 44769.300000 0 0 1
-28.657124 3.112885 -10.119594 30.550401 -0.108201 1.908417 0.120488 -0.028370 -43612.300000 0 0 1
-29.749014 2.741185 -10.919394 31.808035 -0.091884 1.921214 0.103388 -0.040459 -152256.000000 0 0 1
-30.427824 3.861185 -11.411194 32.725779 -0.126222 1.926971 0.081514 -0.037884 247934.000000 0 0 1
-31.324334 3.543485 -12.642394 33.964692 -0.112644 1.952198 0.092191 -0.039137 222182.000000 0 0 1
-32.338684 2.570885 -12.548894 34.783253 -0.079332 1.939894 0.105348 -0.037415 52443.600000 0 0 1
-33.095114 2.549685 -13.713294 35.914369 -0.076889 1.962575 0.118020 -0.037018 -776865.000000 0 0 1
-34.177838 1.494085 -13.695194 36.849902 -0.043687 1.951580 0.087029 -0.027259 -218633.000000 0 0 1
-33.697024 0.185685 -13.491894 36.298142 -0.005510 1.951632 0.100155 -0.024267 -628299.000000 0 0 1
-34.762714 -0.543515 -13.028494 37.127932 0.015634 1.929337 0.082435 -0.019002 -402905.000000 0 0 1
-34.390914 -1.981715 -12.661794 36.701270 0.057560 1.923031 0.080477 -0.015431 7070.060000 0 0 1
-34.178479 -2.913615 -13.698694 36.936592 0.085041 1.950743 0.075205 -0.005475 239902.000000 0 0 1
-33.642814 -4.091615 -13.157894 36.355336 0.121025 1.941128 0.086888 -0.013093 84321.800000 0 0 1
-34.100940 -5.249115 -14.079694 37.264797 0.152730 1.958246 0.085561 -0.006792 88406.600000 0 0 1
-33.771914 -6.510815 -13.603494 36.986321 0.190451 1.947436 0.086139 -0.018116 103737.000000 0 0 1
-34.340712 -7.561515 -14.341294 37.975436 0.216732 1.958050 0.086624 -0.011870 -705424.000000 0 0 1
-34.276807 -8.884715 -13.512194 37.900093 0.253623 1.935338 0.078091 -0.017827 837127.000000 0 0 1
-32.969364 -9.499815 -13.393094 36.832057 0.280541 1.942954 0.079185 -0.016597 1559240.000000 0 0 1
-32.279934 -9.806415 -14.643994 36.777799 0.294933 1.980323 0.082010 -0.021067 73175.400000 0 0 1
-30.970874 -10.611515 -14.410294 35.769482 0.330093 1.985442 0.083349 -0.022814 163352.000000 0 0 1
-31.263694 -11.956815 -14.087894 36.316012 0.365287 1.969176 0.081689 -0.022144 -344338.000000 0 0 1
-30.098444 -12.655615 -13.786594 35.442222 0.398031 1.970329 0.089849 -0.021474 -596552.000000 0 0 1
-30.094594 -14.123715 -14.262194 36.174219 0.438796 1.976063 0.094559 -0.024833 -180560.000000 0 0 1
-30.138194 -14.219515 -15.644294 36.813710 0.440843 2.009712 0.094039 -0.024982 9845.060000 0 0 1
-30.162584 -15.565015 -16.259794 37.635516 0.476395 2.017542 0.105283 -0.029257 463464.000000 0 0 1
-28.934914 -16.514615 -16.006194 36.961602 0.518635 2.018669 0.074312 -0.029887 301309.000000 0 0 1
-27.687594 -16.044015 -16.440094 35.976242 0.525184 2.045383 0.071275 -0.032310 -661358.000000 0 0 1
-26.775454 -17.103515 -16.584394 35.839884 0.568444 2.051875 0.063856 -0.026921 454895.000000 0 0 1
-25.365514 -16.553815 -16.966494 34.717431 0.578209 2.081398 0.054378 -0.033196 491773.000000 0 0 1
-25.351444 -15.927415 -18.234994 35.055574 0.560943 2.117851 0.056101 -0.032315 -2072570.000000 0 0 1
-24.088064 -15.848915 -18.663494 34.347474 0.581949 2.145246 0.046106 -0.022049 -2238370.000000 0 0 1
-23.982964 -15.453015 -20.181694 34.946802 0.572381 2.186456 0.051128 -0.019779 118902.000000 0 0 1
-24.480364 -16.430415 -21.173194 36.298084 0.591112 2.193600 0.046673 -0.017965 1061670.000000 0 0 1
-25.912524 -16.521115 -21.194394 37.331066 0.567589 2.174556 0.047715 -0.021934 536043.000000 0 0 1
-26.430614 -17.785415 -21.886694 38.651335 0.592312 2.172757 0.056401 -0.024414 -275421.000000 0 0 1
-25.977294 -17.764915 -23.170594 39.080538 0.599814 2.205444 0.064561 -0.018066 16275.600000 0 0 1
-26.586844 -18.801615 -23.948594 40.421481 0.615527 2.204920 0.062930 -0.011805 -200471.000000 0 0 1
-25.911604 -19.104815 -25.333764 40.965898 0.635328 2.237515 0.065548 -0.011364 988253.000000 0 0 1
-24.500364 -19.352915 -25.370384 40.230082 0.668554 2.253164 0.050583 -0.008244 513696.000000 0 0 1
-24.199164 -20.664215 -24.885394 40.396685 0.706767 2.234484 0.042856 -0.004569 -44270.200000 0 0 1
-22.691764 -21.052515 -24.867594 39.705437 0.747942 2.247597 0.031171 0.004468 468745.000000 0 0 1
-22.292864 -21.272915 -26.242624 40.474486 0.761991 2.276244 0.030366 0.003815 -934138.000000 0 0 1
-21.003764 -21.784015 -26.216274 40.037413 0.803631 2.284707 0.028536 0.006716 -762865.000000 0 0 1
-20.471064 -21.685515 -27.657924 40.672924 0.814198 2.318570 0.024287 0.006481 -330024.000000 0 0 1
-21.030364 -22.630115 -28.540404 42.058923 0.822022 2.316626 0.066068 0.001490 -433669.000000 0 0 1
-21.279764 -22.169515 -29.859914 42.847756 0.805873 2.341840 0.055425 -0.004205 -38524.900000 0 0 1
-20.174764 -22.125515 -30.956134 43.067874 0.831482 2.372836 0.049582 -0.010141 155627.000000 0 0 1
-20.003464 -23.418815 -31.509894 44.061921 0.863891 2.367603 0.049516 -0.018868 -518327.000000 0 0 1
-19.128964 -23.467115 -32.577254 44.473590 0.886892 2.392795 0.037657 -0.020872 -610880.000000 0 0 1
-18.975464 -24.837615 -33.276454 45.654110 0.918407 2.387484 0.043659 -0.020317 -69459.200000 0 0 1
-18.274864 -24.757215 33.993878 45.852743 0.934914 0.735686 0.042659 -0.031125 -725099.000000 0 0 1
-19.095764 -24.462015 32.893878 45.222180 0.907979 0.756295 0.060791 -0.027614 -624942.000000 0 0 1
-18.447364 -24.336315 31.494883 43.868999 0.922183 0.769972 0.059870 -0.023508 -214265.000000 0 0 1
-17.733564 -23.140915 31.306683 42.779547 0.916926 0.749816 0.036776 -0.023203 -330273.000000 0 0 1
-16.951464 -23.176515 30.133783 41.623886 0.939301 0.761279 0.040503 -0.026283 -16984.600000 0 0 1
-16.121564 -21.900115 29.936473 40.443940 0.936224 0.737433 0.029450 -0.018008 -31191.000000 0 0 1
-16.945064 -20.724515 29.793583 40.053693 0.885395 0.731997 0.034189 -0.017042 225469.000000 0 0 1
-16.199464 -19.551915 29.572253 38.977149 0.878896 0.709470 0.037422 -0.013020 173826.000000 0 0 1
-15.440964 -18.880615 30.794443 39.283568 0.885283 0.669872 0.041620 -0.016532 295423.000000 0 0 1
-15.043764 -17.545115 30.565653 38.319773 0.862003 0.647413 0.041130 -0.011436 -143994.000000 0 0 1
-14.553964 -16.847815 31.693183 38.731442 0.858317 0.612383 0.046733 -0.012787 -16324.900000 0 0 1
-13.883064 -15.506115 31.380223 37.654979 0.840568 0.585634 0.061084 -0.020260 118631.000000 0 0 1
-12.592964 -15.586615 30.806053 36.749670 0.891236 0.576698 0.059588 -0.022291 -90432.200000 0 0 1
-12.140664 -14.481215 30.052113 35.499730 0.873091 0.561336 0.063895 -0.018996 775303.000000 0 0 1
-10.634664 -14.176615 30.371863 35.164223 0.927196 0.528201 0.085519 -0.028000 759291.000000 0 0 1
-10.289164 -12.828215 30.026893 34.235133 0.894793 0.501051 0.090456 -0.025709 2528.390000 0 0 1
-8.986764 -12.553515 30.516993 34.199993 0.949494 0.468360 0.060022 -0.024948 161705.000000 0 0 1
-8.575164 -11.104015 30.408483 33.488930 0.913202 0.432273 0.041814 -0.019167 -299645.000000 0 0 1
-9.254964 -10.355815 31.392663 34.327781 0.841474 0.416533 0.047858 -0.020265 149793.000000 0 0 1
-9.024364 -8.993415 31.163773 33.667513 0.783680 0.388090 0.036731 -0.017733 -167013.000000 0 0 1
-9.781264 -8.082815 32.166403 34.578642 0.690607 0.375733 0.026198 -0.020366 53486.000000 0 0 1
-11.081964 -7.861915 31.630583 34.425476 0.617029 0.405733 0.056212 -0.028134 336987.000000 0 0 1
-12.065664 -7.501215 32.599801 35.561152 0.556222 0.410992 0.056648 -0.031089 237923.000000 0 0 1
-12.011764 -6.043715 33.193075 35.813255 0.466164 0.384895 0.045329 -0.030141 -460115.000000 0 0 1
-12.411764 -5.094615 32.217723 34.899694 0.389497 0.394596 0.044457 -0.030173 250662.000000 0 0 1
-12.621064 -3.846615 32.804673 35.358652 0.295834 0.382406 0.051494 -0.032107 -298679.000000 0 0 1
-12.131264 -2.696015 31.901153 34.236233 0.218683 0.371469 0.049680 -0.026877 -176041.000000 0 0 1
-10.738864 -2.558915 31.789563 33.651858 0.233923 0.334240 0.060431 -0.030104 -159380.000000 0 0 1
-10.377464 -1.359515 31.131033 32.843283 0.130265 0.324325 0.055107 -0.023938 -128824.000000 0 0 1
-8.854464 -1.099815 31.096123 32.350889 0.123577 0.279426 0.066115 -0.023394 59462.400000 0 0 1
-8.325764 -0.999315 32.402653 33.470120 0.119455 0.253235 0.063729 -0.039380 -96454.000000 0 0 1
-6.995664 -0.527515 32.287423 33.040812 0.075263 0.213958 0.064264 -0.044591 -12942.300000 0 0 1
-6.478364 0.103085 33.631164 34.249599 -0.015911 0.190322 0.080973 -0.053753 59674.600000 0 0 1
-6.970464 1.404585 33.956942 34.693431 -0.198843 0.206417 0.082661 -0.041735 203933.000000 0 0 1
-6.532964 2.418885 33.015792 33.742750 -0.354607 0.207952 0.083650 -0.039825 134949.000000 0 0 1
-7.317964 3.742185 33.170707 34.173855 -0.472702 0.242895 0.094785 -0.037300 -87863.400000 0 0 1
-8.685364 3.660485 32.863195 34.188072 -0.398864 0.279305 0.067410 -0.031281 -315441.000000 0 0 1
-9.262664 4.932685 32.948311 34.579178 -0.489335 0.308346 0.042484 -0.014920 3898.080000 0 0 1
-10.743264 4.993285 32.503412 34.595121 -0.435079 0.349519 0.023385 -0.005745 69453.100000 0 0 1
-11.228064 6.316585 32.486863 34.948032 -0.512444 0.377534 0.021858 -0.003549 226347.000000 0 0 1
-12.308364 6.611285 31.617793 34.567178 -0.492914 0.416089 0.000376 -0.000036 201746.000000 0 0 1
-13.150164 7.881085 31.936083 35.425298 -0.539915 0.447562 0.022374 -0.011644 571871.000000 0 0 1
-14.004164 7.688785 33.106540 36.759720 -0.502103 0.449602 0.020066 -0.014394 861759.000000 0 0 1
-14.922864 8.764185 33.264356 37.496936 -0.531028 0.479725 0.023659 -0.007106 -215625.000000 0 0 1
-15.711164 8.756685 -33.959554 38.428785 -0.508472 2.654508 0.022059 -0.002776 -423349.000000 0 0 1
-14.908564 9.042085 -32.840924 37.182669 -0.545187 2.653507 0.004087 -0.006221 -307079.000000 0 0 1
-15.638664 9.638685 -31.789414 36.715650 -0.552345 2.617598 0.018508 -0.007668 -742759.000000 0 0 1
-14.752464 10.193385 -30.629584 35.492418 -0.604634 2.611954 0.030265 -0.018850 59991.700000 0 0 1
-14.034664 11.323385 -30.962944 35.831477 -0.678883 2.614209 0.039832 -0.019187 -178430.000000 0 0 1
-12.791164 11.157085 -31.614394 35.882647 -0.717270 2.648873 0.050970 -0.025104 -154326.000000 0 0 1
-11.950564 12.432585 -31.851834 36.220498 -0.805164 2.645369 0.054034 -0.018618 -202873.000000 0 0 1
-12.594664 13.381385 -32.643184 37.460172 -0.815675 2.628866 0.045133 -0.022551 -224635.000000 0 0 1
-11.979564 14.660785 -32.678234 37.766593 -0.885706 2.616482 0.048801 -0.020900 -204532.000000 0 0 1
-12.154764 15.703785 -31.514034 37.248913 -0.912110 2.579307 0.048218 -0.019947 112847.000000 0 0 1
-13.496864 16.123185 -31.364994 37.760896 -0.873834 2.551018 0.037803 -0.017973 236223.000000 0 0 1
-13.670764 17.037285 -30.245964 37.309211 -0.894592 2.516115 0.012234 -0.019632 -709993.000000 0 0 1
-15.026864 17.706885 -30.330534 38.200546 -0.867089 2.488127 0.006833 -0.023028 -714512.000000 0 0 1
-15.179064 18.531285 -31.492374 39.567438 -0.884514 2.491316 0.011074 -0.019383 -667315.000000 0 0 1
-16.448564 19.069485 -31.640014 40.438732 -0.859056 2.469336 -0.005237 -0.015465 -373326.000000 0 0 1
-16.865764 20.312885 -30.752894 40.531566 -0.877852 2.432172 -0.031911 -0.018914 -471045.000000 0 0 1
-16.314464 21.495985 -31.243304 41.284176 -0.921589 2.429179 -0.027115 -0.008271 12883.700000 0 0 1
-16.564264 22.713985 -30.492794 41.474215 -0.940705 2.396792 -0.039045 -0.011623 -361093.000000 0 0 1
-17.848164 23.481285 -30.922344 42.733115 -0.920861 2.379823 -0.034026 -0.010380 -34143.300000 0 0 1
-18.894164 22.649585 -30.435224 42.382733 -0.875550 2.371871 -0.025702 -0.019443 88607.100000 0 0 1
-19.927264 22.500685 -31.432184 43.489756 -0.845978 2.378568 0.006047 -0.019892 -852540.000000 0 0 1
-21.121864 21.730985 -30.895744 43.277198 -0.799611 2.365853 0.022926 -0.034624 -523816.000000 0 0 1
-22.001464 22.431185 -29.976484 43.425938 -0.795069 2.332686 0.068713 -0.039522 746876.000000 0 0 1
-22.878564 23.349185 -30.604814 44.780217 -0.795578 2.323268 0.076894 -0.028100 -425498.000000 0 0 1
-24.143064 22.797385 -31.312464 45.640757 -0.756738 2.326861 0.085101 -0.042586 -476841.000000 0 0 1
-23.963564 22.108385 -32.558744 46.077163 -0.745153 2.355497 0.085984 -0.033366 135582.000000 0 0 1
-25.211734 21.712485 -33.095074 46.929175 -0.710964 2.353520 0.103584 -0.029451 139013.000000 0 0 1
-25.036194 20.859285 34.111048 47.175040 -0.694639 0.762554 0.105925 -0.014126 58072.400000 0 0 1
-24.563964 19.538685 -34.104826 46.349625 -0.671942 2.397668 0.101498 -0.021572 177968.000000 0 0 1
-24.544664 18.799285 33.152600 45.331541 -0.653613 0.750517 0.082553 -0.033135 -62712.700000 0 0 1
-24.148164 17.281885 33.177074 44.525449 -0.621159 0.730072 0.055025 -0.008490 -200552.000000 0 0 1
-25.145514 16.394985 33.628107 45.077068 -0.577783 0.728741 0.054728 -0.011963 189897.000000 0 0 1
-25.389114 15.501285 32.523597 44.075859 -0.548140 0.740842 0.064018 -0.016533 -381071.000000 0 0 1
-26.186024 14.256185 33.007096 44.479378 -0.498549 0.734634 0.044451 -0.012785 -1678560.000000 0 0 1
-27.483624 14.602485 33.291474 45.573067 -0.488385 0.751731 0.049391 -0.010549 -954666.000000 0 0 1
-28.456544 13.603685 33.006715 45.653898 -0.445935 0.762695 0.048460 -0.002362 245185.000000 0 0 1
-28.536614 12.460885 34.007255 46.109711 -0.411708 0.741392 0.033701 0.001156 -560403.000000 0 0 1
-27.384324 11.655985 34.086644 45.251105 -0.402416 0.717765 0.031495 -0.009503 -6768.400000 0 0 1
-27.839024 10.339085 -34.116892 45.231298 -0.355600 2.425347 0.041779 -0.003299 134495.000000 0 0 1
-26.663994 9.332085 -34.008244 44.211051 -0.336664 2.448424 0.034702 -0.014587 648031.000000 0 0 1
-25.822834 8.965685 33.369856 43.136406 -0.334178 0.686311 0.031460 -0.007044 604369.000000 0 0 1
-24.941364 9.987185 32.940180 42.507305 -0.380874 0.684192 0.029123 -0.011579 -468404.000000 0 0 1
-23.683364 9.426685 32.225673 41.088419 -0.378807 0.669228 0.030088 -0.013793 -112510.000000 0 0 1
-23.726864 9.131785 30.847133 39.973732 -0.367397 0.689310 0.040293 -0.016104 -522320.000000 0 0 1
-22.459664 9.025285 30.292553 38.775393 -0.382095 0.674160 0.053095 -0.015699 -369314.000000 0 0 1
-22.655764 8.935185 28.736703 37.668545 -0.375660 0.703035 0.079692 -0.023486 89618.000000 0 0 1
-22.962164 10.221085 28.172073 37.754434 -0.418794 0.728472 0.075352 -0.026005 285461.000000 0 0 1
-23.027564 10.151085 26.758233 36.733041 -0.415196 0.754738 0.078133 -0.029309 -1029200.000000 0 0 1
-23.408564 11.488185 26.103313 36.896101 -0.456235 0.784868 0.072829 -0.030414 144595.000000 0 0 1
-24.699464 11.999885 26.340323 38.050932 -0.452252 0.806210 0.076951 -0.028784 756129.000000 0 0 1
-25.756284 11.340785 25.577803 38.029247 -0.414768 0.833103 0.073993 -0.025509 1045200.000000 0 0 1
-27.186314 11.949785 25.705753 39.276950 -0.414131 0.857309 0.062217 -0.028476 372048.000000 0 0 1
-27.329834 13.266985 25.227833 39.488939 -0.451932 0.877783 0.076058 -0.032197 -137773.000000 0 0 1
-28.533674 13.887685 25.631833 40.792515 -0.452961 0.891370 0.050287 -0.034913 30633.700000 0 0 1
-28.744814 15.253585 24.906483 40.978886 -0.487870 0.917524 0.058612 -0.035614 -227457.000000 0 0 1
-27.866694 16.299285 25.222153 40.967992 -0.529244 0.907579 0.072032 -0.036990 -238994.000000 0 0 1
-28.125194 17.490285 24.534773 41.217614 -0.556347 0.933220 0.074094 -0.035894 -3003.240000 0 0 1
-22.999364 -9.174215 31.268813 39.885782 0.379549 0.669779 0.057278 -0.013263 167205.000000 0 0 1
-21.936464 -8.697815 30.440703 38.516189 0.377486 0.659440 0.062102 -0.018027 288241.000000 0 0 1
-22.085464 -9.212215 29.102543 37.677455 0.395174 0.688165 0.059303 -0.013544 -862161.000000 0 0 1
-20.898864 -8.893615 28.267753 36.261891 0.402341 0.676858 0.049927 -0.024683 -2144950.000000 0 0 1
-20.672764 -7.547915 27.869433 35.511118 0.350075 0.668409 0.052144 -0.027331 -696056.000000 0 0 1
-19.574364 -7.030215 28.523313 35.300978 0.344807 0.630041 0.055903 -0.033910 -973666.000000 0 0 1
-18.206764 -7.393115 27.904643 34.129364 0.385723 0.613542 0.065416 -0.028754 -1194420.000000 0 0 1
-17.832864 -8.736315 28.014943 34.339063 0.455535 0.616628 0.069680 -0.023884 -64140.700000 0 0 1
-17.371364 -9.187715 29.291813 35.273059 0.486499 0.590917 0.069701 -0.021398 -1165390.000000 0 0 1
-16.007864 -8.779415 29.813833 34.959898 0.501648 0.549471 0.071471 -0.024667 -319659.000000 0 0 1
-14.932864 -9.423215 29.134113 34.067344 0.562930 0.544876 0.070615 -0.020606 792009.000000 0 0 1
-13.625564 -8.941615 29.505403 33.707229 0.580748 0.504651 0.067449 -0.024530 1219190.000000 0 0 1
-12.453464 -9.783715 28.964043 33.010993 0.665912 0.500368 0.069359 -0.018305 -30756.300000 0 0 1
-12.236064 -9.643915 27.607093 31.699810 0.667476 0.513783 0.080199 -0.021969 -284690.000000 0 0 1
-11.055864 -10.307415 27.212603 31.128776 0.750378 0.507022 0.079053 -0.018065 179952.000000 0 0 1
-10.621364 -9.986615 25.728383 29.571871 0.754607 0.515535 0.068671 -0.012737 -194045.000000 0 0 1
-11.518264 -10.518815 24.835503 29.327770 0.740076 0.560808 0.061070 -0.012788 -302812.000000 0 0 1
-10.985264 -10.271315 23.577673 27.965740 0.751824 0.567790 0.037493 -0.013028 345770.000000 0 0 1
-12.037964 -10.722515 22.525253 27.699674 0.727667 0.621174 0.034738 -0.016339 -149518.000000 0 0 1
-12.035064 -12.174015 22.481453 28.257125 0.791138 0.650794 0.042507 -0.015190 589876.000000 0 0 1
-13.222464 -12.802415 21.970053 28.660401 0.769259 0.697322 0.028773 -0.011155 227131.000000 0 0 1
-14.325164 -12.808615 23.047653 30.007753 0.729565 0.694995 0.034230 -0.008799 -291831.000000 0 0 1
-15.545164 -13.339615 22.520053 30.442573 0.709189 0.738090 0.024351 -0.005816 91634.200000 0 0 1
-16.564564 -13.241015 23.466153 31.628620 0.674349 0.734855 0.024876 -0.006660 -1247380.000000 0 0 1
-17.871764 -13.842615 23.066753 32.296951 0.659030 0.775304 0.036549 -0.009615 -1309100.000000 0 0 1
-17.820164 -15.240715 23.095553 32.912645 0.707535 0.792984 0.031228 -0.008572 365148.000000 0 0 1
-19.088164 -15.873315 23.024753 33.859406 0.693702 0.823019 0.048879 -0.007167 282433.000000 0 0 1
-19.967164 -15.911815 24.297993 35.245793 0.672847 0.810154 0.050463 -0.011552 -193280.000000 0 0 1
-19.458164 -16.767215 25.308683 36.059521 0.711251 0.792793 0.046029 -0.009653 45299.000000 0 0 1
-20.354364 -16.829215 26.399733 37.342583 0.690877 0.785605 0.048993 -0.016764 -90018.100000 0 0 1
-19.969764 -17.725215 27.596683 38.399891 0.725923 0.768915 0.051340 -0.020457 -117439.000000 0 0 1
-19.871964 -19.085815 27.231013 38.738758 0.765221 0.791274 0.055591 -0.019051 91286.000000 0 0 1
-19.722264 -19.880615 28.392473 39.879056 0.789397 0.778504 0.054270 -0.020342 -361618.000000 0 0 1
-19.750464 -21.365915 28.090543 40.443315 0.824668 0.802980 0.051469 -0.012963 1593220.000000 0 0 1
-21.113664 -21.914215 27.970173 41.332193 0.804001 0.827503 0.059787 -0.015365 1668020.000000 0 0 1
-21.073664 -23.227415 27.410733 41.652856 0.833976 0.852536 0.073204 -0.004385 -183061.000000 0 0 1
-22.431864 -23.746515 26.926163 42.333246 0.813859 0.881425 0.078299 -0.006047 -130828.000000 0 0 1
-23.222664 -24.234415 28.007933 43.715481 0.806714 0.875404 0.072169 -0.004437 169385.000000 0 0 1
-24.436564 -24.772015 27.504193 44.354019 0.792215 0.901919 0.055134 -0.000624 543148.000000 0 0 1
-25.376744 -25.400965 28.585833 45.894858 0.785875 0.898410 0.031674 0.000909 152004.000000 0 0 1
-26.150444 -24.578415 29.423783 46.408008 0.754419 0.884051 0.023632 0.009568 51621.300000 0 0 1
-26.473354 -25.248395 30.610413 47.700286 0.761719 0.874052 0.025515 0.008692 -578436.000000 0 0 1
-27.682654 -24.769215 31.384163 48.629302 0.729910 0.869281 0.007788 0.018339 -693858.000000 0 0 1
-28.892014 -24.967215 30.725873 49.012137 0.712655 0.893224 0.011268 0.015883 -27567.000000 0 0 1
-29.757914 -23.829715 30.644773 48.913095 0.675220 0.893723 0.010783 0.003973 238284.000000 0 0 1
-30.910954 -23.933515 29.627233 49.051740 0.658856 0.922286 0.006879 0.001383 -290974.000000 0 0 1
-31.907964 -24.811515 30.060873 50.372468 0.660930 0.931324 0.005261 0.006865 231643.000000 0 0 1
-33.031994 -24.845715 29.162663 50.585404 0.644889 0.956353 0.010618 0.000325 759090.000000 0 0 1
-34.124503 -25.868985 29.617143 52.065932 0.648650 0.965703 0.007263 -0.003198 202395.000000 0 0 1
-33.724684 -27.220195 29.591213 52.477931 0.679073 0.971721 0.015077 -0.003628 -5728.430000 0 0 1
-34.627246 -27.963645 30.408353 53.904355 0.679335 0.971433 0.014236 -0.005152 197347.000000 0 0 1
-34.178680 -29.358265 30.824003 54.591291 0.709675 0.970809 0.018032 -0.010050 -287419.000000 0 0 1
-33.297384 -29.258585 31.897803 54.609985 0.720925 0.947023 0.027565 -0.001235 -492841.000000 0 0 1
-32.870294 -30.544885 32.243763 55.254923 0.748745 0.947708 0.032361 -0.012891 -231929.000000 0 0 1
-32.041314 -30.629265 33.547802 55.590041 0.762871 0.922931 0.027838 -0.008713 -129994.000000 0 0 1
-32.654864 -30.321835 -33.711194 55.876636 0.748369 2.218447 0.011373 0.005764 -708215.000000 0 0 1
-31.745234 -30.528805 -32.667004 54.835216 0.765867 2.208971 0.016415 0.001995 -111191.000000 0 0 1
-32.261684 -30.062325 -31.278264 54.063753 0.750124 2.187739 0.016861 -0.000446 -45547.500000 0 0 1
-32.430234 -28.671025 -31.063264 53.279209 0.723951 2.193247 0.014022 -0.001732 -763169.000000 0 0 1
-31.269564 -27.926745 -31.191714 52.255256 0.728988 2.210441 0.030507 0.001674 -669572.000000 0 0 1
-31.526304 -26.434685 -30.935704 51.475413 0.697777 2.215523 0.008957 0.014145 -69628.600000 0 0 1
-31.822744 -26.067235 -29.578994 50.666603 0.686302 2.194193 0.010436 -0.004539 50828.000000 0 0 1
-31.887114 -24.613915 -29.601434 49.988776 0.657375 2.204535 0.025973 -0.006320 305522.000000 0 0 1
-30.791814 -23.953015 -28.699894 48.431050 0.661121 2.205070 0.035803 -0.015223 -5246.820000 0 0 1
-30.613374 -22.562315 -28.959354 47.800428 0.635135 2.221616 0.046170 -0.013065 601167.000000 0 0 1
-29.602394 -22.038615 -28.076584 46.371293 0.639964 2.221157 0.052057 -0.013009 468603.000000 0 0 1
-29.355064 -20.534915 -28.138594 45.554176 0.610414 2.236605 0.060270 -0.018335 84116.000000 0 0 1
-28.931284 -20.146815 -29.468444 45.948912 0.608284 2.267028 0.070542 -0.019607 440949.000000 0 0 1
-28.500444 -18.786715 -29.565664 45.159102 0.582797 2.284582 0.064338 -0.025336 -180249.000000 0 0 1
-27.929734 -18.382215 -30.940644 45.555453 0.582090 2.317450 0.074752 -0.024753 692856.000000 0 0 1
-28.865394 -18.208515 -32.048134 46.817132 0.562765 2.324767 0.071101 -0.027051 195266.000000 0 0 1
-29.744294 -17.152715 -31.908314 46.873011 0.523090 2.319568 0.071511 -0.024328 -1045110.000000 0 0 1
-30.271184 -16.542615 -33.246254 47.909457 0.500137 2.337742 0.076793 -0.027322 -180832.000000 0 0 1
-31.169744 -17.367315 -33.936224 49.242704 0.508343 2.331129 0.061638 -0.022962 82872.100000 0 0 1
-32.492204 -17.144915 -33.509914 49.725303 0.485532 2.310272 0.048081 -0.020334 -316305.000000 0 0 1
-33.677454 -17.692715 34.145503 51.118670 0.483727 0.839325 0.033184 -0.017973 372401.000000 0 0 1
-34.024814 -19.113515 34.225359 51.907510 0.511821 0.850839 0.031835 -0.013379 270100.000000 0 0 1
-35.089489 -19.392915 33.330512 52.137131 0.504891 0.877228 0.030123 -0.009453 -6403.140000 0 0 1
-35.627998 -20.838115 33.262912 53.009458 0.529228 0.892471 0.031646 -0.012834 -104214.000000 0 0 1
-34.659603 -21.778615 32.892523 52.512039 0.561010 0.893895 0.037545 -0.009699 -287331.000000 0 0 1
-35.065722 -23.049915 33.298643 53.569610 0.581514 0.900018 0.038730 -0.010552 -174984.000000 0 0 1
-33.882914 -24.050715 33.475938 53.358478 0.617285 0.892615 0.026252 0.001375 1499230.000000 0 0 1
-32.906824 -23.866915 -33.925454 52.947381 0.627497 2.266257 0.013430 -0.001853 1472120.000000 0 0 1
-32.006074 -22.740515 -34.070704 51.983965 0.617742 2.285519 0.028207 -0.004063 896283.000000 0 0 1
-30.767484 -22.566915 -33.080424 50.499685 0.632835 2.285061 0.019586 0.002177 574440.000000 0 0 1
-29.658104 -23.296615 -33.539944 50.470419 0.665840 2.297683 0.022436 0.008565 -136025.000000 0 0 1
-28.449294 -23.130315 -32.829424 49.215291 0.682640 2.301048 0.036733 -0.001690 221915.000000 0 0 1
-28.272494 -23.692515 -31.401414 48.442935 0.697489 2.276034 0.041051 0.008708 -699718.000000 0 0 1
-28.041464 -25.084035 -31.371324 48.986656 0.729787 2.265822 0.040846 0.005724 -21768.100000 0 0 1
-27.713764 -25.410985 -30.035414 48.123767 0.742079 2.244812 0.033680 -0.002388 -360606.000000 0 0 1
-27.247564 -26.869375 -29.845894 48.530098 0.778410 2.233179 0.032644 -0.002329 -132180.000000 0 0 1
-28.202774 -27.890495 -29.939264 49.695429 0.779831 2.217370 0.027867 0.003944 -173035.000000 0 0 1
-27.652524 -29.071495 -29.403324 49.743033 0.810408 2.203224 0.022178 0.002604 309366.000000 0 0 1
-28.431464 -30.369925 -29.822284 51.186415 0.818352 2.192746 0.020650 0.010680 86816.600000 0 0 1
-28.375904 -30.659125 -31.207124 52.144592 0.824055 2.212390 0.036832 -0.004695 212066.000000 0 0 1
-28.416084 -32.055565 -31.399804 53.112906 0.845511 2.203329 0.040203 0.000464 -260044.000000 0 0 1
-28.099214 -32.527185 -32.818964 54.080199 0.858306 2.222897 0.037759 -0.007285 -1152090.000000 0 0 1
-26.738954 -32.580265 -32.995414 53.527027 0.883554 2.234991 0.025179 -0.005928 -1495890.000000 0 0 1
-26.459424 -33.431225 -34.111023 54.601372 0.901285 2.245580 0.039204 -0.005988 263311.000000 0 0 1
-25.029164 -33.145965 33.810652 53.556272 0.924027 0.887554 0.036314 -0.011095 580765.000000 0 0 1
-24.518964 -33.914005 32.746612 53.138309 0.944817 0.906821 0.036304 -0.004377 -83593.600000 0 0 1
-23.876264 33.382290 33.160645 52.764398 -0.949917 0.891216 0.031377 -0.001347 -572064.000000 0 0 1
-23.537264 32.474863 31.976513 51.294414 -0.943630 0.897723 0.025066 -0.009052 -21976.900000 0 0 1
-24.721864 31.936768 31.445673 51.185526 -0.912056 0.909238 0.037490 -0.019762 -71885.500000 0 0 1
-24.393764 30.857838 30.610403 49.842338 -0.901862 0.909495 0.027653 -0.009421 -17625.500000 0 0 1
-25.603614 30.146638 29.963253 49.620171 -0.866707 0.922471 0.031601 -0.007908 -106554.000000 0 0 1
-26.371274 29.363098 30.833033 50.083047 -0.839027 0.907601 0.036560 -0.011968 -87728.000000 0 0 1
-27.478574 28.842418 30.131633 49.948698 -0.809609 0.923224 0.034747 -0.012190 -120479.000000 0 0 1
-28.088354 27.541838 30.653623 49.871366 -0.775574 0.908849 0.035452 -0.022718 -489193.000000 0 0 1
-27.244474 26.465038 30.514353 48.721508 -0.770887 0.893996 0.034453 -0.014414 -288462.000000 0 0 1
-27.857724 25.221528 30.933723 48.673129 -0.735774 0.882089 0.053349 -0.016736 650130.000000 0 0 1
-28.902734 24.580038 29.980413 48.356711 -0.704749 0.902073 0.056620 -0.016189 380803.000000 0 0 1
-28.328784 24.129178 28.779043 47.042221 -0.705512 0.912499 0.063882 -0.023450 -215794.000000 0 0 1
-29.272094 23.470728 27.954353 46.788636 -0.675845 0.930466 0.064519 -0.012902 169947.000000 0 0 1
-28.649604 23.065788 26.587613 45.384266 -0.677843 0.944888 0.079344 -0.020606 -82538.400000 0 0 1
-27.673114 22.101388 26.882033 44.462527 -0.673923 0.921533 0.079008 -0.026713 -246665.000000 0 0 1
-27.103364 21.521088 25.734113 43.127650 -0.671095 0.931418 0.068340 -0.009355 -280753.000000 0 0 1
-25.672784 20.986488 25.885293 42.066292 -0.685297 0.907972 0.077841 -0.016690 -406482.000000 0 0 1
-25.644314 19.883488 26.701883 42.023500 -0.659533 0.882265 0.099706 -0.033200 -254300.000000 0 0 1
-24.373264 19.399488 27.004353 41.226584 -0.672256 0.856584 0.095662 -0.020033 -552424.000000 0 0 1
-24.422264 18.273288 28.006343 41.409121 -0.642363 0.828024 0.114094 -0.029813 901783.000000 0 0 1
-23.113064 17.766788 28.358473 40.670327 -0.655356 0.799205 0.096921 -0.016294 1100070.000000 0 0 1
-23.213964 16.880088 29.505473 41.163072 -0.628718 0.771602 0.093126 -0.017147 495626.000000 0 0 1
-21.919164 16.033688 29.712283 40.253555 -0.631550 0.740505 0.079750 -0.022090 251294.000000 0 0 1
-20.818764 16.621888 30.323533 40.363657 -0.673770 0.720830 0.094480 -0.009789 -175361.000000 0 0 1
-19.698264 15.764888 30.353923 39.470419 -0.674935 0.693475 0.064602 -0.010645 847567.000000 0 0 1
-18.487164 16.295188 31.214243 39.769805 -0.722462 0.668305 0.047773 -0.012624 507934.000000 0 0 1
-18.733764 15.959788 32.573458 40.825224 -0.705611 0.647033 0.020417 0.000477 112865.000000 0 0 1
-17.737064 16.449188 33.399437 41.239564 -0.747744 0.626835 0.017190 0.002066 -1049280.000000 0 0 1
-18.177064 16.352988 -33.610654 41.563228 -0.732621 2.512672 0.001968 -0.009690 892663.000000 0 0 1
-19.325064 17.171488 -33.261544 42.126576 -0.726459 2.480891 0.003644 -0.007060 446466.000000 0 0 1
-20.522564 16.488788 -33.473244 42.585371 -0.676839 2.475152 0.013757 -0.003256 -1110610.000000 0 0 1
-21.706564 17.124288 -32.730624 42.845186 -0.667935 2.440174 0.023986 -0.020307 -290868.000000 0 0 1
-21.563064 16.946788 -31.335774 41.642408 -0.666095 2.422641 0.014160 -0.023597 157433.000000 0 0 1
-22.440164 17.791188 -30.624574 41.927937 -0.670352 2.389718 0.019149 -0.032296 -718234.000000 0 0 1
-22.570364 17.432088 -29.113564 40.754124 -0.657649 2.366521 0.018049 -0.032342 426899.000000 0 0 1
-23.274064 16.227788 -28.698854 40.356504 -0.608876 2.361905 0.005040 -0.027250 -41921.100000 0 0 1
-24.566864 16.100388 -29.228334 41.437288 -0.580141 2.353732 0.025881 -0.030935 -835609.000000 0 0 1
-25.442754 15.065288 -28.486614 41.058298 -0.534609 2.337561 0.030919 -0.025736 -282975.000000 0 0 1
-24.973164 13.743288 -28.525784 40.326880 -0.503091 2.356558 -0.001248 -0.011986 -263286.000000 0 0 1
-25.808944 12.831088 -27.849414 40.079026 -0.461370 2.339025 -0.008720 -0.007504 -390108.000000 0 0 1
-25.404274 11.368988 -27.926474 39.427389 -0.420792 2.357885 0.005900 -0.006901 119557.000000 0 0 1
-24.271464 11.145288 -27.096424 38.046519 -0.430473 2.363412 0.003687 -0.002215 251027.000000 0 0 1
-23.519964 10.013188 -27.544564 37.578660 -0.402490 2.393495 -0.003494 0.003265 877283.000000 0 0 1
-22.384364 9.447088 -26.599164 36.025307 -0.399361 2.401412 0.027149 -0.001171 519389.000000 0 0 1
-22.917864 8.762188 -25.540984 35.416752 -0.365181 2.376265 0.036554 0.000980 -30768.200000 0 0 1
-21.929164 8.016188 -24.837694 34.088980 -0.350459 2.387092 0.062867 0.000940 -61503.000000 0 0 1
-22.562564 6.994888 -23.889194 33.596002 -0.300626 2.361819 0.069803 0.001565 -42477.300000 0 0 1
-23.316264 6.015288 -24.552994 34.390135 -0.252481 2.365926 0.063555 -0.011014 85359.300000 0 0 1
-23.552064 5.039988 -23.598894 33.719564 -0.210814 2.345994 0.070531 -0.005243 -456198.000000 0 0 1
34.819133 25.198285 -10.897994 44.340634 0.626450 1.819120 0.001872 0.002965 406400.000000 0 0 1
35.745083 24.578485 -9.973394 44.511588 0.602358 1.796778 0.011123 -0.001209 453555.000000 0 0 1
-36.129074 23.639585 -10.675494 44.475906 -0.579399 1.813192 0.020981 -0.003812 -394433.000000 0 0 1
-35.046164 22.944885 -9.824594 43.025853 -0.579675 1.801170 0.048074 -0.013979 -301553.000000 0 0 1
-35.464380 22.009985 -8.808394 42.658522 -0.555445 1.778779 0.028649 -0.007179 -698846.000000 0 0 1
-34.405178 21.491485 -8.097894 41.366365 -0.558354 1.767829 0.062551 -0.002621 -956642.000000 0 0 1
-34.865501 20.666485 -6.900994 41.113629 -0.535071 1.739446 0.064457 0.011176 -90751.800000 0 0 1
-35.262118 19.352485 -7.322594 40.884668 -0.501935 1.750872 0.059643 0.002326 356054.000000 0 0 1
-35.506765 18.448785 -6.260094 40.500331 -0.479193 1.725987 0.057780 -0.015018 182772.000000 0 0 1
-36.308814 17.169785 -6.720294 40.722155 -0.441719 1.736583 0.067623 -0.002609 171145.000000 0 0 1
35.079363 17.362085 -7.295294 39.814884 0.459589 1.755068 0.058075 -0.006769 -164407.000000 0 0 1
34.690133 16.257385 -8.135794 39.165023 0.438251 1.780051 0.068382 -0.000124 683593.000000 0 0 1
33.285833 16.518685 -8.780194 38.182528 0.460657 1.802826 0.041953 -0.011295 467492.000000 0 0 1
32.818803 15.444185 -9.520794 37.499896 0.439844 1.827495 0.056553 -0.024701 -141084.000000 0 0 1
31.999293 15.849085 -10.579294 37.243385 0.459876 1.858820 0.066850 -0.021458 -391164.000000 0 0 1
31.140083 14.738885 -11.285594 36.253333 0.442068 1.887355 0.050130 -0.021555 299981.000000 0 0 1
29.908243 14.332685 -10.730494 34.857888 0.446887 1.883714 0.043828 -0.008809 282278.000000 0 0 1
30.018763 13.750485 -9.429594 34.338305 0.429539 1.848979 0.047981 -0.005800 -711913.000000 0 0 1
28.925003 12.712185 -9.085694 32.875603 0.414078 1.850807 0.059614 0.003159 -273317.000000 0 0 1
29.152643 11.531485 -9.855894 32.863207 0.376669 1.875391 0.060426 -0.001854 119743.000000 0 0 1
28.191903 10.556585 -9.626894 31.605410 0.358292 1.880311 0.076144 -0.002785 -906220.000000 0 0 1
28.643733 9.183885 -10.180694 31.756160 0.310269 1.897148 0.077470 -0.004229 -1020040.000000 0 0 1
29.704963 8.725585 -9.444994 32.368635 0.285705 1.866899 0.070687 -0.006686 -490900.000000 0 0 1
29.917823 7.350285 -9.459494 32.227082 0.240911 1.868710 0.074562 -0.008968 -108777.000000 0 0 1
31.129033 6.874485 -8.587694 33.015507 0.217350 1.833933 0.085435 -0.011566 847888.000000 0 0 1
32.366393 7.180885 -9.248394 34.419199 0.218326 1.842838 0.087168 -0.015618 575968.000000 0 0 1
33.450163 6.790685 -8.419494 35.155578 0.200287 1.812639 0.093421 -0.016202 412944.000000 0 0 1
34.887383 6.952685 -8.974294 36.687971 0.196712 1.817915 0.095384 -0.014793 296663.000000 0 0 1
35.220863 6.069085 -10.041994 37.123909 0.170639 1.844708 0.094354 -0.018471 -1060370.000000 0 0 1
-36.090734 6.179185 -10.290594 38.034455 -0.169568 1.844771 0.092376 -0.020594 -1786540.000000 0 0 1
-35.498888 5.329185 -11.450494 37.678709 -0.149010 1.879578 0.096284 -0.026783 -53953.300000 0 0 1
-34.177712 5.562985 -11.887894 36.611267 -0.161352 1.901497 0.104337 -0.032792 321730.000000 0 0 1
-33.831654 6.785785 -12.486494 36.695235 -0.197948 1.918006 0.086423 -0.026598 -474430.000000 0 0 1
-33.087794 7.852285 -11.632594 35.941310 -0.233006 1.900386 0.079318 -0.012488 -1001310.000000 0 0 1
-33.828574 8.435985 -10.653394 36.455906 -0.244390 1.867351 0.081291 -0.015972 -330508.000000 0 0 1
-34.353917 9.675985 -11.071394 37.368330 -0.274544 1.871589 0.086156 -0.018200 -301825.000000 0 0 1
-35.301673 10.318485 -10.088694 38.137397 -0.284373 1.838519 0.076833 -0.014489 -360601.000000 0 0 1
-34.618894 10.894385 -9.013894 37.395264 -0.304883 1.814237 0.073259 -0.010389 217592.000000 0 0 1
-35.445358 11.756685 -8.219494 38.238111 -0.320266 1.787443 0.069702 -0.006404 80874.900000 0 0 1
-34.575710 12.752985 -7.426394 37.593480 -0.353361 1.769649 0.071059 -0.007922 402355.000000 0 0 1
-33.802814 13.677385 -8.211994 37.378309 -0.384485 1.792303 0.060750 -0.013170 -269536.000000 0 0 1
-33.024014 14.349385 -7.267194 36.732853 -0.409901 1.769949 0.053889 -0.009953 -2567.740000 0 0 1
-32.096144 15.457785 -7.932594 36.497009 -0.448827 1.789894 0.043906 -0.013453 266019.000000 0 0 1
-32.753384 16.369085 -8.770294 37.651683 -0.463462 1.805888 0.040243 -0.013055 -216226.000000 0 0 1
-32.073684 17.596985 -8.856494 37.640571 -0.501800 1.808314 0.040851 -0.007096 150430.000000 0 0 1
-32.642654 18.357485 -10.073994 38.781768 -0.512296 1.833571 0.020029 -0.010917 256984.000000 0 0 1
-32.394844 17.798485 -11.335994 38.661567 -0.502400 1.868380 0.012128 -0.012088 -280352.000000 0 0 1
-33.361744 18.231985 -12.264994 39.947983 -0.500147 1.882861 0.006189 -0.018572 -219700.000000 0 0 1
-32.878704 18.341285 -13.721194 40.070976 -0.508848 1.920290 0.002361 -0.002531 -209716.000000 0 0 1
-32.049344 19.487485 -13.832194 39.978146 -0.546315 1.924094 0.004621 -0.001202 232542.000000 0 0 1
-31.839424 19.910085 -15.180094 40.504268 -0.558835 1.954953 -0.012267 0.000743 -544398.000000 0 0 1
-31.204984 21.354785 -15.285494 40.785098 -0.600138 1.954957 0.007893 -0.008517 -693864.000000 0 0 1
-29.906184 21.343585 -14.785794 39.604901 -0.619851 1.953395 0.001274 -0.000770 -421549.000000 0 0 1
-29.434024 22.673385 -14.576194 39.911272 -0.656375 1.944660 -0.007527 -0.004090 191113.000000 0 0 1
-28.562304 23.293385 -15.751694 40.081204 -0.684138 1.974682 -0.005040 0.001752 -455755.000000 0 0 1
-29.264104 23.690085 -16.913694 41.275671 -0.680523 1.993003 0.001177 0.006698 20949.500000 0 0 1
-28.376304 24.232685 -17.883894 41.379601 -0.706798 2.017717 -0.000215 0.009726 -355650.000000 0 0 1
-27.693014 25.608185 -17.591794 41.619147 -0.746304 2.007202 0.010479 0.009093 182120.000000 0 0 1
-28.549944 26.690285 -17.175394 42.690336 -0.751746 1.984851 0.020637 0.004898 50230.300000 0 0 1
-27.824724 27.878085 -17.190994 42.975961 -0.786356 1.982329 0.022253 0.004486 208504.000000 0 0 1
-28.592534 29.156485 -16.642694 44.097766 -0.795163 1.957788 0.026331 -0.004189 -43466.800000 0 0 1
-28.807684 29.409785 -15.249494 43.901768 -0.795740 1.925545 0.028801 -0.000476 414679.000000 0 0 1
-27.667584 29.224185 -14.406494 42.744535 -0.812752 1.914564 0.025361 0.004992 156866.000000 0 0 1
-27.730334 30.057285 -13.139494 42.954140 -0.825644 1.881676 0.046933 -0.004442 -180981.000000 0 0 1
-27.407614 31.355085 -13.423294 43.755040 -0.852474 1.882607 0.063522 -0.008382 -62459.300000 0 0 1
-27.696654 32.191085 -12.332994 44.220735 -0.860305 1.853441 0.065476 -0.012185 -32261.100000 0 0 1
-27.184464 33.670685 -12.433194 45.025487 -0.891582 1.850569 0.037330 -0.012917 -217800.000000 0 0 1
-27.715894 -34.080717 -13.451694 45.941421 0.888033 1.867951 0.023306 -0.023556 -37260.700000 0 0 1
-26.918074 -32.904417 -13.660094 44.652901 0.885135 1.881698 0.029394 -0.026381 32814.500000 0 0 1
-27.311484 -32.197917 -14.999294 44.806271 0.867326 1.912146 0.021746 -0.023138 39653.000000 0 0 1
-26.933454 -32.892517 -16.157794 45.479698 0.884677 1.934004 0.009604 -0.020476 -127364.000000 0 0 1
-27.391054 -32.283317 -17.350094 45.754871 0.867198 1.959724 0.011969 -0.006581 -376142.000000 0 0 1
-26.550144 -32.723217 -18.550694 46.041800 0.889170 1.985490 0.006739 -0.001308 -321641.000000 0 0 1
-26.683584 -34.049417 -19.022794 47.257202 0.906091 1.985083 0.011583 0.003882 -185464.000000 0 0 1
-26.059024 33.403985 -18.283494 46.143094 -0.908297 1.978209 -0.002747 -0.004451 -720498.000000 0 0 1
-26.228344 32.014685 -19.071894 45.569763 -0.884421 2.002612 0.007270 -0.007464 862145.000000 0 0 1
-27.548884 31.450985 -19.140294 45.983218 -0.851439 2.000108 0.015947 -0.008876 1041440.000000 0 0 1
-28.455164 32.164885 -20.017894 47.381350 -0.846518 2.006981 0.013180 -0.001570 1127200.000000 0 0 1
-29.934134 31.604085 -20.026894 47.916042 -0.812528 2.001993 0.018381 -0.013777 1044640.000000 0 0 1
-30.168084 30.345885 -20.671394 47.521496 -0.788336 2.020824 0.013314 -0.014500 461388.000000 0 0 1
-31.545924 29.990385 -20.605594 48.157648 -0.760125 2.012940 0.028745 -0.013879 356977.000000 0 0 1
-31.896334 28.738085 -21.473594 48.003843 -0.733358 2.034575 0.024558 -0.014300 447153.000000 0 0 1
-33.296814 28.479485 -21.613194 48.855799 -0.707575 2.029055 0.037207 -0.015370 657248.000000 0 0 1
-33.443054 27.212985 -22.228194 48.508526 -0.683046 2.046802 0.034687 -0.014357 2038490.000000 0 0 1
-34.919583 26.534185 -22.256194 49.181078 -0.649785 2.040403 0.055529 -0.014409 2234820.000000 0 0 1
-35.851451 27.101285 -23.139294 50.549314 -0.647287 2.046267 0.050216 -0.013935 138788.000000 0 0 1
35.830743 26.178285 -23.682494 50.299158 0.630975 2.061031 0.062233 -0.014939 864326.000000 0 0 1
34.986293 26.921985 -24.747894 50.609211 0.655865 2.081739 0.066967 -0.022541 335841.000000 0 0 1
35.787213 27.163685 -25.905894 51.862373 0.649257 2.093832 0.066413 -0.018241 218387.000000 0 0 1
34.975503 27.518785 -27.017014 52.062351 0.666641 2.116402 0.080572 -0.012735 427257.000000 0 0 1
35.819353 27.838385 -28.321974 53.480239 0.660676 2.128900 0.077954 -0.007504 375451.000000 0 0 1
-36.267624 26.643185 -28.844474 53.452816 -0.633590 2.140788 0.071721 0.003546 -383225.000000 0 0 1
-35.529185 26.937285 -29.988054 53.732892 -0.648712 2.162884 0.031092 0.008064 -1057670.000000 0 0 1
-35.259556 25.589585 -30.700874 53.297344 -0.627799 2.184660 0.018165 0.006384 398743.000000 0 0 1
-34.282901 24.759185 -30.091654 51.902237 -0.625472 2.189250 0.030477 0.001780 869219.000000 0 0 1
-32.942544 25.280885 -30.168324 51.327012 -0.654559 2.199092 0.009296 0.006569 659189.000000 0 0 1
-31.824864 24.708185 -29.249744 49.788191 -0.660172 2.198742 0.004147 0.000932 96897.500000 0 0 1
-31.487214 23.418685 -29.737714 49.236279 -0.639491 2.219281 0.024577 -0.005456 -23931.500000 0 0 1
-31.998324 22.342185 -28.928584 48.579100 -0.609537 2.208677 0.024106 -0.001790 96252.100000 0 0 1
-31.707994 20.904685 -29.504534 48.092830 -0.582877 2.231270 0.026576 -0.011078 26875.300000 0 0 1
-30.357774 20.507085 -29.384984 46.963947 -0.594102 2.246815 0.055945 -0.020513 -47509.900000 0 0 1
-30.175244 19.299385 -30.099574 46.786708 -0.569013 2.269644 0.047209 -0.023080 -740291.000000 0 0 1
-28.763914 18.753285 -29.994864 45.593205 -0.577761 2.288797 0.062689 -0.032300 -651571.000000 0 0 1
-27.800544 19.470185 -30.802574 45.834015 -0.610963 2.307765 0.076169 -0.029011 959163.000000 0 0 1
-26.530144 18.840785 -30.948134 44.906689 -0.617516 2.331133 0.074651 -0.037086 404510.000000 0 0 1
-26.500154 17.561885 -31.779924 44.951547 -0.585258 2.356018 0.064303 -0.028746 -938227.000000 0 0 1
-27.130084 16.467385 -31.197834 44.503046 -0.545535 2.347633 0.030932 -0.021584 -13169.000000 0 0 1
-27.236074 15.367785 -32.088424 44.806691 -0.513713 2.369070 0.008823 -0.004756 -82498.500000 0 0 1
-27.820874 14.169485 -31.302404 44.211038 -0.471069 2.357490 0.016960 -0.001386 929930.000000 0 0 1
-29.254554 14.108685 -31.100704 44.968186 -0.449366 2.334520 0.029421 -0.004682 1148150.000000 0 0 1
-29.763074 12.806885 -30.999754 44.842409 -0.406347 2.334089 0.027576 -0.003127 -339577.000000 0 0 1
-29.290574 11.925485 -29.781364 43.440587 -0.386650 2.326176 0.015363 -0.012585 -370724.000000 0 0 1
-29.362084 12.435785 -28.452014 42.735206 -0.400627 2.299328 -0.003577 -0.010785 180832.000000 0 0 1
-29.335514 11.407885 -27.516584 41.807591 -0.370880 2.289184 0.013081 -0.009614 -164744.000000 0 0 1
-29.451354 11.937285 -26.054364 41.093928 -0.385086 2.257537 0.002477 -0.003087 -1187640.000000 0 0 1
-28.277194 12.474985 -25.648854 40.163275 -0.415485 2.263493 -0.002889 -0.004843 -1340000.000000 0 0 1
-28.468504 13.295085 -24.532494 39.862994 -0.436909 2.233715 -0.004383 0.001482 544351.000000 0 0 1
-27.086974 13.792485 -24.009094 38.734654 -0.470975 2.239329 0.005009 0.006484 215281.000000 0 0 1
-26.371454 14.648285 -24.901094 39.116369 -0.507025 2.260865 0.011514 -0.008841 897273.000000 0 0 1
-25.010564 14.911085 -24.514294 38.063360 -0.537614 2.270563 0.017352 -0.014076 866069.000000 0 0 1
-24.803064 15.782385 -23.284294 37.502454 -0.566690 2.240653 0.019440 -0.009613 -1057570.000000 0 0 1
-25.111434 17.149585 -23.374494 38.354392 -0.599184 2.226144 0.036417 -0.010371 86750.000000 0 0 1
-25.354284 17.660585 -22.015994 37.939953 -0.608408 2.189875 0.029780 -0.009387 -161506.000000 0 0 1
-26.823804 17.692685 -21.568594 38.700799 -0.583087 2.161947 0.021567 0.004685 -473776.000000 0 0 1
-27.390534 16.433285 -21.428094 38.463716 -0.540392 2.161685 0.032312 0.007404 216097.000000 0 0 1
-28.590144 16.506785 -20.650694 38.939973 -0.523606 2.129776 0.038942 0.011417 -496982.000000 0 0 1
-29.452184 15.242285 -20.859494 39.177505 -0.477570 2.132272 0.010002 0.006544 171934.000000 0 0 1
-30.070414 15.027785 -22.178294 40.273327 -0.463450 2.153992 0.002773 0.011629 513999.000000 0 0 1
-30.991814 16.052085 -22.492494 41.521974 -0.477901 2.143256 -0.014408 0.012533 -630322.000000 0 0 1
-31.497964 16.041985 -23.988594 42.719079 -0.471062 2.167046 -0.015469 0.005770 -73556.900000 0 0 1
-32.403724 15.015585 -24.322294 43.209295 -0.433934 2.168681 -0.000048 0.006735 296814.000000 0 0 1
-32.951364 15.099985 -25.660424 44.410126 -0.429694 2.186834 0.014216 -0.003034 284989.000000 0 0 1
-34.126964 14.144085 -26.024874 45.188482 -0.392905 2.184523 0.015737 0.000084 43017.300000 0 0 1
-33.922684 12.762985 -26.090354 44.658133 -0.359855 2.194720 0.015680 -0.004459 9312.830000 0 0 1
-33.744834 11.915885 -24.948094 43.624644 -0.339449 2.179593 0.012964 -0.007606 -20445.500000 0 0 1
-33.763354 10.446885 -25.328224 43.481265 -0.300072 2.192608 0.022476 -0.015154 932394.000000 0 0 1
-35.125377 10.080285 -25.623844 44.631666 -0.279470 2.182323 0.032249 -0.005602 868591.000000 0 0 1
-35.132166 9.016085 -26.546294 44.947354 -0.251212 2.202609 0.026536 0.004706 -172041.000000 0 0 1
36.146633 8.424685 -26.907524 45.842875 0.228982 2.198084 0.046202 0.008858 -86952.700000 0 0 1
35.483553 7.820185 -25.790424 44.557646 0.216921 2.188065 0.033197 0.014202 151896.000000 0 0 1
34.540033 6.892885 -26.299394 43.956613 0.196975 2.212178 0.044148 0.008861 -102912.000000 0 0 1
33.631143 6.193685 -25.272634 42.522012 0.182124 2.207244 0.042825 0.009547 156657.000000 0 0 1
34.293713 5.269985 -24.410394 42.422857 0.152479 2.183898 0.045773 0.004853 424805.000000 0 0 1
33.363333 4.310585 -23.954694 41.297948 0.128489 2.189581 0.046602 0.010874 68572.600000 0 0 1
34.076403 3.248385 -23.160494 41.329913 0.095039 2.165642 0.041008 0.002576 -581703.000000 0 0 1
34.973593 2.445485 -23.800394 42.374418 0.069810 2.167198 0.043740 0.001148 -267146.000000 0 0 1
35.921343 1.830785 -22.949994 42.666109 0.050922 2.138737 0.057903 0.001427 124168.000000 0 0 1
-35.761603 0.924785 -23.757894 42.943975 -0.025854 2.157033 0.063597 -0.005380 -162416.000000 0 0 1
-36.171114 -0.398915 -24.090694 43.461134 0.011028 2.158323 0.083949 -0.016859 -192780.000000 0 0 1
-35.154855 -1.239415 -24.578094 42.912501 0.035241 2.180652 0.082286 -0.018927 -122935.000000 0 0 1
-22.701764 29.329685 27.468083 46.152965 -0.912099 0.933340 0.006995 -0.009026 -1101080.000000 0 0 1
-23.976964 29.534485 26.965293 46.629472 -0.888884 0.954167 -0.004169 -0.004858 -343501.000000 0 0 1
-24.159364 29.039085 25.649063 45.659805 -0.876869 0.974306 -0.007964 0.006621 -475564.000000 0 0 1
-24.654964 27.569785 25.480413 44.913381 -0.841153 0.967544 0.007633 -0.001487 -243658.000000 0 0 1
-25.960974 27.333185 25.960013 45.771143 -0.811140 0.967731 0.012883 -0.003962 -35475.700000 0 0 1
-26.135214 27.067685 27.346603 46.513930 -0.802923 0.942308 0.025229 -0.007107 -632172.000000 0 0 1
-25.380474 25.789185 27.878143 45.677581 -0.793385 0.914326 0.034263 -0.011131 97764.900000 0 0 1
-24.027364 25.926885 28.229433 45.237358 -0.823405 0.896908 0.023300 -0.009740 -398332.000000 0 0 1
-23.888264 26.220085 29.626233 46.215319 -0.831900 0.874934 0.019507 -0.007662 443607.000000 0 0 1
-22.446864 25.918785 30.120123 45.638437 -0.857060 0.850014 0.032357 -0.001190 1003610.000000 0 0 1
-21.350864 26.729185 29.589293 45.230908 -0.896797 0.857694 0.038691 -0.003915 1393660.000000 0 0 1
-20.062764 26.464685 30.136123 44.845067 -0.922134 0.833883 0.046564 -0.012086 626886.000000 0 0 1
-19.381764 25.086685 29.911643 43.585559 -0.912993 0.814442 0.040694 0.006702 -470585.000000 0 0 1
-18.805664 24.987885 28.595873 42.376543 -0.925639 0.830097 0.044591 0.002366 453364.000000 0 0 1
-19.569164 24.159685 27.676303 41.624756 -0.889992 0.843436 0.050224 0.002843 357937.000000 0 0 1
-19.403264 22.604085 27.790143 40.739703 -0.861448 0.820112 0.035263 0.024235 208171.000000 0 0 1
-19.814464 22.087685 29.080253 41.546841 -0.839596 0.795484 0.026258 0.017310 137057.000000 0 0 1
-19.825564 20.675685 29.068913 40.811012 -0.806385 0.778054 0.049552 0.011643 -278838.000000 0 0 1
-20.307964 20.093985 30.356763 41.685906 -0.780102 0.755066 0.058644 0.004147 692755.000000 0 0 1
-19.343364 20.290385 31.436643 42.120399 -0.809288 0.728232 0.036530 -0.002261 750667.000000 0 0 1
-19.947064 20.001685 32.659247 43.180774 -0.786765 0.713100 0.024962 0.000859 89620.700000 0 0 1
-19.216864 20.665685 33.869515 44.085173 -0.821709 0.694655 0.016730 -0.003607 -578367.000000 0 0 1
-19.339064 22.130985 33.968555 44.918177 -0.852621 0.713262 -0.002267 -0.006655 222503.000000 0 0 1
-18.387364 22.982085 33.273988 44.423301 -0.896010 0.724213 0.016101 0.013989 -49751.600000 0 0 1
-16.951564 22.863085 33.775608 44.168630 -0.932797 0.700226 0.009775 0.016967 -792322.000000 0 0 1
-16.322864 21.657585 33.450907 43.063327 -0.924945 0.681253 0.018991 -0.003113 -338503.000000 0 0 1
-14.995864 21.673285 33.951930 42.980703 -0.965524 0.660095 0.007944 -0.000443 -434100.000000 0 0 1
-14.187664 20.417185 33.534347 41.745703 -0.963509 0.637980 0.009482 -0.005105 357253.000000 0 0 1
-12.822864 20.305685 33.906796 41.550181 -1.007543 0.616262 -0.000631 -0.010009 298789.000000 0 0 1
-12.574664 20.184985 -33.217854 40.853172 -1.013657 2.520260 0.017623 -0.008411 474913.000000 0 0 1
-11.035964 20.191485 -32.880544 40.132515 -1.070594 2.530984 0.018814 -0.011699 965664.000000 0 0 1
-10.334764 21.385185 -33.069094 40.714844 -1.120624 2.518731 0.021230 -0.013906 -350759.000000 0 0 1
-9.064864 21.279485 -32.479754 39.873835 -1.168087 2.522772 0.031025 -0.013152 -84843.700000 0 0 1
-8.244464 22.598285 -32.354064 40.316735 -1.220974 2.502265 0.034028 -0.016207 159541.000000 0 0 1
-8.518364 23.483585 -31.247924 40.005925 -1.222820 2.467194 0.033186 -0.016868 204359.000000 0 0 1
-7.953264 23.030285 -30.010724 38.656073 -1.238280 2.459654 0.038899 -0.017980 38597.100000 0 0 1
-7.484964 24.157885 -29.054924 38.520342 -1.270341 2.425345 0.043750 -0.016280 160151.000000 0 0 1
-6.352464 24.838385 -29.558434 39.127998 -1.320411 2.427105 0.047113 -0.015442 -38958.100000 0 0 1
-6.186664 26.089985 -28.966294 39.471614 -1.337969 2.394770 0.063104 -0.018359 -421064.000000 0 0 1
-4.892364 26.744585 -29.453234 40.083676 -1.389868 2.396159 0.062062 -0.020000 -527648.000000 0 0 1
-3.776564 25.923085 -29.141654 39.185518 -1.426131 2.409361 0.062645 -0.018154 -606362.000000 0 0 1
-2.592364 26.160885 -29.813994 39.749044 -1.472026 2.418942 0.065364 -0.017541 -67060.500000 0 0 1
-1.782964 27.456785 -29.460574 40.311034 -1.505950 2.390336 0.080121 -0.035519 -352693.000000 0 0 1
-1.186264 27.400185 -28.140484 39.294583 -1.527529 2.369055 0.089013 -0.043349 -107353.000000 0 0 1
-0.267764 28.436385 -28.122814 39.994904 -1.561380 2.350628 0.090435 -0.041312 -834702.000000 0 0 1
0.187836 28.836085 -26.649574 39.265187 1.564283 2.316798 0.097302 -0.044294 1028580.000000 0 0 1
1.297036 28.154985 -26.027604 38.364328 1.524761 2.316423 0.115419 -0.050177 1344300.000000 0 0 1
2.584336 28.277785 -26.649104 38.942094 1.479658 2.324476 0.109242 -0.047213 761813.000000 0 0 1
3.790136 28.268485 -25.662294 38.366988 1.437515 2.303476 0.098314 -0.050568 257332.000000 0 0 1
4.139336 27.098785 -24.952294 37.068791 1.419218 2.309236 0.106986 -0.038842 813128.000000 0 0 1
5.324836 27.383185 -24.178594 36.916082 1.378737 2.284927 0.091071 -0.029283 900874.000000 0 0 1
6.040836 26.144785 -23.513194 35.677889 1.343728 2.290339 0.084742 -0.028549 -330163.000000 0 0 1
7.296236 26.501585 -23.038194 35.865408 1.302139 2.268359 0.073256 -0.033990 -799098.000000 0 0 1
7.973736 25.343085 -22.592994 34.875433 1.265971 2.275515 0.066424 -0.027662 1068380.000000 0 0 1
9.517136 25.506685 -22.332494 35.212316 1.213672 2.257801 0.045324 -0.010348 211219.000000 0 0 1
9.766836 26.226485 -21.074094 35.033371 1.214304 2.216228 0.045626 -0.005913 -140556.000000 0 0 1
11.087736 26.685585 -20.906794 35.667245 1.177004 2.197110 0.049942 -0.005492 -162883.000000 0 0 1
12.049836 25.580085 -20.454694 34.898909 1.130565 2.197049 0.030405 0.004201 -652363.000000 0 0 1
12.346136 24.529385 -21.396994 34.813060 1.104496 2.232707 0.030500 -0.005249 -216043.000000 0 0 1
12.174636 23.230385 -20.875894 33.521270 1.088069 2.243069 0.010433 0.007098 -381484.000000 0 0 1
12.485936 22.054785 -21.849894 33.462367 1.055652 2.282294 0.011413 -0.002496 -297486.000000 0 0 1
11.487736 21.954985 -22.844794 33.702731 1.088730 2.315606 0.018167 -0.014012 125851.000000 0 0 1
11.620736 20.859285 -23.698094 33.641506 1.062517 2.352416 0.011893 -0.012575 -605510.000000 0 0 1
10.655736 20.879785 -24.860194 34.169276 1.098913 2.385555 0.041119 -0.012207 -897145.000000 0 0 1
9.341836 20.646885 -24.425594 33.319265 1.145901 2.393632 0.038307 -0.013845 -704106.000000 0 0 1
8.631436 20.447485 -25.624684 33.900233 1.171362 2.427801 0.036426 -0.014885 607796.000000 0 0 1
7.066036 20.263885 -25.469384 33.305306 1.235279 2.441410 0.042562 -0.029581 1261680.000000 0 0 1
6.284836 21.433985 -25.267744 33.724973 1.285573 2.417694 0.068797 -0.028503 222176.000000 0 0 1
6.375936 21.890485 -23.899694 33.030914 1.287372 2.379736 0.072275 -0.028296 132885.000000 0 0 1
4.938436 21.969985 -23.264494 32.377540 1.349690 2.372494 0.090259 -0.034672 471181.000000 0 0 1
4.422836 23.233185 -23.665294 33.457264 1.382680 2.356509 0.092733 -0.032546 557183.000000 0 0 1
3.001636 23.143685 -23.449794 33.083725 1.441821 2.358594 0.124691 -0.037193 771054.000000 0 0 1
2.214536 24.321485 -24.003994 34.243694 1.479994 2.347561 0.113208 -0.037633 745078.000000 0 0 1
0.809636 24.176985 -24.277694 34.272271 1.537321 2.357993 0.113897 -0.047221 790374.000000 0 0 1
0.416036 24.980285 -25.393944 35.623590 1.554143 2.364337 0.108770 -0.039982 310080.000000 0 0 1
-1.106464 24.910285 -25.670164 35.786924 -1.526408 2.370724 0.110354 -0.033202 208158.000000 0 0 1
-1.591364 23.703385 -26.150374 35.330228 -1.503760 2.404119 0.126850 -0.039302 -444242.000000 0 0 1
-2.798664 23.788385 -26.851594 35.982328 -1.453686 2.413198 0.116030 -0.031061 -315498.000000 0 0 1
-3.314164 22.472385 -27.496224 35.665587 -1.424375 2.451121 0.102368 -0.030981 280746.000000 0 0 1
-2.508764 21.958685 -28.597464 36.142672 -1.457040 2.483628 0.116488 -0.037828 332317.000000 0 0 1
-3.003364 20.743685 -29.100844 35.863349 -1.427011 2.517403 0.087857 -0.033519 59528.700000 0 0 1
-4.341164 20.745585 -29.899424 36.649701 -1.364516 2.524936 0.071695 -0.021776 120771.000000 0 0 1
-4.368864 21.128485 -31.293444 38.010255 -1.366894 2.537978 0.068889 -0.017062 -192374.000000 0 0 1
-3.900964 22.405485 -31.499434 38.851482 -1.398417 2.516255 0.081076 -0.022223 -370960.000000 0 0 1
-3.555564 22.650285 -32.945324 40.138159 -1.415090 2.533603 0.062634 -0.015784 -413088.000000 0 0 1
-2.469464 21.927385 -33.432604 40.058052 -1.458649 2.558210 0.059947 -0.010618 -185825.000000 0 0 1
-2.264964 22.197785 33.692397 40.411006 -1.469113 0.584944 0.054124 0.002342 -299332.000000 0 0 1
-1.066464 21.461085 33.095026 39.458792 -1.521144 0.575861 0.062763 0.004660 -272603.000000 0 0 1
-1.246364 20.073385 32.965718 38.616484 -1.508786 0.547805 0.049884 0.009980 -30836.900000 0 0 1
-0.105064 19.460585 32.399733 37.795081 -1.565398 0.540897 0.051770 0.010065 68001.400000 0 0 1
-0.302664 17.975885 32.042173 36.741324 -1.553961 0.511315 0.046191 0.016839 157156.000000 0 0 1
-1.013064 17.751485 30.823043 35.583726 -1.513789 0.523226 0.025458 0.017552 -28984.400000 0 0 1
-1.209564 16.383485 30.650353 34.775362 -1.497102 0.492018 0.029907 0.016952 241955.000000 0 0 1
-2.305264 16.054885 29.555213 33.713265 -1.428185 0.501912 0.026187 0.015467 1321660.000000 0 0 1
-3.626164 16.561285 29.819613 34.302107 -1.355244 0.516965 0.005718 0.010046 680182.000000 0 0 1
-3.803464 17.920885 29.486333 34.714094 -1.361663 0.555939 0.006460 0.010282 -502533.000000 0 0 1
-5.247364 18.450285 29.606973 35.277765 -1.293707 0.574888 -0.004040 0.001245 870894.000000 0 0 1
-6.152364 17.921685 28.587663 34.297126 -1.240110 0.585331 -0.015397 0.005823 1122300.000000 0 0 1
-7.496564 18.383985 28.786503 34.969017 -1.183604 0.603771 0.001780 0.001828 772758.000000 0 0 1
-8.589164 17.690785 27.922583 34.152720 -1.118803 0.613601 0.002489 -0.005224 224486.000000 0 0 1
-8.916164 16.323285 28.271743 33.841381 -1.070857 0.581901 -0.000355 -0.010785 -297563.000000 0 0 1
-9.736564 16.155785 29.370143 34.905807 -1.028418 0.570907 -0.006023 -0.010585 -793094.000000 0 0 1
-10.384364 14.730385 29.452083 34.528893 -0.956748 0.549149 -0.003474 -0.014260 -179915.000000 0 0 1
-9.570864 13.592185 29.695953 34.032317 -0.957294 0.510335 0.016223 -0.012632 -134793.000000 0 0 1
-8.778664 13.517185 30.856933 34.812779 -0.994812 0.481356 0.021731 -0.007751 -272912.000000 0 0 1
-9.443664 13.132085 32.187383 36.023077 -0.947347 0.465669 0.054279 -0.018669 -442706.000000 0 0 1
-9.687564 11.746585 32.175823 35.596556 -0.881167 0.441989 0.050046 -0.015935 375157.000000 0 0 1
-10.096364 11.305185 33.483019 36.753998 -0.841821 0.425086 0.048292 -0.014319 -41637.000000 0 0 1
-10.475764 9.806885 33.693418 36.621893 -0.752432 0.402627 0.044299 -0.013411 -628578.000000 0 0 1
-9.294964 9.065785 33.717586 36.131156 -0.772917 0.367580 0.050317 -0.018705 -182939.000000 0 0 1
-9.254364 8.133785 -33.668714 35.852253 -0.721042 2.790787 0.073137 -0.030055 90381.500000 0 0 1
-8.663864 8.746185 -32.332294 34.596756 -0.790127 2.777780 0.067241 -0.025614 -215233.000000 0 0 1
-9.475164 9.744185 -31.757474 34.543669 -0.799395 2.737203 0.063949 -0.025193 159931.000000 0 0 1
-8.848764 10.555485 -30.729794 33.675498 -0.873128 2.720216 0.057861 -0.025167 -166475.000000 0 0 1
-7.872164 11.632585 -31.187834 34.204810 -0.975856 2.718435 0.053390 -0.014000 -413530.000000 0 0 1
-8.417964 12.764685 -31.790624 35.276665 -0.987791 2.693280 0.055280 -0.010277 131184.000000 0 0 1
-7.439564 13.586785 -32.447994 35.955809 -1.069829 2.696199 0.040959 -0.002758 195604.000000 0 0 1
-7.875764 15.067785 -32.642094 36.804512 -1.089163 2.661397 0.043637 -0.006854 803825.000000 0 0 1
-8.811464 15.343085 -33.745914 38.103004 -1.049492 2.658688 0.062305 -0.008938 933540.000000 0 0 1
-9.056064 16.722885 -33.906714 38.875860 -1.074474 2.630436 0.059409 -0.013851 -578474.000000 0 0 1
-9.435364 17.254685 33.145096 38.540208 -1.070391 0.535500 0.037869 -0.010665 988362.000000 0 0 1
-10.560564 16.734685 32.415572 37.978211 -1.007852 0.548072 0.011068 -0.006320 1144710.000000 0 0 1
-11.844664 16.897485 33.020378 38.937982 -0.959418 0.558549 0.020615 -0.012723 246740.000000 0 0 1
-13.064464 16.377885 32.228283 38.439271 -0.897466 0.576417 0.019066 -0.017038 -49833.600000 0 0 1
-13.179864 14.995785 32.201053 37.887864 -0.849759 0.554993 0.015182 -0.019180 -232401.000000 0 0 1
-14.419664 14.478885 32.588140 38.464941 -0.787447 0.560072 0.016363 -0.013140 -591667.000000 0 0 1
-14.453764 12.954285 32.784050 38.098803 -0.730743 0.534544 0.018139 -0.011126 -15955.300000 0 0 1
-14.436164 12.248485 31.571383 36.812776 -0.703598 0.540172 0.006052 -0.017853 698414.000000 0 0 1
-13.084564 11.782085 31.437123 36.032153 -0.733067 0.510553 0.009198 -0.013849 397097.000000 0 0 1
-12.647564 11.174385 30.073083 34.485042 -0.723636 0.511397 0.026709 -0.011140 -219147.000000 0 0 1
-13.422964 10.051085 29.745233 34.146437 -0.642731 0.513342 0.015799 -0.006552 114232.000000 0 0 1
-13.509264 9.846585 28.329233 32.893782 -0.629844 0.533104 -0.000883 -0.000570 -191402.000000 0 0 1
-14.302564 8.569685 27.997613 32.586334 -0.539810 0.537126 0.019692 -0.001909 -120115.000000 0 0 1
-13.759764 7.352785 28.362973 32.370555 -0.490763 0.502883 -0.007541 -0.000693 27679.600000 0 0 1
-14.735464 6.326685 28.189573 32.431665 -0.405550 0.517216 0.019427 0.006273 549879.000000 0 0 1
-14.114664 4.870585 28.341123 32.033820 -0.332279 0.484893 0.023322 0.005808 591668.000000 0 0 1
-13.278664 4.481085 27.228073 30.623047 -0.325465 0.475341 0.015502 0.000661 155763.000000 0 0 1
-13.936164 4.424085 26.015973 29.843258 -0.307391 0.512026 0.012021 0.005738 -26458.800000 0 0 1
-12.900164 4.122085 24.892023 28.337584 -0.309283 0.498271 0.007902 0.013130 528600.000000 0 0 1
-12.113164 2.927485 25.053333 27.981573 -0.237131 0.461577 0.008313 0.008045 505074.000000 0 0 1
-11.432764 2.546485 23.856403 26.576694 -0.219158 0.456403 0.010984 0.002458 138496.000000 0 0 1
-10.375664 1.414085 24.081683 26.259884 -0.135454 0.410172 0.016308 0.001908 -460387.000000 0 0 1
-9.065564 1.892785 24.025703 25.748816 -0.205832 0.367913 0.024851 -0.011933 -926815.000000 0 0 1
-8.250964 0.853585 24.486443 25.853296 -0.103086 0.326626 0.030335 -0.009053 -338514.000000 0 0 1
-6.752064 1.169085 24.313373 25.260587 -0.171445 0.274716 0.035016 -0.013516 -642043.000000 0 0 1
-6.437864 1.191885 22.923253 23.839929 -0.183064 0.278210 0.037513 -0.015127 122306.000000 0 1 0
-5.114064 1.492685 22.512353 23.134126 -0.283989 0.232371 0.033659 -0.023900 356500.000000 0 1 0
-4.445464 2.828985 22.988953 23.585107 -0.566738 0.225317 0.032204 -0.022225 -533383.000000 0 1 0
-3.949164 2.845885 24.321503 24.803840 -0.624438 0.197532 0.031184 -0.019463 27618.700000 0 1 0
-3.801264 4.136885 24.908573 25.534299 -0.827653 0.221838 0.027569 -0.018196 -4346.870000 0 0 1
3.791136 -23.489015 12.659706 26.951339 -1.410776 1.081818 0.057492 -0.018894 108196.000000 0 0 1
3.777136 -24.842015 13.095906 28.335405 -1.419906 1.090350 0.047504 -0.023373 -742381.000000 0 0 1
2.450836 -25.228885 13.280406 28.615946 -1.473956 1.088188 0.034691 -0.017302 -403503.000000 0 0 1
2.259036 -26.533945 14.071406 30.119062 -1.485864 1.084683 0.026584 -0.014988 -101260.000000 0 0 1
2.166336 -26.376885 15.465706 30.653240 -1.488850 1.041950 0.039498 -0.020910 40732.700000 0 0 1
2.203036 -27.624175 16.103106 32.050872 -1.491214 1.044397 0.041719 -0.022317 -133377.000000 0 0 1
1.799336 -27.496165 17.659006 32.727926 -1.505450 1.000870 0.029523 -0.015419 -459662.000000 0 0 1
2.906536 -26.992335 18.301406 32.741037 -1.463530 0.977648 0.055331 -0.024188 -358438.000000 0 0 1
2.962736 -27.346915 19.635806 33.796396 -1.462878 0.950836 0.055070 -0.023936 240259.000000 0 0 1
3.708136 -26.277795 20.485206 33.524863 -1.430609 0.913416 0.063609 -0.024304 242517.000000 0 0 1
2.804736 -25.287955 20.918206 32.938101 -1.460336 0.882689 0.062649 -0.023056 -30496.200000 0 0 1
3.475636 -24.414215 21.761306 32.889031 -1.429385 0.847768 0.086903 -0.028304 65419.100000 0 0 1
2.611836 -23.294415 22.441606 32.451150 -1.459140 0.807163 0.087406 -0.031426 261870.000000 0 0 1
1.999636 -22.301415 21.656806 31.150744 -1.481371 0.802062 0.068797 -0.028806 156282.000000 0 0 1
2.957436 -21.673015 20.814606 30.194599 -1.435177 0.810207 0.059223 -0.021052 109797.000000 0 0 1
2.446836 -20.469515 19.985806 28.712723 -1.451825 0.800900 0.049874 -0.017885 -2337.160000 0 0 1
2.252136 -19.315015 20.712706 28.410528 -1.454720 0.753863 0.042651 -0.018158 153706.000000 0 0 1
1.370736 -18.442715 20.014206 27.250341 -1.496609 0.745930 0.032015 -0.018184 248767.000000 0 0 1
1.008136 -17.094615 20.683206 26.852136 -1.511891 0.691543 0.033228 -0.017582 1315330.000000 0 0 1
2.189536 -16.229415 20.642606 26.349671 -1.436694 0.670662 0.010802 -0.004052 1477460.000000 0 0 1
1.770436 -15.034915 21.219106 26.065946 -1.453581 0.619697 0.018485 0.002970 479378.000000 0 0 1
2.717136 -13.858615 20.842006 25.176045 -1.377191 0.595531 -0.003285 0.002485 -156647.000000 0 0 1
2.803036 -13.452415 19.475506 23.835264 -1.365369 0.614455 -0.011594 -0.002656 144255.000000 0 1 0
1.648436 -12.874715 18.857706 22.892983 -1.443452 0.602832 0.002078 0.004273 570948.000000 0 1 0
1.056836 -11.540015 19.481006 22.667122 -1.479471 0.536625 -0.007715 0.000465 -615154.000000 0 1 0
1.844736 -10.384515 19.322406 22.013554 -1.394987 0.499650 -0.001367 0.007341 -423373.000000 0 1 0
1.498336 -9.271515 20.149306 22.230621 -1.410575 0.436170 0.007259 -0.010910 -50663.100000 0 1 0
0.034836 -8.779115 20.114806 21.947198 -1.566828 0.411532 0.013999 -0.018581 120668.000000 0 1 0
-0.084164 -7.774915 21.129906 22.515091 1.559972 0.352601 0.027888 -0.022944 630213.000000 0 1 0
-1.473164 -7.404915 21.239406 22.541414 1.374416 0.341542 0.023513 -0.017663 938793.000000 0 1 0
-1.787664 -6.830715 22.591306 23.668999 1.314827 0.302924 0.037888 -0.010726 -271875.000000 0 1 0
-1.808564 -7.887115 23.526606 24.879282 1.345387 0.331269 0.040370 -0.005020 18011.700000 0 1 0
-1.958164 -7.377815 24.857006 26.002640 1.311365 0.297946 0.038430 0.000575 -157508.000000 0 0 1
-2.003464 -8.496815 25.847306 27.281733 1.339236 0.325716 0.043078 0.002749 538725.000000 0 0 1
-0.754464 -9.160115 26.049806 27.623709 1.488618 0.339193 0.042792 0.001788 349440.000000 0 0 1
-0.933564 -10.140415 27.101006 28.951063 1.478991 0.359431 0.046074 -0.001408 368340.000000 0 0 1
0.235336 -11.138315 27.355006 29.536652 -1.549671 0.386756 0.030774 -0.001510 561374.000000 0 0 1
1.423436 -10.590515 27.896206 29.872788 -1.437190 0.365813 0.021287 0.002826 -98058.700000 0 0 1
2.320636 -11.579515 28.354506 30.715607 -1.373008 0.394652 0.026481 -0.005191 323875.000000 0 0 1
3.303436 -10.922615 29.351406 31.491606 -1.277102 0.370796 0.027040 -0.004247 467765.000000 0 0 1
2.516036 -10.653015 30.505606 32.410016 -1.338866 0.344513 0.028528 -0.011130 473316.000000 0 0 1
3.372636 -10.237115 31.532306 33.323558 -1.252543 0.329369 0.025182 -0.000387 -200628.000000 0 0 1
2.759536 -10.259015 32.988706 34.657137 -1.308029 0.311552 0.029275 -0.004196 -239490.000000 0 0 1
2.782736 -11.493715 33.686806 35.702241 -1.333258 0.337611 0.031809 -0.015197 132646.000000 0 0 1
2.459036 -11.492215 -33.396341 35.403862 -1.360001 2.803221 0.032196 -0.018280 -380718.000000 0 0 1
3.463036 -10.825515 -32.442641 34.376000 -1.261188 2.804616 0.028915 -0.014257 -307332.000000 0 0 1
3.403636 -9.434915 -32.646841 34.152871 -1.224578 2.843517 0.029154 -0.020300 303684.000000 0 0 1
3.744236 -8.810915 -31.406341 32.833059 -1.168964 2.845714 0.045064 -0.018358 205918.000000 0 0 1
2.852736 -7.551415 -31.077141 32.108420 -1.209595 2.887459 0.027056 -0.013973 153066.000000 0 0 1
3.104236 -6.470115 -31.961241 32.756978 -1.123455 2.920726 0.038834 -0.012547 -5860.400000 0 0 1
2.386436 -5.301915 -31.638041 32.167857 -1.147852 2.959847 0.024672 -0.009629 -100892.000000 0 0 1
2.605736 -4.030615 -32.503341 32.855789 -0.996895 2.994989 0.030038 -0.006456 -35980.900000 0 0 1
2.185436 -4.083515 -33.859541 34.174841 -1.079398 3.005649 0.022408 -0.003819 -33554.200000 0 0 1
2.499036 -2.916015 33.882806 34.099749 -0.862250 0.112861 0.038540 -0.003381 50975.100000 0 0 1
1.933836 -3.135015 32.416506 32.625111 -1.018079 0.113145 0.034937 -0.009396 545906.000000 0 0 1
0.534136 -2.923615 32.282406 32.418923 -1.390092 0.091804 0.028325 -0.011403 -130661.000000 0 0 1
0.189736 -3.261815 30.964906 31.136808 -1.512693 0.105128 0.017270 0.004583 537205.000000 0 0 1
-1.346964 -3.425815 30.815706 31.034791 1.196182 0.118892 0.019552 -0.003803 585129.000000 0 0 1
-2.178464 -2.279915 30.652106 30.813882 0.808149 0.102515 0.031937 -0.009248 -20587.800000 0 0 1
-3.524764 -2.685415 30.593506 30.912749 0.651055 0.143840 0.024621 -0.010373 -335580.000000 0 0 1
-4.482764 -1.673015 30.011906 30.390930 0.357201 0.158099 0.033269 -0.010949 -681493.000000 0 0 1
-4.347664 -1.525815 28.581906 28.950918 0.337521 0.159833 0.036048 -0.010655 -451401.000000 0 0 1
-5.389464 -0.819915 27.979106 28.505244 0.150975 0.192430 0.030736 -0.019974 -209533.000000 0 0 1
-5.509664 0.691885 28.337606 28.876548 -0.124923 0.193505 0.042734 -0.019430 -434232.000000 0 0 1
-6.759864 0.977985 28.880306 29.676999 -0.143678 0.232235 0.042158 -0.015372 -661028.000000 0 0 1
-6.906164 2.372485 29.197506 30.096813 -0.330901 0.245073 0.049801 -0.021660 -47878.700000 0 0 1
-8.340964 2.680585 29.672406 30.938793 -0.310951 0.287104 0.037242 -0.019572 344922.000000 0 0 1
-9.358964 2.300785 28.747706 30.320198 -0.241057 0.323473 0.023920 -0.011962 -343112.000000 0 0 1
-10.632464 2.583885 29.229706 31.210599 -0.238397 0.358194 0.018124 -0.004335 -321377.000000 0 0 1
-11.755364 1.906685 28.381506 30.778790 -0.160797 0.397291 0.017603 -0.003626 21389.400000 0 0 1
-11.943464 0.570285 28.754806 31.141780 -0.047713 0.394077 0.024425 -0.003651 270574.000000 0 0 1
-12.548364 -0.156315 27.645206 30.360226 0.012456 0.426128 0.023350 0.000166 -772670.000000 0 0 1
-12.340664 -1.690515 27.768906 30.434552 0.136140 0.421653 0.029752 -0.005137 -206697.000000 0 0 1
-11.032564 -2.086415 28.088806 30.249820 0.186907 0.380279 0.049062 -0.014222 482117.000000 0 0 1
-9.930664 -1.866515 27.201106 29.017273 0.185787 0.355677 0.044218 -0.010885 16871.200000 0 0 1
-9.928464 -2.624515 25.858606 27.823191 0.258431 0.378039 0.040148 -0.003866 -1160960.000000 0 0 1
-10.823564 -2.132915 24.939306 27.270274 0.194569 0.416468 0.031606 -0.003941 -224895.000000 0 0 1
-10.774764 -2.808815 23.648706 26.138980 0.255009 0.440052 0.043029 -0.003568 492421.000000 0 0 1
-9.651164 -2.426715 22.598806 24.692913 0.246336 0.414807 0.043883 -0.009036 329711.000000 0 1 0
-8.333364 -2.572915 23.016206 24.613220 0.299464 0.362211 0.045818 -0.009965 -539057.000000 0 1 0
-7.419264 -2.069315 22.030406 23.338088 0.271999 0.336343 0.043060 -0.017601 858976.000000 0 1 0
-5.891164 -2.114815 22.413006 23.270606 0.344653 0.272331 0.037249 -0.014331 870695.000000 0 1 0
-5.378364 -3.423215 22.409306 23.298545 0.566811 0.277173 0.040984 -0.015073 -189084.000000 0 1 0
-5.839864 -4.149815 23.500106 24.567864 0.617805 0.295906 0.042047 -0.009529 -781448.000000 0 1 0
-5.542264 -5.646515 23.270506 24.578777 0.794715 0.327740 0.042738 -0.004272 82463.100000 0 1 0
-6.338264 -6.439615 22.395606 24.149646 0.793330 0.383481 0.039828 -0.008878 -57072.000000 0 1 0
-6.098564 -6.073015 21.018506 22.712366 0.783299 0.388651 0.046750 -0.013903 123184.000000 0 1 0
-7.304964 -6.127815 20.040006 22.192667 0.697989 0.444092 0.050941 -0.013694 454570.000000 0 1 0
-8.333464 -5.170215 20.298406 22.543359 0.555296 0.450071 0.056295 -0.010942 890710.000000 0 1 0
-9.259564 -5.066015 19.152406 21.868212 0.500623 0.503684 0.053940 -0.010108 1126310.000000 0 1 0
-10.010564 -3.722515 19.096006 21.879807 0.356014 0.509951 0.050437 -0.017519 -16488.200000 0 1 0
-9.096064 -2.696515 18.862606 21.114154 0.288195 0.466021 0.043462 -0.014445 -99581.000000 0 1 0
-9.668164 -1.386115 18.838706 21.220074 0.142399 0.478302 0.039583 -0.015774 -262074.000000 0 1 0
-8.708364 -0.408915 18.102906 20.092736 0.046922 0.448802 0.037678 -0.019148 -230820.000000 0 1 0
-7.530264 -0.079115 18.776306 20.230195 0.010506 0.381432 0.041507 -0.018568 -203878.000000 0 1 0
-7.699564 0.777185 19.878706 21.331907 -0.100598 0.371244 0.047916 -0.019820 -560521.000000 0 1 0
-7.699064 2.278485 19.622306 21.201462 -0.287731 0.388399 0.038797 -0.025471 -419215.000000 0 1 0
-8.777864 2.820785 18.913106 21.040754 -0.310929 0.453590 0.029770 -0.025188 -165429.000000 0 1 0
-8.600264 4.190285 18.726006 21.028227 -0.453378 0.472315 0.024934 -0.014149 -333666.000000 0 1 0
-9.501064 4.776285 17.635406 20.593462 -0.465814 0.542619 0.017970 -0.005423 -842190.000000 0 1 0
-10.804664 4.890785 18.165406 21.694297 -0.425060 0.578405 0.015245 0.005792 -35755.300000 0 1 0
-11.701864 5.331385 17.133106 21.421966 -0.427502 0.643849 0.013553 0.015821 -30519.800000 0 1 0
-11.691364 6.871985 16.877906 21.651233 -0.531388 0.676872 0.011332 0.013544 -749019.000000 0 1 0
-10.463864 7.371685 16.373306 20.782669 -0.613733 0.663511 0.006090 0.002943 359818.000000 0 1 0
-10.544864 8.765385 16.207306 21.229765 -0.693506 0.702199 -0.004015 0.003956 -252740.000000 0 1 0
-9.312164 9.498585 16.740206 21.381628 -0.795308 0.671443 -0.002566 0.015619 -338898.000000 0 1 0
-9.048464 9.683785 18.128506 22.456472 -0.819301 0.631279 0.014716 0.027485 281586.000000 0 1 0
-8.226864 10.846285 18.436106 22.917531 -0.921880 0.636040 0.025150 0.023525 306977.000000 0 1 0
-8.729564 12.228785 18.021806 23.463460 -0.950833 0.694960 0.017161 0.020242 -328008.000000 0 1 0
-8.528964 12.500485 16.649006 22.498773 -0.972055 0.737732 0.008698 0.004386 305101.000000 0 1 0
-9.309564 13.632885 16.193706 23.124871 -0.971656 0.795018 0.019727 -0.007830 192690.000000 0 1 0
-8.958864 14.120185 14.791406 22.325469 -1.005415 0.846598 0.033877 -0.014178 883099.000000 0 1 0
-7.660664 14.737285 14.767906 22.225310 -1.091423 0.844021 0.016116 -0.004787 526832.000000 0 1 0
-7.493764 15.356085 13.521706 21.789961 -1.116795 0.901356 0.012498 -0.009574 -582083.000000 0 1 0
-6.482364 16.494985 13.472806 22.262572 -1.196348 0.920808 -0.005014 -0.009412 312644.000000 0 1 0
-5.155064 15.957385 13.538606 21.552417 -1.258327 0.891596 -0.004982 -0.019216 -400085.000000 0 1 0
-4.268364 17.004985 13.619706 22.201010 -1.324870 0.910346 -0.005985 -0.021128 713622.000000 0 1 0
-2.736764 16.586085 13.666806 21.664942 -1.407266 0.888179 0.010047 -0.031651 1146070.000000 0 1 0
-2.106064 16.229485 14.853206 22.100892 -1.441750 0.833804 0.025617 -0.025591 141727.000000 0 1 0
-2.687664 15.047385 15.455306 21.737383 -1.394047 0.779875 0.028549 -0.013940 -30336.600000 0 1 0
-1.676764 14.434785 16.444406 21.945229 -1.455153 0.723734 0.025413 -0.006166 141025.000000 0 1 0
-0.523864 13.886085 15.809306 21.048324 -1.533088 0.721076 0.030962 -0.029085 108110.000000 0 1 0
0.461736 13.474785 16.749906 21.502149 1.536543 0.677747 0.038630 -0.005478 790861.000000 0 1 0
1.532736 14.529785 17.161506 22.538439 1.465696 0.705276 0.038721 -0.022289 4609.970000 0 1 0
0.907636 15.451085 17.962506 23.710999 1.512121 0.711229 0.042854 -0.026653 -128749.000000 0 1 0
1.846836 16.472085 18.246806 24.651295 1.459143 0.737434 0.053851 -0.026310 32870.600000 0 1 0
1.220436 17.714185 18.899606 25.932160 1.502009 0.754215 0.054294 -0.020480 929386.000000 0 0 1
0.299436 18.583885 18.212106 26.021746 1.554685 0.795567 0.034150 -0.014356 1024610.000000 0 0 1
-0.918464 18.069685 17.658206 25.281799 -1.520011 0.797560 0.034432 -0.012171 167953.000000 0 0 1
-1.523264 19.067985 16.681206 25.380525 -1.491080 0.853640 0.032447 -0.014276 -347911.000000 0 0 1
-1.928964 20.216885 17.301606 26.679373 -1.475671 0.865182 0.030943 -0.006729 200719.000000 0 0 1
-2.745364 20.993585 16.405406 26.784417 -1.440763 0.911579 0.024351 -0.013475 -498893.000000 0 0 1
-3.292064 22.276685 17.004006 28.217452 -1.424078 0.924034 0.021338 -0.008089 -462879.000000 0 0 1
-4.388964 21.929985 17.834206 28.605003 -1.373271 0.897630 0.029733 -0.008250 -42081.600000 0 0 1
-4.703064 23.102085 18.572706 30.012840 -1.369963 0.903550 0.030414 -0.004222 -44018.300000 0 0 1
-5.909264 23.023485 19.524306 30.760345 -1.319557 0.883146 0.028194 -0.004640 1052670.000000 0 0 1
-7.259364 22.978185 19.010506 30.693561 -1.264795 0.902863 0.011279 -0.008758 484784.000000 0 0 1
-8.069664 22.421085 19.999606 31.109625 -1.225317 0.872550 -0.001847 -0.009267 -47850.400000 0 0 1
-9.554564 22.547585 19.577106 31.351976 -1.169984 0.896395 -0.001730 -0.014257 257049.000000 0 0 1
-10.173764 23.788085 19.869306 32.621585 -1.166655 0.915890 0.010418 -0.011344 -337950.000000 0 0 1
-11.172464 24.211185 19.001306 32.742252 -1.138454 0.951663 0.006049 -0.012665 -189981.000000 0 0 1
-11.675064 25.655985 19.188006 34.098626 -1.143741 0.973123 0.010774 -0.010423 54341.300000 0 0 1
-12.429664 25.842685 20.385606 35.184000 -1.122485 0.952804 0.007289 -0.004771 284674.000000 0 0 1
-13.046364 27.101685 20.316206 36.296793 -1.122151 0.976743 0.020766 -0.006103 -504784.000000 0 0 1
-13.997764 27.486685 21.475706 37.585386 -1.099771 0.962604 0.042734 -0.010908 108036.000000 0 0 1
-15.159164 26.666085 21.583506 37.506374 -1.053875 0.957627 0.041673 -0.005844 470760.000000 0 0 1
-15.846364 26.934985 22.816306 38.693469 -1.039010 0.940148 0.032850 0.002065 -654165.000000 0 0 1
-17.289564 26.503585 22.810606 39.008881 -0.992772 0.946219 0.045094 0.008815 -879116.000000 0 0 1
-17.453464 25.130485 22.719806 38.109766 -0.963762 0.932077 0.057481 0.004020 838473.000000 0 0 1
-18.842364 24.725685 22.828906 38.568811 -0.919624 0.937381 0.063240 0.016212 1325520.000000 0 0 1
27.606936 24.308585 24.280673 44.074951 0.721950 0.987360 0.086198 -0.008599 -171662.000000 0 0 1
27.269536 23.465585 25.316143 43.990549 0.710562 0.957593 0.069158 -0.011820 8056.360000 0 0 1
27.124936 22.085485 24.987613 42.987343 0.683348 0.950497 0.061849 0.001610 -434712.000000 0 0 1
26.614036 21.237085 26.116713 42.911577 0.673499 0.916480 0.068940 -0.004180 610712.000000 0 0 1
25.267936 21.610885 26.462943 42.494544 0.707545 0.898560 0.071830 -0.001952 801197.000000 0 0 1
24.979136 21.120685 27.781213 42.916621 0.701895 0.866720 0.061452 -0.003761 74579.400000 0 0 1
23.653836 21.553385 28.441023 42.812897 0.738969 0.844226 0.079589 -0.010268 2036.020000 0 0 1
23.668036 22.881485 28.967653 43.850464 0.768503 0.849178 0.098643 -0.028658 316827.000000 0 0 1
22.441636 22.901285 29.685823 43.696041 0.795535 0.823891 0.108174 -0.028125 217719.000000 0 0 1
22.043336 24.296085 30.179243 44.575724 0.833974 0.827072 0.106509 -0.029337 -650967.000000 0 0 1
21.570336 25.244985 29.250453 44.251301 0.863730 0.848635 0.109504 -0.039898 -91250.400000 0 0 1
21.138036 26.441085 29.836313 45.123754 0.896398 0.848365 0.082919 -0.037078 -10593.900000 0 0 1
19.751536 26.323085 30.531783 44.891177 0.927071 0.822858 0.085219 -0.032555 -763830.000000 0 0 1
18.691536 26.484785 29.570763 43.877641 0.956224 0.831271 0.082809 -0.033388 668904.000000 0 0 1
17.405436 26.588585 30.169003 43.818613 0.991180 0.811381 0.069973 -0.030443 543261.000000 0 0 1
16.729736 25.461485 30.973563 43.445747 0.989474 0.777136 0.046376 -0.023391 -550315.000000 0 0 1
17.431636 25.094585 32.141123 44.346950 0.963679 0.760103 0.054230 -0.030072 305070.000000 0 0 1
16.509536 24.367385 32.963025 44.191575 0.975313 0.728893 0.044790 -0.028050 605300.000000 0 0 1
17.083736 23.991285 -34.135973 45.085479 0.952008 2.429719 0.054581 -0.030777 -170044.000000 0 0 1
17.149436 25.169685 -33.271904 45.106937 0.972695 2.400339 0.050311 -0.030539 -251344.000000 0 0 1
17.785236 24.919685 -32.066714 44.334856 0.950933 2.379343 0.039594 -0.019196 -329354.000000 0 0 1
18.064236 26.255985 -31.303224 44.671974 0.968166 2.347224 0.032062 -0.009358 -124427.000000 0 0 1
16.862136 26.974485 -31.118304 44.500599 1.012115 2.345184 0.048563 -0.017958 233055.000000 0 0 1
17.147036 28.196885 -30.453964 44.905780 1.024429 2.316072 0.046260 -0.016107 -82432.700000 0 0 1
16.491836 28.380985 -29.058034 43.838685 1.044399 2.295402 0.056410 -0.017506 -228307.000000 0 0 1
16.932336 27.485585 -28.055034 42.769689 1.018663 2.286245 0.048392 -0.014569 192260.000000 0 0 1
16.781836 28.218785 -26.846894 42.410913 1.034280 2.256243 0.039812 -0.011291 -251888.000000 0 0 1
17.489736 27.546985 -25.605774 41.477499 1.005106 2.236155 0.022442 -0.008309 1901960.000000 0 0 1
18.944536 27.521085 -25.782524 42.202418 0.967922 2.228025 0.032986 -0.003773 1244500.000000 0 0 1
19.520936 26.828585 -24.707894 41.368103 0.941775 2.210888 0.034018 -0.003895 -343993.000000 0 0 1
21.050036 26.769185 -24.756794 42.102163 0.904432 2.199402 0.034230 -0.001262 -236700.000000 0 0 1
21.529236 26.089285 -23.620294 41.256237 0.880869 2.180381 0.040869 0.004929 718022.000000 0 0 1
22.971236 26.124185 -23.598894 42.036395 0.849531 2.166863 0.043735 0.011820 1281450.000000 0 0 1
23.617936 25.947885 -22.165194 41.501753 0.832371 2.134214 0.047769 0.005901 282559.000000 0 0 1
23.423636 24.689985 -21.567194 40.291512 0.811712 2.135634 0.051879 0.010053 162263.000000 0 0 1
24.037336 24.708485 -20.309594 40.009778 0.799166 2.103212 0.052259 0.001426 -163752.000000 0 0 1
23.468536 23.577285 -19.444594 38.532490 0.787710 2.099748 0.043950 -0.001146 -288052.000000 0 0 1
23.959036 22.284185 -19.689794 38.187803 0.749196 2.112509 0.050805 -0.000756 249123.000000 0 0 1
23.599836 21.442885 -18.568494 36.899032 0.737548 2.098122 0.062387 -0.004085 -902646.000000 0 0 1
23.645036 19.901185 -18.937494 36.246015 0.699635 2.120543 0.063033 -0.002335 352658.000000 0 0 1
22.756336 19.496285 -19.988194 36.020603 0.708395 2.159051 0.044153 -0.004535 -207918.000000 0 0 1
21.417636 19.688985 -19.630494 35.095976 0.743370 2.164383 0.042164 -0.010420 -1139390.000000 0 0 1
20.364336 19.605485 -20.764694 35.074973 0.766415 2.204345 0.030350 -0.005548 71622.800000 0 0 1
20.420936 20.503585 -21.892194 36.286083 0.787418 2.218457 0.034346 -0.001890 -57020.200000 0 0 1
20.518536 21.920285 -21.571994 36.971072 0.818416 2.193807 0.022685 0.004414 -34823.200000 0 0 1
20.322136 22.695485 -22.875394 38.096692 0.840514 2.214868 0.034465 -0.000016 -212473.000000 0 0 1
18.976036 22.588685 -23.228594 37.548718 0.872097 2.237788 0.037393 -0.000089 -698402.000000 0 0 1
18.718236 23.173385 -24.474194 38.553396 0.891349 2.258563 0.029796 -0.006765 -517725.000000 0 0 1
17.235236 23.202085 -24.802794 38.086332 0.931899 2.279995 0.027768 -0.005095 -447025.000000 0 0 1
16.488836 24.021885 -23.930694 37.704254 0.969250 2.258410 0.019414 -0.010491 2318540.000000 0 0 1
15.026436 24.037085 -24.195994 37.269577 1.012100 2.277349 0.026770 -0.011728 2578410.000000 0 0 1
14.299836 25.251985 -23.602494 37.406227 1.055536 2.253609 0.017378 -0.010371 -241985.000000 0 0 1
14.597236 26.525485 -24.155294 38.731885 1.067715 2.244205 0.015876 -0.011996 766469.000000 0 0 1
13.517236 27.443985 -23.852094 38.791886 1.113135 2.233022 0.029635 -0.013452 832111.000000 0 0 1
13.658836 28.810285 -24.587994 40.263703 1.128086 2.227708 0.028446 -0.015352 76016.500000 0 0 1
13.693336 28.715485 -25.991154 41.080733 1.125830 2.255812 0.041662 -0.024053 -244867.000000 0 0 1
13.082736 29.781585 -26.697734 42.081704 1.156885 2.258062 0.059494 -0.026157 -289130.000000 0 0 1
13.726336 31.204685 -26.736224 43.324016 1.156389 2.235877 0.076810 -0.024811 635096.000000 0 0 1
14.984536 31.072585 -27.434314 44.075883 1.121455 2.242645 0.063625 -0.008455 283161.000000 0 0 1
15.747636 32.207285 -27.242694 45.027343 1.116031 2.220594 0.067465 -0.020205 140947.000000 0 0 1
17.266036 31.997285 -27.518534 45.598377 1.075966 2.218677 0.061926 -0.006087 384819.000000 0 0 1
18.018136 31.281385 -26.549674 44.811421 1.048209 2.204925 0.030233 -0.007419 -627609.000000 0 0 1
19.327636 31.177385 -26.992454 45.543160 1.015855 2.205177 0.033504 -0.000769 -1270550.000000 0 0 1
20.293736 30.514885 -26.025864 44.948187 0.983918 2.188322 0.016141 0.001025 -1148270.000000 0 0 1
20.684536 31.342185 -24.991094 45.108063 0.987452 2.157990 0.028933 -0.001929 211232.000000 0 0 1
21.693836 32.329785 -25.089094 46.317385 0.979788 2.143228 0.038549 -0.010398 1311330.000000 0 0 1
23.185336 31.934885 -25.493284 46.981956 0.942820 2.144348 0.034730 0.001276 1036080.000000 0 0 1
23.151836 31.359485 -26.792954 47.299971 0.934843 2.172985 0.024119 0.006269 -153544.000000 0 0 1
24.380636 31.415485 -27.479854 48.337258 0.910818 2.175481 0.016541 0.014730 -957140.000000 0 0 1
24.327936 30.791585 -28.896004 48.733451 0.902131 2.205501 0.008490 0.011968 27777.200000 0 0 1
23.414836 31.472085 -29.763644 49.240443 0.931154 2.219878 0.027160 0.001653 954413.000000 0 0 1
22.130936 30.868785 -29.882794 48.328476 0.948794 2.237408 0.023761 -0.003725 187838.000000 0 0 1
21.044336 31.503885 -30.752584 48.796314 0.981877 2.252637 0.018350 -0.000449 -772091.000000 0 0 1
20.700936 32.817185 -30.320184 49.242359 1.008040 2.234113 0.041939 -0.000806 656153.000000 0 0 1
19.808536 33.493585 -31.251254 49.908308 1.036715 2.247432 0.057960 -0.007398 1713440.000000 0 0 1
18.270036 33.077585 -31.181274 48.991762 1.066159 2.260696 0.062535 -0.009511 762301.000000 0 0 1
17.902436 31.790885 -31.554234 48.237198 1.057928 2.283851 0.065882 -0.019507 -130321.000000 0 0 1
18.138036 31.323685 -32.871204 48.894557 1.045922 2.308091 0.074126 -0.024625 -682691.000000 0 0 1
17.442136 32.095985 -34.041994 49.932332 1.073006 2.320966 0.091547 -0.027647 -482986.000000 0 0 1
17.995636 33.322585 34.064016 50.937165 1.075630 0.838276 0.083373 -0.016732 -184323.000000 0 0 1
17.492436 33.941285 32.876367 50.387019 1.094926 0.859948 0.072382 -0.021724 -28757.100000 0 0 1
16.046036 -34.012117 32.868450 49.946315 -1.129983 0.852536 0.086245 -0.023008 -359672.000000 0 0 1
14.996136 33.516585 32.978426 49.354049 1.150086 0.839008 0.098741 -0.022249 295977.000000 0 0 1
13.708336 34.123285 32.965859 49.386890 1.188800 0.839947 0.087924 -0.025377 507104.000000 0 0 1
13.068936 -33.873417 31.656863 48.170141 -1.202576 0.853714 0.082378 -0.025972 -620707.000000 0 0 1
13.750236 -32.796017 31.084853 47.232572 -1.173793 0.852473 0.087174 -0.021820 55309.100000 0 0 1
12.859436 -32.158917 30.223393 45.967538 -1.190401 0.853308 0.083690 -0.021212 -150351.000000 0 0 1
13.408336 -30.838617 29.690563 44.859038 -1.160662 0.847494 0.077240 -0.018588 -122552.000000 0 0 1
13.312936 -29.894317 30.764733 44.915179 -1.151830 0.816259 0.070632 -0.025533 142990.000000 0 0 1
13.699236 -28.589917 30.441103 43.951259 -1.123957 0.805694 0.076594 -0.033741 -498192.000000 0 0 1
13.255636 -27.489817 31.396253 43.785005 -1.121488 0.771229 0.069487 -0.035672 -548879.000000 0 0 1
11.882836 -27.236117 31.465523 43.279175 -1.159402 0.756801 0.062331 -0.036089 -370359.000000 0 0 1
11.428936 -26.217917 30.572503 41.864994 -1.159712 0.752088 0.042702 -0.033012 -270323.000000 0 0 1
11.540436 -24.713517 30.938443 41.244719 -1.133921 0.722554 0.043457 -0.032538 646.325000 0 0 1
10.606736 -24.385217 31.951543 41.569734 -1.160515 0.694107 0.056631 -0.033224 314432.000000 0 0 1
10.978536 -23.115817 32.508656 41.372479 -1.127400 0.666880 0.052387 -0.029631 12654.200000 0 0 1
10.188036 -22.784917 33.781573 42.001705 -1.150324 0.636316 0.052190 -0.027342 -398914.000000 0 0 1
10.435736 -23.602817 -33.576904 42.348625 -1.154498 2.486299 0.048440 -0.022615 1816500.000000 0 0 1
11.789836 -23.552617 -32.993834 42.217521 -1.106689 2.467895 0.051460 -0.025626 1756720.000000 0 0 1
12.241936 -22.289117 -32.276164 41.090394 -1.068542 2.474287 0.055838 -0.027925 -414948.000000 0 0 1
12.576936 -21.287417 -33.183304 41.381942 -1.037158 2.501230 0.047474 -0.024076 590403.000000 0 0 1
13.531436 -20.367617 -32.604434 40.755229 -0.984392 2.498102 0.045447 -0.024419 361071.000000 0 0 1
13.807836 -19.100417 -33.458804 40.926444 -0.944861 2.527914 0.038259 -0.022348 -317946.000000 0 0 1
14.719736 -19.381517 33.963010 41.782770 -0.921260 0.621773 0.039426 -0.011044 528422.000000 0 0 1
14.577736 -18.540117 32.835381 40.427819 -0.904477 0.622887 0.023551 -0.008145 -363130.000000 0 0 1
15.426936 -17.277117 32.892457 40.229378 -0.841911 0.613526 0.040478 -0.010731 -993226.000000 0 0 1
15.128336 -16.415317 33.944698 40.627229 -0.826176 0.581725 0.048170 -0.015590 430231.000000 0 0 1
15.785436 -15.132317 33.911005 40.350010 -0.764277 0.572736 0.061781 -0.017770 441674.000000 0 0 1
17.313236 -15.050617 -34.238776 41.213626 -0.715600 2.551274 0.064957 -0.014526 647500.000000 0 0 1
18.071736 -15.744317 33.252524 40.990261 -0.716681 0.624544 0.072229 -0.019133 -331938.000000 0 0 1
19.449336 -15.817117 33.447991 41.799832 -0.682766 0.643177 0.088343 -0.017882 -327733.000000 0 0 1
20.288936 -16.587517 32.400323 41.672144 -0.685360 0.680107 0.106230 -0.026437 -139356.000000 0 0 1
20.451536 -15.790317 31.202853 40.511942 -0.657486 0.691620 0.087941 -0.017517 403772.000000 0 0 1
21.114636 -16.624617 30.277733 40.483909 -0.666980 0.725910 0.085712 -0.020241 -361310.000000 0 0 1
21.576936 -15.859217 29.024123 39.490235 -0.633837 0.745174 0.080293 -0.011023 -974121.000000 0 0 1
22.635136 -15.009617 29.199043 39.877589 -0.585537 0.749225 0.061485 -0.014927 -389552.000000 0 0 1
22.880836 -14.259417 28.055033 38.909491 -0.557306 0.765504 0.055697 -0.016266 -47134.900000 0 0 1
23.578236 -12.932617 28.410473 39.119570 -0.501689 0.757950 0.045459 -0.012706 252435.000000 0 0 1
22.672536 -11.910817 28.859753 38.584930 -0.483714 0.725822 0.056989 -0.015033 381060.000000 0 0 1
23.310036 -10.706517 29.272693 38.921432 -0.430569 0.719558 0.046893 -0.018995 -202168.000000 0 0 1
22.517036 -9.401217 29.175213 38.034101 -0.395514 0.696519 0.053542 -0.021453 -192081.000000 0 0 1
21.308636 -9.383417 29.877993 37.878767 -0.414806 0.661976 0.066684 -0.030177 -94311.100000 0 0 1
20.500936 -8.231317 29.632163 36.960899 -0.381807 0.640635 0.065624 -0.026567 154996.000000 0 0 1
19.322136 -7.954917 30.592323 37.047481 -0.390551 0.599248 0.052953 -0.009779 -277922.000000 0 0 1
19.556136 -7.567117 31.968753 38.232249 -0.369200 0.580529 0.063802 -0.017734 10168.400000 0 0 1
19.607836 -8.691617 32.753949 39.151406 -0.417245 0.579755 0.066827 -0.029001 -332924.000000 0 0 1
19.880236 -8.464917 -34.217934 40.469070 -0.402544 2.578359 0.081207 -0.038433 467398.000000 0 0 1
18.686236 -8.232417 -33.462844 39.200893 -0.414976 2.593701 0.073099 -0.040091 662836.000000 0 0 1
18.991136 -7.573017 -32.278284 38.208657 -0.379442 2.576969 0.064908 -0.038073 -782198.000000 0 0 1
17.718936 -7.323017 -31.513884 36.887832 -0.391909 2.595031 0.067012 -0.034253 -680923.000000 0 0 1
17.840236 -6.481617 -30.381064 35.823099 -0.348487 2.583159 0.050643 -0.025408 960138.000000 0 0 1
16.535336 -6.264717 -29.796774 34.648402 -0.362158 2.606018 0.051691 -0.019038 1025950.000000 0 0 1
16.456736 -5.076917 -28.800254 33.556726 -0.299237 2.602658 0.035358 -0.012664 -290505.000000 0 0 1
17.215936 -5.131217 -27.609574 32.939436 -0.289667 2.564756 0.038768 -0.009742 -75786.000000 0 0 1
16.961736 -6.126617 -26.586234 32.125749 -0.346620 2.545557 0.043799 -0.013673 -375006.000000 0 0 1
15.633736 -5.918517 -25.823544 30.761956 -0.361900 2.567092 0.047154 -0.012949 179735.000000 0 0 1
15.480636 -4.696717 -25.077394 29.842670 -0.294567 2.568670 0.026237 -0.000238 -247586.000000 0 0 1
14.197836 -4.690217 -24.494094 28.697340 -0.319061 2.593523 0.037237 -0.015365 183402.000000 0 0 1
13.895436 -3.394517 -23.671294 27.657477 -0.239597 2.598033 0.034772 -0.014217 -110734.000000 0 0 1
13.940336 -2.151517 -24.404094 28.187263 -0.153129 2.617512 0.025411 -0.019030 239599.000000 0 0 1
13.647836 -1.066517 -23.527494 27.220284 -0.077987 2.614627 0.027315 -0.018081 -215078.000000 0 0 1
13.941436 0.306483 -24.168694 27.903106 0.021980 2.618273 0.017658 -0.021593 -529886.000000 0 0 1
13.156736 0.630483 -25.311484 28.533637 0.047884 2.661767 0.022127 -0.025527 184027.000000 0 0 1
13.566936 1.876483 -25.782494 29.194519 0.137441 2.653285 0.022259 -0.014966 -592374.000000 0 0 1
12.766336 2.441483 -26.928954 29.901651 0.188962 2.691908 0.028314 -0.015790 -188674.000000 0 0 1
11.525136 2.985483 -26.507084 29.058000 0.253470 2.719450 0.045844 -0.024840 326974.000000 0 0 1
10.838836 3.629483 -27.569894 29.845478 0.323123 2.748567 0.059036 -0.025106 -236.140000 0 0 1
9.615636 4.481483 -27.166234 29.164163 0.436131 2.769294 0.063754 -0.022390 -86292.200000 0 0 1
9.812136 5.692483 -26.462034 28.790999 0.525694 2.736607 0.062602 -0.031932 -627558.000000 0 0 1
8.670436 6.455483 -26.561854 28.677200 0.639997 2.755098 0.078681 -0.033594 -617664.000000 0 0 1
8.300136 4.652585 -31.581584 32.983864 0.510902 2.848954 0.048090 -0.022166 -39451.700000 0 0 1
8.288236 3.767485 -30.525014 31.853811 0.426638 2.851735 0.046579 -0.014011 312516.000000 0 0 1
7.780336 2.506685 -30.952304 32.013469 0.311681 2.883398 0.041633 -0.010437 -23482.000000 0 0 1
7.595236 1.540985 -29.775914 30.767959 0.200171 2.886965 0.050479 -0.012469 104748.000000 0 0 1
8.834036 1.179785 -29.180924 30.511611 0.132764 2.845170 0.071519 -0.022055 600837.000000 0 0 1
8.654436 0.138485 -28.237664 29.534456 0.016000 2.844161 0.061400 -0.023622 -29889.700000 0 0 1
10.012136 -0.106915 -27.557074 29.319731 -0.010678 2.793080 0.060929 -0.027238 183745.000000 0 0 1
10.879136 -0.989615 -28.291124 30.326929 -0.090715 2.773100 0.041658 -0.020062 -553939.000000 0 0 1
11.763336 -1.508815 -27.416764 29.871919 -0.127568 2.733327 0.043267 -0.016659 -751682.000000 0 0 1
12.431336 -2.833515 -27.948414 30.719387 -0.224105 2.713592 0.037963 -0.013625 274748.000000 0 0 1
11.552336 -3.933415 -27.780304 30.342602 -0.328175 2.727681 0.044826 -0.012977 676924.000000 0 0 1
12.184536 -5.233315 -28.041144 31.018644 -0.405680 2.699853 0.056241 -0.013659 487708.000000 0 0 1
11.354136 -6.351815 -27.336464 30.274481 -0.510052 2.697391 0.040170 -0.021462 282769.000000 0 0 1
11.442336 -6.192115 -25.945834 29.025086 -0.496030 2.676791 0.051311 -0.016515 653461.000000 0 0 1
10.542636 -7.055515 -25.213064 28.224565 -0.589779 2.675436 0.049428 -0.019651 412672.000000 0 0 1
10.482736 -6.718415 -23.667894 26.743112 -0.569953 2.657310 0.051065 -0.020620 -584413.000000 0 0 1
11.716736 -6.989515 -23.075694 26.807142 -0.537872 2.607644 0.044691 -0.018360 -365134.000000 0 0 1
11.632936 -6.994215 -21.667294 25.567868 -0.541333 2.581945 0.060579 -0.032709 -186181.000000 0 0 1
12.969436 -6.987515 -20.901094 25.571221 -0.494179 2.527624 0.069158 -0.026789 67339.800000 0 0 1
13.549636 -5.707115 -20.934694 25.581736 -0.398648 2.529322 0.047989 -0.023836 -408543.000000 0 0 1
14.834336 -5.708015 -20.365294 25.833779 -0.367321 2.478871 0.049428 -0.019950 -29366.200000 0 0 1
15.230436 -4.319915 -19.809194 25.358076 -0.276378 2.467348 0.041896 -0.016273 -138704.000000 0 0 1
16.056436 -3.591915 -20.693294 26.437159 -0.220082 2.469845 0.035405 -0.015665 280336.000000 0 0 1
16.415536 -2.368915 -20.141094 26.091095 -0.143320 2.452704 0.034506 -0.005535 544838.000000 0 0 1
17.419136 -1.457415 -20.997594 27.321224 -0.083473 2.447360 0.023450 -0.013054 1268450.000000 0 0 1
18.721036 -2.046015 -21.073694 28.262412 -0.108858 2.412297 0.037655 -0.020594 488860.000000 0 0 1
19.626636 -1.284915 -21.855794 29.402918 -0.065375 2.408817 0.039920 -0.017638 -658800.000000 0 0 1
20.916736 -2.030815 -22.054994 30.464025 -0.096787 2.380334 0.034402 -0.020346 -1412810.000000 0 0 1
21.749536 -2.109415 -20.875294 30.220355 -0.096684 2.333349 0.036235 -0.016017 941470.000000 0 0 1
23.007936 -2.740915 -21.102594 31.340025 -0.118570 2.309518 0.026809 -0.013689 600694.000000 0 0 1
24.143636 -1.956815 -21.756694 32.559146 -0.080872 2.302611 0.037615 -0.018014 -1327780.000000 0 0 1
23.694336 -1.628615 -23.052594 33.098278 -0.068626 2.341290 0.047169 -0.020297 -89014.800000 0 0 1
24.573736 -0.981815 -23.949794 34.328197 -0.039933 2.342938 0.042309 -0.017774 -9332.420000 0 0 1
25.662036 -1.897215 -24.635894 35.623964 -0.073797 2.334435 0.055465 -0.018800 130028.000000 0 0 1
26.556536 -2.315715 -23.590094 35.596414 -0.086979 2.295228 0.053310 -0.012361 1068260.000000 0 0 1
27.755536 -3.007615 -24.008494 36.821506 -0.107940 2.281047 0.047788 -0.007438 836966.000000 0 0 1
28.872936 -2.242615 -24.713294 38.071284 -0.077516 2.277239 0.055491 -0.007779 -1141610.000000 0 0 1
28.660436 -2.038115 -26.086234 38.808067 -0.070993 2.307954 0.075455 -0.013594 270998.000000 0 0 1
29.403036 -0.973515 -26.652714 39.697020 -0.033097 2.306897 0.067343 -0.019046 -472033.000000 0 0 1
28.891036 -0.612215 -28.063034 40.281517 -0.021187 2.341545 0.062826 -0.024401 1687550.000000 0 0 1
27.524636 -0.076515 -28.158144 39.376294 -0.002780 2.367569 0.067285 -0.014946 1743440.000000 0 0 1
27.271636 1.233285 -27.728264 38.911691 0.045191 2.363986 0.058212 -0.003433 -1057520.000000 0 0 1
25.858436 1.762985 -27.932914 38.105308 0.068073 2.393585 0.069832 -0.012610 -985919.000000 0 0 1
24.999236 1.173385 -27.028404 36.835760 0.046902 2.394628 0.085323 -0.018248 -149309.000000 0 0 1
23.650536 1.447685 -27.379194 36.208616 0.061135 2.428208 0.065998 -0.017769 214064.000000 0 0 1
22.613136 0.975885 -26.329084 34.720699 0.043129 2.431514 0.057392 -0.017398 -52669.200000 0 0 1
22.303936 1.955385 -25.318774 33.798364 0.087446 2.417518 0.074558 -0.019121 365312.000000 0 0 1
21.470436 1.360185 -24.363494 32.502455 0.063267 2.418238 0.063042 -0.019757 -316626.000000 0 0 1
21.494436 2.049985 -22.953594 31.513183 0.095085 2.386752 0.063100 -0.020722 -222795.000000 0 0 1
21.174336 3.472685 -22.845694 31.342268 0.162557 2.387525 0.059320 -0.023041 458920.000000 0 0 1
21.498036 3.984685 -21.583194 30.722590 0.183271 2.349727 0.047990 -0.023563 -303019.000000 0 0 1
20.984536 5.430285 -21.351794 30.425940 0.253221 2.348665 0.046953 -0.013579 251390.000000 0 0 1
21.831036 6.460585 -21.932594 31.612845 0.287724 2.337531 0.050793 -0.013051 739469.000000 0 0 1
21.474036 7.789285 -21.574594 31.420858 0.347971 2.327644 0.045205 -0.015823 -634530.000000 0 0 1
21.698636 8.239885 -20.124994 30.720382 0.362922 2.285114 0.053054 -0.018503 -771824.000000 0 0 1
23.059536 8.246085 -19.775194 31.476951 0.343429 2.250090 0.063140 -0.017467 55729.900000 0 0 1
23.360836 8.194285 -18.410994 30.851899 0.337361 2.210246 0.062472 -0.025799 -312909.000000 0 0 1
23.189436 9.528385 -17.588094 30.624845 0.389862 2.182555 0.065325 -0.034592 -439537.000000 0 0 1
21.856136 9.916085 -17.372894 29.628312 0.425925 2.197356 0.048571 -0.031697 -131354.000000 0 0 1
21.702236 11.326785 -17.257994 29.951986 0.481028 2.184854 0.026993 -0.020211 -178531.000000 0 0 1
20.226836 11.796085 -17.115094 29.003430 0.527967 2.201986 0.026181 -0.023582 759920.000000 0 0 1
19.343936 11.625585 -18.242394 29.019425 0.541150 2.250583 0.021168 -0.019906 641947.000000 0 0 1
18.905436 10.294285 -18.456694 28.355553 0.498622 2.279569 0.023078 -0.017304 -792818.000000 0 0 1
18.240136 10.173885 -19.830594 28.800399 0.508793 2.330288 0.016431 -0.010912 86563.400000 0 0 1
19.182136 10.054185 -20.904494 30.100479 0.482775 2.338508 0.026080 -0.016754 395695.000000 0 0 1
18.512836 9.970585 -22.166294 30.552942 0.494031 2.382563 0.009011 -0.013821 -579977.000000 0 0 1
19.331336 10.238985 -23.412594 32.041956 0.487091 2.390122 0.028317 -0.013588 -850088.000000 0 0 1
19.578436 11.579285 -23.473994 32.686746 0.534095 2.371937 0.021432 -0.015991 143196.000000 0 0 1
19.987336 11.904685 -24.785194 33.992955 0.537186 2.387842 0.037274 -0.012244 -61659.700000 0 0 1
20.171236 13.411985 -25.015494 34.821474 0.586783 2.372285 0.054900 -0.023714 357629.000000 0 0 1
21.008536 13.611385 -26.175844 36.218824 0.574896 2.378517 0.059363 -0.026206 634833.000000 0 0 1
21.183136 14.984685 -26.500444 37.088267 0.615667 2.366739 0.067665 -0.024174 -136806.000000 0 0 1
19.990736 15.562085 -27.292844 37.238520 0.661471 2.393400 0.052842 -0.024409 -594628.000000 0 0 1
18.885336 15.748185 -26.495714 36.148086 0.695063 2.393484 0.049474 -0.019386 -629699.000000 0 0 1
17.683036 15.744585 -27.267584 36.112364 0.727474 2.426567 0.048192 -0.023958 854777.000000 0 0 1
16.359436 15.544485 -26.477314 34.789515 0.759860 2.435760 0.040005 -0.016018 128095.000000 0 0 1
16.298436 14.185585 -26.076824 33.865478 0.716199 2.449656 0.035747 -0.006597 1176200.000000 0 0 1
14.928536 13.728385 -25.940754 32.927989 0.743543 2.478029 0.018619 -0.002804 1046590.000000 0 0 1
14.808936 12.238285 -25.795974 32.163838 0.690640 2.501462 0.011775 -0.002202 948502.000000 0 0 1
13.452636 11.740485 -25.717744 31.308382 0.717541 2.534716 0.020676 -0.008985 1172690.000000 0 0 1
13.488636 10.336585 -25.579364 30.709806 0.653863 2.555192 0.022871 -0.014138 204377.000000 0 0 1
12.071436 9.691085 -25.404944 29.749754 0.676453 2.594335 0.060542 -0.026288 766318.000000 0 0 1
11.357336 10.212585 -24.289494 28.692604 0.732376 2.580252 0.073505 -0.032084 173539.000000 0 0 1
10.313636 9.393485 -23.824594 27.608331 0.738741 2.611874 0.080088 -0.031136 233727.000000 0 0 1
9.343136 10.020485 -22.762894 26.567907 0.820364 2.599792 0.083596 -0.033010 6783.670000 0 0 1
8.459536 11.018585 -23.211294 27.050640 0.916031 2.602292 0.075976 -0.037406 277753.000000 0 0 1
7.721536 11.682285 -22.180794 26.231384 0.986754 2.578451 0.066880 -0.032107 770082.000000 0 0 1
8.611436 12.613385 -21.232794 26.155035 0.971761 2.518033 0.063479 -0.034758 570513.000000 0 0 1
9.610336 11.933385 -20.493794 25.588275 0.892813 2.499602 0.074721 -0.038847 -204950.000000 0 0 1
10.318836 12.731185 -19.597194 25.546261 0.889676 2.445145 0.076670 -0.037827 -526197.000000 0 0 1
11.347836 11.864085 -18.837794 24.987845 0.807635 2.424742 0.075537 -0.042114 140737.000000 0 1 0
12.479536 11.284385 -19.483794 25.742851 0.735148 2.429295 0.059175 -0.039502 457883.000000 0 0 1
12.256736 10.528585 -20.678894 26.243006 0.709698 2.478313 0.066537 -0.039727 -1274570.000000 0 0 1
13.491536 9.904385 -21.364694 27.139796 0.633259 2.477066 0.063751 -0.038387 -135373.000000 0 0 1
13.926336 8.717185 -20.724494 26.446868 0.559282 2.471280 0.058489 -0.039817 310022.000000 0 0 1
14.901036 8.089985 -21.558694 27.427468 0.497387 2.475150 0.050663 -0.033039 -108186.000000 0 0 1
15.479936 6.800485 -20.914394 26.893994 0.413928 2.461732 0.065825 -0.031394 -303823.000000 0 0 1
16.276736 7.199385 -19.835594 26.649842 0.416442 2.410289 0.036595 -0.025543 -161776.000000 0 0 1
16.696836 6.106685 -19.078594 26.078126 0.350627 2.391453 0.035239 -0.028127 -594769.000000 0 0 1
17.643936 6.391885 -17.950394 25.968853 0.347565 2.333983 0.053072 -0.021725 -724460.000000 0 0 1
18.988536 6.580785 -18.396494 27.245224 0.333613 2.312058 0.043703 -0.033468 481197.000000 0 0 1
19.859036 6.809485 -17.317994 27.215130 0.330328 2.260537 0.051065 -0.044283 -424140.000000 0 0 1
20.359136 5.583185 -16.555894 26.828418 0.267655 2.235852 0.050371 -0.042575 -1477880.000000 0 0 1
21.554036 5.119985 -17.079494 27.973198 0.233219 2.227572 0.048707 -0.042104 -276891.000000 0 0 1
22.216436 4.207985 -16.227594 27.831852 0.187191 2.193284 0.078029 -0.047462 337980.000000 0 0 1
23.573336 3.744385 -16.855994 29.220662 0.157524 2.185666 0.033800 -0.018148 166628.000000 0 0 1
24.162036 2.733185 -16.066094 29.144359 0.112640 2.154669 0.031410 -0.019440 -628112.000000 0 0 1
25.345136 2.295185 -16.619694 30.395033 0.090311 2.149322 0.042708 -0.020658 -719499.000000 0 0 1
26.083136 1.215085 -15.773394 30.505841 0.046551 2.114211 0.062680 -0.032600 -200353.000000 0 0 1
25.456636 -0.041915 -15.794594 29.958492 -0.001647 2.126117 0.059011 -0.031122 556933.000000 0 0 1
26.497536 -1.047315 -15.885194 30.912063 -0.039504 2.110502 0.049977 -0.018400 405109.000000 0 0 1
26.055136 -2.536915 -16.129694 30.748546 -0.097061 2.123004 0.044301 -0.019546 -288877.000000 0 0 1
25.357836 -3.111215 -15.035594 29.644031 -0.122082 2.102735 0.051032 -0.019201 522094.000000 0 0 1
25.260636 -4.519315 -15.241094 29.846522 -0.177034 2.106736 0.047569 -0.014998 -1114170.000000 0 0 1
24.688336 -5.270015 -14.038094 28.885205 -0.210305 2.078299 0.051437 -0.014457 1531500.000000 0 0 1
23.272836 -5.090615 -13.735494 27.499146 -0.215345 2.093804 0.058393 -0.008047 1768420.000000 0 0 1
22.349436 -5.598515 -14.696394 27.328093 -0.245448 2.138593 0.058228 -0.002423 -1257650.000000 0 0 1
20.929236 -5.312415 -14.267394 25.880749 -0.248578 2.154687 0.067080 -0.005887 -1081760.000000 0 0 1
20.389836 -6.083315 -13.229994 25.055635 -0.289943 2.127069 0.068290 -0.008446 549712.000000 0 0 1
20.713536 -5.598515 -11.913794 24.542461 -0.263975 2.077658 0.085207 -0.012054 -552497.000000 0 1 0
20.591836 -6.725615 -10.810594 24.210050 -0.315692 2.033684 0.090707 -0.013876 -45244.300000 0 1 0
19.300836 -7.296615 -10.661494 23.225639 -0.361439 2.047710 0.086837 -0.013553 707878.000000 0 1 0
19.006536 -8.445215 -11.485394 23.758879 -0.418131 2.075348 0.075754 -0.023478 -1018660.000000 0 1 0
17.692036 -9.161815 -11.250094 22.880376 -0.477825 2.084828 0.097494 -0.031439 -1274290.000000 0 1 0
16.617436 -8.349115 -11.554194 21.893978 -0.465591 2.126727 0.077406 -0.025211 -358959.000000 0 1 0
15.507136 -9.129415 -12.011694 21.635579 -0.532087 2.159379 0.081957 -0.021852 687373.000000 0 1 0
14.379136 -8.161715 -12.562194 20.764919 -0.516261 2.220527 0.056533 -0.009367 191347.000000 0 1 0
14.614736 -7.426115 -13.741194 21.390608 -0.470127 2.268414 0.060159 -0.007833 195553.000000 0 1 0
15.591036 -6.405715 -13.701494 21.721982 -0.389832 2.253337 0.055388 -0.007373 -91420.500000 0 1 0
15.312936 -5.174515 -14.609094 21.787318 -0.325871 2.305722 0.040110 -0.005510 -673986.000000 0 1 0
14.315636 -4.317415 -14.211794 20.628926 -0.292912 2.330802 0.044640 -0.008402 -386569.000000 0 1 0
13.908936 -3.377215 -15.205994 20.882680 -0.238199 2.386434 0.038731 -0.013897 -14877.000000 0 1 0
14.887836 -2.212315 -15.555894 21.645504 -0.147519 2.372679 0.037040 -0.013407 -350703.000000 0 1 0
15.927236 -2.583115 -16.466694 23.054313 -0.160782 2.366358 0.030994 -0.007838 858993.000000 0 1 0
17.045236 -1.681115 -16.351294 23.679760 -0.098309 2.333001 0.041525 -0.003948 1285150.000000 0 1 0
18.066336 -2.044415 -15.167594 23.677585 -0.112682 2.266061 0.050360 -0.011131 -312695.000000 0 1 0
17.653236 -1.778515 -13.856494 22.512269 -0.100408 2.233827 0.044858 -0.001252 110188.000000 0 1 0
18.498736 -2.505715 -12.991094 22.743139 -0.134634 2.178775 0.042090 0.001993 33206.300000 0 1 0
17.919236 -2.659215 -11.547794 21.483063 -0.147325 2.138302 0.039153 0.003008 -507131.000000 0 1 0
18.010236 -1.489715 -10.819594 21.063035 -0.082527 2.110261 0.049873 0.000872 676617.000000 0 1 0
17.688836 -1.699515 -9.440594 20.122328 -0.095784 2.059136 0.057076 -0.003801 -789208.000000 0 1 0
17.750436 -0.410715 -8.601594 19.729016 -0.023134 2.021931 0.057877 -0.005899 -795079.000000 0 1 0
19.045136 0.030585 -8.354294 20.796932 0.001606 1.984178 0.064624 -0.001081 318620.000000 0 1 0
19.747036 0.761085 -9.411994 21.888588 0.038523 2.015284 0.051257 0.010528 -84494.000000 0 1 0
19.172236 2.102885 -9.856794 21.659943 0.109247 2.043247 0.035488 0.002623 -1035900.000000 0 1 0
19.163336 3.147385 -8.901794 21.363085 0.162787 2.000598 0.033084 0.007278 497462.000000 0 1 0
18.430536 4.243185 -9.419594 21.128607 0.226283 2.032888 0.018186 -0.006879 -522074.000000 0 1 0
19.011736 5.668085 -9.116794 21.833214 0.289746 2.001561 0.068602 0.003934 442500.000000 0 1 0
18.124636 6.757885 -9.494994 21.548233 0.356890 2.027107 0.048890 -0.007414 1108760.000000 0 1 0
18.874136 7.945085 -9.472894 22.563092 0.398436 2.004066 0.092064 0.005944 -45111.200000 0 1 0
-26.183274 -29.172465 5.886506 39.638964 0.839345 1.421742 0.048863 -0.003550 128328.000000 0 0 1
-25.851804 -28.278945 6.886506 38.928633 0.830207 1.392960 0.066530 0.000048 -1137770.000000 0 0 1
-24.753064 -27.522905 6.578606 37.596576 0.838334 1.394912 0.039151 -0.004811 -1184670.000000 0 0 1
-24.640364 -26.120685 7.339506 36.651140 0.814552 1.369180 0.049402 -0.003429 -129105.000000 0 0 1
-25.640744 -25.144415 7.092206 36.605857 0.775625 1.375818 0.071806 -0.010397 632418.000000 0 0 1
-26.996884 -25.361395 7.495606 37.791748 0.754172 1.371133 0.039340 -0.006546 670260.000000 0 0 1
-27.343904 -25.359785 8.945206 38.351330 0.747769 1.335384 0.046731 -0.007587 -362347.000000 0 0 1
-26.630794 -26.320295 9.726706 38.685474 0.779534 1.316638 0.048975 -0.011989 -117948.000000 0 0 1
-27.122844 -26.453805 11.022706 39.458237 0.772911 1.287678 0.039891 -0.010469 56582.700000 0 0 1
-26.288454 -27.447595 11.919006 39.831093 0.806966 1.266902 0.013556 -0.001773 1091460.000000 0 0 1
-25.023064 -26.987855 12.414706 38.840996 0.823157 1.245458 0.015020 0.006274 460519.000000 0 0 1
-25.124064 -26.025695 13.453706 38.594787 0.803024 1.214731 0.028991 0.004996 -668250.000000 0 0 1
-23.750164 -25.602585 13.984706 37.618275 0.822915 1.189900 0.025184 0.002016 -286093.000000 0 0 1
-23.086764 -26.690655 14.599206 38.190660 0.857672 1.178543 0.017820 0.004429 147047.000000 0 0 1
-21.908564 -26.353725 15.318206 37.538666 0.877243 1.150463 0.024241 0.003117 51388.100000 0 0 1
-21.413564 -27.570235 16.162106 38.469108 0.910430 1.137205 0.026010 0.002067 153430.000000 0 0 1
-22.305664 -28.034075 17.200206 39.740396 0.898706 1.123184 0.017981 0.006538 354984.000000 0 0 1
-21.876064 -29.231595 17.776106 40.608352 0.928339 1.117707 0.033897 0.013148 170474.000000 0 0 1
-22.974064 -30.061195 18.540406 42.133475 0.918242 1.115153 0.048200 -0.002046 135924.000000 0 0 1
-23.891064 -30.765625 17.740106 42.802079 0.910518 1.143438 0.001061 0.010292 -205874.000000 0 0 1
-24.510664 -31.707295 18.573006 44.171051 0.912719 1.136823 0.015219 0.008799 -190087.000000 0 0 1
-25.448434 -32.613225 17.712006 44.999560 0.908177 1.166248 0.010794 0.006864 45594.300000 0 0 1
-24.804664 -33.530365 16.847306 44.982090 0.933876 1.186903 0.016199 0.000188 296518.000000 0 0 1
-25.731054 34.125407 16.137706 45.684309 -0.924731 1.209760 0.025632 -0.003886 -385188.000000 0 0 1
-25.174544 33.725934 14.743306 44.593289 -0.929575 1.233839 0.028109 -0.011387 357216.000000 0 0 1
-24.011064 32.919371 14.820506 43.357394 -0.940617 1.221941 0.015104 -0.006709 419049.000000 0 0 1
-22.789764 33.639061 14.793206 43.241170 -0.975345 1.221636 0.018795 -0.008197 -152365.000000 0 0 1
-21.567364 32.687549 14.898606 41.899827 -0.987560 1.207265 0.036016 -0.016701 138675.000000 0 0 1
-21.324264 31.739658 13.864206 40.673657 -0.979214 1.222960 0.026099 -0.013558 -396153.000000 0 0 1
-20.024564 31.245338 13.998606 39.663778 -1.000858 1.210094 0.027791 -0.010189 -282895.000000 0 0 1
-19.703164 30.155888 12.876306 38.254301 -0.992051 1.227495 0.020023 -0.015465 182715.000000 0 0 1
-19.491064 30.716858 11.582306 38.178224 -1.005366 1.262564 0.007394 -0.007998 -96800.900000 0 0 1
-19.948664 29.845768 10.547906 37.416272 -0.981600 1.285015 0.022463 -0.010797 177158.000000 0 0 1
-19.565164 30.360948 9.127406 37.254428 -0.998355 1.323275 0.004755 -0.003609 -966038.000000 0 0 1
-18.235164 30.363928 8.779106 36.490575 -1.029970 1.327827 0.007487 -0.012976 -1458630.000000 0 0 1
-17.956564 31.009868 7.543706 36.619088 -1.045916 1.363306 0.013994 -0.020657 201077.000000 0 0 1
-17.249464 30.087388 6.530606 35.290845 -1.050231 1.384673 0.013602 -0.018491 310807.000000 0 0 1
-18.104664 29.024828 6.046206 34.738684 -1.013086 1.395857 0.010710 -0.012407 380123.000000 0 0 1
-17.938464 27.816998 6.770006 33.784714 -0.998033 1.369044 0.004856 -0.014452 -94566.000000 0 0 1
-18.932164 26.745618 6.248506 33.358639 -0.954814 1.382370 0.017334 -0.006759 72582.600000 0 0 1
-18.730864 26.336118 4.904406 32.687759 -0.952578 1.420190 0.028256 -0.017441 -95382.800000 0 0 1
-19.861964 25.704478 4.397606 32.780433 -0.912922 1.436237 0.037054 -0.016572 -838437.000000 0 0 1
-19.463464 24.930398 3.105106 31.780385 -0.907927 1.472935 0.052785 -0.023240 -753634.000000 0 0 1
-18.991364 25.646038 1.958106 31.972260 -0.933391 1.509514 0.057962 -0.027424 1342210.000000 0 0 1
-17.749164 26.395158 1.978406 31.869285 -0.978807 1.508678 0.058669 -0.025752 870168.000000 0 0 1
-16.461464 25.557998 2.313106 30.488384 -0.998592 1.494855 0.066134 -0.035239 -353823.000000 0 0 1
-16.223464 24.314378 1.616406 29.274606 -0.982399 1.515553 0.083423 -0.043650 169977.000000 0 0 1
-15.893464 24.585838 0.280406 29.277026 -0.996922 1.561219 0.080424 -0.039797 -513669.000000 0 0 1
-15.677064 23.386088 -0.633394 28.161688 -0.980242 1.593290 0.074169 -0.037932 -261601.000000 0 0 1
-16.779064 22.576888 -0.945794 28.145113 -0.931664 1.604407 0.082600 -0.039813 -48592.100000 0 0 1
-16.453164 21.612088 -1.915294 27.229714 -0.920106 1.641193 0.073487 -0.036524 65294.200000 0 0 1
-15.558864 20.394888 -1.517494 25.696936 -0.919102 1.629884 0.072565 -0.036220 593880.000000 0 0 1
-16.186464 19.757488 -0.410994 25.544645 -0.884423 1.586886 0.083715 -0.038760 754556.000000 0 0 1
-15.234464 18.767088 0.018406 24.172150 -0.888923 1.570035 0.103272 -0.042722 597583.000000 0 1 0
-15.862264 17.595088 0.871306 23.705648 -0.837144 1.534033 0.091891 -0.035874 186289.000000 0 1 0
-16.531164 16.606888 0.094206 23.432392 -0.787683 1.566776 0.079513 -0.030783 333067.000000 0 1 0
-17.399964 15.887688 0.922306 23.580247 -0.739999 1.531673 0.087048 -0.037011 -418982.000000 0 1 0
-17.920664 14.594388 0.394906 23.114981 -0.683453 1.553711 0.094626 -0.037814 220117.000000 0 1 0
-18.986064 14.850888 -0.558694 24.110820 -0.663792 1.593970 0.105743 -0.046449 699537.000000 0 1 0
-19.717464 13.688088 -0.786494 24.015843 -0.606830 1.603551 0.102086 -0.037341 57666.900000 0 1 0
-20.898564 13.920888 -1.783294 25.173821 -0.587622 1.641695 0.106415 -0.031945 444894.000000 0 0 1
-21.895264 12.919388 -2.063894 25.506330 -0.533074 1.651802 0.104206 -0.030564 1186990.000000 0 0 1
-22.944464 12.745188 -1.139294 26.271396 -0.507041 1.614176 0.102817 -0.027214 -543912.000000 0 0 1
-24.063664 13.758488 -1.063394 27.739624 -0.519391 1.609141 0.080322 -0.023578 -944994.000000 0 0 1
-23.650864 14.934888 -0.416394 27.974768 -0.563241 1.585682 0.068529 -0.030970 273944.000000 0 0 1
-24.706464 15.860788 -0.371194 29.361740 -0.570709 1.583439 0.060533 -0.029462 17833.300000 0 0 1
-24.274364 17.033088 0.527306 29.658876 -0.611860 1.553016 0.058721 -0.033184 259210.000000 0 0 1
-24.300364 16.605388 1.901006 29.493397 -0.599456 1.506296 0.060903 -0.030121 332627.000000 0 0 1
-23.511664 17.453588 2.731506 29.408965 -0.638579 1.477782 0.045340 -0.031798 78508.300000 0 0 1
-24.306364 18.676788 3.296706 30.830018 -0.655168 1.463660 0.050574 -0.035460 -371913.000000 0 0 1
-25.172794 18.176888 4.319706 31.348504 -0.625395 1.432560 0.051619 -0.037834 795149.000000 0 0 1
-26.509874 18.661988 4.349306 32.710239 -0.613381 1.437437 0.036955 -0.037919 252653.000000 0 0 1
-27.423154 18.317388 3.213906 33.134352 -0.588893 1.473647 0.064859 -0.034284 -2210470.000000 0 0 1
-28.673594 18.898688 3.182906 34.488640 -0.582744 1.478376 0.062027 -0.029517 -988684.000000 0 0 1
-29.440424 18.241088 2.244906 34.706130 -0.554702 1.506068 0.064419 -0.025179 -817253.000000 0 0 1
-30.697664 19.050488 1.903806 36.178615 -0.555418 1.518150 0.062385 -0.028539 -711444.000000 0 0 1
-31.478154 19.282588 3.031506 37.038931 -0.549611 1.488858 0.126044 -0.030765 -259234.000000 0 0 1
-32.588894 20.049688 2.617306 38.352005 -0.551543 1.502499 0.100676 -0.025100 115621.000000 0 0 1
-33.244934 20.866488 3.767006 39.431286 -0.560509 1.475117 0.089131 -0.027286 -456911.000000 0 0 1
-32.386444 21.871188 4.172706 39.301935 -0.593969 1.464425 0.075750 -0.027904 -161507.000000 0 0 1
-32.626414 22.326688 5.504606 39.915719 -0.600120 1.432450 0.083648 -0.021714 -107534.000000 0 0 1
-31.551054 23.331288 5.976806 39.693076 -0.636732 1.419646 0.069626 -0.027383 35036.000000 0 0 1
-31.628584 24.510238 5.230906 40.354448 -0.659272 1.440807 0.070487 -0.019306 1901.210000 0 0 1
-30.638304 25.313508 5.769506 40.159265 -0.690516 1.426632 0.058649 -0.021715 -436798.000000 0 0 1
-31.082294 26.766788 5.581406 41.397126 -0.710937 1.435559 0.056148 -0.018088 -386431.000000 0 0 1
-32.170534 27.135618 6.369306 42.565868 -0.700704 1.420598 0.074554 -0.013154 -306282.000000 0 0 1
-32.565874 28.450198 6.237906 43.690519 -0.718048 1.427532 0.079765 -0.016391 -441443.000000 0 0 1
-33.686064 28.917748 7.131506 44.964936 -0.709378 1.411522 0.077581 -0.014883 -645967.000000 0 0 1
-33.202854 28.900388 8.469606 44.826289 -0.716229 1.380711 0.087462 -0.017402 59496.200000 0 0 1
-33.943954 29.625388 9.406206 46.025345 -0.717568 1.364976 0.087088 -0.016489 -699461.000000 0 0 1
-35.151157 28.933418 10.004806 46.613761 -0.688677 1.354481 0.068586 -0.010226 -470161.000000 0 0 1
-34.751558 27.813088 10.737706 45.787957 -0.674949 1.334082 0.078412 -0.014541 -327695.000000 0 0 1
-35.825692 27.117898 11.265406 46.322457 -0.647928 1.325138 0.077154 -0.015555 -319020.000000 0 0 1
-35.379216 25.692858 11.775806 45.282243 -0.628103 1.307719 0.082642 -0.020645 -1118.000000 0 0 1
-34.390213 25.916148 12.754306 44.911088 -0.645795 1.282843 0.083263 -0.028698 1863.030000 0 0 1
-34.021694 24.787738 13.535006 44.216558 -0.629655 1.259695 0.083161 -0.028979 -397195.000000 0 0 1
-32.774654 25.069878 14.354006 43.688834 -0.652980 1.236027 0.083354 -0.035942 -513588.000000 0 0 1
-33.107164 26.099668 15.267306 44.837124 -0.667590 1.223341 0.079445 -0.036941 572397.000000 0 0 1
-32.031234 26.562898 16.109706 44.621857 -0.692342 1.201427 0.091897 -0.034450 256257.000000 0 0 1
-32.430464 27.775268 16.970006 45.947597 -0.708230 1.192504 0.083801 -0.035429 -282827.000000 0 0 1
-32.568604 28.984428 16.213006 46.515295 -0.727235 1.214770 0.094304 -0.035280 108139.000000 0 0 1
-32.779494 30.125998 17.025106 47.664717 -0.743241 1.205544 0.077377 -0.028481 -2169.240000 0 0 1
-32.232544 31.375278 16.280106 47.837087 -0.771922 1.223535 0.064287 -0.029907 -1104360.000000 0 0 1
-30.870964 31.482988 16.254606 46.993693 -0.795213 1.217610 0.046742 -0.024288 -1670720.000000 0 0 1
-30.481094 32.509339 15.385706 47.145246 -0.817586 1.238360 0.051481 -0.011358 -333166.000000 0 0 1
-29.001164 32.677584 14.994806 46.192383 -0.844934 1.240190 0.057842 -0.014534 151128.000000 0 0 1
-28.376134 31.818348 13.983306 44.868086 -0.842521 1.253863 0.058154 -0.013701 286518.000000 0 0 1
-28.268814 30.427758 14.281406 43.919619 -0.822163 1.239603 0.059428 -0.014396 -447489.000000 0 0 1
-29.427814 29.486388 13.902206 43.917134 -0.786392 1.248700 0.080124 -0.017168 16360.300000 0 0 1
-29.527904 29.390198 12.468706 43.487349 -0.783061 1.279995 0.091439 -0.027446 41965.400000 0 0 1
-30.396734 28.323708 12.074506 43.266472 -0.750110 1.287968 0.083949 -0.030009 283828.000000 0 0 1
-30.454114 28.271158 10.556006 42.873543 -0.748243 1.322026 0.094980 -0.023687 -490251.000000 0 0 1
-29.316614 27.694708 10.018606 41.555183 -0.756957 1.327306 0.065933 -0.015895 -741356.000000 0 0 1
-29.231274 27.841798 8.640806 41.283128 -0.761057 1.359931 0.060806 -0.013174 -108852.000000 0 0 1
-28.128054 27.027698 7.981506 39.816935 -0.765451 1.368974 0.057871 -0.014908 -204262.000000 0 0 1
-27.969344 27.391888 6.618006 39.703876 -0.774968 1.403331 0.051269 -0.016069 -278734.000000 0 0 1
-27.005994 26.640198 5.905706 38.391422 -0.778580 1.416354 0.029519 -0.010482 -176210.000000 0 0 1
-26.737694 27.299648 4.531106 38.479943 -0.795797 1.452770 0.032715 -0.003694 -180805.000000 0 0 1
-25.887504 28.436188 4.550406 38.723196 -0.832280 1.453013 0.022796 -0.010523 92232.700000 0 0 1
-25.841454 28.735678 3.174806 38.776273 -0.838379 1.488830 0.019177 -0.010898 -913569.000000 0 0 1
-24.762064 29.745498 2.878106 38.810282 -0.876571 1.496570 0.015992 -0.007185 -531073.000000 0 0 1
-23.472464 29.204768 3.136506 37.599372 -0.893791 1.487280 0.009507 -0.001988 37522.300000 0 0 1
-22.514864 30.172688 2.700506 37.743913 -0.929732 1.499187 0.008900 0.002507 273032.000000 0 0 1
-21.063164 29.674628 2.899506 36.505446 -0.953521 1.491286 0.005390 -0.007726 -191539.000000 0 0 1
-20.096864 30.588048 2.509606 36.685294 -0.989504 1.502334 0.009735 -0.008388 -829937.000000 0 0 1
-18.818464 30.123438 2.888706 35.635667 -1.012404 1.489645 0.021231 -0.012797 -283789.000000 0 0 1
-17.682264 30.989278 2.386806 35.758841 -1.052280 1.503999 0.029203 -0.014829 -448036.000000 0 0 1
-17.622464 32.193978 3.109606 36.833044 -1.069964 1.486271 0.037253 -0.017967 -375692.000000 0 0 1
-16.744964 33.083183 2.504406 37.164000 -1.102243 1.503357 0.055824 -0.016825 -487577.000000 0 0 1
-16.571264 -34.156906 3.314406 38.108874 1.119098 1.483714 0.056517 -0.020982 -589102.000000 0 0 1
-17.659164 -33.312545 3.264106 37.844763 1.083355 1.484439 0.061591 -0.027031 -628215.000000 0 0 1
-17.468864 -32.267955 4.194306 36.932023 1.074604 1.456982 0.048630 -0.023680 96508.500000 0 0 1
-18.625364 -31.245105 4.218706 36.619097 1.033246 1.455335 0.051088 -0.017898 -27644.000000 0 0 1
-18.704164 -30.351805 3.082606 35.785196 1.018517 1.484548 0.069473 -0.028646 723633.000000 0 0 1
-19.809364 -29.465795 3.350306 35.663266 0.978915 1.476715 0.070931 -0.029845 170203.000000 0 0 1
-20.106864 -28.413095 2.241206 34.879979 0.954947 1.506497 0.073319 -0.030816 -164890.000000 0 0 1
-19.221064 -27.338675 2.323706 33.500031 0.958011 1.501376 0.080219 -0.023407 -132269.000000 0 0 1
-19.534864 -26.338255 1.347706 32.819672 0.932634 1.529721 0.086507 -0.025982 -115891.000000 0 0 1
-18.560764 -25.150275 1.307106 31.284929 0.935023 1.529003 0.079512 -0.024347 674505.000000 0 0 1
-17.242964 -25.559335 0.926606 30.845713 0.977304 1.540752 0.085189 -0.026341 6828.130000 0 0 1
-16.240564 -24.621815 1.191806 29.519656 0.987702 1.530412 0.073598 -0.022221 648101.000000 0 0 1
-14.839764 -24.974915 0.583506 29.056934 1.034662 1.550714 0.069469 -0.023096 277713.000000 0 0 1
-14.775764 -25.061665 -0.819294 29.104664 1.038077 1.598950 0.064665 -0.018865 -81584.100000 0 0 1
-14.693464 -23.813015 -1.458594 28.019369 1.017945 1.622876 0.060268 -0.019618 -339792.000000 0 0 1
-14.855864 -23.824615 -2.992094 28.235821 1.013240 1.676964 0.050834 -0.008562 -734336.000000 0 0 1
-13.824864 -24.339815 -3.745494 28.241497 1.054243 1.703812 0.058010 -0.010429 -856765.000000 0 0 1
-13.961864 -24.202015 -5.162994 28.413512 1.047544 1.753521 0.056527 0.002386 546142.000000 0 0 1
-12.736464 -24.768315 -5.963194 28.482391 1.095834 1.781721 0.060088 -0.004259 592090.000000 0 0 1
-12.666664 -26.171465 -6.024694 29.693213 1.120041 1.775113 0.035332 -0.000582 -828060.000000 0 0 1
-11.508464 -26.613285 -6.642494 29.746166 1.162647 1.796001 0.037520 0.001485 -330370.000000 0 0 1
22.986636 12.928285 28.360513 38.727828 0.512333 0.749098 0.026644 0.012474 480145.000000 0 0 1
24.036236 11.960085 28.638883 39.255189 0.461714 0.753123 0.034221 0.001377 1186410.000000 0 0 1
23.608536 10.976285 29.577643 39.404045 0.435199 0.721790 0.043103 -0.002624 -167230.000000 0 0 1
23.367836 11.482185 31.026343 40.503460 0.456717 0.698174 0.051751 -0.003432 615346.000000 0 0 1
22.230236 12.311585 31.302703 40.318950 0.505773 0.681899 0.034798 0.006023 525115.000000 0 0 1
22.499736 12.888085 32.548373 41.614150 0.520187 0.672693 0.052835 0.005343 -665820.000000 0 0 1
21.489836 13.837385 33.211363 41.908005 0.572078 0.655928 0.042808 0.003877 -986199.000000 0 0 1
20.498236 13.055485 33.770072 41.605783 0.567116 0.623795 0.053195 0.011212 -748973.000000 0 0 1
19.764136 13.732585 -33.749064 41.451228 0.607243 2.522124 0.063852 0.013031 -724464.000000 0 0 1
18.560736 12.948685 -33.268004 40.235922 0.609139 2.544233 0.057884 0.017658 -131223.000000 0 0 1
17.450536 12.803985 -34.153984 40.434612 0.633007 2.576748 0.051389 0.026010 769752.000000 0 0 1
16.421936 12.012585 -33.573494 39.257632 0.631553 2.596751 0.046355 0.020301 34438.700000 0 0 1
15.103536 11.938285 34.156013 39.208069 0.668878 0.513262 0.041166 0.025344 -140515.000000 0 0 1
15.233836 11.032385 33.074524 38.048751 0.626785 0.517079 0.028986 0.033810 114335.000000 0 0 1
13.985436 10.666785 32.539614 36.989177 0.651584 0.495552 0.045878 0.027121 103345.000000 0 0 1
14.295336 9.519585 31.566623 35.936483 0.587487 0.498291 0.041002 0.026492 247491.000000 0 0 1
14.588636 8.257585 32.126973 36.237528 0.515066 0.480927 0.032325 0.020870 153683.000000 0 0 1
15.286536 7.429385 31.222763 35.549049 0.452392 0.498500 0.034199 0.010575 256684.000000 0 0 1
15.787636 6.056485 31.759963 35.980908 0.366308 0.489242 0.064286 -0.001772 31536.200000 0 0 1
14.728236 5.115585 31.859753 35.470185 0.334296 0.455111 0.051299 -0.000028 51007.100000 0 0 1
15.074936 3.859385 32.391323 35.935308 0.250630 0.447853 0.056279 -0.008882 -511057.000000 0 0 1
13.858636 2.949085 32.416733 35.378008 0.209670 0.412064 0.047433 -0.012727 -368896.000000 0 0 1
14.251936 1.574785 32.479424 35.503670 0.110050 0.415737 0.057768 -0.024981 -429.728000 0 0 1
13.230836 0.691085 32.934803 35.499773 0.052186 0.382467 0.061561 -0.029539 -152642.000000 0 0 1
13.734736 -0.664215 33.489628 36.202753 -0.048323 0.389609 0.049166 -0.024873 -13161.400000 0 0 1
14.084636 -1.567315 32.427524 35.388950 -0.110822 0.412010 0.049925 -0.023238 -31998.800000 0 0 1
14.590536 -2.734115 32.964382 36.152588 -0.185241 0.423119 0.074710 -0.029106 -394526.000000 0 0 1
14.885936 -3.919015 31.963523 35.476986 -0.257428 0.448808 0.081787 -0.034197 -477780.000000 0 0 1
15.413936 -5.115215 32.534334 36.362587 -0.320421 0.462992 0.084789 -0.033724 1304920.000000 0 0 1
16.693436 -5.152515 33.228796 37.541605 -0.299378 0.484046 0.084582 -0.028706 944874.000000 0 0 1
17.935136 -4.805915 32.388363 37.333256 -0.261810 0.520547 0.079754 -0.035812 -920746.000000 0 0 1
17.981336 -3.420115 32.162233 37.005876 -0.187958 0.517393 0.069803 -0.036971 373717.000000 0 0 1
18.976636 -2.905815 31.265343 36.688938 -0.151946 0.550671 0.081584 -0.038563 -56317.400000 0 0 1
18.944136 -1.407715 31.197603 36.526051 -0.074172 0.546941 0.086801 -0.041586 -626520.000000 0 0 1
19.398436 -0.852615 32.400923 37.773616 -0.043924 0.539889 0.063409 -0.037382 121825.000000 0 0 1
19.281136 0.568685 32.410051 37.716005 0.029486 0.536861 0.052960 -0.028680 -299224.000000 0 0 1
20.489436 1.284885 31.804143 37.854609 0.062628 0.573208 0.072164 -0.028790 -610998.000000 0 0 1
20.700236 0.975585 30.446773 36.830117 0.047094 0.597612 0.089137 -0.035914 -124515.000000 0 0 1
21.327536 1.961585 29.615643 36.548569 0.091716 0.626117 0.073226 -0.026771 -175653.000000 0 0 1
20.751436 3.375485 29.453163 36.187081 0.161250 0.619939 0.064871 -0.016298 -374253.000000 0 0 1
20.661336 3.998785 30.693593 37.215289 0.191176 0.601023 0.069573 -0.017267 250183.000000 0 0 1
20.190536 5.315485 30.746143 37.165003 0.257425 0.596534 0.067941 -0.012557 -242072.000000 0 0 1
20.028536 5.816085 32.215033 38.376783 0.282617 0.574543 0.069316 -0.005051 -275986.000000 0 0 1
18.873236 5.316885 32.836633 38.245428 0.274599 0.538309 0.074441 -0.009460 -25666.000000 0 0 1
18.705236 5.818485 34.169169 39.386200 0.301574 0.520558 0.068400 -0.000599 247833.000000 0 0 1
17.510436 5.217785 -33.497454 38.156521 0.289604 2.642247 0.069778 -0.005036 98508.600000 0 0 1
17.505136 3.820785 -33.495574 37.986598 0.214896 2.650405 0.064897 -0.016006 2533.200000 0 0 1
16.532936 3.223385 -32.672724 36.759150 0.192552 2.665587 0.055315 -0.021249 -153627.000000 0 0 1
16.406936 1.684885 -33.005234 36.896773 0.102335 2.678173 0.057429 -0.038407 -268237.000000 0 0 1
17.546336 0.991985 -32.587674 37.024511 0.056475 2.647006 0.038803 -0.028613 -158598.000000 0 0 1
17.542136 -0.365115 -32.954074 37.334044 -0.020811 2.652334 0.041899 -0.023373 -199700.000000 0 0 1
18.595136 -1.099315 -32.110384 37.122289 -0.059050 2.615925 0.042760 -0.019337 -176831.000000 0 0 1
18.253836 -1.321915 -30.741144 35.776639 -0.072292 2.604602 0.037287 -0.016345 351335.000000 0 0 1
18.299936 -0.155315 -29.896774 35.053229 -0.008487 2.592305 0.035876 -0.012758 -286285.000000 0 0 1
17.980436 -0.467115 -28.443154 33.653043 -0.025973 2.577713 0.029551 -0.009711 229805.000000 0 0 1
16.590536 -0.713315 -28.229664 32.751620 -0.042969 2.609864 0.043061 -0.013964 573943.000000 0 0 1
16.130636 -0.841215 -26.892674 31.370702 -0.052103 2.600710 0.034681 -0.013260 -63984.100000 0 0 1
16.896036 -1.823615 -25.962524 31.029893 -0.107515 2.562015 0.039797 -0.006648 229250.000000 0 0 1
18.267636 -1.485315 -25.708804 31.573015 -0.081130 2.522258 0.045595 -0.011528 508562.000000 0 0 1
19.028436 -2.584015 -25.295584 31.758858 -0.134972 2.492263 0.037353 -0.010470 324542.000000 0 0 1
19.786936 -3.306615 -26.501354 33.238205 -0.165581 2.493632 0.056537 -0.020088 -6600.250000 0 0 1
20.790436 -2.463115 -27.032974 34.191970 -0.117924 2.482623 0.076237 -0.017237 -188214.000000 0 0 1
21.141536 -2.737115 -28.372324 35.488662 -0.128750 2.497218 0.086021 -0.020802 136093.000000 0 0 1
22.526336 -2.129015 -28.703834 36.549673 -0.094232 2.474038 0.073192 -0.022878 -20816.200000 0 0 1
23.604936 -2.913215 -28.295444 36.963657 -0.122795 2.442604 0.061996 -0.027390 -96105.300000 0 0 1
24.863336 -2.299315 -28.573884 37.946530 -0.092216 2.423412 0.053310 -0.029838 456328.000000 0 0 1
26.080436 -3.145915 -28.178434 38.524149 -0.120044 2.391240 0.069043 -0.024499 -313314.000000 0 0 1
26.213836 -4.253215 -29.010674 39.330322 -0.160849 2.400329 0.081042 -0.031568 -56357.700000 0 0 1
27.535236 -4.724815 -29.077534 40.323890 -0.169937 2.376184 0.083956 -0.025887 -162001.000000 0 0 1
27.845936 -6.023915 -28.309264 40.163393 -0.213047 2.353011 0.071593 -0.016766 -43431.400000 0 0 1
27.587036 -5.870315 -26.927674 38.994933 -0.209665 2.333036 0.052565 -0.001479 265024.000000 0 0 1
27.733936 -7.113915 -26.313664 38.886860 -0.251092 2.314030 0.032925 0.003450 -116335.000000 0 0 1
27.564836 -7.028215 -24.757694 37.711529 -0.249651 2.286968 0.014285 0.000385 -104018.000000 0 0 1
28.687436 -6.538215 -24.057594 38.006382 -0.224085 2.256203 0.013805 0.005413 128454.000000 0 0 1
28.484236 -6.363915 -22.674094 36.958972 -0.219809 2.231273 0.010845 0.004086 -205811.000000 0 0 1
29.773236 -5.822515 -22.037194 37.496469 -0.193125 2.199027 0.016126 0.004990 -132065.000000 0 0 1
30.170736 -4.518915 -22.454594 37.880109 -0.148673 2.205303 0.040723 -0.006490 -253217.000000 0 0 1
31.441136 -4.241215 -21.936594 38.571325 -0.134084 2.175755 0.037681 -0.003836 -301233.000000 0 0 1
32.146336 -3.007815 -22.526694 39.368589 -0.093295 2.179982 0.049357 -0.012315 -439280.000000 0 0 1
31.541036 -1.778815 -22.306794 38.672913 -0.056337 2.185610 0.030798 -0.007226 163817.000000 0 0 1
32.303036 -0.731115 -22.881894 39.592950 -0.022629 2.186984 0.056533 -0.008913 39939.500000 0 0 1
31.577036 0.595185 -22.632294 38.854654 0.018846 2.192580 0.047650 -0.003015 -489824.000000 0 0 1
30.450136 0.684785 -23.447294 38.437681 0.022485 2.226867 0.043950 0.000712 -615360.000000 0 0 1
29.403136 1.337185 -22.804694 37.234212 0.045446 2.229973 0.039858 0.004619 -969750.000000 0 0 1
28.213036 1.471585 -23.722594 36.890411 0.052113 2.269278 0.027535 0.002457 43066.300000 0 0 1
27.121236 2.331485 -23.323894 35.846915 0.085754 2.279240 0.036507 -0.001118 770975.000000 0 0 1
26.224636 2.608185 -24.343794 35.876935 0.099130 2.316564 0.068635 -0.012159 -773203.000000 0 0 1
25.113536 3.559185 -23.988494 34.911392 0.140786 2.328321 0.071675 -0.010245 -335916.000000 0 0 1
25.605236 4.893985 -23.832794 35.321116 0.188854 2.311417 0.058235 -0.008808 582007.000000 0 0 1
24.501636 5.734385 -23.578594 34.484249 0.229903 2.323685 0.068179 -0.016052 -88728.400000 0 0 1
24.950436 7.058685 -22.998794 34.659686 0.275704 2.296364 0.073544 -0.013158 -103108.000000 0 0 1
25.575736 7.863285 -24.007794 35.948904 0.298278 2.302087 0.065946 -0.009915 350141.000000 0 0 1
25.899636 9.131985 -23.493294 36.140271 0.338981 2.278458 0.081367 -0.015407 -542658.000000 0 0 1
26.757436 9.970785 -24.422094 37.574135 0.356697 2.278342 0.107610 -0.015796 -144074.000000 0 0 1
26.153036 10.436785 -25.681264 38.110826 0.379701 2.310214 0.106683 -0.023553 664878.000000 0 0 1
25.016336 11.287785 -25.600264 37.531383 0.423865 2.321431 0.093109 -0.024710 137814.000000 0 0 1
24.653836 11.736785 -26.980724 38.386498 0.444316 2.350221 0.079190 -0.017659 -536938.000000 0 0 1
24.046536 10.768785 -27.831444 38.324821 0.421049 2.383573 0.066656 -0.008914 384162.000000 0 0 1
24.856136 9.719585 -28.377584 38.956195 0.372753 2.386851 0.071400 -0.011061 242600.000000 0 0 1
25.852436 10.204085 -29.492994 40.525405 0.375933 2.385855 0.085775 -0.008089 -968696.000000 0 0 1
26.831236 11.120685 -29.079504 41.099908 0.392916 2.356796 0.088144 -0.011499 80130.200000 0 0 1
27.804236 11.358685 -30.044424 42.482498 0.387833 2.356353 0.091087 -0.007466 -29733.400000 0 0 1
28.738536 10.256685 -30.595364 43.210871 0.342806 2.357526 0.072337 -0.005161 -876908.000000 0 0 1
28.139336 9.438985 -31.581764 43.339641 0.323643 2.387224 0.076215 -0.007513 -33094.400000 0 0 1
29.028336 8.463185 -32.023234 44.042676 0.283686 2.384878 0.060555 -0.004600 -461823.000000 0 0 1
28.405636 7.499085 -33.052894 44.222282 0.258111 2.414976 0.057817 -0.002301 872274.000000 0 0 1
27.191336 6.965085 -32.448764 42.904585 0.250759 2.428436 0.059111 -0.000871 924424.000000 0 0 1
26.794736 5.833985 -33.135814 43.011341 0.214383 2.450260 0.057690 -0.003773 61137.500000 0 0 1
25.505836 5.228285 -32.485324 41.631465 0.202183 2.465953 0.060739 -0.002363 330420.000000 0 0 1
24.273036 5.840185 -32.766484 41.193816 0.236116 2.490501 0.065677 0.001479 151919.000000 0 0 1
23.871536 6.752585 -31.731444 40.278185 0.275670 2.478037 0.081203 0.000733 708349.000000 0 0 1
22.352036 7.162885 -31.831444 39.549479 0.310118 2.506221 0.078609 -0.002080 889810.000000 0 0 1
22.104736 8.200885 -32.783314 40.380930 0.355260 2.518112 0.077892 0.005147 -954259.000000 0 0 1
20.796736 8.617285 -32.742594 39.734611 0.392822 2.539288 0.070289 0.009423 -1035820.000000 0 0 1
20.431536 9.640985 -33.852074 40.698393 0.440890 2.553101 0.067164 0.023074 -154526.000000 0 0 1
20.200136 9.060585 33.368994 40.045342 0.421640 0.585782 0.059270 0.019344 160768.000000 0 0 1
19.804536 10.070185 32.442677 39.321185 0.470408 0.600473 0.051277 0.021530 -453166.000000 0 0 1
18.752836 9.608785 31.445203 37.852324 0.473511 0.590372 0.052083 0.018226 -551930.000000 0 0 1
19.078236 8.589285 30.483063 36.972585 0.423032 0.601518 0.050628 0.010280 -209975.000000 0 0 1
20.028836 8.892785 29.489033 36.740155 0.417852 0.639092 0.062529 0.007480 -1323920.000000 0 0 1
19.822236 9.985585 28.410733 36.052777 0.466649 0.663191 0.064058 0.009597 -146852.000000 0 0 1
18.794936 9.622085 27.491333 34.664211 0.473163 0.654955 0.046857 0.017227 -465129.000000 0 0 1
17.536536 9.882385 28.003463 34.487470 0.513172 0.623244 0.051924 0.002016 -1915410.000000 0 0 1
16.448936 9.089985 27.288493 33.133928 0.504851 0.603099 0.059625 0.003334 -766545.000000 0 0 1
16.108936 9.479985 25.985103 32.009272 0.531915 0.623570 0.070956 0.003998 1203120.000000 0 0 1
14.842036 8.921785 25.539053 30.856564 0.541240 0.595853 0.075249 0.002942 1157070.000000 0 0 1
14.746436 7.345785 25.255813 30.154171 0.462158 0.578001 0.076463 0.006826 -191260.000000 0 0 1
14.999736 6.576485 26.425953 31.089761 0.413199 0.554832 0.056014 0.003636 302821.000000 0 0 1
14.398636 5.306885 26.183163 30.348670 0.353120 0.530123 0.070070 -0.003014 71893.600000 0 0 1
14.551136 4.413285 27.485053 31.410839 0.294477 0.505323 0.075667 -0.008475 667956.000000 0 0 1
15.836236 3.813285 27.711123 32.143955 0.236296 0.531408 0.062963 -0.004658 778227.000000 0 0 1
15.869536 3.176185 28.982523 33.195135 0.197534 0.509281 0.052421 -0.006513 674741.000000 0 0 1
17.077136 2.189585 29.185433 33.885282 0.127522 0.532971 0.070677 -0.010119 575518.000000 0 0 1
16.700236 0.828185 28.946163 33.428493 0.049551 0.523824 0.069518 -0.019996 172362.000000 0 0 1
15.774136 0.286485 29.875773 33.785607 0.018160 0.485857 0.057454 -0.020409 92373.600000 0 0 1
15.615136 -1.208715 29.656513 33.538071 -0.077253 0.485880 0.062936 -0.023983 -331234.000000 0 0 1
14.847136 -1.604215 28.516403 32.190001 -0.107631 0.482414 0.056780 -0.024841 222400.000000 0 0 1
15.390936 -1.347815 27.251083 31.326012 -0.087349 0.515759 0.068306 -0.027077 -1525080.000000 0 0 1
16.434836 -2.323815 26.739473 31.472263 -0.140465 0.555531 0.076082 -0.032185 1545800.000000 0 0 1
17.742236 -2.218315 27.437313 32.749260 -0.124385 0.577556 0.079460 -0.036592 1598590.000000 0 0 1
18.528136 -1.168215 27.001133 32.767632 -0.062967 0.602329 0.084082 -0.031573 -1889280.000000 0 0 1
19.877736 -1.009415 27.644843 34.064360 -0.050738 0.624001 0.085158 -0.024566 -318422.000000 0 0 1
20.834336 -1.936415 27.136873 34.267027 -0.092677 0.656843 0.055525 -0.025112 499827.000000 0 0 1
22.182536 -1.668215 27.518443 35.385202 -0.075063 0.679826 0.053848 -0.023687 670679.000000 0 0 1
23.226936 -2.337515 26.593403 35.385924 -0.100300 0.720426 0.048064 -0.017231 -555088.000000 0 0 1
23.196936 -1.919915 25.207433 34.310328 -0.082578 0.745588 0.050207 0.002015 116148.000000 0 0 1
22.396136 -2.737415 24.380823 33.219044 -0.121624 0.746690 0.058877 0.006877 -183632.000000 0 0 1
22.211036 -2.119215 22.961553 32.016466 -0.095125 0.771050 0.055254 -0.015658 265483.000000 0 0 1
21.503136 -0.851315 23.081953 31.557664 -0.039570 0.750392 0.047982 -0.008580 605276.000000 0 0 1
21.708936 -0.280415 21.774053 30.748429 -0.012916 0.783942 0.035647 0.000213 70780.100000 0 0 1
-30.688134 -27.680817 -10.163894 42.559300 0.733921 1.811944 0.014136 0.011821 153029.000000 0 0 1
-30.525404 -26.389617 -9.593294 41.475818 0.712860 1.804208 0.026580 0.020882 -178960.000000 0 0 1
-31.227134 -26.365817 -8.372194 41.717908 0.701190 1.772854 0.026423 0.013618 -307888.000000 0 0 1
-31.150694 -25.010717 -7.584194 40.662289 0.676503 1.758412 0.053469 0.011037 1310060.000000 0 0 1
-29.806364 -24.670517 -7.158694 39.348452 0.691400 1.753746 0.054608 0.004582 857048.000000 0 0 1
-29.288834 -25.294217 -5.952694 39.154410 0.712344 1.723419 0.057526 0.007522 555308.000000 0 0 1
-27.953474 -24.698617 -5.453794 37.698306 0.723659 1.715975 0.054985 0.006286 134992.000000 0 0 1
-28.139894 -23.579417 -4.524394 36.990711 0.697448 1.693415 0.064368 -0.000353 -158324.000000 0 0 1
-28.629754 -22.423617 -5.137494 36.727038 0.664430 1.711140 0.068337 -0.004662 -199706.000000 0 0 1
-28.873544 -21.289717 -4.154494 36.113619 0.635352 1.686091 0.068562 -0.013750 324876.000000 0 0 1
-27.764824 -20.390217 -4.046494 34.684587 0.633436 1.687728 0.076659 -0.016515 423816.000000 0 0 1
-28.001494 -19.378217 -3.132694 34.196678 0.605365 1.662533 0.084040 -0.017110 777775.000000 0 0 1
-26.825604 -18.295817 -3.127794 32.621053 0.598562 1.666827 0.075148 -0.016221 938719.000000 0 0 1
-26.740784 -17.467617 -4.273794 32.225029 0.578636 1.703812 0.071898 -0.022680 -288041.000000 0 0 1
-25.895934 -16.392617 -4.033094 30.912508 0.564345 1.701637 0.070601 -0.020721 -259851.000000 0 0 1
-26.087314 -15.323417 -5.124794 30.685805 0.531096 1.738591 0.078137 -0.024005 872815.000000 0 0 1
-27.370864 -14.654917 -5.051994 31.455579 0.491581 1.732102 0.074131 -0.012479 952494.000000 0 0 1
-27.411324 -13.546417 -5.902794 31.140474 0.458989 1.761504 0.082796 -0.019924 352938.000000 0 0 1
-28.813584 -12.837517 -5.891394 32.089453 0.419136 1.755437 0.065524 -0.015785 464570.000000 0 0 1
-29.778674 -13.678217 -6.485194 33.405401 0.430585 1.766173 0.062387 -0.011991 113630.000000 0 0 1
-31.047814 -13.037617 -6.416694 34.280026 0.397561 1.759092 0.052569 -0.010511 331520.000000 0 0 1
-32.180364 -13.716017 -7.222294 35.719274 0.402906 1.774396 0.037058 -0.009771 32679.100000 0 0 1
-32.902484 -14.731917 -6.547994 36.639857 0.420977 1.750474 0.037108 -0.007569 298229.000000 0 0 1
-33.178844 -15.819617 -7.482294 37.511075 0.444915 1.771612 0.044201 -0.009044 35358.500000 0 0 1
-34.081573 -17.001417 -6.951394 38.715936 0.462723 1.751324 0.051382 -0.014311 649784.000000 0 0 1
-35.426990 -16.784217 -6.563194 39.747416 0.442444 1.736679 0.064774 -0.022520 329195.000000 0 0 1
-35.681174 -15.966817 -5.428594 39.465872 0.420761 1.708785 0.055144 -0.018424 -779498.000000 0 0 1
35.469633 -15.850817 -5.162194 39.191727 -0.420260 1.702897 0.089365 -0.026751 -403569.000000 0 0 1
34.768813 -15.150017 -6.209994 38.431203 -0.410929 1.733095 0.076071 -0.031484 1736850.000000 0 0 1
33.323513 -15.039417 -6.227594 37.086702 -0.423947 1.739516 0.090672 -0.030245 1580540.000000 0 0 1
32.591183 -14.361717 -5.044094 35.970641 -0.415062 1.711488 0.104890 -0.031756 -497270.000000 0 0 1
32.573123 -15.113717 -3.856494 36.115167 -0.434430 1.677784 0.109469 -0.036615 414805.000000 0 0 1
31.943373 -14.447017 -2.734094 35.164906 -0.424740 1.648626 0.126892 -0.037019 -508149.000000 0 0 1
31.995523 -15.341817 -1.450994 35.513240 -0.447113 1.611666 0.130260 -0.038645 83992.600000 0 0 1
33.318143 -15.616917 -1.030294 36.810980 -0.438313 1.598789 0.136303 -0.035921 464911.000000 0 0 1
34.086963 -16.580717 -1.809494 37.948853 -0.452728 1.618497 0.111488 -0.038822 -421643.000000 0 0 1
33.578273 -18.044217 -2.053094 38.174722 -0.493101 1.624604 0.121000 -0.041196 -844184.000000 0 0 1
33.760343 -18.851817 -0.888594 38.677401 -0.509270 1.593773 0.118046 -0.047478 275627.000000 0 0 1
33.715523 -20.272117 -1.174794 39.358295 -0.541352 1.600649 0.102161 -0.037151 697858.000000 0 0 1
34.955713 -20.864417 -1.988294 40.757565 -0.538123 1.619599 0.079288 -0.031273 741140.000000 0 0 1
35.014253 -20.280417 -3.255194 40.594205 -0.524988 1.651071 0.046693 -0.034608 417737.000000 0 0 1
36.119833 -20.682317 -4.075894 41.821208 -0.520031 1.668411 0.042631 -0.028248 170989.000000 0 0 1
36.081003 -19.912917 -5.398594 41.563299 -0.504297 1.701053 0.078726 -0.029575 -232014.000000 0 0 1
35.000703 -20.171317 -6.260894 40.879457 -0.522820 1.724557 0.058992 -0.035447 166067.000000 0 0 1
35.072163 -19.169417 -7.257594 40.622602 -0.500207 1.750420 0.072918 -0.032387 422113.000000 0 0 1
33.785563 -19.163717 -8.156794 39.689364 -0.515965 1.777787 0.076653 -0.038828 451820.000000 0 0 1
33.604673 -20.414017 -8.914394 40.317150 -0.545898 1.793745 0.092213 -0.038328 -5765.030000 0 0 1
32.438783 -20.494217 -9.683794 39.573519 -0.563461 1.818011 0.086306 -0.048373 -462824.000000 0 0 1
32.314973 -21.702717 -10.726994 40.377392 -0.591410 1.839693 0.080659 -0.040895 -107782.000000 0 0 1
32.386153 -22.879117 -9.951394 40.882113 -0.615040 1.816683 0.063633 -0.045913 134189.000000 0 0 1
32.178213 -24.022017 -10.741994 41.567838 -0.641277 1.832183 0.056227 -0.042947 -161990.000000 0 0 1
31.564743 -25.221117 -9.946594 41.609764 -0.674148 1.812178 0.049076 -0.036569 -318258.000000 0 0 1
30.288383 -24.969417 -9.443394 40.373700 -0.689437 1.806883 0.064872 -0.045760 -851796.000000 0 0 1
29.597763 -26.189917 -9.304094 40.601792 -0.724388 1.802006 0.038423 -0.037733 -682067.000000 0 0 1
28.231383 -25.857917 -8.729594 39.266381 -0.741546 1.794987 0.036966 -0.039085 -652039.000000 0 0 1
27.375283 -25.251117 -9.675794 38.479163 -0.745057 1.824980 0.039003 -0.036281 -241827.000000 0 0 1
26.151783 -24.833117 -9.106894 37.195900 -0.759540 1.818147 0.038638 -0.034951 -336005.000000 0 0 1
25.234083 -24.277217 -10.185294 36.467553 -0.766074 1.853859 0.075825 -0.029929 -733310.000000 0 0 1
24.734683 -25.261517 -11.046194 37.040075 -0.795935 1.873626 0.057973 -0.024251 103412.000000 0 0 1
23.997383 -24.678417 -12.100294 36.487200 -0.799388 1.908828 0.061516 -0.014930 -149812.000000 0 0 1
23.090083 -25.715417 -12.753894 36.838790 -0.839138 1.924323 0.061256 -0.023883 -610333.000000 0 0 1
23.838283 -26.540317 -13.569794 38.167938 -0.838981 1.934276 0.060354 -0.024501 69107.500000 0 0 1
23.231483 -27.811517 -13.563894 38.693171 -0.874887 1.928955 0.058847 -0.008262 -243492.000000 0 0 1
24.012183 -28.905417 -14.318594 40.213557 -0.877605 1.934849 0.038129 -0.012166 -406576.000000 0 0 1
24.111883 -28.864917 -15.732094 40.768433 -0.874878 1.966968 0.044346 -0.012540 302574.000000 0 0 1
24.452483 -30.131717 -16.254294 42.071919 -0.889071 1.967462 0.038353 -0.011494 -300027.000000 0 0 1
24.419383 -30.320917 -17.802894 42.808963 -0.892793 1.999694 0.049709 -0.015512 -673374.000000 0 0 1
23.124283 -30.242717 -18.297994 42.239448 -0.918002 2.018833 0.053984 -0.014240 -691150.000000 0 0 1
23.062783 -30.554917 -19.659894 43.034943 -0.924232 2.045231 0.048173 -0.010342 -37488.800000 0 0 1
21.645483 -30.307117 -20.219194 42.377637 -0.950601 2.068170 0.039245 -0.006524 -144153.000000 0 0 1
21.413683 -30.480917 -21.607594 43.064141 -0.958376 2.096421 0.037332 -0.012976 -250181.000000 0 0 1
20.043783 -30.419217 -21.901994 42.506227 -0.988177 2.112114 0.050055 -0.014557 -623182.000000 0 0 1
19.823183 -30.710817 -23.410994 43.407229 -0.997606 2.140442 0.047377 -0.012254 -382586.000000 0 0 1
20.498583 -29.797717 -24.243594 43.541333 -0.968221 2.161319 0.049557 -0.009828 367836.000000 0 0 1
20.227083 -30.068417 -25.574154 44.354052 -0.978627 2.185347 0.055819 -0.013374 -333972.000000 0 0 1
20.758983 -28.897017 -26.478464 44.351798 -0.947842 2.210565 0.051502 -0.018705 -91411.000000 0 0 1
19.998883 -27.717717 -26.479754 43.236611 -0.945773 2.229938 0.059909 -0.014652 -388951.000000 0 0 1
18.892283 -27.783217 -27.337094 43.314457 -0.973627 2.253807 0.074419 -0.016981 -306140.000000 0 0 1
18.290283 -26.406317 -27.682494 42.404581 -0.965022 2.282096 0.059092 -0.022354 -375171.000000 0 0 1
17.535983 -25.863317 -26.626544 41.053559 -0.974971 2.276515 0.050160 -0.008354 -197739.000000 0 0 1
16.992783 -24.658017 -27.106424 40.392211 -0.967397 2.306462 0.043241 0.004564 -380466.000000 0 0 1
15.898783 -24.048117 -26.229634 38.975338 -0.986641 2.309027 0.049762 -0.000488 164846.000000 0 0 1
14.633083 -24.672217 -26.446514 39.016196 -1.035466 2.315609 0.070369 -0.008726 -112352.000000 0 0 1
13.525783 -24.176717 -25.751524 37.823292 -1.060723 2.319702 0.060085 -0.011617 232389.000000 0 0 1
13.312983 -24.472817 -24.213794 36.911544 -1.072579 2.286297 0.048403 0.001722 134593.000000 0 0 1
14.355383 -23.758517 -23.544894 36.399261 -1.027279 2.274244 0.025394 -0.004734 287258.000000 0 0 1
14.326083 -24.017417 -22.164994 35.684169 -1.032964 2.240997 0.043417 -0.007892 704153.000000 0 0 1
15.546083 -23.352917 -21.433294 35.304752 -0.983462 2.223194 0.020452 -0.008222 690154.000000 0 0 1
15.307583 -22.003317 -21.029894 34.069407 -0.962966 2.236060 0.017476 -0.009629 759839.000000 0 0 1
16.554083 -21.352217 -20.731094 34.054854 -0.911307 2.225288 0.014692 -0.015581 467771.000000 0 0 1
16.287983 -20.012917 -20.053494 32.679625 -0.887653 2.231458 0.027879 -0.010891 233756.000000 0 0 1
15.712783 -19.985517 -18.738594 31.582390 -0.904522 2.205978 0.031153 -0.013599 132019.000000 0 0 1
14.320683 -20.193617 -18.739794 31.049058 -0.953943 2.218748 0.021234 -0.012205 -512456.000000 0 0 1
13.690283 -20.024417 -17.354794 29.825995 -0.971108 2.191820 0.024137 -0.006342 -272090.000000 0 0 1
13.775483 -18.671717 -16.888594 28.698808 -0.935167 2.199970 0.039322 -0.011692 45324.300000 0 0 1
13.231883 -18.645917 -15.600094 27.678798 -0.953630 2.169548 0.028688 -0.009715 -176042.000000 0 0 1
13.348683 -17.312217 -14.829794 26.416339 -0.913955 2.166857 0.037105 -0.009087 -595729.000000 0 0 1
12.214183 -16.518417 -15.014394 25.445558 -0.934096 2.201929 0.049269 -0.020413 -194264.000000 0 0 1
12.408683 -15.233617 -14.522694 24.432502 -0.887241 2.207316 0.049584 -0.027625 -547407.000000 0 1 0
11.170283 -14.387317 -14.236194 23.117944 -0.910614 2.234206 0.055993 -0.028957 -500425.000000 0 1 0
10.396583 -14.047817 -15.361794 23.268322 -0.933671 2.291884 0.065366 -0.015732 396691.000000 0 1 0
9.211983 -13.324317 -15.052794 22.112998 -0.965888 2.319544 0.065275 -0.029000 498407.000000 0 1 0
8.362583 -12.802617 -16.263094 22.323262 -0.992180 2.386965 0.055211 -0.020460 64753.600000 0 1 0
8.743383 -11.663817 -17.011094 22.402426 -0.927541 2.433097 0.051492 -0.009383 -67775.500000 0 1 0
10.007583 -11.788617 -17.636094 23.455384 -0.866930 2.421735 0.067286 -0.015370 82873.000000 0 1 0
10.229583 -10.712417 -18.669494 23.831707 -0.808450 2.470896 0.066439 -0.013336 292177.000000 0 1 0
9.346083 -10.965917 -19.764694 24.459022 -0.864977 2.511671 0.062228 -0.010201 530597.000000 0 1 0
9.235283 -9.800917 -20.540994 24.561776 -0.815103 2.561294 0.046338 -0.012931 74566.600000 0 1 0
8.832483 -10.016317 -21.976294 25.715693 -0.848123 2.595551 0.058589 -0.010872 -190100.000000 0 0 1
9.871983 -10.768717 -22.551494 26.869894 -0.828816 2.566763 0.060121 -0.012256 -88802.300000 0 0 1
9.990283 -10.538717 -23.946394 28.005358 -0.812107 2.596472 0.049856 -0.010321 111132.000000 0 0 1
11.178183 -11.297617 -24.603994 29.290689 -0.790712 2.568068 0.073129 -0.012401 60503.400000 0 0 1
10.963383 -12.690017 -24.713194 29.865938 -0.858266 2.545385 0.053217 -0.011978 -33372.500000 0 0 1
12.065583 -13.283817 -25.376674 31.080760 -0.833419 2.526076 0.042691 -0.020592 107976.000000 0 0 1
12.219183 -14.749417 -24.995894 31.490450 -0.878946 2.487764 0.042973 -0.016552 103731.000000 0 0 1
11.160583 -15.541717 -25.519874 31.896200 -0.948023 2.498244 0.052123 -0.022996 264518.000000 0 0 1
11.405983 -16.887617 -25.068294 32.306461 -0.976768 2.459021 0.053248 -0.020488 288553.000000 0 0 1
10.262583 -17.873517 -25.453794 32.751776 -1.049580 2.460957 0.058408 -0.017559 359708.000000 0 0 1
10.352583 -18.499617 -26.718944 34.107386 -1.060604 2.470877 0.068839 -0.029058 -231193.000000 0 0 1
9.190383 -19.271117 -26.872014 34.321192 -1.125799 2.470201 0.062029 -0.027724 -212290.000000 0 0 1
9.188583 -20.199917 -28.101974 35.807648 -1.143890 2.473176 0.061696 -0.029372 -204918.000000 0 0 1
10.230083 -21.144517 -28.236674 36.729484 -1.120179 2.447718 0.062562 -0.024667 -191772.000000 0 0 1
9.864783 -22.259917 -29.025704 37.885477 -1.153642 2.443615 0.064340 -0.018156 -218238.000000 0 0 1
10.689683 -23.517517 -28.917424 38.775770 -1.144172 2.412471 0.048775 -0.012491 -176322.000000 0 0 1
10.112983 -24.464517 -29.809714 39.867331 -1.178815 2.415422 0.058079 -0.017616 345739.000000 0 0 1
10.789983 -25.739617 -29.767154 40.804841 -1.173851 2.388388 0.065907 -0.012800 499182.000000 0 0 1
10.364283 -26.657617 -28.568734 40.425481 -1.199989 2.355621 0.058864 -0.007313 234877.000000 0 0 1
11.181683 -26.342417 -27.456404 39.658632 -1.169371 2.335493 0.063221 -0.009096 -375844.000000 0 0 1
10.703683 -26.763217 -26.176504 38.936461 -1.190342 2.308091 0.041425 0.000283 10653.000000 0 0 1
9.557483 -25.855917 -25.698404 37.686628 -1.216730 2.321150 0.035473 -0.001969 60197.800000 0 0 1
10.016183 -24.591017 -25.305454 36.679804 -1.184004 2.332149 0.042382 0.006467 122101.000000 0 0 1
8.958883 -23.711317 -24.904394 35.534729 -1.209546 2.347380 0.048587 -0.000636 461543.000000 0 0 1
9.496883 -22.256117 -24.777794 34.633288 -1.167479 2.368040 0.061537 -0.002532 154592.000000 0 0 1
10.272683 -22.100317 -23.617494 33.937267 -1.135686 2.340491 0.050226 0.000318 185099.000000 0 0 1
11.208483 -21.026817 -23.800894 33.678475 -1.081055 2.355633 0.051430 -0.003583 222526.000000 0 0 1
11.973783 -20.712617 -22.492794 32.837627 -1.046642 2.325359 0.034175 -0.002502 224282.000000 0 0 1
11.175483 -20.181517 -21.394194 31.462622 -1.065080 2.318542 0.033986 0.000530 270230.000000 0 0 1
10.931783 -18.799417 -21.405194 30.514002 -1.044094 2.348279 0.047594 -0.007697 193826.000000 0 0 1
12.174383 -17.878417 -21.178094 30.271522 -0.972968 2.345640 0.038515 -0.006794 452786.000000 0 0 1
13.153683 -17.986117 -22.198794 31.453239 -0.939355 2.354308 0.040210 -0.014764 -193294.000000 0 0 1
14.089583 -16.937717 -22.013294 31.144626 -0.876936 2.355773 0.038277 -0.008302 468188.000000 0 0 1
15.378283 -17.066317 -22.902494 32.438788 -0.837380 2.354661 0.030817 -0.008995 -104430.000000 0 0 1
16.408583 -17.785417 -22.311594 32.914585 -0.825642 2.315649 0.033305 -0.006611 -201694.000000 0 0 1
17.627083 -17.277617 -22.861394 33.643327 -0.775387 2.317908 0.035913 -0.005824 1360240.000000 0 0 1
18.848483 -17.676017 -21.879594 33.858877 -0.753308 2.273390 0.032061 -0.009642 908395.000000 0 0 1
19.253383 -19.021717 -21.899394 34.815254 -0.779346 2.251085 0.028004 -0.012216 288180.000000 0 0 1
20.568583 -19.091217 -21.373694 35.275714 -0.748164 2.221698 0.016628 -0.018779 373079.000000 0 0 1
21.185883 -20.519817 -21.318494 36.392069 -0.769429 2.196664 0.039812 -0.025323 -94252.400000 0 0 1
20.563383 -21.308317 -20.342094 35.926284 -0.803187 2.172706 0.038118 -0.019333 215563.000000 0 0 1
21.074483 -22.631717 -20.349094 37.019104 -0.821013 2.152791 0.048723 -0.017789 -203027.000000 0 0 1
-15.874164 12.713085 29.005873 35.425306 -0.675269 0.611497 0.053570 -0.023199 -196437.000000 0 0 1
-17.149464 13.256285 28.723193 35.984094 -0.658050 0.646463 0.071665 -0.024969 159047.000000 0 0 1
-17.214964 13.366985 27.336193 34.961389 -0.660231 0.673094 0.068944 -0.025061 -350729.000000 0 0 1
-18.526164 13.942485 26.812163 35.447197 -0.645152 0.713009 0.090205 -0.017702 -376859.000000 0 0 1
-18.615764 15.330285 26.945433 36.161038 -0.688913 0.730035 0.074281 -0.005003 351174.000000 0 0 1
-19.759964 15.843085 26.259653 36.483269 -0.675824 0.767322 0.091529 -0.013065 -30000.800000 0 0 1
-19.961064 17.409585 26.338033 37.352774 -0.717229 0.788210 0.096737 0.001652 756278.000000 0 0 1
-18.953864 18.280985 25.697253 36.793915 -0.767329 0.797622 0.063409 0.018600 1279130.000000 0 0 1
-17.750664 18.319285 26.481203 36.768688 -0.801161 0.766690 0.036129 0.036933 617406.000000 0 0 1
-16.618564 19.219285 25.875623 36.264383 -0.857840 0.776277 0.031354 0.029518 434105.000000 0 0 1
-16.865164 20.600585 25.905653 37.147285 -0.884772 0.799066 0.040797 0.022494 556383.000000 0 0 1
-15.725364 21.268685 25.339203 36.629486 -0.934135 0.806858 0.055091 0.007654 703607.000000 0 0 1
-15.887964 22.795985 25.424153 37.662606 -0.962111 0.829763 0.054639 0.008358 396067.000000 0 0 1
-15.336664 23.494085 26.566873 38.639152 -0.992463 0.812668 0.044610 0.010996 40727.000000 0 0 1
-15.762964 24.822485 26.550363 39.617529 -1.005019 0.836362 0.039886 -0.002139 -230866.000000 0 0 1
-15.365564 25.771285 27.659893 40.808448 -1.033155 0.826032 0.026248 0.004166 -620377.000000 0 0 1
-13.992564 26.013885 27.618483 40.438777 -1.077299 0.818975 0.023538 0.000528 -768219.000000 0 0 1
-13.552664 26.842185 28.646773 41.530895 -1.103235 0.809625 0.031291 0.004597 241219.000000 0 0 1
-12.007264 26.913785 28.647543 41.099975 -1.151159 0.799562 0.047523 -0.003629 324777.000000 0 0 1
-11.400164 27.692085 27.660423 40.766584 -1.180265 0.825068 0.049618 -0.001318 -57512.800000 0 0 1
-9.984864 27.682885 27.715643 40.425197 -1.224632 0.815364 0.042469 0.000322 211414.000000 0 0 1
-9.278364 28.086685 26.424703 39.663773 -1.251735 0.841671 0.043802 -0.004564 109237.000000 0 0 1
-7.859964 28.059185 26.463773 39.362777 -1.297676 0.833479 0.047192 -0.012345 381374.000000 0 0 1
-7.353564 28.587285 25.190183 38.805323 -1.319023 0.864340 0.053521 -0.011242 950448.000000 0 0 1
-5.794464 28.342185 25.127793 38.317898 -1.369129 0.855592 0.057291 -0.012107 340652.000000 0 0 1
-5.125264 29.179585 26.024833 39.433596 -1.396924 0.850023 0.057772 -0.011723 733379.000000 0 0 1
-3.711064 28.870885 26.047733 39.061291 -1.442957 0.840833 0.034370 -0.010365 1412490.000000 0 0 1
-2.848664 29.743785 25.088153 39.015677 -1.475314 0.872351 0.028056 -0.006482 -362961.000000 0 0 1
-3.022964 29.263885 23.738883 37.802750 -1.467861 0.891858 0.029725 0.003484 -34494.100000 0 0 1
-2.654364 30.262785 22.832153 38.002487 -1.483310 0.926286 0.024963 -0.002125 -374926.000000 0 0 1
-3.018264 29.953185 21.322153 36.890886 -1.470369 0.954547 0.022743 0.005295 1915210.000000 0 0 1
-4.457164 29.957185 21.092753 36.908041 -1.423095 0.962470 0.022346 0.008367 1239630.000000 0 0 1
-5.206164 28.840885 21.503953 36.349977 -1.392206 0.937778 0.041159 0.004627 -525037.000000 0 0 1
-6.597964 28.913285 20.856853 36.256303 -1.346440 0.957873 0.035390 -0.004273 -539526.000000 0 0 1
-6.579464 28.774985 19.448053 35.348492 -1.346008 0.988216 0.025171 -0.003604 -81498.200000 0 0 1
-7.563664 27.883285 18.976853 34.565989 -1.305909 0.989625 0.014487 -0.004852 -1120820.000000 0 0 1
-7.076564 26.499985 18.650253 33.168644 -1.309845 0.973649 0.005940 -0.010550 361292.000000 0 0 1
-6.150164 26.487585 17.549153 32.363397 -1.342649 0.997680 0.006146 -0.008544 363425.000000 0 0 1
-4.818064 26.825285 17.861253 32.585795 -1.393082 0.990669 0.017498 -0.002106 -840912.000000 0 0 1
-3.935364 26.879685 16.616353 31.845059 -1.425423 1.021851 0.010212 -0.004406 -121825.000000 0 0 1
-3.551364 25.630785 16.025253 30.436131 -1.433114 1.016293 0.019563 -0.004582 33041.400000 0 0 1
-2.869864 25.913285 14.793853 29.976534 -1.460497 1.054670 0.026568 -0.016633 -83903.100000 0 0 1
-2.246564 24.647085 14.227853 28.547464 -1.479898 1.049052 0.018418 -0.016729 -234493.000000 0 0 1
-1.245264 24.147285 15.077953 28.495381 -1.519272 1.013213 0.028860 -0.014728 -334530.000000 0 0 1
-0.570564 23.065485 14.433153 27.215034 -1.546065 1.011798 0.024834 -0.029110 150331.000000 0 0 1
0.780436 22.809485 15.168653 27.403827 1.536594 0.984208 0.020697 -0.021910 584094.000000 0 0 1
1.817736 23.765885 14.947053 28.134247 1.494460 1.010690 0.029517 -0.027000 296056.000000 0 0 1
3.006036 23.236885 15.518053 28.103364 1.442146 0.985822 0.028276 -0.017174 21416.400000 0 0 1
4.090936 24.285585 15.833153 29.278220 1.403912 0.999429 0.037766 -0.021524 68456.900000 0 0 1
5.356136 23.661885 15.786653 28.944627 1.348187 0.993920 0.044388 -0.022515 142039.000000 0 0 1
6.423836 24.575985 16.105553 30.077127 1.315130 1.005726 0.051040 -0.020905 -282503.000000 0 0 1
7.755136 23.837385 16.311553 29.907020 1.256261 0.993920 0.059987 -0.023902 81055.100000 0 0 1
8.473236 23.503985 15.110853 29.198817 1.224796 1.026851 0.052359 -0.009619 242485.000000 0 0 1
9.018936 24.635685 14.415053 29.934127 1.219858 1.068363 0.059685 -0.008544 -774874.000000 0 0 1
9.654736 24.294885 13.066953 29.226711 1.192535 1.107288 0.055861 -0.003561 315461.000000 0 0 1
10.848936 23.504785 13.154353 29.038102 1.138368 1.100665 0.061772 -0.010306 556148.000000 0 0 1
10.966136 22.708885 12.023253 27.937577 1.120922 1.125903 0.053118 -0.006977 185607.000000 0 0 1
12.311736 21.947785 12.119053 27.931265 1.059581 1.121992 0.072815 -0.011796 329394.000000 0 0 1
12.224736 20.838785 12.956653 27.414850 1.040263 1.078541 0.055931 -0.002392 -534293.000000 0 0 1
13.505836 20.441685 13.320453 27.887355 0.986935 1.072816 0.059874 -0.003912 -699483.000000 0 0 1
13.641736 19.231485 14.311053 27.581755 0.953827 1.025280 0.052977 -0.007446 873411.000000 0 0 1
15.029936 19.003485 14.663953 28.320716 0.901626 1.026540 0.062580 -0.005424 1451740.000000 0 0 1
15.015936 18.184585 15.775053 28.372694 0.880550 0.981238 0.048437 -0.010744 40081.600000 0 0 1
16.327336 17.364885 15.813953 28.604235 0.816183 0.985011 0.030802 -0.012536 116544.000000 0 0 1
16.675636 16.815685 17.078253 29.197788 0.789580 0.946020 0.042216 -0.014263 -144876.000000 0 0 1
17.875936 16.100785 16.929153 29.417352 0.733200 0.957603 0.030059 -0.014398 70851.400000 0 0 1
18.473536 15.583185 18.305953 30.318561 0.700732 0.922553 0.037196 -0.011809 -152186.000000 0 0 1
19.106236 16.462985 19.169053 31.678553 0.711222 0.920891 0.034361 -0.007719 137455.000000 0 0 1
18.271736 17.451385 19.721853 32.052436 0.762438 0.908030 0.027693 -0.001346 -185482.000000 0 0 1
19.038736 18.276685 20.768853 33.583567 0.764979 0.904062 0.012577 -0.005096 -146214.000000 0 0 1
18.202436 19.188085 21.467353 34.064036 0.811753 0.888978 0.033169 -0.009089 149531.000000 0 0 1
18.874036 20.234085 22.203953 35.477640 0.820161 0.894566 0.022792 -0.004713 233444.000000 0 0 1
17.916136 21.354085 22.753853 35.982256 0.872721 0.886196 0.036433 -0.009927 278592.000000 0 0 1
16.989736 20.956185 23.717793 35.921394 0.889549 0.849619 0.035884 -0.012001 -355010.000000 0 0 1
16.486436 22.059285 24.385053 36.783766 0.928981 0.846071 0.032972 -0.024988 -30428.900000 0 0 1
15.591836 21.746585 25.606333 37.036517 0.948766 0.807398 0.053879 -0.020722 -413999.000000 0 0 1
14.468736 20.988885 25.318473 35.929135 0.967252 0.788827 0.058230 -0.023804 -757939.000000 0 0 1
13.937136 20.504285 26.523013 36.306194 0.973812 0.751689 0.066799 -0.020008 -152397.000000 0 0 1
13.002636 19.303285 26.385503 35.183521 0.978011 0.722826 0.088037 -0.022473 -10140.300000 0 0 1
13.631036 18.026585 26.254863 34.642182 0.923363 0.710728 0.060699 -0.029180 89012.600000 0 0 1
14.219236 17.641085 25.002913 33.742262 0.892390 0.736243 0.067073 -0.029270 -185373.000000 0 0 1
13.347136 17.575385 23.739233 32.412828 0.921292 0.748953 0.081107 -0.028952 -662388.000000 0 0 1
13.089036 18.800585 23.079653 32.518537 0.962623 0.781670 0.079330 -0.022785 631712.000000 0 0 1
14.185236 19.285885 22.266053 32.694700 0.936624 0.821629 0.065453 -0.023845 770993.000000 0 0 1
14.717736 18.487085 21.096853 31.677457 0.898432 0.841977 0.062812 -0.020836 -205824.000000 0 0 1
13.703236 18.249085 20.141153 30.438033 0.926720 0.847699 0.067520 -0.019065 100860.000000 0 0 1
14.134736 17.235985 19.299453 29.484553 0.883936 0.857194 0.057086 -0.020483 303151.000000 0 0 1
12.984936 16.510685 18.522153 28.005025 0.904368 0.848130 0.038687 -0.010016 313861.000000 0 0 1
12.424536 17.235385 17.456553 27.498343 0.946198 0.883018 0.052566 -0.012760 -636609.000000 0 0 1
11.445536 16.509785 16.803453 26.190253 0.964610 0.874225 0.035564 -0.003979 -393996.000000 0 0 1
10.990036 17.200585 15.535053 25.651099 1.002240 0.920240 0.037686 0.001502 33651.700000 0 0 1
10.141736 18.352285 15.706253 26.198236 1.065948 0.927900 0.039341 -0.006255 276377.000000 0 0 1
9.644536 18.759185 14.485553 25.588188 1.095914 0.969025 0.030830 0.000094 -539877.000000 0 0 1
8.692936 19.963285 14.600653 26.216006 1.160111 0.980103 0.041230 -0.002310 -833496.000000 0 0 1
7.457536 19.567585 15.071053 25.800036 1.206674 0.946966 0.022922 0.000707 -1424380.000000 0 0 1
6.543336 20.615985 15.105853 26.382208 1.263461 0.961150 0.028480 -0.007648 313673.000000 0 0 1
5.207636 20.222385 15.844053 26.212561 1.318754 0.921727 0.029917 -0.009251 -459498.000000 0 0 1
4.317536 19.755785 14.933653 25.138540 1.355634 0.934707 0.029723 -0.009383 -1677310.000000 0 0 1
3.256336 19.261985 15.697553 25.060746 1.403325 0.893896 0.025294 -0.015099 194660.000000 0 0 1
2.095836 18.647085 14.838653 23.922624 1.458871 0.901701 0.023954 -0.019106 627532.000000 0 1 0
1.314636 19.593985 14.093953 24.172134 1.503803 0.948299 0.021204 -0.025871 137289.000000 0 1 0
0.405236 18.842485 13.302853 23.068797 1.549293 0.956162 0.015637 -0.029881 -173101.000000 0 1 0
-0.555264 19.631185 12.404653 23.228585 -1.542519 1.007442 0.015413 -0.038963 -743443.000000 0 1 0
-1.555064 20.286885 13.077453 24.186685 -1.494292 0.999541 0.015880 -0.030407 -694230.000000 0 1 0
-2.656564 20.401585 12.198653 23.918385 -1.441311 1.035598 0.012706 -0.040045 279308.000000 0 1 0
-3.888764 21.238685 12.626853 25.012830 -1.389704 1.041629 0.008453 -0.025935 297097.000000 0 0 1
-4.562864 20.631385 13.711553 25.188896 -1.353139 0.995183 0.011358 -0.026622 -170335.000000 0 0 1
-5.520064 21.521685 14.229053 26.384086 -1.319720 1.001185 0.005877 -0.015602 -257537.000000 0 0 1
-6.396164 20.916285 15.373053 26.734485 -1.274029 0.958159 0.008231 -0.014405 -885699.000000 0 0 1
-7.230764 19.820185 15.042253 25.911254 -1.220982 0.951417 0.009936 -0.014574 65892.000000 0 0 1
-8.030364 19.289585 16.057153 26.351604 -1.176313 0.915565 0.008882 0.000958 8567.120000 0 0 1
-9.015864 20.293085 16.800253 27.844993 -1.152707 0.923102 0.011756 0.003290 -246032.000000 0 0 1
-10.197064 20.571585 16.089753 28.036590 -1.110605 0.959555 0.007513 -0.006952 740310.000000 0 0 1
-11.294264 19.646985 16.362553 27.951701 -1.049067 0.945439 0.006340 -0.007742 1343200.000000 0 0 1
-12.427464 19.679285 15.246253 27.823810 -1.007537 0.990876 0.020483 -0.013020 728097.000000 0 0 1
-13.175064 20.897685 15.138153 28.973423 -1.008283 1.021035 0.004117 -0.009138 318490.000000 0 0 1
-14.142064 20.747285 14.122153 28.807691 -0.972503 1.058452 0.003292 -0.018611 230155.000000 0 0 1
-15.273564 21.859385 14.011153 30.123528 -0.960931 1.087022 0.008826 -0.020040 -26668.100000 0 0 1
-16.332264 21.575785 14.847153 30.865763 -0.922848 1.068975 0.014954 -0.020787 -607479.000000 0 0 1
-17.237664 22.684585 14.872253 32.138939 -0.920999 1.089703 0.034033 -0.030029 14098.400000 0 0 1
-18.546964 22.430785 15.613253 33.028831 -0.879895 1.078426 0.076592 -0.027513 -1453950.000000 0 0 1
-19.356064 21.392085 15.109053 32.566271 -0.835323 1.088350 0.076353 -0.024427 -437800.000000 0 0 1
-20.565364 21.301485 15.786853 33.554615 -0.802979 1.080959 0.085922 -0.013185 284803.000000 0 0 1
-21.597164 22.500985 15.860853 34.989977 -0.805891 1.100336 0.082391 -0.023090 -788564.000000 0 0 1
-22.379564 22.658185 14.692553 35.072915 -0.791584 1.138547 0.091934 -0.022076 47250.400000 0 0 1
-23.184664 23.806685 14.732653 36.350213 -0.798634 1.153492 0.098868 -0.028322 336.364000 0 0 1
-22.593264 25.033985 13.914953 36.479884 -0.836600 1.179441 0.085785 -0.026500 111667.000000 0 0 1
-21.325764 25.357985 14.450853 36.147514 -0.871557 1.159526 0.076146 -0.030163 -85223.800000 0 0 1
-20.810064 26.482785 13.768353 36.386320 -0.904777 1.182736 0.046065 -0.018141 -1115170.000000 0 0 1
-19.364464 26.794385 14.024853 35.911253 -0.944993 1.169576 0.040521 -0.016385 -636521.000000 0 0 1
-18.458164 26.276485 13.064953 34.667716 -0.958422 1.184390 0.043384 -0.020290 839152.000000 0 0 1
-17.070964 26.501085 13.370753 34.241822 -0.998537 1.169643 0.009743 -0.010879 1071460.000000 0 0 1
-16.069764 26.056985 12.253353 32.974967 -1.018176 1.190069 0.015687 -0.016967 387222.000000 0 0 1
-14.740864 26.203985 12.738653 32.652951 -1.058374 1.170032 0.000644 -0.006111 -54383.700000 0 0 1
-13.834764 25.927485 11.710253 31.634874 -1.080636 1.191605 0.001730 -0.008619 343682.000000 0 0 1
-12.454964 26.657885 11.848153 31.719832 -1.133719 1.187990 -0.007060 0.001136 681919.000000 0 0 1
-11.377264 25.903585 11.238753 30.442527 -1.156947 1.192670 -0.011411 0.003553 1332100.000000 0 0 1
-10.081064 26.241985 11.756453 30.471033 -1.204021 1.174696 0.003853 0.005016 666486.000000 0 0 1
-9.479164 27.502485 11.065053 31.123571 -1.238882 1.207326 0.012987 -0.000359 -897930.000000 0 0 1
-8.407864 28.118185 11.724453 31.603597 -1.280240 1.190727 0.022088 -0.010048 -131440.000000 0 0 1
-8.011964 29.262885 10.995353 32.270820 -1.303553 1.223112 0.028436 -0.007501 233070.000000 0 0 1
-6.694564 29.941385 11.469153 32.754316 -1.350825 1.213058 0.022016 -0.008855 -163019.000000 0 0 1
-5.591864 29.157185 11.243253 31.746199 -1.381314 1.208780 0.038557 -0.012178 -5504.660000 0 0 1
-4.356964 29.561285 11.885153 32.157575 -1.424462 1.192227 0.034914 -0.025865 1510840.000000 0 0 1
-3.142664 29.184085 10.965153 31.334035 -1.463526 1.213285 0.047366 -0.030542 120779.000000 0 0 1
-3.186264 29.906985 9.726853 31.609994 -1.464658 1.258006 0.058597 -0.033320 346503.000000 0 0 1
-2.100164 29.614685 8.844353 30.978426 -1.499999 1.281268 0.059901 -0.036156 392800.000000 0 0 1
-2.016064 30.593285 7.644153 31.598207 -1.504993 1.326455 0.058602 -0.037127 -77554.100000 0 0 1
-2.966764 30.243685 6.662153 31.110553 -1.473014 1.354980 0.054061 -0.026736 13285.000000 0 0 1
-3.266364 31.377785 5.916753 32.097391 -1.467072 1.385399 0.059730 -0.017191 -222333.000000 0 0 1
10.712136 34.194985 -26.389394 44.502213 1.267214 2.205564 0.081228 -0.020485 -44184.000000 0 0 1
11.185736 -33.544117 -25.292584 43.474628 -1.248929 2.191709 0.054770 -0.012067 -879534.000000 0 0 1
12.572636 -33.445117 -25.339804 43.803570 -1.211221 2.187669 0.057971 -0.016491 -778191.000000 0 0 1
13.196536 -33.351017 -23.942294 43.123919 -1.194014 2.159397 0.050266 -0.013548 -836461.000000 0 0 1
12.957736 -32.145217 -23.203094 41.708530 -1.187620 2.160741 0.048752 -0.007595 122926.000000 0 0 1
13.450336 -32.121817 -21.880994 41.127857 -1.174249 2.131785 0.040669 -0.004493 43837.400000 0 0 1
14.990936 -31.921117 -21.838994 41.480448 -1.131743 2.125262 0.028463 -0.005201 -330146.000000 0 0 1
15.716036 -33.080417 -22.150394 42.801259 -1.127278 2.114743 0.044373 -0.011519 -1047050.000000 0 0 1
17.023736 -32.796917 -21.780994 42.893555 -1.092013 2.103416 0.032298 -0.022038 -1343680.000000 0 0 1
17.987236 -33.948817 -22.032194 44.288604 -1.083567 2.091475 0.021880 -0.013800 -752607.000000 0 0 1
19.290636 -33.700717 -21.577094 44.423394 -1.050910 2.077977 0.032661 -0.002462 -398917.000000 0 0 1
20.079736 33.687385 -21.891294 44.913968 1.033278 2.079912 0.026100 0.001188 -580998.000000 0 0 1
21.530336 33.753285 -21.391594 45.392069 1.002993 2.061518 0.056449 0.006551 -326905.000000 0 0 1
22.386936 -33.934017 -22.161594 46.301498 -0.987619 2.069898 0.045150 0.002415 710520.000000 0 0 1
23.733536 -33.927917 -21.672394 46.734109 -0.960387 2.053006 0.038874 0.010897 861405.000000 0 0 1
24.817736 -33.431117 -22.648594 47.397452 -0.932206 2.068995 0.053046 0.005557 5128.050000 0 0 1
24.953336 -32.034017 -22.887394 46.612016 -0.909015 2.084056 0.053690 -0.004161 37444.200000 0 0 1
23.891236 -31.460417 -23.646394 46.040210 -0.921302 2.110175 0.039943 -0.005378 168507.000000 0 0 1
23.773536 -29.965017 -23.620694 44.955761 -0.900107 2.124006 0.041451 -0.019369 -254925.000000 0 0 1
24.679236 -29.193717 -24.395194 45.348245 -0.869002 2.138802 0.039628 -0.019426 -131030.000000 0 0 1
24.578936 -27.779617 -24.235594 44.307959 -0.846452 2.149550 0.042759 -0.016204 209607.000000 0 0 1
25.254436 -27.191317 -25.450334 44.998597 -0.822313 2.171933 0.038555 -0.015717 -263117.000000 0 0 1
24.372036 -27.242717 -26.533174 45.168253 -0.840958 2.198675 0.027297 -0.017084 -676615.000000 0 0 1
24.870536 -26.622317 -27.667274 45.746796 -0.819405 2.220300 0.021165 -0.016185 134254.000000 0 0 1
23.791836 -26.294617 -28.815184 45.692157 -0.835326 2.253171 0.018048 -0.017601 903955.000000 0 0 1
22.967336 -25.174117 -28.632044 44.508748 -0.831206 2.269584 0.025119 -0.014668 202190.000000 0 0 1
21.975936 -25.258517 -27.595504 43.387167 -0.854782 2.260138 0.021468 -0.008049 -196085.000000 0 0 1
21.330136 -23.904517 -27.319414 42.104050 -0.842249 2.276875 0.024314 -0.006483 -91268.300000 0 0 1
20.709236 -23.334117 -28.452844 42.224611 -0.844925 2.310197 0.029339 -0.005006 201043.000000 0 0 1
19.880536 -22.252217 -28.053914 40.956306 -0.841630 2.325361 0.019623 0.003253 -42386.900000 0 0 1
19.048836 -21.581617 -29.172794 40.983854 -0.847655 2.362871 0.034751 -0.005436 -2691.610000 0 0 1
17.879436 -22.321317 -29.426834 41.034790 -0.895444 2.370456 0.045260 -0.013397 -53599.400000 0 0 1
16.943336 -21.622017 -30.216224 40.836362 -0.906126 2.403769 0.033634 -0.020202 354013.000000 0 0 1
15.591336 -22.391317 -30.354404 40.814834 -0.962550 2.409400 0.047759 -0.025000 -13282.200000 0 0 1
15.530036 -23.534317 -31.188364 42.044740 -0.987501 2.406532 0.049822 -0.014954 -126882.000000 0 0 1
14.873336 -24.581517 -30.564524 41.948269 -1.026663 2.387107 0.058744 -0.024259 -203413.000000 0 0 1
14.971436 -26.006517 -31.163604 43.262606 -1.048451 2.375083 0.079361 -0.027236 298356.000000 0 0 1
14.160536 -26.871717 -30.380304 42.960131 -1.085808 2.356290 0.090481 -0.028026 207096.000000 0 0 1
14.540736 -28.196817 -30.736504 44.172686 -1.094678 2.340366 0.135176 -0.025634 199329.000000 0 0 1
13.661836 -29.309117 -30.118864 44.190679 -1.134611 2.320697 0.132885 -0.026811 -82453.300000 0 0 1
13.957136 -29.564717 -28.733884 43.525972 -1.129727 2.291821 0.142491 -0.029851 -24443.200000 0 0 1
13.712236 -28.491417 -27.814134 42.111902 -1.122240 2.292256 0.126685 -0.021558 -119528.000000 0 0 1
14.794836 -28.369217 -26.698804 41.671643 -1.090089 2.266199 0.098220 -0.013526 213278.000000 0 0 1
14.671836 -29.356517 -25.742024 41.709947 -1.107324 2.235934 0.086282 -0.016963 447481.000000 0 0 1
15.647036 -29.252117 -24.687394 41.351947 -1.079618 2.210561 0.078449 -0.019362 -233632.000000 0 0 1
15.369736 -28.130617 -23.674194 39.850067 -1.070744 2.206920 0.062733 -0.016696 843308.000000 0 0 1
14.330236 -28.233217 -22.672594 38.942480 -1.101114 2.192237 0.054805 -0.015167 1306710.000000 0 0 1
12.996236 -28.400617 -23.184694 38.897651 -1.141637 2.209361 0.058584 -0.007503 82795.500000 0 0 1
11.893936 -28.170217 -22.153494 37.759822 -1.171286 2.197768 0.032653 0.004732 -308334.000000 0 0 1
11.748536 -26.859017 -21.776494 36.519181 -1.158457 2.209684 0.028153 0.005613 -435878.000000 0 0 1
10.641536 -26.658617 -20.956994 35.540396 -1.190999 2.201443 0.030355 0.003474 -1184570.000000 0 0 1
10.295836 -25.208617 -20.782794 34.254973 -1.183048 2.222710 0.036981 0.000269 -535486.000000 0 0 1
11.119436 -24.387117 -20.032494 33.461533 -1.143001 2.212639 0.032335 -0.003380 -142376.000000 0 0 1
10.479936 -23.105717 -19.884794 32.235202 -1.144982 2.235551 0.039634 -0.005612 261159.000000 0 0 1
10.948136 -22.269617 -18.639794 31.036099 -1.113877 2.215028 0.025324 -0.006119 -117343.000000 0 0 1
10.418536 -22.779417 -17.417894 30.509519 -1.141834 2.178398 0.043656 -0.011115 363867.000000 0 0 1
10.669136 -21.932417 -16.307194 29.339154 -1.118043 2.160141 0.040294 -0.011313 -12633.100000 0 0 1
9.729736 -22.420617 -15.173994 28.768071 -1.161358 2.126404 0.048364 -0.014628 352975.000000 0 0 1
10.249936 -23.650917 -14.748494 29.697561 -1.161846 2.090500 0.041417 -0.013882 283611.000000 0 0 1
9.656936 -24.026717 -13.530494 29.216670 -1.188632 2.052296 0.047567 -0.015200 -116354.000000 0 0 1
9.744136 -25.541717 -13.291994 30.397444 -1.206340 2.023361 0.046516 -0.014790 82118.600000 0 0 1
10.976036 -25.980617 -12.756594 30.954750 -1.171070 1.995559 0.029345 -0.014350 -115787.000000 0 0 1
11.171836 -27.371317 -12.914794 32.261290 -1.183277 1.982661 0.030473 -0.015220 -1277530.000000 0 0 1
12.429236 -27.956917 -12.257294 32.959314 -1.152454 1.951842 0.029642 -0.010001 245936.000000 0 0 1
13.687236 -27.657117 -12.863794 33.432526 -1.111245 1.965754 0.032597 -0.008417 429369.000000 0 0 1
13.869636 -28.047317 -14.210794 34.365178 -1.111552 1.997116 0.028899 -0.012898 -1571070.000000 0 0 1
15.174736 -27.435417 -14.702194 34.628446 -1.065570 2.009283 0.020962 -0.003247 -482777.000000 0 0 1
16.247336 -28.362117 -14.668294 35.826589 -1.050577 1.992620 0.047507 -0.005114 -17799.600000 0 0 1
17.385436 -27.680617 -15.169594 36.035906 -1.009991 2.005297 0.058007 -0.003151 134625.000000 0 0 1
18.725536 -28.435617 -15.078094 37.236796 -0.988452 1.987693 0.058267 -0.008461 115378.000000 0 0 1
18.930936 -29.530817 -15.984894 38.548234 -1.000734 1.998379 0.047318 0.002326 562821.000000 0 0 1
20.254536 -30.077217 -15.864494 39.579886 -0.978134 1.983210 0.052092 0.001926 743239.000000 0 0 1
20.480536 -31.223517 -16.896794 40.986120 -0.990262 1.995726 0.036591 -0.005855 -163682.000000 0 0 1
19.965936 -32.557717 -16.627194 41.654617 -1.020693 1.981406 0.028515 0.007431 222058.000000 0 0 1
20.303636 -33.479417 -17.668294 42.956695 -1.025647 1.994681 0.026298 -0.000955 75915.100000 0 0 1
19.948536 33.572685 -17.309794 42.716487 1.034660 1.988021 0.014841 0.002072 204426.000000 0 0 1
20.713336 33.098185 -16.183494 42.266271 1.011611 1.963723 0.049335 0.000119 343261.000000 0 0 1
20.560136 31.679585 -15.940194 40.992745 0.995123 1.970184 0.042618 -0.000885 -359463.000000 0 0 1
21.584336 31.159785 -14.922694 40.736993 0.964988 1.945845 0.069154 -0.006581 -788563.000000 0 0 1
22.906936 31.052185 -15.422594 41.555052 0.935219 1.951029 0.064528 -0.001576 574740.000000 0 0 1
23.859036 30.815985 -14.369194 41.537360 0.911960 1.924031 0.058001 -0.001250 403984.000000 0 0 1
23.680036 29.545985 -13.476494 40.191109 0.895164 1.912731 0.063449 -0.000570 -1253340.000000 0 0 1
23.807436 28.373685 -14.287894 39.698916 0.872684 1.938964 0.069777 0.004286 248614.000000 0 0 1
23.569836 27.116985 -13.564394 38.403917 0.855266 1.931789 0.052791 0.002926 -742823.000000 0 0 1
22.136236 26.737985 -13.253294 37.156192 0.879276 1.935520 0.065162 -0.008871 -1344070.000000 0 0 1
21.328336 26.417885 -14.345094 36.858979 0.891593 1.970547 0.067639 -0.016752 -185189.000000 0 0 1
19.959536 26.633885 -14.075494 36.136774 0.927677 1.970892 0.062700 -0.020331 17243.900000 0 0 1
19.337636 28.067685 -14.061894 36.871073 0.967515 1.962085 0.045813 -0.016437 -317298.000000 0 0 1
19.041436 28.780685 -15.294594 37.746904 0.986306 1.987981 0.041959 -0.009159 447698.000000 0 0 1
18.125736 28.189385 -16.230894 37.237423 0.999359 2.021808 0.024312 -0.002333 -21605.700000 0 0 1
18.118136 28.757885 -17.621494 38.285766 1.008593 2.049087 0.021177 0.001439 -7376.060000 0 0 1
17.413136 29.983585 -17.593394 38.881361 1.044647 2.040351 0.014779 0.000929 88992.300000 0 0 1
17.571036 30.576385 -18.842594 39.983747 1.049217 2.061511 0.004401 0.004320 -525053.000000 0 0 1
16.620236 31.698985 -19.183294 40.608579 1.087887 2.062803 -0.006176 0.000534 -324324.000000 0 0 1
16.873036 32.916785 -18.460794 41.340235 1.097122 2.033711 0.005388 0.006614 -85467.400000 0 0 1
15.934636 33.875385 -18.850794 41.914279 1.131116 2.037278 0.004889 0.004206 -210438.000000 0 0 1
15.995136 -33.291917 -18.038594 41.104586 -1.122910 2.025111 0.008819 0.005035 -531708.000000 0 0 1
14.918236 -32.448517 -18.243294 40.103339 -1.139863 2.043064 0.003443 0.007161 -525697.000000 0 0 1
14.795736 -31.437517 -17.255194 38.793982 -1.130912 2.031737 0.011544 0.000738 -267516.000000 0 0 1
13.646536 -30.432517 -17.468794 37.650031 -1.149257 2.053277 0.009994 -0.003267 -29110.800000 0 0 1
12.411236 -31.116217 -17.492894 37.792315 -1.191267 2.052025 0.014746 0.001189 -132401.000000 0 0 1
11.340336 -30.200517 -17.679994 36.786637 -1.211586 2.072146 0.001967 0.001008 1185910.000000 0 0 1
9.916636 -30.811117 -17.937694 37.005749 -1.259414 2.076848 0.024392 -0.003496 151177.000000 0 0 1
9.205636 -31.424217 -16.845694 36.823940 -1.285823 2.045940 0.035984 -0.008116 -181356.000000 0 0 1
8.116236 -32.234717 -17.119694 37.390296 -1.324138 2.046388 0.062345 -0.004439 -291338.000000 0 0 1
6.889436 -31.489817 -17.702794 36.775832 -1.355407 2.073014 0.069678 -0.000645 -1036680.000000 0 0 1
6.787036 -31.067617 -19.060294 37.074998 -1.355715 2.110756 0.057028 0.003201 -92934.600000 0 0 1
6.857836 -32.147417 -20.040994 38.498413 -1.360622 2.118311 0.040682 -0.000282 -1508750.000000 0 0 1
7.027736 -31.602617 -21.472994 38.848474 -1.351979 2.156441 0.022825 0.013020 -155442.000000 0 0 1
8.285236 -31.112617 -21.926094 38.953738 -1.310538 2.168657 0.026824 0.006673 1462020.000000 0 0 1
9.429636 -32.038617 -21.885894 39.929731 -1.284558 2.150899 0.025509 0.003222 908603.000000 0 0 1
9.423136 -33.168017 -22.939894 41.414389 -1.293987 2.157851 0.034844 -0.007243 -1274050.000000 0 0 1
8.295336 -33.944617 -22.729994 41.685756 -1.331115 2.147508 0.031272 -0.009783 -799759.000000 0 0 1
8.229836 33.346085 -23.469594 41.599441 1.328831 2.170237 0.044078 -0.019545 314899.000000 0 0 1
6.952836 32.449585 -23.179994 40.479991 1.359722 2.180505 0.054828 -0.031158 1412810.000000 0 0 1
5.684936 33.008185 -23.523194 40.929201 1.400241 2.183069 0.048398 -0.031203 548641.000000 0 0 1
5.176536 33.910685 -22.554494 41.054066 1.419314 2.152425 0.033480 -0.021805 -747070.000000 0 0 1
3.765636 -34.087317 -22.938794 41.259102 -1.460772 2.160325 0.039887 -0.015534 -381307.000000 0 0 1
2.677236 33.627985 -22.519694 40.560395 1.491351 2.159416 0.048367 -0.022172 -72576.000000 0 0 1
1.529836 33.975585 -23.294994 41.223022 1.525799 2.171347 0.050306 -0.012566 -157733.000000 0 0 1
0.238536 33.440985 -22.670894 40.402052 1.563663 2.166549 0.048613 -0.019126 -509532.000000 0 0 1
-0.057464 33.909685 -21.388794 40.091777 -1.569102 2.133525 0.039841 -0.017822 -720054.000000 0 0 1
-1.010264 33.071985 -20.832694 39.099591 -1.540258 2.132715 0.040535 -0.017814 -469101.000000 0 0 1
-1.305964 33.439585 -19.351094 38.657163 -1.531762 2.095068 0.051028 -0.017226 -145505.000000 0 0 1
-0.429264 32.934685 -18.376294 37.716919 -1.557763 2.079695 0.059393 -0.030394 -204880.000000 0 0 1
-1.038864 32.802985 -17.085194 37.000256 -1.539137 2.050773 0.046273 -0.028062 140058.000000 0 0 1
-0.203964 31.834485 -16.230594 35.733853 -1.564389 2.042279 0.033157 -0.033241 576061.000000 0 0 1
0.935136 32.463685 -15.651194 36.051702 1.541999 2.019871 0.038213 -0.027140 6261.300000 0 0 1
1.751336 31.456785 -15.059294 34.919606 1.515179 2.016681 0.047357 -0.023481 308550.000000 0 0 1
2.749236 32.034485 -14.029794 35.079933 1.485185 1.982245 0.060634 -0.024214 57931.300000 0 0 1
3.856336 32.689885 -14.602194 36.010054 1.453372 1.988326 0.054614 -0.024583 28783.000000 0 0 1
4.786236 33.159185 -13.615994 36.164000 1.427445 1.956819 0.059917 -0.026474 405916.000000 0 0 1
6.128936 33.553085 -14.268494 36.972467 1.390124 1.967004 0.068450 -0.038229 171301.000000 0 0 1
7.005636 32.456285 -14.453694 36.213239 1.358209 1.981361 0.056369 -0.027727 -333104.000000 0 0 1
8.152636 32.810185 -15.214894 37.073801 1.327250 1.993683 0.033534 -0.008959 152773.000000 0 0 1
9.083836 31.601285 -15.310994 36.270978 1.290891 2.006588 0.019353 -0.014227 -156801.000000 0 0 1
9.620136 31.222685 -14.054794 35.566000 1.271913 1.977055 0.014776 -0.016552 -660323.000000 0 0 1
10.397536 30.047385 -14.153594 34.803424 1.237656 1.989605 0.013734 -0.013914 -319647.000000 0 0 1
9.843236 28.661485 -13.942394 33.358063 1.239986 2.001997 0.020833 -0.013771 -625430.000000 0 0 1
9.170336 28.189585 -15.080994 33.259347 1.256285 2.041413 0.026152 -0.019890 34534.700000 0 0 1
8.676936 26.860285 -14.855294 31.897397 1.258339 2.055246 0.024036 -0.014145 -487144.000000 0 0 1
7.983036 26.115785 -15.998094 31.649678 1.274138 2.100728 0.024756 -0.009250 108180.000000 0 0 1
8.820836 25.566885 -16.999994 31.944836 1.238574 2.131955 0.037377 -0.004620 75590.900000 0 0 1
8.052636 24.580985 -17.740694 31.365618 1.254218 2.171969 0.037162 -0.006184 916511.000000 0 0 1
8.933836 23.534485 -18.546794 31.267699 1.207994 2.205776 0.035897 -0.000151 796106.000000 0 0 1
8.161736 22.668485 -19.436794 30.955825 1.225199 2.249633 0.069536 -0.015226 601610.000000 0 0 1
8.984936 21.686585 -20.060694 30.878285 1.178016 2.277947 0.046076 -0.005739 -143429.000000 0 0 1
8.224236 20.759685 -21.042494 30.682066 1.193601 2.326532 0.045677 -0.018766 354347.000000 0 0 1
7.407236 19.779785 -20.359694 29.336397 1.212477 2.337837 0.054828 -0.020236 626118.000000 0 0 1
6.580036 19.034485 -21.251994 29.278930 1.237966 2.383060 0.053584 -0.016509 133969.000000 0 0 1
25.182036 -12.676115 -8.982994 29.589069 -0.466347 1.879256 0.060018 0.002514 -219107.000000 0 0 1
25.645536 -11.840415 -7.980794 29.352717 -0.432537 1.846156 0.071456 -0.010605 364852.000000 0 0 1
24.873736 -12.034815 -6.817094 28.460714 -0.450633 1.812674 0.069416 -0.004675 -261667.000000 0 0 1
25.366836 -11.164115 -5.621094 28.279153 -0.414596 1.770901 0.061457 -0.012852 -317227.000000 0 0 1
25.308736 -9.725915 -5.814694 27.729699 -0.366891 1.782056 0.075759 -0.026356 1020.040000 0 0 1
26.371736 -9.103915 -6.480094 28.641601 -0.332406 1.799020 0.058937 -0.016646 -1009670.000000 0 0 1
26.720136 -7.786115 -5.776994 28.424688 -0.283544 1.775461 0.101615 -0.022159 -280133.000000 0 0 1
27.412036 -7.850915 -4.562294 28.876826 -0.278937 1.729453 0.109858 -0.031080 540951.000000 0 0 1
28.832036 -7.871215 -4.590594 30.237656 -0.266508 1.723203 0.098306 -0.028758 224844.000000 0 0 1
29.397536 -7.775315 -3.132694 30.569338 -0.258568 1.673455 0.107320 -0.027749 -110970.000000 0 0 1
29.440836 -6.480815 -2.592394 30.256971 -0.216674 1.656581 0.109408 -0.027944 154208.000000 0 0 1
30.189336 -6.404115 -1.415794 30.893578 -0.209033 1.616640 0.116313 -0.023051 -2642.540000 0 0 1
30.603736 -4.989115 -0.954594 31.022430 -0.161601 1.601572 0.110702 -0.027980 959661.000000 0 0 1
29.365536 -4.292115 -0.708494 29.686005 -0.145134 1.594665 0.120293 -0.025601 903720.000000 0 0 1
29.564436 -3.028215 -0.094994 29.719269 -0.102072 1.573993 0.102645 -0.025314 -72867.400000 0 0 1
30.152636 -2.904615 1.337206 30.321714 -0.096034 1.526681 0.098292 -0.026402 -120680.000000 0 0 1
29.272936 -3.282815 2.343706 29.549528 -0.111678 1.491398 0.111304 -0.034230 153729.000000 0 0 1
29.919436 -2.972115 3.559906 30.276708 -0.099012 1.452945 0.090685 -0.029540 229220.000000 0 0 1
29.524936 -3.855915 4.798206 30.159786 -0.129864 1.411025 0.091786 -0.031068 -267626.000000 0 0 1
30.038636 -5.169315 4.662006 30.834652 -0.170420 1.419021 0.084558 -0.034286 121154.000000 0 0 1
29.856336 -6.022615 5.734306 30.992821 -0.199049 1.384704 0.081981 -0.028796 -728703.000000 0 0 1
30.706436 -7.261715 5.658706 32.056803 -0.232222 1.393345 0.075070 -0.035053 -853305.000000 0 0 1
32.061936 -6.929115 5.671406 33.288815 -0.212843 1.399591 0.079899 -0.038244 -668502.000000 0 0 1
32.822936 -8.133215 5.692506 34.291383 -0.242898 1.404020 0.084286 -0.032390 707192.000000 0 0 1
34.381136 -7.991115 5.718506 35.757820 -0.228373 1.410183 0.102187 -0.027607 453092.000000 0 0 1
34.892736 -7.528915 4.523806 35.981278 -0.212515 1.444736 0.107986 -0.031965 292613.000000 0 0 1
36.302736 -7.380715 4.742306 37.347731 -0.200576 1.443476 0.107916 -0.026896 846556.000000 0 0 1
-35.494411 -7.200115 3.461406 36.382361 0.200136 1.475513 0.086398 -0.019797 -34574.700000 0 0 1
-35.247811 -8.376115 2.720706 36.331388 0.233308 1.495840 0.096870 -0.024922 -4156.470000 0 0 1
-34.323411 -8.064615 1.719806 35.300032 0.230774 1.522057 0.081948 -0.022498 -376427.000000 0 0 1
-34.028411 -9.175715 0.727106 35.251315 0.263384 1.550169 0.078954 -0.016554 -249233.000000 0 0 1
-33.571011 -10.266115 1.420506 35.134367 0.296772 1.530355 0.072241 -0.012641 171334.000000 0 0 1
-33.363011 -11.358115 0.529406 35.247376 0.328133 1.555776 0.075646 -0.014573 -352303.000000 0 0 1
-33.078011 -12.729515 1.199406 35.463135 0.367364 1.536969 0.050197 -0.013899 -308564.000000 0 0 1
-31.921711 -12.814115 1.953206 34.453043 0.381733 1.514074 0.043179 -0.013360 -983268.000000 0 0 1
-30.863611 -13.437015 1.298606 33.686826 0.410619 1.532237 0.057113 -0.012612 6297.780000 0 0 1
-29.639511 -13.761915 2.207806 32.753096 0.434690 1.503338 0.058935 -0.010679 235065.000000 0 0 1
-28.865711 -12.686415 2.653306 31.641972 0.414086 1.486844 0.070017 -0.007226 -1003830.000000 0 0 1
-27.754611 -13.131115 3.291506 30.880068 0.441909 1.464003 0.079428 -0.005558 -723869.000000 0 0 1
-26.831411 -11.985315 3.854706 29.638339 0.420098 1.440369 0.077558 0.000767 518278.000000 0 0 1
-25.494811 -12.387715 4.126106 28.643771 0.452297 1.426244 0.079705 0.004722 300971.000000 0 0 1
-24.824011 -11.284815 4.689706 27.668970 0.426667 1.400481 0.078707 0.003346 530505.000000 0 0 1
-23.379411 -11.601915 5.201306 26.613058 0.460639 1.374088 0.083094 0.010375 550146.000000 0 0 1
-23.372411 -12.615815 6.249206 27.285178 0.494958 1.339712 0.075180 0.010365 179384.000000 0 0 1
-22.103611 -12.897415 6.839706 26.489517 0.528197 1.309633 0.073624 0.014886 392747.000000 0 0 1
-21.872811 -12.326115 8.239506 26.424277 0.513176 1.253693 0.081645 0.009218 -454976.000000 0 0 1
-21.636811 -10.923815 8.347406 25.635142 0.467537 1.239125 0.082301 0.006412 706017.000000 0 0 1
-22.721911 -10.110915 8.843606 26.395553 0.418676 1.229147 0.085310 -0.000436 -515271.000000 0 0 1
-23.024011 -10.300615 10.357906 27.267086 0.420678 1.181142 0.077913 0.009575 -737862.000000 0 0 1
-23.726111 -11.520815 10.595006 28.423787 0.452041 1.188824 0.066150 0.006492 -432751.000000 0 0 1
-25.085911 -11.431415 10.345606 29.445063 0.427576 1.211781 0.066163 0.002941 -1301050.000000 0 0 1
-25.996811 -10.784015 11.402706 30.366937 0.393217 1.185863 0.064852 -0.004661 -763081.000000 0 0 1
-26.004711 -11.526015 12.626206 31.120975 0.417208 1.153037 0.075819 -0.007148 232396.000000 0 0 1
-27.099511 -11.193815 13.467506 32.265441 0.391717 1.140217 0.068330 -0.016292 79824.700000 0 0 1
-27.182111 -11.891115 14.864306 33.184535 0.412378 1.106349 0.072347 -0.019521 -81451.400000 0 0 1
-27.426711 -13.268015 14.640006 33.802285 0.450573 1.122859 0.063394 -0.011738 263426.000000 0 0 1
-27.025611 -13.956115 15.781606 34.266833 0.476684 1.092181 0.067380 -0.015154 -340056.000000 0 0 1
-26.717711 -15.504515 15.656906 34.631846 0.525815 1.101683 0.055944 -0.003715 -445799.000000 0 0 1
-27.840811 -16.336615 15.683206 35.888141 0.530647 1.118533 0.060114 -0.007043 -299120.000000 0 0 1
-27.470611 -17.682515 15.579706 36.194378 0.571925 1.125810 0.045732 -0.004339 -20728.300000 0 0 1
-28.523011 -18.574715 16.288406 37.734525 0.577231 1.124466 0.031381 0.003534 139849.000000 0 0 1
-28.552511 -18.618915 17.694606 38.405845 0.577846 1.091982 0.055511 0.004726 -382628.000000 0 0 1
-29.276011 -19.677015 18.238206 39.710224 0.591769 1.093609 0.056649 0.003946 -160778.000000 0 0 1
-28.435411 -20.968615 18.524006 39.892282 0.635396 1.087895 0.033433 0.004057 17296.000000 0 0 1
-27.464411 -20.623215 19.492406 39.491325 0.644081 1.054587 0.036718 0.001721 -343286.000000 0 0 1
-26.710011 -21.729215 19.847706 39.743111 0.682933 1.047890 0.032905 0.003338 -444052.000000 0 0 1
-25.267311 -21.403215 20.276206 38.828587 0.702791 1.021370 0.040650 0.003647 163738.000000 0 0 1
-24.335011 -21.191315 19.196106 37.546705 0.716455 1.034147 0.044325 -0.002514 -181055.000000 0 0 1
-23.089711 -21.073215 19.814106 37.010997 0.739769 1.005866 0.056051 -0.001890 -335499.000000 0 0 1
-21.868311 -20.941015 18.870406 35.676902 0.763740 1.013463 0.057972 -0.008047 147849.000000 0 0 1
-21.478611 -22.087915 18.150006 35.757928 0.799383 1.038423 0.049189 -0.001351 -8812.700000 0 0 1
-20.220311 -21.875915 17.568106 34.584028 0.824707 1.037955 0.047692 0.000919 -214560.000000 0 0 1
-19.895511 -22.804315 16.344906 34.395117 0.853415 1.075594 0.041021 0.012893 -577587.000000 0 0 1
-19.895911 -24.190215 16.608606 35.452215 0.882499 1.083228 0.037932 0.006072 1375480.000000 0 0 1
-18.704611 -24.720615 17.303606 35.501916 0.923059 1.061688 0.056823 -0.006375 678860.000000 0 0 1
-17.392711 -24.823315 16.528206 34.523687 0.959627 1.071566 0.053466 -0.010436 -277485.000000 0 0 1
-16.820211 -23.539615 16.256406 33.185896 0.950372 1.058868 0.048729 -0.010643 840218.000000 0 0 1
-15.520311 -23.707015 15.627306 32.359161 0.991144 1.066795 0.043410 -0.009285 1293700.000000 0 0 1
-14.674911 -22.370415 15.482206 30.910955 0.990217 1.046199 0.045935 0.001258 -254691.000000 0 0 1
-15.204911 -21.383115 14.641306 30.046543 0.952679 1.061815 0.046976 0.002349 -121617.000000 0 0 1
-16.142411 -20.463215 15.199106 30.171732 0.902891 1.042858 0.047564 0.003890 113262.000000 0 0 1
-15.634011 -19.312915 16.103006 29.609420 0.890283 0.995781 0.046180 -0.007874 -612366.000000 0 0 1
-14.908011 -18.323015 15.439806 28.220015 0.887804 0.991874 0.040285 -0.004304 -83510.600000 0 0 1
-14.956511 -17.213815 16.326606 28.045868 0.855451 0.949439 0.020137 0.000636 -208456.000000 0 0 1
-14.500311 -15.871015 15.645506 26.588155 0.830499 0.941670 0.024708 0.001541 140991.000000 0 0 1
-15.350911 -15.298615 14.666806 26.168937 0.783692 0.975848 0.030726 -0.013422 103590.000000 0 0 1
-15.456311 -16.059615 13.427806 26.021429 0.804539 1.028588 0.048981 -0.018067 -363354.000000 0 0 1
-16.332511 -15.389215 12.370906 25.624562 0.755670 1.066975 0.047257 -0.012970 -135056.000000 0 0 1
-17.713011 -15.467015 12.699806 26.725725 0.717810 1.075616 0.034836 -0.010170 -95682.000000 0 0 1
-18.361511 -14.619515 11.794306 26.267488 0.672422 1.105142 0.052081 -0.015105 524064.000000 0 0 1
-19.932811 -14.602615 12.007206 27.472282 0.632266 1.118462 0.050928 -0.009992 932222.000000 0 0 1
-20.571611 -15.693315 11.452106 28.295265 0.651683 1.154106 0.055831 -0.008087 -119955.000000 0 0 1
-20.919411 -15.653315 10.071406 28.001451 0.642391 1.202877 0.062856 -0.001859 -369155.000000 0 0 1
-21.588011 -16.979215 9.597606 29.093814 0.666462 1.234615 0.058965 0.007740 -232599.000000 0 0 1
-20.795711 -18.117315 9.470706 29.161498 0.716676 1.240030 0.057318 0.010546 -738020.000000 0 0 1
-21.462611 -19.153715 8.833806 30.092268 0.728613 1.272850 0.058093 -0.004900 -337346.000000 0 0 1
-20.865611 -20.535715 8.973306 30.620410 0.777430 1.273381 0.058442 -0.000244 -753286.000000 0 0 1
-19.787311 -20.745015 8.141506 29.802306 0.809022 1.294095 0.077500 -0.002272 -911012.000000 0 0 1
-19.281711 -22.091315 8.307006 30.476498 0.853203 1.294732 0.068092 -0.002657 282403.000000 0 0 1
-17.996711 -22.308315 7.454806 29.616155 0.891967 1.316345 0.061111 -0.009812 -515446.000000 0 0 1
-16.914111 -21.687415 8.052106 28.657765 0.908429 1.285987 0.047520 -0.013187 -972169.000000 0 0 1
-15.746211 -22.269715 7.509106 28.289044 0.955342 1.302134 0.059762 -0.004668 355692.000000 0 0 1
-14.456011 -21.785915 8.259006 27.419218 0.984956 1.264833 0.009817 -0.003283 694170.000000 0 0 1
-13.248411 -22.175215 7.612306 26.929681 1.032260 1.284216 0.024005 0.003092 52418.700000 0 0 1
-12.135711 -21.792315 8.403806 26.321178 1.062686 1.245827 0.028081 -0.001864 814133.000000 0 0 1
-10.789911 -22.358215 7.826606 26.030131 1.121171 1.265396 0.023374 -0.004769 739856.000000 0 0 1
-10.905411 -23.778415 7.750606 27.283931 1.140792 1.282758 0.017066 0.004017 -408353.000000 0 0 1
-9.715311 -24.227015 7.157606 27.065972 1.189418 1.303162 0.020806 0.000005 113514.000000 0 0 1
-9.523511 -25.740315 7.217806 28.378826 1.216430 1.313633 0.016297 -0.000633 398572.000000 0 0 1
-10.479711 -26.337115 6.301406 29.037487 1.192096 1.352047 0.025038 -0.007866 370216.000000 0 0 1
-10.435011 -27.775905 6.223506 30.317031 1.211425 1.364046 0.040275 -0.004881 -96468.800000 0 0 1
-9.266111 -28.464135 5.461106 30.428464 1.256079 1.390345 0.040875 -0.010013 117790.000000 0 0 1
-8.068511 -28.200045 6.190406 29.977734 1.292124 1.362800 0.029643 -0.012844 -66544.100000 0 0 1
-6.920711 -28.894255 5.723806 30.257828 1.335707 1.380482 0.037226 -0.005894 522296.000000 0 0 1
-6.829711 -30.330305 6.342206 31.730047 1.349313 1.369561 0.045244 -0.013981 -452554.000000 0 0 1
-6.679711 -30.286325 7.731006 31.963236 1.353720 1.326502 0.043913 -0.016244 59204.500000 0 0 1
-6.484711 -31.574685 8.196106 33.259410 1.368236 1.321802 0.069735 -0.017869 13532.800000 0 0 1
-6.921711 -31.691365 9.673106 33.849987 1.355763 1.280993 0.056297 -0.017634 -614232.000000 0 0 1
-6.008711 -30.952335 10.390606 33.198137 1.379053 1.252459 0.041682 -0.015711 -125298.000000 0 0 1
-5.888711 -31.390395 11.733306 34.025053 1.385356 1.218725 0.036641 -0.014775 -355044.000000 0 0 1
-5.093711 -30.416725 12.641306 33.330551 1.404872 1.181788 0.029059 -0.015859 137561.000000 0 0 1
-5.666711 -29.109565 12.884906 32.334179 1.378533 1.160924 0.033012 -0.014348 -112778.000000 0 0 1
-4.880711 -28.370595 13.777206 31.914313 1.400430 1.124427 0.022310 -0.019790 -161638.000000 0 0 1
-5.655711 -27.686645 14.968406 31.977969 1.369293 1.083674 0.021662 -0.018442 -18465.800000 0 0 1
-6.235711 -28.607845 15.908106 33.322075 1.356181 1.073098 0.022398 -0.019836 -106231.000000 0 0 1
-5.362711 -29.335035 16.739606 34.198207 1.389984 1.059294 0.008372 -0.014364 -312058.000000 0 0 1
-5.992711 -30.623905 17.254406 35.657407 1.377551 1.065697 0.008050 -0.009729 -245764.000000 0 0 1
-5.919711 -31.606285 16.182406 35.998201 1.385646 1.104553 0.015071 -0.006972 45619.500000 0 0 1
-6.468711 -32.872295 16.494006 37.342793 1.376496 1.113313 0.017365 -0.005494 -137772.000000 0 0 1
-5.908711 -34.122978 15.695206 38.021441 1.399337 1.145272 0.019306 -0.007175 -184515.000000 0 0 1
-6.167711 34.189232 14.309606 37.572717 -1.392317 1.180080 0.030340 -0.013853 168455.000000 0 0 1
-5.428711 33.090336 13.871406 36.288527 -1.408188 1.178563 0.027441 -0.013676 468123.000000 0 0 1
-4.131711 33.280102 13.030706 35.978265 -1.447279 1.200188 0.039186 -0.020296 130404.000000 0 0 1
-4.487711 33.767373 11.759906 36.037070 -1.438670 1.238380 0.038228 -0.022612 874596.000000 0 0 1
-3.370711 -34.209960 10.978606 36.086186 1.472583 1.261663 0.049080 -0.029821 -193472.000000 0 0 1
-3.810711 -33.734665 9.584606 35.276250 1.458312 1.295636 0.044796 -0.032516 -655529.000000 0 0 1
-4.081711 33.655847 8.651506 34.988927 -1.450108 1.320941 0.057349 -0.034499 779520.000000 0 0 1
-4.950711 32.532652 8.992106 34.113648 -1.419778 1.304052 0.058053 -0.032520 882751.000000 0 0 1
-6.444711 32.868000 9.349206 34.774235 -1.377174 1.298593 0.056812 -0.024175 339868.000000 0 0 1
-7.199711 33.290884 8.245006 35.044243 -1.357810 1.333296 0.066329 -0.021297 -855112.000000 0 0 1
-8.463711 33.720571 8.668206 35.830841 -1.324881 1.326452 0.059684 -0.020686 -107574.000000 0 0 1
-9.460611 33.819461 7.474506 35.904420 -1.298030 1.361085 0.071205 -0.028285 78046.800000 0 0 1
-9.267011 -33.508795 6.777706 35.421097 1.300985 1.378262 0.077131 -0.025401 -202450.000000 0 0 1
-9.927511 -33.559795 5.578206 35.439126 1.283183 1.412737 0.069294 -0.018673 -601553.000000 0 0 1
-9.867911 -32.116735 4.963906 33.963225 1.272700 1.424116 0.055701 -0.018208 -55638.600000 0 0 1
-10.848411 -31.318875 5.587606 33.612219 1.237345 1.403784 0.075721 -0.021527 -127220.000000 0 0 1
-12.056111 -31.346895 4.843606 33.932847 1.203633 1.427566 0.079421 -0.016291 304733.000000 0 0 1
-13.203911 -30.503925 5.524806 33.695047 1.162288 1.406088 0.070891 -0.016269 404226.000000 0 0 1
-13.902711 -31.209995 6.532106 34.785306 1.151727 1.381891 0.073989 -0.016019 -323507.000000 0 0 1
-14.758511 -30.346335 7.205706 34.505592 1.118140 1.360421 0.067526 -0.014401 -148027.000000 0 0 1
33.347753 -12.769015 -12.878594 37.960223 -0.365683 1.916932 0.045628 -0.016111 -53141.800000 0 0 1
32.252193 -12.807615 -11.977994 36.711187 -0.378011 1.903158 0.067614 -0.014204 110889.000000 0 0 1
32.070683 -14.100315 -11.425094 36.849428 -0.414225 1.886040 0.070576 -0.017661 43465.000000 0 0 1
33.008503 -14.651315 -10.304994 37.555494 -0.417740 1.848756 0.070809 -0.020319 145793.000000 0 0 1
34.347753 -14.853715 -10.697394 38.920884 -0.408165 1.849230 0.076592 -0.022146 -146251.000000 0 0 1
35.098113 -15.281515 -9.551494 39.454192 -0.410642 1.815316 0.079570 -0.022227 352339.000000 0 0 1
-36.102394 -15.650115 -9.965594 40.590911 0.409042 1.818845 0.066894 -0.024238 496924.000000 0 0 1
-35.362363 -14.505615 -10.497894 39.637298 0.389268 1.838844 0.056399 -0.022394 4444.550000 0 0 1
-34.099636 -14.909615 -10.947294 38.793363 0.412189 1.856878 0.051061 -0.029819 -343396.000000 0 0 1
-33.301654 -13.696315 -11.462494 37.788596 0.390193 1.878984 0.066358 -0.033886 -182226.000000 0 0 1
-32.942474 -12.807815 -10.438694 36.853942 0.370808 1.857972 0.065267 -0.026009 114154.000000 0 0 1
-32.431294 -11.609815 -10.920394 36.136293 0.343768 1.877796 0.068079 -0.021587 -615761.000000 0 0 1
-32.949654 -10.375615 -10.179294 36.013208 0.305063 1.857357 0.063177 -0.017584 159567.000000 0 0 1
-32.220174 -9.979115 -9.014294 34.913892 0.300347 1.831941 0.067318 -0.012864 379618.000000 0 0 1
-33.034274 -9.034515 -8.359894 35.252994 0.266961 1.810217 0.070562 -0.018175 -88849.000000 0 0 1
-32.655644 -8.723015 -6.923494 34.502418 0.261027 1.772835 0.063662 -0.014619 -713691.000000 0 0 1
-31.431204 -8.056015 -6.748394 33.141527 0.250905 1.775854 0.076494 -0.016396 -37792.700000 0 0 1
-31.284614 -7.599915 -5.396994 32.643733 0.238312 1.736889 0.066507 -0.012121 -151275.000000 0 0 1
-30.764654 -8.623215 -4.353394 32.245555 0.273283 1.706217 0.061956 -0.006346 -678203.000000 0 0 1
-31.561884 -9.736315 -4.106694 33.283829 0.299221 1.694496 0.055999 -0.006694 -35334.000000 0 0 1
-31.307094 -10.248615 -2.850694 33.065007 0.316363 1.657118 0.063415 -0.004556 -129389.000000 0 0 1
-31.715294 -11.761815 -2.717294 33.934995 0.355133 1.650956 0.062328 -0.011716 13032.500000 0 0 1
-33.090794 -12.071915 -2.655494 35.323978 0.349809 1.646043 0.061075 -0.015771 157900.000000 0 0 1
-33.352594 -13.427315 -2.498794 36.040703 0.382734 1.640185 0.071025 -0.018760 -632539.000000 0 0 1
-34.859908 -13.653715 -2.527994 37.523698 0.373308 1.638218 0.045920 -0.017030 -652369.000000 0 0 1
-35.461230 -13.223215 -1.328194 37.869729 0.356921 1.605876 0.067324 -0.008887 1360420.000000 0 0 1
35.744163 -13.261415 -1.333594 38.148247 -0.355267 1.605762 0.109053 -0.024730 1197410.000000 0 0 1
35.056913 -12.220315 -0.447594 37.128474 -0.335414 1.582852 0.107928 -0.031000 -37294.700000 0 0 1
35.567063 -12.211115 0.894606 37.615523 -0.330717 1.547011 0.105729 -0.023873 243117.000000 0 0 1
35.229093 -11.039515 1.571806 36.951731 -0.303671 1.528247 0.112134 -0.028677 -44493.600000 0 0 1
35.687493 -11.020915 3.073906 37.476747 -0.299526 1.488682 0.117886 -0.032451 1002020.000000 0 0 1
34.798293 -11.671915 4.061306 36.927618 -0.323624 1.460593 0.124638 -0.040021 653373.000000 0 0 1
35.431683 -11.595515 5.290606 37.654357 -0.316278 1.429825 0.104891 -0.036617 -528712.000000 0 0 1
34.505053 -12.029015 6.435606 37.104082 -0.335441 1.396467 0.106702 -0.036436 -138508.000000 0 0 1
33.600323 -11.000715 6.734706 35.991022 -0.316400 1.382565 0.113779 -0.037425 -122460.000000 0 0 1
33.003863 -11.252615 7.986306 35.772299 -0.328588 1.345645 0.093881 -0.023127 -364689.000000 0 0 1
32.077643 -10.246815 8.645406 34.766585 -0.309193 1.319489 0.081420 -0.028307 -501587.000000 0 0 1
30.836063 -10.117315 8.007106 33.426585 -0.317033 1.328901 0.083423 -0.025980 -69248.000000 0 0 1
29.968273 -9.228515 8.727606 32.548947 -0.298728 1.299337 0.081540 -0.017474 -215323.000000 0 0 1
28.515793 -9.547415 8.367406 31.214052 -0.323080 1.299412 0.070455 -0.022028 -571743.000000 0 0 1
28.270903 -9.194115 7.030206 30.548314 -0.314426 1.338581 0.084057 -0.031650 23545.800000 0 0 1
27.094783 -9.759915 6.501506 29.523766 -0.345745 1.348764 0.089318 -0.040399 353962.000000 0 0 1
26.181683 -8.876015 5.562206 28.199331 -0.326856 1.372248 0.094735 -0.043007 329346.000000 0 0 1
25.545283 -7.789315 6.213206 27.419679 -0.295966 1.342214 0.099875 -0.039365 264223.000000 0 0 1
24.891383 -6.929315 5.270006 26.369856 -0.271508 1.369592 0.129054 -0.046691 -300660.000000 0 0 1
25.741283 -5.914615 4.460006 26.785966 -0.225851 1.403512 0.128017 -0.041665 -186484.000000 0 0 1
26.121283 -6.315115 3.161006 27.059084 -0.237210 1.453710 0.109841 -0.041793 284136.000000 0 0 1
26.710283 -5.254315 2.435106 27.330876 -0.194235 1.481581 0.121114 -0.031319 -226070.000000 0 0 1
26.998583 -5.636515 0.985306 27.598271 -0.205815 1.535087 0.112272 -0.029484 -381720.000000 0 0 1
25.914583 -5.592615 0.084506 26.511320 -0.212550 1.567609 0.114552 -0.030769 -142649.000000 0 0 1
26.341683 -5.541415 -1.290394 26.949149 -0.207343 1.618697 0.116523 -0.031438 -871845.000000 0 0 1
25.282783 -5.654115 -2.360794 26.014639 -0.220015 1.661670 0.110316 -0.025682 -1171050.000000 0 0 1
24.282183 -4.724215 -2.139694 24.829839 -0.192154 1.657078 0.107609 -0.023749 -280299.000000 0 1 0
23.441783 -4.757815 -3.324394 24.149649 -0.200243 1.708893 0.080591 -0.021786 -263205.000000 0 1 0
22.481783 -3.580515 -3.231394 22.993315 -0.157937 1.711799 0.077872 -0.016682 -778291.000000 0 1 0
23.024483 -2.283615 -3.334294 23.376467 -0.098859 1.713919 0.079809 -0.018664 602839.000000 0 1 0
23.528583 -1.893015 -4.659394 24.060084 -0.080283 1.765684 0.088349 -0.017752 -538642.000000 0 1 0
22.494283 -1.132015 -5.433294 23.168834 -0.050282 1.807510 0.073446 -0.008809 -615188.000000 0 1 0
22.225483 0.124785 -4.826794 22.743913 0.005614 1.784646 0.060017 -0.003193 282461.000000 0 1 0
21.470783 0.846085 -5.756894 22.245274 0.039386 1.832567 0.070666 0.001002 -605569.000000 0 1 0
21.169983 2.303885 -5.213694 21.923929 0.108401 1.810905 0.067327 0.008344 -876749.000000 0 1 0
22.294983 3.136885 -5.134194 23.092558 0.139782 1.795001 0.077539 0.001928 20891.400000 0 1 0
23.047283 2.976285 -3.975494 23.576261 0.128427 1.740229 0.094065 0.004452 -62919.300000 0 1 0
24.289483 3.920885 -3.951794 24.919249 0.160043 1.730053 0.081599 -0.005860 -151022.000000 0 1 0
23.942883 5.254085 -3.801594 24.805628 0.216018 1.724658 0.078817 0.003161 272483.000000 0 1 0
24.851583 5.987585 -3.044094 25.743326 0.236428 1.689322 0.076663 -0.006521 -398761.000000 0 0 1
24.391283 7.434685 -3.019294 25.677331 0.295863 1.688655 0.068383 -0.007951 97347.800000 0 0 1
23.302483 7.617685 -2.131494 24.608496 0.315953 1.657521 0.072383 -0.011926 812901.000000 0 1 0
22.552683 8.818485 -2.359494 24.330154 0.372739 1.667927 0.067443 -0.005285 -6577.310000 0 1 0
21.412583 8.998885 -1.345594 23.265624 0.397850 1.628665 0.046250 -0.006095 -309909.000000 0 1 0
21.934083 9.646985 -0.195694 23.962608 0.414354 1.578963 0.036670 -0.007933 1728530.000000 0 1 0
20.843683 10.173485 0.603506 23.201792 0.454070 1.544782 0.012187 -0.005309 791680.000000 0 1 0
21.406783 10.693685 1.972406 24.010324 0.463285 1.488555 0.035555 -0.006302 -479012.000000 0 1 0
22.185483 11.861585 1.888906 25.228175 0.490986 1.495853 0.045636 -0.016615 286246.000000 0 0 1
21.603083 13.116985 1.549606 25.320935 0.545683 1.509559 0.052074 -0.010553 -582328.000000 0 0 1
20.527783 13.770485 2.418106 24.836734 0.590874 1.473282 0.049911 -0.005197 668029.000000 0 1 0
19.237783 13.099185 2.457006 23.403372 0.597798 1.465617 0.051916 -0.008304 779698.000000 0 1 0
18.286783 13.811985 3.146106 23.131696 0.646884 1.434365 0.059099 -0.010845 -844210.000000 0 1 0
18.378283 13.906685 4.716306 23.524471 0.647770 1.368943 0.059878 -0.008239 -697931.000000 0 1 0
17.973683 12.739585 5.291506 22.657236 0.616602 1.335073 0.038377 -0.001525 199431.000000 0 1 0
18.109183 12.716585 6.656506 23.107642 0.612213 1.278591 0.042737 -0.014489 -14365.900000 0 1 0
18.030783 11.201185 7.149006 22.398303 0.555881 1.245936 0.004274 -0.011502 434678.000000 0 1 0
19.240983 10.504285 6.826606 22.959921 0.499715 1.268904 0.007693 -0.011413 898587.000000 0 1 0
19.232483 9.236585 7.415806 22.587543 0.447731 1.236278 0.006577 -0.007981 415546.000000 0 1 0
20.211883 8.213385 6.720706 22.828662 0.385981 1.271971 0.010172 -0.010044 404241.000000 0 1 0
19.819483 8.085585 5.370206 22.068704 0.387351 1.324988 -0.002706 -0.011699 1188110.000000 0 1 0
20.622483 7.094285 4.702706 22.309888 0.331326 1.358413 0.002155 -0.013095 151052.000000 0 1 0
20.317783 7.112385 3.172706 21.759237 0.336726 1.424465 0.007668 -0.001785 38155.100000 0 1 0
21.198783 6.266185 2.424506 22.238069 0.287408 1.461554 0.000508 -0.002205 830674.000000 0 1 0
20.837083 6.175585 1.043306 21.757995 0.288128 1.522827 -0.003224 0.005538 -539696.000000 0 1 0
21.882583 5.378885 0.222906 22.535073 0.241028 1.560905 0.033163 0.004760 -11239.300000 0 1 0
21.870283 3.984685 0.455506 22.234983 0.180220 1.550309 0.022516 0.004665 762469.000000 0 1 0
23.104983 3.374185 0.107206 23.350307 0.145012 1.566205 0.046357 -0.004035 208567.000000 0 1 0
23.251483 1.815585 0.044306 23.322302 0.077927 1.568897 0.074203 -0.008820 -442536.000000 0 1 0
22.418583 1.368985 -0.990194 22.482159 0.060989 1.614854 0.064828 -0.005417 719050.000000 0 1 0
22.596183 -0.003715 -1.429194 22.641336 -0.000164 1.633962 0.078584 -0.008731 -946984.000000 0 1 0
22.306983 -1.116115 -0.402594 22.338515 -0.049993 1.588820 0.085507 -0.006619 -311334.000000 0 1 0
23.183383 -1.300415 0.676506 23.229679 -0.056034 1.541670 0.086106 -0.010154 1174910.000000 0 1 0
24.500483 -1.804115 0.353306 24.569357 -0.073503 1.556416 0.097532 -0.017751 779452.000000 0 1 0
25.460983 -1.788415 1.569706 25.571938 -0.070126 1.509374 0.102715 -0.021358 -210320.000000 0 0 1
25.623183 -0.490615 2.132106 25.716416 -0.019145 1.487793 0.096248 -0.017030 -90978.000000 0 0 1
26.454183 -0.288615 3.190006 26.647387 -0.010910 1.450797 0.095709 -0.015160 -855078.000000 0 0 1
26.172983 1.131685 3.750106 26.464486 0.043212 1.428614 0.083147 -0.005766 -230896.000000 0 0 1
26.445483 2.253285 2.912506 26.700628 0.085000 1.461499 0.095773 -0.003740 -595020.000000 0 0 1
27.782623 2.484685 2.644806 28.018615 0.089196 1.476261 0.111533 -0.006851 -826083.000000 0 0 1
28.000943 3.708385 1.654406 28.293850 0.131672 1.512291 0.119896 -0.014788 -198241.000000 0 0 1
27.346183 3.426985 0.437006 27.563543 0.124669 1.554941 0.116511 -0.008555 360198.000000 0 0 1
27.472483 4.429985 -0.528294 27.832376 0.159876 1.589779 0.108939 -0.013046 -202919.000000 0 0 1
28.712033 4.238585 -1.429294 29.058378 0.146565 1.620003 0.114256 -0.013406 401777.000000 0 0 1
29.936003 4.539485 -0.750394 30.287527 0.150493 1.595575 0.123447 -0.014122 819014.000000 0 0 1
31.058523 3.937585 -1.396294 31.338252 0.126107 1.615367 0.101142 -0.015366 1433290.000000 0 0 1
32.477693 4.248385 -0.753294 32.763039 0.130071 1.593791 0.071428 -0.022869 919714.000000 0 0 1
32.703583 3.588685 0.475706 32.903332 0.109296 1.556338 0.066518 -0.020663 442574.000000 0 0 1
32.000733 4.075685 1.650806 32.301444 0.126680 1.519668 0.076054 -0.003520 63619.100000 0 0 1
32.152433 3.195285 2.943606 32.444623 0.099054 1.479944 0.076112 0.002183 -197203.000000 0 0 1
31.331803 2.070985 2.837506 31.528119 0.066003 1.480675 0.092172 -0.009355 70679.500000 0 0 1
31.431133 1.232485 3.956406 31.703127 0.039192 1.445675 0.084961 -0.014680 354291.000000 0 0 1
32.566743 0.148385 3.826206 32.791075 0.004556 1.453846 0.084038 -0.014193 -74483.700000 0 0 1
33.819133 0.615985 4.184206 34.082558 0.018212 1.447719 0.070160 -0.010820 -744120.000000 0 0 1
34.862323 -0.271315 3.846006 35.074876 -0.007782 1.460924 0.056045 -0.012406 328350.000000 0 0 1
36.249533 0.430485 4.098606 36.483044 0.011875 1.458216 0.065787 -0.016921 480318.000000 0 0 1
-36.071314 1.564785 3.363306 36.261551 -0.043353 1.477912 0.055256 -0.014986 189788.000000 0 0 1
-35.776626 1.392385 1.959406 35.857286 -0.038899 1.516125 0.066013 -0.018953 -785176.000000 0 0 1
-35.573296 2.768585 1.293006 35.704290 -0.077671 1.534574 0.063692 -0.020346 -419078.000000 0 0 1
-34.389489 3.405685 1.628006 34.596041 -0.098711 1.523721 0.087001 -0.036602 -964430.000000 0 0 1
-33.305054 3.041785 0.854506 33.454585 -0.091078 1.545251 0.110936 -0.034699 -1581170.000000 0 0 1
-32.029814 3.756185 1.285006 32.274900 -0.116738 1.530971 0.126759 -0.037805 -706219.000000 0 0 1
-31.692814 3.376585 2.580606 31.976481 -0.106141 1.490005 0.134136 -0.043060 -439003.000000 0 0 1
-30.857034 4.346285 3.098906 31.315331 -0.139932 1.471676 0.147510 -0.042365 -1391970.000000 0 0 1
-30.919094 4.431485 4.688306 31.584944 -0.142356 1.421811 0.139737 -0.042290 -5498.470000 0 0 1
-32.086634 5.055485 5.210406 32.897695 -0.156273 1.411744 0.115141 -0.025104 473113.000000 0 0 1
-33.307424 4.395485 4.921406 33.954750 -0.131209 1.425344 0.112061 -0.016954 -803689.000000 0 0 1
-33.682864 3.393585 6.066706 34.392684 -0.100412 1.393473 0.092424 -0.005742 -630673.000000 0 0 1
-34.278797 4.076785 7.185606 35.260304 -0.118374 1.365571 0.092058 -0.004401 340704.000000 0 0 1
-34.202535 3.311285 8.400606 35.374400 -0.096513 1.331029 0.086134 -0.009430 -46610.900000 0 0 1
-35.176489 2.118385 8.650706 36.286467 -0.060149 1.330078 0.066503 -0.007726 -312351.000000 0 0 1
-34.906812 0.989285 7.713406 35.762562 -0.028333 1.353404 0.060843 -0.012567 662949.000000 0 0 1
-35.840711 -0.105015 7.837906 36.687878 0.002930 1.355499 0.067942 -0.007692 371345.000000 0 0 1
-35.964401 -0.923615 9.128406 37.116290 0.025676 1.322306 0.061996 -0.003217 -37271.500000 0 0 1
-34.727490 -1.565215 9.383906 36.007029 0.045041 1.307139 0.069536 -0.019098 296745.000000 0 0 1
-34.696577 -2.175015 10.645306 36.358021 0.062605 1.273652 0.075862 -0.013489 747579.000000 0 0 1
-33.329454 -2.897715 10.982306 35.211650 0.086723 1.253610 0.066117 -0.016348 693561.000000 0 0 1
-33.061354 -3.841015 9.995106 34.752103 0.115660 1.279064 0.083990 -0.014704 -246776.000000 0 0 1
-31.849434 -4.526215 10.164806 33.737166 0.141168 1.264747 0.094791 -0.014729 -247485.000000 0 0 1
-31.526624 -5.662315 9.161306 33.315452 0.177710 1.292220 0.074575 -0.017160 204994.000000 0 0 1
-32.321124 -6.841315 9.274406 34.314330 0.208588 1.297115 0.068923 -0.016234 -21514.700000 0 0 1
-32.148714 -7.595115 8.145606 34.023176 0.231996 1.329035 0.063530 -0.016629 89105.900000 0 0 1
-33.008084 -8.891115 7.996206 35.107333 0.263117 1.341015 0.068950 -0.016771 410793.000000 0 0 1
-34.380983 -8.618215 7.730606 36.277926 0.245607 1.356056 0.080012 -0.027188 -16143.000000 0 0 1
-35.017596 -9.842915 7.836606 37.209238 0.274014 1.358598 0.096426 -0.022051 -307762.000000 0 0 1
7.361536 -23.919215 10.858306 27.280466 -1.272230 1.161433 0.080063 -0.025936 -13078.000000 0 0 1
6.765236 -24.357715 9.664606 27.064207 -1.299880 1.205636 0.063213 -0.020468 -642093.000000 0 0 1
5.869836 -25.379235 9.957106 27.887353 -1.343508 1.205691 0.059006 -0.015377 -73648.700000 0 0 1
5.455536 -26.258635 8.732306 28.205176 -1.365949 1.256025 0.050141 -0.009095 -370403.000000 0 0 1
4.898536 -25.659555 7.607106 27.208022 -1.382161 1.287429 0.055357 -0.007896 -276147.000000 0 0 1
4.975736 -26.515435 6.508206 27.752170 -1.385299 1.334080 0.045743 -0.004455 -644671.000000 0 0 1
4.248036 -25.867535 5.303506 26.745136 -1.408027 1.371175 0.046649 -0.008342 309061.000000 0 0 1
2.845536 -25.745565 5.350006 26.449078 -1.460718 1.367115 0.038524 -0.011450 54874.100000 0 0 1
2.105636 -26.973295 5.221706 27.554646 -1.492891 1.380140 0.037558 -0.007702 -885425.000000 0 0 1
0.615936 -26.752645 4.997606 27.222407 -1.547777 1.386165 0.050332 -0.013435 -469384.000000 0 0 1
-0.027064 -26.474295 6.256106 27.203453 1.569774 1.338745 0.047875 -0.011205 -294187.000000 0 0 1
-1.430164 -26.400505 6.325106 27.185271 1.516677 1.335978 0.035229 -0.014779 645179.000000 0 0 1
-2.120564 -27.836145 6.431706 28.648116 1.494763 1.344359 0.034428 -0.008076 16148.100000 0 0 1
-1.760464 -28.415465 7.709306 29.495275 1.508921 1.306351 0.028899 -0.011881 57349.800000 0 0 1
-2.281064 -29.699175 7.863906 30.807227 1.494141 1.312678 0.036164 -0.010547 -51843.500000 0 0 1
-2.169164 -30.244005 9.284106 31.711192 1.499197 1.273673 0.032395 -0.010118 269711.000000 0 0 1
-0.861164 -30.663615 9.627806 32.151104 1.542719 1.266675 0.034505 -0.010106 -10759.800000 0 0 1
-0.807464 -31.544635 10.737306 33.331752 1.545204 1.242813 0.028731 -0.003083 11318.700000 0 0 1
0.600736 -31.769105 11.334206 33.735754 -1.551889 1.228161 0.028723 -0.012003 316113.000000 0 0 1
1.460236 -32.655965 10.581306 34.358527 -1.526110 1.257740 0.037884 -0.014314 1737710.000000 0 0 1
2.841936 -32.742235 11.029106 34.666579 -1.484216 1.247021 0.041860 -0.008570 1286940.000000 0 0 1
3.129836 -33.417475 12.396306 35.779769 -1.477410 1.217000 0.048852 -0.011622 -576208.000000 0 0 1
2.732736 -32.639455 13.558406 35.449009 -1.487266 1.178321 0.032075 -0.013372 106944.000000 0 0 1
3.278636 -33.159675 14.725006 36.429923 -1.472242 1.154691 0.037032 -0.007446 -486016.000000 0 0 1
2.912436 -32.424935 16.039706 36.292297 -1.481216 1.113015 0.038698 -0.008388 -56250.500000 0 0 1
3.359836 -31.058315 16.240006 35.208595 -1.463037 1.091392 0.049404 -0.016917 188270.000000 0 0 1
4.746836 -30.853315 16.373606 35.249886 -1.418142 1.087725 0.040116 -0.003799 -256097.000000 0 0 1
5.290136 -29.494985 15.884306 33.915348 -1.393326 1.083372 0.051270 -0.005049 -463737.000000 0 0 1
5.443436 -29.385615 14.467106 33.203049 -1.387631 1.119963 0.044101 -0.003392 301959.000000 0 0 1
4.280236 -29.549675 13.626706 32.820585 -1.426948 1.142647 0.038340 -0.000554 -178371.000000 0 0 1
4.412836 -29.455845 12.113106 32.153495 -1.422090 1.184535 0.029672 0.003575 -230123.000000 0 0 1
4.922836 -30.503645 11.362406 32.921284 -1.410791 1.218410 0.040391 0.000963 39523.400000 0 0 1
6.339136 -30.616435 11.447006 33.295415 -1.366631 1.219834 0.037885 0.003311 -64593.600000 0 0 1
6.868136 -31.888645 10.779206 34.354741 -1.358658 1.251644 0.029467 0.004825 -267666.000000 0 0 1
6.689236 -33.108885 11.505006 35.683459 -1.371442 1.242513 0.023320 0.000448 107208.000000 0 0 1
6.887336 34.220272 10.754206 36.525544 1.372185 1.271938 0.035478 -0.000304 -178996.000000 0 0 1
6.702036 32.926746 11.537906 35.527612 1.369996 1.240040 0.032840 -0.001749 -481828.000000 0 0 1
5.435036 32.694701 12.066706 35.271639 1.406067 1.221637 0.031052 -0.006228 -630317.000000 0 0 1
5.312936 31.379228 12.593906 34.227032 1.403073 1.193991 0.043761 -0.008434 692577.000000 0 0 1
4.009836 30.971678 13.378406 33.975070 1.442045 1.166066 0.040037 -0.007949 562050.000000 0 0 1
4.014336 31.628458 14.560806 35.049841 1.444550 1.142379 0.055094 -0.010122 -475138.000000 0 0 1
2.937436 31.367308 15.378606 35.057639 1.477422 1.116682 0.054682 -0.011441 -677004.000000 0 0 1
3.253336 31.577578 16.905106 35.965404 1.468132 1.081463 0.058380 -0.006059 -57470.600000 0 0 1
3.563936 32.944579 17.245906 37.355966 1.463036 1.090926 0.053853 -0.003614 290155.000000 0 0 1
3.970936 32.980268 18.563106 38.053322 1.450970 1.061208 0.043740 -0.001731 -118613.000000 0 0 1
4.399936 -34.085103 19.044806 39.291962 -1.442419 1.064776 0.039851 -0.001985 -481043.000000 0 0 1
3.335036 -33.262085 19.366606 38.633588 -1.470865 1.045708 0.034439 -0.006892 -426824.000000 0 0 1
3.726436 -32.275405 20.330706 38.326566 -1.455848 1.011653 0.042393 -0.009369 1201790.000000 0 0 1
2.440836 -31.545615 20.921706 37.931534 -1.493575 0.986557 0.033651 -0.010206 955835.000000 0 0 1
1.668336 -32.345885 21.767106 39.023666 -1.519264 0.979073 0.036908 -0.002572 -428500.000000 0 0 1
0.689336 -31.584955 22.439406 38.750632 -1.548975 0.953206 0.036241 -0.000503 -263455.000000 0 0 1
-0.434364 -32.485135 23.007806 39.809946 1.557426 0.954593 0.033027 0.001768 -1067470.000000 0 0 1
-1.299564 -32.861145 22.013506 39.574463 1.531270 0.980924 0.026501 -0.002200 -948594.000000 0 0 1
-2.095764 -33.944365 22.313706 40.675712 1.509133 0.990137 0.032045 -0.001822 825493.000000 0 0 1
-3.481464 -33.611405 23.041606 40.899422 1.467585 0.972334 0.044621 -0.002439 1106890.000000 0 0 1
-4.410364 -32.925255 22.212806 39.961637 1.437638 0.981407 0.035981 -0.005458 -42065.000000 0 0 1
-5.570864 -32.598085 22.952006 40.254990 1.401536 0.964089 0.034397 -0.004808 649050.000000 0 0 1
-6.881164 -32.287285 22.166306 39.763857 1.360815 0.979487 0.036972 -0.010522 613840.000000 0 0 1
-7.575264 -33.330515 21.516006 40.388691 1.347316 1.008981 0.024101 -0.000531 -498958.000000 0 0 1
-8.660264 -32.846925 20.814906 39.839439 1.313008 1.021051 0.035697 -0.015147 -872922.000000 0 0 1
-9.802364 -33.818785 20.594106 40.791099 1.288678 1.041568 0.047052 -0.012227 -202028.000000 0 0 1
-10.475964 -34.213462 21.768106 41.882660 1.273666 1.024249 0.070584 -0.026349 -200653.000000 0 0 1
-11.845164 33.948769 21.602306 41.946233 -1.235090 1.029789 0.070313 -0.024876 265129.000000 0 0 1
-12.457864 33.777200 23.052406 42.749398 -1.217451 1.001256 0.076334 -0.027608 -55494.500000 0 0 1
-12.587864 -33.596045 23.919606 43.119556 1.212304 0.982761 0.084576 -0.029253 605842.000000 0 0 1
-11.329964 -32.978705 24.239506 42.467831 1.239876 0.963349 0.068568 -0.020432 678369.000000 0 0 1
-11.504964 -31.801695 25.263306 42.213109 1.223673 0.929206 0.066711 -0.024063 52257.100000 0 0 1
-11.908464 -32.063735 26.630706 43.348461 1.215186 0.909247 0.085125 -0.029237 236344.000000 0 0 1
-13.137964 -31.366055 26.766006 43.276490 1.174138 0.903979 0.083096 -0.030325 6221.760000 0 0 1
-13.751864 -31.290095 28.154306 44.281472 1.156712 0.881748 0.061518 -0.029658 148483.000000 0 0 1
-12.972764 -30.620785 29.175806 44.239719 1.170062 0.850652 0.050522 -0.015666 200819.000000 0 0 1
-13.801564 -30.379695 30.270306 45.052197 1.144370 0.834033 0.051667 -0.019127 -18139.700000 0 0 1
-13.133564 -29.521925 31.340506 45.014018 1.152213 0.800652 0.032219 -0.018553 22661.500000 0 0 1
-14.065164 -29.122255 32.342006 45.737730 1.120866 0.785381 0.028833 -0.017487 234421.000000 0 0 1
-13.528764 -28.446915 33.443906 45.942891 1.126875 0.755476 0.022631 -0.011431 -801362.000000 0 0 1
-12.972764 -29.283685 -33.922341 46.653532 1.153776 2.384902 0.028171 -0.001607 -304086.000000 0 0 1
-11.612564 -29.581225 -34.151941 46.650355 1.196716 2.392171 0.027376 -0.000284 -237763.000000 0 0 1
-11.341164 -30.907385 -33.685741 47.102204 1.219110 2.367653 0.034265 0.003968 -2102.650000 0 0 1
-9.885464 -31.403885 -33.722941 47.129217 1.265831 2.368196 0.034209 0.002643 -28147.400000 0 0 1
-8.953564 -30.678245 -32.963241 45.911831 1.286830 2.371675 0.049516 -0.004798 -249735.000000 0 0 1
-7.668164 -31.248875 -33.087341 46.152628 1.330161 2.370158 0.066069 -0.010550 80933.900000 0 0 1
-6.563364 -30.518005 -32.306141 44.923414 1.358958 2.373358 0.082243 -0.013406 -92798.000000 0 0 1
-6.558964 -30.615995 -30.898841 43.989743 1.359753 2.349574 0.084494 -0.026957 -41394.900000 0 0 1
-5.648864 -29.761405 -30.211041 42.782682 1.383223 2.354844 0.077528 -0.027467 388528.000000 0 0 1
-6.138664 -29.573875 -28.741241 41.693599 1.366132 2.331380 0.063596 -0.020679 69920.000000 0 0 1
-5.969264 -30.835915 -28.075641 42.127513 1.379580 2.300226 0.067817 -0.019218 -182543.000000 0 0 1
-6.871764 -31.034795 -27.026741 41.723187 1.352891 2.275441 0.072735 -0.019661 -412546.000000 0 0 1
-6.742764 -32.344065 -26.293241 42.224849 1.365270 2.242980 0.078529 -0.026629 334950.000000 0 0 1
-5.782764 -32.281785 -25.238341 41.382700 1.393542 2.226701 0.056930 -0.022612 -98328.900000 0 0 1
-5.596964 -33.453285 -24.574341 41.884920 1.405025 2.197788 0.054693 -0.030086 245654.000000 0 0 1
-4.543264 -33.377285 -23.401341 41.015938 1.435509 2.177963 0.066649 -0.032153 386244.000000 0 0 1
-4.973164 -32.818755 -22.156341 39.908727 1.420406 2.159370 0.067882 -0.029541 -79102.100000 0 0 1
-4.916764 -31.428185 -22.121441 38.746142 1.415610 2.178438 0.046597 -0.013633 -259460.000000 0 0 1
-5.439364 -30.794765 -20.857641 37.589166 1.395967 2.159020 0.062625 -0.021327 536394.000000 0 0 1
-6.864164 -30.875155 -20.689741 37.794938 1.352034 2.150076 0.074486 -0.031299 693354.000000 0 0 1
-7.530564 -29.641635 -20.515041 36.826659 1.322006 2.161650 0.073074 -0.029208 67404.100000 0 0 1
-7.659764 -28.665865 -21.749041 36.788919 1.309688 2.203323 0.073444 -0.045314 -639508.000000 0 0 1
-6.370164 -28.307595 -22.158441 36.508840 1.349450 2.222993 0.068191 -0.023768 -369249.000000 0 0 1
-6.558964 -27.724435 -23.430241 36.886861 1.338490 2.259053 0.093963 -0.040788 -97429.100000 0 0 1
-5.251964 -27.909945 -24.230141 37.331593 1.384796 2.277134 0.094529 -0.037956 472137.000000 0 0 1
-4.099364 -27.192115 -23.857941 36.406280 1.421167 2.285409 0.099041 -0.032638 254206.000000 0 0 1
-3.456364 -27.453975 -22.603441 35.729298 1.445559 2.255741 0.069508 -0.028822 -629749.000000 0 0 1
-1.917164 -27.263375 -22.592841 35.459887 1.500592 2.261576 0.080216 -0.025752 232921.000000 0 0 1
-1.447964 -25.962255 -22.928541 34.667755 1.515082 2.293453 0.077473 -0.033927 49162.700000 0 0 1
-1.809864 -24.954915 -21.983441 33.306081 1.498398 2.291672 0.090669 -0.035479 -1009150.000000 0 0 1
-1.957564 -23.578715 -22.654941 32.757201 1.487964 2.334501 0.086085 -0.024696 -37168.800000 0 0 1
-2.891564 -23.341315 -23.685541 33.379379 1.447542 2.359707 0.075968 -0.031740 1326980.000000 0 0 1
-4.278164 -23.487415 -23.244841 33.320924 1.390624 2.342846 0.081002 -0.035589 1022550.000000 0 0 1
-5.284664 -23.630415 -24.403341 34.378005 1.350778 2.360086 0.068047 -0.030210 -55702.600000 0 0 1
-5.437164 -22.375215 -25.085841 34.051614 1.332417 2.398974 0.082943 -0.031736 -83931.700000 0 0 1
-5.688564 -22.540615 -26.443141 35.209072 1.323589 2.420420 0.081165 -0.034355 67844.400000 0 0 1
-6.003364 -21.242015 -27.225441 35.049796 1.295362 2.460308 0.096481 -0.023435 -58300.300000 0 0 1
-6.030864 -21.349215 -28.644941 36.231105 1.295483 2.482613 0.093498 -0.030840 269916.000000 0 0 1
-4.809864 -21.556915 -29.357941 36.738591 1.351268 2.496599 0.085188 -0.037397 23578.500000 0 0 1
-5.074164 -22.076115 -30.805541 38.237198 1.344872 2.507557 0.105871 -0.043911 324479.000000 0 0 1
-5.634364 -21.091015 -31.681841 38.474875 1.309747 2.538248 0.112537 -0.042944 317867.000000 0 0 1
-6.688564 -21.540915 -32.547741 39.599285 1.269730 2.535583 0.103486 -0.040728 513570.000000 0 0 1
-6.813864 -20.766015 -33.848041 40.290768 1.253740 2.568253 0.079883 -0.026756 -277857.000000 0 0 1
-5.713264 -20.903615 33.795306 40.146297 1.303998 0.570180 0.091107 -0.023867 -702444.000000 0 0 1
-5.919564 -20.524615 32.463706 38.861205 1.290003 0.581980 0.089519 -0.019768 342651.000000 0 0 1
-4.578864 -20.767915 31.725906 38.194311 1.353790 0.590532 0.078836 -0.014919 -296382.000000 0 0 1
-4.366064 -22.140615 31.507906 38.755870 1.376097 0.621538 0.095097 -0.015272 820276.000000 0 0 1
-3.135064 -22.458215 30.836706 38.276657 1.432097 0.634063 0.083499 -0.006580 610435.000000 0 0 1
-1.735064 -22.197515 31.379006 38.475734 1.492790 0.617112 0.054543 -0.008150 -800160.000000 0 0 1
-1.390664 -20.910715 31.216006 37.598284 1.504389 0.591239 0.043366 -0.002887 -49635.900000 0 0 1
-0.400964 -20.289415 32.031206 37.918587 1.551037 0.564724 0.052570 -0.005371 219375.000000 0 0 1
-0.903864 -19.956315 33.507006 39.010139 1.525535 0.537618 0.045194 -0.008553 -477856.000000 0 0 1
-1.807364 -18.941915 33.479706 38.509134 1.475668 0.516817 0.046432 -0.009057 -898668.000000 0 0 1
-2.317364 -18.685115 -33.714541 38.615722 1.447404 2.632276 0.055029 -0.017772 996244.000000 0 0 1
-3.405064 -17.514515 -33.613641 38.055611 1.378778 2.653602 0.060083 -0.027450 1006760.000000 0 0 1
-2.915364 -16.233215 -33.809541 37.617837 1.393098 2.687738 0.060578 -0.028149 -30874.600000 0 0 1
-3.963864 -15.362415 -33.429341 37.003201 1.318280 2.698471 0.064552 -0.035527 97808.300000 0 0 1
-3.695364 -13.879215 -33.732141 36.662592 1.310581 2.739055 0.065711 -0.037940 -383118.000000 0 0 1
-2.589364 -13.341615 -33.031541 35.718149 1.379098 2.751261 0.067074 -0.033836 43140.800000 0 0 1
-2.363164 -11.956715 -33.277541 35.439276 1.375668 2.790512 0.060051 -0.031333 186392.000000 0 0 1
-1.565664 -11.509215 33.949106 35.881125 1.435591 0.329652 0.052820 -0.031627 -144817.000000 0 0 1
-2.369464 -11.525315 32.780706 34.828464 1.368034 0.344618 0.053322 -0.022010 88225.500000 0 0 1
-1.757964 -10.982715 31.643806 33.541630 1.412076 0.338003 0.036083 -0.011895 -283808.000000 0 0 1
-0.712164 -11.887215 30.976806 33.186979 1.510958 0.367016 0.039299 -0.015561 -218363.000000 0 0 1
-1.278564 -12.944015 30.245806 32.924019 1.472339 0.406135 0.060679 -0.016490 -215388.000000 0 0 1
-0.364864 -13.921115 29.826606 32.917427 1.544593 0.436815 0.057818 -0.018758 -160372.000000 0 0 1
-0.811764 -15.372215 30.301706 33.987605 1.518038 0.470037 0.064895 -0.012483 271364.000000 0 0 1
-1.993064 -15.863415 29.714306 33.742558 1.445812 0.493631 0.064355 -0.015126 38961.100000 0 0 1
-2.383764 -17.037115 30.388406 34.919920 1.431783 0.515125 0.065137 -0.009834 -93347.800000 0 0 1
-3.009564 -18.160415 29.514106 34.784200 1.406568 0.557668 0.058101 -0.001746 461955.000000 0 0 1
-4.218864 -17.702615 28.891706 34.145454 1.336842 0.562103 0.063004 -0.002128 474395.000000 0 0 1
-4.898364 -18.738815 28.133006 34.155573 1.315115 0.602939 0.067344 -0.002923 328551.000000 0 0 1
-4.248664 -19.083415 26.760706 33.141564 1.351733 0.630951 0.063392 -0.010341 -256520.000000 0 0 1
-4.959964 -20.071615 26.011706 33.227696 1.328536 0.671592 0.077535 -0.010770 -177494.000000 0 0 1
-4.564564 -21.434315 26.259006 34.202346 1.360975 0.695467 0.071753 -0.012695 -79580.500000 0 0 1
-29.188494 34.048585 -0.838094 44.855064 -0.862102 1.589482 0.035242 -0.011352 66595.300000 0 0 1
-28.713754 -33.126917 -0.575094 43.842936 0.856641 1.583914 0.038610 0.003824 -149103.000000 0 0 1
-29.212914 -32.627017 0.617406 43.798377 0.840551 1.556699 0.015331 0.012261 -432611.000000 0 0 1
-28.625454 -31.264417 1.092406 42.403700 0.829433 1.545031 0.031129 0.002476 360964.000000 0 0 1
-27.213164 -31.219417 1.264506 41.434373 0.853853 1.540273 0.034884 -0.010923 104189.000000 0 0 1
-26.778024 -29.961017 1.787106 40.223363 0.841438 1.526352 0.042680 -0.011073 857388.000000 0 0 1
-25.249454 -29.834917 2.084206 39.140786 0.868451 1.517522 0.057194 -0.016936 657065.000000 0 0 1
-24.798164 -30.701217 3.099806 39.586898 0.891362 1.492412 0.039491 -0.013600 -90303.500000 0 0 1
-23.409664 -30.575717 3.300606 38.649461 0.917367 1.485294 0.047704 -0.007923 2798.300000 0 0 1
-22.637964 -31.331217 4.385806 38.901901 0.945104 1.457816 0.042502 -0.017500 -132078.000000 0 0 1
-22.959964 -30.689517 5.583906 38.732240 0.928489 1.426125 0.023204 -0.012167 105849.000000 0 0 1
-22.306364 -31.301617 6.695106 39.015248 0.951646 1.398340 0.010865 -0.008044 -199953.000000 0 0 1
-22.783864 -30.807517 8.055006 39.154702 0.934013 1.363594 0.012589 0.012002 -158475.000000 0 0 1
-22.598764 -29.462517 8.300906 38.047984 0.916482 1.350858 0.025159 -0.000871 -169431.000000 0 0 1
-23.186664 -29.161217 9.537306 38.457226 0.899038 1.320183 0.016983 0.002646 -375035.000000 0 0 1
-22.612764 -27.877917 10.145106 37.301991 0.889302 1.295354 0.013760 0.004734 -330677.000000 0 0 1
-21.298764 -28.149717 10.539106 36.839065 0.923069 1.280658 0.023018 -0.004848 -764186.000000 0 0 1
-20.771764 -27.095217 11.293306 35.960475 0.916742 1.251343 0.029589 -0.002428 184930.000000 0 0 1
-19.383064 -27.318917 11.928506 35.557217 0.953716 1.228688 0.032645 -0.001124 77838.300000 0 0 1
-19.361264 -28.322217 12.929706 36.663113 0.971157 1.210381 0.037360 0.007115 -66071.600000 0 0 1
-18.148164 -28.242017 13.667406 36.245902 0.999645 1.184161 0.047395 -0.007348 363821.000000 0 0 1
-17.965964 -29.249617 14.804806 37.383128 1.019980 1.163608 0.076303 -0.022581 85700.500000 0 0 1
-17.898864 -30.543217 14.290806 38.177017 1.040721 1.187122 0.081187 -0.018515 -94835.000000 0 0 1
-17.663864 -31.451717 15.372006 39.211238 1.059077 1.167958 0.096090 -0.019602 162786.000000 0 0 1
-17.658764 -32.956917 14.983306 40.280142 1.078910 1.189658 0.085390 -0.026014 105570.000000 0 0 1
-17.438564 -33.777717 16.062506 41.267927 1.094214 1.171006 0.099474 -0.019477 91670.700000 0 0 1
-17.358264 33.358985 15.631406 40.724343 -1.091004 1.176851 0.075606 -0.015006 -146228.000000 0 0 1
-17.341964 32.304285 16.747706 40.308761 -1.078119 1.142320 0.072696 -0.013890 -706557.000000 0 0 1
-18.550964 32.076985 17.375906 40.926683 -1.046466 1.132318 0.087420 -0.017247 -718988.000000 0 0 1
-18.603964 30.904185 18.113606 40.364327 -1.028916 1.105427 0.063677 -0.007965 -88509.700000 0 0 1
-19.365864 31.023485 19.427806 41.411749 -1.012749 1.082482 0.062310 -0.019140 16592.900000 0 0 1
-18.784464 32.008085 20.291506 42.297977 -1.040090 1.070452 0.069079 -0.018532 374257.000000 0 0 1
-19.557964 32.166185 21.494206 43.349491 -1.024494 1.052000 0.058540 -0.010466 249836.000000 0 0 1
-19.069464 33.353985 22.362006 44.454383 -1.051423 1.043692 0.052348 -0.003231 232636.000000 0 0 1
-17.813764 33.113485 22.968606 44.061207 -1.077243 1.022436 0.044048 -0.014440 -91038.900000 0 0 1
-17.650364 33.914285 24.147906 45.219857 -1.090930 1.007459 0.038633 -0.018816 -157501.000000 0 0 1
-18.288264 33.318585 25.413106 45.721053 -1.068805 0.981436 0.025105 -0.023069 -309417.000000 0 0 1
-19.684664 33.463085 25.349206 46.366435 -1.039061 0.992361 0.012066 -0.023608 -280333.000000 0 0 1
-20.338264 32.259885 25.841806 46.066736 -1.008287 0.975246 -0.006380 -0.012832 -295480.000000 0 0 1
-21.822364 32.308985 25.504906 46.589552 -0.976753 0.991496 0.017842 -0.016404 -817697.000000 0 0 1
-22.167264 32.165485 24.135506 45.918719 -0.967381 1.017360 0.004567 -0.000261 141238.000000 0 0 1
-23.564564 32.008385 23.989706 46.425547 -0.936186 1.027763 -0.010914 0.000973 34385.200000 0 0 1
-23.889264 31.597385 22.534706 45.573070 -0.923433 1.053567 -0.014224 0.005104 -198376.000000 0 0 1
-23.706164 32.669985 21.591706 45.776762 -0.943078 1.079608 -0.016470 0.001575 43522.000000 0 0 1
-23.564964 32.051485 20.301206 44.662560 -0.936820 1.098933 -0.023894 0.012459 -16264.600000 0 0 1
-23.089764 33.059485 19.231706 44.675780 -0.961124 1.125780 -0.003984 0.009933 -484704.000000 0 0 1
-21.801764 33.537785 19.429306 44.470191 -0.994375 1.118640 0.035426 0.002706 -676710.000000 0 0 1
-21.256364 -34.174617 18.315606 44.217631 1.014362 1.143716 0.049569 0.002113 1195790.000000 0 0 1
-19.981064 -33.418917 18.848406 43.258865 1.031925 1.119967 0.072708 -0.011957 1008220.000000 0 0 1
-20.439464 -32.410417 19.787106 43.124661 1.008148 1.094113 0.057950 -0.015640 483595.000000 0 0 1
-19.320864 -31.739317 20.317306 42.349415 1.023978 1.070422 0.069536 -0.031061 -23651.100000 0 0 1
-19.658864 -30.561717 21.226006 42.083641 0.999180 1.042136 0.054904 -0.019394 -111877.000000 0 0 1
-20.228264 -29.421517 20.580606 41.211281 0.968487 1.047899 0.065843 -0.016276 346309.000000 0 0 1
-20.657964 -28.597917 21.673306 41.404403 0.945221 1.019897 0.081440 -0.012108 -204192.000000 0 0 1
-21.270764 -27.280517 21.164106 40.553562 0.908553 1.021743 0.074428 -0.018156 -589079.000000 0 0 1
-20.282464 -26.491517 20.566606 39.193930 0.917372 1.018387 0.070321 -0.006937 -100266.000000 0 0 1
-20.712464 -25.284717 19.893806 38.263385 0.884476 1.024042 0.060037 0.008462 -447410.000000 0 0 1
-21.942464 -25.237117 18.941406 38.433848 0.855117 1.055456 0.040261 -0.000485 -231061.000000 0 0 1
-23.177264 -25.186717 19.622806 39.453908 0.826923 1.050243 0.030296 -0.001206 -245419.000000 0 0 1
-24.186364 -24.855217 18.674806 39.389217 0.799036 1.076844 0.021510 0.009278 55873.100000 0 0 1
-25.571044 -25.198017 19.335006 40.775738 0.778051 1.076765 0.016790 -0.004086 299129.000000 0 0 1
-25.909964 -26.574817 19.606306 41.975641 0.798065 1.084802 0.004766 0.001570 -88165.400000 0 0 1
-25.984134 -27.339517 18.431806 41.980423 0.810811 1.116247 -0.003415 -0.001320 -792089.000000 0 0 1
-26.871024 -28.574217 18.526206 43.379236 0.816107 1.129540 0.007066 -0.005060 298279.000000 0 0 1
-28.243684 -28.332617 18.803306 44.204154 0.786970 1.131421 0.019672 -0.010313 -86314.300000 0 0 1
-29.038184 -29.260617 18.081606 45.014935 0.789214 1.157446 0.023713 -0.003712 425583.000000 0 0 1
-30.536104 -28.834517 18.102206 45.733718 0.756746 1.163838 0.037138 -0.005611 365549.000000 0 0 1
-30.860844 -27.515217 17.726406 44.985602 0.728149 1.165766 0.051352 -0.005133 932133.000000 0 0 1
-32.291284 -27.367617 17.906406 45.960340 0.703054 1.170593 0.055784 0.009206 995879.000000 0 0 1
-32.830664 -26.071517 17.292406 45.349794 0.671146 1.179582 0.071943 -0.013881 -162634.000000 0 0 1
-33.019944 -26.152017 15.892106 45.020037 0.669848 1.210020 0.093586 -0.029544 -42600.000000 0 0 1
-33.700614 -25.064917 15.352206 44.717689 0.639491 1.220353 0.101336 -0.027223 46137.800000 0 0 1
-32.825054 -23.806117 14.918506 43.206218 0.627467 1.218253 0.091495 -0.021675 515986.000000 0 0 1
-32.160194 -23.210517 16.023006 42.775495 0.625152 1.186849 0.079451 -0.017143 173389.000000 0 0 1
-31.582254 -21.956917 15.761806 41.568973 0.607517 1.181895 0.079228 -0.012536 668850.000000 0 0 1
-32.619134 -20.769017 16.034506 41.862458 0.566978 1.177724 0.094823 -0.018090 871902.000000 0 0 1
-33.067954 -20.554817 17.398406 42.646156 0.556146 1.150565 0.093224 -0.015962 -331390.000000 0 0 1
-34.077113 -19.634317 17.320206 42.973778 0.522715 1.155959 0.103738 -0.023053 -883729.000000 0 0 1
-34.731822 -19.209417 18.614206 43.838224 0.505204 1.132264 0.078077 -0.011627 -94585.800000 0 0 1
-35.570850 -20.172817 19.243506 45.194474 0.515889 1.130958 0.071175 -0.007424 357517.000000 0 0 1
-35.917558 -19.775117 20.554706 45.865261 0.503280 1.106097 0.062647 -0.000374 583449.000000 0 0 1
35.302973 -20.209917 21.054606 45.804335 -0.519931 1.093179 0.057899 0.004061 550884.000000 0 0 1
34.865803 -21.533217 21.253406 46.162874 -0.553262 1.092350 0.052742 -0.007759 391122.000000 0 0 1
35.616193 -22.184017 22.346806 47.539705 -0.557061 1.081431 0.035791 0.004908 219712.000000 0 0 1
34.972293 -23.470617 22.884206 47.933475 -0.591080 1.073085 0.025489 0.015167 732436.000000 0 0 1
33.873893 -23.232917 23.809406 47.477330 -0.601176 1.045476 0.025200 0.005315 760297.000000 0 0 1
33.816083 -24.402517 24.609406 48.421412 -0.625092 1.037663 0.031353 -0.003183 -342475.000000 0 0 1
32.928703 -24.211517 25.852806 48.361809 -0.634008 1.006797 0.039115 -0.000692 -104125.000000 0 0 1
31.551493 -24.206117 25.558206 47.272134 -0.654415 0.999574 0.038911 0.005344 -251926.000000 0 0 1
30.892753 -24.155917 26.848306 47.525804 -0.663624 0.970459 0.041651 0.003456 -159072.000000 0 0 1
29.476513 -24.711717 26.751706 46.852829 -0.697693 0.963106 0.045822 -0.003121 -294834.000000 0 0 1
28.483583 -23.933417 26.130306 45.463346 -0.698808 0.958491 0.052466 -0.006869 -347507.000000 0 0 1
27.228883 -24.537417 25.977706 44.925918 -0.733452 0.954234 0.051697 -0.002997 251824.000000 0 0 1
26.243883 -23.516317 25.291406 43.375267 -0.730639 0.948277 0.051299 -0.003267 2884.730000 0 0 1
26.423783 -23.218417 23.919906 42.537902 -0.720918 0.973608 0.048630 -0.003226 61696.800000 0 0 1
27.578583 -22.459117 23.599106 42.683814 -0.683441 0.984978 0.053687 0.000474 45620.100000 0 0 1
27.608483 -21.738517 22.263406 41.598686 -0.667002 1.006058 0.047469 0.004779 100346.000000 0 0 1
26.775983 -20.570417 22.173406 40.394990 -0.655074 0.989731 0.053932 0.004527 255080.000000 0 0 1
26.857983 -20.005717 20.857006 39.453703 -0.640210 1.013793 0.050767 0.005540 228487.000000 0 0 1
25.718283 -18.938717 20.600006 38.006122 -0.634734 0.997960 0.036989 0.005810 478625.000000 0 0 1
25.782983 -17.622617 21.235406 37.765875 -0.599565 0.973643 0.027714 -0.000119 44478.000000 0 0 1
25.589083 -17.584617 22.664106 38.440625 -0.602078 0.940248 0.030757 0.000930 -139414.000000 0 0 1
25.804483 -16.170117 23.377406 38.390717 -0.559778 0.916081 0.038028 0.001949 227802.000000 0 0 1
24.659983 -15.329217 23.253706 37.199926 -0.556167 0.895536 0.025634 0.005688 111982.000000 0 0 1
24.646683 -14.373117 24.315406 37.487124 -0.527950 0.865009 0.023927 0.002074 -996423.000000 0 0 1
23.438683 -13.498717 24.229006 36.312972 -0.522523 0.840316 0.025252 0.000035 -992353.000000 0 0 1
22.338083 -14.287017 24.625906 36.187623 -0.569016 0.822343 0.040180 0.006018 -31401.800000 0 0 1
21.184583 -13.435617 24.737206 35.231119 -0.565200 0.792397 0.035345 -0.002734 191021.000000 0 0 1
19.890183 -14.158617 25.127106 35.035086 -0.618628 0.771023 0.045837 0.006148 -361596.000000 0 0 1
19.570383 -15.097617 24.072206 34.502305 -0.657090 0.798617 0.052468 0.000291 -268149.000000 0 0 1
18.213883 -15.430417 24.225106 34.010279 -0.702854 0.778044 0.056042 -0.003353 -221782.000000 0 0 1
17.765383 -16.551317 23.289106 33.644277 -0.750035 0.806241 0.061917 -0.013366 -162060.000000 0 0 1
18.195083 -17.826317 23.693706 34.788365 -0.775161 0.821558 0.050709 -0.014516 -829.843000 0 0 1
18.056083 -18.827317 22.704006 34.582682 -0.806305 0.854609 0.061767 -0.017024 72658.200000 0 0 1
18.523183 -20.247917 23.124206 35.886144 -0.829854 0.870588 0.047896 -0.015734 82583.700000 0 0 1
17.602383 -20.767117 24.077806 36.343607 -0.867692 0.846639 0.039389 -0.018665 443059.000000 0 0 1
17.887383 -22.106417 24.403006 37.472108 -0.890502 0.861591 0.052446 -0.018697 -439068.000000 0 0 1
17.465083 -23.142417 23.387206 37.249993 -0.924308 0.892015 0.039273 -0.012929 160820.000000 0 0 1
18.301983 -23.184017 22.228906 36.967357 -0.902539 0.925655 0.052022 -0.013391 -119099.000000 0 0 1
19.529583 -23.837017 22.387106 38.089244 -0.884400 0.942516 0.064566 -0.018476 -834258.000000 0 0 1
20.267983 -24.097917 21.111406 37.910318 -0.871511 0.980175 0.074674 -0.021232 -620051.000000 0 0 1
19.595783 -24.915617 20.157706 37.564821 -0.904350 1.004380 0.074927 -0.028589 -11701.600000 0 0 1
20.486383 -25.369617 19.186306 37.834160 -0.891489 1.038961 0.077019 -0.020299 98502.100000 0 0 1
19.763583 -26.172717 18.068706 37.444472 -0.924025 1.067236 0.072065 -0.025137 252981.000000 0 0 1
19.346283 -27.507317 18.331706 38.301209 -0.957850 1.071715 0.083730 -0.038761 579649.000000 0 0 1
18.364383 -27.954317 17.360106 37.683785 -0.989556 1.092037 0.087677 -0.033798 450546.000000 0 0 1
17.491783 -29.065417 17.955606 38.381828 -1.029049 1.083979 0.088928 -0.026911 634093.000000 0 0 1
16.535583 -28.604417 18.964606 38.095859 -1.046652 1.049721 0.074050 -0.028953 647553.000000 0 0 1
15.704583 -29.630417 19.413206 38.748782 -1.083426 1.046040 0.076551 -0.028659 -257886.000000 0 0 1
14.497783 -29.266117 20.281506 38.445166 -1.110853 1.015090 0.069285 -0.022464 -69209.900000 0 0 1
13.564483 -28.484117 19.594806 37.138882 -1.126359 1.015013 0.072002 -0.016923 -38201.500000 0 0 1
12.234083 -28.511217 20.089306 36.961365 -1.165460 0.996169 0.040273 -0.013194 481456.000000 0 0 1
11.220983 -28.007217 19.045206 35.679610 -1.189733 1.007727 0.047270 -0.018636 -215183.000000 0 0 1
11.092783 -28.887417 17.924606 35.760652 -1.204158 1.045767 0.040644 -0.023807 110615.000000 0 0 1
10.829583 -28.224917 16.707106 34.540602 -1.204430 1.065925 0.049374 -0.021486 -258129.000000 0 0 1
10.707583 -29.288817 15.565906 34.853760 -1.220304 1.107828 0.047592 -0.013397 506301.000000 0 0 1
9.470583 -29.998117 15.710506 35.162466 -1.264993 1.107614 0.050711 -0.008970 699367.000000 0 0 1
9.157883 -30.763017 14.552906 35.242263 -1.281459 1.145118 0.038733 0.001917 -259762.000000 0 0 1
8.006583 -31.739317 14.671106 35.871033 -1.323691 1.149443 0.029302 0.002774 -604704.000000 0 0 1
8.355283 -32.926317 15.322606 37.265740 -1.322285 1.147058 0.028082 -0.003387 372556.000000 0 0 1
7.320583 -33.919117 15.219606 37.891079 -1.358232 1.157460 0.021538 0.001162 368977.000000 0 0 1
7.361483 33.453985 16.269806 37.921856 1.354200 1.127372 0.044407 -0.006954 62194.400000 0 0 1
8.448583 32.557085 16.208206 37.336956 1.316896 1.121750 0.028373 -0.005759 -182068.000000 0 0 1
8.210383 31.496485 17.085906 36.760946 1.315795 1.087405 0.041872 -0.008509 492528.000000 0 0 1
9.424583 30.503085 17.204606 36.266506 1.271129 1.076521 0.033564 -0.010124 213443.000000 0 0 1
9.798583 29.736385 16.081906 35.197905 1.252486 1.096290 0.045471 -0.009948 -362595.000000 0 0 1
10.806783 28.821185 16.426806 34.889644 1.212061 1.080574 0.035869 -0.012641 -131741.000000 0 0 1
11.671583 28.388385 15.185706 34.245174 1.180724 1.111362 0.037616 -0.012361 -164485.000000 0 0 1
11.043283 27.639985 14.195306 32.976197 1.190686 1.125781 0.054558 -0.015699 -491600.000000 0 0 1
11.941083 27.137285 13.274206 32.484246 1.156269 1.149838 0.064829 -0.009023 -549601.000000 0 0 1
-9.268964 -9.397215 19.088853 23.207879 0.792269 0.604975 0.035670 -0.010724 -90984.800000 0 1 0
-9.664264 -9.466315 17.780953 22.342144 0.775051 0.650389 0.044078 -0.013954 -42360.600000 0 1 0
-9.482864 -10.743515 17.139953 22.341124 0.847645 0.696343 0.039371 -0.022666 -187110.000000 0 1 0
-10.187464 -10.873615 15.775253 21.699736 0.817966 0.756884 0.056483 -0.024079 2407.330000 0 1 0
-11.601364 -10.856815 15.716653 22.348943 0.752258 0.790853 0.053144 -0.021017 263645.000000 0 1 0
-12.166264 -11.241115 14.476853 21.999089 0.745895 0.852549 0.074017 -0.026560 68287.900000 0 1 0
-11.914264 -12.721915 14.017453 22.367069 0.818170 0.893485 0.045170 -0.027298 514391.000000 0 1 0
-10.534564 -13.034915 13.694353 21.643044 0.891087 0.885714 0.046653 -0.026233 1080500.000000 0 1 0
-10.271764 -14.422115 13.660953 22.363546 0.951914 0.913652 0.039188 -0.025431 -86040.700000 0 1 0
-9.831464 -15.046615 15.024853 23.426577 0.992034 0.874528 0.043614 -0.025127 -339318.000000 0 1 0
-10.800764 -14.974315 16.025253 24.447809 0.945927 0.855967 0.041981 -0.006547 -387645.000000 0 1 0
-10.305764 -15.387415 17.273053 25.324685 0.980660 0.820215 0.045558 -0.004278 50982.400000 0 0 1
-11.314364 -15.004415 18.379653 26.286098 0.924696 0.796496 0.027231 -0.001420 -55511.900000 0 0 1
-11.677664 -13.625115 18.383753 25.689958 0.862213 0.773313 0.031866 -0.006868 661887.000000 0 0 1
-12.897864 -13.275715 17.712053 25.618671 0.799833 0.807409 0.031883 -0.015974 1156250.000000 0 0 1
-14.218564 -13.420215 18.562653 26.960004 0.756521 0.811342 0.008533 -0.004900 487645.000000 0 0 1
-14.511664 -14.786315 18.710653 27.916161 0.794772 0.836258 0.010010 0.000019 -667452.000000 0 0 1
-15.499864 -14.936415 19.669553 29.158765 0.766888 0.830418 0.015875 -0.002849 -497719.000000 0 0 1
-15.912264 -16.359515 20.036653 30.369414 0.799256 0.850291 0.034729 -0.007204 -470266.000000 0 0 1
-16.904964 -16.863815 19.205053 30.643109 0.784180 0.893443 0.045009 0.000801 -299641.000000 0 0 1
-17.233164 -18.238615 19.515253 31.787955 0.813736 0.909780 0.026613 -0.006048 -177324.000000 0 0 1
-18.578164 -18.621415 18.872553 32.374041 0.786561 0.948438 0.043454 -0.003059 -284697.000000 0 0 1
-18.642964 -18.676315 17.461653 31.642917 0.786292 0.986234 0.049349 -0.000772 218390.000000 0 0 1
-19.056764 -17.423615 16.892753 30.856243 0.740660 0.991463 0.052385 -0.007377 -371823.000000 0 0 1
-18.809764 -17.347215 15.340753 29.834071 0.744970 1.030719 0.048821 -0.007330 350968.000000 0 0 1
-19.629464 -18.314415 14.604653 30.561897 0.750754 1.072567 0.049203 -0.012444 676543.000000 0 0 1
-19.414264 -18.282215 13.175253 29.744585 0.755377 1.111914 0.054133 -0.013281 35555.600000 0 0 1
-19.719964 -19.610215 12.460853 30.474750 0.782608 1.149558 0.052010 -0.009584 22578.100000 0 0 1
-18.865964 -20.626615 12.961753 30.812155 0.829950 1.136612 0.050196 -0.001342 165523.000000 0 0 1
-18.897464 -21.885415 12.244153 31.400714 0.858532 1.170238 0.043959 -0.000811 -561426.000000 0 0 1
-18.054164 -23.085115 12.834853 31.993887 0.907085 1.158007 0.034962 0.000152 215272.000000 0 0 1
-17.938264 -24.250815 12.044353 32.479990 0.933922 1.190900 0.040655 -0.006930 271646.000000 0 0 1
-16.827164 -24.168815 11.159053 31.493007 0.962602 1.208594 0.043422 -0.008866 -63246.800000 0 0 1
-16.803264 -25.209015 10.070053 31.925696 0.982869 1.249895 0.041585 -0.006583 -65837.300000 0 0 1
-17.949764 -25.226645 9.239953 32.310283 0.952367 1.280772 0.035753 0.002219 -234788.000000 0 0 1
-18.026464 -26.308725 8.294753 32.953078 0.970080 1.316345 0.050982 -0.001537 -593690.000000 0 0 1
-19.294664 -26.410155 7.480253 33.551967 0.939842 1.345962 0.042074 -0.004008 -517948.000000 0 0 1
-19.426264 -25.310585 6.599653 32.581603 0.916179 1.366827 0.052961 -0.008994 -906053.000000 0 0 1
-20.410564 -25.332165 5.665653 33.021346 0.892579 1.398368 0.061024 -0.014127 -787873.000000 0 0 1
-20.368464 -23.990815 4.832053 31.839947 0.866877 1.418447 0.068974 -0.016632 -243555.000000 0 0 1
-21.470764 -23.948115 3.979253 32.408955 0.839889 1.447703 0.079740 -0.019810 -139875.000000 0 0 1
-21.499364 -22.656615 3.316353 31.409283 0.811600 1.465014 0.071817 -0.020218 267178.000000 0 0 1
-22.111364 -22.728415 1.853453 31.763636 0.799159 1.512412 0.069612 -0.018715 157545.000000 0 0 1
-21.317064 -23.372115 0.898453 31.646172 0.831351 1.542402 0.068262 -0.027308 -15472.300000 0 0 1
-21.961364 -23.345515 -0.354447 32.053708 0.815939 1.581854 0.063017 -0.019102 -104471.000000 0 0 1
-21.202664 -24.160815 -1.437347 32.177071 0.850516 1.615481 0.069529 -0.021908 -638420.000000 0 0 1
-19.996364 -23.542115 -1.803347 30.940876 0.866658 1.629113 0.073685 -0.015905 -39871.100000 0 0 1
-19.384064 -24.076715 -2.984847 31.053815 0.892956 1.667063 0.063606 -0.010750 407855.000000 0 0 1
-18.858764 -25.569205 -2.992647 31.912273 0.935306 1.664712 0.073489 -0.018037 -174959.000000 0 0 1
-19.884564 -26.524895 -3.213347 33.306028 0.927515 1.667426 0.093545 -0.022804 72856.000000 0 0 1
-19.377564 -27.825225 -3.612447 34.099602 0.962489 1.676934 0.089941 -0.018203 720405.000000 0 0 1
-20.528764 -28.782225 -4.142247 35.595011 0.951237 1.687432 0.093260 -0.023121 903708.000000 0 0 1
-21.204464 -28.224515 -5.252847 35.690964 0.926478 1.718509 0.083584 -0.011856 -16842.700000 0 0 1
-21.888264 -29.201545 -6.021147 36.987573 0.927578 1.734312 0.085076 -0.026447 114873.000000 0 0 1
-22.443864 -28.745135 -7.402947 37.213081 0.907880 1.771066 0.067845 0.005541 -157939.000000 0 0 1
-21.451064 -28.633795 -8.415847 36.754167 0.927838 1.801823 0.081374 0.007746 185509.000000 0 0 1
-21.889264 -28.586055 -9.790547 37.311623 0.917302 1.836304 0.073602 0.006251 -145314.000000 0 0 1
-22.791064 -27.437885 -10.306747 37.128145 0.877648 1.852091 0.060374 0.015544 -42353.400000 0 0 1
-22.217764 -26.168135 -10.532247 35.907221 0.866860 1.868492 0.049702 0.015022 -53037.800000 0 0 1
-22.005264 -25.385325 -9.374747 34.878822 0.856601 1.842923 0.035057 0.012746 89527.400000 0 0 1
-21.476264 -23.962815 -9.541547 33.563187 0.840066 1.859058 0.026652 0.011341 205356.000000 0 0 1
-22.454364 -23.151715 -10.187147 33.822749 0.800688 1.876739 0.022157 0.013923 541693.000000 0 0 1
-22.047664 -21.775215 -10.380147 32.680375 0.779181 1.894021 0.022282 0.012447 485669.000000 0 0 1
-23.331664 -20.898615 -10.504247 33.037219 0.730445 1.894365 0.025316 0.008243 34318.800000 0 0 1
-23.855164 -20.970215 -11.791547 33.880073 0.721127 1.926274 0.021047 0.010084 -842003.000000 0 0 1
-25.116304 -20.455515 -11.996647 34.542385 0.683479 1.925489 0.024269 0.001494 -816840.000000 0 0 1
-25.218224 -18.941315 -12.008747 33.748218 0.644202 1.934602 0.033816 -0.010556 -930735.000000 0 0 1
-24.530164 -18.353415 -13.104547 33.321253 0.642347 1.974992 0.050273 -0.008361 334777.000000 0 0 1
-24.385164 -16.918115 -13.127147 32.452747 0.606544 1.987229 0.046060 -0.014482 230791.000000 0 0 1
-23.551664 -16.271515 -11.939147 31.015904 0.604583 1.965935 0.049645 -0.010154 80966.600000 0 0 1
-24.163364 -16.543515 -10.676647 31.169646 0.600351 1.920408 0.051421 -0.008355 441382.000000 0 0 1
-23.283764 -16.381115 -9.577947 30.036838 0.613099 1.895337 0.054430 -0.009880 68297.400000 0 0 1
-23.969864 -16.847015 -8.283847 30.446649 0.612630 1.846348 0.044626 -0.013855 155475.000000 0 0 1
-24.021764 -18.234415 -8.152447 31.241021 0.649286 1.834806 0.037721 -0.004524 720286.000000 0 0 1
-25.047774 -18.620815 -7.207647 32.032420 0.639271 1.797751 0.042245 0.000577 672599.000000 0 0 1
-24.979464 -20.103615 -6.771647 32.771697 0.677664 1.778927 0.049617 0.005598 -281494.000000 0 0 1
-25.492274 -20.848615 -7.853247 33.855491 0.685525 1.804892 0.039020 -0.010987 119571.000000 0 0 1
-25.603484 -22.191315 -7.529247 34.708535 0.714127 1.789463 0.043007 0.000278 56853.500000 0 0 1
-25.890664 -23.195915 -8.706147 35.835373 0.730555 1.816201 0.025867 0.015958 190029.000000 0 0 1
-26.220744 -24.455615 -8.160047 36.772148 0.750581 1.794568 0.044428 0.013709 -266878.000000 0 0 1
-26.135264 -25.478595 -9.118547 37.621253 0.772676 1.815612 0.040937 0.020788 76932.400000 0 0 1
-26.549674 -26.844215 -8.595447 38.721812 0.790914 1.794640 0.056238 0.003482 231232.000000 0 0 1
-25.714164 -27.269485 -7.536247 38.231375 0.814744 1.769218 0.079405 -0.009860 207829.000000 0 0 1
-26.191634 -28.524415 -7.073847 39.366016 0.828007 1.751472 0.078931 -0.009726 -14839.700000 0 0 1
-25.885494 -28.785975 -5.597347 39.115488 0.838401 1.714387 0.101310 -0.019463 -72003.100000 0 0 1
-26.673974 -28.032945 -4.688647 38.978588 0.810234 1.691376 0.075001 -0.021018 74338.100000 0 0 1
-26.188834 -28.050375 -3.323647 38.519153 0.819706 1.657189 0.077560 -0.023712 121693.000000 0 0 1
-26.581094 -29.340715 -2.475547 39.668129 0.834706 1.633243 0.075111 -0.020146 -32691.600000 0 0 1
-26.214784 -30.577795 -3.118947 40.397330 0.862071 1.648080 0.101465 -0.034583 -85143.100000 0 0 1
-26.134434 -31.764435 -2.326447 41.199518 0.882332 1.627294 0.086391 -0.035023 -184667.000000 0 0 1
-25.184344 -31.889535 -1.112147 40.650098 0.902345 1.598159 0.095504 -0.043192 -1119910.000000 0 0 1
-23.881464 -31.667375 -1.496647 39.691144 0.924654 1.608513 0.100752 -0.058622 -1767650.000000 0 0 1
-23.034864 -31.802595 -0.412947 39.270606 0.943942 1.581312 0.093071 -0.047962 409133.000000 0 0 1
-21.875364 -30.729395 -0.361047 37.722110 0.952148 1.580368 0.091329 -0.037324 655649.000000 0 0 1
-22.260464 -29.371485 0.048453 36.853965 0.922262 1.569482 0.081349 -0.039515 -226757.000000 0 0 1
-22.727364 -28.732095 -1.121447 36.651384 0.901561 1.601399 0.102397 -0.040697 -182157.000000 0 0 1
-23.442164 -27.408375 -0.781947 36.074444 0.863238 1.592474 0.068132 -0.020790 -129549.000000 0 0 1
-24.794064 -27.566425 -0.404947 37.078530 0.838296 1.581718 0.078218 -0.022657 97525.900000 0 0 1
-25.559194 -26.390125 -0.128747 36.738640 0.801392 1.574301 0.070915 -0.026481 433890.000000 0 0 1
-25.066124 -25.501935 1.041953 35.773523 0.794016 1.541666 0.070172 -0.018308 -400394.000000 0 0 1
-25.277674 -26.136065 2.270353 36.430882 0.802092 1.508436 0.050415 -0.018380 241924.000000 0 0 1
-24.618064 -25.452095 3.362753 35.569176 0.802054 1.476114 0.066310 -0.019707 541866.000000 0 0 1
-25.446294 -24.236615 3.935853 35.361254 0.761055 1.459261 0.083700 -0.019095 239041.000000 0 0 1
-25.751524 -23.286115 2.968953 34.845356 0.735165 1.485489 0.077002 -0.019973 114749.000000 0 0 1
-26.517704 -22.228315 3.542553 34.782701 0.697630 1.468771 0.072090 -0.016130 209376.000000 0 0 1
-26.692714 -20.998615 2.565453 34.059130 0.666566 1.495401 0.066837 -0.014242 1266690.000000 0 0 1
-25.361624 -20.438515 2.444453 32.663745 0.678318 1.495889 0.067040 -0.015220 1091680.000000 0 0 1
-25.366934 -19.596315 1.303553 32.081087 0.657755 1.530152 0.061530 -0.015108 -3413.110000 0 0 1
-24.218564 -18.552515 1.323453 30.536637 0.653691 1.527443 0.073259 -0.014631 -733216.000000 0 0 1
-23.051964 -19.301415 1.384553 30.097419 0.697075 1.524778 0.073541 -0.018299 -1320570.000000 0 0 1
-21.978864 -18.408015 1.545253 28.710856 0.697211 1.516949 0.074981 -0.014186 -1041970.000000 0 0 1
-20.648464 -19.116615 1.583753 28.183547 0.746895 1.514572 0.067831 -0.018269 -700123.000000 0 0 1
-20.186864 -19.595015 0.306653 28.134820 0.770522 1.559897 0.037093 -0.005903 456584.000000 0 0 1
-18.892964 -20.185015 0.361153 27.649762 0.818450 1.557734 0.053395 -0.005407 323956.000000 0 0 1
-18.413064 -20.914715 -0.888247 27.879297 0.848923 1.602662 0.052231 -0.000756 -105831.000000 0 0 1
-18.064864 -20.006115 -1.882647 27.020886 0.836344 1.640527 0.056986 -0.002768 -44606.700000 0 0 1
-17.674564 -20.718015 -3.066947 27.404972 0.864505 1.682943 0.050564 0.002831 211986.000000 0 0 1
-17.257164 -19.711415 -4.249947 26.540754 0.851688 1.731618 0.058372 0.007412 185440.000000 0 0 1
-15.937764 -19.251615 -4.105947 25.327767 0.879293 1.733627 0.080876 -0.006459 -300257.000000 0 0 1
-15.373964 -18.726015 -5.281847 24.797587 0.883384 1.785439 0.084648 0.001636 212014.000000 0 1 0
-13.890864 -18.299515 -5.204047 23.556537 0.921507 1.793551 0.094555 -0.014062 851969.000000 0 1 0
-12.909864 -19.356815 -5.331947 23.870076 0.982603 1.796071 0.074648 -0.015748 1033440.000000 0 1 0
-11.792464 -19.018215 -6.174947 23.213890 1.015756 1.840040 0.070644 -0.027299 499930.000000 0 1 0
-10.676264 -20.044315 -6.207947 23.543487 1.081384 1.837632 0.065877 -0.029151 -132769.000000 0 1 0
-11.018364 -21.178215 -6.942847 24.862105 1.091065 1.853814 0.054817 -0.021314 124717.000000 0 1 0
-9.847664 -21.943415 -7.235547 25.116590 1.148961 1.863016 0.050197 -0.011363 431575.000000 0 0 1
-10.152764 -23.181915 -8.186847 26.598952 1.157999 1.883664 0.046609 -0.004466 -387960.000000 0 0 1
-10.611464 -22.791415 -9.472647 26.866015 1.135053 1.931132 0.040902 -0.008333 -19077.900000 0 0 1
-10.466764 -23.809815 -10.416347 28.017150 1.156626 1.951727 0.059690 -0.004947 258663.000000 0 0 1
-11.302564 -23.482715 -11.758547 28.591070 1.122209 1.994639 0.072104 -0.006575 454876.000000 0 0 1
-10.680664 -22.495915 -12.550147 27.886358 1.127526 2.037613 0.050471 0.000011 -512933.000000 0 0 1
-11.579764 -21.950515 -13.476647 28.240681 1.085361 2.068270 0.046785 -0.005783 -336222.000000 0 0 1
-11.019664 -20.790315 -14.343847 27.557506 1.083408 2.118240 0.028285 0.000649 -169086.000000 0 0 1
-10.742964 -19.751715 -13.440947 26.195430 1.072648 2.109592 0.028053 0.000169 -338292.000000 0 0 1
-10.404264 -18.533515 -14.144647 25.530588 1.059261 2.157991 0.013807 0.016368 56906.300000 0 0 1
-10.137464 -17.441615 -13.058147 24.031090 1.044298 2.145261 0.027190 -0.002046 191310.000000 0 1 0
-11.294064 -17.039915 -12.323547 23.870157 0.985475 2.113291 0.037956 -0.016396 179394.000000 0 1 0
-11.076264 -15.894115 -11.473947 22.515727 0.962169 2.105513 0.055415 -0.029804 234067.000000 0 1 0
-10.720264 -14.527815 -12.171047 21.774201 0.935076 2.163935 0.054523 -0.022765 -196040.000000 0 1 0
-11.856864 -14.047815 -12.812147 22.407084 0.869775 2.179482 0.052919 -0.004753 -462900.000000 0 1 0
-11.627964 -13.806615 -14.212147 22.974274 0.870847 2.237770 0.041770 -0.005816 -90355.600000 0 1 0
-12.944564 -13.248915 -14.831547 23.729102 0.797017 2.245974 0.046023 -0.001159 -206225.000000 0 1 0
-13.250364 -11.986515 -14.355347 22.919962 0.735360 2.247626 0.055230 -0.002045 -120524.000000 0 1 0
-14.220864 -11.344415 -15.163147 23.682266 0.673355 2.265652 0.042434 -0.002361 -118588.000000 0 1 0
-14.513264 -9.935315 -14.590547 22.852338 0.600294 2.263306 0.052202 -0.005661 666949.000000 0 1 0
-13.435864 -8.952915 -14.587047 21.759114 0.587780 2.305528 0.047052 -0.001042 946496.000000 0 1 0
-13.363164 -8.103415 -15.710447 22.159820 0.545112 2.358820 0.039649 -0.002182 221021.000000 0 1 0
-12.037464 -7.299915 -15.594147 21.008729 0.545136 2.407248 0.024951 0.000135 197546.000000 0 1 0
-10.872864 -8.034115 -15.828947 20.816381 0.636368 2.434738 0.021957 0.010300 -179192.000000 0 1 0
-9.684664 -7.292415 -15.656747 19.801660 0.645409 2.482713 0.009260 0.019054 253505.000000 0 1 0
11.149536 21.872785 16.394653 29.521442 1.099383 0.982016 0.080612 -0.016628 -349506.000000 0 0 1
12.148436 22.103785 17.349753 30.613326 1.068253 0.968254 0.086215 -0.033321 -164966.000000 0 0 1
12.678436 20.858385 17.849953 30.239640 1.024636 0.939387 0.068217 -0.021331 -154063.000000 0 0 1
13.860036 21.030885 18.813853 31.438190 0.988098 0.929244 0.072006 -0.035425 -381926.000000 0 0 1
15.060536 21.248085 18.131653 31.734173 0.954192 0.962634 0.060243 -0.020872 -119289.000000 0 0 1
16.208036 21.099385 18.961853 32.671645 0.915764 0.951605 0.052886 -0.028016 -143324.000000 0 0 1
17.523036 21.470085 18.322253 33.222377 0.886279 0.986631 0.049325 -0.016923 -1644360.000000 0 0 1
17.802736 22.847585 18.477853 34.356668 0.908870 1.002942 0.052059 -0.018834 108476.000000 0 0 1
19.013736 23.275685 17.865653 34.963713 0.885840 1.034475 0.040109 -0.010993 1647330.000000 0 0 1
20.363636 22.792985 18.579253 35.768513 0.841630 1.024612 0.039837 -0.009729 503643.000000 0 0 1
20.525536 21.392985 18.531253 34.962334 0.806089 1.012155 0.036266 -0.003469 217301.000000 0 0 1
21.801836 21.089285 19.111253 35.851332 0.768787 1.008572 0.051758 -0.004752 586299.000000 0 0 1
22.070236 19.586485 18.771453 34.972749 0.725844 1.004222 0.045644 -0.003598 -53213.200000 0 0 1
22.131636 19.444685 17.346453 34.187783 0.720861 1.038646 0.017265 -0.006924 -21596.400000 0 0 1
21.717236 18.184085 16.909053 32.988110 0.697081 1.032609 0.028988 -0.002971 -50041.600000 0 0 1
22.477836 16.849085 17.337853 33.011300 0.643237 1.017835 0.037559 -0.017757 1259120.000000 0 0 1
23.768636 16.715785 16.684553 33.507310 0.612918 1.049577 0.045062 -0.031026 985544.000000 0 0 1
24.481836 15.634485 17.238653 33.778226 0.568331 1.035207 0.027181 -0.025236 9660.440000 0 0 1
25.983536 15.611385 16.825853 34.669422 0.541021 1.064064 0.107668 -0.044804 -1136550.000000 0 0 1
26.660736 16.641085 17.464853 35.954717 0.558009 1.063580 0.084702 -0.039277 -375377.000000 0 0 1
27.732936 16.186385 18.225353 36.922599 0.528312 1.054561 0.070988 -0.042674 -614753.000000 0 0 1
28.945536 15.507385 17.569353 37.242519 0.491832 1.079516 0.070793 -0.060557 -949207.000000 0 0 1
29.724936 16.336585 16.661053 37.789503 0.502530 1.114205 0.112127 -0.040216 1174910.000000 0 0 1
30.829036 15.721585 15.970053 38.113518 0.471584 1.138438 0.109313 -0.038404 939732.000000 0 0 1
30.416036 14.989085 14.616053 36.924747 0.457873 1.163821 0.069832 -0.027477 -106404.000000 0 0 1
30.160036 15.915485 13.584853 36.708019 0.485562 1.191703 0.078164 -0.000458 -126330.000000 0 0 1
29.316136 15.349185 12.603353 35.410137 0.482329 1.206893 0.062517 -0.004734 -278244.000000 0 0 1
27.912036 15.949385 12.536553 34.505504 0.519137 1.198967 0.057668 -0.010779 -1186990.000000 0 0 1
27.747236 17.265885 12.025653 34.822927 0.556624 1.218198 0.032656 0.005953 361949.000000 0 0 1
28.373736 18.394585 12.693653 36.118672 0.575177 1.211684 0.055884 -0.005249 4786.860000 0 0 1
27.845536 18.591885 14.154953 36.350994 0.588703 1.170820 0.057624 -0.009054 -44960.300000 0 0 1
26.554236 19.165185 14.122553 35.663402 0.625166 1.163644 0.052077 0.004954 -39828.500000 0 0 1
25.949136 19.113785 15.401953 35.719947 0.634861 1.124989 0.037776 -0.008199 -95553.900000 0 0 1
26.535636 19.953785 16.582653 37.111695 0.644756 1.107577 0.048692 -0.027876 -404573.000000 0 0 1
26.483736 21.370185 16.416753 37.783368 0.678945 1.121317 0.033909 -0.012889 997390.000000 0 0 1
25.222736 21.937785 16.852153 37.435917 0.715856 1.103852 0.023612 -0.002346 852222.000000 0 0 1
25.115236 23.425185 16.597053 38.144155 0.750595 1.120632 0.031771 0.004956 -35621.700000 0 0 1
25.006936 23.804185 15.236553 37.737761 0.760762 1.155186 0.061797 -0.010836 90996.500000 0 0 1
24.747236 25.180085 15.070253 38.387171 0.794068 1.167355 0.069460 -0.014646 -490967.000000 0 0 1
24.663136 25.695185 13.595053 38.122674 0.805889 1.206156 0.065173 -0.008584 902758.000000 0 0 1
23.569536 25.129085 12.794053 36.751622 0.817412 1.215229 0.062856 -0.000854 1255770.000000 0 0 1
23.314336 25.763885 11.540753 36.613181 0.835268 1.250121 0.052640 -0.014233 2795.790000 0 0 1
22.521336 24.781485 10.628953 35.132709 0.833142 1.263443 0.063317 -0.018941 -1242760.000000 0 0 1
21.189536 24.649085 10.984053 34.310687 0.860728 1.244924 0.062866 -0.014231 -903479.000000 0 0 1
20.656736 23.341385 11.114253 33.091504 0.846340 1.228274 0.074250 -0.015101 25384.000000 0 0 1
20.486936 22.468785 9.858953 31.964978 0.831503 1.257254 0.094513 -0.024750 -709402.000000 0 0 1
19.389736 22.621385 9.009953 31.126648 0.862171 1.277133 0.104882 -0.030238 -33866.800000 0 0 1
19.763736 23.513885 7.925553 31.722586 0.871836 1.318282 0.092890 -0.024580 -170131.000000 0 0 1
18.594436 23.898785 7.022053 31.083987 0.909584 1.342924 0.081005 -0.019098 -775818.000000 0 0 1
18.189736 22.808585 6.173853 29.819700 0.897585 1.362249 0.088881 -0.012458 468525.000000 0 0 1
17.472936 23.147985 5.003053 29.430652 0.924207 1.399972 0.096157 -0.017422 182481.000000 0 0 1
16.023736 23.704085 5.126553 29.067599 0.976367 1.393502 0.081946 -0.013952 6152.480000 0 0 1
16.026036 25.135685 5.284553 30.274792 1.003201 1.395345 0.086417 -0.026031 -431851.000000 0 0 1
14.765036 25.590685 5.630353 30.076408 1.047483 1.382484 0.073902 -0.026103 -779197.000000 0 0 1
14.522036 27.068985 5.407853 31.190774 1.078390 1.396536 0.061331 -0.024353 -282262.000000 0 0 1
14.197636 27.442785 4.092053 31.167679 1.093362 1.439125 0.052116 -0.014397 392602.000000 0 0 1
14.135936 28.816785 3.876453 32.330461 1.114741 1.450606 0.053362 -0.019641 -239897.000000 0 0 1
13.489736 29.057385 2.470553 32.131110 1.136160 1.493831 0.054628 -0.018646 -131798.000000 0 0 1
14.186936 28.603085 1.300953 31.954626 1.110359 1.530073 0.080619 -0.021818 174533.000000 0 0 1
13.845536 27.276085 0.956553 30.603900 1.101082 1.539535 0.063489 -0.012770 78510.300000 0 0 1
14.811436 26.665285 -0.096747 30.502876 1.063773 1.573968 0.057695 -0.015398 232427.000000 0 0 1
14.717436 27.215485 -1.427447 30.972943 1.075064 1.616900 0.039311 -0.004300 -415993.000000 0 0 1
15.763336 26.654985 -2.160947 31.042563 1.036736 1.640465 0.043998 -0.000299 -102419.000000 0 0 1
16.043236 27.280385 -3.561947 31.847956 1.039183 1.682873 0.047506 -0.013680 -96096.700000 0 0 1
15.051036 26.821685 -4.460147 31.077796 1.059432 1.714809 0.069237 -0.021053 -89634.400000 0 0 1
15.386536 27.175285 -5.773347 31.758041 1.055604 1.753604 0.070793 -0.017978 521349.000000 0 0 1
14.169636 27.107685 -6.754247 31.324512 1.089141 1.788125 0.081662 -0.035538 609760.000000 0 0 1
13.809036 25.768585 -7.069147 30.077937 1.078853 1.808043 0.052908 -0.027294 -102906.000000 0 0 1
12.643436 25.898485 -7.863047 29.873325 1.116640 1.837147 0.039392 -0.036480 61294.000000 0 0 1
12.169036 24.550285 -8.407247 28.661538 1.110612 1.868503 0.044884 -0.015233 -525328.000000 0 0 1
13.021436 24.025985 -9.379347 28.892524 1.074137 1.901416 0.038930 -0.020087 23438.400000 0 0 1
12.663236 22.699385 -9.666547 27.731963 1.061933 1.926842 0.043741 -0.010425 -164516.000000 0 0 1
12.740136 22.218985 -11.099147 27.913893 1.050173 1.979719 0.044716 -0.012695 -63604.400000 0 0 1
12.673936 20.818385 -11.188647 26.818271 1.023942 2.001161 0.062293 -0.011880 186505.000000 0 0 1
12.307836 20.380585 -12.495747 26.888562 1.027514 2.054119 0.049888 -0.013322 277551.000000 0 0 1
13.563936 19.872685 -13.237947 27.461741 0.971884 2.073790 0.046741 0.004176 121412.000000 0 0 1
14.612836 20.814885 -13.302147 28.700898 0.958704 2.052709 0.031546 -0.003802 -298704.000000 0 0 1
15.759736 20.213285 -13.861647 29.139174 0.908574 2.066562 0.029200 0.006168 -2071.250000 0 0 1
17.041836 21.034685 -13.627547 30.308286 0.889880 2.037149 0.033097 0.002887 -346605.000000 0 0 1
17.154936 22.321085 -14.255647 31.555446 0.915527 2.039539 0.034651 -0.002819 475935.000000 0 0 1
16.136536 23.331485 -14.040947 31.652712 0.965716 2.030401 0.032221 -0.003520 389960.000000 0 0 1
16.543236 24.676885 -14.635847 33.118504 0.980218 2.028538 0.038983 -0.001621 1533.750000 0 0 1
16.794136 24.725785 -16.082947 33.942137 0.974156 2.064436 0.028926 -0.007276 -373424.000000 0 0 1
15.671036 24.865885 -16.921447 33.915026 1.008450 2.093168 0.013231 -0.006021 -543037.000000 0 0 1
15.895236 24.907585 -18.445147 34.832022 1.002784 2.128861 0.007402 -0.002431 27841.800000 0 0 1
16.307736 23.644985 -18.964047 34.418929 0.967023 2.154331 0.015347 0.003593 -102375.000000 0 0 1
16.034136 23.610685 -20.303547 35.025591 0.974232 2.189129 0.017205 0.005600 -209976.000000 0 0 1
16.345836 22.214185 -20.906147 34.608140 0.936427 2.219409 0.022297 0.008695 -221653.000000 0 0 1
15.458336 21.162585 -20.642147 33.360357 0.939921 2.237963 0.017023 0.008975 -198851.000000 0 0 1
15.849836 20.059685 -21.422547 33.354667 0.902100 2.268246 0.025928 0.009349 113731.000000 0 0 1
14.817236 18.901185 -21.418947 32.180376 0.905930 2.299081 0.021679 0.009887 -985615.000000 0 0 1
14.491236 18.171285 -20.257947 30.831412 0.897594 2.287702 0.027245 0.005796 54886.200000 0 0 1
13.704936 17.049385 -20.618847 30.060666 0.893720 2.326647 0.019983 0.000777 -402263.000000 0 0 1
12.254036 17.329085 -21.003647 29.859869 0.955297 2.350976 0.030435 -0.003626 -979255.000000 0 0 1
11.315636 17.228785 -19.918347 28.663831 0.989665 2.339070 0.032384 -0.000116 -458678.000000 0 0 1
10.015636 17.493285 -20.318647 28.621241 1.050811 2.360174 0.035174 -0.004380 -378034.000000 0 0 1
8.999536 17.085685 -19.191247 27.225287 1.085994 2.353086 0.048836 -0.017855 -75677.400000 0 0 1
8.843236 15.702785 -19.012847 26.196730 1.057903 2.382952 0.059941 -0.033534 -318553.000000 0 0 1
7.571536 15.196185 -18.723847 25.275179 1.108548 2.405057 0.062732 -0.028664 -238893.000000 0 0 1
7.065236 15.310585 -17.288647 24.150132 1.138453 2.368683 0.068912 -0.035008 -87515.000000 0 1 0
6.817036 16.662185 -16.854647 24.661296 1.182442 2.323268 0.089046 -0.032138 -205839.000000 0 1 0
6.605136 16.669185 -15.438247 23.660706 1.193528 2.281655 0.071677 -0.041850 -100680.000000 0 1 0
6.227636 18.120685 -15.076847 24.381427 1.239767 2.237469 0.066123 -0.033220 769699.000000 0 1 0
7.330436 19.068985 -15.000847 25.345353 1.203796 2.204158 0.063929 -0.024909 819888.000000 0 0 1
7.887736 19.530585 -16.240847 26.597467 1.186962 2.227635 0.077013 -0.017024 1179100.000000 0 0 1
9.145436 20.517185 -16.136647 27.658367 1.151486 2.193739 0.055898 -0.004308 1188460.000000 0 0 1
8.828236 21.796685 -15.597547 28.219084 1.185964 2.156433 0.050172 -0.016793 -37600.400000 0 0 1
8.667136 21.687985 -14.175647 27.320998 1.190610 2.116308 0.044217 -0.014701 -150477.000000 0 0 1
8.451436 23.020185 -13.389247 27.939714 1.218942 2.070561 0.041231 -0.017225 143349.000000 0 0 1
7.064336 23.333285 -13.452847 27.844679 1.276811 2.075033 0.033859 -0.015909 300642.000000 0 0 1
6.624836 24.315285 -12.529747 28.144557 1.304797 2.032186 0.020173 -0.013605 -66319.400000 0 0 1
6.182336 23.806085 -11.123547 26.994153 1.316713 1.995524 0.008947 -0.006394 -451430.000000 0 0 1
7.203236 23.452685 -10.203047 26.570985 1.272803 1.964912 0.011830 -0.001753 -220510.000000 0 0 1
6.695536 22.902485 -9.031847 25.513296 1.286373 1.932647 0.026503 -0.013110 83701.200000 0 0 1
7.639936 22.938285 -7.788947 25.400812 1.249287 1.882459 0.018866 -0.017406 173347.000000 0 0 1
7.938036 24.273785 -7.381147 26.584025 1.254738 1.852147 0.027589 -0.013150 534432.000000 0 0 1
8.883536 24.282485 -6.301947 26.613358 1.220079 1.809863 0.034520 -0.016349 227431.000000 0 0 1
8.954236 25.707685 -5.724747 27.817911 1.235628 1.778071 0.026274 -0.015211 87540.600000 0 0 1
9.665836 26.700085 -6.459647 29.121298 1.223458 1.794476 0.033085 -0.021262 106884.000000 0 0 1
9.661136 27.906085 -5.735547 30.082946 1.237509 1.762628 0.035150 -0.019818 173962.000000 0 0 1
9.931936 29.114085 -6.604847 31.462634 1.242038 1.782296 0.033231 -0.014834 -683130.000000 0 0 1
11.190836 29.100585 -7.162147 31.990236 1.203673 1.796596 0.037167 -0.021447 -1068770.000000 0 0 1
11.454536 30.319585 -7.809247 33.338686 1.209579 1.807233 0.028107 -0.014773 335736.000000 0 0 1
12.791636 30.473585 -8.588347 34.147109 1.173371 1.825037 0.054861 -0.027874 595459.000000 0 0 1
13.945336 30.475185 -7.771947 34.403670 1.141643 1.798668 0.045039 -0.022794 -954299.000000 0 0 1
15.021236 30.983185 -8.474447 35.459999 1.119367 1.812118 0.052940 -0.021873 -746763.000000 0 0 1
16.221336 31.287885 -7.571447 36.047057 1.092495 1.782416 0.054102 -0.024412 -226242.000000 0 0 1
17.011136 30.143785 -7.343747 35.383007 1.057015 1.779866 0.051104 -0.018852 -1002950.000000 0 0 1
18.064536 30.460785 -6.523247 36.010272 1.035508 1.752952 0.046037 -0.012302 -34549.900000 0 0 1
19.066536 29.267985 -6.219947 35.480072 0.993405 1.747015 0.043933 -0.007936 436112.000000 0 0 1
18.552836 28.426485 -5.209347 34.342540 0.992553 1.723072 0.045276 -0.011641 720331.000000 0 0 1
19.516036 27.383685 -4.890047 33.980207 0.951605 1.715206 0.044553 -0.007360 531744.000000 0 0 1
19.697136 26.175485 -5.895447 33.284974 0.925695 1.748856 0.043737 0.005392 -177117.000000 0 0 1
20.217336 26.688885 -7.146247 34.236035 0.922500 1.781077 0.037980 0.008516 353913.000000 0 0 1
19.929536 25.743485 -8.159247 33.563176 0.912012 1.816358 0.032922 0.002937 -354041.000000 0 0 1
20.570836 26.158385 -9.567247 34.625895 0.904406 1.850742 0.031668 -0.002430 498020.000000 0 0 1
21.986636 26.185085 -9.616147 35.518180 0.872334 1.844957 0.047010 -0.004261 374376.000000 0 0 1
22.570136 24.855085 -9.696947 34.945917 0.833541 1.851971 0.053995 -0.003849 -749099.000000 0 0 1
24.071036 24.860285 -9.454547 35.872511 0.801527 1.837507 0.044781 0.001050 -170374.000000 0 0 1
24.962436 25.184785 -10.509547 36.984418 0.789832 1.858928 0.049300 0.005306 350548.000000 0 0 1
26.320936 25.260985 -10.136447 37.863658 0.764852 1.841811 0.039832 0.007335 877884.000000 0 0 1
27.386336 25.179985 -11.301647 38.881490 0.743450 1.865722 0.038260 0.013739 191635.000000 0 0 1
27.408536 26.238285 -12.211747 39.859782 0.763588 1.882171 0.043325 0.010737 -507282.000000 0 0 1
28.481136 26.105185 -13.073947 40.787055 0.741899 1.897097 0.047826 0.003612 -436552.000000 0 0 1
28.329136 27.011285 -14.311747 41.677039 0.761589 1.921327 0.060403 0.003648 -45351.400000 0 0 1
28.527836 28.391585 -14.058847 42.632977 0.783004 1.906851 0.042565 0.009700 151029.000000 0 0 1
28.256936 29.109585 -15.254247 43.341832 0.800260 1.930452 0.045968 0.011847 -311954.000000 0 0 1
28.314636 30.655885 -15.199047 44.412982 0.825079 1.920076 0.035492 0.010609 -384557.000000 0 0 1
29.568536 31.241985 -15.018747 45.562295 0.812910 1.906709 0.023001 0.004663 -449627.000000 0 0 1
29.592636 32.630185 -15.319147 46.638282 0.834177 1.905477 0.007064 -0.003332 -82376.400000 0 0 1
15.819936 -31.998617 -27.722884 45.196683 -1.111643 2.231133 0.081598 -0.035996 -47775.600000 0 0 1
16.826036 -32.910717 -27.333324 45.971093 -1.098179 2.207535 0.068428 -0.020448 134364.000000 0 0 1
17.298836 -32.621617 -26.013314 45.167601 -1.083213 2.184536 0.071551 -0.021345 162819.000000 0 0 1
18.563936 -33.441017 -25.625884 46.039193 -1.064027 2.161096 0.035045 -0.025140 1559130.000000 0 0 1
19.900236 -33.171217 -26.121014 46.676080 -1.030432 2.164727 0.056120 -0.022385 1648600.000000 0 0 1
20.087736 -33.478717 -27.508584 47.760484 -1.030366 2.184586 0.069534 -0.018950 -1065280.000000 0 0 1
21.524936 -33.189417 -27.900104 48.407397 -0.995442 2.185064 0.073264 -0.013744 -637382.000000 0 0 1
21.787636 -31.850117 -28.179814 47.783187 -0.970843 2.201537 0.069520 -0.024264 258203.000000 0 0 1
23.158736 -31.630217 -27.894434 48.113378 -0.938804 2.189236 0.033964 -0.013694 -5862.610000 0 0 1
23.669536 -30.268117 -28.415884 47.789835 -0.907130 2.207566 0.014926 -0.001557 -168496.000000 0 0 1
23.823536 -30.430617 -29.814304 48.810614 -0.906582 2.227887 0.013945 -0.009209 170696.000000 0 0 1
24.462336 -29.339317 -30.471984 48.864540 -0.875799 2.244137 0.019115 -0.022318 212443.000000 0 0 1
24.762536 -29.414917 -32.005204 50.027529 -0.871061 2.264972 0.027527 -0.011911 -806.686000 0 0 1
25.913236 -30.195417 -32.235434 51.209201 -0.861570 2.251687 0.041984 -0.020701 -93523.700000 0 0 1
25.979236 -30.722817 -33.561084 52.394261 -0.868862 2.266009 0.034959 -0.014618 133118.000000 0 0 1
27.365936 -31.390117 -33.764994 53.612580 -0.853781 2.252087 0.028140 -0.015684 813378.000000 0 0 1
28.505436 -30.531417 -33.844134 53.760141 -0.819702 2.251757 0.036056 -0.019100 261230.000000 0 0 1
29.671236 -31.311717 -34.077781 54.973639 -0.812292 2.239403 0.032913 -0.009216 817979.000000 0 0 1
30.974236 -30.444417 -33.967474 55.136695 -0.776772 2.234526 0.045474 -0.016159 447725.000000 0 0 1
31.086036 -29.507417 33.430529 54.356504 -0.759351 0.908381 0.050516 -0.013918 244880.000000 0 0 1
32.385736 -28.930717 33.384367 54.775343 -0.729110 0.915394 0.062932 -0.017918 310199.000000 0 0 1
32.490836 -27.867617 32.276013 53.609696 -0.708951 0.924723 0.060295 -0.018170 -113157.000000 0 0 1
33.770736 -27.472217 31.824073 53.925476 -0.682914 0.939553 0.022467 -0.014913 94673.900000 0 0 1
33.636836 -26.510717 30.767533 52.734201 -0.667471 0.947832 0.049967 -0.014030 -114782.000000 0 0 1
34.087936 -27.014917 29.332073 52.461068 -0.670155 0.977471 0.036302 -0.007729 44860.800000 0 0 1
33.305036 -28.066917 28.787903 52.208434 -0.700254 0.986751 0.033623 -0.010982 -340467.000000 0 0 1
32.179236 -27.532417 28.171893 50.864455 -0.707734 0.983801 0.042186 -0.002972 -600326.000000 0 0 1
31.639936 -28.421917 27.010623 50.383179 -0.731871 1.004981 0.036330 -0.008639 242893.000000 0 0 1
30.452936 -27.908217 26.422943 49.034904 -0.741823 1.001713 0.035891 0.003276 -32814.100000 0 0 1
30.017336 -28.754417 25.359623 48.692581 -0.763913 1.022996 0.033917 0.005162 900436.000000 0 0 1
28.618236 -28.327717 24.774563 47.278346 -0.780297 1.019238 0.033573 0.006081 1372010.000000 0 0 1
27.548536 -28.330817 25.719093 47.149006 -0.799397 0.993828 0.044332 0.004970 293798.000000 0 0 1
26.256436 -28.234817 25.180253 46.050521 -0.821689 0.992263 0.047651 0.004259 477865.000000 0 0 1
25.073736 -28.093117 26.175733 45.859399 -0.842128 0.963338 0.052701 0.002368 30538.000000 0 0 1
25.026136 -27.007017 27.081063 45.706350 -0.823449 0.936636 0.049527 -0.003584 -220635.000000 0 0 1
23.812536 -26.938417 27.792413 45.443739 -0.846913 0.912742 0.052021 -0.011540 -280858.000000 0 0 1
23.599936 -25.659817 28.615673 45.102549 -0.827191 0.883489 0.050603 -0.001058 84244.100000 0 0 1
22.527836 -25.734417 29.563823 45.208221 -0.851741 0.858005 0.060394 -0.001945 339550.000000 0 0 1
22.488436 -24.613417 30.468963 45.165338 -0.830482 0.830361 0.060005 -0.003174 -232821.000000 0 0 1
21.893636 -23.229117 29.973053 43.787065 -0.814986 0.816853 0.064618 -0.011455 6021.450000 0 0 1
22.757836 -22.605817 28.997273 43.240998 -0.782047 0.835783 0.071850 -0.011063 397772.000000 0 0 1
22.532036 -21.289517 28.590633 42.170612 -0.757052 0.825792 0.084454 -0.007435 -159025.000000 0 0 1
23.276336 -20.261317 29.485393 42.681345 -0.716258 0.808165 0.086343 -0.006921 -56214.700000 0 0 1
22.810036 -20.226217 30.803123 43.338551 -0.725432 0.780224 0.078119 -0.002672 351190.000000 0 0 1
23.686036 -19.370317 31.526453 43.933526 -0.685498 0.770454 0.074639 -0.007312 39444.200000 0 0 1
23.260336 -19.022117 32.983883 44.618614 -0.685496 0.738855 0.090881 -0.012514 -263963.000000 0 0 1
23.336136 -20.091417 33.898540 45.796848 -0.710821 0.737438 0.058846 -0.006686 261730.000000 0 0 1
22.600336 -19.746317 -33.433634 44.927721 -0.718103 2.410080 0.062801 -0.005157 -11898.600000 0 0 1
22.348236 -21.009917 -32.490214 44.681923 -0.754541 2.384949 0.038426 0.000855 -346130.000000 0 0 1
23.486536 -21.497117 -31.850914 45.035810 -0.741202 2.356376 0.033169 0.003451 -350953.000000 0 0 1
23.200936 -22.602617 -31.005684 44.838757 -0.772336 2.334350 0.018239 0.002194 -82412.500000 0 0 1
24.323336 -22.856417 -29.989034 44.870733 -0.754316 2.302775 0.012291 -0.001979 367841.000000 0 0 1
25.556136 -23.357317 -30.510294 46.147138 -0.740475 2.293150 0.032411 -0.000955 -117913.000000 0 0 1
26.395236 -23.710617 -29.455614 46.114369 -0.731870 2.263671 0.029880 -0.012557 316438.000000 0 0 1
27.694036 -24.511017 -29.864814 47.535847 -0.724502 2.250109 0.035232 -0.006398 799662.000000 0 0 1
28.654636 -23.756117 -30.596644 48.182942 -0.692205 2.258818 0.041746 -0.003952 301725.000000 0 0 1
28.338136 -23.597217 -31.997044 48.823042 -0.694365 2.285466 0.046484 -0.008525 -236295.000000 0 0 1
28.763036 -24.846617 -32.828834 50.223490 -0.712473 2.283200 0.050561 -0.024109 -113765.000000 0 0 1
27.871136 -25.947917 -32.750074 50.226108 -0.749678 2.281085 0.061360 -0.023987 -115788.000000 0 0 1
28.359036 -27.202217 -33.182964 51.432525 -0.764581 2.272048 0.055293 -0.024908 -144802.000000 0 0 1
28.164836 -27.488017 33.801368 51.878527 -0.773237 0.861173 0.053320 -0.010949 -2658.740000 0 0 1
28.768736 -26.534317 32.973526 51.175811 -0.745017 0.870664 0.042247 -0.016732 -154038.000000 0 0 1
28.657236 -26.980817 31.634493 50.496959 -0.755276 0.893789 0.034931 -0.003905 -43658.300000 0 0 1
29.457736 -26.126317 30.591163 49.861427 -0.725535 0.910281 0.042835 -0.016423 -162569.000000 0 0 1
29.203536 -24.744317 30.460413 48.917936 -0.702928 0.898628 0.030819 -0.011727 -242276.000000 0 0 1
29.703736 -23.974817 31.513973 49.499841 -0.679074 0.880653 0.035265 -0.011694 -942935.000000 0 0 1
30.382736 -22.639217 31.118713 49.030797 -0.640380 0.883206 0.028470 -0.005561 472033.000000 0 0 1
31.676736 -22.714417 30.568013 49.535480 -0.622090 0.905753 0.024923 -0.002648 764052.000000 0 0 1
32.742736 -23.165617 31.451833 50.970093 -0.615744 0.905790 0.025866 -0.008118 1631230.000000 0 0 1
34.204536 -22.655617 31.036353 51.443974 -0.585013 0.923159 0.022872 -0.013620 1481430.000000 0 0 1
34.699136 -23.225717 29.793263 51.294274 -0.589855 0.951048 0.017568 -0.014973 -255855.000000 0 0 1
35.809536 -22.458117 29.437873 51.509982 -0.560147 0.962466 0.012737 -0.018429 -393466.000000 0 0 1
36.212136 -22.668617 27.969923 51.063701 -0.559315 0.991129 0.026218 -0.018461 -254076.000000 0 0 1
-35.823911 -23.892017 27.683023 51.191121 0.588184 0.999435 0.022800 -0.010121 75711.700000 0 0 1
-35.524311 -24.023517 26.320073 50.317515 0.594612 1.020336 0.015319 -0.000476 -265631.000000 0 0 1
-35.351711 -25.474017 25.864733 50.672018 0.624410 1.035107 0.009357 -0.010411 -851895.000000 0 0 1
36.144436 -26.214617 26.046943 51.692066 -0.627488 1.042704 0.021359 -0.003052 -713514.000000 0 0 1
36.039636 -27.532617 25.568393 52.063837 -0.652372 1.057448 0.025400 0.007715 218935.000000 0 0 1
-35.749111 -28.558417 26.380373 52.815776 0.674043 1.047799 0.032969 -0.008514 -321389.000000 0 0 1
-35.728211 -29.911717 25.842393 53.282691 0.697017 1.064427 0.043807 -0.002757 790957.000000 0 0 1
-34.705311 -30.771917 26.448703 53.393852 0.725398 1.052557 0.048738 -0.013345 1655290.000000 0 0 1
-33.204811 -30.347717 26.483873 52.200948 0.740472 1.038696 0.053263 -0.008485 -93975.800000 0 0 1
-32.619011 -30.237617 25.221713 51.131675 0.747530 1.054952 0.041407 -0.004490 -455907.000000 0 0 1
-31.265511 -29.865517 25.244423 50.067576 0.762501 1.042333 0.020529 -0.005867 -269308.000000 0 0 1
-30.777611 -29.658717 23.762163 48.903387 0.766887 1.063404 0.016066 0.001505 -281613.000000 0 0 1
-30.493811 -30.838217 23.056053 49.116695 0.791014 1.082170 0.019512 0.007800 441386.000000 0 0 1
-30.000211 -30.641817 21.697653 48.059565 0.795978 1.102380 0.016621 0.005588 -143863.000000 0 0 1
-29.832811 -31.964617 20.893453 48.458949 0.819881 1.125021 0.021958 0.008369 274241.000000 0 0 1
-28.938911 -32.970517 21.352853 48.789957 0.850427 1.117815 0.009836 0.004358 1020520.000000 0 0 1
-27.519511 -32.731217 21.250053 47.751658 0.871684 1.109609 0.019048 0.005130 1202630.000000 0 0 1
-26.690511 -34.046517 21.407053 48.268112 0.905924 1.111293 -0.000038 0.019626 -269631.000000 0 0 1
-26.913511 33.583785 20.258653 47.567013 -0.895212 1.130843 -0.010220 0.013152 50507.700000 0 0 1
-28.139511 32.875485 20.195353 47.754392 -0.862863 1.134153 0.002403 0.006763 137637.000000 0 0 1
-28.259011 31.785585 21.263453 47.550285 -0.844063 1.107188 0.009286 0.004787 -341722.000000 0 0 1
-27.471611 30.661185 21.008253 46.218442 -0.840210 1.098938 -0.000612 0.005362 -116362.000000 0 0 1
-27.684111 29.702285 22.018953 46.189502 -0.820552 1.073889 0.005108 0.001024 340040.000000 0 0 1
-26.732311 28.456985 21.747853 44.692120 -0.816638 1.062586 0.015098 -0.000915 35894.800000 0 0 1
-25.374011 28.735485 21.961953 44.180266 -0.847442 1.050544 0.008442 0.008138 -346405.000000 0 0 1
-24.570611 27.764385 21.315153 42.765778 -0.846348 1.049025 0.007723 -0.000171 119283.000000 0 0 1
-23.061911 28.025585 21.516653 42.193027 -0.882254 1.035661 0.004229 0.012761 18363.900000 0 0 1
-22.570511 28.065785 22.848953 42.651975 -0.893500 1.005452 0.014786 0.013608 -165988.000000 0 0 1
-21.329311 28.709585 22.884153 42.460149 -0.931833 1.001599 0.054718 0.004168 -328648.000000 0 0 1
-20.580811 28.824185 24.239363 42.917947 -0.950728 0.970625 0.039089 0.011246 -187067.000000 0 0 1
-19.965411 27.606185 24.664843 42.060357 -0.944654 0.944170 0.037553 0.000672 268516.000000 0 0 1
-19.713611 27.554785 26.045133 42.734548 -0.949787 0.915413 0.035257 -0.002823 -240414.000000 0 0 1
-18.314611 27.963385 26.518753 42.668726 -0.990949 0.900136 0.041202 -0.003902 -624137.000000 0 0 1
-18.233111 29.345985 26.470053 43.523521 -1.014851 0.917033 0.020865 -0.004395 1137320.000000 0 0 1
-16.946311 29.916885 26.840593 43.618974 -1.055414 0.907976 0.027504 -0.005915 1008700.000000 0 0 1
-16.799411 30.071485 28.347503 44.610485 -1.061337 0.882212 0.019044 0.000667 -302826.000000 0 0 1
-16.653911 28.813785 29.079073 44.194790 -1.046722 0.852670 0.024569 0.000133 136481.000000 0 0 1
-16.815611 29.057285 30.410823 45.298000 -1.046182 0.834767 0.020738 0.000137 -151794.000000 0 0 1
-16.762111 27.786085 31.346863 45.118297 -1.027986 0.802696 0.014914 0.003190 -588779.000000 0 0 1
-15.411511 27.491085 31.549163 44.593992 -1.059851 0.784876 0.013751 0.010697 -228535.000000 0 0 1
-15.207611 26.298585 32.325423 44.360117 -1.046510 0.754368 0.022378 0.007442 -244322.000000 0 0 1
-15.618611 26.329585 33.810303 45.610576 -1.035395 0.735818 0.018499 0.007836 -330870.000000 0 0 1
-16.980811 26.087985 34.080496 46.156377 -0.993785 0.740146 0.009752 0.000731 -434875.000000 0 0 1
-17.411911 26.952585 -33.393074 46.311056 -0.997224 2.376128 0.014019 -0.006203 1393670.000000 0 0 1
-18.857811 26.513585 -32.890854 46.264409 -0.952559 2.361619 -0.000791 -0.006450 1175600.000000 0 0 1
-19.910911 26.452385 -33.814934 47.324654 -0.925565 2.366750 0.008606 -0.009815 50987.200000 0 0 1
-20.995111 25.680385 -33.270334 46.980762 -0.885443 2.357698 0.029232 -0.013581 5522.560000 0 0 1
-22.208911 25.709585 -34.204970 48.209942 -0.858323 2.359585 0.050353 -0.027306 -701592.000000 0 0 1
-22.102711 24.938085 33.089823 46.961413 -0.845600 0.788913 0.054267 -0.023297 -128998.000000 0 0 1
-22.149911 23.561285 33.355196 46.457743 -0.816264 0.769917 0.042954 -0.018412 -419627.000000 0 0 1
-22.364111 22.760885 32.078643 45.246555 -0.794191 0.782754 0.040540 -0.012043 -1151370.000000 0 0 1
-23.666511 22.791285 31.658493 45.626819 -0.766561 0.803965 0.056311 -0.013668 -1469740.000000 0 0 1
-23.792811 22.380785 30.279033 44.540064 -0.754827 0.823285 0.080705 -0.011264 696590.000000 0 0 1
-25.267211 22.070485 29.863653 44.915210 -0.717970 0.843450 0.085296 -0.020890 593155.000000 0 0 1
-25.771911 20.931585 30.470923 45.064396 -0.682127 0.828253 0.097417 -0.020518 146758.000000 0 0 1
-27.009611 20.567585 29.862203 45.213890 -0.650815 0.849358 0.097345 -0.027288 332226.000000 0 0 1
-27.620811 19.181185 30.240783 45.225347 -0.606989 0.838379 0.118920 -0.028349 -280154.000000 0 0 1
-28.116311 19.146385 31.549433 46.394803 -0.597840 0.823005 0.114269 -0.032226 -219049.000000 0 0 1
-28.353111 17.941285 32.272403 46.554233 -0.564174 0.804847 0.087324 -0.022069 -155427.000000 0 0 1
-29.320211 16.933885 31.633543 46.336943 -0.523748 0.819365 0.067544 -0.022053 -567653.000000 0 0 1
-30.653111 17.338185 31.595823 47.313021 -0.514761 0.839542 0.058221 -0.022274 -107927.000000 0 0 1
-31.543311 16.268385 31.192993 47.250859 -0.476166 0.849768 0.062926 -0.007220 31044.300000 0 0 1
-33.027011 16.597385 31.259683 48.408929 -0.465677 0.868802 0.075212 -0.016424 -893466.000000 0 0 1
-33.501611 16.605085 32.546231 49.571604 -0.460162 0.854561 0.068552 -0.012048 1541810.000000 0 0 1
-34.940711 16.356785 32.545854 50.474056 -0.437828 0.870030 0.073743 -0.016423 1299970.000000 0 0 1
-35.490811 16.734485 33.928821 51.872975 -0.440602 0.857837 0.067471 -0.008124 -163655.000000 0 0 1
35.784336 17.056685 33.943925 52.188497 0.444796 0.862672 0.062416 -0.012577 -28590.300000 0 0 1
35.469136 17.606585 -33.279774 51.726152 0.460757 2.269707 0.048369 -0.015053 179287.000000 0 0 1
33.943836 17.721785 -33.080014 50.601709 0.481164 2.283304 0.050097 -0.017835 94038.500000 0 0 1
33.232136 16.529085 -33.014414 49.674310 0.461551 2.297778 0.057786 -0.014464 29572.800000 0 0 1
31.948536 16.611585 -32.425344 48.456750 0.479479 2.303875 0.053858 -0.016396 386849.000000 0 0 1
31.193936 15.222385 -32.360764 47.455260 0.453995 2.321183 0.063406 -0.024669 -232441.000000 0 0 1
30.516436 14.976285 -33.536274 47.751687 0.456229 2.349427 0.056259 -0.026611 -52714.500000 0 0 1
29.786736 13.760685 -33.645964 46.996351 0.432766 2.368748 0.056487 -0.025236 78598.200000 0 0 1
30.682236 12.604685 -34.150112 47.607855 0.389794 2.370746 0.061964 -0.022677 20557.600000 0 0 1
31.447736 12.117985 -33.060544 47.210224 0.367803 2.346591 0.067765 -0.012114 12422.700000 0 0 1
32.421436 11.269285 -33.644334 48.063370 0.334524 2.346193 0.076081 -0.013091 -366147.000000 0 0 1
17.758836 -20.969715 10.001406 29.242662 -0.868116 1.221737 0.037447 -0.001199 109260.000000 0 0 1
17.347236 -22.161615 10.614506 30.078755 -0.906656 1.210138 0.036070 -0.003604 -207421.000000 0 0 1
18.452536 -22.931315 10.982606 31.415902 -0.893204 1.213666 0.034612 -0.002096 -371487.000000 0 0 1
18.077236 -24.184515 11.872106 32.444169 -0.928915 1.196171 0.035458 -0.006137 -4667.850000 0 0 1
17.426836 -25.284775 11.192606 32.684688 -0.967340 1.221282 0.041769 -0.003073 1055000.000000 0 0 1
16.027336 -25.192425 11.559206 32.017948 -1.004186 1.201432 0.045445 -0.006978 673603.000000 0 0 1
15.176236 -26.213015 10.798506 32.156617 -1.045993 1.228332 0.051557 0.010631 -313539.000000 0 0 1
14.907236 -25.678025 9.501206 31.174662 -1.044805 1.261096 0.046371 0.002002 123366.000000 0 0 1
14.135236 -26.565645 8.718906 31.329821 -1.081810 1.288779 0.049749 0.010882 -46093.100000 0 0 1
14.011336 -26.044875 7.314106 30.465541 -1.077237 1.328350 0.054036 0.001309 -372696.000000 0 0 1
13.124736 -24.977415 7.309606 29.147217 -1.086986 1.317308 0.055642 -0.011916 -193083.000000 0 0 1
12.806336 -24.538315 5.994406 28.320735 -1.089789 1.357522 0.055530 0.005914 254614.000000 0 0 1
12.229736 -23.073515 6.016906 26.798445 -1.083412 1.344341 0.062948 0.003311 -7843.240000 0 0 1
11.754136 -22.503915 4.848706 25.847550 -1.089456 1.382090 0.064871 -0.001079 45848.900000 0 0 1
11.142636 -21.237715 5.096506 24.518834 -1.087614 1.361409 0.071675 -0.005739 -108618.000000 0 1 0
10.386936 -20.590915 3.951006 23.398390 -1.103601 1.401125 0.055104 -0.012169 -566847.000000 0 1 0
11.149536 -20.111215 2.886206 23.175489 -1.064586 1.445935 0.046477 -0.006170 -383546.000000 0 1 0
10.353936 -19.618215 1.823206 22.257637 -1.085179 1.488791 0.028557 0.004677 -47860.200000 0 1 0
11.173336 -19.129115 0.639306 22.162472 -1.042149 1.541946 0.035563 0.001776 -431206.000000 0 1 0
11.944436 -18.014015 0.828006 21.630068 -0.985292 1.532507 0.040011 0.001906 -509113.000000 0 1 0
12.629236 -17.734515 -0.393094 21.775333 -0.951977 1.588850 0.048875 -0.006398 -734382.000000 0 1 0
13.755436 -16.716315 -0.178494 21.648996 -0.882262 1.579041 0.046235 -0.003851 -198738.000000 0 1 0
14.744336 -17.422215 0.571806 22.831031 -0.868457 1.545749 0.051174 -0.008932 -658344.000000 0 1 0
15.858536 -16.602615 0.773306 22.972548 -0.808316 1.537128 0.041147 -0.021441 -287717.000000 0 1 0
17.037836 -17.327915 1.446106 24.344110 -0.793839 1.511359 0.029444 -0.010102 172955.000000 0 1 0
17.712036 -18.287315 0.621806 25.466227 -0.801377 1.546377 0.037892 -0.007561 -264957.000000 0 0 1
18.869836 -18.780615 1.221206 26.650957 -0.783028 1.524958 0.029501 0.003247 -50663.500000 0 0 1
19.338436 -20.066515 0.530906 27.873320 -0.803873 1.551748 0.014718 0.002470 -20135.500000 0 0 1
18.597336 -21.167615 1.043806 28.196069 -0.849945 1.533768 0.027405 0.002451 208089.000000 0 0 1
18.823736 -22.306615 0.186306 29.188230 -0.869876 1.564413 0.036463 -0.002370 -690092.000000 0 0 1
17.789836 -23.399015 0.354006 29.395875 -0.920748 1.558753 0.039597 0.003440 -394561.000000 0 0 1
17.770336 -24.164615 1.552506 30.035374 -0.936714 1.519084 0.022448 0.008901 216586.000000 0 0 1
16.634936 -25.029615 1.511906 30.091337 -0.984219 1.520531 0.030652 0.008829 324714.000000 0 0 1
16.591036 -26.038245 2.690406 30.991788 -1.003487 1.483877 0.043680 0.014796 138102.000000 0 0 1
17.580236 -27.048115 2.757906 32.377017 -0.994448 1.485512 0.035324 0.011628 371831.000000 0 0 1
18.665636 -26.694605 3.641006 32.775979 -0.960588 1.459479 0.035054 0.018656 -97914.000000 0 0 1
19.734136 -27.764325 3.645306 34.257584 -0.952877 1.464186 0.047914 0.015101 -409750.000000 0 0 1
20.424836 -28.009185 2.400106 34.748365 -0.940728 1.501670 0.052199 0.008709 -222003.000000 0 0 1
21.239636 -29.157625 2.487706 36.159064 -0.941236 1.501943 0.065893 0.002076 -369801.000000 0 0 1
20.746836 -30.566225 2.829206 37.050367 -0.974475 1.494361 0.067452 -0.003665 -538180.000000 0 0 1
20.856636 -30.937465 4.187406 37.545444 -0.977628 1.459035 0.058205 -0.002487 124111.000000 0 0 1
20.108836 -32.120355 4.482206 38.159830 -1.011445 1.453066 0.056809 -0.020591 188749.000000 0 0 1
19.756936 -32.323455 5.979206 38.352225 -1.022163 1.414255 0.068102 -0.021413 342458.000000 0 0 1
20.815036 -32.950755 6.697106 39.545786 -1.007393 1.400626 0.057213 -0.024943 452628.000000 0 0 1
20.256936 -33.537585 7.824706 39.954212 -1.027436 1.373680 0.058213 -0.023238 -116267.000000 0 0 1
21.176136 34.027637 8.678706 41.007667 1.014125 1.357548 0.054482 -0.029171 187076.000000 0 0 1
22.167536 -33.686745 9.386906 41.404232 -0.988783 1.342094 0.054616 -0.020415 341775.000000 0 0 1
23.277136 33.947180 9.615406 42.269281 0.969741 1.341308 0.067875 -0.034352 201848.000000 0 0 1
24.328436 -33.910435 10.601606 43.060242 -0.948466 1.322035 0.073465 -0.027329 -110114.000000 0 0 1
25.170536 -32.950005 10.015706 42.656454 -0.918458 1.333784 0.058979 -0.020120 -219557.000000 0 0 1
25.897436 -32.187615 10.890206 42.723721 -0.893270 1.313054 0.060448 -0.018029 -241953.000000 0 0 1
26.697436 -31.062775 10.209106 42.212260 -0.860832 1.326523 0.057559 -0.018178 -583770.000000 0 0 1
25.864136 -30.070585 9.787806 40.853332 -0.860460 1.328859 0.045803 -0.012693 -396157.000000 0 0 1
26.382136 -29.427215 8.661906 40.459939 -0.839906 1.355040 0.052542 -0.007611 -226947.000000 0 0 1
25.995236 -27.938205 8.486806 39.093752 -0.821408 1.351965 0.052397 -0.003298 -159823.000000 0 0 1
26.538236 -27.167965 9.523106 39.154384 -0.797123 1.325113 0.052188 -0.022739 16697.500000 0 0 1
26.128236 -25.825635 9.479606 37.940889 -0.779574 1.318269 0.048328 -0.011300 -253632.000000 0 0 1
26.858436 -25.009615 10.542406 38.183749 -0.749769 1.291066 0.039360 -0.026151 1320750.000000 0 0 1
28.226836 -24.732215 10.121406 38.870034 -0.719506 1.307369 0.043976 -0.019883 689293.000000 0 0 1
28.875736 -23.939115 11.063706 39.106200 -0.692199 1.283965 0.033532 -0.028583 293623.000000 0 0 1
30.338836 -23.603015 10.639506 39.884161 -0.661169 1.300767 0.046243 -0.028546 513552.000000 0 0 1
30.379336 -22.703115 9.542606 39.107503 -0.641784 1.324298 0.054074 -0.031249 182434.000000 0 0 1
31.693336 -22.695015 8.994406 40.005382 -0.621438 1.344028 0.060341 -0.027698 188597.000000 0 0 1
31.587636 -22.121615 7.578706 39.301162 -0.610944 1.376744 0.069976 -0.011336 -150818.000000 0 0 1
31.076536 -20.784315 7.560406 38.143132 -0.589485 1.371263 0.072562 -0.005230 96130.000000 0 0 1
31.353536 -20.112115 6.342406 37.785810 -0.570350 1.402146 0.069764 -0.002574 -103960.000000 0 0 1
30.946736 -18.582715 6.418506 36.663537 -0.540768 1.394824 0.085067 -0.010435 91442.700000 0 0 1
31.668436 -17.831115 7.402106 37.089482 -0.512812 1.369873 0.090623 -0.011255 160127.000000 0 0 1
31.430036 -16.414815 7.291806 36.200328 -0.481301 1.367979 0.098390 -0.014255 -124122.000000 0 0 1
32.055536 -15.609515 8.434906 36.638258 -0.453155 1.338491 0.096405 -0.031374 -86925.200000 0 0 1
33.465736 -15.521215 8.309006 37.814060 -0.434266 1.349255 0.092711 -0.027117 -50415.200000 0 0 1
33.938536 -14.905115 9.470306 38.257984 -0.413819 1.320658 0.084733 -0.033947 -343509.000000 0 0 1
35.431836 -15.041815 9.773906 39.713983 -0.401471 1.322134 0.068376 -0.040007 -182809.000000 0 0 1
36.209336 -14.078415 9.112706 39.904375 -0.370819 1.340400 0.071442 -0.029546 -858527.000000 0 0 1
-35.094211 -14.362315 9.003306 38.973571 0.388455 1.337680 0.066881 -0.035417 -483926.000000 0 0 1
-34.281811 -13.383115 8.133506 37.689577 0.372190 1.353283 0.064830 -0.027850 -361838.000000 0 0 1
-34.709811 -13.311915 6.793006 37.790514 0.366219 1.390060 0.081891 -0.027479 8588.110000 0 0 1
-33.810211 -12.619215 5.946106 36.575007 0.357224 1.407499 0.062235 -0.019742 406106.000000 0 0 1
-32.570611 -13.483215 5.502306 35.677965 0.392490 1.415957 0.026866 -0.017645 220487.000000 0 0 1
-31.618311 -13.776015 6.484206 35.093320 0.410896 1.384958 0.038578 -0.017387 -535576.000000 0 0 1
-30.706511 -14.723015 6.080106 34.592263 0.447093 1.394114 0.039266 -0.006346 -215151.000000 0 0 1
-30.055711 -15.601415 7.157206 34.611783 0.478797 1.362508 0.039829 -0.010366 561888.000000 0 0 1
-31.056111 -16.437615 7.785606 35.990177 0.486802 1.352747 0.049370 -0.019074 431465.000000 0 0 1
-30.719211 -16.952015 9.024206 36.228125 0.504253 1.319052 0.038143 -0.018433 117569.000000 0 0 1
-31.894211 -17.725515 9.689106 37.753322 0.507254 1.311250 0.024429 -0.025562 1173070.000000 0 0 1
-33.147611 -16.971715 9.800606 38.507858 0.473205 1.313456 0.042862 -0.023999 2569300.000000 0 0 1
-34.219811 -17.524815 10.648906 39.893781 0.473300 1.300589 0.072303 -0.035542 1551310.000000 0 0 1
-34.825511 -18.911815 10.227506 40.927678 0.497488 1.318227 0.073581 -0.033277 -583957.000000 0 0 1
-33.961911 -20.000015 10.582506 40.809330 0.532214 1.308483 0.070849 -0.020944 187079.000000 0 0 1
-33.629411 -20.254415 11.930406 41.030637 0.542096 1.275767 0.074457 -0.033552 191328.000000 0 0 1
-34.790011 -20.934615 12.730306 42.551894 0.541699 1.266972 0.091775 -0.049630 383218.000000 0 0 1
-34.972511 -22.290715 12.513506 43.319053 0.567451 1.277752 0.113447 -0.046274 -622197.000000 0 0 1
-36.200211 -22.526715 11.915706 44.270670 0.556642 1.298280 0.103247 -0.039364 -619312.000000 0 0 1
36.066336 -24.034915 12.049506 44.984978 -0.587824 1.299629 0.097931 -0.032183 -81433.200000 0 0 1
35.997336 -24.440615 13.379506 45.521017 -0.596463 1.272472 0.131812 -0.033093 -4576.980000 0 0 1
35.529936 -25.751495 13.535506 45.920864 -0.627166 1.271595 0.095821 -0.028277 182705.000000 0 0 1
34.198736 -25.646735 14.358806 45.094166 -0.643458 1.246736 0.096179 -0.025466 7459.220000 0 0 1
33.187536 -25.015415 13.633906 43.738620 -0.645903 1.253801 0.084925 -0.031183 286143.000000 0 0 1
32.060536 -24.613215 14.460106 42.927648 -0.654740 1.227229 0.047688 -0.017000 208259.000000 0 0 1
32.070536 -23.101515 14.958906 42.260716 -0.624243 1.208987 0.059301 -0.020700 -248381.000000 0 0 1
33.116136 -22.650415 15.795106 43.118501 -0.599886 1.195747 0.073584 -0.026979 -4612.050000 0 0 1
34.169236 -22.079615 15.032206 43.370650 -0.573688 1.216854 0.074191 -0.033386 97932.200000 0 0 1
35.279036 -21.359415 15.849006 44.181738 -0.544411 1.203897 0.082735 -0.037055 4635.050000 0 0 1
35.008236 -20.120715 16.463606 43.605849 -0.521641 1.183642 0.088798 -0.029265 -526187.000000 0 0 1
33.960736 -20.019915 17.361706 43.076181 -0.532664 1.155953 0.069126 -0.025567 -560134.000000 0 0 1
33.830736 -18.651015 17.994406 42.616636 -0.503844 1.134882 0.079386 -0.011937 -486189.000000 0 0 1
33.510936 -17.626515 17.038506 41.520929 -0.484225 1.147948 0.058334 -0.016234 199795.000000 0 0 1
33.574336 -16.307315 17.633606 41.280850 -0.452149 1.129445 0.050930 -0.010880 702662.000000 0 0 1
35.012136 -15.829715 18.079106 42.465087 -0.424616 1.131016 0.048820 -0.014756 562839.000000 0 0 1
35.317636 -16.328415 19.390506 43.473489 -0.433060 1.108471 0.044612 -0.007304 177056.000000 0 0 1
-36.208711 -15.607915 19.867906 44.152140 0.406987 1.104045 0.063441 -0.010029 23875.500000 0 0 1
-35.875911 -15.857115 21.354606 44.660366 0.416180 1.072243 0.055774 -0.001549 40423.300000 0 0 1
-35.022011 -16.963715 21.661806 44.536981 0.451068 1.062857 0.069704 0.001956 240687.000000 0 0 1
-34.706811 -16.934715 23.007406 44.952064 0.453950 1.033493 0.067879 -0.000547 262195.000000 0 0 1
-33.522711 -17.886015 23.354006 44.599229 0.490125 1.019677 0.065404 0.003474 -547048.000000 0 0 1
-33.920011 -19.270315 23.358006 45.469865 0.516641 1.031301 0.052406 -0.000080 695536.000000 0 0 1
-32.966511 -20.307115 23.664006 45.377912 0.552096 1.022203 0.029913 -0.001337 315998.000000 0 0 1
-31.731811 -20.532315 22.750106 44.114069 0.574304 1.028959 0.034650 0.008576 358710.000000 0 0 1
-30.675411 -19.609315 22.908306 43.015073 0.568782 1.009169 0.045945 0.017725 280696.000000 0 0 1
-29.517411 -19.985215 22.166206 41.976506 0.595167 1.014479 0.043110 0.003342 -344273.000000 0 0 1
-28.343211 -19.081715 22.393606 40.852454 0.592538 0.990636 0.052710 0.010794 -947818.000000 0 0 1
-27.875011 -19.092815 23.722306 41.283164 0.600549 0.958651 0.043896 0.010053 -491897.000000 0 0 1
-26.784511 -18.240615 23.664406 40.126477 0.597869 0.940053 0.057050 0.001597 -718262.000000 0 0 1
-26.531011 -17.648215 25.064506 40.541133 0.586981 0.904284 0.048590 -0.016115 -47198.100000 0 0 1
-25.343211 -16.866915 25.097706 39.454607 0.587222 0.881342 0.055740 -0.022583 292695.000000 0 0 1
-25.093411 -16.311915 26.404306 39.911718 0.576409 0.847889 0.057721 -0.027321 329871.000000 0 0 1
-24.117911 -17.082715 27.352706 40.269881 0.616275 0.824077 0.047667 -0.018296 -124840.000000 0 0 1
-24.621811 -18.377915 27.630006 41.320679 0.641198 0.838374 0.048718 -0.014829 -52067.600000 0 0 1
-23.665211 -19.249815 28.211706 41.551148 0.682872 0.824447 0.053358 -0.022582 -346523.000000 0 0 1
-24.229211 -20.551115 28.743406 42.843744 0.703446 0.835389 0.054569 -0.014862 -478703.000000 0 0 1
-25.213711 -20.186415 29.686906 43.869522 0.675114 0.827513 0.047696 -0.014760 -37813.800000 0 0 1
-25.694211 -21.317715 30.380506 45.139922 0.692572 0.832499 0.040688 -0.010157 -828687.000000 0 0 1
-26.835311 -21.058215 31.319006 46.308341 0.665354 0.828048 0.037946 -0.010646 -1370610.000000 0 0 1
-26.460811 -20.381715 32.508906 46.609203 0.656342 0.798924 0.051191 -0.018351 673819.000000 0 0 1
-27.500711 -20.305715 33.510506 47.870295 0.636017 0.795361 0.051905 -0.016031 619158.000000 0 0 1
-28.780311 -19.493115 33.175606 48.051105 0.595333 0.808722 0.039127 -0.020441 -303530.000000 0 0 1
-29.608611 -20.138815 32.257706 48.195449 0.597291 0.837516 0.031809 -0.017556 -826329.000000 0 0 1
-30.898711 -19.629915 32.272606 48.801486 0.565971 0.848241 0.041364 -0.021112 -693827.000000 0 0 1
-31.905611 -20.382415 31.400406 49.187360 0.568486 0.878400 0.033175 0.003210 -269343.000000 0 0 1
-31.975211 -19.878615 30.039706 48.165936 0.556214 0.897366 0.036355 -0.009776 517751.000000 0 0 1
-33.099011 -20.388215 29.327506 48.696267 0.552084 0.924475 0.036047 -0.012759 118748.000000 0 0 1
-33.659711 -19.476315 28.267006 48.076258 0.524553 0.942259 0.027702 -0.008141 -241681.000000 0 0 1
-34.758311 -20.007415 27.548806 48.655663 0.522297 0.968909 0.011868 -0.008580 280322.000000 0 0 1
-35.238011 -19.088315 26.588606 48.094024 0.496446 0.985020 0.030171 -0.000573 -583477.000000 0 0 1
36.266736 -19.678715 25.776906 48.651586 -0.497152 1.012400 0.010928 -0.001434 -811669.000000 0 0 1
35.087836 -19.610715 26.506106 48.148832 -0.509653 0.987829 0.013308 -0.005168 -734583.000000 0 0 1
34.019836 -20.300015 25.917606 47.340914 -0.537998 0.991462 0.033283 -0.002001 548886.000000 0 0 1
32.755736 -20.481415 26.825406 47.032212 -0.558799 0.963849 0.030021 -0.002977 410090.000000 0 0 1
32.118636 -19.339415 27.305906 46.381378 -0.541980 0.941315 0.026394 -0.011305 635858.000000 0 0 1
31.064736 -19.715715 28.221706 46.370162 -0.565520 0.916479 0.028649 -0.004548 437522.000000 0 0 1
-31.068434 -6.171215 34.082355 46.528899 0.196081 0.748811 0.010729 -0.002127 -324732.000000 0 0 1
-31.722854 -5.649815 32.985862 46.112113 0.176251 0.773685 0.007254 0.003420 -230473.000000 0 0 1
-30.987364 -4.654115 32.321463 45.017269 0.149080 0.769902 0.031682 0.001133 -98955.200000 0 0 1
-31.283774 -4.546115 30.777953 44.120563 0.144308 0.798771 0.020048 0.001956 94155.000000 0 0 1
-30.974694 -5.622615 29.947123 43.449691 0.179568 0.810361 0.016417 0.004533 -959609.000000 0 0 1
-29.720824 -5.546015 29.374493 42.153843 0.184482 0.799814 0.035845 -0.004174 -665604.000000 0 0 1
-29.334914 -6.536915 28.267803 41.259388 0.219255 0.816022 0.046177 -0.008017 122706.000000 0 0 1
-30.001594 -6.228015 27.028693 40.858709 0.204682 0.847958 0.034763 -0.006111 -26324.900000 0 0 1
-29.594514 -7.032015 25.954283 39.986364 0.233286 0.864424 0.044762 -0.007212 58724.200000 0 0 1
-30.377674 -6.841715 24.624123 39.698358 0.221526 0.901696 0.031731 -0.008010 12803.300000 0 0 1
-30.006434 -5.671015 23.956523 38.813161 0.186790 0.905583 0.055991 -0.008114 -128367.000000 0 0 1
-30.828044 -5.383015 22.856853 38.752818 0.172871 0.939971 0.063900 -0.009573 -202713.000000 0 0 1
-30.457054 -4.040015 22.289153 37.957347 0.131876 0.943182 0.076557 -0.014773 246960.000000 0 0 1
-29.252824 -4.061915 21.548553 36.559089 0.137973 0.940459 0.097235 -0.013812 -16232.100000 0 0 1
-28.805324 -2.776615 21.184753 35.864328 0.096096 0.938881 0.097036 -0.020569 190473.000000 0 0 1
-27.328914 -2.829715 20.719453 34.411809 0.103175 0.924664 0.090125 -0.017311 228523.000000 0 0 1
-27.087034 -3.440915 19.491553 33.547995 0.126355 0.950833 0.099565 -0.018414 651011.000000 0 0 1
-25.707994 -3.254415 19.114853 32.200463 0.125922 0.935246 0.080433 -0.013786 889249.000000 0 0 1
-25.222544 -3.704815 17.763353 31.071516 0.145842 0.962229 0.079816 -0.022088 -155814.000000 0 0 1
-26.018644 -3.178415 16.726853 31.094369 0.121557 1.002807 0.098403 -0.014190 528908.000000 0 0 1
-25.516484 -3.693815 15.466353 30.065650 0.143763 1.030466 0.100786 -0.014856 1222970.000000 0 0 1
-26.765894 -3.872215 14.509953 30.691137 0.143673 1.078361 0.106094 -0.016253 1017460.000000 0 0 1
-27.555104 -2.735115 14.282953 31.157140 0.098936 1.094583 0.118761 -0.019631 509647.000000 0 0 1
-28.678994 -2.981715 13.428953 31.807422 0.103596 1.134930 0.113606 -0.019877 728371.000000 0 0 1
-29.232104 -1.773115 12.592053 31.878200 0.060582 1.164723 0.123070 -0.014168 442259.000000 0 0 1
-28.534664 -1.527115 11.295853 30.727112 0.053467 1.194349 0.141384 -0.017151 705103.000000 0 0 1
-28.982594 -0.430215 10.515253 30.834176 0.014843 1.222788 0.139220 -0.014796 -18989.800000 0 0 1
-30.335844 -0.594715 9.781653 31.879427 0.019602 1.258933 0.124248 -0.015214 142912.000000 0 0 1
-30.219884 -1.327015 8.553353 31.435048 0.043884 1.295226 0.114239 -0.014456 -503231.000000 0 0 1
-31.500374 -1.475015 8.042753 32.544356 0.046791 1.321077 0.095312 -0.013911 -632559.000000 0 0 1
-31.566414 -2.243315 6.670353 32.341376 0.070947 1.363057 0.092703 -0.020880 -692770.000000 0 0 1
-31.205844 -1.719615 5.429053 31.721230 0.055050 1.398801 0.098889 -0.030049 899397.000000 0 0 1
-32.132604 -0.706815 4.977753 32.523559 0.021993 1.417142 0.087111 -0.024195 484887.000000 0 0 1
-31.551924 -0.092815 3.676153 31.765494 0.002942 1.454809 0.104038 -0.030784 176768.000000 0 0 1
-31.586084 -0.980915 2.625353 31.710178 0.031045 1.487909 0.094008 -0.037611 162156.000000 0 0 1
-31.282174 -0.378015 1.409753 31.316205 0.012083 1.525764 0.085905 -0.043342 -434766.000000 0 0 1
-31.908114 -0.987115 0.147453 31.923720 0.030926 1.566177 0.070503 -0.032672 577323.000000 0 0 1
-33.287154 -0.605215 0.072553 33.292735 0.018180 1.568617 0.077213 -0.031848 643518.000000 0 0 1
-33.892764 -0.845215 -1.194947 33.924353 0.024933 1.606027 0.077344 -0.033362 -65932.000000 0 0 1
-35.425341 -0.728115 -1.088947 35.449552 0.020551 1.601519 0.080602 -0.035479 -326587.000000 0 0 1
-35.992109 -1.673515 -0.232347 36.031744 0.046463 1.577245 0.079201 -0.028572 177105.000000 0 0 1
35.280423 -1.416015 -0.029247 35.308840 -0.040114 1.571625 0.082583 -0.023412 163319.000000 0 0 1
34.481493 -2.605215 0.524353 34.583745 -0.075411 1.555634 0.090990 -0.031872 -331539.000000 0 0 1
34.764453 -2.828715 1.901353 34.931131 -0.081189 1.516338 0.083236 -0.032803 392076.000000 0 0 1
33.940093 -3.895615 2.356253 34.244089 -0.114279 1.501934 0.081905 -0.024786 138016.000000 0 0 1
33.995353 -4.217915 3.866653 34.473552 -0.123442 1.458397 0.079144 -0.026967 60101.900000 0 0 1
33.626403 -3.141215 4.672153 34.094445 -0.093145 1.433328 0.074507 -0.024921 114083.000000 0 0 1
33.588383 -3.495615 6.022953 34.302693 -0.103699 1.394299 0.067243 -0.023902 -166024.000000 0 0 1
32.865513 -2.442615 6.850153 33.660554 -0.074185 1.365858 0.061611 -0.017813 727555.000000 0 0 1
31.435973 -2.427115 6.720453 32.237800 -0.077055 1.360791 0.065794 -0.018822 554569.000000 0 0 1
30.875503 -1.221915 7.117653 31.708843 -0.039555 1.344398 0.080848 -0.018589 -249918.000000 0 0 1
29.399743 -1.271915 7.531353 30.375713 -0.043236 1.320243 0.073421 -0.010450 -92408.200000 0 0 1
28.473773 -1.530815 6.473353 29.240442 -0.053711 1.347563 0.081031 -0.010842 -481927.000000 0 0 1
27.172683 -1.439015 6.927453 28.078729 -0.052909 1.321507 0.080250 -0.007820 -677329.000000 0 0 1
26.392183 -2.782715 7.162453 27.488025 -0.105049 1.307188 0.088204 -0.016863 -475646.000000 0 0 1
26.996283 -3.643215 8.104053 28.420907 -0.134142 1.281640 0.078389 -0.017627 332218.000000 0 0 1
26.604583 -4.957915 7.923353 28.198657 -0.184242 1.285978 0.098236 -0.029287 -279284.000000 0 0 1
27.001983 -5.914215 9.074953 29.093638 -0.215624 1.253581 0.083088 -0.028097 -573402.000000 0 0 1
26.249083 -5.688415 10.225153 28.738931 -0.213409 1.207032 0.077570 -0.024079 298330.000000 0 0 1
26.441783 -6.694515 11.183853 29.479874 -0.247969 1.181678 0.077474 -0.017737 -574331.000000 0 0 1
25.325683 -6.639715 12.207253 28.887593 -0.256403 1.134509 0.083584 -0.028759 -167375.000000 0 0 1
24.046983 -6.857615 11.659553 27.590387 -0.277802 1.134490 0.093799 -0.036744 -57896.700000 0 0 1
22.960083 -6.683215 12.524753 26.994447 -0.283253 1.088319 0.106671 -0.041502 -211872.000000 0 0 1
21.932683 -7.788715 12.538453 26.437085 -0.341228 1.076656 0.106198 -0.044895 -456537.000000 0 0 1
22.401783 -8.984215 13.140853 27.481594 -0.381410 1.072227 0.088057 -0.041470 -56918.500000 0 0 1
21.364983 -9.921715 13.318053 27.060551 -0.434757 1.056230 0.119320 -0.060037 -398497.000000 0 0 1
21.633583 -11.144515 14.217853 28.184383 -0.475693 1.042042 0.098787 -0.046939 -689688.000000 0 0 1
21.753183 -10.867615 15.610353 28.896178 -0.463317 1.000095 0.087149 -0.039119 236908.000000 0 0 1
22.070183 -12.016615 16.353553 29.982173 -0.498590 0.993879 0.082154 -0.028094 -482327.000000 0 0 1
22.050783 -11.625115 17.840253 30.653791 -0.485168 0.949621 0.085193 -0.020375 700072.000000 0 0 1
20.730483 -11.319715 18.321953 29.892856 -0.499799 0.911044 0.076854 -0.020228 662507.000000 0 0 1
20.546383 -11.834915 19.587553 30.755345 -0.522593 0.880348 0.090509 -0.008407 151694.000000 0 0 1
20.990683 -10.930815 20.742753 31.469879 -0.480106 0.851135 0.067079 -0.004551 -94761.800000 0 0 1
20.091983 -9.857615 21.003453 30.692106 -0.456119 0.817115 0.059288 -0.001758 -3091.340000 0 0 1
20.204883 -8.619915 20.311653 29.918280 -0.403247 0.824527 0.065867 0.000444 -677166.000000 0 0 1
21.276883 -7.625815 20.905653 30.788068 -0.344146 0.824372 0.056736 0.003660 299694.000000 0 0 1
22.611983 -7.991815 21.029553 31.896911 -0.339730 0.850912 0.055573 0.006671 -261525.000000 0 0 1
23.287883 -8.201015 19.798553 31.647509 -0.338596 0.894901 0.062512 -0.008755 -516732.000000 0 0 1
24.666083 -8.892315 19.838553 32.879432 -0.346005 0.923073 0.060791 -0.005012 278043.000000 0 0 1
24.429283 -10.213915 20.258153 33.339266 -0.396013 0.917715 0.050103 -0.002589 106091.000000 0 0 1
25.593283 -10.967415 20.020053 34.294356 -0.404854 0.947431 0.053101 -0.009218 58891.100000 0 0 1
25.418583 -12.467515 20.439853 34.918918 -0.456009 0.945482 0.031889 -0.004708 112972.000000 0 0 1
24.608083 -13.191815 19.522753 34.069335 -0.492091 0.960598 0.054603 -0.009732 193758.000000 0 0 1
24.534383 -14.573515 19.767453 34.714197 -0.535999 0.964979 0.042019 -0.006839 -57848.700000 0 0 1
23.580483 -15.187215 18.742353 33.733758 -0.572187 0.981716 0.064873 -0.005086 -298475.000000 0 0 1
24.125983 -15.046815 17.403253 33.336810 -0.557647 1.021552 0.049939 -0.006304 521004.000000 0 0 1
23.337583 -15.572715 16.350253 32.472804 -0.588427 1.043144 0.044288 -0.008360 -316960.000000 0 0 1
23.026083 -17.102215 16.413553 33.046799 -0.638834 1.051032 0.042697 -0.015934 65271.900000 0 0 1
24.195883 -17.884915 16.250253 34.196222 -0.636535 1.075598 0.032935 -0.006343 215001.000000 0 0 1
23.963783 -19.242715 16.580153 34.920573 -0.676562 1.076064 0.040290 0.000930 -301688.000000 0 0 1
25.189383 -20.143215 16.397253 36.181819 -0.674540 1.100455 0.026624 0.005907 -239146.000000 0 0 1
25.426383 -20.379315 15.032953 35.886029 -0.675657 1.138554 0.026272 -0.004196 -5621.280000 0 0 1
26.277783 -21.474415 14.771453 37.011730 -0.685146 1.160259 0.020189 -0.014907 -264480.000000 0 0 1
26.760883 -21.421615 13.335153 36.781201 -0.675035 1.199790 0.014245 -0.027653 -179767.000000 0 0 1
25.688183 -21.580215 12.389453 35.764325 -0.698709 1.217045 0.014158 -0.017502 659141.000000 0 0 1
26.093583 -21.399515 11.027153 35.502287 -0.686881 1.254968 0.027348 -0.018496 -319167.000000 0 0 1
24.915183 -21.391015 10.041653 34.339141 -0.709439 1.274034 0.021537 -0.012102 166466.000000 0 0 1
24.326083 -22.707915 9.945353 34.732085 -0.751008 1.280387 0.023531 -0.009883 412867.000000 0 0 1
22.913483 -22.607815 9.804253 33.649136 -0.778683 1.275141 0.015820 0.008191 433569.000000 0 0 1
22.340983 -23.542015 8.717153 33.605576 -0.811568 1.308400 0.025084 0.009953 -244365.000000 0 0 1
22.356083 -24.934315 9.031353 34.685441 -0.839863 1.307382 0.025581 0.017201 142809.000000 0 0 1
22.026683 -25.776335 7.925153 34.819567 -0.863678 1.341178 0.035978 0.022698 313470.000000 0 0 1
20.518683 -26.138545 7.804253 34.134238 -0.905271 1.340122 0.036218 0.037785 311763.000000 0 0 1
19.683983 -25.061535 7.411553 32.718050 -0.905005 1.342285 0.035879 0.026901 -125781.000000 0 0 1
18.353683 -25.446815 7.727853 32.312811 -0.945946 1.329298 0.043788 0.016409 372417.000000 0 0 1
17.388983 -24.206815 7.626053 30.765293 -0.947860 1.320307 0.039909 0.008621 -8348.130000 0 0 1
17.205283 -23.784815 6.335553 30.031290 -0.944556 1.358234 0.043178 0.010133 545296.000000 0 0 1
16.263683 -22.677715 6.314653 28.612252 -0.948642 1.348267 0.041380 0.001205 507344.000000 0 0 1
15.910583 -22.099315 4.930753 27.673790 -0.946801 1.391666 0.044351 0.005030 -65276.000000 0 0 1
15.242483 -20.860815 5.078353 26.330525 -0.939778 1.376711 0.060738 -0.002250 -95001.100000 0 0 1
14.982383 -20.224315 3.872153 25.465433 -0.933203 1.418149 0.055152 -0.002058 73885.800000 0 0 1
14.272383 -18.883115 4.081453 24.019392 -0.923576 1.400045 0.073474 -0.003869 389293.000000 0 1 0
15.214383 -17.884915 4.492653 23.906726 -0.865906 1.381748 0.054286 -0.004513 401277.000000 0 1 0
14.674183 -16.604515 4.500653 22.611887 -0.847034 1.370419 0.050242 -0.005281 229672.000000 0 1 0
15.845283 -15.593015 4.607553 22.703406 -0.777374 1.366431 0.053333 -0.007108 -142035.000000 0 1 0
16.465583 -15.577715 5.897753 23.421445 -0.757697 1.316246 0.071218 -0.015323 344422.000000 0 1 0
17.498483 -14.582615 6.025353 23.561715 -0.694757 1.312197 0.068036 -0.017004 1540900.000000 0 1 0
18.879083 -15.016415 5.345453 24.708022 -0.671930 1.352727 0.084868 -0.025136 424108.000000 0 1 0
19.691083 -13.854515 5.384253 24.671370 -0.613134 1.350787 0.084958 -0.032277 655981.000000 0 1 0
21.073083 -14.152915 5.177953 25.907354 -0.591418 1.369577 0.082423 -0.026196 1279730.000000 0 0 1
22.163383 -13.023815 5.309853 26.249377 -0.531272 1.367106 0.088877 -0.029854 91566.000000 0 0 1
22.192383 -12.478215 6.595753 26.300411 -0.512218 1.317305 0.112064 -0.040008 160086.000000 0 0 1
23.071883 -11.384315 6.604653 26.561924 -0.458376 1.319509 0.104545 -0.038936 -148730.000000 0 0 1
23.074683 -10.543415 7.878753 26.564625 -0.428598 1.269678 0.116384 -0.044550 22892.900000 0 0 1
23.761783 -11.204115 8.942153 27.750975 -0.440604 1.242714 0.104146 -0.041041 532491.000000 0 0 1
23.419683 -10.641915 10.173853 27.662957 -0.426507 1.194177 0.118115 -0.044241 31576.100000 0 0 1
24.018283 -11.577515 11.299653 28.958572 -0.449168 1.169947 0.088757 -0.036675 -473342.000000 0 0 1
23.270283 -12.707915 11.497053 28.899470 -0.499844 1.161647 0.092254 -0.042204 -206258.000000 0 0 1
23.751283 -13.590815 12.440353 30.059874 -0.519738 1.144114 0.080868 -0.037261 -730920.000000 0 0 1
22.828283 -14.819515 12.637453 30.007561 -0.575794 1.136092 0.061279 -0.033489 100821.000000 0 0 1
21.676183 -14.271015 13.257853 29.142571 -0.582239 1.098502 0.068133 -0.037176 159252.000000 0 0 1
20.557783 -15.153815 13.344953 28.815765 -0.635215 1.089292 0.061033 -0.025473 310600.000000 0 0 1
19.321683 -14.494415 13.972853 27.904410 -0.643606 1.046343 0.058614 -0.026456 -854684.000000 0 0 1
19.450783 -14.065915 15.297953 28.464193 -0.626097 1.003391 0.063991 -0.030095 803223.000000 0 0 1
18.618583 -12.890915 15.590553 27.493502 -0.605586 0.967860 0.070257 -0.043811 1465110.000000 0 0 1
17.040183 -12.988615 15.621953 26.516360 -0.651285 0.940797 0.073222 -0.041909 285814.000000 0 0 1
16.539683 -13.119815 14.242853 25.466635 -0.670601 0.977285 0.079615 -0.051523 -62251.100000 0 0 1
15.135383 -12.999615 14.306353 24.550795 -0.709632 0.948719 0.094123 -0.047223 -115513.000000 0 1 0
14.616883 -11.558515 14.277253 23.475359 -0.669084 0.917030 0.069412 -0.044036 -950569.000000 0 1 0
14.880983 -10.831215 15.412353 24.006238 -0.629178 0.873673 0.056566 -0.030724 -22730.600000 0 1 0
14.343883 -9.555115 15.277653 23.031584 -0.587642 0.845530 0.038543 -0.028426 -435374.000000 0 1 0
14.937683 -8.464515 16.264553 23.649906 -0.515540 0.812450 0.043253 -0.025063 145602.000000 0 1 0
16.324783 -8.271115 16.074453 24.357707 -0.468961 0.850067 0.049604 -0.037413 -52643.200000 0 1 0
17.142683 -8.949215 16.976253 25.732337 -0.481126 0.850344 0.075908 -0.031376 -1739760.000000 0 0 1
18.584783 -8.944715 16.608353 26.480926 -0.448570 0.892867 0.074584 -0.033691 -1364870.000000 0 0 1
19.205383 -7.703715 16.847753 26.684091 -0.381474 0.887467 0.063961 -0.025356 -78777.400000 0 0 1
20.454083 -7.660215 16.191153 27.188266 -0.358339 0.932884 0.063913 -0.024514 -177565.000000 0 0 1
21.125883 -6.297815 16.511653 27.542695 -0.289721 0.927929 0.058010 -0.016632 -138854.000000 0 0 1
21.596583 -6.236515 17.869253 28.716140 -0.281125 0.899154 0.065000 -0.012992 315610.000000 0 0 1
21.880983 -4.892715 18.268353 28.921424 -0.219987 0.887111 0.078598 -0.019450 -19215.000000 0 0 1
-5.463564 -33.064617 -6.494694 34.136498 1.407037 1.762220 0.038733 -0.018724 -168325.000000 0 0 1
-6.066364 -31.773117 -6.528094 32.999209 1.382139 1.769936 0.031445 -0.022435 296615.000000 0 0 1
-5.460764 -30.880617 -5.593094 31.854594 1.395771 1.747293 0.027695 -0.021405 -708447.000000 0 0 1
-6.312664 -29.640217 -5.522694 30.804097 1.360955 1.751055 0.029400 -0.016377 246470.000000 0 0 1
-7.635964 -29.830017 -5.057494 31.204425 1.320195 1.733591 0.025249 -0.012414 441180.000000 0 0 1
-8.590364 -30.148617 -6.052594 31.927533 1.293218 1.761523 0.024604 -0.015167 -1193050.000000 0 0 1
-10.035164 -30.245017 -5.626394 32.359263 1.250430 1.745557 0.042500 -0.012011 -126864.000000 0 0 1
-10.949964 -30.554217 -6.700094 33.141412 1.226677 1.774366 0.031354 -0.013361 -242962.000000 0 0 1
-12.259464 -30.248817 -6.328294 33.246545 1.185740 1.762309 0.033980 -0.007350 433218.000000 0 0 1
-13.405864 -30.775217 -7.286894 34.350110 1.159977 1.784556 0.042498 -0.012682 794860.000000 0 0 1
-13.402964 -30.094717 -8.523094 34.029026 1.151808 1.823957 0.057128 -0.018676 112608.000000 0 0 1
-14.414464 -30.601817 -9.379094 35.102926 1.130590 1.841270 0.063984 -0.022483 809.474000 0 0 1
-14.491464 -29.822017 -10.735294 34.851138 1.118467 1.883921 0.083244 -0.019010 -580707.000000 0 0 1
-14.909864 -28.476217 -10.621194 33.852751 1.088455 1.889933 0.084250 -0.021038 215029.000000 0 0 1
-14.039364 -27.501317 -10.023794 32.463867 1.098786 1.884693 0.069137 -0.016235 68825.700000 0 0 1
-14.707964 -26.110517 -9.717294 31.504113 1.057802 1.884354 0.066964 -0.002266 136902.000000 0 0 1
-15.078564 -25.340617 -10.826994 31.412319 1.034035 1.922687 0.072980 -0.011856 83133.800000 0 0 1
-15.691664 -24.142417 -10.400794 30.614721 0.994448 1.917428 0.053421 0.002498 -122483.000000 0 0 1
-16.301864 -23.259917 -11.510894 30.647597 0.959496 1.955828 0.068146 0.001870 74788.800000 0 0 1
-17.515864 -23.794617 -12.002894 31.891359 0.936233 1.956669 0.070890 -0.006874 -256009.000000 0 0 1
-18.071664 -23.034117 -13.112294 32.079399 0.905541 1.991875 0.075060 -0.008094 645856.000000 0 0 1
-19.512664 -23.574417 -13.406794 33.410168 0.879389 1.983709 0.065514 0.001855 331852.000000 0 0 1
-19.578664 -24.955517 -13.845194 34.609122 0.905552 1.982362 0.088797 -0.001578 -47990.400000 0 0 1
-19.404364 -25.871317 -12.752794 34.763316 0.927274 1.946413 0.103292 -0.004261 -1003950.000000 0 0 1
-19.557264 -27.351117 -13.094794 36.083845 0.950045 1.942174 0.107899 -0.012872 456876.000000 0 0 1
-18.613264 -27.991517 -13.956394 36.397247 0.983976 1.964321 0.117448 -0.019412 1653300.000000 0 0 1
-17.185064 -27.796717 -13.776694 35.465212 1.017072 1.969752 0.117169 -0.027408 1284200.000000 0 0 1
-16.295464 -28.931217 -14.338394 36.168315 1.057838 1.978427 0.102461 -0.023715 -48812.400000 0 0 1
-16.313064 -29.078017 -15.742694 36.871121 1.059539 2.011931 0.110789 -0.039098 -174426.000000 0 0 1
-15.534664 -30.183717 -16.153794 37.594250 1.095481 2.014943 0.099712 -0.029223 21669.900000 0 0 1
-15.985164 -31.646217 -15.740594 38.791428 1.103060 1.988623 0.100485 -0.026794 -196938.000000 0 0 1
-16.015964 -31.866317 -14.306294 38.427117 1.105072 1.952279 0.097105 -0.023384 -102666.000000 0 0 1
-16.443864 -33.180617 -14.034894 39.602175 1.110686 1.933066 0.078947 -0.016661 -1189540.000000 0 0 1
-16.914664 -33.344117 -12.559994 39.442230 1.101345 1.894880 0.084349 -0.019532 474422.000000 0 0 1
-18.296264 -33.081917 -12.277994 39.748153 1.065607 1.884827 0.095710 -0.018050 974334.000000 0 0 1
-18.779964 -31.715617 -12.434294 38.899603 1.036179 1.896157 0.105454 -0.023951 66073.300000 0 0 1
-18.206364 -30.668817 -11.344594 37.426566 1.035063 1.878757 0.107557 -0.024239 -53126.300000 0 0 1
-18.496264 -31.023117 -10.046894 37.489808 1.033169 1.842102 0.108046 -0.026401 239300.000000 0 0 1
-18.007764 -29.986517 -9.192494 36.165906 1.029988 1.827792 0.099232 -0.018336 -237613.000000 0 0 1
-18.313164 -30.180317 -7.726794 36.137610 1.025398 1.786276 0.114271 -0.025829 178202.000000 0 0 1
-17.471064 -31.153217 -7.090094 36.414701 1.059691 1.766752 0.097240 -0.030419 400626.000000 0 0 1
-17.959964 -31.604917 -5.843594 36.818185 1.054038 1.730185 0.101549 -0.031856 -227292.000000 0 0 1
-16.986464 -32.649517 -5.274994 37.180055 1.091067 1.713154 0.091350 -0.029760 176050.000000 0 0 1
-15.757464 -32.169217 -4.773894 36.137879 1.115317 1.703286 0.092950 -0.022308 129899.000000 0 0 1
-15.785364 -31.764017 -3.377994 35.630624 1.109586 1.665745 0.080297 -0.026935 -210272.000000 0 0 1
-14.453664 -31.111117 -2.909694 34.427843 1.135882 1.655413 0.074904 -0.026708 239592.000000 0 0 1
-13.419164 -32.075017 -3.029994 34.900739 1.174556 1.657723 0.042873 -0.017378 163414.000000 0 0 1
-12.176664 -31.501517 -2.607394 33.873518 1.201945 1.647847 0.043028 -0.015109 451309.000000 0 0 1
-10.933364 -32.366317 -2.832994 34.280356 1.245031 1.653533 0.043622 -0.023032 -470848.000000 0 0 1
-10.793564 -33.414817 -1.879694 35.165101 1.258359 1.624275 0.052808 -0.011923 323161.000000 0 0 1
-9.426464 -33.768217 -1.675994 35.099283 1.298574 1.618565 0.055893 -0.018682 657915.000000 0 0 1
-8.563164 -32.866717 -0.777194 33.972826 1.315921 1.593675 0.055124 -0.016170 -376745.000000 0 0 1
-9.025464 -32.986417 0.539406 34.203124 1.303721 1.555025 0.063831 -0.016302 -224834.000000 0 0 1
-8.105964 -32.532517 1.499706 33.560698 1.326604 1.526095 0.051719 -0.015312 589536.000000 0 0 1
-7.001964 -33.544317 1.931206 34.321688 1.365013 1.514499 0.058362 -0.014490 139446.000000 0 0 1
-7.637964 33.902285 2.648906 34.852836 -1.349203 1.494720 0.077417 -0.024834 647407.000000 0 0 1
-6.713564 32.946585 3.240006 33.779388 -1.369777 1.474732 0.064313 -0.023647 396157.000000 0 0 1
-6.140164 33.390285 4.581306 34.257863 -1.388937 1.436664 0.061582 -0.021934 -436259.000000 0 0 1
-5.194664 -34.084417 4.390506 34.756418 1.419554 1.444136 0.055590 -0.016083 -652609.000000 0 0 1
-4.574564 -33.650217 5.554006 34.410910 1.435680 1.408685 0.049073 -0.021638 175515.000000 0 0 1
-3.453964 -32.582517 5.377006 33.203351 1.465184 1.408138 0.048005 -0.012280 245585.000000 0 0 1
-3.880264 -31.424717 4.627306 31.999707 1.447940 1.425683 0.044055 -0.005611 226211.000000 0 0 1
-3.806864 -31.649317 3.206306 32.038288 1.451089 1.470551 0.036517 -0.006255 -125007.000000 0 0 1
-4.274464 -30.401617 2.435106 30.797064 1.431112 1.491644 0.043665 -0.002785 384800.000000 0 0 1
-3.406464 -29.302417 2.734906 29.626262 1.455064 1.478351 0.044409 -0.002108 302899.000000 0 0 1
-3.776264 -28.183517 1.999006 28.505558 1.437601 1.500612 0.050668 -0.008828 149017.000000 0 0 1
-3.082664 -26.900617 2.518306 27.193527 1.456699 1.478057 0.056221 -0.013766 67415.000000 0 0 1
-3.289264 -25.747017 1.697606 26.011729 1.443731 1.505487 0.052735 -0.019614 -320142.000000 0 0 1
-3.116164 -24.523617 2.351706 24.832415 1.444406 1.475951 0.040407 -0.017021 -904774.000000 0 1 0
-4.164264 -24.084817 3.298206 24.663692 1.399589 1.436667 0.029787 -0.013955 -1046760.000000 0 1 0
-4.138664 -24.754817 4.589506 25.514566 1.405142 1.389934 0.042620 -0.014806 50548.600000 0 0 1
-5.127064 -24.168817 5.418906 25.293933 1.361760 1.354885 0.024190 -0.009882 4659.420000 0 0 1
-5.784564 -25.173817 6.407406 26.612725 1.344932 1.327643 0.026217 -0.013062 126700.000000 0 0 1
-4.931964 -25.625617 7.462506 27.141952 1.380659 1.292265 0.033037 -0.017451 -46551.800000 0 0 1
-5.664764 -26.483117 8.273606 28.317797 1.360071 1.274301 0.030794 -0.017221 149722.000000 0 0 1
-4.929164 -27.061817 9.527406 29.110309 1.390627 1.237366 0.026299 -0.013131 33005.100000 0 0 1
-4.552864 -26.297817 10.634206 28.729603 1.399369 1.191628 0.028808 -0.017896 -24424.700000 0 0 1
-5.635264 -25.689417 11.305906 28.627362 1.354855 1.164801 0.026080 -0.021613 -140863.000000 0 0 1
-5.109664 -24.588217 12.285306 27.957429 1.365903 1.115833 0.030924 -0.017887 438765.000000 0 0 1
-4.161964 -25.163617 13.150806 28.696224 1.406884 1.094741 0.023549 -0.017314 -506564.000000 0 0 1
-3.268564 -24.302417 13.783106 28.129433 1.437103 1.058719 0.018941 -0.019125 -140975.000000 0 0 1
-2.417364 -25.046517 14.829906 29.207838 1.474579 1.038240 0.034238 -0.024683 268911.000000 0 0 1
-3.171864 -25.573617 15.922706 30.291966 1.447398 1.017328 0.021646 -0.022236 -236109.000000 0 0 1
-2.332464 -26.359917 16.700806 31.292212 1.482541 1.007821 0.016942 -0.008542 -63412.600000 0 0 1
-2.866764 -26.679817 18.128306 32.383120 1.463756 0.976643 0.035256 -0.020560 -267156.000000 0 0 1
-2.706264 -25.550517 18.952406 31.927206 1.465272 0.935255 0.036561 -0.021822 -174841.000000 0 0 1
-2.774164 -25.940917 20.331706 33.075753 1.464260 0.908789 0.048908 -0.025676 -19002.300000 0 0 1
-3.114964 -24.833017 21.328006 32.882603 1.446012 0.865039 0.054618 -0.029171 -16685.000000 0 0 1
-2.697464 -25.048417 22.682106 33.899520 1.463520 0.837802 0.049986 -0.029932 -139678.000000 0 0 1
-3.073764 -24.073317 23.663506 33.895931 1.443800 0.798025 0.058706 -0.027317 201763.000000 0 0 1
-2.357164 -22.657917 23.605106 32.804550 1.467137 0.767616 0.066353 -0.025959 208656.000000 0 0 1
-2.589264 -21.884617 22.416406 31.434631 1.453029 0.776869 0.068070 -0.017856 -657117.000000 0 0 1
-1.591364 -20.935817 22.250506 30.592906 1.494931 0.756403 0.053213 -0.015095 -1176140.000000 0 0 1
-1.931864 -19.804517 21.294006 29.144222 1.473557 0.751534 0.054393 -0.002105 -606190.000000 0 0 1
-2.780164 -18.777817 21.759006 28.875423 1.423808 0.717354 0.066985 -0.014283 -43715.600000 0 0 1
-4.071464 -19.144717 22.205906 29.600664 1.361250 0.722458 0.070491 -0.018160 -349977.000000 0 0 1
-5.086364 -19.163317 20.976306 28.863632 1.311356 0.757235 0.057346 -0.016401 -394079.000000 0 0 1
-4.873564 -20.210117 19.999006 28.847196 1.334169 0.804774 0.062060 -0.015087 -176243.000000 0 0 1
-5.344564 -21.459617 20.364006 30.062806 1.326710 0.826598 0.055287 -0.012041 -220660.000000 0 0 1
-5.241664 -22.415217 19.170306 29.956930 1.341080 0.876391 0.047778 -0.009267 -64258.500000 0 0 1
-5.744564 -23.702217 19.296406 31.098978 1.333017 0.901437 0.045809 -0.016872 -354312.000000 0 0 1
-5.754564 -24.329417 18.004806 30.809229 1.338538 0.946660 0.047401 -0.022787 -234342.000000 0 0 1
-6.422164 -25.686517 17.968206 31.998403 1.325798 0.974557 0.036831 -0.032190 -228845.000000 0 0 1
-7.815664 -25.590717 18.150006 32.332525 1.274384 0.974775 0.051513 -0.032966 -819932.000000 0 0 1
-8.437664 -26.838017 17.966806 33.380825 1.266189 1.002452 0.056599 -0.039092 -572646.000000 0 0 1
-9.921764 -26.640317 18.237206 33.774896 1.214277 1.000403 0.056697 -0.040288 -1342530.000000 0 0 1
-10.614264 -26.192317 17.113906 33.039157 1.185778 1.026299 0.071788 -0.036173 563454.000000 0 0 1
-12.034064 -26.385917 17.135506 33.684728 1.142899 1.037119 0.063490 -0.027835 1510280.000000 0 0 1
-12.976264 -25.620417 18.141206 33.968994 1.101977 1.007410 0.067176 -0.017625 -304934.000000 0 0 1
-13.211464 -24.292917 17.681706 32.822726 1.072695 1.001899 0.052747 -0.019582 -178686.000000 0 0 1
-13.037964 -23.306817 18.663906 32.581247 1.060761 0.960827 0.041373 -0.002897 515610.000000 0 0 1
-11.574864 -22.888117 19.046806 31.947210 1.102587 0.932042 0.031327 -0.004348 642975.000000 0 0 1
-10.992964 -23.654417 20.107906 32.934854 1.135759 0.914059 0.045319 -0.012649 559204.000000 0 0 1
-9.591064 -23.366017 20.107406 32.284161 1.181296 0.898447 0.053993 -0.026239 1070980.000000 0 0 1
-8.701264 -24.309517 20.995706 33.278887 1.227069 0.888081 0.049196 -0.028476 310507.000000 0 0 1
-8.815464 -24.035417 22.375406 34.001066 1.219261 0.852531 0.046000 -0.021893 -17764.300000 0 0 1
-7.812464 -24.767717 23.041806 34.718860 1.265245 0.845084 0.053697 -0.020305 164995.000000 0 0 1
-7.769364 -24.389417 24.573606 35.483360 1.262405 0.805794 0.061496 -0.024155 954688.000000 0 0 1
-6.622264 -24.992517 25.223106 36.120429 1.311779 0.797768 0.069185 -0.023540 662579.000000 0 0 1
-6.550664 -24.542517 26.570706 36.759336 1.309966 0.762909 0.070273 -0.020656 942667.000000 0 0 1
-5.232164 -24.995217 27.339706 37.411174 1.364449 0.751318 0.083695 -0.023558 1394100.000000 0 0 1
-4.032164 -24.448617 26.804106 36.502785 1.407344 0.746157 0.075223 -0.016650 -277204.000000 0 0 1
-2.967764 -24.553217 27.702206 37.135971 1.450509 0.728811 0.068898 -0.016602 -259851.000000 0 0 1
-1.646964 -24.010517 27.150006 36.281404 1.502310 0.725274 0.060933 -0.015997 -726378.000000 0 0 1
-1.675264 -22.592917 27.033706 35.271344 1.496782 0.697501 0.065364 -0.014093 1026140.000000 0 0 1
-0.383264 -22.021217 26.679006 34.595524 1.553394 0.690121 0.065086 -0.018097 1038200.000000 0 0 1
0.520736 -21.675317 27.865406 35.306818 -1.546777 0.661233 0.051896 -0.011576 -438755.000000 0 0 1
1.090436 -22.808617 28.412306 36.451080 -1.523025 0.676987 0.061144 -0.016540 -346643.000000 0 0 1
1.882436 -22.557317 29.524206 37.202888 -1.487538 0.654093 0.060380 -0.020460 -221097.000000 0 0 1
2.389936 -23.889617 30.138806 38.532755 -1.471087 0.672670 0.057125 -0.025537 -807779.000000 0 0 1
3.075236 -24.653717 29.149606 38.300945 -1.446700 0.705839 0.044926 -0.033407 543751.000000 0 0 1
3.904336 -25.648917 29.779706 39.496097 -1.419734 0.716679 0.027683 -0.018552 413356.000000 0 0 1
5.207136 -25.152517 30.493006 39.869623 -1.366658 0.700038 0.023069 -0.023048 -473130.000000 0 0 1
6.291636 -24.804117 29.698806 39.202653 -1.322383 0.711212 0.037114 -0.031149 -106185.000000 0 0 1
7.064036 -25.808917 29.046606 39.493115 -1.303634 0.744414 0.038739 -0.024215 122991.000000 0 0 1
8.388836 -25.229817 28.469706 38.954338 -1.249799 0.751233 0.045078 -0.026423 19410.600000 0 0 1
8.193936 -24.519817 27.255206 37.566052 -1.248288 0.758996 0.057879 -0.029453 360109.000000 0 0 1
9.391536 -24.180917 26.563806 37.128877 -1.200342 0.773530 0.036520 -0.024782 85067.300000 0 0 1
9.143736 -22.916517 25.741406 35.656621 -1.191151 0.764216 0.054183 -0.023093 87384.900000 0 0 1
8.137736 -23.038117 24.766606 34.790263 -1.231248 0.778620 0.054201 -0.022949 -55164.900000 0 0 1
7.910136 -21.826417 24.124606 33.480731 -1.223108 0.766198 0.051836 -0.018501 52710.500000 0 0 1
7.323736 -21.987617 22.747406 32.473634 -1.249270 0.794715 0.062413 -0.015918 261043.000000 0 0 1
8.255636 -22.720417 21.968706 32.664919 -1.222272 0.833151 0.058959 -0.013810 186776.000000 0 0 1
7.614336 -23.109817 20.767506 31.989546 -1.252513 0.864269 0.066884 -0.028383 335414.000000 0 0 1
8.552536 -23.840717 19.764906 32.127514 -1.226360 0.908154 0.078685 -0.034386 358187.000000 0 0 1
9.559936 -23.134717 19.060406 31.462781 -1.178938 0.920015 0.066543 -0.029003 -80251.600000 0 0 1
10.105036 -23.979117 18.041106 31.663723 -1.171971 0.964568 0.079882 -0.034294 123072.000000 0 0 1
11.343236 -23.316017 17.419806 31.237082 -1.118007 0.979227 0.067087 -0.034229 91660.600000 0 0 1
10.963436 -22.240317 16.575106 29.825539 -1.112802 0.981549 0.067923 -0.026989 533224.000000 0 0 1
12.093036 -21.830517 15.784706 29.529137 -1.064925 1.006825 0.065306 -0.035789 619574.000000 0 0 1
-12.038564 22.457485 11.594506 27.994611 -1.078718 1.143766 0.006015 -0.014062 -270083.000000 0 0 1
-13.073464 21.744485 10.970106 27.642021 -1.029472 1.162699 0.001581 -0.018318 -144928.000000 0 0 1
-12.584664 20.570385 10.445206 26.279590 -1.021756 1.162044 0.019277 -0.023112 15039.000000 0 0 1
-13.613264 19.894685 9.506206 25.913074 -0.970708 1.195176 0.032802 -0.025089 -598466.000000 0 0 1
-13.705064 20.572085 8.289406 26.072087 -0.983119 1.247238 0.039288 -0.028747 -325111.000000 0 0 1
-14.394264 19.937485 7.236106 25.633170 -0.945477 1.284611 0.043846 -0.028527 -1102760.000000 0 0 1
-15.890464 19.938485 7.384906 26.544056 -0.897903 1.288863 0.047847 -0.025433 -1701880.000000 0 0 1
-16.357464 19.014585 8.330106 26.429373 -0.860377 1.250146 0.043423 -0.025940 -708602.000000 0 0 1
-17.755764 19.077185 8.265306 27.340839 -0.821259 1.263685 0.049661 -0.021822 -483950.000000 0 0 1
-18.433164 18.175085 9.320106 27.513263 -0.778349 1.225209 0.046200 -0.019803 -130692.000000 0 0 1
-18.314764 16.802085 9.008506 26.436600 -0.742349 1.223072 0.036720 -0.021449 608194.000000 0 0 1
-19.029564 16.004185 9.980906 26.793222 -0.699256 1.189078 0.050533 -0.024703 503501.000000 0 0 1
-18.021264 15.236985 10.873106 25.983767 -0.701876 1.139050 0.052149 -0.020656 15083.700000 0 0 1
-17.253664 14.249885 10.270606 24.621810 -0.690338 1.140506 0.034757 -0.007120 145476.000000 0 1 0
-16.577764 13.434385 11.250806 24.122305 -0.681042 1.085572 0.029328 -0.003969 972263.000000 0 1 0
-17.554864 12.307385 11.834606 24.488832 -0.611451 1.066416 0.044983 -0.007678 336421.000000 0 1 0
-18.017964 11.405185 10.955406 23.973865 -0.564324 1.096207 0.024010 -0.010973 370143.000000 0 1 0
-19.094764 10.685485 11.601606 24.766649 -0.510186 1.083276 0.050343 -0.011457 1041740.000000 0 1 0
-20.137964 9.887785 10.722006 24.864982 -0.456424 1.124964 0.058820 -0.012065 106940.000000 0 1 0
-19.656964 8.784885 9.971106 23.727482 -0.420281 1.137093 0.050753 -0.011959 7671.430000 0 1 0
-18.969464 9.075085 8.795206 22.793714 -0.446223 1.174655 0.053776 -0.012511 -693338.000000 0 1 0
-19.833264 9.274785 7.547606 23.159153 -0.437424 1.238831 0.062369 -0.023030 -190968.000000 0 1 0
-20.378764 8.110785 6.947106 23.007415 -0.378783 1.264058 0.048180 -0.032173 149520.000000 0 1 0
-21.336264 8.508385 6.007506 23.742766 -0.379451 1.314991 0.061278 -0.030143 -73450.100000 0 1 0
-21.936664 7.301585 5.209206 23.699498 -0.321314 1.349184 0.103444 -0.028501 211536.000000 0 1 0
-22.651664 6.351285 6.017306 24.282601 -0.273370 1.320384 0.111464 -0.031180 298302.000000 0 1 0
-22.349864 5.066185 5.570106 23.584078 -0.222909 1.332363 0.116057 -0.033564 -296337.000000 0 1 0
-23.403264 3.943185 5.812306 24.434492 -0.166921 1.330621 0.138920 -0.034450 -216036.000000 0 1 0
-24.499064 4.161785 4.961206 25.340445 -0.168269 1.373741 0.150484 -0.040561 136348.000000 0 0 1
-25.343154 3.007785 4.906506 25.988383 -0.118130 1.380860 0.158184 -0.039919 184212.000000 0 0 1
-26.517154 3.100385 3.914206 26.983196 -0.116392 1.425222 0.162468 -0.040855 59984.400000 0 0 1
-26.136504 2.767385 2.598906 26.410785 -0.105489 1.472234 0.159051 -0.036622 140405.000000 0 0 1
-27.292684 2.615685 1.833506 27.478977 -0.095547 1.504023 0.158530 -0.029434 -319924.000000 0 0 1
-27.074434 2.731485 0.334506 27.213928 -0.100548 1.558504 0.165241 -0.030800 -196674.000000 0 0 1
-26.663534 4.030085 -0.001894 26.966380 -0.150011 1.570867 0.164808 -0.037602 327933.000000 0 0 1
-26.413934 4.322685 -1.368794 26.800282 -0.162214 1.621892 0.182811 -0.030712 454602.000000 0 0 1
-27.680454 4.894785 -2.109494 28.188942 -0.175023 1.645700 0.163822 -0.033388 284470.000000 0 0 1
-28.637784 3.916485 -2.336694 28.998650 -0.135916 1.651463 0.141846 -0.034905 -265670.000000 0 0 1
-29.940724 4.470685 -2.319794 30.361414 -0.148223 1.647277 0.117650 -0.022077 -318743.000000 0 0 1
-31.018694 3.410985 -2.514594 31.306827 -0.109525 1.651204 0.096374 -0.017892 -617730.000000 0 0 1
-31.164114 2.921885 -3.828194 31.534021 -0.093485 1.692495 0.088660 -0.024189 -33295.200000 0 0 1
-31.928664 1.768385 -3.823394 32.205359 -0.055329 1.689796 0.089254 -0.027157 -360904.000000 0 0 1
-32.050314 1.180385 -5.166894 32.485578 -0.036813 1.730527 0.088896 -0.029339 -431896.000000 0 0 1
-30.772864 0.813285 -5.644794 31.296874 -0.026423 1.752152 0.101880 -0.034767 250426.000000 0 0 1
-30.798794 0.082985 -6.855894 31.552748 -0.002694 1.789827 0.114195 -0.032017 -152690.000000 0 0 1
-31.290394 0.768085 -8.168994 32.348280 -0.024542 1.826093 0.117596 -0.030085 240052.000000 0 0 1
-32.707144 0.902185 -8.248294 33.743230 -0.027577 1.817741 0.116302 -0.027884 576741.000000 0 0 1
-32.977564 1.740985 -9.340894 34.319136 -0.052744 1.846451 0.114604 -0.026292 562109.000000 0 0 1
-34.528224 1.990685 -9.412194 35.843416 -0.057590 1.836504 0.111816 -0.022871 723136.000000 0 0 1
-34.921487 2.764985 -8.304694 36.001713 -0.079012 1.803568 0.092005 -0.019515 390977.000000 0 0 1
36.305353 2.770885 -8.287794 37.342254 0.076174 1.794601 0.083409 -0.013471 179606.000000 0 0 1
35.924783 3.527385 -7.017094 36.773252 0.097874 1.762794 0.099134 -0.011566 -126786.000000 0 0 1
34.538263 3.727085 -6.828694 35.403585 0.107496 1.764894 0.110913 -0.021047 218293.000000 0 0 1
34.245353 4.224585 -5.578694 34.953013 0.122742 1.731087 0.109941 -0.022488 593808.000000 0 0 1
32.824623 3.832985 -5.033194 33.428740 0.116245 1.721936 0.108814 -0.026539 631901.000000 0 0 1
32.716413 2.476585 -4.558594 33.125185 0.075554 1.708852 0.108766 -0.026472 350833.000000 0 0 1
31.405513 1.920885 -4.554894 31.792186 0.061088 1.714562 0.114194 -0.028257 298210.000000 0 0 1
31.367223 0.686185 -3.657894 31.587239 0.021872 1.686860 0.129650 -0.022427 263622.000000 0 0 1
32.324463 -0.288215 -4.089194 32.583362 -0.008916 1.696628 0.102390 -0.021227 442095.000000 0 0 1
32.397973 -1.373115 -3.198794 32.584450 -0.042357 1.669124 0.107763 -0.021098 -106513.000000 0 0 1
33.475943 -2.374215 -3.611294 33.753771 -0.070804 1.677991 0.093694 -0.020784 -73003.200000 0 0 1
33.559253 -3.450915 -2.725094 33.846098 -0.102470 1.651398 0.083078 -0.015471 147525.000000 0 0 1
34.715973 -4.220615 -3.017194 35.101507 -0.120982 1.656859 0.093890 -0.019848 280037.000000 0 0 1
34.690353 -5.642715 -2.463894 35.232536 -0.161247 1.640786 0.085923 -0.018194 -44497.600000 0 0 1
34.290443 -5.809315 -1.089194 34.796105 -0.167822 1.602104 0.094167 -0.023974 231844.000000 0 0 1
34.355363 -7.197315 -0.761994 35.109442 -0.206510 1.592501 0.094269 -0.021832 -104786.000000 0 0 1
33.840093 -7.521915 0.622206 34.671576 -0.218722 1.552850 0.094785 -0.012609 324413.000000 0 0 1
32.415413 -7.450315 0.713906 33.268240 -0.225915 1.549336 0.090238 -0.016180 471734.000000 0 0 1
31.798873 -7.430715 1.961706 32.714402 -0.229559 1.510796 0.091944 -0.029655 -616763.000000 0 0 1
31.594343 -8.903015 2.359706 32.909487 -0.274669 1.499032 0.103689 -0.032262 434499.000000 0 0 1
30.487043 -9.540415 1.653306 31.987696 -0.303280 1.519088 0.103434 -0.041764 593996.000000 0 0 1
29.256953 -9.254915 2.257806 30.768822 -0.306372 1.497351 0.104211 -0.042101 -1762290.000000 0 0 1
28.181233 -10.280115 1.859506 30.055289 -0.349786 1.508887 0.101404 -0.041402 -848860.000000 0 0 1
26.904183 -10.151715 2.447906 28.859740 -0.360811 1.485873 0.110204 -0.043893 469397.000000 0 0 1
26.071683 -9.156215 1.883106 27.696841 -0.337738 1.502754 0.117283 -0.041876 -717727.000000 0 0 1
25.402783 -9.443515 0.562706 27.107157 -0.355919 1.550036 0.105232 -0.033805 -572296.000000 0 0 1
26.377883 -9.667215 -0.462094 28.097353 -0.351289 1.587243 0.098891 -0.035365 719383.000000 0 0 1
25.772483 -10.046615 -1.691994 27.713141 -0.371699 1.631888 0.092165 -0.024424 198631.000000 0 0 1
25.103583 -11.476415 -1.815194 27.662120 -0.428794 1.636464 0.084916 -0.022015 488643.000000 0 0 1
23.726183 -11.451715 -1.470094 26.386259 -0.449681 1.626540 0.080798 -0.011590 -66410.700000 0 0 1
23.128983 -12.676815 -1.580194 26.422499 -0.501377 1.630637 0.059228 0.001457 416878.000000 0 0 1
21.585183 -12.563715 -1.336994 25.011089 -0.527118 1.624278 0.060800 -0.007085 390298.000000 0 0 1
20.880183 -11.984215 -2.359994 24.190349 -0.521046 1.668511 0.066701 -0.008577 477768.000000 0 1 0
19.466583 -11.923915 -2.156894 22.929888 -0.549584 1.665000 0.070812 -0.015988 996695.000000 0 1 0
18.627483 -11.355815 -3.365694 22.074092 -0.547468 1.723866 0.068930 -0.014173 206250.000000 0 1 0
18.542383 -12.265215 -4.429894 22.668908 -0.584396 1.767479 0.065935 -0.015678 2610.800000 0 1 0
17.782883 -11.719315 -5.448694 21.983210 -0.582692 1.821264 0.063880 -0.018773 -645772.000000 0 1 0
17.816283 -12.530115 -6.771294 22.809518 -0.612934 1.872202 0.060953 -0.023743 -286034.000000 0 1 0
17.005783 -13.685115 -6.800494 22.863196 -0.677620 1.872809 0.063875 -0.025188 221720.000000 0 1 0
17.158783 -14.277115 -8.090994 23.742873 -0.693986 1.918538 0.064710 -0.028111 98051.700000 0 1 0
16.213083 -15.490015 -8.461094 23.966533 -0.762595 1.931612 0.057195 -0.025608 -11872.500000 0 1 0
14.858383 -15.110815 -8.490894 22.829882 -0.793821 1.951873 0.068167 -0.022849 -173008.000000 0 1 0
14.027783 -16.001815 -9.173194 23.172920 -0.851040 1.977799 0.060818 -0.024682 -162123.000000 0 1 0
13.797783 -15.873515 -10.706994 23.600572 -0.855242 2.041681 0.065052 -0.028970 -938085.000000 0 1 0
13.077383 -14.803715 -11.203594 22.708774 -0.847237 2.086744 0.054060 -0.026456 -148519.000000 0 1 0
13.436783 -13.429315 -10.909394 21.906814 -0.785120 2.092077 0.054983 -0.020191 -392512.000000 0 1 0
13.518783 -12.489815 -12.108794 22.031247 -0.745856 2.152705 0.069686 -0.018883 -74697.200000 0 1 0
14.664883 -12.685815 -12.925194 23.303418 -0.713165 2.158736 0.072303 -0.018956 190200.000000 0 1 0
14.526183 -12.227315 -14.249894 23.739770 -0.699681 2.214615 0.086413 -0.016407 -255808.000000 0 1 0
15.801483 -11.902315 -15.075494 24.872122 -0.645572 2.221970 0.085563 -0.022632 -60755.600000 0 1 0
16.637883 -13.004815 -15.323694 26.091377 -0.663444 2.198526 0.081455 -0.023668 -87384.600000 0 0 1
17.712983 -12.541515 -16.127194 27.039337 -0.616102 2.209848 0.075950 -0.017361 -833776.000000 0 0 1
18.777283 -13.592115 -16.217394 28.290207 -0.626560 2.181265 0.079849 -0.019213 -1096000.000000 0 0 1
19.660283 -13.627615 -15.127694 28.303458 -0.606117 2.134691 0.058972 -0.025495 -227696.000000 0 0 1
20.444683 -14.783215 -15.087994 29.396871 -0.626051 2.109766 0.043356 -0.024580 -640797.000000 0 0 1
21.489283 -14.634415 -13.990894 29.524574 -0.597867 2.064480 0.026343 -0.016778 -749079.000000 0 0 1
22.481283 -13.688015 -14.280394 29.944941 -0.546911 2.067908 0.049330 -0.007020 -341291.000000 0 0 1
23.239483 -13.488115 -13.105594 29.895809 -0.525880 2.024587 0.030711 -0.002638 -175162.000000 0 0 1
23.996783 -12.158415 -13.221894 29.974841 -0.468968 2.027620 0.038913 -0.001483 -245246.000000 0 0 1
23.170783 -10.994215 -13.258294 28.871098 -0.443029 2.047917 0.043036 0.003550 305652.000000 0 0 1
23.894383 -9.792515 -13.434594 29.108816 -0.388947 2.050516 0.059383 -0.000179 32198.100000 0 0 1
24.841483 -9.259315 -12.305294 29.227631 -0.356784 2.005361 0.065448 -0.005892 437026.000000 0 0 1
26.099783 -9.913315 -12.342694 30.525638 -0.362993 1.987052 0.053048 -0.001999 -167778.000000 0 0 1
26.889483 -9.561215 -11.262594 30.680729 -0.341632 1.946675 0.057387 -0.003126 -577551.000000 0 0 1
28.305273 -10.152415 -11.400094 32.159324 -0.344383 1.933163 0.060089 -0.004031 -259036.000000 0 0 1
28.951253 -9.697915 -12.574094 33.020182 -0.323226 1.961458 0.044661 -0.005305 -23259.600000 0 0 1
30.221653 -10.322715 -12.651494 34.350648 -0.329142 1.947981 0.043087 -0.004439 -215845.000000 0 0 1
30.918393 -9.885015 -13.948294 35.330092 -0.309443 1.976646 0.026228 0.002626 -446011.000000 0 0 1
30.337003 -10.308115 -15.198594 35.462490 -0.327547 2.013719 0.020780 -0.001546 65391.500000 0 0 1
31.015533 -9.920215 -16.367494 36.445422 -0.309564 2.036550 0.008221 -0.000281 -625477.000000 0 0 1
30.634613 -10.757715 -17.599994 36.931933 -0.337710 2.067525 -0.007893 0.002002 485706.000000 0 0 1
29.312463 -10.638515 -18.129294 36.070345 -0.348151 2.097411 0.000963 -0.001616 459993.000000 0 0 1
29.231183 -9.471415 -18.939794 36.095506 -0.313343 2.123175 -0.002216 0.009711 -75196.400000 0 0 1
27.809903 -9.030315 -19.372994 35.074922 -0.313975 2.155955 -0.026474 0.005769 -202929.000000 0 0 1
27.312483 -9.688415 -20.455594 35.472079 -0.340878 2.185440 -0.015029 0.016210 -96539.200000 0 0 1
26.056683 -9.114915 -20.760294 34.540153 -0.336506 2.215608 0.013453 0.018203 23672.700000 0 0 1
25.488983 -9.522415 -22.140494 35.079425 -0.357533 2.253835 0.023943 0.015857 -146750.000000 0 0 1
25.281283 -10.902815 -22.365594 35.471600 -0.407161 2.253021 0.029425 0.012417 298478.000000 0 0 1
24.800383 -11.238015 -23.664494 36.074371 -0.425461 2.286292 0.031960 -0.000492 -865398.000000 0 0 1
24.676383 -12.755215 -23.933894 36.666751 -0.477076 2.281993 0.024893 0.008818 43014.400000 0 0 1
25.789183 -13.516115 -24.355094 37.959688 -0.482741 2.267384 0.017801 0.012540 10265.000000 0 0 1
26.958583 -13.391515 -23.553994 38.221571 -0.461039 2.234767 0.010842 0.020831 -538634.000000 0 0 1
28.159293 -14.097615 -24.173394 39.699389 -0.464158 2.225483 -0.002396 0.024462 -152794.000000 0 0 1
28.716333 -13.490815 -25.328804 40.597760 -0.439194 2.244515 0.010343 0.013965 -410538.000000 0 0 1
30.100223 -13.599815 -25.447524 41.695981 -0.424365 2.227250 -0.001395 0.011924 -175888.000000 0 0 1
30.741393 -13.129515 -26.831944 42.864561 -0.403644 2.247172 0.009871 0.013379 190416.000000 0 0 1
30.507723 -14.006515 -27.941414 43.676380 -0.430407 2.264953 0.018702 0.001860 13814.900000 0 0 1
31.282513 -13.643315 -29.057064 44.822412 -0.411262 2.276108 0.019124 -0.004679 55537.000000 0 0 1
31.088843 -14.570815 -30.278284 45.777716 -0.438282 2.293506 0.021194 -0.014311 29324.500000 0 0 1
31.755073 -15.803415 -30.120884 46.533861 -0.461779 2.274820 0.025028 -0.007110 -305240.000000 0 0 1
31.869193 -16.633815 -31.288944 47.658444 -0.481045 2.286998 0.027663 -0.009733 -583790.000000 0 0 1
30.674313 -17.114215 -32.097774 47.582317 -0.508913 2.311183 0.006328 -0.003235 -391881.000000 0 0 1
30.137943 -16.118815 -32.955484 47.478160 -0.491125 2.337991 -0.007165 0.000800 -71475.100000 0 0 1
29.001773 -16.647515 -33.603254 47.406975 -0.521095 2.358628 0.000573 -0.001658 -165400.000000 0 0 1
28.363683 -15.765315 33.820729 46.870944 -0.507306 0.764727 0.026291 -0.001743 -367637.000000 0 0 1
27.665893 -14.626515 -34.185492 46.346353 -0.486331 2.400319 0.032334 -0.006362 -93146.300000 0 0 1
28.472933 -13.534715 -33.869874 46.271641 -0.443737 2.392019 0.027852 -0.009910 -1327950.000000 0 0 1
27.652383 -12.423615 -33.382984 45.093504 -0.422254 2.404322 0.047273 -0.011524 -539302.000000 0 0 1
26.744783 -12.043915 34.092438 44.973699 -0.423126 0.710474 0.064403 -0.022869 -311640.000000 0 0 1
26.051883 -10.891015 -33.954484 44.161315 -0.395970 2.447874 0.046293 -0.025686 25846.900000 0 0 1
20.910336 -29.766417 9.553506 37.610520 -0.958407 1.313971 0.051823 0.006907 118487.000000 0 0 1
21.256436 -29.412217 8.202506 37.204781 -0.944992 1.348501 0.052053 0.004232 1374040.000000 0 0 1
22.523436 -30.040817 7.852006 38.358961 -0.927448 1.364641 0.058255 -0.000630 924579.000000 0 0 1
23.038636 -29.773817 6.435806 38.192650 -0.912244 1.401479 0.048795 -0.000560 -311223.000000 0 0 1
23.526536 -28.469317 6.340206 37.472632 -0.880174 1.400783 0.053445 0.009836 61384.100000 0 0 1
24.087836 -28.212117 5.084506 37.443285 -0.864094 1.434583 0.047126 0.006305 -95225.300000 0 0 1
24.064736 -26.728117 4.781206 36.281727 -0.837786 1.438632 0.048051 -0.002245 -68468.300000 0 0 1
25.040436 -25.950717 5.437706 36.469601 -0.803248 1.421136 0.042952 0.003836 44712.500000 0 0 1
24.717236 -24.561217 5.412106 35.263097 -0.782232 1.416709 0.039691 0.008787 99956.500000 0 0 1
25.670136 -23.621717 6.194706 35.430436 -0.743865 1.395052 0.035736 0.004797 -60729.400000 0 0 1
26.970536 -23.478517 5.667206 36.204527 -0.716290 1.413617 0.040237 -0.003372 702798.000000 0 0 1
27.872536 -22.619017 6.465306 36.473256 -0.681724 1.392593 0.041421 -0.009615 802117.000000 0 0 1
27.483536 -21.158917 6.722806 35.330449 -0.656101 1.379345 0.039924 0.000355 -511772.000000 0 0 1
27.512536 -20.476217 5.518906 34.737205 -0.639811 1.411244 0.052171 0.007421 106523.000000 0 0 1
27.088536 -19.125517 5.587306 33.627253 -0.614766 1.403868 0.056226 -0.001899 -110961.000000 0 0 1
27.045036 -18.385517 4.218606 32.973593 -0.597048 1.442506 0.057286 0.006969 -367694.000000 0 0 1
28.297036 -17.932917 3.822506 33.718293 -0.564858 1.457186 0.106279 -0.000901 -575093.000000 0 0 1
28.186036 -17.421817 2.477306 33.228141 -0.553623 1.496173 0.100069 0.003940 242795.000000 0 0 1
29.227836 -16.347317 2.046506 33.551294 -0.509960 1.509762 0.103628 -0.016956 211282.000000 0 0 1
29.186236 -15.161217 2.886706 33.015632 -0.479098 1.483250 0.108886 -0.019980 -85795.700000 0 0 1
30.449436 -14.562117 3.093906 33.893888 -0.446088 1.479387 0.124203 -0.027455 149316.000000 0 0 1
30.462236 -13.353617 4.012106 33.501700 -0.413137 1.450750 0.128074 -0.033651 100993.000000 0 0 1
30.099736 -13.819717 5.273906 33.537930 -0.430421 1.412889 0.113033 -0.018563 -48166.500000 0 0 1
29.996436 -12.783417 6.175006 33.186332 -0.402857 1.383635 0.090182 -0.027141 -113625.000000 0 0 1
29.409336 -13.262417 7.519906 33.126270 -0.423652 1.341793 0.085384 -0.030909 -600959.000000 0 0 1
28.011136 -13.359617 7.614506 31.954402 -0.445030 1.330189 0.063658 -0.016937 -184174.000000 0 0 1
27.488236 -13.300917 8.955106 31.823127 -0.450666 1.285541 0.062278 -0.013195 226037.000000 0 0 1
27.774636 -14.476017 9.897806 32.847405 -0.480460 1.264712 0.058543 -0.017226 -525435.000000 0 0 1
29.097336 -14.460017 10.363606 34.105005 -0.461207 1.262041 0.053092 -0.011494 -269591.000000 0 0 1
29.413436 -15.654817 10.985506 35.084254 -0.489101 1.252322 0.048307 -0.014758 -357861.000000 0 0 1
30.092436 -15.478917 12.326906 36.015333 -0.475085 1.221466 0.045605 -0.009011 -166141.000000 0 0 1
31.416436 -14.987417 12.205406 36.886136 -0.445125 1.233545 0.049852 -0.007405 -33972.800000 0 0 1
31.907936 -14.941717 13.490406 37.727475 -0.437948 1.205126 0.042723 -0.008409 726361.000000 0 0 1
33.478536 -14.955517 13.599006 39.107708 -0.420123 1.215645 0.046735 -0.016014 924700.000000 0 0 1
34.105536 -13.696317 13.563006 39.175653 -0.381873 1.217268 0.051470 -0.013846 390181.000000 0 0 1
35.509036 -13.756117 13.361606 40.356597 -0.369595 1.233339 0.061860 -0.013567 66803.900000 0 0 1
36.175236 -12.363017 13.449306 40.526235 -0.329310 1.232515 0.067290 -0.016402 -205728.000000 0 0 1
-35.194111 -12.437717 12.856306 39.479195 0.339704 1.239100 0.079612 -0.021917 -20679.200000 0 0 1
-34.639511 -11.153917 12.656506 38.529116 0.311516 1.236090 0.078069 -0.025668 -273176.000000 0 0 1
-33.504611 -11.067917 11.623106 37.150429 0.319054 1.252587 0.074916 -0.027189 288994.000000 0 0 1
-32.343611 -11.852517 11.851206 36.428594 0.351259 1.239439 0.066001 -0.022586 353508.000000 0 0 1
-32.533911 -13.223817 11.630206 36.994410 0.386065 1.250996 0.055212 -0.022648 -717817.000000 0 0 1
-31.269111 -14.100317 11.823706 36.281900 0.423631 1.238849 0.040451 -0.018161 -183603.000000 0 0 1
-30.156111 -13.660517 11.127606 34.925984 0.425340 1.246539 0.048716 -0.014855 -207743.000000 0 0 1
-28.995511 -14.362717 11.574506 34.365630 0.459915 1.227275 0.053126 -0.014409 1373300.000000 0 0 1
-27.599111 -14.090417 10.900906 32.849361 0.472043 1.232537 0.057306 -0.010042 731925.000000 0 0 1
-27.509611 -14.537717 9.528406 32.540966 0.486155 1.273629 0.050109 -0.003761 621074.000000 0 0 1
-26.151511 -14.547417 9.076606 31.271611 0.507648 1.276308 0.057099 0.002609 607008.000000 0 0 1
-26.085611 -14.518817 7.519506 30.786330 0.507884 1.324052 0.069884 0.004479 4699.410000 0 0 1
-26.430211 -15.723817 6.866306 31.510961 0.536675 1.351132 0.066945 0.007469 148177.000000 0 0 1
-26.403211 -15.531817 5.472406 31.117746 0.531739 1.394016 0.077157 0.004505 -322410.000000 0 0 1
-26.796311 -16.759517 4.640206 31.944565 0.558917 1.425023 0.069345 0.002050 15046.100000 0 0 1
-28.190411 -16.722317 4.410206 33.072422 0.535398 1.437048 0.044839 -0.007465 -180878.000000 0 0 1
-28.581511 -17.782117 3.579506 33.851430 0.556551 1.464857 0.052632 -0.006701 -831027.000000 0 0 1
-30.053111 -18.054817 3.795506 35.264313 0.540981 1.462957 0.059882 -0.010994 -492484.000000 0 0 1
-30.911611 -17.061917 3.196406 35.452133 0.504345 1.480513 0.062870 -0.013729 -189345.000000 0 0 1
-32.255511 -17.379017 3.431606 36.799785 0.494198 1.477410 0.065632 -0.010737 -357793.000000 0 0 1
-33.274411 -16.442217 2.779506 37.219062 0.458949 1.496047 0.058409 -0.021535 -76729.700000 0 0 1
-33.701711 -17.009017 1.555806 37.782702 0.467395 1.529607 0.060974 -0.017892 -348291.000000 0 0 1
-34.675011 -16.184217 0.970306 38.278281 0.436687 1.545445 0.082861 -0.024330 -371756.000000 0 0 1
-35.208611 -16.886117 -0.254394 39.049353 0.447196 1.577311 0.079024 -0.021667 -164334.000000 0 0 1
-34.211611 -16.871717 -1.275294 38.166943 0.458159 1.604216 0.068813 -0.018407 680539.000000 0 0 1
-34.531611 -17.714717 -2.333294 38.880427 0.473993 1.630844 0.060736 -0.012183 510590.000000 0 0 1
-33.222911 -17.983117 -3.152494 37.909004 0.496129 1.654052 0.052512 -0.013720 546132.000000 0 0 1
-33.500311 -18.887117 -4.167094 38.682796 0.513368 1.678731 0.056872 -0.012434 125726.000000 0 0 1
-32.362011 -19.622217 -4.537594 38.117200 0.545065 1.690123 0.059639 -0.009777 -376003.000000 0 0 1
-32.725111 -20.683217 -5.568294 39.111818 0.563638 1.713650 0.064672 -0.013238 -341095.000000 0 0 1
-33.407511 -21.748317 -4.986394 40.173564 0.577078 1.695239 0.056348 -0.011947 -92767.100000 0 0 1
-33.788111 -22.612817 -6.065894 41.106825 0.589791 1.718901 0.055171 -0.007518 444772.000000 0 0 1
-34.554011 -23.910717 -5.588294 42.390224 0.605324 1.703011 0.036339 -0.002685 232075.000000 0 0 1
-33.649711 -24.772117 -4.977494 42.080118 0.634595 1.689360 0.048925 0.000810 -97945.000000 0 0 1
-34.354611 -25.953817 -4.599794 43.301248 0.646992 1.677225 0.028216 0.011340 470078.000000 0 0 1
-33.415111 -27.048617 -4.078294 43.183676 0.680490 1.665378 0.033648 0.008341 -690491.000000 0 0 1
-32.556011 -27.601417 -5.018694 42.975800 0.703223 1.687843 0.021879 0.003562 16131.800000 0 0 1
-31.838611 -28.771017 -4.566194 43.154591 0.734829 1.676805 0.025391 0.001580 485544.000000 0 0 1
-30.683611 -28.633317 -3.555094 42.118755 0.750847 1.655303 0.044864 -0.004324 -276455.000000 0 0 1
-31.239911 -28.415717 -2.300294 42.292746 0.738092 1.625213 0.033907 -0.000843 -196931.000000 0 0 1
-30.254611 -28.538217 -1.302094 41.610898 0.756213 1.602094 0.040468 -0.002183 -152403.000000 0 0 1
-30.736011 -28.380417 0.148506 41.835063 0.745573 1.567247 0.037899 0.005959 -175150.000000 0 0 1
-31.233911 -29.542217 0.774806 42.998839 0.757571 1.552776 0.035818 0.005193 -31954.300000 0 0 1
-31.932411 -29.344017 2.015106 43.414409 0.743182 1.524364 0.034282 0.011712 34637.800000 0 0 1
-32.644311 -30.668317 2.378706 44.853706 0.754198 1.517739 0.023120 0.005435 -894735.000000 0 0 1
-33.277611 -30.603817 3.625206 45.355652 0.743567 1.490783 0.031703 0.013150 509617.000000 0 0 1
-33.979811 -31.825617 4.047806 46.732026 0.752674 1.484070 0.031931 0.006803 372387.000000 0 0 1
-35.085211 -32.403517 3.171206 47.864564 0.745684 1.504494 0.031133 0.005281 -949379.000000 0 0 1
-35.767011 -33.416017 3.850906 49.099275 0.751429 1.492285 0.048634 -0.002058 -192928.000000 0 0 1
35.884136 -33.987617 3.027606 49.517631 -0.758262 1.509616 0.058237 -0.006756 -848661.000000 0 0 1
34.835836 33.617485 3.795706 48.560047 0.767602 1.492551 0.061894 -0.009908 258965.000000 0 0 1
33.980936 -34.205817 4.751306 48.449116 -0.788696 1.472570 0.051246 -0.010599 818783.000000 0 0 1
33.319936 -33.009317 4.248006 47.094360 -0.780715 1.480472 0.051777 -0.007328 -719734.000000 0 0 1
32.075236 -33.088417 3.362406 46.205734 -0.800945 1.497962 0.056241 -0.002682 -554912.000000 0 0 1
32.477336 -33.657617 2.161406 46.821835 -0.803243 1.524618 0.066308 -0.006713 -286362.000000 0 0 1
31.628736 -33.408117 1.060706 46.017435 -0.812751 1.547744 0.055482 0.002348 -1579290.000000 0 0 1
32.065736 -34.120517 -0.220594 46.823816 -0.816434 1.575507 0.056890 0.004794 -4859.560000 0 0 1
33.118436 -33.627617 -0.991494 47.208373 -0.793027 1.591800 0.035791 0.019119 -505472.000000 0 0 1
34.325136 -33.495317 -0.273394 47.960671 -0.773163 1.576497 0.034224 0.012186 -1435630.000000 0 0 1
35.593236 -33.200017 -1.077994 48.685538 -0.750624 1.592940 0.017969 0.020116 -176295.000000 0 0 1
35.948336 34.171685 -1.861394 49.633172 0.760066 1.608308 0.019890 0.004805 -246610.000000 0 0 1
-35.890211 -33.928917 -2.911894 49.474820 0.757314 1.629686 0.008193 0.004522 -585152.000000 0 0 1
-35.261311 33.427385 -3.792394 48.735330 -0.758705 1.648691 0.002364 0.005873 -238515.000000 0 0 1
-34.114611 32.818685 -3.262594 47.450156 -0.766039 1.639609 0.011655 -0.000890 -67040.100000 0 0 1
-33.597111 31.844785 -4.175494 46.478931 -0.758628 1.660754 0.029111 -0.009740 323497.000000 0 0 1
-32.330511 31.050485 -3.744394 44.982386 -0.765205 1.654134 0.046685 -0.019490 388979.000000 0 0 1
-31.135511 31.826185 -3.882994 44.692323 -0.796367 1.657789 0.042165 -0.016433 -287028.000000 0 0 1
-29.938711 31.127485 -3.873794 43.361885 -0.804863 1.660252 0.068728 -0.019500 -216419.000000 0 0 1
-29.383311 30.956585 -2.426194 42.750153 -0.811466 1.627580 0.057054 -0.018382 -21749.300000 0 0 1
-30.217811 30.102485 -1.608794 42.683298 -0.783486 1.608497 0.056207 -0.012734 302998.000000 0 0 1
-29.791111 30.118485 -0.263494 42.363934 -0.790863 1.577016 0.052735 -0.013117 -368553.000000 0 0 1
-30.938611 29.600985 0.601606 42.822633 -0.763307 1.556747 0.052778 -0.013873 -76072.300000 0 0 1
-31.343211 28.241885 0.345306 42.191471 -0.733396 1.562612 0.051919 -0.021369 -406590.000000 0 0 1
-32.381211 28.121685 -0.563594 42.891604 -0.715112 1.583937 0.061476 -0.016696 -835445.000000 0 0 1
-32.667311 26.751185 -1.158694 42.238865 -0.686158 1.598232 0.064918 -0.014456 21161.100000 0 0 1
-33.114311 25.776985 -0.275994 41.965304 -0.661446 1.577373 0.067278 -0.013939 -85860.800000 0 0 1
-33.555911 24.598985 -0.941594 41.617254 -0.632581 1.593423 0.073945 -0.007261 -3364.240000 0 0 1
-33.747711 23.360185 0.014406 41.043958 -0.605472 1.570445 0.086840 -0.013709 109406.000000 0 0 1
-32.526911 22.917285 0.577306 39.793658 -0.613782 1.556288 0.090305 -0.023038 125164.000000 0 0 1
-32.208111 23.667585 1.738906 40.006760 -0.633723 1.527317 0.076860 -0.023539 -797140.000000 0 0 1
-30.751311 23.461485 2.200006 38.741766 -0.651733 1.513979 0.054751 -0.027218 -64005.500000 0 0 1
-29.730411 24.190485 1.550506 38.359888 -0.683016 1.530365 0.056129 -0.022306 149985.000000 0 0 1
-29.683311 25.568085 1.917406 39.223748 -0.711054 1.521893 0.030495 -0.015446 -342677.000000 0 0 1
-28.870511 26.462685 0.921306 39.174340 -0.741911 1.547276 0.028855 -0.011353 318975.000000 0 0 1
-27.535311 26.051785 0.675606 37.912337 -0.757721 1.552975 0.023861 -0.010250 -72370.900000 0 0 1
-26.920111 27.038185 -0.127994 38.154583 -0.787586 1.574151 0.036961 -0.018055 -144685.000000 0 0 1
-25.751511 26.562985 -0.994894 37.009760 -0.800908 1.597682 0.036136 -0.016880 -742435.000000 0 0 1
-26.016911 25.710785 -2.109894 36.638447 -0.779480 1.628415 0.050758 -0.022241 -240010.000000 0 0 1
-24.896311 25.069585 -2.683194 35.433176 -0.788866 1.646594 0.044362 -0.009872 737245.000000 0 0 1
-24.051411 23.989085 -1.778094 34.016293 -0.784101 1.623092 0.033206 -0.008052 1125060.000000 0 0 1
-24.755011 22.792785 -1.439894 33.680780 -0.744153 1.613561 0.021792 -0.009212 137960.000000 0 0 1
-23.740911 21.853985 -1.235694 32.291709 -0.744037 1.609072 0.024085 -0.024511 -420866.000000 0 0 1
-24.363211 20.430685 -1.109394 31.815243 -0.697831 1.605673 0.031964 -0.025127 -450135.000000 0 0 1
-25.094211 20.178985 0.105606 32.201274 -0.677254 1.567517 0.026394 -0.018581 742936.000000 0 0 1
-26.386411 20.804085 0.220606 33.602103 -0.667652 1.564231 0.017780 -0.021694 918608.000000 0 0 1
-27.423411 20.194685 -0.823494 34.066801 -0.634742 1.594972 0.030832 -0.032026 -707818.000000 0 0 1
-27.849211 18.857785 -0.538894 33.637554 -0.595218 1.586818 0.038986 -0.033559 221727.000000 0 0 1
-28.760011 18.442785 -1.524294 34.199387 -0.570210 1.615382 0.052656 -0.030275 -235568.000000 0 0 1
-29.082111 16.958285 -1.541294 33.700567 -0.527913 1.616547 0.044670 -0.031119 -117355.000000 0 0 1
-29.916511 16.465085 -0.496894 34.151773 -0.503126 1.585346 0.055645 -0.032253 522056.000000 0 0 1
-30.091911 15.040485 -0.382194 33.643504 -0.463502 1.582157 0.059674 -0.033912 414457.000000 0 0 1
-28.894211 14.305685 0.328906 32.243391 -0.459724 1.560595 0.061080 -0.027819 27623.800000 0 0 1
-28.708611 14.561185 1.700806 32.235155 -0.469396 1.518009 0.065736 -0.028279 263785.000000 0 0 1
-27.446311 14.216885 2.249006 30.991577 -0.477935 1.498164 0.067773 -0.029145 236076.000000 0 0 1
-27.023111 12.730985 2.267106 29.957742 -0.440274 1.495047 0.080063 -0.024465 -497679.000000 0 0 1
-26.794411 12.202785 0.996306 29.459142 -0.427354 1.536970 0.077553 -0.027277 343935.000000 0 0 1
-26.281911 10.879985 1.133206 28.467474 -0.392493 1.530979 0.099516 -0.023264 -13619.100000 0 0 1
-26.213711 10.192685 -0.241794 28.126641 -0.370840 1.579393 0.098359 -0.020044 -385550.000000 0 0 1
-27.503411 9.836485 -0.656294 29.216858 -0.343470 1.593261 0.094656 -0.015342 -63455.900000 0 0 1
-27.432811 9.145285 -1.881894 28.978214 -0.321784 1.635784 0.103783 -0.017407 826695.000000 0 0 1
-28.795611 8.876385 -2.654794 30.249386 -0.299013 1.658673 0.097955 -0.021323 727299.000000 0 0 1
-28.643711 8.308585 -3.929994 30.082215 -0.282319 1.701813 0.111620 -0.016485 937050.000000 0 0 1
-29.901011 8.136885 -4.622894 31.331303 -0.265694 1.718886 0.104499 -0.016155 819266.000000 0 0 1
-10.576064 18.003085 -19.821894 28.790132 -1.039650 2.330210 0.067617 0.002036 432861.000000 0 0 1
-11.411764 17.076285 -20.568794 29.067218 -0.981677 2.356933 0.065930 -0.002482 315846.000000 0 0 1
-10.919064 16.863485 -21.880894 29.704825 -0.996182 2.398842 0.056837 -0.010469 79525.600000 0 0 1
-11.547464 15.721485 -22.744794 29.963890 -0.937288 2.432685 0.058895 -0.007594 30348.900000 0 0 1
-11.035164 14.436985 -22.466694 28.895566 -0.918163 2.461499 0.046666 -0.011699 23075.500000 0 0 1
-10.740664 13.541485 -23.566294 29.225056 -0.900236 2.508790 0.049409 -0.011139 -3594.800000 0 0 1
-9.898064 12.318585 -23.156494 28.034665 -0.893921 2.542762 0.023611 -0.003935 1688920.000000 0 0 1
-8.462964 12.524885 -22.962694 27.491450 -0.976571 2.559414 0.040726 -0.011729 1071240.000000 0 0 1
-7.883464 11.353485 -22.595894 26.488206 -0.963862 2.592608 0.022179 -0.006802 -604335.000000 0 0 1
-6.397464 11.492585 -22.271294 25.865375 -1.062854 2.608121 0.045847 -0.006376 104809.000000 0 0 1
-5.559864 11.389885 -23.457494 26.662626 -1.116681 2.646215 0.039589 -0.008628 273354.000000 0 0 1
-4.237964 11.030085 -23.100794 25.947443 -1.203968 2.668782 0.041827 -0.013362 231687.000000 0 0 1
-3.307464 10.929185 -24.335894 26.881632 -1.276931 2.702878 0.054735 -0.020546 -118942.000000 0 0 1
-3.461664 9.735985 -25.153714 27.193416 -1.229183 2.751813 0.048339 -0.018203 -80784.900000 0 0 1
-2.701264 9.826985 -26.347434 28.249845 -1.302540 2.772507 0.044091 -0.018360 -228044.000000 0 0 1
-2.467964 8.502785 -27.088404 28.498594 -1.288305 2.825693 0.039701 -0.007330 39343.100000 0 0 1
-1.473764 7.597785 -26.625434 27.727460 -1.379203 2.858711 0.038367 -0.010272 11444.500000 0 0 1
-1.792164 6.914985 -25.405994 26.391162 -1.317205 2.867498 0.040947 -0.021565 -733280.000000 0 0 1
-0.692064 6.037285 -24.821694 25.554731 -1.456663 2.901496 -0.018795 -0.012285 -474343.000000 0 0 1
-0.022964 6.867485 -23.898994 24.866138 -1.567452 2.861776 0.012435 -0.012139 -297958.000000 0 1 0
1.024736 6.156085 -23.286794 24.108551 1.405850 2.879749 0.008968 -0.003659 -173552.000000 0 1 0
1.373436 6.674585 -21.830294 22.869153 1.367858 2.839022 0.022051 -0.004634 327384.000000 0 1 0
2.177136 7.864785 -21.941194 23.409630 1.300738 2.785517 0.022019 -0.016460 260322.000000 0 1 0
2.383936 8.322485 -20.603994 22.348859 1.291821 2.743820 0.041659 -0.015842 114048.000000 0 1 0
3.145236 9.682185 -20.648894 23.022034 1.256702 2.683548 0.046708 -0.022151 -83423.400000 0 1 0
2.894436 10.412885 -19.495594 22.290898 1.299674 2.635404 0.037324 -0.026610 33774.100000 0 1 0
3.508836 11.682385 -19.482394 22.985946 1.279016 2.582202 0.047760 -0.029544 319913.000000 0 1 0
4.736336 11.725585 -18.514994 22.421580 1.186905 2.542357 0.045449 -0.034293 523283.000000 0 1 0
5.824836 10.937385 -18.968294 22.657257 1.081440 2.562910 0.055507 -0.032239 179531.000000 0 1 0
6.765236 10.596785 -17.957794 21.921283 1.002602 2.530801 0.054407 -0.035878 -253718.000000 0 1 0
7.871336 9.661285 -18.426294 22.244700 0.887138 2.546944 0.076435 -0.040041 -752508.000000 0 1 0
7.548136 8.317285 -18.719494 21.830507 0.833840 2.601172 0.080880 -0.033228 191808.000000 0 1 0
6.892436 8.166385 -20.012594 22.686988 0.869795 2.651136 0.069777 -0.022790 321938.000000 0 1 0
6.694436 6.720585 -20.454694 22.547200 0.787347 2.707363 0.071095 -0.014930 171910.000000 0 1 0
7.961836 6.113685 -20.601194 22.916744 0.654843 2.688182 0.075007 -0.009720 391173.000000 0 1 0
7.765136 4.786185 -21.097594 22.985069 0.552368 2.733508 0.063744 0.007079 -105412.000000 0 1 0
7.626936 4.620185 -22.641194 24.333925 0.544653 2.766401 0.076474 0.001359 312881.000000 0 1 0
6.369436 5.071085 -23.155694 24.545301 0.672395 2.803491 0.084077 -0.009879 240569.000000 0 1 0
6.064436 4.695385 -24.482494 25.655731 0.658841 2.838005 0.085996 -0.014201 -187229.000000 0 0 1
4.687336 5.282585 -24.817494 25.802807 0.845032 2.864350 0.064477 -0.015552 -124685.000000 0 0 1
4.846736 6.641485 -25.139004 26.449380 0.940371 2.825500 0.084990 -0.022341 211905.000000 0 0 1
4.774436 7.530185 -24.008094 25.610301 1.005723 2.785996 0.079731 -0.032336 -915121.000000 0 0 1
4.806736 9.001285 -24.478694 26.520451 1.080316 2.746633 0.090651 -0.031229 321542.000000 0 0 1
3.716936 9.435185 -25.279644 27.237818 1.195521 2.760095 0.081951 -0.030810 350052.000000 0 0 1
2.508936 9.617685 -24.554694 26.490142 1.315616 2.756962 0.068541 -0.027827 161617.000000 0 0 1
1.300936 10.086185 -25.419224 27.378103 1.442523 2.761017 0.050428 -0.013962 293071.000000 0 0 1
1.511236 11.440185 -25.793334 28.256995 1.439458 2.720915 0.073612 -0.029010 -226433.000000 0 0 1
0.451736 11.900985 -26.566404 29.113766 1.532857 2.720158 0.077728 -0.028122 -386289.000000 0 0 1
0.430836 13.459085 -26.784344 29.978887 1.538796 2.675743 0.077707 -0.032787 -595201.000000 0 0 1
0.190236 14.101785 -25.528134 29.164742 1.557307 2.636869 0.070107 -0.036295 -176979.000000 0 0 1
-0.210164 15.395085 -25.827784 30.068709 -1.557146 2.604029 0.078427 -0.041802 -201607.000000 0 0 1
-0.887764 16.006185 -24.580394 29.345900 -1.515389 2.563688 0.087734 -0.030820 1030870.000000 0 0 1
-2.175064 15.418085 -24.260294 28.827246 -1.430649 2.570989 0.079605 -0.030072 841959.000000 0 0 1
-2.546064 15.673985 -22.933794 27.894716 -1.409764 2.535984 0.079596 -0.037019 -263992.000000 0 0 1
-3.823564 14.940585 -22.493094 27.272331 -1.320256 2.540572 0.074416 -0.026791 567977.000000 0 0 1
-5.120364 15.404185 -22.855994 28.033971 -1.249885 2.524037 0.079291 -0.023812 432859.000000 0 0 1
-5.461464 15.062085 -24.206294 29.028239 -1.222944 2.556911 0.075611 -0.024414 -546880.000000 0 0 1
-6.951064 15.094885 -24.563694 29.657173 -1.139252 2.546782 0.051835 -0.019047 -270256.000000 0 0 1
-7.505864 16.308885 -24.925994 30.718446 -1.139466 2.517398 0.058324 -0.017046 -139919.000000 0 0 1
-8.852264 16.151385 -25.309244 31.301560 -1.069428 2.512500 0.055877 -0.012945 -247977.000000 0 0 1
-9.591664 17.372285 -25.864604 32.600216 -1.066323 2.487150 0.064492 -0.021127 7869.900000 0 0 1
-9.971664 18.211385 -24.803994 32.346975 -1.069835 2.444653 0.065404 -0.020499 -182771.000000 0 0 1
-10.881364 19.193285 -25.192414 33.487968 -1.055043 2.422316 0.061119 -0.016388 -138996.000000 0 0 1
-11.229764 20.247385 -24.173594 33.472778 -1.064407 2.377755 0.045225 -0.009751 627233.000000 0 0 1
-10.348964 21.418585 -24.175994 33.916597 -1.120698 2.364289 0.060192 -0.006467 914693.000000 0 0 1
-11.003564 22.594985 -24.687794 35.229235 -1.117610 2.347281 0.043176 -0.010955 129822.000000 0 0 1
-10.852964 23.005685 -26.138134 36.472599 -1.130002 2.369785 0.032640 -0.014039 111858.000000 0 0 1
-11.506364 22.119685 -27.052794 36.790360 -1.091130 2.396939 0.031190 -0.013505 100459.000000 0 0 1
-11.545064 22.650085 -28.396734 38.114162 -1.099408 2.411397 0.045532 -0.013629 134396.000000 0 0 1
-12.220464 21.651485 -29.432554 38.527935 -1.056952 2.440174 0.034868 -0.011560 74002.500000 0 0 1
-11.445364 20.559485 -29.804924 37.973969 -1.062827 2.473295 0.056483 -0.021264 -355319.000000 0 0 1
-11.246764 19.498785 -28.887324 36.621986 -1.047616 2.479646 0.062789 -0.017518 -270393.000000 0 0 1
-10.043664 18.663785 -29.344994 36.198629 -1.077107 2.516085 0.048652 -0.018217 -1379910.000000 0 0 1
-8.828264 19.340585 -29.295974 36.197384 -1.142581 2.513823 0.047399 -0.015840 -593530.000000 0 0 1
-7.760564 18.673185 -29.926054 36.117626 -1.176915 2.547349 0.049063 -0.014008 210780.000000 0 0 1
-7.194364 17.363185 -29.351084 34.852908 -1.177984 2.572039 0.068716 -0.025733 -728328.000000 0 0 1
-8.115764 16.279785 -29.469704 34.631785 -1.108335 2.588576 0.058004 -0.023339 333339.000000 0 0 1
-7.695164 15.152385 -28.763464 33.408789 -1.100887 2.607940 0.042195 -0.014606 190193.000000 0 0 1
-8.924064 14.222185 -28.743404 33.288027 -1.010419 2.612917 0.044883 -0.013498 579142.000000 0 0 1
-10.074364 14.699785 -28.065794 33.245531 -0.969977 2.575863 0.051713 -0.014681 677470.000000 0 0 1
-11.216764 13.830885 -28.227894 33.375488 -0.889388 2.578798 0.067294 -0.017511 879881.000000 0 0 1
-12.260064 14.096885 -27.111804 32.925389 -0.854976 2.538229 0.050942 -0.011490 -297589.000000 0 0 1
-12.936464 15.278485 -27.318714 33.868811 -0.868215 2.509180 0.044836 -0.016959 -649554.000000 0 0 1
-13.827564 15.499985 -26.248454 33.472861 -0.842362 2.472156 0.034489 -0.016047 -35935.400000 0 0 1
-14.715664 16.739385 -26.491724 34.620359 -0.849647 2.442158 0.010119 -0.014059 402945.000000 0 0 1
-14.035064 18.027785 -26.341854 34.869433 -0.909288 2.427126 0.014022 -0.009129 -276364.000000 0 0 1
-14.966764 18.986185 -26.568464 35.921617 -0.903232 2.403307 -0.013520 -0.002429 -918255.000000 0 0 1
-14.427264 20.419985 -26.424464 36.378209 -0.955703 2.383839 -0.008468 -0.008164 28281.500000 0 0 1
-15.532864 21.314285 -26.509234 37.393958 -0.941032 2.358759 -0.043646 0.002815 234557.000000 0 0 1
-15.249264 22.663685 -26.869214 38.316281 -0.978525 2.347943 -0.028543 0.000955 -38042.400000 0 0 1
-14.935364 23.563485 -25.614224 37.873360 -1.005869 2.313541 -0.050414 -0.000171 -49867.600000 0 0 1
-14.243164 24.699485 -25.968894 38.565733 -1.047717 2.309550 -0.020649 -0.014112 -232856.000000 0 0 1
-13.901564 25.466885 -24.827694 38.186780 -1.071131 2.278597 0.001892 -0.016613 19560.100000 0 0 1
-13.327664 26.905285 -25.124924 39.150770 -1.110872 2.267572 0.022453 -0.020619 722507.000000 0 0 1
-14.310864 27.934785 -25.428794 40.395255 -1.097361 2.251705 0.033942 -0.017844 222624.000000 0 0 1
-14.750364 28.527285 -24.234394 40.232886 -1.093593 2.217242 0.046153 -0.025131 -98621.000000 0 0 1
-15.970264 29.407285 -24.619094 41.544405 -1.073288 2.205076 0.035711 -0.026082 295509.000000 0 0 1
-17.170164 28.674285 -24.694094 41.555114 -1.031260 2.207128 0.020850 -0.020834 -1300640.000000 0 0 1
-18.219964 29.412785 -25.183084 42.793303 -1.016193 2.199976 0.025181 -0.018724 -318436.000000 0 0 1
-19.495864 28.538685 -25.351544 42.863109 -0.971477 2.203657 0.045484 0.001682 206581.000000 0 0 1
-20.079264 28.229085 -24.104594 42.202957 -0.952529 2.178713 0.053714 -0.008718 -597441.000000 0 0 1
-21.026164 27.218285 -24.218994 42.065358 -0.913049 2.184314 0.051247 -0.025997 -345447.000000 0 0 1
-21.699864 26.813885 -22.882594 41.394223 -0.890424 2.156513 0.054664 -0.019327 89444.100000 0 0 1
-22.600464 27.795685 -22.424194 42.263762 -0.888123 2.130078 0.046105 -0.008592 -185730.000000 0 0 1
-23.042364 27.601085 -21.112094 41.695215 -0.875172 2.101735 0.023719 -0.003091 14901.400000 0 0 1
-24.356064 28.357585 -20.744694 42.751758 -0.861163 2.077429 0.012151 0.010457 1175580.000000 0 0 1
-25.496884 27.633885 -21.288094 43.207704 -0.825598 2.085977 -0.002204 0.008161 574226.000000 0 0 1
-26.666404 28.431585 -21.301894 44.420973 -0.817424 2.070933 0.007157 0.008051 857578.000000 0 0 1
-27.970774 27.642585 -21.671394 44.901292 -0.779497 2.074469 0.006437 0.003067 556412.000000 0 0 1
-28.003574 27.194085 -23.038694 45.326591 -0.770734 2.103985 0.006645 0.008561 -20448.300000 0 0 1
-29.364254 26.915985 -23.322294 46.159063 -0.741924 2.100479 0.010456 -0.000418 298915.000000 0 0 1
-29.476494 26.605685 -24.832794 46.833683 -0.734253 2.129672 0.010524 0.006122 268360.000000 0 0 1
-28.901164 25.321385 -25.080504 45.885526 -0.719474 2.149081 0.014052 0.009568 -152757.000000 0 0 1
-29.191904 25.020985 -26.426524 46.653812 -0.708614 2.172974 0.031940 -0.000309 -110178.000000 0 0 1
-29.077354 23.551485 -26.857034 46.059367 -0.680785 2.193331 0.033758 -0.006609 287031.000000 0 0 1
-27.797874 22.917385 -26.837404 44.924098 -0.689460 2.211044 0.038620 -0.026072 236604.000000 0 0 1
-27.832494 21.754985 -27.666734 44.870651 -0.663445 2.235199 0.058005 -0.034356 976361.000000 0 0 1
-26.592314 20.782985 -27.435754 43.494876 -0.663384 2.253356 0.058994 -0.029117 979021.000000 0 0 1
-26.629064 20.290285 -26.108644 42.455436 -0.651112 2.233139 0.053368 -0.027678 186457.000000 0 0 1
-25.950324 19.045985 -26.005894 41.382066 -0.633143 2.250335 0.031286 -0.030135 46634.800000 0 0 1
-26.896364 17.833185 -25.933564 41.400322 -0.585483 2.247735 0.030958 -0.011635 253705.000000 0 0 1
-27.667214 17.443485 -27.093124 42.471017 -0.562527 2.262591 0.035557 -0.015258 293686.000000 0 0 1
-28.508874 16.410785 -26.699434 42.366609 -0.522313 2.252607 0.021476 -0.010690 -368857.000000 0 0 1
-29.421454 15.797685 -27.795164 43.448360 -0.492765 2.264942 0.017432 -0.013163 558379.000000 0 0 1
-30.634244 16.529885 -28.001754 44.674291 -0.494815 2.248233 0.015789 -0.013987 444392.000000 0 0 1
-31.370844 15.867285 -29.026144 45.589666 -0.468275 2.260985 0.026189 -0.007017 892585.000000 0 0 1
-32.732614 16.487185 -29.521934 47.061618 -0.466598 2.248883 0.037724 -0.011005 840055.000000 0 0 1
-33.800484 16.292685 -28.619244 47.190947 -0.449165 2.222392 0.026529 -0.004869 -7194.950000 0 0 1
-35.033870 16.557785 -29.255194 48.553050 -0.441506 2.217477 0.037104 -0.009716 571642.000000 0 0 1
-36.310884 16.426985 -28.365584 48.917610 -0.424847 2.189359 0.046583 -0.003579 246814.000000 0 0 1
36.120283 17.465685 -27.407194 48.588880 0.450395 2.170095 0.050568 -0.012406 -9399.740000 0 0 1
34.977693 17.132985 -26.658864 47.198233 0.455475 2.171021 0.064921 -0.013893 -134455.000000 0 0 1
34.511073 18.217685 -25.653694 46.701287 0.485702 2.152340 0.081038 -0.013984 -74987.200000 0 0 1
33.925883 19.327285 -26.326864 47.091541 0.517836 2.164045 0.085337 -0.024083 328569.000000 0 0 1
33.313803 20.242685 -25.394794 46.523879 0.546016 2.148193 0.101231 -0.022986 -350082.000000 0 0 1
32.591723 21.454885 -26.031934 46.906226 0.582183 2.159133 0.096538 -0.027497 665622.000000 0 0 1
31.196413 21.371785 -26.288624 46.054979 0.600637 2.178288 0.086879 -0.022944 374718.000000 0 0 1
30.289063 21.309785 -25.188224 44.788178 0.613103 2.168064 0.088858 -0.018864 642445.000000 0 0 1
28.810853 21.175685 -25.705854 44.037096 0.633825 2.194114 0.050583 -0.020739 774012.000000 0 0 1
28.558953 19.959585 -26.346284 43.682096 0.609981 2.218224 0.055495 -0.031461 -701783.000000 0 0 1
27.254783 19.850985 -26.816764 43.081593 0.629500 2.242684 0.055845 -0.032151 -521107.000000 0 0 1
26.703883 18.387785 -26.977584 42.178170 0.603021 2.264787 0.079492 -0.032854 105496.000000 0 0 1
27.484883 17.542885 -27.826944 42.866192 0.568088 2.277274 0.084250 -0.038073 1009670.000000 0 0 1
28.555583 16.846285 -27.136174 42.843793 0.532995 2.256703 0.090118 -0.032271 902276.000000 0 0 1
29.311863 15.852785 -28.104854 43.593336 0.495777 2.271434 0.082065 -0.025223 497805.000000 0 0 1
28.437643 14.794085 -28.560554 42.933317 0.479700 2.298599 0.095569 -0.028129 454567.000000 0 0 1
28.011203 13.840985 -27.579194 41.675080 0.458935 2.293970 0.111645 -0.029639 222634.000000 0 0 1
29.092673 12.975285 -26.795124 41.625957 0.419521 2.270135 0.110336 -0.024734 455297.000000 0 0 1
29.487303 13.684485 -25.596454 41.375652 0.434501 2.237801 0.109981 -0.023452 252625.000000 0 0 1
30.414243 13.071185 -24.713394 41.311426 0.405905 2.212076 0.100226 -0.017977 214610.000000 0 0 1
-14.484864 -31.663117 -23.691194 42.114570 1.141749 2.168253 0.088610 -0.008646 150935.000000 0 0 1
-13.959264 -30.420317 -24.142894 41.269070 1.140583 2.195691 0.080427 -0.028396 43617.900000 0 0 1
-14.092564 -30.258217 -25.559724 42.041165 1.134928 2.224296 0.055048 -0.012049 -129813.000000 0 0 1
-13.246164 -29.116217 -26.168554 41.328056 1.143841 2.256465 0.060449 -0.018971 -558157.000000 0 0 1
-13.698364 -27.785017 -25.891764 40.373702 1.112754 2.266991 0.061788 -0.011242 -130155.000000 0 0 1
-13.034864 -26.733517 -26.572764 39.883586 1.117130 2.299976 0.057926 -0.009656 -151920.000000 0 0 1
-13.603664 -25.324617 -26.219364 38.908238 1.077856 2.310240 0.035448 -0.003522 -16375.100000 0 0 1
-13.310664 -24.908817 -24.905894 37.655365 1.080028 2.293503 0.041602 -0.020938 105513.000000 0 0 1
-13.727764 -23.566317 -24.565194 36.705198 1.043332 2.304004 0.041596 -0.013401 -71012.500000 0 0 1
-13.196964 -23.187017 -23.154894 35.326290 1.053367 2.285585 0.043119 -0.016810 -537656.000000 0 0 1
-11.816864 -23.029417 -23.131694 34.714084 1.096708 2.300098 0.051414 -0.032868 -929268.000000 0 0 1
-11.432064 -22.428217 -21.888694 33.359136 1.099405 2.286506 0.036414 -0.022168 -190690.000000 0 0 1
-9.947164 -22.084317 -21.814394 32.596487 1.147595 2.303962 0.038173 -0.027194 -438733.000000 0 0 1
-9.498464 -21.119017 -22.723294 32.443517 1.148143 2.346748 0.042954 -0.026869 814203.000000 0 0 1
-8.059464 -21.214517 -22.742894 32.128647 1.207734 2.357274 0.055985 -0.022459 755964.000000 0 0 1
-7.321164 -20.120417 -23.492394 31.785582 1.221821 2.402514 0.049029 -0.009737 -176844.000000 0 0 1
-7.512464 -18.868417 -22.790494 30.526397 1.191886 2.413708 0.039427 -0.012691 -94209.300000 0 0 1
-7.713764 -17.723317 -23.562194 30.476140 1.160291 2.454567 0.027195 -0.017665 -76843.700000 0 0 1
-6.583464 -17.070717 -24.452994 30.540143 1.202714 2.499232 0.045404 -0.023654 340162.000000 0 0 1
-6.227864 -17.710217 -25.678874 31.809474 1.232649 2.510310 0.073602 -0.031890 369719.000000 0 0 1
-5.525164 -16.840117 -26.589714 31.955123 1.253767 2.553672 0.053026 -0.026711 28438.700000 0 0 1
-5.346064 -17.288217 -28.076924 33.403241 1.270892 2.569085 0.062614 -0.020573 -339399.000000 0 0 1
-6.523364 -17.260317 -28.843034 34.240231 1.209451 2.572467 0.081624 -0.022193 -112295.000000 0 0 1
-6.344264 -18.095517 -30.015014 35.617390 1.233588 2.573088 0.077515 -0.028044 -3272.260000 0 0 1
-7.433664 -17.795617 -31.066244 36.565761 1.175104 2.586021 0.088616 -0.029324 105880.000000 0 0 1
-7.297664 -16.591117 -31.828284 36.627322 1.156412 2.623927 0.067284 -0.029669 -149839.000000 0 0 1
-7.183264 -15.341117 -31.136014 35.445741 1.132881 2.643328 0.051637 -0.025358 -154226.000000 0 0 1
-7.550964 -14.199117 -32.121264 35.922244 1.082040 2.677412 0.039685 -0.026096 -7805.280000 0 0 1
-6.809464 -14.061417 -33.362384 36.839394 1.119815 2.703629 0.052859 -0.031486 -418157.000000 0 0 1
-7.368564 -13.209917 34.192946 37.389239 1.061980 0.416494 0.051678 -0.027063 -860819.000000 0 0 1
-7.692364 -11.687517 -33.883694 36.658904 0.988700 2.749984 0.028380 -0.025597 -346210.000000 0 0 1
-6.658064 -10.748717 -33.813254 36.099874 1.016213 2.783761 0.024393 -0.027818 -389754.000000 0 0 1
-6.106364 -10.411017 33.373384 35.488868 1.040341 0.347020 0.024399 -0.026612 -100481.000000 0 0 1
-4.930564 -9.440617 33.380725 35.038672 1.089491 0.308855 0.040481 -0.021004 -363042.000000 0 0 1
-4.761964 -8.728817 32.178633 33.679860 1.071380 0.299695 0.037417 -0.016921 331563.000000 0 0 1
-3.718164 -7.745317 32.277993 33.401849 1.123233 0.260142 0.035417 -0.023074 -458446.000000 0 0 1
-3.710064 -6.680417 31.179853 32.102582 1.063844 0.240341 0.028549 -0.017435 -74725.400000 0 0 1
-4.773064 -5.782917 30.994793 31.888893 0.880774 0.237360 0.038343 -0.012556 -439590.000000 0 0 1
-5.976164 -6.319717 30.518523 31.733793 0.813331 0.277643 0.030139 -0.011580 -222258.000000 0 0 1
-7.217964 -5.399217 30.533723 31.836438 0.642236 0.287058 0.026492 -0.013111 -160348.000000 0 0 1
-8.330464 -6.007217 29.958093 31.669712 0.624757 0.330272 0.043333 -0.008996 -177846.000000 0 0 1
-9.472664 -5.125317 29.961663 31.838679 0.495957 0.345087 0.040942 -0.015024 161256.000000 0 0 1
-10.602064 -5.670417 29.129733 31.513469 0.491130 0.391446 0.054247 -0.017825 -626256.000000 0 0 1
-10.315764 -5.582417 27.738983 30.116931 0.496026 0.400047 0.050350 -0.010300 109943.000000 0 0 1
-11.370064 -6.199917 27.066173 30.004917 0.499215 0.446282 0.060437 -0.015458 -143649.000000 0 0 1
-11.148964 -6.109417 25.491553 28.485850 0.501292 0.462623 0.054691 -0.013893 52827.700000 0 0 1
-10.143564 -6.900717 24.885703 27.745450 0.597385 0.458021 0.051269 -0.009027 71504.400000 0 0 1
-9.604664 -6.336617 23.700713 26.346273 0.583195 0.451978 0.049296 -0.010462 -228288.000000 0 0 1
-10.434364 -6.438717 22.414153 25.548528 0.552875 0.500554 0.052433 -0.014036 -47118.000000 0 0 1
-11.671564 -5.753217 22.503253 25.994640 0.457972 0.524273 0.059829 -0.012803 -70563.000000 0 0 1
-12.410864 -5.936017 21.302253 25.358467 0.446131 0.573430 0.057840 -0.015970 418114.000000 0 0 1
-13.594664 -4.910017 21.202253 25.660450 0.346593 0.598357 0.047865 -0.011379 369472.000000 0 0 1
-13.296664 -3.610517 20.657753 24.831027 0.265143 0.588214 0.043529 -0.011175 269268.000000 0 1 0
-14.364064 -2.677517 20.897553 25.499082 0.184289 0.610186 0.034087 -0.005503 588157.000000 0 0 1
-14.164764 -1.289517 20.309253 24.794539 0.090787 0.610953 0.027950 -0.006891 -134349.000000 0 1 0
-13.025464 -0.665517 20.861853 24.603304 0.051049 0.558730 0.021408 -0.005377 -68668.400000 0 1 0
-13.088964 0.772483 20.725153 24.524471 -0.058949 0.564081 0.012008 -0.011266 -180499.000000 0 1 0
-12.603264 1.319483 19.353153 23.132830 -0.104314 0.579731 0.027320 -0.016975 624455.000000 0 1 0
-13.437464 0.966483 18.197353 22.641625 -0.071801 0.637288 0.033098 -0.016271 135089.000000 0 1 0
-14.687864 1.598483 18.137253 23.393342 -0.108404 0.683580 0.019390 -0.013174 -48665.400000 0 1 0
-15.750964 0.842483 17.293853 23.406837 -0.053437 0.739452 0.035965 -0.015283 -32306.600000 0 1 0
-15.967464 -0.440517 17.791653 23.910184 0.027581 0.731604 0.011407 -0.014696 101973.000000 0 1 0
-16.969964 -1.140517 17.090953 24.111847 0.067107 0.782973 0.012408 -0.007831 -54282.800000 0 1 0
-16.937664 -2.681517 17.331453 24.381433 0.157014 0.780096 0.012104 -0.003344 -274351.000000 0 1 0
-17.517264 -2.985517 18.560953 25.695853 0.168811 0.763627 0.010535 -0.001210 -335962.000000 0 0 1
-17.767964 -4.365017 18.681853 26.148911 0.240897 0.774972 0.019434 -0.008781 65802.500000 0 0 1
-18.603764 -4.732617 19.978053 27.705962 0.249106 0.765445 0.004963 -0.007848 -182197.000000 0 0 1
-18.046464 -4.322717 21.201553 28.175639 0.235103 0.718980 0.015238 -0.007382 -232662.000000 0 0 1
-18.909664 -4.448917 22.313853 29.585069 0.231070 0.716321 0.021695 -0.014746 -384968.000000 0 0 1
-19.100764 -5.854217 22.916453 30.401889 0.297401 0.716995 0.021678 -0.012906 1417620.000000 0 0 1
-17.846864 -6.438617 23.398053 30.123666 0.346237 0.681334 0.041780 -0.016510 1276200.000000 0 0 1
-16.973064 -6.952017 22.402053 28.952849 0.388747 0.686068 0.024552 -0.010246 -256216.000000 0 0 1
-15.682864 -7.480117 23.091653 28.898596 0.445047 0.645070 0.030551 -0.011172 -32475.400000 0 0 1
-15.848664 -8.573417 23.918753 29.946459 0.495873 0.645636 0.034603 -0.018085 -144605.000000 0 0 1
-14.733564 -8.724217 24.763933 30.107180 0.534614 0.604958 0.060507 -0.014464 75145.800000 0 0 1
-14.997464 -9.671617 25.949273 31.493315 0.572770 0.602430 0.052478 -0.011020 55069.100000 0 0 1
-15.069264 -11.073817 25.686863 31.773056 0.633742 0.629286 0.042174 -0.015230 -177458.000000 0 0 1
-14.911064 -11.776717 26.899893 32.933800 0.668489 0.614977 0.048542 -0.018448 -105863.000000 0 0 1
-14.812164 -13.333317 26.726023 33.338534 0.732903 0.640737 0.039265 -0.021750 -45634.800000 0 0 1
-16.074064 -13.981917 26.743863 34.192159 0.715902 0.672666 0.042032 -0.021210 -1155.420000 0 0 1
-16.158064 -15.402717 26.537563 34.678077 0.761470 0.699359 0.047355 -0.022510 -361798.000000 0 0 1
-15.329564 -16.362817 27.418763 35.419287 0.817989 0.685473 0.044771 -0.016406 89616.000000 0 0 1
-13.963164 -16.316217 27.045903 34.535051 0.862954 0.671091 0.045384 -0.024200 -88451.000000 0 0 1
-13.210364 -17.074817 27.962883 35.326845 0.912314 0.657459 0.047755 -0.016318 -197539.000000 0 0 1
-11.846464 -17.492617 27.392043 34.592693 0.975519 0.656973 0.044431 -0.017767 177231.000000 0 0 1
-10.908764 -18.132417 28.265323 35.308840 1.029189 0.642639 0.061384 -0.019264 233169.000000 0 0 1
-9.806264 -18.552517 27.491283 34.585103 1.084556 0.651973 0.050747 -0.011094 55162.800000 0 0 1
-8.701464 -19.245517 28.346463 35.350069 1.146173 0.640364 0.080781 -0.017422 -38822.600000 0 0 1
-8.952764 -20.560817 28.783433 36.488152 1.160126 0.661872 0.082463 -0.008906 203356.000000 0 0 1
-7.799164 -21.255817 29.260183 36.997230 1.219129 0.658559 0.086607 -0.006237 330377.000000 0 0 1
-8.116464 -22.543717 29.970613 38.371003 1.225212 0.674412 0.090650 -0.014506 29051.500000 0 0 1
-8.391064 -23.645817 29.185643 38.488133 1.229794 0.710091 0.089288 -0.020479 -13243.500000 0 0 1
-8.595764 -24.801717 29.973253 39.842292 1.237172 0.719254 0.084308 -0.021364 -130651.000000 0 0 1
-8.961264 -26.069417 29.157483 40.125772 1.239704 0.757360 0.076688 -0.020747 64082.500000 0 0 1
-10.224064 -26.125117 28.507403 39.996566 1.197769 0.777391 0.067859 -0.016522 328655.000000 0 0 1
-10.278264 -27.361617 27.750163 40.303503 1.211460 0.811337 0.072463 -0.020566 68942.000000 0 0 1
-11.526264 -27.584417 26.839863 40.176275 1.174994 0.839208 0.068876 -0.018688 258672.000000 0 0 1
-11.564064 -26.867317 25.625913 38.887887 1.164349 0.851349 0.076380 -0.020649 187418.000000 0 0 1
-11.831664 -25.461817 25.741103 38.090639 1.135800 0.828766 0.058030 -0.002318 -272561.000000 0 0 1
-11.977564 -24.793517 24.356203 36.761463 1.120766 0.846582 0.067036 -0.022465 616895.000000 0 0 1
-13.213464 -25.158017 23.716443 37.013391 1.087178 0.875318 0.052488 -0.015110 689547.000000 0 0 1
-13.200164 -24.790817 22.338053 35.886175 1.081518 0.898902 0.053218 -0.016709 272828.000000 0 0 1
-14.577264 -24.954817 21.641253 36.105171 1.042116 0.928051 0.055180 -0.019621 157801.000000 0 0 1
-15.005164 -26.304417 21.387053 37.074026 1.052394 0.955899 0.066219 -0.019142 373631.000000 0 0 1
-16.148864 -26.346417 20.537353 37.103940 1.020914 0.984225 0.064921 -0.014881 428093.000000 0 0 1
-16.492264 -27.755817 19.958553 37.956871 1.034659 1.017115 0.070444 -0.023712 56052.000000 0 0 1
-15.635364 -28.116017 18.912053 37.318103 1.063281 1.039351 0.065852 -0.022686 -177884.000000 0 0 1
-15.637364 -29.495217 18.632253 38.231608 1.083308 1.061742 0.090961 -0.016030 -14029.700000 0 0 1
-14.571364 -29.856617 17.594753 37.594116 1.116759 1.083749 0.088142 -0.029337 -70106.500000 0 0 1
-14.907264 -29.381417 16.348053 36.779791 1.101270 1.110197 0.085893 -0.033274 -590797.000000 0 0 1
-13.741464 -29.435917 15.597953 36.036054 1.134038 1.123152 0.082670 -0.035583 -531353.000000 0 0 1
-13.835564 -28.966417 14.168753 35.088883 1.125195 1.155134 0.067224 -0.023136 -347695.000000 0 0 1
-14.024564 -27.576217 14.100853 33.999562 1.100313 1.143143 0.060055 -0.025422 -80550.700000 0 0 1
-14.275464 -26.976317 12.843253 33.112833 1.084074 1.172484 0.053842 -0.020295 319669.000000 0 0 1
-13.240064 -27.275517 11.721353 32.506050 1.118881 1.201896 0.045822 -0.010834 376157.000000 0 0 1
-13.610664 -26.484217 10.612853 31.611653 1.096078 1.228420 0.039368 -0.007612 -66329.600000 0 0 1
-12.820864 -26.746117 9.482253 31.139083 1.123801 1.261369 0.038731 -0.010796 -101467.000000 0 0 1
-13.329064 -25.977017 8.217353 30.331407 1.096716 1.296449 0.041635 -0.004697 -3294.410000 0 0 1
-14.345764 -26.635717 7.494953 31.167880 1.076754 1.327946 0.056210 -0.007929 -91989.400000 0 0 1
-14.628264 -25.954217 6.249953 30.441246 1.057558 1.364014 0.055113 -0.008545 384905.000000 0 0 1
-15.646364 -26.696717 5.305353 31.395385 1.040676 1.400996 0.053905 -0.010910 577254.000000 0 0 1
-15.086564 -27.744017 4.528553 31.903647 1.072743 1.428371 0.061017 -0.005396 367134.000000 0 0 1
-15.858264 -27.843917 3.317453 32.214496 1.053074 1.467633 0.077880 -0.006363 487974.000000 0 0 1
-15.242464 -28.953217 2.429153 32.810399 1.086212 1.496692 0.075503 -0.013905 665007.000000 0 0 1
-13.965064 -28.597917 1.878253 31.880899 1.116533 1.511848 0.059870 -0.004122 150614.000000 0 0 1
-13.326164 -29.742617 1.397453 32.621509 1.149566 1.527945 0.057588 -0.013841 -371649.000000 0 0 1
-11.903664 -29.430917 0.913253 31.760198 1.186450 1.542038 0.051640 -0.015489 -426751.000000 0 0 1
-11.786764 -28.644017 -0.273447 30.975512 1.180423 1.579624 0.054519 -0.012802 -137052.000000 0 0 1
-12.125064 -27.279617 -0.158147 29.853303 1.152548 1.576094 0.043574 -0.010471 -433410.000000 0 0 1
-11.791164 -26.487017 -1.439747 29.028719 1.151968 1.620414 0.042875 -0.004244 -280347.000000 0 0 1
-10.411864 -26.495117 -1.673947 28.516666 1.196362 1.629531 0.037595 -0.011837 -734815.000000 0 0 1
-10.158664 -25.877917 -2.909647 27.952301 1.196719 1.675079 0.046331 -0.016072 853199.000000 0 0 1
-8.752664 -26.277217 -3.473547 27.913560 1.249265 1.695559 0.031172 -0.012694 696921.000000 0 0 1
-8.327564 -25.617517 -4.651747 27.335769 1.256498 1.741799 0.029863 -0.011957 -252207.000000 0 0 1
-7.022264 -26.011417 -5.024747 27.407191 1.307114 1.755176 0.027168 -0.005552 318245.000000 0 0 1
-6.355664 -24.919817 -5.919047 26.389901 1.321075 1.797013 0.027893 -0.010629 -600007.000000 0 0 1
-6.873564 -24.777417 -7.195847 26.701058 1.300189 1.843667 0.032321 -0.006262 -221340.000000 0 0 1
-6.412264 -23.577217 -7.799147 25.648177 1.305251 1.879771 0.036200 -0.009256 -526373.000000 0 0 1
-6.775464 -23.485817 -9.314347 26.158127 1.289931 1.934864 0.029332 -0.007673 -356596.000000 0 0 1
-5.995464 -24.385317 -10.097647 27.065694 1.329714 1.953122 0.024181 -0.011824 4459.960000 0 0 1
-6.287164 -24.391217 -11.519647 27.697693 1.318524 1.999736 0.022439 -0.007208 139432.000000 0 0 1
-7.592364 -25.096217 -11.962147 28.819387 1.277020 1.998819 0.018581 -0.009778 -136728.000000 0 0 1
-7.696364 -25.068617 -13.409047 29.452880 1.272919 2.043473 0.034793 -0.004808 -306125.000000 0 0 1
-8.743164 -25.925717 -13.743247 30.618011 1.245535 2.036287 0.040728 -0.007900 -843069.000000 0 0 1
-8.863664 -26.087617 -15.271047 31.501321 1.243268 2.076902 0.045662 -0.010637 180448.000000 0 0 1
-7.907764 -26.756917 -16.071447 32.198708 1.283435 2.093395 0.042520 -0.016767 986601.000000 0 0 1
-6.538264 -26.295217 -16.103547 31.520019 1.327090 2.107027 0.048276 -0.013805 1191500.000000 0 0 1
-5.667664 -27.351717 -16.883747 32.638930 1.366474 2.114476 0.046944 -0.015804 -45301.100000 0 0 1
-5.619564 -27.087917 -18.295047 33.166904 1.366241 2.155084 0.071120 -0.018697 378600.000000 0 0 1
-4.600464 -27.770517 -19.027247 33.976492 1.406627 2.165197 0.063269 -0.023300 220411.000000 0 0 1
-25.369754 14.680585 -5.385594 29.801823 -0.524584 1.752508 0.068766 -0.031319 -290433.000000 0 0 1
-25.523314 13.452385 -4.712794 29.233828 -0.485063 1.732713 0.063229 -0.023956 412371.000000 0 0 1
-24.325164 12.692185 -4.740794 27.843856 -0.480913 1.741893 0.084448 -0.022345 -13668.500000 0 0 1
-24.517964 11.168585 -4.316094 27.285464 -0.427440 1.729646 0.089684 -0.030108 -10547.900000 0 0 1
-24.865564 10.225485 -5.305894 27.404550 -0.390150 1.765640 0.082636 -0.021945 1166050.000000 0 0 1
-26.261924 10.215985 -5.675994 28.744946 -0.370991 1.769563 0.072335 -0.020346 799864.000000 0 0 1
-26.489124 9.512185 -7.012094 29.005600 -0.344757 1.814965 0.088233 -0.015079 -188076.000000 0 0 1
-26.128084 10.410785 -8.022194 29.247510 -0.379171 1.848644 0.111307 -0.007657 24421.300000 0 0 1
-26.260144 9.821085 -9.318894 29.544723 -0.357887 1.891692 0.110988 -0.006077 -259265.000000 0 0 1
-26.776364 10.750785 -10.473594 30.696079 -0.381801 1.918993 0.094516 -0.011172 -68659.300000 0 0 1
-25.867934 11.731585 -10.916194 30.429318 -0.425776 1.937713 0.107793 -0.009593 -50852.400000 0 0 1
-26.293784 12.320685 -12.081394 31.450317 -0.438195 1.965075 0.102328 -0.012644 140422.000000 0 0 1
-25.330604 13.436085 -12.636094 31.334307 -0.487693 1.985881 0.090569 -0.006527 198628.000000 0 0 1
-25.144344 14.527785 -11.784494 31.339574 -0.523918 1.956300 0.090535 -0.010112 223030.000000 0 0 1
-24.536364 15.701285 -12.383894 31.653189 -0.569256 1.972772 0.083790 -0.008450 299701.000000 0 0 1
-24.590364 17.009485 -11.511994 32.039579 -0.605143 1.938320 0.095193 -0.014842 51257.100000 0 0 1
-23.699264 17.009885 -10.417194 30.975946 -0.622532 1.913781 0.087261 -0.007977 9421.980000 0 0 1
-23.353564 18.307385 -9.929794 31.291375 -0.664860 1.893712 0.040929 0.001953 358775.000000 0 0 1
-22.081264 18.269985 -9.020794 30.045787 -0.691225 1.875735 0.037660 0.001047 -132999.000000 0 0 1
-22.129564 17.729185 -7.735394 29.391801 -0.675444 1.837115 0.052379 -0.010131 -132442.000000 0 0 1
-23.074164 18.265785 -6.840694 30.213425 -0.669605 1.799189 0.042570 -0.010013 -446962.000000 0 0 1
-23.242764 17.498285 -5.474094 29.603746 -0.645322 1.756779 0.041294 -0.004531 374915.000000 0 0 1
-22.095964 17.711685 -4.654094 28.698363 -0.675704 1.733689 0.035463 -0.021119 347020.000000 0 0 1
-22.471864 17.273385 -3.387794 28.545257 -0.655341 1.689758 0.039924 -0.022611 8191.370000 0 0 1
-21.302464 17.218085 -2.389794 27.494883 -0.679762 1.657824 0.034382 -0.029545 -340853.000000 0 0 1
-20.825264 18.449685 -1.920894 27.888570 -0.724986 1.639728 0.037909 -0.029702 173427.000000 0 0 1
-19.875964 18.265485 -0.888494 27.008727 -0.743199 1.603699 0.069713 -0.036398 95229.600000 0 0 1
-19.394864 19.703885 -0.420694 27.651055 -0.793302 1.586011 0.065230 -0.040727 50424.400000 0 0 1
-20.332764 20.280885 0.496306 28.722499 -0.784121 1.553516 0.057558 -0.028608 460286.000000 0 0 1
-20.285964 21.704185 0.611306 29.714739 -0.819160 1.550222 0.066212 -0.025888 314584.000000 0 0 1
-21.413364 22.195985 1.577606 30.881755 -0.803342 1.519689 0.042932 -0.027169 96885.500000 0 0 1
-21.137964 21.920485 2.936906 30.593245 -0.803570 1.474650 0.074588 -0.027950 451580.000000 0 0 1
-22.299564 21.906385 3.765306 31.485518 -0.776504 1.450921 0.048551 -0.021281 245782.000000 0 0 1
-21.935364 21.544985 5.213106 31.185302 -0.776420 1.402842 0.062504 -0.020733 -18903.400000 0 0 1
-21.273064 22.582285 5.936106 31.587026 -0.815242 1.381744 0.062788 -0.011187 232269.000000 0 0 1
-20.477764 22.035485 6.983306 30.881516 -0.822023 1.342691 0.064592 -0.018962 509439.000000 0 0 1
-21.290464 21.769085 8.313406 31.564057 -0.796513 1.304270 0.045883 -0.027489 596068.000000 0 0 1
-22.378364 20.825485 8.262506 31.666402 -0.749471 1.306818 0.060204 -0.023429 998391.000000 0 0 1
-22.851864 20.276485 9.501506 31.994096 -0.725755 1.269271 0.076431 -0.022220 4667.940000 0 0 1
-23.462564 21.179185 10.598406 33.337307 -0.734294 1.247267 0.086269 -0.024243 242025.000000 0 0 1
-24.674164 21.826285 10.146806 34.469679 -0.724230 1.272001 0.091633 -0.023608 851164.000000 0 0 1
-25.117484 22.634385 11.209306 35.620948 -0.733445 1.250674 0.091011 -0.019837 312827.000000 0 0 1
-26.422484 23.435185 10.916706 36.966607 -0.725553 1.271014 0.077413 -0.025959 -10619.100000 0 0 1
-27.027464 23.988185 12.027306 38.086388 -0.725893 1.249507 0.074641 -0.022851 -81833.900000 0 0 1
-27.391574 25.349185 11.814706 39.146734 -0.746692 1.264210 0.068588 -0.022463 -81668.600000 0 0 1
-27.855354 25.976585 13.138006 40.290333 -0.750512 1.238639 0.071113 -0.021664 -79090.800000 0 0 1
-26.807704 26.106185 14.104006 39.988860 -0.772141 1.210343 0.056577 -0.018573 86789.800000 0 0 1
-27.146534 26.451585 15.421706 40.920040 -0.772433 1.184377 0.040148 -0.020044 -268903.000000 0 0 1
-25.961474 26.500085 16.415706 40.567574 -0.795665 1.154199 0.043104 -0.020532 -6160.880000 0 0 1
-25.524724 25.230185 16.840206 39.644247 -0.779595 1.132074 0.056694 -0.021154 468647.000000 0 0 1
-24.489464 25.369585 17.832406 39.513851 -0.803049 1.102580 0.050816 -0.017178 413919.000000 0 0 1
-24.026164 24.041885 18.460406 38.678876 -0.785725 1.073247 0.065545 -0.008670 -783242.000000 0 0 1
-22.991964 24.144285 19.371006 38.559212 -0.809840 1.044458 0.065854 -0.013307 -434502.000000 0 0 1
-22.582864 22.839285 19.692106 37.674896 -0.791043 1.020799 0.071014 -0.011696 -1144600.000000 0 0 1
-21.125164 22.778385 20.080606 36.991325 -0.823036 0.996974 0.077491 -0.016065 -1910420.000000 0 0 1
-20.278264 22.929185 18.982206 36.017769 -0.846675 1.015702 0.072211 -0.021194 -867620.000000 0 0 1
-18.931964 22.685485 19.205506 35.240630 -0.875346 0.994429 0.060581 -0.022605 -434440.000000 0 0 1
-18.608664 21.107585 19.386106 34.170655 -0.848235 0.967534 0.060750 -0.006364 -826791.000000 0 0 1
-19.124364 20.538085 20.544806 34.779927 -0.821027 0.938859 0.070873 0.002348 -48345.700000 0 0 1
-18.281664 20.663185 21.699906 35.100889 -0.846473 0.904326 0.081680 0.002059 605182.000000 0 0 1
-19.096664 20.284885 23.011206 36.134122 -0.815561 0.880420 0.069011 0.007916 437944.000000 0 0 1
-20.086264 21.252885 23.315306 37.399821 -0.813611 0.897704 0.054711 0.010979 -162783.000000 0 0 1
-20.802864 20.854785 24.478406 38.299786 -0.786645 0.877434 0.064956 0.011129 101823.000000 0 0 1
-22.018464 21.782485 24.672306 39.598133 -0.780011 0.898138 0.061973 0.003120 -326287.000000 0 0 1
-21.590864 23.174585 24.705406 40.169440 -0.820762 0.908372 0.064919 0.002274 406441.000000 0 0 1
-22.624164 24.127685 24.975406 41.445976 -0.817547 0.924039 0.062922 -0.006215 96200.100000 0 0 1
-23.510564 24.541585 23.805806 41.494005 -0.806851 0.959760 0.047308 -0.007748 -375467.000000 0 0 1
-24.411464 23.501185 23.526006 41.251646 -0.766402 0.963920 0.047499 -0.012928 -398125.000000 0 0 1
-25.098714 23.844785 22.323706 41.193047 -0.759784 0.998066 0.037592 -0.008684 414097.000000 0 0 1
-26.241644 22.836085 21.962006 41.139280 -0.716118 1.007655 0.043470 -0.008921 348249.000000 0 0 1
-27.480794 23.044285 22.600606 42.391279 -0.697815 1.008485 0.045887 -0.025075 -147089.000000 0 0 1
-28.383724 22.046785 22.175106 42.230698 -0.660396 1.017970 0.045709 -0.025033 -215267.000000 0 0 1
-29.866444 22.361485 22.402106 43.518903 -0.642679 1.030060 0.057416 -0.022240 -1195340.000000 0 0 1
-30.287164 23.430185 21.614606 43.971321 -0.658436 1.056914 0.053285 -0.025882 270722.000000 0 0 1
-31.681944 23.681485 21.764506 45.147005 -0.641884 1.067768 0.068453 -0.022534 577901.000000 0 0 1
-32.679874 22.764485 21.036206 45.041292 -0.608434 1.084853 0.067206 -0.027381 -1324510.000000 0 0 1
-32.719144 21.465085 21.580706 44.688020 -0.580610 1.066811 0.058254 -0.022810 4544.080000 0 0 1
-33.300924 20.461885 20.769506 44.260735 -0.550980 1.082351 0.054941 -0.011914 -232440.000000 0 0 1
-34.799068 20.586585 20.463406 45.315931 -0.534209 1.102270 0.077749 -0.015646 -779788.000000 0 0 1
-35.307114 19.712085 19.515506 44.900040 -0.509196 1.121154 0.072765 -0.010730 -58629.700000 0 0 1
35.985033 20.032285 19.292106 45.479670 0.507960 1.132727 0.113184 -0.023006 144404.000000 0 0 1
35.458333 19.291585 18.059206 44.222093 0.498274 1.150123 0.102103 -0.018166 -163081.000000 0 0 1
35.582323 17.884585 18.232106 43.799198 0.465746 1.141462 0.104332 -0.033298 297688.000000 0 0 1
35.069413 17.171185 17.141106 42.644236 0.455321 1.157144 0.111268 -0.042280 -96983.500000 0 0 1
35.287363 15.626585 17.224206 42.261820 0.416882 1.151016 0.114040 -0.045824 -240657.000000 0 0 1
34.566003 14.917685 16.267206 41.011802 0.407423 1.162935 0.127295 -0.060156 109627.000000 0 0 1
34.880553 13.578085 16.368106 40.852567 0.371226 1.158556 0.111706 -0.055910 204003.000000 0 0 1
33.870543 12.743285 15.524006 39.377655 0.359853 1.165562 0.100137 -0.055193 173121.000000 0 0 1
33.932003 13.117985 14.181706 39.045911 0.368898 1.199090 0.103352 -0.048296 268305.000000 0 0 1
33.078123 12.303285 13.410806 37.754241 0.356091 1.207654 0.103941 -0.038662 -165015.000000 0 0 1
32.968583 12.756485 11.930606 37.309445 0.369187 1.245305 0.104251 -0.031707 69340.800000 0 0 1
34.146813 12.404085 11.212806 38.020957 0.348436 1.271434 0.094156 -0.027752 500731.000000 0 0 1
34.137823 12.558185 9.796506 37.670552 0.352503 1.307715 0.097961 -0.018443 -138476.000000 0 0 1
35.607973 12.729585 9.329306 38.948761 0.343334 1.328917 0.074286 -0.003859 -32205.400000 0 0 1
-36.295484 11.535985 9.482006 39.247287 -0.307738 1.326786 0.107685 -0.018750 447273.000000 0 0 1
-34.960606 11.602885 8.982506 37.915120 -0.320446 1.331611 0.117786 -0.015196 382486.000000 0 0 1
-34.842914 11.403885 7.459606 37.412872 -0.316306 1.370065 0.115514 -0.023940 -462992.000000 0 0 1
-35.456567 12.380085 6.640406 38.138297 -0.335928 1.395791 0.099988 -0.022004 -55608.200000 0 0 1
-35.189775 12.219285 5.276706 37.622797 -0.334214 1.430080 0.104126 -0.035765 -166094.000000 0 0 1
-36.019428 13.211985 4.456906 38.624083 -0.351564 1.455147 0.102834 -0.036115 -119499.000000 0 0 1
35.271623 12.810485 4.455606 37.789527 0.348381 1.452616 0.101399 -0.037601 738625.000000 0 0 1
34.301133 13.904085 4.460706 37.279876 0.385113 1.450854 0.110086 -0.033823 871538.000000 0 0 1
34.135803 14.667085 5.805906 37.604321 0.405818 1.415782 0.077382 -0.011019 -975369.000000 0 0 1
33.300933 15.826085 5.711906 37.310092 0.443648 1.417099 0.042073 -0.011474 306069.000000 0 0 1
33.028033 16.420385 6.997706 37.542614 0.461377 1.383306 0.024396 -0.005575 236135.000000 0 0 1
31.846713 15.759685 7.747506 36.367632 0.459528 1.356118 0.050323 0.001368 -331748.000000 0 0 1
32.071493 14.383885 7.899006 36.025978 0.421601 1.349742 0.074831 -0.000116 -713981.000000 0 0 1
30.907923 13.681085 8.187406 34.777944 0.416717 1.333146 0.081069 -0.007104 -678058.000000 0 0 1
30.874123 12.279285 7.512206 34.065019 0.378540 1.348443 0.104449 -0.003810 -142344.000000 0 0 1
30.794273 12.339685 6.117306 33.733907 0.381121 1.388447 0.091305 -0.012530 195903.000000 0 0 1
30.838413 11.080985 5.451806 33.219243 0.344957 1.405935 0.110809 -0.025032 -135638.000000 0 0 1
30.501853 11.061185 3.934506 32.683225 0.347891 1.450121 0.094937 -0.030188 1054580.000000 0 0 1
29.070583 11.162185 3.763406 31.366485 0.366610 1.450525 0.075310 -0.025060 1164180.000000 0 0 1
28.628543 11.490585 2.421406 30.943339 0.381685 1.492463 0.092586 -0.032229 -99289.900000 0 0 1
27.102783 11.426185 2.263706 29.499880 0.398976 1.493985 0.099308 -0.013232 -96693.300000 0 0 1
26.642583 10.208285 1.697706 28.581786 0.365903 1.511363 0.086309 -0.017193 554333.000000 0 0 1
25.228483 10.015685 1.738206 27.199479 0.377917 1.506847 0.072875 -0.014956 423361.000000 0 0 1
24.891383 8.536785 1.247506 26.344144 0.330391 1.523424 0.070021 -0.019540 61718.400000 0 0 1
25.231583 7.612485 2.317706 26.456652 0.293020 1.483080 0.077074 -0.011132 233478.000000 0 0 1
26.580783 7.229385 2.425206 27.652914 0.265554 1.482982 0.107147 -0.018344 -384554.000000 0 0 1
26.949683 6.464285 3.716806 27.962243 0.235417 1.437479 0.108247 -0.023777 -53531.100000 0 0 1
28.347873 6.389585 3.942906 29.325334 0.221694 1.435934 0.134465 -0.022813 507068.000000 0 0 1
28.525773 6.015185 5.266306 29.624924 0.207824 1.392080 0.118089 -0.007966 -349704.000000 0 0 1
30.017003 5.934185 5.604106 31.106929 0.195177 1.389651 0.114998 -0.010096 -177211.000000 0 0 1
30.644733 7.198485 5.809206 32.010384 0.230718 1.388306 0.130598 -0.018767 994501.000000 0 0 1
32.074253 7.031185 5.958506 33.372130 0.215802 1.391286 0.101148 -0.004326 1344260.000000 0 0 1
32.586283 8.203685 6.884306 34.301019 0.246628 1.368721 0.089730 -0.007952 100419.000000 0 0 1
32.030913 8.197885 8.197406 34.064382 0.250558 1.327767 0.086251 -0.016815 -73028.800000 0 0 1
32.751653 9.011785 9.043906 35.152173 0.268510 1.310591 0.100605 -0.020475 -251260.000000 0 0 1
32.348643 8.865085 10.528306 35.154938 0.267481 1.266646 0.085341 -0.016679 -417379.000000 0 0 1
31.026753 9.257785 10.775606 34.124473 0.289971 1.249525 0.084958 -0.023390 -187704.000000 0 0 1
30.649153 9.073485 12.168306 34.201847 0.287823 1.207049 0.083772 -0.025496 -915441.000000 0 0 1
29.257583 9.566985 12.484706 33.217484 0.316032 1.185485 0.068186 -0.029087 -1034750.000000 0 0 1
29.046053 10.998585 12.510406 33.483613 0.361976 1.187879 0.087734 -0.040628 263497.000000 0 0 1
29.145163 11.720385 11.243206 33.364916 0.382348 1.227092 0.086181 -0.033350 -912763.000000 0 0 1
27.911833 11.596485 10.378706 31.957259 0.393770 1.240030 0.067144 -0.024434 -728535.000000 0 0 1
28.047883 12.508985 9.323806 32.095043 0.419512 1.276041 0.048606 0.004979 180580.000000 0 0 1
26.865983 12.751685 8.576006 30.950515 0.443155 1.290035 0.055218 -0.003868 49824.600000 0 0 1
26.941283 13.959985 7.619406 31.285288 0.478072 1.324776 0.056037 0.002536 -72011.900000 0 0 1
26.939383 15.249485 8.225306 32.030186 0.515095 1.311088 0.056172 0.012417 145447.000000 0 0 1
27.274283 16.328285 7.348806 32.626743 0.539441 1.343608 0.054154 0.014014 -1271200.000000 0 0 1
27.108383 17.653385 8.145506 33.359492 0.577229 1.324129 0.056059 -0.005499 935641.000000 0 0 1
25.762383 18.158685 8.197706 32.567478 0.613975 1.316345 0.071204 -0.003683 1305370.000000 0 0 1
24.771883 17.248085 8.743106 31.425858 0.608223 1.288862 0.097302 -0.000507 -97680.700000 0 0 1
23.378083 17.962385 8.781906 30.762053 0.655138 1.281291 0.098647 -0.011994 369466.000000 0 0 1
22.789183 18.345885 7.552906 30.215306 0.677798 1.318148 0.110603 -0.020547 -190161.000000 0 0 1
21.699583 19.182085 7.826506 30.001308 0.723896 1.306871 0.159492 -0.031314 71000.900000 0 0 1
21.102883 19.826185 6.507206 29.677483 0.754215 1.349736 0.136344 -0.026047 571114.000000 0 0 1
22.016283 20.840385 6.051006 30.913638 0.757967 1.373785 0.075414 -0.007601 392307.000000 0 0 1
21.495683 21.642385 5.013006 30.912578 0.788799 1.407910 0.098625 -0.012237 -353855.000000 0 0 1
18.925936 17.079385 33.460526 42.065464 0.734158 0.651064 0.071457 -0.019296 -119709.000000 0 0 1
17.970536 17.815285 32.706937 41.352972 0.781060 0.658484 0.074640 -0.019606 520290.000000 0 0 1
17.239936 16.958385 31.852903 39.992620 0.777165 0.649362 0.080822 -0.025306 35603.300000 0 0 1
16.524036 17.598585 30.649063 39.014344 0.816879 0.667156 0.079553 -0.026512 -83590.200000 0 0 1
17.387536 17.880385 29.576313 38.688408 0.799372 0.700570 0.071813 -0.012420 -367194.000000 0 0 1
16.741236 18.215785 28.405383 37.668947 0.827555 0.716545 0.076348 -0.020816 -70945.900000 0 0 1
17.699336 18.408085 27.171903 37.288556 0.805025 0.754385 0.057351 -0.015165 547897.000000 0 0 1
18.388136 19.675685 27.282803 38.335460 0.819211 0.778901 0.056470 -0.018469 576563.000000 0 0 1
19.290736 19.982285 26.213583 38.191310 0.803005 0.814303 0.050266 -0.011601 127049.000000 0 0 1
20.064336 21.271885 26.517493 39.474652 0.814603 0.834214 0.070388 -0.011378 -458213.000000 0 0 1
19.269636 22.411485 26.444323 39.659750 0.860634 0.840917 0.059420 -0.016809 415340.000000 0 0 1
19.952136 23.593885 26.910883 40.975051 0.868834 0.854279 0.079228 -0.021946 592035.000000 0 0 1
18.962236 24.812585 26.718313 41.098650 0.918257 0.863078 0.083705 -0.026794 676609.000000 0 0 1
18.799136 25.147185 25.338793 40.346535 0.928856 0.891779 0.084986 -0.027740 172267.000000 0 0 1
17.849936 26.164885 25.088463 40.406094 0.972110 0.900896 0.076019 -0.032618 -239256.000000 0 0 1
17.802736 26.932785 23.783633 40.099545 0.986723 0.935874 0.056178 -0.026760 -527646.000000 0 0 1
18.821936 27.883685 23.674803 41.137106 0.977036 0.957569 0.088991 -0.032505 -174358.000000 0 0 1
18.755536 28.543985 22.466453 40.881178 0.989464 0.988965 0.090799 -0.032957 283310.000000 0 0 1
19.875236 29.647185 22.413653 42.146796 0.980219 1.010072 0.092235 -0.032212 -149595.000000 0 0 1
21.130136 29.123985 22.154753 42.255441 0.943145 1.018897 0.101842 -0.036519 -354646.000000 0 0 1
22.198136 30.059685 21.994253 43.359994 0.934716 1.038808 0.114401 -0.047492 256434.000000 0 0 1
22.613336 30.372085 20.517453 43.067301 0.930797 1.074236 0.126925 -0.046579 -447852.000000 0 0 1
21.720336 31.233085 19.893353 42.930457 0.963146 1.088984 0.092433 -0.035737 -183644.000000 0 0 1
21.797936 31.210585 18.506553 42.328987 0.961135 1.118305 0.088896 -0.017754 -305242.000000 0 0 1
21.647336 32.439585 17.670353 42.815596 0.982347 1.145371 0.094251 -0.026387 -854215.000000 0 0 1
22.768036 33.232785 17.839053 44.057159 0.970135 1.153919 0.097996 -0.030253 -354500.000000 0 0 1
22.890136 34.208685 16.830153 44.468489 0.981089 1.182650 0.094900 -0.029111 302405.000000 0 0 1
23.890736 33.696285 15.695953 44.187893 0.954054 1.207658 0.078915 -0.032603 -84433.400000 0 0 1
23.503436 32.714585 14.757253 42.900258 0.947802 1.219634 0.092035 -0.041433 247457.000000 0 0 1
22.645236 33.239685 13.722653 42.496995 0.972751 1.241995 0.068463 -0.035114 281971.000000 0 0 1
21.996036 32.204485 12.828553 41.055161 0.971563 1.253003 0.053346 -0.028486 -745555.000000 0 0 1
22.935636 31.656985 11.974453 40.885152 0.943813 1.273559 0.074988 -0.044248 -314551.000000 0 0 1
22.469836 30.559685 11.190653 39.547675 0.936785 1.283911 0.070205 -0.046611 -244752.000000 0 0 1
23.638136 29.744985 10.536353 39.427660 0.899300 1.300276 0.072636 -0.042802 826149.000000 0 0 1
24.516136 29.002985 11.399953 39.650637 0.869039 1.279170 0.080388 -0.040749 417448.000000 0 0 1
25.449336 29.777385 12.099353 40.997021 0.863607 1.271207 0.083332 -0.042712 -450565.000000 0 0 1
26.863436 29.157385 12.325853 41.517755 0.826323 1.269371 0.091993 -0.037715 553211.000000 0 0 1
27.023936 28.141585 13.274553 41.212325 0.805655 1.242848 0.090738 -0.026929 457313.000000 0 0 1
28.404736 27.903685 13.570253 42.066572 0.776500 1.242332 0.080083 -0.017290 678387.000000 0 0 1
28.657336 26.841985 14.674553 41.917509 0.752700 1.213138 0.065027 -0.021295 -482051.000000 0 0 1
29.841436 27.110685 15.355453 43.142676 0.737487 1.206895 0.060007 -0.033003 -382876.000000 0 0 1
30.193736 25.958685 16.121953 42.958496 0.710120 1.186085 0.070416 -0.026613 -535641.000000 0 0 1
31.422936 26.075085 16.994753 44.228188 0.692656 1.176399 0.078921 -0.030109 80459.600000 0 0 1
32.646536 26.103485 16.235453 44.841701 0.674484 1.200318 0.090276 -0.028661 275023.000000 0 0 1
33.716836 26.421785 17.073853 46.113471 0.664684 1.191510 0.077323 -0.028222 -21406.000000 0 0 1
35.117636 26.625985 16.466853 47.046240 0.648725 1.213210 0.082332 -0.038774 140518.000000 0 0 1
35.250636 27.786285 15.763853 47.572934 0.667535 1.233050 0.084192 -0.032342 -567216.000000 0 0 1
-36.086911 28.125585 15.416753 48.280327 -0.662044 1.245787 0.094127 -0.037601 -132839.000000 0 0 1
-35.939411 29.307785 14.409353 48.561477 -0.684108 1.269536 0.078471 -0.033611 6937.330000 0 0 1
36.269636 30.530185 14.914953 49.699442 0.699689 1.265996 0.080146 -0.037504 -108637.000000 0 0 1
35.801636 31.293385 13.860453 49.529236 0.718307 1.287165 0.074456 -0.022586 -257942.000000 0 0 1
35.231936 32.618085 14.324853 50.104194 0.746893 1.280849 0.063602 -0.032242 -538426.000000 0 0 1
35.068536 33.676285 13.409453 50.435185 0.765148 1.301685 0.039522 -0.035470 341273.000000 0 0 1
34.148236 -33.814617 13.855753 50.015120 -0.780489 1.290093 0.035438 -0.028327 448146.000000 0 0 1
32.662236 -34.042017 13.460553 49.059832 -0.806080 1.292862 0.058073 -0.030057 73589.000000 0 0 1
32.128536 33.359785 14.212153 48.446913 0.804197 1.273062 0.054005 -0.035414 -804396.000000 0 0 1
31.108136 32.754585 13.514653 47.151085 0.811174 1.280095 0.067116 -0.032940 -576095.000000 0 0 1
30.385736 31.550185 14.193253 46.045147 0.804197 1.257447 0.093492 -0.043577 -401112.000000 0 0 1
29.625336 31.882885 15.289753 46.129768 0.822085 1.232955 0.096836 -0.036629 -233834.000000 0 0 1
29.347836 30.729485 16.071053 45.429896 0.808392 1.209214 0.093870 -0.046689 -16712.700000 0 0 1
28.146136 30.911985 17.052353 45.150178 0.832197 1.183506 0.090476 -0.045728 236239.000000 0 0 1
27.922736 29.950885 18.131553 44.782674 0.820428 1.153950 0.080819 -0.040538 -323157.000000 0 0 1
28.871736 30.116385 19.144553 45.903025 0.806495 1.140582 0.087512 -0.039240 -193148.000000 0 0 1
28.865236 28.996485 20.169953 45.616061 0.787666 1.112782 0.086398 -0.032952 111663.000000 0 0 1
27.802136 29.091285 21.105453 45.438990 0.808053 1.087750 0.102050 -0.043794 134445.000000 0 0 1
27.899936 28.019685 22.101453 45.298824 0.787540 1.061110 0.089046 -0.032329 -312465.000000 0 0 1
26.796436 27.914485 23.154653 45.093297 0.805831 1.031557 0.094941 -0.034591 -484524.000000 0 0 1
25.583536 27.404585 22.674353 43.813866 0.819752 1.026852 0.134642 -0.032198 -146102.000000 0 0 1
24.445436 27.602285 23.474943 43.709707 0.845977 1.003843 0.140816 -0.036352 225498.000000 0 0 1
24.140336 26.367485 24.374703 43.268074 0.829465 0.972372 0.099191 -0.039459 -406335.000000 0 0 1
25.149136 26.201485 25.345763 44.287747 0.805889 0.961492 0.087021 -0.035283 49767.300000 0 0 1
24.780236 25.294685 26.389743 44.162198 0.795671 0.930337 0.100182 -0.030822 -822555.000000 0 0 1
25.821936 25.222785 27.486963 45.370634 0.773661 0.919986 0.094263 -0.025236 -450481.000000 0 0 1
26.170436 26.379085 28.217863 46.658286 0.789369 0.921310 0.100927 -0.038085 260608.000000 0 0 1
26.751936 27.479885 27.541693 47.216046 0.798820 0.947996 0.080943 -0.027190 -585644.000000 0 0 1
27.188136 28.596985 28.508363 48.679658 0.810648 0.945137 0.048613 -0.018817 132323.000000 0 0 1
28.260736 28.366285 29.439013 49.698801 0.787262 0.936826 0.053456 -0.019403 262293.000000 0 0 1
28.545136 29.507785 30.166743 50.946703 0.801979 0.937105 0.057710 -0.014613 95411.400000 0 0 1
30.065836 29.700985 30.371883 52.043773 0.779294 0.947662 0.047393 -0.012420 212604.000000 0 0 1
30.665036 30.020285 29.106713 51.853281 0.774774 0.974806 0.029206 -0.014452 82769.600000 0 0 1
32.084836 30.047185 29.217733 52.782061 0.752614 0.984170 0.057162 -0.024813 406968.000000 0 0 1
32.778636 30.262385 27.888583 52.612014 0.745505 1.012101 0.047994 -0.015406 -577044.000000 0 0 1
32.608536 31.619885 27.591583 53.145359 0.770007 1.024914 0.048443 -0.018379 34299.200000 0 0 1
33.068436 31.927285 26.307113 52.961658 0.767843 1.050981 0.057363 -0.016345 -269301.000000 0 0 1
32.905436 33.386085 25.929233 53.569801 0.792649 1.065545 0.051460 -0.014018 -436938.000000 0 0 1
33.451436 -34.131617 26.775353 54.780338 -0.795462 1.060109 0.054721 -0.012344 35176.700000 0 0 1
33.047936 -32.823717 26.451573 53.565364 -0.781994 1.054321 0.054230 -0.005325 -297028.000000 0 0 1
33.980936 -31.770917 27.050773 53.813005 -0.751799 1.044099 0.050892 -0.005557 -141331.000000 0 0 1
33.752636 -31.572217 28.443233 54.268433 -0.752032 1.019113 0.057200 -0.007251 545710.000000 0 0 1
34.835836 -30.889817 29.070613 54.889132 -0.725432 1.012639 0.052011 -0.012174 137487.000000 0 0 1
34.586136 -30.575417 30.595783 55.381936 -0.723925 0.985495 0.054070 -0.010553 -196862.000000 0 0 1
34.640036 -31.697117 31.502183 56.542257 -0.741064 0.979854 0.059824 -0.008814 -40650.800000 0 0 1
33.427836 -32.374017 31.737953 56.327568 -0.769385 0.972236 0.055553 -0.012122 -256904.000000 0 0 1
33.518436 -33.315117 32.942057 57.606959 -0.782356 0.962047 0.064587 -0.013757 -165582.000000 0 0 1
33.319036 -32.687517 34.209788 57.870040 -0.775831 0.938314 0.050608 -0.010150 14822.200000 0 0 1
33.779236 -33.418417 -33.153434 57.939430 -0.780029 2.179993 0.045410 -0.007790 152962.000000 0 0 1
33.073336 33.673185 -32.798374 57.475754 0.794385 2.178090 0.044595 -0.006502 203596.000000 0 0 1
33.074936 32.726485 -33.805334 57.513258 0.780103 2.199112 0.057851 -0.013561 -28775.400000 0 0 1
32.432636 31.515685 -33.466134 56.259190 0.771060 2.207883 0.067640 -0.014408 -21211.100000 0 0 1
32.585636 30.485185 33.870738 56.021399 0.752107 0.921528 0.057600 -0.004805 56693.500000 0 0 1
33.896336 29.988785 33.736944 56.448828 0.724309 0.930223 0.053596 -0.016640 -98482.100000 0 0 1
33.926136 29.201585 32.530846 55.335081 0.710696 0.942350 0.051122 -0.014658 -518221.000000 0 0 1
35.294836 28.619385 32.238703 55.714708 0.681332 0.953737 0.052221 -0.013934 -617324.000000 0 0 1
35.690836 27.637985 33.151380 56.006321 0.658918 0.937355 0.055917 -0.006441 27087.200000 0 0 1
-35.676611 27.133585 32.860372 55.577478 -0.650214 0.938184 0.033431 0.001844 -80178.300000 0 0 1
-35.409411 25.766085 33.534402 55.156810 -0.629051 0.917279 0.033024 -0.000021 73908.700000 0 0 1
-36.130811 24.640085 33.029567 54.804394 -0.598522 0.923940 0.044653 -0.008627 86851.300000 0 0 1
-36.025811 23.512585 33.813954 54.718226 -0.578242 0.904645 0.036142 -0.011198 -121074.000000 0 0 1
35.967236 22.246485 33.333665 53.848689 0.553927 0.903296 0.048059 -0.021948 -331189.000000 0 0 1
-35.903311 21.607485 32.343593 52.934291 -0.541760 0.913455 0.045083 -0.016614 173145.000000 0 0 1
36.275236 20.340885 31.967553 52.455398 0.511050 0.915463 0.033582 -0.011893 -242676.000000 0 0 1
-35.348811 19.622885 31.103833 51.010239 -0.506767 0.915043 0.026443 -0.020926 -107031.000000 0 0 1
-35.040211 20.376185 29.921893 50.381792 -0.526712 0.934895 0.031964 -0.016779 1343200.000000 0 0 1
-33.869011 19.932285 29.154393 48.932449 -0.531929 0.932524 0.073211 -0.027278 1289100.000000 0 0 1
-34.331711 18.960685 28.048663 48.217232 -0.504591 0.949961 0.072691 -0.023791 -260329.000000 0 0 1
-34.911211 17.764985 28.420983 48.395657 -0.470712 0.943123 0.070465 -0.021694 76304.400000 0 0 1
-35.349111 16.904785 27.380433 47.801878 -0.446075 0.960891 0.068924 -0.022356 -81209.100000 0 0 1
-36.016411 15.656585 27.923693 48.187583 -0.410064 0.952707 0.060903 -0.026924 -239966.000000 0 0 1
-35.079411 14.719985 28.402443 47.475697 -0.397304 0.929478 0.066077 -0.024625 -20403.300000 0 0 1
-35.664711 13.842685 29.313433 48.196150 -0.370235 0.916991 0.086110 -0.028866 139054.000000 0 0 1
-34.709411 12.646485 29.668953 47.380625 -0.349404 0.894148 0.076444 -0.021584 644662.000000 0 0 1
-33.528311 13.102385 30.324363 47.067899 -0.372538 0.870730 0.081960 -0.016811 403180.000000 0 0 1
-32.752411 12.064985 30.868273 46.595435 -0.352945 0.846679 0.065527 -0.005756 -252691.000000 0 0 1
-31.246511 12.377485 30.792323 45.581946 -0.377160 0.829103 0.064637 -0.002602 -1418740.000000 0 0 1
-30.811711 12.537985 29.470283 44.441649 -0.386460 0.845813 0.048197 -0.004806 -379645.000000 0 0 1
-29.501211 12.976885 29.268763 43.535979 -0.414403 0.833500 0.041416 -0.014382 -430921.000000 0 0 1
-28.406011 11.980185 29.664193 42.783065 -0.399113 0.804651 0.047460 -0.012965 -1372460.000000 0 0 1
-28.404111 10.676885 29.027133 41.992426 -0.359553 0.807583 0.039307 -0.019918 -416292.000000 0 0 1
-27.298011 9.919885 29.401413 41.328303 -0.348555 0.779292 0.041696 -0.019185 -749836.000000 0 0 1
-27.027311 8.700185 28.482823 40.217409 -0.311429 0.783821 0.036289 -0.019447 -96393.900000 0 0 1
-27.787111 7.528285 28.651263 40.616419 -0.264576 0.787794 0.041988 -0.017065 -571613.000000 0 0 1
-29.093511 7.716385 28.183613 41.234585 -0.259258 0.818257 0.048417 -0.019767 -779976.000000 0 0 1
-29.851411 6.350185 28.162553 41.527834 -0.209602 0.825539 0.057109 -0.017011 -253100.000000 0 0 1
-30.175411 5.832985 29.400183 42.531752 -0.190948 0.807575 0.061102 -0.010392 -109232.000000 0 0 1
-30.789111 4.589485 29.256903 42.720008 -0.147972 0.816395 0.063746 -0.011808 -307513.000000 0 0 1
-31.465111 4.167685 30.574053 44.070348 -0.131688 0.804106 0.046550 -0.014227 326353.000000 0 0 1
-32.803011 4.623085 30.703143 45.167394 -0.140013 0.823356 0.054443 -0.019104 150331.000000 0 0 1
-33.417911 4.300485 31.954673 46.436538 -0.127985 0.811879 0.056205 -0.023873 182077.000000 0 0 1
-34.895611 4.667185 32.136813 47.668239 -0.132958 0.830947 0.050923 -0.020941 -143856.000000 0 0 1
-35.243611 6.038085 32.160693 48.092419 -0.169677 0.838301 0.051214 -0.012408 840817.000000 0 0 1
35.994336 6.292185 32.259023 48.742470 0.173062 0.847545 0.058947 -0.004113 1076720.000000 0 0 1
35.634936 7.777485 32.408933 48.792180 0.214885 0.844341 0.051282 -0.007441 17014.400000 0 0 1
36.145336 8.250985 33.695789 50.099603 0.224427 0.833112 0.050877 -0.004011 441814.000000 0 0 1
35.849536 9.631185 33.875309 50.254209 0.262459 0.831079 0.056711 -0.012240 -78287.500000 0 0 1
35.976536 9.998185 -33.086344 49.889688 0.271068 2.295869 0.057192 -0.014805 -793651.000000 0 0 1
34.883036 9.618085 -32.362674 48.545612 0.269039 2.300494 0.079673 -0.012584 -693971.000000 0 0 1
35.161636 10.039485 -31.033254 47.960346 0.278124 2.274519 0.082675 -0.005097 -488292.000000 0 0 1
34.059336 9.639285 -30.095624 46.461820 0.275802 2.275423 0.080119 -0.000916 -524851.000000 0 0 1
33.880436 8.195585 -29.972984 45.972071 0.237338 2.280992 0.065225 0.000892 883561.000000 0 0 1
32.622236 7.866285 -29.369364 44.594263 0.236616 2.289741 0.067442 -0.006172 448463.000000 0 0 1
35.182973 6.012085 -20.949294 41.386709 0.169246 2.101551 0.037222 0.000689 113486.000000 0 0 1
34.433563 6.711785 -19.880394 40.323050 0.192506 2.086363 0.026159 -0.016140 764701.000000 0 0 1
34.884083 7.995785 -19.492294 40.752685 0.225318 2.069522 0.021522 -0.003833 -1544970.000000 0 0 1
36.173613 8.030085 -18.697794 41.504458 0.218445 2.038123 0.033377 -0.015386 -602840.000000 0 0 1
-35.327706 7.588485 -19.369494 40.997674 -0.211588 2.062869 0.036460 -0.017462 12546.300000 0 0 1
-34.766984 8.635185 -20.209694 41.130784 -0.243447 2.084438 0.042021 -0.006306 -1503550.000000 0 0 1
-33.560794 8.210785 -21.001294 40.432639 -0.239941 2.116962 0.045856 0.001287 -944099.000000 0 0 1
-33.698984 7.143685 -21.961694 40.853027 -0.208893 2.138359 0.033898 0.013342 405160.000000 0 0 1
-34.487061 7.352085 -23.152494 42.183510 -0.210040 2.151786 0.027998 0.011709 233894.000000 0 0 1
-34.661000 6.076185 -23.951894 42.567572 -0.173540 2.168420 0.041715 0.012709 710741.000000 0 0 1
-33.456004 5.707585 -24.647694 41.945078 -0.168973 2.198908 0.043628 0.004238 673357.000000 0 0 1
-33.404534 4.376585 -25.097944 42.011001 -0.130276 2.211068 0.041039 0.009539 -43202.300000 0 0 1
-32.249174 4.096585 -26.091264 41.683873 -0.126352 2.247122 0.041335 0.004076 1118760.000000 0 0 1
-30.949864 4.332585 -25.495034 40.331900 -0.139083 2.255096 0.032722 0.006081 1503200.000000 0 0 1
-29.861974 3.823185 -26.298014 39.974239 -0.127336 2.288789 0.029302 0.005392 465526.000000 0 0 1
-28.471004 4.119985 -25.731714 38.596547 -0.143711 2.300548 0.025418 -0.002366 -242646.000000 0 0 1
-28.086644 5.506585 -25.704854 38.469749 -0.193601 2.302561 0.021520 0.003588 -409266.000000 0 0 1
-26.889394 5.773585 -25.047394 37.198733 -0.211505 2.309513 0.038516 0.000854 -481007.000000 0 0 1
-26.448664 7.266785 -25.277284 37.299854 -0.268134 2.315396 0.032983 -0.003701 -158415.000000 0 0 1
-27.014094 8.180585 -24.390594 37.303945 -0.294048 2.283437 0.031990 -0.007508 -275838.000000 0 0 1
-26.761524 9.523085 -24.734394 37.665084 -0.341877 2.287222 0.015584 -0.007721 778717.000000 0 0 1
-25.385554 10.134185 -24.260894 36.547490 -0.379826 2.296709 0.038447 -0.008238 607816.000000 0 0 1
-25.450134 10.407485 -22.865194 35.760903 -0.388186 2.264502 0.030154 -0.005683 -683321.000000 0 0 1
-24.190264 10.591485 -22.329994 34.582902 -0.412696 2.272729 0.067126 -0.013837 -1128990.000000 0 0 1
-24.141864 11.032785 -20.849994 33.753136 -0.428658 2.236637 0.087785 -0.023427 -1232740.000000 0 0 1
-24.471564 12.408985 -20.620194 34.322482 -0.469294 2.215270 0.069942 -0.024087 1127790.000000 0 0 1
-25.852684 12.780285 -20.757194 35.532493 -0.459118 2.194660 0.062738 -0.014759 618688.000000 0 0 1
-26.857934 12.027185 -19.844994 35.494022 -0.421029 2.164106 0.063723 -0.002236 -1094720.000000 0 0 1
-26.545274 12.088285 -18.467494 34.522841 -0.427322 2.135228 0.075253 -0.009372 204220.000000 0 0 1
-27.516504 11.441785 -17.673494 34.647148 -0.394066 2.106097 0.080911 -0.008463 -657248.000000 0 0 1
-26.893814 11.011985 -16.344994 33.342164 -0.388636 2.083138 0.101449 -0.014135 895605.000000 0 0 1
-25.972024 9.889685 -16.398294 32.268498 -0.363830 2.103870 0.108389 -0.014656 309015.000000 0 0 1
-24.746364 10.044385 -17.027794 31.673617 -0.385577 2.138387 0.102573 -0.007263 -1104150.000000 0 0 1
-23.725764 8.977085 -16.539294 30.282804 -0.361721 2.148571 0.079552 -0.013712 -123085.000000 0 0 1
-22.370064 9.348585 -16.465094 29.307254 -0.395847 2.167368 0.070184 -0.007814 123396.000000 0 0 1
-21.640964 8.245885 -15.952494 28.121309 -0.364048 2.173989 0.066610 -0.006633 356914.000000 0 0 1
-20.113364 8.527285 -15.839494 26.984284 -0.400990 2.198132 0.077723 -0.009445 182805.000000 0 0 1
-19.391264 8.520885 -17.041794 27.185462 -0.414020 2.248328 0.076444 -0.012013 -64971.500000 0 0 1
-18.018964 8.619585 -16.717794 26.047360 -0.446188 2.267669 0.074017 -0.015912 -550986.000000 0 0 1
-17.248564 9.296385 -17.864994 26.515915 -0.494332 2.310063 0.059801 -0.011681 -418097.000000 0 0 1
-17.091364 8.550585 -19.082294 27.006688 -0.463877 2.355445 0.076220 -0.022828 247597.000000 0 0 1
-16.236564 7.426585 -18.957994 26.041999 -0.428990 2.386164 0.067769 -0.017205 -644149.000000 0 0 1
-15.876964 6.570885 -20.208194 26.525943 -0.392400 2.436926 0.046028 -0.017446 465309.000000 0 0 1
-16.890364 5.740985 -20.853994 27.443258 -0.327646 2.433948 0.049916 -0.012515 842966.000000 0 0 1
-17.924064 6.518685 -21.469694 28.717819 -0.348813 2.415251 0.050365 -0.012060 205034.000000 0 0 1
-18.992064 5.645385 -22.199994 29.755816 -0.288932 2.412940 0.062380 -0.012168 -23172.000000 0 0 1
-19.488564 4.741285 -21.247594 29.218901 -0.238649 2.385011 0.101351 -0.021947 -225070.000000 0 0 1
-20.437764 3.909585 -21.820994 30.151996 -0.189009 2.379945 0.076140 -0.007788 -787341.000000 0 0 1
-21.052064 2.959685 -20.807294 29.747145 -0.139673 2.345455 0.093539 -0.012694 -594653.000000 0 0 1
-21.873264 2.008485 -21.417294 30.678562 -0.091567 2.343564 0.089797 -0.007155 -7274.870000 0 0 1
-22.637364 1.429785 -20.408694 30.512446 -0.063077 2.303477 0.084144 -0.015577 -196405.000000 0 0 1
-23.454064 0.163085 -20.725094 31.299349 -0.006953 2.294490 0.083887 -0.010652 48176.700000 0 0 1
-22.596764 -0.954915 -20.847794 30.759651 0.042234 2.315514 0.087427 -0.015683 312467.000000 0 0 1
-23.292264 -2.164115 -21.070794 31.483191 0.092645 2.304024 0.088724 -0.016440 -354489.000000 0 0 1
-23.886764 -2.489615 -22.426594 32.859212 0.103851 2.321982 0.077827 -0.021079 322178.000000 0 0 1
-22.904764 -2.545115 -23.456594 32.883395 0.110663 2.365030 0.065047 -0.019465 492804.000000 0 0 1
-21.938364 -3.599715 -23.438394 32.304924 0.162634 2.382610 0.061568 -0.028722 -78051.000000 0 0 1
-20.944364 -3.528015 -24.598894 32.499521 0.166880 2.429353 0.055982 -0.019317 -543423.000000 0 0 1
-21.492464 -3.453515 -25.869774 33.809732 0.159323 2.442082 0.051347 -0.023253 -152006.000000 0 0 1
-20.558264 -3.782215 -26.884284 34.054546 0.181941 2.480705 0.049272 -0.026954 -24175.900000 0 0 1
-21.218564 -4.000915 -28.244544 35.552624 0.186369 2.488887 0.051941 -0.032499 382774.000000 0 0 1
-22.123564 -5.115115 -28.321484 36.300454 0.227214 2.465776 0.063402 -0.025533 848777.000000 0 0 1
-22.746464 -5.310215 -29.624584 37.725535 0.229345 2.473922 0.022642 -0.017907 -224690.000000 0 0 1
-22.074164 -6.453715 -30.333644 38.066378 0.284438 2.492879 0.033197 -0.013835 -543478.000000 0 0 1
-20.872964 -6.105115 -30.964604 37.838601 0.284552 2.529302 0.038126 -0.012726 -469262.000000 0 0 1
-20.415464 -7.285515 -31.548964 38.278023 0.342775 2.539594 0.043817 -0.012175 -384846.000000 0 0 1
-19.030664 -7.143315 -32.207364 38.085528 0.359085 2.578595 0.051508 -0.016239 -423514.000000 0 0 1
-19.022964 -6.640715 -33.557874 39.142089 0.335863 2.600866 0.044523 -0.023167 299799.000000 0 0 1
-19.408164 -7.682715 34.040367 39.930534 0.376923 0.550067 0.042561 -0.022228 -523244.000000 0 0 1
-19.488864 -7.225515 32.554145 38.623778 0.355040 0.568234 0.050335 -0.025477 433383.000000 0 0 1
-18.239764 -6.939015 31.929483 37.420994 0.363526 0.548609 0.059224 -0.031317 804746.000000 0 0 1
-17.470564 -5.795515 32.322963 37.196539 0.320307 0.517664 0.055358 -0.035663 412574.000000 0 0 1
-16.087364 -5.677215 31.628403 35.935914 0.339255 0.494653 0.056622 -0.035722 206331.000000 0 0 1
-16.242664 -5.279315 30.267623 34.753767 0.314257 0.513732 0.053267 -0.030304 -794231.000000 0 0 1
-15.103964 -4.857715 29.637583 33.617160 0.311170 0.491511 0.050981 -0.025258 -940373.000000 0 0 1
-15.294764 -4.829415 28.132343 32.383357 0.305848 0.518167 0.050976 -0.018793 682915.000000 0 0 1
-16.395564 -4.019615 27.669933 32.412914 0.240423 0.547805 0.037249 -0.022213 432916.000000 0 0 1
-16.809964 -4.161715 26.325973 31.511135 0.242694 0.581845 0.038595 -0.019895 283617.000000 0 0 1
-15.745064 -3.771315 25.228933 29.977140 0.235094 0.570547 0.039054 -0.015777 496666.000000 0 0 1
-15.467364 -2.368615 25.273053 29.725022 0.151956 0.554378 0.037159 -0.010679 -54389.300000 0 0 1
-14.640564 -2.052915 24.168123 28.331233 0.139313 0.548983 0.030960 -0.007207 -50786.700000 0 0 1
-14.393664 -0.519215 24.151123 28.119813 0.036057 0.537747 0.030588 -0.002521 -36290.500000 0 0 1
-15.229264 0.281885 23.332953 27.864613 -0.018507 0.578345 0.023183 -0.008914 -72663.600000 0 0 1
-15.379664 1.508985 23.975763 28.524521 -0.097803 0.572533 0.003944 -0.003170 -123261.000000 0 0 1
-16.199964 2.576485 23.259553 28.461973 -0.157722 0.614234 0.014229 0.000787 -336085.000000 0 0 1
-15.416864 3.148785 22.225753 27.231942 -0.201472 0.616054 0.002983 0.008035 244864.000000 0 0 1
-16.074464 4.145385 21.474553 27.142753 -0.252387 0.658075 0.003698 0.006371 -12734.400000 0 0 1
-15.088964 4.846385 20.467653 25.886080 -0.310780 0.658874 0.008856 0.011570 734937.000000 0 0 1
-14.207864 5.773885 21.114553 26.096466 -0.386000 0.628184 -0.006213 0.014930 156313.000000 0 0 1
-13.091964 5.996685 20.277153 24.870117 -0.429523 0.617511 -0.005918 0.017541 -112408.000000 0 1 0
-12.196664 7.172885 20.693853 25.068795 -0.531625 0.599740 -0.006030 0.022280 150186.000000 0 0 1
-12.713364 8.430285 20.308753 25.399701 -0.585532 0.644223 -0.003535 0.022593 434641.000000 0 0 1
-11.708264 9.389285 20.582253 25.472952 -0.675921 0.630039 0.002479 0.024900 119154.000000 0 0 1
-12.257964 10.790785 20.643753 26.322296 -0.721828 0.669280 -0.001330 0.026070 -208267.000000 0 0 1
-12.465164 11.388885 19.360353 25.688719 -0.740309 0.717196 -0.001099 0.021289 90680.800000 0 0 1
-13.234464 12.541785 19.386953 26.613932 -0.758532 0.754738 -0.002859 0.019925 -460309.000000 0 0 1
-13.352364 13.314985 18.062953 26.112157 -0.783996 0.806894 0.000717 0.014204 943059.000000 0 0 1
-12.179464 14.079285 17.620353 25.632840 -0.857622 0.812875 0.001203 0.006122 992328.000000 0 0 1
-12.136864 15.450085 17.947953 26.610856 -0.904927 0.830563 0.018953 0.002593 -59587.000000 0 0 1
-13.127864 16.496285 17.326553 27.288783 -0.898617 0.882874 0.021114 0.001048 19049.600000 0 0 1
-13.032264 16.740085 15.897053 26.510124 -0.909299 0.927721 0.020498 -0.022699 259665.000000 0 0 1
-13.599364 15.704485 15.023553 25.637487 -0.857113 0.944683 0.030739 -0.013097 143116.000000 0 0 1
-13.982064 16.277885 13.639053 25.426196 -0.861123 1.004610 0.028931 -0.025196 -175330.000000 0 0 1
-15.111764 17.108085 13.572053 26.556593 -0.847278 1.034377 0.028787 -0.022017 -176396.000000 0 0 1
-15.553364 17.472985 12.314453 26.435925 -0.843457 1.086232 0.029995 -0.024453 971446.000000 0 0 1
-16.782064 18.494385 12.464253 27.911245 -0.833900 1.107871 0.046383 -0.022924 2404950.000000 0 0 1
-18.093564 17.914785 12.756753 28.478963 -0.780433 1.106341 0.061278 -0.022320 1271240.000000 0 0 1
-19.072164 18.902085 13.009153 29.837466 -0.780919 1.119646 0.068998 -0.023396 330617.000000 0 0 1
-20.495564 18.318785 13.159553 30.476547 -0.729375 1.124317 0.074732 -0.011729 223970.000000 0 0 1
-21.107764 17.775685 12.025553 30.101937 -0.699913 1.159831 0.069858 -0.015533 -110986.000000 0 0 1
-22.253264 17.013285 12.351253 30.613936 -0.652736 1.155510 0.083831 -0.015822 180379.000000 0 0 1
-22.971864 16.287385 11.201553 30.306109 -0.616750 1.192203 0.073737 -0.018200 77806.500000 0 0 1
-22.292364 15.134085 10.663753 28.977675 -0.596418 1.193940 0.064090 -0.013591 101430.000000 0 0 1
-22.997064 14.567585 9.578853 28.858862 -0.564656 1.232457 0.058121 -0.019277 -213081.000000 0 0 1
-22.451864 13.251385 8.968553 27.570281 -0.533192 1.239470 0.083078 -0.013796 -596685.000000 0 0 1
-22.567764 11.995185 9.740153 27.350668 -0.488543 1.206683 0.075904 -0.013588 139667.000000 0 0 1
-23.877264 11.560785 10.039653 28.364946 -0.450908 1.209010 0.083304 -0.016137 -131625.000000 0 0 1
-24.792664 11.075185 8.931253 28.585017 -0.420116 1.253030 0.091421 -0.015360 -523109.000000 0 0 1
-25.226564 12.128685 8.112753 29.142775 -0.448162 1.288690 0.102261 -0.017751 -86888.400000 0 0 1
-26.376614 11.877285 7.340253 29.844179 -0.423100 1.322294 0.106661 -0.018301 -505124.000000 0 0 1
-26.629064 13.035485 6.323053 30.315210 -0.455229 1.360677 0.097171 -0.014674 -885132.000000 0 0 1
-25.879094 13.183785 5.153553 29.497438 -0.471169 1.395183 0.082927 -0.018413 240475.000000 0 0 1
-24.503764 13.487385 5.313853 28.470705 -0.503166 1.383053 0.082180 -0.019641 -383371.000000 0 0 1
-24.230164 14.959385 5.849153 29.070546 -0.553106 1.368208 0.077876 -0.025509 -307869.000000 0 0 1
-22.842564 15.300785 5.976653 28.135692 -0.590194 1.356743 0.061804 -0.024734 896436.000000 0 0 1
-22.737364 16.671385 6.395853 28.910721 -0.632672 1.347723 0.058467 -0.028874 -546411.000000 0 0 1
-21.295764 17.156885 6.497853 28.108547 -0.678175 1.337516 0.052654 -0.025662 -285033.000000 0 0 1
-20.767064 17.478485 5.187053 27.634651 -0.699623 1.381975 0.053780 -0.035307 1018580.000000 0 0 1
-19.392064 17.884285 5.192653 26.886120 -0.744972 1.376440 0.055730 -0.030937 479816.000000 0 0 1
-18.951464 18.719185 3.966453 26.931369 -0.779232 1.422979 0.061558 -0.028501 232576.000000 0 0 1
-17.576564 19.076985 4.122953 26.265295 -0.826311 1.413171 0.054216 -0.033235 536373.000000 0 0 1
-17.155764 20.074985 3.262253 26.607660 -0.863647 1.447881 0.063714 -0.031236 -133475.000000 0 0 1
-17.551964 21.509385 3.719553 28.010002 -0.886367 1.437609 0.057582 -0.034602 -79577.100000 0 0 1
-16.905664 21.850485 4.938253 28.064774 -0.912301 1.393916 0.071212 -0.038738 148440.000000 0 0 1
-16.881964 23.231485 5.214253 29.187173 -0.942385 1.391183 0.050117 -0.034110 -192074.000000 0 0 1
-16.071664 23.636385 6.479153 29.307960 -0.973651 1.347883 0.046652 -0.020931 26416.000000 0 0 1
-16.558664 23.254885 7.750153 29.581142 -0.952028 1.305706 0.047077 -0.022442 236132.000000 0 0 1
-15.565464 23.560485 8.721153 29.553996 -0.986964 1.271244 0.043447 -0.023856 358162.000000 0 0 1
-16.015564 23.017085 10.097853 29.803543 -0.962887 1.225140 0.031800 -0.013511 277322.000000 0 0 1
-17.252764 23.633985 10.416553 31.060066 -0.940220 1.228800 0.038374 -0.023179 -218812.000000 0 0 1
-18.159364 22.734885 11.024753 31.115634 -0.896821 1.208614 0.043855 -0.024062 -41099.400000 0 0 1
-19.513564 23.346885 11.430953 32.504199 -0.874598 1.211435 0.059752 -0.029479 260521.000000 0 0 1
-20.190064 23.899185 10.285253 32.933208 -0.869328 1.253176 0.074250 -0.019482 151954.000000 0 0 1
-19.832364 25.267785 10.112953 33.675740 -0.905339 1.265785 0.029024 -0.018495 178963.000000 0 0 1
-21.109964 26.113285 9.848253 34.993176 -0.890955 1.285509 0.032318 -0.012043 387820.000000 0 0 1
-22.031664 26.250185 10.897353 35.961351 -0.872550 1.262926 0.047427 -0.023228 128537.000000 0 0 1
-23.166264 26.959485 10.401753 37.036281 -0.860928 1.286113 0.042528 -0.014573 483289.000000 0 0 1
-24.166064 27.385985 11.528153 38.299989 -0.847777 1.265059 0.043606 -0.032678 -56484.500000 0 0 1
-23.614764 28.322985 12.382653 38.899598 -0.875802 1.246836 0.038541 -0.022897 -31406.400000 0 0 1
-24.529664 28.695385 13.366853 40.047501 -0.863505 1.230491 0.042350 -0.022528 -179243.000000 0 0 1
9.071636 -32.676617 28.036523 44.001165 -1.299997 0.879967 0.054551 -0.019582 -130917.000000 0 0 1
10.451936 -32.627817 27.772743 44.103772 -1.260787 0.889612 0.054078 -0.020764 48966.500000 0 0 1
10.649136 -32.485117 26.363863 43.171058 -1.254020 0.913873 0.059004 -0.015146 191340.000000 0 0 1
12.129836 -32.432517 25.893153 43.237212 -1.212901 0.928716 0.024549 -0.009003 19319.700000 0 0 1
12.695336 -33.697317 26.043683 44.440457 -1.210496 0.944639 0.025618 -0.009728 -651055.000000 0 0 1
14.087236 -33.637117 25.922203 44.742223 -1.174189 0.952843 0.034397 -0.005210 -329918.000000 0 0 1
14.686436 33.419385 25.641183 44.609606 1.156743 0.958448 0.056157 -0.001302 -14018.900000 0 0 1
14.546436 32.967985 24.273173 43.447368 1.155260 0.978003 0.029133 -0.006662 294487.000000 0 0 1
15.334436 31.792285 24.127193 42.755301 1.121383 0.971201 0.030052 -0.002918 -146344.000000 0 0 1
15.313836 31.167285 22.695953 41.485172 1.114098 0.991917 0.033166 -0.020863 -636193.000000 0 0 1
14.230936 30.377785 22.370253 40.320685 1.132693 0.982664 0.030811 -0.012835 -684826.000000 0 0 1
14.553136 28.985085 22.517353 39.483669 1.105478 0.963931 0.030453 -0.012953 178388.000000 0 0 1
14.206336 28.327785 23.878523 39.679557 1.105951 0.925063 0.030547 -0.020903 141947.000000 0 0 1
15.102836 28.742485 24.919993 40.929600 1.086994 0.916186 0.040329 -0.019784 466890.000000 0 0 1
14.735336 28.157485 26.194623 41.184128 1.088668 0.881445 0.031475 -0.021751 -309845.000000 0 0 1
15.814236 28.414885 27.263533 42.435787 1.062940 0.873085 0.042654 -0.024204 18351.200000 0 0 1
15.960836 29.768185 27.622693 43.633775 1.078632 0.885300 0.047655 -0.023162 231167.000000 0 0 1
16.795036 30.038885 28.755603 44.847437 1.060986 0.874752 0.055795 -0.023664 221563.000000 0 0 1
16.791736 31.532985 29.135493 46.099550 1.081478 0.886649 0.061258 -0.027818 107775.000000 0 0 1
17.373736 32.463885 28.218893 46.390263 1.079409 0.916888 0.051720 -0.014295 44557.400000 0 0 1
16.962436 33.738185 28.625583 47.385793 1.104938 0.922165 0.066704 -0.007132 -216461.000000 0 0 1
17.734036 -33.624917 27.914803 47.163199 -1.085464 0.937411 0.047863 -0.001696 -494939.000000 0 0 1
17.395036 -33.388217 26.585023 46.088217 -1.090496 0.955955 0.055609 0.001155 -332215.000000 0 0 1
17.592136 -32.064117 26.145413 44.957463 -1.068986 0.950153 0.062581 -0.006059 929732.000000 0 0 1
19.092236 -31.552717 26.016953 45.132796 -1.026643 0.956415 0.067390 -0.000767 1110160.000000 0 0 1
19.391736 -30.689817 27.127773 45.319095 -1.007278 0.929051 0.050467 0.002287 254932.000000 0 0 1
20.487036 -29.798117 26.887143 45.061790 -0.968490 0.931448 0.055049 0.003571 315760.000000 0 0 1
20.750736 -29.076617 28.231623 45.530948 -0.950963 0.901985 0.058560 0.001121 -484400.000000 0 0 1
19.650436 -28.307617 28.615343 44.791726 -0.963991 0.877789 0.064719 -0.007558 -352120.000000 0 0 1
19.834036 -27.618117 29.852433 45.247289 -0.947991 0.850295 0.070354 -0.006817 -62975.900000 0 0 1
18.531536 -27.092617 30.493893 44.802960 -0.970885 0.822185 0.070548 -0.013514 177987.000000 0 0 1
17.948236 -26.002117 29.765623 43.407852 -0.966637 0.815204 0.079156 -0.010946 -423395.000000 0 0 1
16.623636 -25.775017 30.144233 43.004320 -0.997978 0.794056 0.071212 -0.012409 -682275.000000 0 0 1
15.836036 -25.168517 28.996263 41.533331 -1.009182 0.797994 0.044817 -0.008936 -816706.000000 0 0 1
15.422636 -26.028917 27.903363 41.157744 -1.035896 0.825810 0.046187 -0.009605 378296.000000 0 0 1
14.761036 -25.415717 26.802433 39.777095 -1.044626 0.831436 0.046350 -0.022758 285796.000000 0 0 1
13.291936 -24.914717 27.094663 39.134888 -1.080711 0.806069 0.028710 -0.016806 567542.000000 0 0 1
12.322636 -25.922817 27.345943 39.643920 -1.127055 0.809599 0.022359 -0.014590 276222.000000 0 0 1
11.961736 -26.724417 26.245033 39.320216 -1.149944 0.839991 0.018797 -0.022896 -1189610.000000 0 0 1
11.104636 -27.932917 26.505853 40.076440 -1.192407 0.848136 0.032100 -0.023145 10744.800000 0 0 1
9.721836 -27.634217 26.693563 39.632189 -1.232515 0.831819 0.037940 -0.030082 470816.000000 0 0 1
9.041136 -28.914417 26.889113 40.506914 -1.267742 0.844888 0.038576 -0.024509 173117.000000 0 0 1
7.516536 -28.787517 27.108503 40.250347 -1.315394 0.831866 0.033892 -0.021568 493091.000000 0 0 1
6.688236 -28.508517 25.954063 39.129036 -1.340359 0.845584 0.044541 -0.027920 267037.000000 0 0 1
6.763736 -27.131617 25.497303 37.841581 -1.326483 0.831470 0.065523 -0.032488 -49853.000000 0 0 1
5.616536 -26.617517 24.525633 36.627099 -1.362838 0.837122 0.072856 -0.034129 221296.000000 0 0 1
5.398036 -27.427717 23.329653 36.410042 -1.376470 0.875324 0.054770 -0.027819 -133889.000000 0 0 1
4.743236 -28.710217 23.450893 37.372707 -1.407065 0.892475 0.049941 -0.025023 -218210.000000 0 0 1
3.270936 -28.705317 23.881793 37.483787 -1.457337 0.880036 0.050358 -0.021896 -361114.000000 0 0 1
2.310636 -28.348617 22.894153 36.511990 -1.489468 0.893060 0.049953 -0.018516 387834.000000 0 0 1
0.988736 -28.122317 23.325553 36.550291 -1.535652 0.878668 0.044142 -0.025569 280183.000000 0 0 1
0.684536 -26.680217 23.780843 35.746763 -1.545145 0.842956 0.055352 -0.026909 -443939.000000 0 0 1
1.303036 -26.436017 24.991993 36.402756 -1.521546 0.814075 0.051144 -0.028472 -109834.000000 0 0 1
1.286236 -25.075517 25.281013 35.630964 -1.519547 0.781974 0.060377 -0.027515 199566.000000 0 0 1
2.492936 -24.607017 26.181143 36.016278 -1.469831 0.756962 0.067186 -0.024170 492800.000000 0 0 1
3.677636 -24.315817 25.444763 35.386720 -1.420689 0.768364 0.071748 -0.030184 1048800.000000 0 0 1
4.730936 -23.657417 26.210063 35.623343 -1.373423 0.744015 0.075961 -0.025504 1096610.000000 0 0 1
4.540836 -22.164317 26.350333 34.730624 -1.368721 0.709472 0.072261 -0.018935 -555573.000000 0 0 1
4.450636 -21.476717 25.083133 33.319981 -1.366458 0.718498 0.072342 -0.027756 198124.000000 0 0 1
3.543736 -20.398317 25.052603 32.500498 -1.398786 0.690641 0.079131 -0.025225 -74905.400000 0 0 1
3.596436 -19.628617 23.749643 31.020357 -1.389582 0.698800 0.083540 -0.028101 -23961.400000 0 0 1
4.700836 -18.763817 23.618583 30.528940 -1.325322 0.686221 0.081121 -0.019115 -272535.000000 0 0 1
4.771436 -18.208717 22.300353 29.182696 -1.314517 0.701053 0.082218 -0.020163 170121.000000 0 0 1
6.068236 -17.359617 22.051653 28.713328 -1.234513 0.695094 0.060275 -0.012355 946823.000000 0 0 1
7.172736 -18.269817 22.183153 29.619700 -1.196685 0.724347 0.051351 -0.017449 185499.000000 0 0 1
8.377936 -17.660017 21.720153 29.220388 -1.127837 0.732774 0.034962 -0.012206 556609.000000 0 0 1
9.654636 -18.024017 22.499053 30.402049 -1.079034 0.737651 0.035581 -0.007436 92242.800000 0 0 1
9.578636 -17.324317 23.684183 30.867827 -1.065728 0.696212 0.046010 -0.002278 786987.000000 0 0 1
10.774636 -17.502217 24.473553 31.958961 -1.018974 0.698542 0.055093 -0.000054 786994.000000 0 0 1
10.668336 -16.560117 25.696703 32.378564 -0.998496 0.654039 0.069545 -0.014298 90894.500000 0 0 1
10.997636 -15.175417 25.507113 31.652079 -0.943684 0.633672 0.077241 -0.014829 66610.900000 0 0 1
10.766836 -14.472717 26.695373 32.218430 -0.931185 0.594239 0.071337 -0.007192 -165417.000000 0 0 1
11.092236 -12.963417 26.530403 31.542831 -0.863027 0.571499 0.073537 -0.007472 -338559.000000 0 0 1
10.214136 -12.205317 25.753493 30.274424 -0.873981 0.553541 0.065092 -0.010364 -268357.000000 0 0 1
10.449636 -10.814817 25.861263 29.915884 -0.802570 0.526709 0.069333 -0.004339 -326810.000000 0 0 1
9.569436 -9.932417 24.979243 28.534008 -0.804009 0.504492 0.066823 -0.007332 -189412.000000 0 0 1
8.244136 -9.890417 25.485103 28.553049 -0.875931 0.467822 0.045209 0.000235 -178234.000000 0 0 1
7.419136 -9.372817 24.410173 27.179953 -0.901224 0.455378 0.039797 -0.001715 241756.000000 0 0 1
5.948236 -9.431317 24.887723 27.271414 -1.008116 0.421213 0.022751 -0.008598 -1072460.000000 0 0 1
5.682736 -8.456917 25.922073 27.852591 -0.979136 0.374507 0.024330 -0.002673 1204270.000000 0 0 1
4.323636 -8.531517 26.420183 28.098162 -1.101736 0.347340 0.013174 -0.000960 1433260.000000 0 0 1
3.100536 -8.451417 25.496633 27.039195 -1.219176 0.339411 0.008515 -0.006410 -829958.000000 0 0 1
2.905636 -7.193217 24.895653 26.076400 -1.186897 0.302080 0.014144 -0.010293 -342560.000000 0 0 1
1.761936 -7.094717 24.100043 25.184351 -1.327376 0.294508 0.039749 -0.016903 -281673.000000 0 0 1
1.766736 -5.770817 23.326153 24.094255 -1.273707 0.253179 0.033986 -0.021795 -157302.000000 0 1 0
1.735636 -4.577117 24.115873 24.607677 -1.208350 0.200263 0.034617 -0.016198 -137776.000000 0 1 0
2.197036 -3.463517 23.451103 23.807082 -1.005511 0.173148 0.041809 -0.025999 -633227.000000 0 1 0
1.284236 -2.796517 22.341453 22.552390 -1.140296 0.136878 0.030748 -0.031531 1262990.000000 0 1 0
0.093136 -2.080517 22.708653 22.803950 -1.526061 0.091454 0.022529 -0.031610 489950.000000 0 1 0
-0.924764 -2.773517 23.369353 23.551523 1.248962 0.124458 0.022082 -0.024158 -64543.200000 0 1 0
-2.061064 -1.787517 23.817723 23.973467 0.714440 0.114049 0.025551 -0.032073 737864.000000 0 1 0
-1.491664 -0.853517 24.768923 24.828474 0.519721 0.069274 0.023367 -0.027371 1203440.000000 0 1 0
-2.499564 0.125483 25.185333 25.309377 -0.050160 0.099047 0.020145 -0.023170 631308.000000 0 0 1
-2.007964 1.113483 26.274263 26.374394 -0.506317 0.087166 0.053914 -0.023032 -462277.000000 0 0 1
-2.083264 0.720483 27.608543 27.696403 -0.332967 0.079673 0.063652 -0.013975 -1030.320000 0 0 1
-1.434664 -0.428517 28.088443 28.128322 0.290253 0.053256 0.061501 -0.018672 -727432.000000 0 0 1
0.038836 -0.267517 28.591203 28.592481 -1.426632 0.009454 0.064030 -0.016943 230247.000000 0 0 1
0.963636 0.144483 27.631833 27.649008 0.148826 0.035249 0.049927 -0.019550 -279761.000000 0 0 1
1.224236 -0.719517 26.525293 26.563276 -0.531347 0.053484 0.038285 -0.017523 -903580.000000 0 0 1
2.425336 -1.659517 26.817533 26.978071 -0.600072 0.109148 0.050264 -0.016060 -460714.000000 0 0 1
2.146936 -2.736517 27.711073 27.928506 -0.905547 0.124864 0.033404 -0.010076 577777.000000 0 0 1
3.291936 -3.561017 27.984143 28.401232 -0.824643 0.171591 0.035632 0.002463 319979.000000 0 0 1
3.900936 -4.339317 26.857743 27.484274 -0.838548 0.213931 0.032143 -0.006010 -651138.000000 0 0 1
4.792936 -3.625817 26.053733 26.737909 -0.647643 0.226707 0.042461 -0.003614 -364080.000000 0 0 1
5.496136 -4.543617 25.224443 26.213060 -0.690807 0.275515 0.036010 -0.004062 -175387.000000 0 0 1
6.817236 -3.929317 24.705293 25.928088 -0.522871 0.308339 0.042523 -0.009380 168274.000000 0 0 1
7.997336 -3.954017 25.542853 27.056034 -0.459171 0.336026 0.054446 -0.010890 1143930.000000 0 0 1
8.679736 -5.254717 25.587293 27.525614 -0.544381 0.377521 0.052910 -0.011162 361072.000000 0 0 1
9.546736 -5.519717 24.325033 26.707952 -0.524220 0.425630 0.051500 -0.019997 -36707.000000 0 0 1
8.697736 -5.665617 23.175153 25.393652 -0.577352 0.421110 0.046002 -0.019887 146826.000000 0 0 1
9.460336 -5.532817 22.004253 24.582457 -0.529201 0.462096 0.053650 -0.018005 161313.000000 0 1 0
9.545536 -4.148917 21.289153 23.697232 -0.410011 0.454726 0.057093 -0.020402 837757.000000 0 1 0
8.264136 -3.707617 20.810453 22.696196 -0.421722 0.410519 0.047129 -0.028544 295277.000000 0 1 0
8.273236 -2.447517 20.149653 21.919062 -0.287632 0.404561 0.037457 -0.026988 348262.000000 0 1 0
6.824136 -1.865517 20.017453 21.230813 -0.266851 0.339717 0.032557 -0.022886 855681.000000 0 1 0
6.237236 -1.369517 21.230653 22.170235 -0.216141 0.292175 0.038729 -0.019824 -863530.000000 0 1 0
5.000836 -0.829517 21.003953 21.607001 -0.164379 0.236815 0.026922 -0.019121 -1175960.000000 0 1 0
4.474336 -0.047517 22.262153 22.707386 -0.010620 0.198352 0.030577 -0.029753 -70820.500000 0 1 0
3.121736 0.319483 22.170853 22.391830 0.101986 0.140605 0.023348 -0.026532 -268942.000000 0 1 0
2.564136 0.678483 23.397253 23.547114 0.258676 0.112881 0.032655 -0.026000 -384178.000000 0 1 0
1.090136 1.058483 23.263053 23.312624 0.770667 0.065224 0.028896 -0.032349 -513723.000000 0 1 0
0.867836 2.442483 22.974053 23.119818 1.229400 0.112351 0.029596 -0.019892 580198.000000 0 1 0
-0.525664 2.743483 22.980653 23.149804 -1.381486 0.120961 0.018147 -0.017178 359691.000000 0 1 0
-0.764064 4.101483 22.386153 22.771601 -1.386618 0.184253 0.024801 -0.014566 -144599.000000 0 1 0
-0.454664 5.257483 23.186453 23.779391 -1.484531 0.223782 0.036425 -0.009121 249346.000000 0 1 0
-1.451764 6.255483 22.990753 23.870765 -1.342755 0.272376 0.028588 -0.009130 212126.000000 0 1 0
-1.191064 7.540483 23.832863 25.025644 -1.414135 0.309987 0.033247 -0.001779 201077.000000 0 0 1
-0.202464 8.407483 23.307053 24.777923 -1.546720 0.346292 0.031760 -0.001239 119759.000000 0 1 0
-0.420364 9.716483 23.711593 25.628624 -1.527560 0.389235 0.049141 0.000423 -758875.000000 0 0 1
0.361036 10.782483 22.927253 25.338730 1.537325 0.439815 0.059237 -0.009549 1951910.000000 0 0 1
1.827336 10.794483 22.955553 25.432606 1.403102 0.445017 0.055608 -0.017997 1922250.000000 0 0 1
2.405536 11.008483 24.297553 26.783285 1.355661 0.434238 0.078495 -0.013044 -751063.000000 0 0 1
3.725336 11.810483 24.176743 27.163957 1.265248 0.473385 0.065024 -0.024448 896449.000000 0 0 1
4.950036 11.150483 23.791893 26.737432 1.153002 0.473814 0.052579 -0.011757 920634.000000 0 0 1
4.856736 10.571483 22.515453 25.343436 1.140138 0.476919 0.053461 -0.017668 -1043620.000000 0 0 1
6.206036 10.125483 21.898053 24.911142 1.020936 0.496938 0.054924 -0.012900 142908.000000 0 1 0
7.048236 11.158483 21.494353 25.222938 1.007431 0.550669 0.051166 -0.022872 -225788.000000 0 0 1
8.362836 10.770483 21.180653 25.190482 0.910576 0.572001 0.055006 -0.015478 -74209.900000 0 0 1
9.192236 11.941483 20.670653 25.580698 0.914760 0.629951 0.055239 -0.030502 -673148.000000 0 0 1
8.783836 12.417483 19.386053 24.640793 0.955137 0.665276 0.046250 -0.036551 -230596.000000 0 1 0
9.526236 13.431483 18.825253 25.010879 0.953891 0.718669 0.059116 -0.031602 -625748.000000 0 0 1
10.947736 13.136483 18.341553 25.076536 0.876028 0.750390 0.042635 -0.027640 264207.000000 0 0 1
11.984536 12.944483 19.304253 26.150390 0.823886 0.740396 0.052224 -0.029331 1544730.000000 0 0 1
13.282336 12.606483 18.745853 26.205932 0.759298 0.773702 0.057333 -0.022651 1195880.000000 0 0 1
14.438236 12.490483 19.740453 27.461979 0.713194 0.768681 0.063666 -0.014342 -192291.000000 0 0 1
14.976236 13.714483 20.219453 28.656604 0.741449 0.787559 0.060915 -0.017606 -204786.000000 0 0 1
16.016936 13.301483 21.070953 29.621896 0.693042 0.779407 0.057755 -0.017814 -345052.000000 0 0 1
16.871436 14.403483 21.663253 31.006486 0.706650 0.797262 0.060259 -0.014439 -499708.000000 0 0 1
16.270836 15.254483 22.596153 31.749417 0.753170 0.778877 0.059935 -0.015788 -494957.000000 0 0 1
17.143236 16.138483 23.202653 33.056078 0.755218 0.792710 0.047130 -0.011643 -834943.000000 0 0 1
-21.317664 12.822485 -24.532494 34.938549 -0.541519 2.349225 0.027578 0.000221 33582.400000 0 0 1
-21.173264 12.551385 -25.913894 35.740374 -0.535104 2.381917 0.025252 -0.019882 -103280.000000 0 0 1
-21.845564 13.445985 -26.764314 37.072250 -0.551740 2.377413 0.005563 -0.020796 -201572.000000 0 0 1
-21.611364 13.199885 -28.268024 37.952197 -0.548312 2.411080 0.008783 -0.017832 968484.000000 0 0 1
-20.272764 13.620285 -28.617494 37.622574 -0.591583 2.435105 0.017599 -0.019233 890859.000000 0 0 1
-20.323264 14.102485 -29.946424 38.842032 -0.606626 2.451175 0.010789 -0.014697 114160.000000 0 0 1
-18.958564 14.764285 -30.267224 38.646036 -0.661659 2.470578 0.004440 -0.012483 322176.000000 0 0 1
-18.006964 13.724585 -30.613234 38.076044 -0.651252 2.504792 -0.000084 -0.020122 281814.000000 0 0 1
-16.699164 14.274385 -30.631644 37.695063 -0.707272 2.519425 0.016545 -0.013326 584347.000000 0 0 1
-15.779164 13.910885 -29.419704 36.166473 -0.722555 2.520860 0.043369 -0.006698 10303.000000 0 0 1
-16.270164 14.410585 -28.173514 35.582722 -0.724862 2.484506 0.035810 -0.014038 -186648.000000 0 0 1
-17.036464 13.435085 -27.480794 35.013379 -0.667756 2.473275 0.039416 -0.008455 -99382.000000 0 0 1
-17.725864 14.043285 -26.237514 34.638523 -0.669996 2.430220 0.029448 -0.012041 -586173.000000 0 0 1
-16.810564 14.365885 -25.232134 33.550474 -0.707144 2.421986 0.079159 -0.021783 189836.000000 0 0 1
-17.525464 14.675385 -24.034294 33.168601 -0.697119 2.381264 0.067062 -0.020219 -3554.060000 0 0 1
-16.667564 15.204385 -22.878294 32.130941 -0.739522 2.363186 0.059420 -0.011146 -186438.000000 0 0 1
-15.972264 16.369285 -23.227594 32.597360 -0.797673 2.363937 0.043667 -0.017803 -233415.000000 0 0 1
-15.404564 16.939685 -22.086694 31.813136 -0.832825 2.338192 0.040945 -0.007550 -353536.000000 0 0 1
-15.107464 18.454985 -22.200194 32.583287 -0.884809 2.320384 0.044216 -0.012626 166944.000000 0 0 1
-16.249064 19.283685 -22.293194 33.658270 -0.870595 2.294733 0.013477 -0.015059 21261.600000 0 0 1
-16.923664 19.296185 -23.496894 34.797374 -0.850808 2.312099 0.000959 -0.015563 -316817.000000 0 0 1
-18.180964 20.184985 -23.572494 35.967257 -0.837585 2.285492 -0.009358 -0.019920 27010.700000 0 0 1
-17.921564 21.587385 -23.656994 36.699469 -0.877918 2.271315 -0.016910 -0.016688 83501.300000 0 0 1
-19.137264 22.305485 -23.804994 37.821255 -0.861698 2.251587 0.014533 -0.033180 119121.000000 0 0 1
-18.973564 23.827185 -24.065894 38.818786 -0.898316 2.239481 0.007648 -0.029334 -102749.000000 0 0 1
-18.587864 24.494785 -22.915094 38.348465 -0.921655 2.211237 0.007290 -0.022192 -55438.000000 0 0 1
-17.805264 25.646885 -23.179194 38.885283 -0.963942 2.209421 0.000017 -0.005092 136002.000000 0 0 1
-16.597764 25.764485 -22.211394 37.850238 -0.998501 2.197926 0.011067 -0.018938 546257.000000 0 0 1
-15.451364 24.893885 -22.245894 36.787634 -1.015303 2.220200 0.022985 -0.033666 429143.000000 0 0 1
-15.691764 23.544685 -21.845194 35.746275 -0.982932 2.228269 0.015969 -0.009352 -463800.000000 0 0 1
-14.496464 22.544085 -21.779194 34.535729 -0.999338 2.253158 0.057446 -0.009599 492112.000000 0 0 1
-13.730564 22.801485 -20.606794 33.661196 -1.028777 2.229614 0.088232 -0.022951 -258541.000000 0 0 1
-12.626864 21.972585 -20.391794 32.527795 -1.049214 2.248369 0.079860 -0.015229 -144860.000000 0 0 1
-11.883764 22.167685 -19.027994 31.538781 -1.078699 2.218455 0.077810 -0.012221 206986.000000 0 0 1
-12.567364 21.776585 -17.842194 30.830216 -1.047382 2.187960 0.096245 -0.011941 377887.000000 0 0 1
-13.701664 22.584885 -17.522594 31.699431 -1.025484 2.156485 0.088823 -0.026472 102898.000000 0 0 1
-14.257964 22.426185 -16.119094 31.081321 -1.004488 2.116021 0.098806 -0.020416 58311.300000 0 0 1
-13.544564 23.098285 -15.068394 30.725275 -1.040446 2.083372 0.105273 -0.032594 222081.000000 0 0 1
-14.185064 23.053585 -13.795894 30.381089 -1.019197 2.042152 0.107118 -0.030279 69710.000000 0 0 1
-13.266564 23.622685 -12.686194 29.916091 -1.059089 2.008719 0.126914 -0.037498 88734.800000 0 0 1
-12.974564 25.017985 -12.640194 30.887108 -1.092372 1.992416 0.112060 -0.033394 201747.000000 0 0 1
-11.946064 25.242085 -11.680594 30.270573 -1.128769 1.966950 0.081022 -0.027336 42793.800000 0 0 1
-11.489564 26.682685 -11.720894 31.326588 -1.164192 1.954278 0.093266 -0.027482 -163783.000000 0 0 1
-10.832364 27.049685 -12.914294 31.871689 -1.189892 1.987990 0.091382 -0.030223 -55611.500000 0 0 1
-10.800164 28.443385 -13.039194 33.101213 -1.207905 1.975688 0.072832 -0.012644 -76771.900000 0 0 1
-9.931864 28.899885 -14.274694 33.728507 -1.239777 2.007796 0.103828 -0.026277 1024090.000000 0 0 1
-8.509364 28.793385 -14.244994 33.232336 -1.283444 2.013793 0.092075 -0.028558 302409.000000 0 0 1
-8.063164 27.468385 -14.474294 32.078529 -1.285273 2.038922 0.100112 -0.032094 -531373.000000 0 0 1
-6.682564 27.532885 -15.135894 32.121826 -1.332689 2.061450 0.113856 -0.034427 66803.900000 0 0 1
-5.650164 28.102185 -14.379094 32.068918 -1.372384 2.035750 0.104247 -0.036292 -1616220.000000 0 0 1
-4.403064 28.023585 -14.940394 32.061249 -1.414950 2.055556 0.113451 -0.042608 -711230.000000 0 0 1
-3.462164 28.990685 -14.147394 32.443723 -1.451936 2.022012 0.087499 -0.032537 -42745.700000 0 0 1
-3.540664 30.384985 -14.453594 33.833268 -1.454793 2.012191 0.074450 -0.028351 -274103.000000 0 0 1
-4.350164 31.085585 -13.555894 34.190639 -1.431758 1.978475 0.074287 -0.024516 -117775.000000 0 0 1
-4.473964 32.605585 -13.753494 35.669303 -1.434433 1.966636 0.067190 -0.031396 -148004.000000 0 0 1
-3.384264 33.364185 -13.331394 36.088062 -1.469708 1.949173 0.046379 -0.032067 -359665.000000 0 0 1
-3.561064 -33.804017 -13.822994 36.694249 1.465839 1.957036 0.044687 -0.028028 322329.000000 0 0 1
-2.668764 -32.784517 -13.101494 35.406158 1.489572 1.949842 0.052361 -0.027229 -253810.000000 0 0 1
-3.113864 -32.529217 -11.801094 34.743517 1.475362 1.917355 0.048248 -0.030742 -439769.000000 0 0 1
-2.212964 -31.819017 -11.036794 33.751413 1.501360 1.903926 0.039488 -0.035827 -566587.000000 0 0 1
-2.632364 -31.842317 -9.563994 33.351649 1.488315 1.861642 0.031837 -0.030589 -549388.000000 0 0 1
-1.712664 -31.087017 -8.842294 32.365445 1.515759 1.847516 0.035440 -0.025102 -194768.000000 0 0 1
-1.956264 -31.256317 -7.475094 32.197226 1.508290 1.805100 0.022901 -0.036667 363672.000000 0 0 1
-0.734764 -30.784717 -6.627994 31.498714 1.546933 1.782802 0.026841 -0.028492 196903.000000 0 0 1
-0.976764 -31.011017 -5.234694 31.464890 1.539309 1.737940 0.027508 -0.019569 623969.000000 0 0 1
0.045736 -30.271217 -4.518994 30.606699 -1.569285 1.718985 0.029674 -0.016759 524430.000000 0 0 1
0.043636 -30.387917 -2.945994 30.530416 -1.569360 1.667440 0.033664 -0.014792 -431538.000000 0 0 1
0.132136 -31.644717 -2.294994 31.728104 -1.566621 1.643193 0.030673 -0.008838 329726.000000 0 0 1
1.322136 -32.386517 -2.568094 32.515068 -1.529995 1.649860 0.033341 -0.010299 425514.000000 0 0 1
2.581136 -31.940717 -1.803294 32.095538 -1.490161 1.627011 0.040361 -0.014404 -1150830.000000 0 0 1
2.455736 -32.247117 -0.388294 32.342820 -1.494789 1.582802 0.039319 -0.011373 167704.000000 0 0 1
3.669736 -32.084817 0.322106 32.295607 -1.456915 1.560822 0.046842 -0.013312 152613.000000 0 0 1
4.190836 -30.630517 0.437706 30.918979 -1.434822 1.556639 0.039594 -0.018404 -556475.000000 0 0 1
4.650136 -30.111517 -0.770994 30.478216 -1.417576 1.596096 0.032844 -0.024604 -33736.100000 0 0 1
4.599936 -28.674817 -0.697694 29.049808 -1.411734 1.594816 0.053151 -0.016045 -282901.000000 0 0 1
4.067036 -28.018317 -2.012994 28.383429 -1.426647 1.641777 0.049331 -0.014866 -522196.000000 0 0 1
2.759036 -28.369717 -2.356994 28.600849 -1.473848 1.653300 0.044541 -0.016067 37548.500000 0 0 1
2.026236 -27.373217 -3.098394 27.622431 -1.496909 1.683202 0.044147 -0.013623 204109.000000 0 0 1
2.506336 -27.107817 -4.558094 27.602386 -1.478600 1.736690 0.043945 -0.023429 -327522.000000 0 0 1
2.349936 -28.189017 -5.464994 28.809878 -1.487625 1.761644 0.032908 -0.024070 13062.700000 0 0 1
2.736336 -27.816617 -6.744594 28.753109 -1.472741 1.807572 0.047592 -0.025751 -129917.000000 0 0 1
2.105236 -28.727017 -7.842894 29.852714 -1.497643 1.836636 0.038791 -0.023245 -55043.700000 0 0 1
0.746236 -28.459717 -8.102894 29.600157 -1.544582 1.848081 0.031364 -0.024130 -275611.000000 0 0 1
0.526436 -28.522717 -9.485094 30.063093 -1.552342 1.891786 0.056309 -0.020846 775972.000000 0 0 1
-0.887564 -27.897417 -9.757794 29.568027 1.538992 1.907112 0.048004 -0.031384 -176675.000000 0 0 1
-0.947864 -26.490517 -9.428394 28.134331 1.535030 1.912530 0.042100 -0.022483 501663.000000 0 0 1
-2.241064 -25.898017 -9.629594 27.721089 1.484477 1.925566 0.047762 -0.021534 1905700.000000 0 0 1
-3.463764 -26.431817 -8.770394 28.063472 1.440494 1.888641 0.038131 -0.021408 -12167.700000 0 0 1
-3.241664 -26.333317 -7.358294 27.533552 1.448311 1.841333 0.039596 -0.019236 -457258.000000 0 0 1
-2.514864 -27.403017 -6.861894 28.360809 1.479279 1.815171 0.042371 -0.019308 -107839.000000 0 0 1
-1.774264 -27.189517 -5.511894 27.799260 1.505633 1.770394 0.038327 -0.010242 -11749.100000 0 0 1
-2.675764 -27.137917 -4.445794 27.629538 1.472515 1.732406 0.035938 -0.017080 -74206.400000 0 0 1
-2.058664 -26.979917 -3.170094 27.243413 1.494640 1.687422 0.038484 -0.009840 348532.000000 0 0 1
-3.086064 -27.029017 -1.974894 27.276213 1.457113 1.643263 0.030659 -0.011389 952322.000000 0 0 1
-4.120864 -26.036317 -2.117594 26.445331 1.413825 1.650957 0.024378 -0.010861 476355.000000 0 0 1
-5.060164 -26.184017 -1.054194 26.689312 1.379896 1.610305 0.033836 -0.011859 -349867.000000 0 0 1
-6.139464 -25.155317 -0.941894 25.910812 1.331414 1.607156 0.029471 -0.011408 -515445.000000 0 0 1
-5.657764 -23.866717 -0.623594 24.536083 1.338036 1.596214 0.014150 -0.007553 375603.000000 0 1 0
-6.654464 -23.166217 0.138306 24.103416 1.291079 1.565058 0.034750 -0.009100 657138.000000 0 1 0
-6.147864 -21.676817 0.371406 22.534831 1.294439 1.554314 0.022247 -0.016905 374419.000000 0 1 0
-5.149664 -21.716117 1.363206 22.359945 1.337962 1.509792 0.015120 -0.021160 -339964.000000 0 1 0
-4.346564 -20.568417 1.401006 21.069296 1.362538 1.504252 0.003065 -0.007986 -568852.000000 0 1 0
-3.456364 -20.520617 2.613406 20.973128 1.403929 1.445864 0.008382 -0.005300 -1188310.000000 0 1 0
-4.039464 -20.292717 3.854806 21.046881 1.374305 1.386603 0.005649 -0.002940 -735711.000000 0 1 0
-3.205464 -20.019817 4.958806 20.872418 1.412029 1.330926 0.028856 -0.011151 -8947.760000 0 1 0
-2.212764 -21.160017 5.349206 21.937563 1.466602 1.324475 0.023091 -0.020086 743303.000000 0 1 0
-1.169964 -21.449317 4.398806 21.926959 1.516305 1.368814 0.034292 -0.024240 69581.500000 0 1 0
-0.477564 -22.632417 4.836206 23.148289 1.549699 1.360323 0.043970 -0.023609 -1052430.000000 0 1 0
0.454936 -22.935117 3.690006 23.234516 -1.550963 1.411305 0.048344 -0.026831 121998.000000 0 1 0
1.694136 -22.254017 3.526806 22.595348 -1.494816 1.414070 0.033199 -0.030816 -54468.400000 0 1 0
2.637036 -22.673217 4.436706 23.253239 -1.455010 1.378820 0.044873 -0.029463 -1540570.000000 0 1 0
3.891136 -21.814817 4.606706 22.632917 -1.394281 1.365824 0.048208 -0.027021 319039.000000 0 1 0
4.710936 -21.758317 3.414506 22.522792 -1.357575 1.418607 0.034859 -0.017890 117439.000000 0 1 0
5.931836 -21.106517 3.712406 22.236315 -1.296821 1.403058 0.048678 -0.010922 170167.000000 0 1 0
6.753636 -20.724817 2.503406 21.940754 -1.255776 1.456449 0.058387 -0.008464 -333506.000000 0 1 0
7.373836 -21.807017 1.867506 23.095607 -1.244726 1.489848 0.051573 -0.005535 -458091.000000 0 1 0
7.046836 -21.861517 0.515506 22.974977 -1.258972 1.548357 0.047804 -0.009083 414349.000000 0 1 0
8.029436 -22.599017 -0.485294 23.987975 -1.229408 1.591028 0.042500 -0.006596 -67824.700000 0 1 0
9.247836 -21.977317 -0.716694 23.854530 -1.172497 1.600845 0.041332 -0.001995 -925030.000000 0 1 0
10.045436 -22.747917 -1.601994 24.918766 -1.154951 1.635129 0.047877 -0.007057 -142388.000000 0 1 0
11.448136 -22.159317 -1.767094 25.004355 -1.093935 1.641527 0.053765 -0.007816 -264866.000000 0 0 1
11.380336 -20.895017 -2.420394 23.915938 -1.072075 1.672174 0.055927 -0.013657 636900.000000 0 1 0
12.520836 -20.825517 -3.307994 24.523791 -1.029476 1.706098 0.059846 -0.013634 663914.000000 0 1 0
12.494536 -19.613917 -4.234394 23.637878 -1.003597 1.750904 0.058824 -0.024809 -62581.400000 0 1 0
12.569136 -18.353217 -3.531894 22.523278 -0.970313 1.728257 0.061715 -0.022945 96064.200000 0 1 0
12.886036 -17.347017 -4.452694 22.063441 -0.931894 1.774005 0.069543 -0.023145 -528122.000000 0 1 0
13.453136 -16.029017 -3.839794 21.275814 -0.872548 1.752268 0.085643 -0.016769 1213170.000000 0 1 0
14.824436 -15.948917 -3.405294 22.039235 -0.821923 1.725928 0.076192 -0.015248 1955220.000000 0 1 0
15.798136 -16.006517 -4.524194 22.940314 -0.791950 1.769314 0.071930 -0.016386 700159.000000 0 1 0
17.242236 -15.543117 -4.209594 23.592454 -0.733619 1.750187 0.071656 -0.014423 847141.000000 0 1 0
18.007536 -16.490217 -3.395294 24.652112 -0.741443 1.708964 0.072082 -0.018427 1437420.000000 0 1 0
19.415036 -16.234217 -3.377094 25.532297 -0.696408 1.703453 0.041634 -0.002254 566877.000000 0 0 1
20.272236 -17.271417 -2.660294 26.764577 -0.705639 1.670357 0.052511 -0.015035 520850.000000 0 0 1
21.681536 -17.026717 -2.613094 27.691630 -0.665719 1.665301 0.029088 -0.003316 633978.000000 0 0 1
22.258236 -17.800717 -1.603294 28.545843 -0.674580 1.626991 0.021313 0.003859 577853.000000 0 0 1
23.810836 -17.604317 -1.509494 29.650404 -0.636644 1.621728 0.032659 -0.002616 523017.000000 0 0 1
24.176236 -16.353217 -0.956694 29.203311 -0.594723 1.603562 0.038274 -0.012376 -436804.000000 0 0 1
25.516236 -16.435217 -0.570294 30.356546 -0.572222 1.589584 0.058545 -0.014415 -269169.000000 0 0 1
26.096036 -15.066117 -0.076594 30.132986 -0.523586 1.573338 0.060441 -0.008252 30375.600000 0 0 1
25.392836 -14.609017 1.073106 29.315031 -0.522075 1.534182 0.048164 -0.005909 253643.000000 0 0 1
26.012036 -13.513717 1.751606 29.365195 -0.479140 1.511112 0.050781 -0.015062 142167.000000 0 0 1
25.139536 -12.890717 2.879106 28.398171 -0.473809 1.469238 0.045198 -0.018952 87884.400000 0 0 1
24.809236 -13.690117 4.020606 28.619622 -0.504236 1.429846 0.052401 -0.013634 395016.000000 0 0 1
25.957836 -14.142617 4.755806 29.940617 -0.498866 1.411279 0.083036 -0.013709 869009.000000 0 0 1
25.412936 -14.828217 6.029606 30.034139 -0.528192 1.368664 0.058484 -0.004172 768381.000000 0 0 1
24.723536 -16.098517 5.758906 30.059615 -0.577177 1.378022 0.058037 -0.000768 440911.000000 0 0 1
23.885836 -16.464317 6.848606 29.807890 -0.603503 1.338967 0.043288 0.003587 215875.000000 0 0 1
23.128636 -17.831517 6.651906 29.952373 -0.656788 1.346846 0.040149 0.003790 540941.000000 0 0 1
23.999236 -18.946617 6.798406 31.323409 -0.668286 1.352016 0.055412 0.002997 62130.300000 0 0 1
23.249736 -20.137017 6.749806 31.489833 -0.713777 1.354771 0.038350 0.012433 245825.000000 0 0 1
1.730536 23.355685 -3.216894 23.639611 1.496837 1.707301 0.015806 -0.004861 -294152.000000 0 1 0
2.729336 24.227385 -2.790194 24.539777 1.458614 1.684744 0.018280 -0.005962 -295159.000000 0 1 0
3.426236 24.776785 -3.892294 25.313596 1.433384 1.725172 0.030054 -0.003878 229677.000000 0 0 1
4.365436 25.937485 -3.446794 26.527167 1.404053 1.701099 0.017403 0.001358 671082.000000 0 0 1
5.316836 25.581085 -2.423894 26.239968 1.365871 1.663302 0.011062 0.004563 549660.000000 0 0 1
6.223436 26.620285 -2.025394 27.413007 1.341136 1.644748 0.011618 0.000375 339562.000000 0 0 1
7.489536 25.985085 -1.411194 27.079684 1.290178 1.622933 -0.001903 -0.011161 -187233.000000 0 0 1
8.336536 25.361485 -2.375694 26.801991 1.253214 1.659552 0.007564 -0.018783 -140072.000000 0 0 1
9.254436 24.557485 -1.642994 26.294754 1.210407 1.633321 0.008101 -0.009140 -454945.000000 0 0 1
10.440436 24.092585 -2.479494 26.374292 1.161877 1.664947 0.035901 -0.009922 -1154180.000000 0 0 1
11.325036 25.173085 -2.588194 27.724347 1.148037 1.664287 0.037706 -0.007443 82687.900000 0 0 1
12.273936 25.097385 -3.669994 28.177954 1.115945 1.701411 0.050610 -0.009542 1132600.000000 0 0 1
13.395436 24.002185 -3.781194 27.745991 1.061761 1.707501 0.051168 -0.007074 -3202.640000 0 0 1
12.887336 22.680985 -3.954394 26.384612 1.054087 1.721238 0.051006 -0.011735 36881.800000 0 0 1
12.503236 22.295185 -5.270094 26.099427 1.059696 1.774118 0.056318 -0.023860 -167582.000000 0 0 1
11.564536 21.070985 -5.327594 24.619264 1.068846 1.788921 0.054297 -0.026361 391561.000000 0 1 0
10.218636 21.453485 -5.076294 24.298998 1.126275 1.781256 0.047222 -0.021078 94042.400000 0 1 0
9.331836 20.363885 -5.103094 22.974172 1.141099 1.794788 0.021980 -0.012007 -201985.000000 0 1 0
7.853636 20.660485 -4.849494 22.628585 1.207537 1.786780 0.010691 -0.010094 -277922.000000 0 1 0
7.492036 21.101985 -3.581294 22.677082 1.229639 1.729386 0.004161 -0.007933 31016.400000 0 1 0
6.150836 21.537085 -3.491394 22.668671 1.292609 1.725430 0.012102 -0.000113 189409.000000 0 1 0
5.798036 22.364785 -2.253494 23.213769 1.317132 1.668025 0.012078 0.002656 -39911.600000 0 1 0
5.671136 21.489385 -1.145894 22.254630 1.312775 1.622309 0.011359 -0.000736 16772.000000 0 1 0
4.994136 22.190985 -0.115994 22.746311 1.349432 1.575896 0.013493 0.002903 214727.000000 0 1 0
4.468436 21.226685 0.973706 21.713756 1.363315 1.525938 0.010990 -0.002372 10013.700000 0 1 0
3.748336 21.822385 2.052606 22.236900 1.400691 1.478358 0.022517 -0.005030 270653.000000 0 1 0
3.232636 20.880085 2.960106 21.335185 1.417197 1.431604 0.020786 -0.007105 301341.000000 0 1 0
2.313836 21.522985 4.067806 22.025889 1.463702 1.385047 0.015550 -0.010699 393351.000000 0 1 0
0.999836 21.813985 3.648406 22.139569 1.524994 1.405250 0.011882 -0.004837 -870903.000000 0 1 0
0.120636 21.914685 4.696706 22.412654 1.565292 1.359675 0.015226 -0.024110 182314.000000 0 1 0
-1.322464 22.116985 4.119906 22.536273 -1.511073 1.386950 0.005432 -0.018216 -282514.000000 0 1 0
-2.263964 22.074685 5.095906 22.768081 -1.468594 1.345066 0.017206 -0.029577 -1455260.000000 0 1 0
-3.495864 22.469185 4.551906 23.190628 -1.416449 1.373231 0.024106 -0.028566 85430.400000 0 1 0
-4.629264 22.871785 5.519206 23.979372 -1.371094 1.338549 0.031694 -0.030313 74995.500000 0 1 0
-4.744264 24.158585 6.015806 25.344333 -1.376884 1.331146 0.051249 -0.024520 -256395.000000 0 0 1
-6.048264 24.378785 6.488006 25.942261 -1.327611 1.318019 0.058586 -0.020646 82701.400000 0 0 1
-6.428164 25.925685 6.651006 27.526321 -1.327752 1.326758 0.064854 -0.017682 -83411.800000 0 0 1
-5.565864 26.651085 7.523206 28.246377 -1.364914 1.301200 0.052118 -0.020703 -159593.000000 0 0 1
-5.831064 27.954785 7.919806 29.634349 -1.365156 1.300257 0.068791 -0.021404 -222524.000000 0 0 1
-6.035864 29.116285 6.893006 30.523815 -1.366390 1.343008 0.070443 -0.027279 326563.000000 0 0 1
-7.239864 28.949985 6.143306 30.467319 -1.325741 1.367768 0.076631 -0.027144 -42952.500000 0 0 1
-7.615464 30.166485 5.523706 31.599422 -1.323515 1.395090 0.080503 -0.023747 175945.000000 0 0 1
-9.142364 30.217785 5.218206 31.998860 -1.277003 1.406990 0.094161 -0.027017 634374.000000 0 0 1
-9.840964 30.768585 6.342606 32.920800 -1.261240 1.376921 0.078241 -0.022317 -148949.000000 0 0 1
-10.479264 29.796085 7.154306 32.385271 -1.232608 1.348047 0.064390 -0.016992 450515.000000 0 0 1
-11.462064 30.410785 8.252106 33.530464 -1.210354 1.322134 0.053944 -0.016463 885360.000000 0 0 1
-10.778964 30.961885 9.390306 34.102819 -1.235783 1.291840 0.059180 -0.011257 684140.000000 0 0 1
-11.747764 31.501385 10.295806 35.161781 -1.213843 1.273629 0.059994 -0.001967 489496.000000 0 0 1
-11.013064 32.007385 11.573006 35.772822 -1.239406 1.241356 0.046999 -0.001752 53712.500000 0 0 1
-10.463264 33.304385 11.321406 36.699267 -1.266390 1.257190 0.048576 -0.006257 566084.000000 0 0 1
-9.706364 33.724785 12.479006 37.246480 -1.290559 1.229150 0.040764 -0.007997 611939.000000 0 0 1
-9.077764 -33.332717 12.478106 36.731172 1.304907 1.224183 0.038915 -0.009912 263723.000000 0 0 1
-9.982464 -32.418417 13.075906 36.353579 1.272084 1.202864 0.044510 -0.008554 315359.000000 0 0 1
-9.422664 -31.134417 13.274606 35.133370 1.276915 1.183340 0.047521 -0.009801 669797.000000 0 0 1
-10.462764 -30.212217 14.030406 34.915610 1.237413 1.157274 0.043101 -0.003297 80709.300000 0 0 1
-10.689964 -30.532517 15.412006 35.833502 1.234017 1.126192 0.039256 -0.024194 317680.000000 0 0 1
-9.641764 -30.298717 16.369506 35.762223 1.262706 1.095354 0.051355 -0.021861 209675.000000 0 0 1
-10.097464 -30.685417 17.775506 36.871700 1.252893 1.067757 0.062122 -0.036987 118896.000000 0 0 1
-10.780964 -29.707517 18.556506 36.648461 1.222673 1.039864 0.077511 -0.042823 237123.000000 0 0 1
-11.507764 -30.328417 19.576906 37.887950 1.208140 1.027798 0.079004 -0.044949 -283843.000000 0 0 1
-11.565064 -29.394517 20.858406 37.853157 1.195955 0.987193 0.091695 -0.052902 -107514.000000 0 0 1
-10.335564 -29.326517 21.534006 37.823034 1.231958 0.965099 0.074151 -0.045817 -28530.100000 0 0 1
-10.356964 -28.462017 22.664006 37.828697 1.221804 0.928392 0.062982 -0.039855 32180.900000 0 0 1
-9.054864 -28.592617 23.474506 38.086491 1.264103 0.906701 0.070297 -0.043353 55812.800000 0 0 1
-9.027264 -29.725417 24.312906 39.448819 1.275959 0.906741 0.075819 -0.032310 691265.000000 0 0 1
-7.815164 -29.682617 25.095806 39.647623 1.313348 0.885411 0.081480 -0.028654 858847.000000 0 0 1
-7.719064 -30.877417 26.078106 41.146889 1.325827 0.884365 0.083642 -0.023666 -148963.000000 0 0 1
-7.659464 -32.159817 25.515706 41.760897 1.336984 0.913479 0.089571 -0.016206 189849.000000 0 0 1
-7.578264 -33.128917 26.507506 43.099920 1.345915 0.908379 0.079499 -0.011607 -185162.000000 0 0 1
-7.506764 33.900585 26.008306 43.382406 -1.352878 0.927904 0.061999 -0.013756 -436060.000000 0 0 1
-6.264064 33.699485 25.403106 42.663938 -1.387014 0.933004 0.065935 -0.007192 -353976.000000 0 0 1
-6.068964 32.467085 24.738406 41.266605 -1.386002 0.927948 0.061681 -0.005632 463780.000000 0 0 1
-7.046564 32.178585 23.522406 40.477389 -1.355216 0.950686 0.056758 -0.006529 1055800.000000 0 0 1
-8.282564 31.506385 23.763906 40.323398 -1.313728 0.940563 0.057007 -0.010710 401479.000000 0 0 1
-9.033164 31.447185 22.580906 39.754507 -1.291079 0.966712 0.042975 -0.003538 565861.000000 0 0 1
-10.162864 30.354385 22.553506 39.157798 -1.247720 0.957013 0.049850 -0.016345 753425.000000 0 0 1
-9.574164 29.134085 22.116206 37.809868 -1.253290 0.946000 0.043543 -0.012617 89120.900000 0 0 1
-10.112064 28.008985 22.720606 37.456415 -1.224330 0.919035 0.026096 -0.011463 -175520.000000 0 0 1
-9.351164 26.719285 22.276006 36.022006 -1.234141 0.904091 0.026102 -0.016864 1136010.000000 0 0 1
-8.007064 26.524785 22.769606 35.862686 -1.277624 0.882903 0.022065 -0.014978 940461.000000 0 0 1
-7.576464 25.170785 22.640006 34.692090 -1.278420 0.859787 0.031387 -0.016759 -265505.000000 0 0 1
-6.218564 24.985485 23.297306 34.723328 -1.326865 0.835319 0.029793 -0.016850 -142732.000000 0 0 1
-5.093164 25.253385 22.483806 34.193498 -1.371784 0.853239 0.032155 -0.006905 474099.000000 0 0 1
-3.861364 25.206085 23.216306 34.485558 -1.418786 0.832244 0.037707 -0.008247 339881.000000 0 0 1
-2.627664 25.648085 22.440906 34.180743 -1.468702 0.854578 0.039531 -0.001756 -407451.000000 0 0 1
-2.442964 24.712885 21.404906 32.785131 -1.472263 0.859410 0.030638 -0.000369 198567.000000 0 0 1
-1.536164 25.239085 20.433306 32.509864 -1.510007 0.891139 0.035377 0.001406 158715.000000 0 0 1
-1.182464 24.218285 19.379206 31.039929 -1.522010 0.896521 0.028669 -0.003602 6237.840000 0 0 1
-0.207264 23.239585 19.790806 30.525355 -1.561878 0.865394 0.033811 -0.005837 414084.000000 0 0 1
0.187236 22.279585 18.738706 29.112782 1.562393 0.871526 0.028133 -0.005460 185649.000000 0 0 1
1.356236 21.395685 19.249506 28.812466 1.507493 0.839149 0.029384 -0.005648 -369158.000000 0 0 1
2.594336 22.023785 19.269706 29.378551 1.453540 0.855408 0.024087 -0.007037 -1004290.000000 0 0 1
3.588836 21.068385 19.516906 28.942464 1.402074 0.830733 0.028989 -0.006255 -788692.000000 0 0 1
5.008636 21.570285 19.441706 29.467670 1.342639 0.850292 0.035076 -0.014558 -219901.000000 0 0 1
5.985236 20.541285 19.207806 28.752518 1.287270 0.839226 0.049017 -0.017209 293460.000000 0 0 1
7.291936 21.039485 19.018206 29.283518 1.237169 0.863934 0.054365 -0.018570 -536197.000000 0 0 1
8.339136 19.995485 18.827306 28.702405 1.175678 0.855357 0.055041 -0.012707 -761685.000000 0 0 1
8.693236 19.290185 19.979006 29.100589 1.147397 0.814063 0.059844 -0.015526 128917.000000 0 0 1
9.861536 18.515985 19.686106 28.768635 1.081413 0.817166 0.054163 -0.019194 363978.000000 0 0 1
10.393036 17.844285 20.939006 29.408769 1.043397 0.778456 0.064347 -0.025174 -351025.000000 0 0 1
9.618636 16.756985 21.368606 28.808541 1.049708 0.735127 0.070193 -0.025479 33647.700000 0 0 1
10.158436 16.258085 22.564806 29.608945 1.012324 0.704255 0.083057 -0.030072 -55286.200000 0 0 1
9.251536 15.142885 23.129306 29.152405 1.022365 0.654434 0.066836 -0.026993 -209565.000000 0 0 1
8.035236 15.585485 23.673406 29.460185 1.094779 0.637522 0.066808 -0.018655 82746.600000 0 0 1
6.949436 14.676485 23.707606 28.735770 1.128566 0.600557 0.055118 -0.015695 510962.000000 0 0 1
7.024836 13.515785 24.743106 29.055913 1.091473 0.551826 0.062640 -0.011221 -572608.000000 0 0 1
7.375836 14.028985 26.025006 30.471566 1.086756 0.547026 0.062503 -0.020183 199838.000000 0 0 1
7.761736 13.041585 26.947406 30.927175 1.033949 0.512914 0.066585 -0.019721 -425834.000000 0 0 1
8.663836 13.602685 28.062406 32.366553 1.003671 0.521609 0.041067 -0.015155 -17497.400000 0 0 1
10.003336 13.908985 27.734706 32.599701 0.947301 0.553356 0.069351 -0.013734 95952.500000 0 0 1
10.280736 15.075485 27.001806 32.589282 0.972287 0.594286 0.063542 -0.016310 13737.800000 0 0 1
11.653236 14.965685 26.267606 32.399950 0.909201 0.625399 0.072173 -0.020452 503791.000000 0 0 1
11.498736 14.033785 25.153306 31.013817 0.884361 0.624876 0.079355 -0.028153 -692189.000000 0 0 1
12.701336 13.754585 24.545306 30.870449 0.825189 0.651613 0.087715 -0.029727 -1173320.000000 0 0 1
12.343836 12.759885 23.376706 29.353966 0.801970 0.649522 0.076686 -0.027551 100155.000000 0 0 1
11.955236 11.509485 23.807206 29.020320 0.766404 0.608750 0.077024 -0.019340 1236340.000000 0 0 1
10.565536 11.413185 24.211106 28.776188 0.823946 0.571003 0.078135 -0.017934 638018.000000 0 0 1
10.240436 10.154685 24.980606 28.844667 0.781194 0.523572 0.069286 -0.006446 -150588.000000 0 0 1
10.230836 9.011285 24.078506 27.670340 0.722104 0.515205 0.072868 -0.003750 177174.000000 0 0 1
9.998936 7.832385 24.743106 27.812700 0.664488 0.474255 0.067964 -0.004745 -93224.900000 0 0 1
10.255636 6.649485 23.788706 26.745023 0.575231 0.474628 0.074210 -0.004872 345253.000000 0 0 1
11.628136 6.286885 23.675406 27.115739 0.495645 0.509222 0.079974 -0.002417 437039.000000 0 0 1
11.895736 5.303585 22.654806 26.131911 0.419388 0.521766 0.086637 -0.015261 -42540.600000 0 0 1
11.817936 3.801985 23.071806 26.199751 0.311256 0.493645 0.078143 -0.015269 -183627.000000 0 0 1
12.830836 3.392085 23.956106 27.386705 0.258457 0.505908 0.080880 -0.013446 108430.000000 0 0 1
12.495236 2.108885 24.416406 27.508893 0.167199 0.478726 0.068943 -0.014081 -623584.000000 0 0 1
13.590136 1.462485 25.267306 28.727468 0.107201 0.495876 0.047484 -0.010815 66819.900000 0 0 1
14.618536 0.891885 24.447706 28.498901 0.060935 0.539730 0.071406 -0.018175 -279456.000000 0 0 1
15.889936 1.435685 24.581206 29.305067 0.090107 0.575714 0.066544 -0.020685 -906950.000000 0 0 1
16.822736 0.648885 23.654006 29.033386 0.038553 0.618555 0.063728 -0.026374 -675255.000000 0 0 1
17.164736 -0.658315 24.083406 29.581616 -0.038334 0.619560 0.062706 -0.027386 649207.000000 0 0 1
18.171436 -1.171715 23.180406 29.477198 -0.064392 0.665862 0.049802 -0.013496 381018.000000 0 0 1
18.471736 -2.686215 23.352706 29.895980 -0.144411 0.674320 0.044649 -0.010823 255960.000000 0 0 1
17.386036 -3.555715 22.977406 29.032370 -0.201734 0.657634 0.041207 -0.002618 680599.000000 0 0 1
17.540636 -4.886915 23.453106 29.691817 -0.271715 0.660176 0.051581 0.000160 -12838.400000 0 0 1
16.625936 -5.946915 22.797606 28.836060 -0.343508 0.659018 0.054088 -0.004886 -95361.900000 0 0 1
16.978336 -6.264715 21.466406 28.076986 -0.353485 0.700445 0.039058 -0.004840 121198.000000 0 0 1
16.159336 -7.233215 20.847406 27.350646 -0.420872 0.704049 0.050884 -0.005454 -217466.000000 0 0 1
16.606936 -8.715215 21.049106 28.192377 -0.483285 0.727824 0.059091 -0.004326 -24496.500000 0 0 1
16.570536 -9.131015 22.413806 29.331498 -0.503641 0.701066 0.048862 -0.001036 -149926.000000 0 0 1
17.210936 -10.346215 22.464706 30.131769 -0.541259 0.729438 0.044118 -0.001236 -246906.000000 0 0 1
16.788536 -11.089015 23.729906 31.111567 -0.583729 0.703263 0.059539 -0.003638 65927.400000 0 0 1
15.677236 -11.945915 23.545506 30.706212 -0.651131 0.696956 0.069287 -0.008640 90191.500000 0 0 1
15.423536 -12.793215 24.651906 31.768983 -0.692448 0.682538 0.068761 -0.002654 253828.000000 0 0 1
14.271336 -13.809915 24.468406 31.513293 -0.768968 0.681788 0.078090 -0.009555 439702.000000 0 0 1
14.624736 -14.655515 23.361706 31.215962 -0.786449 0.725165 0.079448 -0.019564 1379040.000000 0 0 1
13.436536 -15.468315 23.148406 30.913718 -0.855575 0.724536 0.082292 -0.020388 934404.000000 0 0 1
13.444836 -16.348015 21.862106 30.429802 -0.882537 0.769234 0.078997 -0.020776 -195127.000000 0 0 1
14.398436 -17.364915 21.996806 31.507375 -0.878521 0.797989 0.086562 -0.021893 -1597.510000 0 0 1
14.868336 -17.865815 20.752306 31.159476 -0.876714 0.841959 0.071104 -0.014711 190285.000000 0 0 1
-24.458464 -32.339217 26.547793 48.464696 0.923269 0.991093 -0.002216 -0.014441 -224666.000000 0 0 1
-23.871664 -33.628117 26.684083 49.119720 0.953475 0.996498 0.011178 -0.006520 668950.000000 0 0 1
-24.821664 33.815285 27.069973 49.923662 -0.937590 0.997711 0.021360 -0.014382 644948.000000 0 0 1
-25.312894 33.876585 28.594533 51.049123 -0.929084 0.976244 0.009874 -0.004997 -56984.600000 0 0 1
-26.314994 -33.661717 28.830933 51.544280 0.907284 0.977203 0.048403 -0.013398 -275155.000000 0 0 1
-26.209124 -33.324917 30.237773 52.074862 0.904359 0.951258 0.030797 -0.013943 -475234.000000 0 0 1
-27.459974 -32.724117 30.873753 52.707748 0.872643 0.944987 0.016724 -0.016920 -434785.000000 0 0 1
-27.574944 -31.323817 30.660613 51.784479 0.848962 0.937157 0.008347 -0.011764 316175.000000 0 0 1
-28.688664 -30.828617 31.404583 52.532761 0.821338 0.930031 0.012361 0.000831 201708.000000 0 0 1
-28.955094 -29.344517 31.047603 51.608641 0.792078 0.925297 0.006834 -0.000498 -183517.000000 0 0 1
-29.618214 -29.272117 29.813493 51.214645 0.779521 0.949453 0.007413 0.002519 -99887.300000 0 0 1
-30.100584 -27.951917 29.649283 50.659993 0.748403 0.945595 0.011790 0.010255 -431575.000000 0 0 1
-30.790964 -27.857917 28.280553 50.238797 0.735430 0.972879 0.006747 -0.003673 -498087.000000 0 0 1
-30.061294 -27.581717 27.098253 48.977014 0.742409 0.984493 0.012058 -0.000371 -287357.000000 0 0 1
-29.536634 -26.266817 27.092083 47.920136 0.726870 0.969928 -0.008043 0.000844 -125338.000000 0 0 1
-28.519824 -26.022517 25.965213 46.526810 0.739644 0.978738 0.014662 0.005639 175017.000000 0 0 1
-29.110474 -26.194317 24.644323 46.269911 0.732718 1.009102 -0.001725 -0.001985 43236.900000 0 0 1
-28.076274 -26.166517 23.696813 45.105463 0.750205 1.017653 0.021872 0.009623 -177679.000000 0 0 1
-28.457084 -26.377617 22.219153 44.713254 0.747494 1.050744 0.000961 0.013701 -52855.800000 0 0 1
-29.337244 -25.394217 21.722253 44.467926 0.713479 1.060435 0.004037 0.002958 -55295.500000 0 0 1
-29.403224 -25.446117 20.308053 43.868799 0.713378 1.089502 0.013161 0.012534 6664.540000 0 0 1
-30.179674 -24.206717 19.735053 43.430982 0.676012 1.099097 0.026413 0.000326 -483466.000000 0 0 1
-31.547124 -24.278817 19.972553 44.537455 0.655931 1.105773 0.049954 -0.003907 -794015.000000 0 0 1
-32.161054 -23.134217 19.430053 44.125417 0.623578 1.114822 0.076116 -0.008027 669221.000000 0 0 1
-33.687724 -23.048517 19.762753 45.350450 0.600030 1.119893 0.064628 -0.001831 551571.000000 0 0 1
-34.611460 -23.843817 19.095153 46.163900 0.603237 1.144350 0.061231 -0.015119 -270543.000000 0 0 1
-35.917949 -23.319817 19.120353 46.898836 0.575850 1.150870 0.047569 -0.014256 140968.000000 0 0 1
35.752633 -24.157817 18.265753 46.856041 -0.594226 1.170353 0.054234 -0.013580 83496.300000 0 0 1
35.506673 -25.434417 18.692953 47.508524 -0.621600 1.166398 0.041966 -0.011554 -301844.000000 0 0 1
34.860283 -26.213317 17.713153 47.075823 -0.644750 1.185031 0.051001 -0.005541 -1829.180000 0 0 1
34.752043 -27.664517 18.248053 48.021052 -0.672330 1.180999 0.044657 0.009949 -413071.000000 0 0 1
33.720693 -27.916017 19.149253 47.781618 -0.691499 1.158443 0.032907 0.005181 -544820.000000 0 0 1
33.874103 -27.311117 20.437553 48.073335 -0.678543 1.131688 0.030535 0.003498 -516259.000000 0 0 1
32.741683 -27.490117 21.472653 47.841396 -0.698429 1.105341 0.022118 -0.001383 -273350.000000 0 0 1
31.680793 -26.639917 21.144553 46.480641 -0.699179 1.098524 0.018661 -0.001442 -629622.000000 0 0 1
30.780553 -26.320317 22.183753 46.177055 -0.707445 1.069678 0.025733 0.006692 74121.200000 0 0 1
29.746453 -25.285417 21.685653 44.659504 -0.704512 1.063773 0.027281 0.005793 -75618.800000 0 0 1
30.286063 -24.043917 21.222453 44.110634 -0.671007 1.068866 0.009793 0.004373 6113.850000 0 0 1
31.086173 -23.283717 22.109453 44.691269 -0.642864 1.053289 0.024043 -0.000326 -434245.000000 0 0 1
31.665493 -22.013617 21.509853 44.158539 -0.607492 1.062024 0.014323 0.006133 -509508.000000 0 0 1
30.794173 -20.969517 21.174853 42.852959 -0.597831 1.053965 0.012209 -0.001304 -184882.000000 0 0 1
31.550313 -19.889517 20.628253 42.620886 -0.562478 1.065583 0.009705 -0.005027 -64082.400000 0 0 1
30.698153 -18.585117 20.549553 41.352960 -0.544391 1.050738 0.002133 -0.000693 133669.000000 0 0 1
30.452373 -17.882117 21.740453 41.470042 -0.530966 1.018968 0.008137 0.004042 96177.500000 0 0 1
29.582843 -18.519717 22.689753 41.628709 -0.559339 0.994347 0.022229 -0.000238 -456452.000000 0 0 1
29.691263 -18.070517 24.140383 42.318705 -0.546729 0.963752 0.017272 0.001304 182546.000000 0 0 1
29.050813 -16.814317 24.465243 41.535757 -0.524678 0.940955 0.021562 -0.004202 293838.000000 0 0 1
29.428863 -16.430117 25.752843 42.417162 -0.509193 0.918349 0.016302 -0.001255 -14456.900000 0 0 1
29.292183 -14.899117 25.872333 41.825749 -0.470534 0.903869 0.023832 -0.011734 772000.000000 0 0 1
27.920353 -14.501217 26.039213 40.839589 -0.479030 0.879421 0.034630 -0.017940 902430.000000 0 0 1
27.769753 -13.284517 26.727803 40.767794 -0.446203 0.855805 0.025949 -0.013725 -11078.900000 0 0 1
28.133643 -12.039017 25.919563 40.103161 -0.404343 0.868042 0.035611 -0.012712 -560771.000000 0 0 1
27.322383 -11.963317 24.792833 38.785540 -0.412711 0.877301 0.030776 -0.003631 185761.000000 0 0 1
27.884953 -11.194117 23.719933 38.282033 -0.381747 0.902551 0.038834 -0.000282 143426.000000 0 0 1
28.989873 -11.779717 22.824753 38.731690 -0.385959 0.940599 0.051952 -0.007702 -33668.300000 0 0 1
28.462053 -12.799017 22.012053 38.189446 -0.422594 0.956491 0.040059 -0.008885 239734.000000 0 0 1
29.022143 -14.059817 22.339253 39.230160 -0.451132 0.964971 0.025776 -0.013709 -227808.000000 0 0 1
28.615533 -15.061817 21.256953 38.698386 -0.484506 0.989272 0.024278 -0.004243 -253006.000000 0 0 1
28.934833 -14.699917 19.917553 38.079142 -0.470055 1.020363 0.015235 -0.001771 -180458.000000 0 0 1
28.636243 -15.746717 19.063253 37.833862 -0.502757 1.042726 0.015713 -0.003956 -175236.000000 0 0 1
29.160273 -15.416117 17.657253 37.413323 -0.486318 1.079294 0.020105 -0.004460 -99131.000000 0 0 1
28.858713 -16.305617 16.609753 37.075360 -0.514298 1.106270 0.016413 -0.013065 -375165.000000 0 0 1
27.493083 -16.474517 16.343653 35.977692 -0.539849 1.099242 0.040531 -0.006211 -535213.000000 0 0 1
26.846383 -15.708417 15.200053 34.619709 -0.529408 1.116247 0.036450 -0.009777 -525212.000000 0 0 1
27.007583 -16.307917 13.950253 34.495902 -0.543229 1.154470 0.041330 -0.015148 842331.000000 0 0 1
25.951383 -17.242517 13.595753 33.994458 -0.586443 1.159345 0.031249 -0.018155 401863.000000 0 0 1
26.142183 -17.901917 12.219753 33.959015 -0.600445 1.202702 0.025801 -0.010559 -174075.000000 0 0 1
25.682783 -17.026517 11.168853 32.775767 -0.585428 1.223065 0.032673 -0.016353 1545.590000 0 0 1
25.536383 -17.701817 9.962653 32.629981 -0.606148 1.260520 0.035464 -0.019504 -121334.000000 0 0 1
26.781383 -17.957517 9.069953 33.495954 -0.590667 1.296596 0.043696 -0.009183 67567.700000 0 0 1
27.616583 -18.868217 9.710253 34.827780 -0.599376 1.288244 0.038411 -0.002976 -859428.000000 0 0 1
28.949303 -18.907617 9.260653 35.795528 -0.578571 1.309110 0.053106 -0.008711 -367055.000000 0 0 1
29.808813 -19.678117 10.247553 37.159197 -0.583474 1.291401 0.063026 -0.031683 -441425.000000 0 0 1
29.965043 -18.993717 11.471853 37.286304 -0.564947 1.258054 0.052450 -0.034678 110676.000000 0 0 1
29.887653 -19.938717 12.490553 38.037326 -0.588318 1.236212 0.038348 -0.030279 -231699.000000 0 0 1
29.794563 -19.307017 13.921653 38.135145 -0.574971 1.197098 0.032875 -0.023406 431.021000 0 0 1
29.673723 -20.273617 14.946453 38.922305 -0.599374 1.176664 0.020741 -0.017389 18365.200000 0 0 1
29.549933 -19.694017 16.215753 39.038487 -0.587863 1.142437 0.022431 -0.015238 482.461000 0 0 1
29.503893 -20.754817 17.391753 40.046413 -0.613045 1.121547 0.005250 -0.007665 201329.000000 0 0 1
28.316373 -21.524717 17.321653 39.562231 -0.649966 1.117609 -0.011898 0.001655 -15669.400000 0 0 1
28.151663 -22.422917 18.391753 40.417322 -0.672606 1.098372 0.010873 -0.002968 -379930.000000 0 0 1
26.876883 -23.258417 18.424653 40.034843 -0.713349 1.092558 0.017766 0.001831 -144396.000000 0 0 1
25.769083 -22.593217 18.997953 39.184452 -0.719824 1.064623 0.029653 0.006127 788277.000000 0 0 1
24.520383 -23.187817 18.585653 38.527270 -0.757474 1.067401 0.049156 -0.003787 1587990.000000 0 0 1
23.260483 -22.550217 19.309353 37.714897 -0.769895 1.033306 0.047860 -0.005779 591179.000000 0 0 1
22.701783 -21.342717 18.778353 36.380064 -0.754551 1.028421 0.053069 -0.004663 239591.000000 0 0 1
21.512883 -20.914817 19.415253 35.737736 -0.771303 0.996469 0.063232 -0.007557 211392.000000 0 0 1
21.627083 -20.286817 20.784753 36.211761 -0.753432 0.959441 0.055445 -0.004211 -269278.000000 0 0 1
21.920883 -21.298517 21.757953 37.517469 -0.770999 0.952139 0.059451 -0.010166 17236.400000 0 0 1
22.575983 -20.845917 22.936253 38.344478 -0.745576 0.929589 0.048447 -0.005285 167016.000000 0 0 1
22.876483 -21.907217 23.981203 39.728551 -0.763758 0.922754 0.055817 -0.006606 517347.000000 0 0 1
21.692183 -22.520917 24.512263 39.731518 -0.804140 0.905938 0.063776 -0.007344 481668.000000 0 0 1
21.981783 -23.353117 25.609903 41.041857 -0.815638 0.896952 0.067215 -0.012934 338511.000000 0 0 1
20.726383 -23.933717 26.365343 41.201178 -0.857092 0.876406 0.069590 -0.015460 547696.000000 0 0 1
20.039383 -24.889217 25.556983 40.917104 -0.892927 0.896172 0.064078 -0.011101 -221080.000000 0 0 1
18.989583 -25.470917 26.249233 41.211577 -0.930156 0.880276 0.062411 -0.005707 -735948.000000 0 0 1
18.311083 -26.659917 25.627883 41.265425 -0.968958 0.900715 0.070308 -0.006840 -351467.000000 0 0 1
17.572383 -26.257517 24.499433 39.980846 -0.981020 0.911224 0.066458 -0.013644 -31458.600000 0 0 1
17.133383 -27.328617 23.752723 40.057434 -1.010804 0.936058 0.068538 -0.019407 -478561.000000 0 0 1
16.270183 -26.824117 22.589953 38.659515 -1.025574 0.946741 0.063256 -0.025144 -119256.000000 0 0 1
14.947983 -26.523817 22.981453 38.145803 -1.057596 0.924212 0.041836 -0.024067 -392010.000000 0 0 1
14.402883 -25.542717 22.180353 36.767397 -1.057363 0.923212 0.024722 -0.022910 1792430.000000 0 0 1
12.935583 -25.079917 22.664953 36.194359 -1.094609 0.894125 0.014449 -0.021433 2375720.000000 0 0 1
11.846883 -26.013117 22.712553 36.508779 -1.143445 0.899359 0.018533 -0.021676 -221748.000000 0 0 1
10.653583 -25.320017 22.703553 35.637809 -1.172525 0.880113 0.026654 -0.018779 188443.000000 0 0 1
9.317983 -26.147917 22.688353 35.851077 -1.228470 0.885568 0.039666 -0.019735 667909.000000 0 0 1
9.098083 -26.848517 21.480953 35.567532 -1.244074 0.922351 0.040139 -0.023065 451892.000000 0 0 1
7.831183 -27.505617 21.589053 35.832578 -1.293423 0.924169 0.044712 -0.022525 136482.000000 0 0 1
7.387283 -28.180217 20.278053 35.495014 -1.314421 0.962716 0.048828 -0.014569 -23457.600000 0 0 1
8.079983 -29.398917 20.096253 36.516323 -1.302579 0.988030 0.050720 -0.021211 206262.000000 0 0 1
7.626983 -30.071617 18.950453 36.353717 -1.322407 1.022447 0.041587 -0.014072 19525.100000 0 0 1
8.291683 -31.459617 18.710953 37.530778 -1.313091 1.048872 0.034165 -0.002113 -33138.200000 0 0 1
7.865683 -32.460717 19.640553 38.746851 -1.333065 1.039218 0.038645 -0.007652 47170.800000 0 0 1
8.536183 -33.658017 19.473353 39.811305 -1.322418 1.059691 0.036617 -0.006359 -435994.000000 0 0 1
8.184983 33.756285 20.531953 40.349001 1.332914 1.036937 0.051069 -0.022742 246753.000000 0 0 1
7.092283 32.877085 20.314053 39.292035 1.358331 1.027452 0.045811 -0.019563 40052.800000 0 0 1
7.131883 31.758785 21.261653 38.878556 1.349897 0.992171 0.046545 -0.025945 32058.700000 0 0 1
6.281083 30.514785 20.890553 37.510256 1.367794 0.980113 0.041003 -0.020266 975397.000000 0 0 1
4.900383 30.635185 21.272353 37.617035 1.412181 0.969760 0.052150 -0.022465 588391.000000 0 0 1
4.119283 29.534485 20.835553 36.378216 1.432217 0.960942 0.055335 -0.014778 -277579.000000 0 0 1
2.667883 29.507385 21.281753 36.478986 1.480627 0.947891 0.052314 -0.008019 -514472.000000 0 0 1
2.619783 29.228985 22.653553 37.072636 1.481406 0.913399 0.039017 -0.018029 549578.000000 0 0 1
1.296983 28.921185 23.129353 37.055150 1.525981 0.896705 0.042495 -0.009212 731712.000000 0 0 1
1.292183 28.323485 24.581243 37.525019 1.525206 0.856531 0.042030 -0.012274 -188645.000000 0 0 1
1.459083 29.337585 25.584843 38.953909 1.521103 0.854232 0.042336 -0.018184 153442.000000 0 0 1
1.266283 28.931085 26.952273 39.560538 1.527055 0.821270 0.042652 -0.016882 -926036.000000 0 0 1
2.395083 28.215085 27.628863 39.562375 1.486113 0.797690 0.025417 -0.015979 -1062760.000000 0 0 1
2.644183 26.963385 27.083233 38.308189 1.473043 0.785573 0.025660 -0.014605 84130.300000 0 0 1
3.624883 26.241785 27.795223 38.397207 1.433531 0.761377 0.010903 -0.003570 -145603.000000 0 0 1
4.106683 25.020885 27.058803 37.082184 1.408117 0.752916 0.002182 0.010947 18650.800000 0 0 1
3.103783 24.017085 26.926163 36.214253 1.442276 0.732472 0.010210 0.012305 111615.000000 0 0 1
3.631083 22.879785 26.330763 35.071048 1.413406 0.721549 0.008007 0.020443 317181.000000 0 0 1
2.538783 21.770685 26.357433 34.280059 1.454706 0.693700 0.012828 0.017345 250216.000000 0 0 1
3.039883 20.489785 26.627313 33.735530 1.423510 0.661135 0.026685 0.018390 -51624.800000 0 0 1
3.814183 19.917485 25.598663 32.658012 1.381588 0.669970 0.043060 0.012047 -168280.000000 0 0 1
4.007783 18.391785 25.668933 31.831026 1.356239 0.632736 0.037868 0.000065 49007.100000 0 0 1
4.987583 17.969785 26.604213 32.489588 1.300057 0.611386 0.037417 0.000450 750976.000000 0 0 1
6.231583 17.675385 25.938273 32.000717 1.231845 0.625701 0.053996 -0.001635 23902.800000 0 0 1
7.427583 17.365185 26.890973 32.860966 1.166617 0.612304 0.037150 -0.004532 304977.000000 0 0 1
7.974983 18.517085 27.588203 34.170042 1.164123 0.631098 0.044881 -0.000382 66996.100000 0 0 1
8.679383 19.358985 26.737453 34.132000 1.149325 0.670752 0.035359 -0.015767 -886229.000000 0 0 1
9.076483 20.726585 27.309253 35.465042 1.158038 0.691903 0.031745 -0.006521 123796.000000 0 0 1
9.969383 20.533685 28.394473 36.431675 1.118805 0.677105 0.038213 -0.020762 -5705.540000 0 0 1
10.182283 21.718785 29.139983 37.742855 1.132399 0.688710 0.060364 -0.022510 282351.000000 0 0 1
11.279383 21.564685 30.247283 38.822136 1.088880 0.677528 0.089461 -0.022757 427261.000000 0 0 1
12.564583 21.280585 29.721923 38.653910 1.037447 0.693640 0.082654 -0.028137 39139.400000 0 0 1
13.473383 21.148785 30.814203 39.728054 1.003560 0.683086 0.081157 -0.014054 178009.000000 0 0 1
14.968283 21.150685 30.454733 39.986144 0.954923 0.704968 0.049421 -0.024715 -108439.000000 0 0 1
15.433183 22.336485 29.956003 40.428503 0.966176 0.736294 0.036294 -0.036706 -192380.000000 0 0 1
16.727983 22.168385 29.406083 40.447255 0.924366 0.756820 0.084356 -0.021043 224977.000000 0 0 1
-8.890164 16.745085 4.242506 19.427603 -1.082726 1.350647 0.024392 -0.023229 -46046.500000 0 1 0
-8.505364 17.958285 4.902806 20.466527 -1.128476 1.328892 0.028706 -0.027394 354179.000000 0 1 0
-7.115564 18.261585 4.921406 20.207350 -1.199247 1.324777 0.017556 -0.022730 198942.000000 0 1 0
-6.822064 19.632385 5.555006 21.513466 -1.236359 1.309627 0.017619 -0.026486 -200207.000000 0 1 0
-7.013964 20.885185 4.852106 22.559468 -1.246796 1.354022 0.025385 -0.025945 355984.000000 0 1 0
-8.376364 21.179885 4.522206 23.220710 -1.194187 1.374795 0.030310 -0.027634 530611.000000 0 1 0
-8.535164 22.308285 3.554606 24.148372 -1.205379 1.423061 0.060229 -0.033673 110199.000000 0 1 0
-8.015764 22.215585 2.209106 23.720558 -1.224518 1.477531 0.045493 -0.033513 -90990.500000 0 1 0
-8.396964 21.077285 1.480406 22.736591 -1.191679 1.505639 0.053651 -0.032399 -398229.000000 0 1 0
-7.723064 21.087185 0.050706 22.457019 -1.219724 1.568538 0.027214 -0.014213 49364.600000 0 1 0
-6.411864 20.613885 -0.104594 21.588312 -1.269237 1.575641 0.010902 -0.007562 -495430.000000 0 1 0
-5.501464 21.652785 0.185006 22.341519 -1.321985 1.562515 0.019851 -0.013275 -805875.000000 0 1 0
-4.070064 21.292985 -0.249294 21.679917 -1.381929 1.582295 0.016088 -0.008721 -615128.000000 0 1 0
-3.860264 21.262385 -1.655094 21.673256 -1.391199 1.647236 0.014718 -0.018173 511437.000000 0 1 0
-2.492264 21.514085 -1.987094 21.748926 -1.455467 1.662289 0.011672 -0.003571 429976.000000 0 1 0
-2.256164 21.460685 -3.503194 21.861465 -1.466051 1.731735 0.021052 -0.013307 -198785.000000 0 1 0
-1.200364 22.190485 -4.080894 22.594517 -1.516755 1.752407 0.027335 0.002105 -225794.000000 0 1 0
-1.267564 22.288785 -5.503394 22.993130 -1.513987 1.812492 0.026771 -0.015407 -372211.000000 0 1 0
-0.142964 22.969385 -6.328694 23.825731 -1.564572 1.839648 0.023177 -0.010695 -398107.000000 0 1 0
0.966436 22.142285 -6.362394 23.058510 1.527177 1.850347 0.031176 0.001197 -733782.000000 0 1 0
2.165836 22.748985 -6.807694 23.844326 1.475877 1.860331 0.020020 0.002102 112962.000000 0 1 0
3.256136 21.677985 -6.909894 22.984432 1.421706 1.876153 0.020188 0.004692 -332824.000000 0 1 0
3.026036 20.842185 -8.056994 22.549251 1.426616 1.936179 0.019871 0.001153 84756.400000 0 1 0
3.926736 19.753785 -8.081294 21.701120 1.374570 1.952380 0.016532 -0.003126 254667.000000 0 1 0
3.575036 18.748585 -9.201694 21.188712 1.382375 2.020028 0.015981 -0.003717 -258071.000000 0 1 0
3.948336 19.136585 -10.501794 22.183010 1.367328 2.063961 0.019901 -0.009228 45890.300000 0 1 0
3.002236 18.686685 -11.443894 22.117150 1.411496 2.114632 0.021847 -0.010306 -161491.000000 0 1 0
3.279736 19.109685 -12.888994 23.282245 1.400825 2.157474 0.023291 -0.013630 13429.500000 0 1 0
3.105436 20.521585 -13.130094 24.559694 1.420610 2.134854 0.034998 -0.019863 -52012.000000 0 1 0
3.446636 20.844185 -14.472994 25.609118 1.406927 2.171411 0.054685 -0.024116 -146436.000000 0 0 1
4.187236 22.177385 -14.697794 26.933149 1.384186 2.148037 0.060039 -0.020631 333391.000000 0 0 1
3.316536 23.311685 -14.574694 27.692161 1.429475 2.125053 0.084075 -0.027541 313355.000000 0 0 1
3.909736 24.451685 -15.147394 29.027823 1.412242 2.119783 0.068687 -0.025096 -350779.000000 0 0 1
2.810536 25.388585 -15.582094 29.921247 1.460544 2.118549 0.079633 -0.027842 66715.000000 0 0 1
1.920636 25.841885 -14.566394 29.726616 1.496610 2.082900 0.096162 -0.032988 -10802.100000 0 0 1
2.003536 27.221585 -14.485094 30.900596 1.497328 2.058688 0.070113 -0.026937 -602216.000000 0 0 1
1.029436 27.776985 -13.412094 30.862679 1.533753 2.020361 0.077274 -0.024841 1187310.000000 0 0 1
-0.389464 27.600785 -13.569094 30.758338 -1.556687 2.027678 0.081030 -0.033009 725054.000000 0 0 1
-0.985664 26.341985 -13.650294 29.685051 -1.533396 2.048608 0.063850 -0.033319 -756547.000000 0 0 1
-0.849464 25.307785 -12.448594 28.216539 -1.537244 2.027710 0.080614 -0.029874 -277028.000000 0 0 1
-1.621164 25.562185 -11.270494 27.983523 -1.507461 1.985321 0.071881 -0.031997 -28513.900000 0 0 1
-1.855564 24.333385 -10.630994 26.619068 -1.494688 1.981631 0.070663 -0.022447 260236.000000 0 0 1
-2.975364 24.496985 -9.539294 26.456629 -1.449930 1.939668 0.062705 -0.020216 308636.000000 0 0 1
-2.693464 24.946485 -8.216694 26.402575 -1.463243 1.887260 0.073284 -0.020829 -292894.000000 0 0 1
-2.136664 26.244985 -8.085594 27.545261 -1.489563 1.868723 0.072800 -0.026013 52247.200000 0 0 1
-1.886064 26.628485 -6.643294 27.509395 -1.500086 1.814699 0.059974 -0.019382 47165.500000 0 0 1
-0.811264 25.970385 -6.011094 26.669314 -1.539568 1.798143 0.043645 -0.015312 -136905.000000 0 0 1
-0.617964 26.377485 -4.695794 26.799330 -1.547373 1.746926 0.036299 -0.016172 -311501.000000 0 0 1
-1.504064 25.723785 -3.607394 26.019005 -1.512393 1.709889 0.034040 -0.017224 -438571.000000 0 0 1
-2.869664 25.987985 -3.661494 26.401078 -1.460819 1.709932 0.034142 -0.018156 -735573.000000 0 0 1
-3.583964 25.369185 -2.657394 25.758535 -1.430453 1.674146 0.025567 -0.014808 -468797.000000 0 0 1
-4.754664 24.496585 -3.098094 25.145332 -1.379085 1.694318 0.039455 -0.016416 250302.000000 0 0 1
-5.886464 25.240985 -3.613294 26.168945 -1.341681 1.709315 0.043512 -0.014619 707338.000000 0 0 1
-6.925164 24.290085 -3.895594 25.556639 -1.293062 1.723823 0.022311 -0.020373 1399760.000000 0 0 1
-8.328064 24.998885 -4.136594 26.672314 -1.249222 1.726514 0.043152 -0.010394 890508.000000 0 0 1
-8.808964 25.563185 -2.922794 27.195901 -1.238944 1.678476 0.054687 -0.019017 -49712.500000 0 0 1
-10.045264 26.232985 -3.183394 28.270318 -1.205096 1.683641 0.066338 -0.018786 373364.000000 0 0 1
-10.866764 26.367985 -1.874094 28.580928 -1.179886 1.636415 0.064106 -0.021649 -284834.000000 0 0 1
-11.413664 25.158485 -1.360994 27.659961 -1.144894 1.620021 0.064391 -0.021801 -251500.000000 0 0 1
-10.525064 24.196085 -0.888194 26.401069 -1.160494 1.604445 0.076445 -0.027503 -639100.000000 0 0 1
-11.116764 22.805185 -0.391294 25.373452 -1.117226 1.586218 0.073538 -0.031719 -210441.000000 0 0 1
-11.884464 22.945985 0.800006 25.853409 -1.092906 1.539847 0.083521 -0.036807 -21072.800000 0 0 1
-12.541364 21.752685 1.012306 25.129463 -1.047803 1.530502 0.087259 -0.040073 -317749.000000 0 0 1
-13.534264 21.716085 2.191906 25.682078 -1.013466 1.485345 0.091739 -0.043074 -20567.600000 0 0 1
-12.914864 21.766385 3.456806 25.544447 -1.035288 1.435055 0.090553 -0.045114 29408.000000 0 0 1
-12.723664 23.099285 3.967006 26.668441 -1.067320 1.421489 0.083281 -0.038442 -19632.200000 0 0 1
-12.362864 23.056585 5.447206 26.722998 -1.078612 1.365518 0.069696 -0.036953 655751.000000 0 0 1
-11.110964 22.487185 5.884706 25.763478 -1.111878 1.340349 0.058366 -0.029458 860980.000000 0 0 1
-11.252664 22.258285 7.243806 25.971647 -1.102719 1.288135 0.034775 -0.026596 -557341.000000 0 0 1
-9.970364 21.848785 7.950406 25.297955 -1.142687 1.251108 0.032670 -0.021698 -461597.000000 0 0 1
-9.074064 22.922485 8.248106 25.996350 -1.193865 1.247937 0.034891 -0.021028 484779.000000 0 0 1
-7.965364 22.475685 9.031806 25.498568 -1.230208 1.208729 0.034701 -0.018720 5377.540000 0 0 1
-8.165964 22.283585 10.556806 25.974744 -1.219537 1.152258 0.025906 -0.023984 -598566.000000 0 0 1
-8.976164 21.215385 10.910506 25.489277 -1.170539 1.128470 0.026556 -0.022872 -316547.000000 0 0 1
-8.536464 20.713885 12.128706 25.476298 -1.179891 1.074607 0.015708 -0.017856 7822.780000 0 0 1
-9.545864 19.722585 12.787906 25.369952 -1.120025 1.042506 0.015013 -0.021730 -58015.100000 0 0 1
-9.941364 18.675685 11.947006 24.296973 -1.081631 1.056747 0.028890 -0.028983 43547.200000 0 1 0
-10.316064 17.489185 12.626206 23.910539 -1.037871 1.014482 0.028962 -0.034746 -291321.000000 0 1 0
-10.680864 16.441785 11.562106 22.761711 -0.994690 1.037978 0.037919 -0.035127 -198571.000000 0 1 0
-10.903264 15.141785 12.119706 22.249542 -0.946722 0.994745 0.028335 -0.030761 108464.000000 0 1 0
-11.519564 14.280285 11.178706 21.484655 -0.891998 1.023581 0.024532 -0.021134 4875.330000 0 1 0
-12.002464 12.965485 11.773406 21.231487 -0.823949 0.983003 0.021284 -0.018458 993440.000000 0 1 0
-13.179164 13.140085 12.602506 22.476107 -0.783913 0.975557 0.038812 -0.013977 968513.000000 0 1 0
-13.559764 11.973285 13.371606 22.495035 -0.723344 0.934246 0.024719 0.006870 258504.000000 0 1 0
-14.391764 12.071685 14.660006 23.827804 -0.697951 0.908096 0.029405 0.003702 961771.000000 0 1 0
-15.589064 12.864785 14.528006 24.891456 -0.689945 0.947574 0.045651 -0.005449 863195.000000 0 1 0
-16.460564 12.805185 15.657406 26.078292 -0.661139 0.926795 0.042004 -0.001099 499041.000000 0 0 1
-17.656064 13.806685 15.622606 27.320816 -0.663656 0.962073 0.048861 -0.006134 1071340.000000 0 0 1
-18.759664 13.362585 14.809306 27.382462 -0.618936 0.999371 0.063908 -0.006255 160886.000000 0 0 1
-19.621764 14.371885 14.410406 28.270559 -0.632172 1.035923 0.083915 -0.017099 508722.000000 0 0 1
-20.808264 13.817485 13.506206 28.395851 -0.586181 1.075105 0.063259 -0.019549 943619.000000 0 0 1
-21.706664 12.968585 14.223506 29.011577 -0.538540 1.058397 0.062957 -0.009653 324157.000000 0 0 1
-22.834464 12.632185 13.435606 29.351327 -0.505302 1.095332 0.054601 -0.007367 158535.000000 0 0 1
-23.760664 11.623185 14.144706 29.995672 -0.454952 1.079739 0.068415 -0.009920 119401.000000 0 0 1
-24.456864 12.186285 15.256806 31.295589 -0.462268 1.061565 0.061420 -0.005408 -76391.500000 0 0 1
-25.156074 11.219485 15.957506 31.833110 -0.419518 1.045711 0.063762 -0.006590 -619504.000000 0 0 1
-25.836554 11.732785 17.173606 33.168035 -0.426271 1.026547 0.057282 -0.007010 19478.900000 0 0 1
-26.926584 12.621885 16.905506 34.207442 -0.438338 1.053876 0.051160 0.002252 628130.000000 0 0 1
-27.563924 13.130685 18.083006 35.484925 -0.444567 1.036080 0.035655 0.005073 543131.000000 0 0 1
-28.697304 14.156585 17.784806 36.609336 -0.458279 1.063518 0.018176 0.004933 682535.000000 0 0 1
-28.194724 15.404085 17.251206 36.466868 -0.500034 1.078030 0.025764 0.005983 -35679.200000 0 0 1
-29.297694 16.281085 17.197606 37.672089 -0.507218 1.096730 0.025257 0.003099 -187390.000000 0 0 1
-29.010554 17.844385 17.165906 38.140565 -0.551448 1.103953 0.044725 0.002366 -547706.000000 0 0 1
-28.455054 18.315785 18.354906 38.497541 -0.571915 1.073807 0.039847 0.006544 -568392.000000 0 0 1
-29.220464 18.459385 19.510606 39.689396 -0.563423 1.056890 0.035424 -0.007153 -1561100.000000 0 0 1
-28.423114 18.766485 20.774206 39.895138 -0.583550 1.023102 0.049340 -0.018059 90124.900000 0 0 1
-27.752924 17.736585 21.441406 39.300702 -0.568667 0.993724 0.043388 -0.020084 292961.000000 0 0 1
-26.738424 17.049185 20.689206 37.863720 -0.567629 0.992722 0.055384 -0.003142 -144668.000000 0 0 1
-26.311874 15.733385 21.409106 37.392566 -0.538916 0.961184 0.049643 -0.011480 256297.000000 0 0 1
-27.438854 14.882185 21.385806 37.838114 -0.496971 0.970130 0.022685 -0.012399 298734.000000 0 0 1
-27.053694 13.598685 21.810806 37.316724 -0.465770 0.946560 0.026625 -0.013701 456016.000000 0 0 1
-28.282454 12.651785 21.974506 37.984784 -0.420637 0.953898 0.030961 -0.019725 589159.000000 0 0 1
-29.143174 12.419385 20.866106 37.933628 -0.402845 0.988350 0.033601 -0.015987 -260688.000000 0 0 1
-30.186534 11.547485 21.128706 38.613385 -0.365363 0.991798 0.048619 -0.018646 -387397.000000 0 0 1
-31.043304 11.362785 19.826606 38.547295 -0.350884 1.030553 0.058720 -0.013651 -362986.000000 0 0 1
-30.420514 10.871285 18.653906 37.303629 -0.343223 1.047133 0.067231 -0.011798 45415.700000 0 0 1
-29.999394 9.504885 18.697006 36.604433 -0.306830 1.034698 0.080580 -0.010601 188900.000000 0 0 1
-29.128644 9.144885 17.450306 35.165609 -0.304204 1.051543 0.096055 -0.015251 305999.000000 0 0 1
-29.881784 9.022585 16.227206 35.180254 -0.293238 1.091383 0.095394 -0.011167 689431.000000 0 0 1
-30.389204 10.243685 15.626206 35.673732 -0.325121 1.117389 0.082935 -0.006830 -200954.000000 0 0 1
-29.341074 11.080685 14.890606 34.719020 -0.361093 1.127534 0.075694 -0.005016 -255234.000000 0 0 1
-28.861134 10.505785 13.718206 33.638159 -0.349102 1.150735 0.078716 -0.016271 176025.000000 0 0 1
-27.825014 11.324985 13.204706 32.815408 -0.386533 1.156666 0.066560 -0.009084 -94650.100000 0 0 1
-27.508584 11.221685 11.721706 31.938172 -0.387327 1.195001 0.080930 -0.007535 -547290.000000 0 0 1
-26.856824 10.055185 11.286806 30.818627 -0.358244 1.195839 0.096391 -0.004862 279210.000000 0 0 1
-27.697244 8.959385 10.920406 31.091208 -0.312853 1.211904 0.094084 -0.011353 -375916.000000 0 0 1
-27.022794 7.737185 10.269606 29.925913 -0.278860 1.220509 0.107081 -0.020149 -413452.000000 0 0 1
-26.625944 7.994585 8.914706 29.194628 -0.291691 1.260486 0.098627 -0.013803 -33882.000000 0 0 1
-26.028744 6.905385 8.358806 28.196622 -0.259325 1.269826 0.131286 -0.037710 -614081.000000 0 0 1
-25.463424 7.355085 7.006006 27.414729 -0.281195 1.312373 0.118156 -0.026650 -417198.000000 0 0 1
-26.462494 7.778285 6.120306 28.252849 -0.285884 1.352439 0.118719 -0.031275 130559.000000 0 0 1
-25.823514 8.206085 4.932906 27.541374 -0.307684 1.390716 0.124016 -0.030915 424019.000000 0 0 1
-26.854964 8.573285 3.788506 28.443683 -0.309017 1.437206 0.115086 -0.026189 162271.000000 0 0 1
-27.609094 7.519585 3.241606 28.797817 -0.265909 1.457993 0.136135 -0.032191 481809.000000 0 0 1
-26.837264 6.406385 2.732206 27.726260 -0.234327 1.472094 0.153148 -0.034565 -12665.100000 0 0 1
-25.917714 6.673585 1.496906 26.804951 -0.252017 1.514923 0.168324 -0.032867 -339576.000000 0 0 1
-24.717564 7.236385 1.925606 25.826947 -0.284804 1.496169 0.141740 -0.025514 -14972.400000 0 0 1
-23.840664 7.532885 0.836206 25.016412 -0.306041 1.537364 0.151021 -0.017724 46765.600000 0 0 1
-22.622864 8.399985 1.190306 24.161345 -0.355527 1.521511 0.133624 -0.014433 -104214.000000 0 1 0
-22.961164 9.766385 1.432806 24.993005 -0.402162 1.513437 0.117583 -0.015945 516047.000000 0 1 0
-21.830564 10.357385 2.005806 24.246077 -0.442995 1.487975 0.119518 -0.019009 -412435.000000 0 1 0
-22.098164 11.763985 2.410606 25.150174 -0.489192 1.474800 0.107126 -0.025573 779692.000000 0 0 1
-20.922064 12.441185 2.916106 24.515700 -0.536472 1.451566 0.094717 -0.026990 1259270.000000 0 1 0
-21.324764 13.674185 3.474606 25.569548 -0.570189 1.434486 0.089188 -0.034165 -603823.000000 0 0 1
-20.106064 14.335685 4.072506 25.027005 -0.619400 1.407345 0.057024 -0.024570 -327209.000000 0 0 1
-19.507564 13.568085 5.101606 24.303588 -0.607719 1.359312 0.050538 -0.026415 85173.100000 0 1 0
-18.858264 14.310485 6.116906 24.450780 -0.649137 1.317938 0.056994 -0.025014 -325777.000000 0 1 0
-18.289564 13.343185 7.225506 23.764610 -0.630285 1.261861 0.048099 -0.027171 650082.000000 0 1 0
-17.149164 12.620885 6.726206 22.329855 -0.634447 1.264824 0.043125 -0.013097 659816.000000 0 1 0
-16.674164 11.744085 7.690606 21.796713 -0.613625 1.210199 0.030890 -0.016702 -259601.000000 0 1 0
10.775836 -32.542517 -14.070794 37.055652 -1.251029 1.960291 0.015262 -0.002468 -690028.000000 0 0 1
12.030536 -32.553117 -13.466894 37.226287 -1.216798 1.940949 0.003051 -0.000482 -555668.000000 0 0 1
12.774436 -31.464017 -13.908494 36.696278 -1.185127 1.959530 0.013770 -0.008905 -35575.400000 0 0 1
14.247736 -31.447117 -13.423194 37.041886 -1.145393 1.941615 0.037449 -0.010644 129639.000000 0 0 1
15.068436 -32.415417 -14.041294 38.405403 -1.135659 1.945081 0.033000 -0.004706 295648.000000 0 0 1
16.422836 -32.104817 -13.715094 38.581506 -1.097961 1.934228 0.047121 -0.009595 888673.000000 0 0 1
17.509736 -33.188517 -14.017694 40.057013 -1.085326 1.928307 0.057041 -0.009269 491546.000000 0 0 1
17.544236 34.205485 -13.150794 40.629531 1.096876 1.900408 0.054553 -0.010768 -404558.000000 0 0 1
18.592736 33.389085 -13.587594 40.560369 1.062709 1.912398 0.049807 -0.006337 -220494.000000 0 0 1
18.650336 32.076485 -12.746094 39.232625 1.044141 1.901687 0.045361 -0.012407 -142707.000000 0 0 1
19.144036 32.315885 -11.455294 39.268745 1.035981 1.866816 0.055338 -0.010344 -177235.000000 0 0 1
18.996936 31.084285 -10.743194 37.980687 1.022224 1.857570 0.042264 -0.016025 -193158.000000 0 0 1
20.136336 30.716185 -9.793194 38.011350 0.990522 1.831374 0.048733 -0.010481 -336319.000000 0 0 1
21.347336 30.317585 -10.386994 38.506550 0.957308 1.843926 0.061165 -0.009933 63581.200000 0 0 1
22.160236 29.823385 -9.303994 38.302411 0.931759 1.816160 0.049999 -0.000407 244052.000000 0 0 1
23.482936 29.167685 -9.736294 38.691053 0.892953 1.825173 0.037686 0.000617 -890333.000000 0 0 1
24.452336 29.921185 -10.294494 39.989632 0.885640 1.831157 0.046114 -0.004217 -1441720.000000 0 0 1
25.613636 29.170385 -10.399194 40.188468 0.850230 1.832535 0.043976 0.011415 -855841.000000 0 0 1
26.711336 29.781385 -11.241794 41.554835 0.839689 1.844739 0.038799 0.007866 -362199.000000 0 0 1
27.415736 30.871885 -10.649894 42.639373 0.844624 1.823236 0.025916 0.002153 310646.000000 0 0 1
28.423336 31.315985 -11.540694 43.837935 0.833782 1.837194 0.017471 0.010721 58114.500000 0 0 1
28.871636 32.822185 -11.374594 45.169111 0.849346 1.825359 0.007340 0.009544 -273870.000000 0 0 1
28.092736 33.858285 -11.916094 45.580463 0.878197 1.835300 0.025156 0.007416 -38971.800000 0 0 1
28.517636 -33.370717 -11.397694 45.351601 -0.863655 1.824839 0.041001 0.005613 117633.000000 0 0 1
27.469636 -32.299917 -11.787794 44.009290 -0.866038 1.841955 0.031886 -0.003840 637937.000000 0 0 1
26.273536 -32.447017 -11.007994 43.177350 -0.890147 1.828591 0.033421 -0.008672 387278.000000 0 0 1
25.147236 -31.667217 -11.379094 42.008093 -0.899658 1.845102 0.032301 -0.017524 431956.000000 0 0 1
25.199836 -30.187117 -10.980694 40.827312 -0.875200 1.843104 0.026219 -0.017273 -310053.000000 0 0 1
25.968536 -29.397717 -11.894694 40.988710 -0.847255 1.865226 0.012155 -0.013390 -90726.800000 0 0 1
26.405636 -28.222417 -11.277294 40.260897 -0.818643 1.854700 0.012681 -0.013892 -442725.000000 0 0 1
27.154236 -27.391217 -12.323594 40.490768 -0.789743 1.880058 0.024980 -0.023662 -373101.000000 0 0 1
28.390436 -27.868917 -12.789194 41.788239 -0.776129 1.881835 0.017042 -0.015153 -234439.000000 0 0 1
28.292636 -28.814917 -13.804294 42.677057 -0.794543 1.900179 0.022707 -0.015485 -783796.000000 0 0 1
29.654736 -29.367717 -14.193394 44.083088 -0.780535 1.898605 0.017771 -0.006134 -326419.000000 0 0 1
30.215536 -30.253917 -13.240994 44.761613 -0.786033 1.871101 0.024461 -0.021302 179756.000000 0 0 1
31.373236 -30.924817 -13.723794 46.140728 -0.778200 1.872800 0.024091 -0.015889 17804.900000 0 0 1
31.891936 -31.999717 -12.800994 46.956820 -0.787085 1.846903 0.015605 -0.011767 -385217.000000 0 0 1
32.886836 -32.768217 -13.403694 48.321414 -0.783591 1.851869 0.015503 -0.000245 -314810.000000 0 0 1
33.738236 -33.610417 -12.687994 49.284013 -0.783500 1.831175 0.013270 0.001669 -16421.300000 0 0 1
33.050336 33.905785 -11.734594 48.781428 0.798174 1.813733 -0.007599 0.014559 -311630.000000 0 0 1
32.629836 -34.156317 -10.464694 48.382538 -0.808250 1.788810 -0.009334 0.013578 -158965.000000 0 0 1
32.225636 33.193885 -9.700894 47.269789 0.800198 1.777489 -0.010766 0.019784 -346774.000000 0 0 1
31.538436 33.502185 -8.369194 46.766577 0.815582 1.750722 -0.022827 0.018758 401369.000000 0 0 1
30.334936 -34.222017 -8.586694 46.530486 -0.845537 1.756399 -0.003079 0.009622 99598.700000 0 0 1
29.589436 -34.049217 -7.395594 45.711910 -0.855364 1.733298 0.004488 0.011145 -171865.000000 0 0 1
28.615836 -32.923817 -7.610894 44.280577 -0.855287 1.743533 0.012324 -0.001235 -849506.000000 0 0 1
29.209036 -31.625217 -7.652494 43.725082 -0.825095 1.746716 0.008104 -0.006585 -63691.500000 0 0 1
28.426136 -30.518617 -8.092194 42.484289 -0.820882 1.762442 0.007959 -0.009900 872264.000000 0 0 1
27.149836 -30.091117 -7.248994 41.172040 -0.836737 1.747785 0.019030 -0.017138 769808.000000 0 0 1
26.408636 -29.082417 -7.860094 40.062253 -0.833545 1.768274 0.018120 -0.019261 -213741.000000 0 0 1
25.414436 -28.634417 -6.943994 38.910698 -0.844903 1.750217 0.034795 -0.026233 477411.000000 0 0 1
24.329036 -27.754717 -7.681094 37.699145 -0.851076 1.775980 0.065150 -0.028064 33286.100000 0 0 1
23.461936 -28.552617 -8.453794 37.910170 -0.882958 1.795683 0.089734 -0.035106 -148095.000000 0 0 1
22.575536 -27.750317 -9.180894 36.932692 -0.887864 1.822015 0.099937 -0.034892 -31352.400000 0 0 1
21.448436 -28.538317 -9.891394 37.044711 -0.926294 1.841088 0.091225 -0.026270 -195530.000000 0 0 1
21.898436 -29.226917 -11.018194 38.146491 -0.927772 1.863810 0.088320 -0.021550 -11036.900000 0 0 1
20.995736 -30.147117 -11.629094 38.534471 -0.962462 1.877360 0.078045 -0.018572 61628.900000 0 0 1
20.551036 -31.472117 -10.971894 39.156375 -0.992321 1.854806 0.079040 -0.027154 118828.000000 0 0 1
21.605336 -32.414017 -10.929094 40.458672 -0.982879 1.844324 0.070347 -0.021192 -160003.000000 0 0 1
21.263536 -33.784817 -10.601894 41.303172 -1.009053 1.830387 0.052909 -0.018058 -276745.000000 0 0 1
22.468436 33.761685 -10.750994 41.955523 0.983601 1.829934 0.046233 -0.011391 20658.100000 0 0 1
23.377136 33.870985 -9.681194 42.278359 0.966690 1.801833 0.055390 -0.015329 -293846.000000 0 0 1
24.549536 33.118685 -9.893694 42.395899 0.932913 1.806333 0.055561 -0.006069 698953.000000 0 0 1
25.809036 33.528685 -9.043494 43.267353 0.914768 1.781363 0.042076 -0.004510 374936.000000 0 0 1
25.702136 33.274385 -7.641694 42.733827 0.913094 1.750584 0.042257 -0.015215 31609.900000 0 0 1
25.860736 31.909385 -7.275994 41.712428 0.889720 1.746126 0.035613 -0.000094 -225751.000000 0 0 1
25.784236 31.653785 -5.779994 41.233449 0.887234 1.711437 0.034726 0.003185 37322.800000 0 0 1
26.887136 32.219885 -5.059094 42.268588 0.875376 1.690773 0.032169 0.002659 596993.000000 0 0 1
27.955936 31.355285 -4.699294 42.270222 0.842649 1.682199 0.034759 0.001172 377969.000000 0 0 1
27.576736 30.271485 -3.645494 41.111176 0.831948 1.659587 0.055941 0.006365 -451374.000000 0 0 1
27.201036 30.760085 -2.336894 41.128339 0.846725 1.627647 0.060532 -0.004298 80041.100000 0 0 1
26.744936 29.719485 -1.487194 40.009388 0.838030 1.607976 0.056308 -0.000863 -265504.000000 0 0 1
25.376936 29.049785 -1.628894 38.607411 0.852778 1.613000 0.045149 0.007918 451833.000000 0 0 1
24.253636 29.862585 -1.188594 38.489292 0.888676 1.601682 0.037001 0.002390 1370230.000000 0 0 1
23.012736 29.143885 -1.292594 37.156734 0.902414 1.605591 0.046199 0.009444 211905.000000 0 0 1
21.800736 29.820785 -0.730894 36.947064 0.939528 1.590580 0.046409 0.001906 -597667.000000 0 0 1
21.440536 29.467485 0.576906 36.446702 0.941786 1.554967 0.052645 -0.011780 -258971.000000 0 0 1
20.249436 30.056885 1.004106 36.255541 0.977938 1.543098 0.055495 -0.016348 -503115.000000 0 0 1
19.600936 29.313185 2.232906 35.333347 0.981406 1.507559 0.056048 -0.024451 126586.000000 0 0 1
18.988236 28.029085 1.918506 33.909636 0.975367 1.514189 0.068596 -0.017789 485427.000000 0 0 1
18.581336 27.309185 3.072706 33.173772 0.973342 1.478039 0.095343 -0.026662 -251591.000000 0 0 1
17.929136 25.977085 2.609206 31.671294 0.966684 1.488319 0.084616 -0.006793 192230.000000 0 0 1
18.768536 24.962085 2.034306 31.296997 0.926092 1.505750 0.087954 -0.005567 1291280.000000 0 0 1
19.868036 24.487185 2.862206 31.663122 0.889164 1.480277 0.084839 -0.007667 1121910.000000 0 0 1
21.165336 23.923785 2.190706 32.017466 0.846500 1.502321 0.077496 -0.002578 520514.000000 0 0 1
20.908036 22.701085 1.534806 30.900500 0.826491 1.521107 0.078303 0.001373 1253240.000000 0 0 1
22.182336 22.133385 1.158506 31.357374 0.784294 1.533843 0.047331 0.003703 926835.000000 0 0 1
22.064636 21.010785 0.088306 30.468165 0.760938 1.567898 0.056657 -0.002743 -309167.000000 0 0 1
21.686136 21.447085 -1.160794 30.522343 0.779856 1.608836 0.049051 0.003892 255821.000000 0 0 1
21.843736 20.526585 -2.219894 30.056903 0.754322 1.644720 0.069964 -0.006780 44075.500000 0 0 1
21.647636 21.173185 -3.630594 30.497625 0.774319 1.690124 0.053870 -0.008606 -493495.000000 0 0 1
22.712036 21.971585 -3.983594 31.850528 0.768829 1.696196 0.054040 0.004157 -279336.000000 0 0 1
22.408736 22.711885 -5.155394 32.319642 0.792117 1.730993 0.047580 -0.002243 -221980.000000 0 0 1
23.265336 23.976385 -5.326094 33.830610 0.800448 1.728888 0.050199 0.005834 -286805.000000 0 0 1
22.976936 25.114285 -4.536894 34.340214 0.829813 1.703300 0.043076 0.011781 388780.000000 0 0 1
23.468436 25.130385 -3.148894 34.528529 0.819582 1.662120 0.057159 0.008477 307539.000000 0 0 1
22.298736 24.807585 -2.187194 33.428038 0.838607 1.636273 0.052539 0.006889 -774065.000000 0 0 1
21.385536 25.866685 -2.009794 33.622401 0.879950 1.630607 0.051305 0.007387 479340.000000 0 0 1
20.314736 25.575985 -1.129994 32.681744 0.899547 1.605379 0.060239 0.008896 187368.000000 0 0 1
19.259636 24.538685 -1.562794 31.233363 0.905350 1.620853 0.070631 -0.007483 -1241210.000000 0 0 1
18.697736 24.811885 -2.793394 31.193558 0.925008 1.660467 0.056562 -0.002359 -48601.800000 0 0 1
18.066436 23.665685 -3.273194 29.952872 0.918773 1.680293 0.065610 -0.008572 -103661.000000 0 0 1
17.687836 23.792085 -4.753794 30.025346 0.931511 1.729791 0.060925 -0.014173 -31702.000000 0 0 1
16.962936 22.738385 -5.435494 28.884597 0.929857 1.760105 0.063850 -0.018398 484785.000000 0 0 1
16.642636 23.093785 -6.743494 29.253632 0.946342 1.803407 0.057231 -0.020736 -183935.000000 0 0 1
15.692136 22.112585 -7.432794 28.115049 0.953625 1.838348 0.069602 -0.026778 -528277.000000 0 0 1
16.312136 20.890685 -7.733294 27.609968 0.907852 1.854685 0.056694 -0.020941 190798.000000 0 0 1
15.543136 20.101685 -8.575494 26.818015 0.912596 1.896279 0.071555 -0.021169 -96447.100000 0 0 1
16.343836 18.770885 -8.824494 26.407173 0.854406 1.911521 0.075236 -0.015227 -52381.000000 0 0 1
17.556436 19.031285 -9.466694 27.568761 0.825686 1.921315 0.062455 -0.015303 -483801.000000 0 0 1
18.159936 17.796885 -9.729994 27.224716 0.775302 1.936274 0.069310 -0.013692 62205.700000 0 0 1
19.522936 17.989985 -10.463394 28.535368 0.744556 1.946236 0.049819 -0.010877 -62773.900000 0 0 1
19.469836 18.586585 -11.750894 29.370379 0.762193 1.982415 0.044634 -0.009925 -9976.550000 0 0 1
20.785536 18.894585 -12.141394 30.601590 0.737779 1.978777 0.048374 -0.003745 -165284.000000 0 0 1
20.990736 19.188785 -13.644594 31.543548 0.740581 2.018131 0.046838 -0.008919 -119677.000000 0 0 1
20.953236 18.042285 -14.436294 31.192447 0.710888 2.051963 0.037703 0.001404 346959.000000 0 0 1
21.192736 18.427585 -15.798694 32.222767 0.715720 2.083226 0.037681 -0.005176 -8796.920000 0 0 1
21.097836 17.299285 -16.820194 32.051566 0.686791 2.123259 0.035277 -0.001015 -92297.300000 0 0 1
22.124036 16.328185 -16.778794 32.211962 0.635796 2.118686 0.050993 -0.001997 47889.300000 0 0 1
22.075336 15.480485 -17.912694 32.370210 0.611569 2.157201 0.067645 -0.017928 -314530.000000 0 0 1
22.997436 15.836985 -19.125794 33.845061 0.603062 2.171349 0.074826 -0.018126 -495134.000000 0 0 1
24.355336 15.800785 -18.763794 34.567719 0.575504 2.144579 0.098470 -0.020229 50563.300000 0 0 1
25.124436 16.183885 -19.923594 35.918032 0.572251 2.158794 0.121372 -0.022133 -278473.000000 0 0 1
26.588436 16.476985 -19.610894 36.919143 0.554783 2.130795 0.118786 -0.027317 -437568.000000 0 0 1
26.777136 17.748985 -18.959194 37.302715 0.585349 2.103951 0.102093 -0.026806 514065.000000 0 0 1
28.117036 18.072085 -18.575094 38.238751 0.571258 2.078036 0.086451 -0.030760 543744.000000 0 0 1
28.187036 19.272085 -17.560294 38.396435 0.599717 2.045800 0.076841 -0.026394 298854.000000 0 0 1
27.572336 18.933185 -16.282394 37.199672 0.601726 2.023838 0.073825 -0.025585 72891.800000 0 0 1
26.358936 19.582485 -16.044694 36.547222 0.638952 2.025296 0.089807 -0.020616 -135912.000000 0 0 1
25.528636 19.120285 -14.785894 35.155643 0.642844 2.004885 0.076357 -0.018357 274539.000000 0 0 1
26.044636 19.461085 -13.532194 35.216149 0.641720 1.965204 0.072483 -0.022505 38410.000000 0 0 1
25.064136 19.173285 -12.568094 33.967378 0.653013 1.949811 0.064009 -0.019958 -100005.000000 0 0 1
25.414536 19.532485 -11.138994 33.933668 0.655271 1.905255 0.067629 -0.027493 -175967.000000 0 0 1
25.465336 20.940985 -11.081194 34.782195 0.688211 1.895036 0.065782 -0.020827 -27986.800000 0 0 1
25.976636 21.483285 -9.886794 35.129273 0.691003 1.856091 0.061578 -0.018300 148144.000000 0 0 1
25.155236 21.292185 -8.559094 34.049980 0.702419 1.824890 0.062831 -0.017907 -735067.000000 0 0 1
25.153636 19.970185 -8.178094 33.142042 0.671028 1.820131 0.075171 -0.025749 -88120.900000 0 0 1
24.416836 19.763285 -7.021694 32.188096 0.680454 1.790710 0.071974 -0.025470 -741926.000000 0 0 1
22.932636 19.523285 -7.282094 30.985373 0.705267 1.808033 0.064984 -0.026119 -776335.000000 0 0 1
22.293436 20.667585 -7.842794 31.395155 0.747571 1.823279 0.057592 -0.014959 221912.000000 0 0 1
20.885036 20.527485 -7.985494 30.353426 0.776765 1.837014 0.053021 -0.017280 490336.000000 0 0 1
20.086936 21.832685 -8.206494 30.781450 0.827019 1.840665 0.038721 -0.014108 -467373.000000 0 0 1
20.357136 22.527585 -9.439494 31.796370 0.835966 1.872213 0.045612 -0.015234 296789.000000 0 0 1
19.542636 22.144685 -10.546094 31.361151 0.847736 1.913759 0.037309 -0.004038 -538762.000000 0 0 1
18.074636 22.528285 -10.537594 30.745032 0.894649 1.920630 0.044986 -0.012280 -1101750.000000 0 0 1
17.853136 23.900485 -10.389594 31.589735 0.929232 1.905926 0.054153 -0.020754 562521.000000 0 0 1
16.520936 24.376285 -10.590694 31.293888 0.975162 1.916041 0.048509 -0.018836 441706.000000 0 0 1
16.321736 25.819485 -10.060094 32.159763 1.007073 1.888953 0.060290 -0.021313 48193.900000 0 0 1
17.158136 26.850885 -10.578494 33.574934 1.002182 1.891328 0.073658 -0.014011 244044.000000 0 0 1
16.796936 28.123385 -10.058194 34.267027 1.032395 1.868707 0.073811 -0.028384 9343.000000 0 0 1
20.398136 28.799585 33.461442 48.632995 0.954536 0.812012 0.033264 -0.002548 204023.000000 0 0 1
19.071436 29.138585 33.114750 48.055837 0.991259 0.810565 0.054379 -0.021662 -566208.000000 0 0 1
18.210036 28.093485 33.432908 47.313937 0.995692 0.786088 0.049974 -0.020951 -598611.000000 0 0 1
16.745236 28.512185 33.420527 47.013607 1.039767 0.780063 0.079803 -0.034096 -520721.000000 0 0 1
16.145836 28.857385 32.211913 46.163233 1.060685 0.798499 0.068060 -0.034971 -19366.100000 0 0 1
14.847436 29.415785 32.435288 46.236162 1.103361 0.793277 0.110200 -0.038165 840128.000000 0 0 1
13.917636 29.189585 31.200423 44.935497 1.125879 0.803297 0.100753 -0.032944 55878.900000 0 0 1
13.570536 27.821285 31.082743 43.867075 1.116976 0.783332 0.090838 -0.040939 101575.000000 0 0 1
12.264736 27.832985 30.535723 43.099063 1.155741 0.783425 0.096656 -0.023098 99624.200000 0 0 1
11.584036 26.432685 30.485133 41.978805 1.157759 0.758014 0.072358 -0.025887 32134.000000 0 0 1
11.860336 25.589685 29.321573 40.684816 1.136788 0.765984 0.064838 -0.012844 585586.000000 0 0 1
13.134136 24.957385 29.427673 40.759840 1.086360 0.764141 0.044379 -0.010737 225217.000000 0 0 1
13.534536 24.277485 28.164393 39.570355 1.062218 0.778803 0.046204 -0.013191 -621955.000000 0 0 1
13.365236 25.153985 27.045053 39.278333 1.082395 0.811310 0.026430 -0.014100 295832.000000 0 0 1
13.265336 24.525885 25.732743 37.942882 1.074989 0.825490 0.036907 -0.018855 -495314.000000 0 0 1
12.028236 23.648685 25.592553 36.863499 1.100275 0.803416 0.044055 -0.014007 -676288.000000 0 0 1
11.984636 23.094185 24.288673 35.593715 1.092107 0.819774 0.053777 -0.019739 -25056.500000 0 0 1
10.766636 22.353985 24.227383 34.678339 1.121942 0.797313 0.064600 -0.022556 488663.000000 0 0 1
10.480436 21.772785 22.847853 33.255347 1.122176 0.813385 0.074041 -0.023426 -262766.000000 0 0 1
10.152736 22.836585 21.921253 33.243481 1.152457 0.850756 0.081122 -0.033260 33596.800000 0 0 1
10.507236 22.550485 20.601653 32.300999 1.134764 0.879155 0.080545 -0.024728 -542546.000000 0 0 1
10.258236 23.823785 19.706353 32.575213 1.164202 0.921094 0.069848 -0.029021 1534340.000000 0 0 1
8.857836 24.142485 19.454953 32.246179 1.219147 0.923131 0.066230 -0.026946 1236560.000000 0 0 1
8.185236 24.811385 20.521453 33.222477 1.252140 0.904984 0.060989 -0.020664 -924877.000000 0 0 1
6.917836 25.401485 19.938153 33.024565 1.304905 0.922616 0.053623 -0.017064 -686128.000000 0 0 1
7.130536 26.527685 19.101153 33.457685 1.308207 0.963189 0.052414 -0.025008 121425.000000 0 0 1
5.928936 27.202785 18.726653 33.553410 1.356199 0.978684 0.047266 -0.021824 360369.000000 0 0 1
6.080736 28.289885 17.583553 33.859627 1.359074 1.024756 0.056578 -0.019560 -4882.720000 0 0 1
6.323536 27.732185 16.279753 32.773336 1.346608 1.050960 0.055518 -0.014592 2290.570000 0 0 1
6.960136 28.581585 15.345553 33.178856 1.331927 1.089972 0.040959 -0.012494 -84191.100000 0 0 1
7.320536 27.842785 14.011353 32.017635 1.313691 1.117853 0.044057 -0.012686 14378.000000 0 0 1
6.213436 27.650485 13.176353 31.253358 1.349755 1.135589 0.045649 -0.016371 -180226.000000 0 0 1
6.510836 26.603385 12.272253 30.012319 1.330777 1.149540 0.030855 -0.016865 -62651.700000 0 0 1
5.967636 26.924585 10.841553 29.632503 1.352680 1.196232 0.026177 -0.018711 -555333.000000 0 0 1
6.670436 27.688385 9.897753 30.151400 1.334390 1.236326 0.017708 -0.013456 -90242.500000 0 0 1
6.670136 29.109285 10.123453 31.532927 1.345544 1.243965 0.017955 -0.009271 -407599.000000 0 0 1
6.950836 29.846885 8.819653 31.889449 1.341991 1.290574 0.007556 0.001729 270781.000000 0 0 1
5.918836 29.787585 7.798453 31.355203 1.374650 1.319445 0.013371 -0.009458 647644.000000 0 0 1
5.947736 28.597985 7.041953 30.046787 1.365742 1.334230 0.008893 0.001622 -241930.000000 0 0 1
4.525836 28.154885 6.665953 29.285076 1.411412 1.341161 0.020944 0.000932 -6573.080000 0 0 1
3.831936 29.140985 5.939453 29.985961 1.440050 1.371403 0.023399 0.000282 -747709.000000 0 0 1
2.498036 28.861885 5.678853 29.521145 1.484460 1.377224 0.024303 -0.005374 -364087.000000 0 0 1
1.732936 29.940585 4.864453 30.382637 1.512982 1.409998 0.034112 -0.007365 117298.000000 0 0 1
2.219736 29.866085 3.535853 30.156468 1.496610 1.453276 0.009910 -0.003812 594425.000000 0 0 1
1.320136 30.503585 2.620053 30.644350 1.527545 1.485193 0.018914 -0.005637 1090340.000000 0 0 1
0.003636 29.804785 2.152153 29.882386 1.570674 1.498713 0.034562 -0.008026 314085.000000 0 0 1
0.275236 28.648185 1.347453 28.681177 1.561189 1.523799 0.024970 -0.002697 -241798.000000 0 0 1
-0.901964 27.947785 1.023053 27.981045 -1.538534 1.534226 0.031327 -0.011019 -112926.000000 0 0 1
-1.249264 28.017485 -0.398047 28.048148 -1.526237 1.584988 0.024330 -0.009290 -103911.000000 0 0 1
-1.624264 29.319085 -0.850347 29.376353 -1.515453 1.599747 0.031151 -0.014519 -227401.000000 0 0 1
-1.342064 29.443785 -2.238547 29.559241 -1.525247 1.646600 0.033349 -0.013331 -764662.000000 0 0 1
-2.101164 30.548085 -3.015847 30.768421 -1.502122 1.668972 0.037709 -0.014619 1649630.000000 0 0 1
-3.477264 30.146585 -3.339147 30.529623 -1.455959 1.680390 0.048027 -0.016139 1611780.000000 0 0 1
-3.525064 29.228585 -4.409747 29.768812 -1.450773 1.719477 0.034853 -0.017870 -118697.000000 0 0 1
-5.000864 29.011885 -4.871847 29.840125 -1.400101 1.734795 0.051043 -0.014567 439894.000000 0 0 1
-5.582264 30.170585 -5.426847 31.158892 -1.387842 1.745856 0.059724 -0.015600 164632.000000 0 0 1
-6.678764 29.919585 -6.291447 31.294884 -1.351173 1.773213 0.065760 -0.019940 26461.100000 0 0 1
-7.255164 31.160685 -6.953147 32.740983 -1.342041 1.784794 0.061684 -0.011584 -179649.000000 0 0 1
-8.177964 31.925485 -6.214347 33.537052 -1.320030 1.757171 0.053358 -0.013393 -46372.700000 0 0 1
-8.491164 33.121985 -6.889347 34.880208 -1.319840 1.769618 0.044862 -0.022489 -101539.000000 0 0 1
-9.556264 33.968085 -6.138347 35.816649 -1.296554 1.743029 0.037407 -0.022818 -612179.000000 0 0 1
-10.797264 33.409885 -6.337647 35.678665 -1.258215 1.749375 0.042823 -0.019368 -896758.000000 0 0 1
-11.885364 34.148085 -5.754947 36.612471 -1.235857 1.728636 0.047483 -0.019547 268162.000000 0 0 1
-13.200664 33.444485 -6.054647 36.461622 -1.194864 1.737624 0.052499 -0.026245 -541024.000000 0 0 1
-13.572664 33.490385 -7.425347 36.891177 -1.185755 1.773458 0.044947 -0.020113 -96217.100000 0 0 1
-14.970064 33.399985 -7.585747 37.379211 -1.149436 1.775156 0.064969 -0.019721 -253098.000000 0 0 1
-15.527764 33.843285 -8.949047 38.295755 -1.140637 1.806660 0.083430 -0.015910 228681.000000 0 0 1
-16.893964 33.519685 -9.117847 38.627846 -1.103953 1.809088 0.114134 -0.017046 440882.000000 0 0 1
-17.817264 -33.884517 -9.035047 39.335067 1.086704 1.802560 0.112758 -0.027248 49844.900000 0 0 1
-19.330264 -34.223717 -9.197647 40.367297 1.056646 1.800664 0.115557 -0.025186 547608.000000 0 0 1
-19.927364 33.470485 -8.163847 39.799769 -1.033787 1.777386 0.104728 -0.026235 112918.000000 0 0 1
-19.971664 34.092285 -6.897447 40.108928 -1.040875 1.743623 0.083484 -0.024211 -652319.000000 0 0 1
-20.433464 33.227085 -5.699347 39.421418 -1.019446 1.715880 0.082587 -0.023026 -328927.000000 0 0 1
-20.227264 33.848285 -4.409847 39.677392 -1.032154 1.682169 0.074463 -0.034066 1168300.000000 0 0 1
-21.381264 33.801185 -3.516647 40.150285 -1.006779 1.658496 0.083093 -0.024605 1845280.000000 0 0 1
-22.584264 -33.648217 -3.776147 40.700256 0.979670 1.663709 0.094854 -0.036278 839781.000000 0 0 1
-23.273664 -33.968517 -4.970847 41.475691 0.970104 1.690935 0.099846 -0.039818 27955.100000 0 0 1
-24.300164 -33.006417 -5.168247 41.311407 0.936169 1.696230 0.106998 -0.051794 45583.100000 0 0 1
-24.540564 -32.878017 -6.709647 41.571898 0.929595 1.732904 0.132641 -0.035511 -167721.000000 0 0 1
-23.595864 -32.054117 -7.346847 40.474775 0.936234 1.753325 0.137315 -0.024980 -134721.000000 0 0 1
-23.597764 -32.221317 -8.746747 40.884879 0.938677 1.786399 0.105066 -0.027326 303051.000000 0 0 1
-24.798264 -31.634817 -9.599247 41.326276 0.905955 1.805217 0.094946 -0.019263 180874.000000 0 0 1
-25.991264 -32.354517 -9.283147 42.526902 0.894030 1.790857 0.092917 -0.017801 -593083.000000 0 0 1
-27.104244 -31.949517 -9.980947 43.070071 0.867263 1.804660 0.047909 -0.010865 -115735.000000 0 0 1
-27.747954 -30.505017 -9.807547 42.387416 0.832692 1.804291 0.029922 0.003666 -550218.000000 0 0 1
-27.011364 -29.514017 -10.496847 41.362723 0.829644 1.827378 0.044422 0.007027 -160717.000000 0 0 1
-27.330684 -29.366217 -11.845347 41.828857 0.821285 1.857911 0.021125 0.002740 -223265.000000 0 0 1
-26.246254 -28.614017 -12.676747 40.845168 0.828531 1.886369 0.061948 0.007465 750786.000000 0 0 1
-25.034764 -29.408417 -12.692647 40.653385 0.865560 1.888321 0.065328 -0.003360 558995.000000 0 0 1
-24.126664 -28.813817 -13.595747 39.964689 0.873704 1.917920 0.063162 -0.000306 43497.600000 0 0 1
-22.736564 -29.479617 -13.744647 39.685193 0.913825 1.924465 0.089191 -0.016048 96637.700000 0 0 1
-22.595264 -30.743917 -14.395347 40.779412 0.936997 1.931578 0.097732 -0.015448 -14898.400000 0 0 1
-23.333764 -31.814317 -13.804047 41.799127 0.937981 1.907362 0.077360 -0.012619 -90214.600000 0 0 1
-23.364364 -33.044717 -14.709747 43.060696 0.955353 1.919420 0.067526 -0.010045 -145505.000000 0 0 1
-23.970064 -34.126417 -14.037547 44.002603 0.958468 1.895488 0.053576 -0.015387 -270114.000000 0 0 1
-23.681164 33.047485 -14.541147 43.178453 -0.949029 1.914279 0.043695 -0.012321 24454.300000 0 0 1
-24.043864 31.868085 -13.588447 42.170228 -0.924434 1.898879 0.026798 -0.009654 -142261.000000 0 0 1
-23.234264 31.724885 -12.426447 41.239738 -0.938676 1.876875 0.021788 -0.006786 66736.100000 0 0 1
-23.403664 32.643785 -11.379647 41.747390 -0.948791 1.846873 0.077248 -0.010343 205570.000000 0 0 1
-22.673164 32.317585 -10.027047 40.731319 -0.959015 1.819529 0.080804 -0.010992 453740.000000 0 0 1
-23.430064 31.364885 -9.274547 40.233583 -0.929208 1.803406 0.074550 -0.001473 711317.000000 0 0 1
-22.661864 30.826785 -8.182747 39.125543 -0.936877 1.781493 0.062158 -0.007502 186747.000000 0 0 1
-23.504364 29.836885 -7.385447 38.694182 -0.903562 1.762842 0.061563 -0.011039 -129243.000000 0 0 1
-23.734564 28.621085 -8.108647 38.055830 -0.878462 1.785515 0.060649 0.004547 129128.000000 0 0 1
-24.208564 27.528885 -7.282247 37.375463 -0.849487 1.766891 0.057311 0.001330 -336306.000000 0 0 1
-23.173164 26.835385 -6.389747 36.027244 -0.858500 1.749098 0.050764 0.004810 -420432.000000 0 0 1
-22.856464 27.607785 -5.250347 36.223941 -0.879274 1.716250 0.058834 -0.001293 -208660.000000 0 0 1
-22.042964 26.781785 -4.480047 34.974664 -0.882153 1.699243 0.048130 0.000830 203459.000000 0 0 1
-20.546164 27.228185 -4.395647 34.392451 -0.924363 1.698955 0.044520 -0.014150 743627.000000 0 0 1
-19.755564 27.150385 -5.599047 34.040785 -0.941763 1.736028 0.047842 -0.010880 644573.000000 0 0 1
-18.486964 27.781485 -5.430247 33.809264 -0.983642 1.732109 0.052632 -0.016679 241809.000000 0 0 1
-17.590664 27.643785 -6.656647 33.435330 -1.004089 1.771226 0.072510 -0.024108 -551615.000000 0 0 1
-17.923064 28.366785 -7.793547 34.447788 -1.007299 1.799015 0.073243 -0.020950 33565.300000 0 0 1
-17.918864 29.778185 -7.730747 35.603237 -1.029095 1.789676 0.083091 -0.022316 -1912.480000 0 0 1
-18.219964 30.481085 -9.124647 36.665009 -1.032035 1.822305 0.086619 -0.018905 586252.000000 0 0 1
-17.061664 30.366085 -9.962947 36.227888 -1.058889 1.849394 0.082243 -0.022656 681982.000000 0 0 1
-17.215864 31.070985 -11.162847 37.234410 -1.064825 1.875279 0.078181 -0.016421 259305.000000 0 0 1
-15.822964 31.549085 -11.687747 37.179489 -1.105922 1.890579 0.076988 -0.023011 548232.000000 0 0 1
-15.737364 32.089485 -13.053347 38.049830 -1.114841 1.920968 0.077314 -0.018003 -291675.000000 0 0 1
-15.674964 31.088685 -14.050447 37.544985 -1.103793 1.954362 0.075924 -0.024659 61470.300000 0 0 1
-15.472564 31.626485 -15.515447 38.475498 -1.115803 1.985868 0.109756 -0.022446 -396584.000000 0 0 1
-14.145464 31.997985 -15.659947 38.330134 -1.154554 1.991666 0.111752 -0.028732 -974867.000000 0 0 1
-13.878264 32.357085 -17.013447 39.103000 -1.165619 2.020938 0.076508 -0.036303 241725.000000 0 0 1
-12.349064 32.437885 -17.311647 38.786711 -1.207039 2.033456 0.113838 -0.043750 266860.000000 0 0 1
-11.834564 31.101985 -17.271347 37.492530 -1.207205 2.049536 0.126488 -0.052385 732657.000000 0 0 1
-10.417664 31.009585 -17.474347 37.087396 -1.246693 2.061409 0.121167 -0.048266 998085.000000 0 0 1
-9.855964 31.134685 -18.931747 37.748109 -1.264218 2.096161 0.121709 -0.055754 29218.200000 0 0 1
-10.435864 30.097685 -19.762747 37.487919 -1.237035 2.126071 0.108786 -0.057029 346154.000000 0 0 1
-9.831664 30.009985 -21.036247 37.944493 -1.254203 2.158432 0.088060 -0.055441 -663441.000000 0 0 1
-10.831164 29.431985 -22.077847 38.353451 -1.218171 2.184185 0.084731 -0.049724 -78212.000000 0 0 1
-11.878364 30.312185 -22.330347 39.478710 -1.197320 2.171993 0.099155 -0.053154 -436985.000000 0 0 1
-13.009064 30.124185 -21.499247 39.229070 -1.163140 2.150820 0.099840 -0.059438 -853560.000000 0 0 1
-13.846364 31.400785 -21.489247 40.490973 -1.155489 2.130243 0.109719 -0.064282 -196785.000000 0 0 1
-14.305164 31.640185 -22.831947 41.557633 -1.146181 2.152448 0.081274 -0.047703 113608.000000 0 0 1
-15.286664 32.680685 -22.806047 42.682843 -1.133273 2.134492 0.084405 -0.048050 275969.000000 0 0 1
-15.787164 33.038085 -24.205247 43.893549 -1.125027 2.154902 0.091141 -0.038437 122365.000000 0 0 1
-14.841364 33.659085 -25.083647 44.524032 -1.155509 2.169259 0.079047 -0.032853 208277.000000 0 0 1
-15.246764 33.489585 -26.454547 45.319523 -1.143569 2.194116 0.082009 -0.021844 315462.000000 0 0 1
-15.853664 -33.710117 -27.109447 46.072039 1.131195 2.199893 0.066756 -0.004017 288174.000000 0 0 1
-17.198264 -33.471417 -26.749447 46.169784 1.096154 2.188753 0.064447 -0.008058 -93304.600000 0 0 1
-17.795164 -32.492517 -27.590547 46.191664 1.069744 2.210934 0.048528 0.008832 -371294.000000 0 0 1
-19.274564 -32.161817 -27.410747 46.446102 1.030892 2.202056 0.051375 -0.002930 -517022.000000 0 0 1
-20.052064 -33.313617 -27.487047 47.617435 1.028968 2.186150 0.058115 -0.000848 -1164110.000000 0 0 1
-21.353764 -32.888617 -27.821047 48.079674 0.994931 2.187862 0.051974 0.002098 18549.300000 0 0 1
-22.295464 -34.094517 -28.028747 49.448301 0.991663 2.173448 0.039044 0.007693 -109749.000000 0 0 1
-22.625264 33.738785 -26.789447 48.660895 -0.980075 2.153799 0.075727 0.001736 -95280.100000 0 0 1
-23.682564 32.784885 -26.806247 48.521000 -0.945219 2.156117 0.052970 -0.000160 332115.000000 0 0 1
-23.423464 31.412985 -27.513847 47.879496 -0.930077 2.182970 0.068594 -0.004232 310620.000000 0 0 1
-22.581664 30.488185 -26.808447 46.455934 -0.933294 2.185936 0.078935 -0.025178 -87194.800000 0 0 1
-23.342364 29.559485 -26.125447 45.838500 -0.902383 2.177236 0.053570 -0.020372 -186000.000000 0 0 1
31.269463 10.157585 -26.685034 42.344384 0.314088 2.252595 0.069279 -0.005755 -111596.000000 0 0 1
31.014073 8.852985 -26.251074 41.585658 0.278056 2.253964 0.054396 0.003364 458644.000000 0 0 1
29.646613 8.473985 -26.369774 40.572097 0.278410 2.278313 0.060702 0.000326 358302.000000 0 0 1
29.396183 7.036485 -25.916134 39.815747 0.234947 2.279568 0.046976 0.009970 -71052.700000 0 0 1
29.583853 6.848985 -24.549894 39.048819 0.227503 2.250673 0.035939 0.006410 34981.700000 0 0 1
29.093783 5.612885 -24.174694 38.240927 0.190582 2.255145 0.031871 0.008615 -74362.200000 0 0 1
29.222933 5.458785 -22.645494 37.371065 0.184670 2.221773 0.037083 0.011159 360460.000000 0 0 1
30.479183 4.954185 -22.204494 38.033723 0.161134 2.194211 0.036243 0.008856 472417.000000 0 0 1
30.384723 4.688785 -20.774094 37.104973 0.153106 2.165030 0.033509 0.001790 278820.000000 0 0 1
31.715513 4.310885 -20.054894 37.771103 0.135096 2.130528 0.031023 0.004662 126335.000000 0 0 1
32.193563 3.030885 -20.191994 38.122544 0.093869 2.128996 0.039694 0.001731 561884.000000 0 0 1
33.256323 2.724185 -19.282294 38.538436 0.081732 2.094787 0.046190 -0.003350 171624.000000 0 0 1
33.653623 1.270485 -19.317594 38.824604 0.037734 2.091581 0.059181 -0.008109 9669.520000 0 0 1
32.771743 0.393285 -18.618794 37.693518 0.012000 2.087426 0.073374 -0.008823 316305.000000 0 0 1
33.190063 -0.932715 -18.856294 38.183898 -0.028095 2.087283 0.071065 0.001176 -479373.000000 0 0 1
32.127153 -1.949215 -18.517294 37.132783 -0.060598 2.092869 0.053480 0.001221 -315848.000000 0 0 1
31.800483 -2.075615 -17.152894 36.191168 -0.065177 2.064570 0.058894 -0.001928 539425.000000 0 0 1
30.392923 -1.936415 -16.917594 34.837974 -0.063627 2.077855 0.055416 -0.006401 556353.000000 0 0 1
30.007073 -2.153015 -15.429194 33.810056 -0.071627 2.044684 0.066389 -0.007093 -226881.000000 0 0 1
30.122753 -3.564615 -15.100794 33.883930 -0.117789 2.032710 0.050273 -0.014230 451095.000000 0 0 1
29.286233 -3.713115 -13.980394 32.663773 -0.126114 2.013085 0.059482 -0.018990 -176713.000000 0 0 1
29.124863 -5.215215 -13.610694 32.568498 -0.177186 2.001940 0.049371 -0.012962 112936.000000 0 0 1
28.235613 -5.954615 -14.451494 32.273099 -0.207845 2.035086 0.036536 -0.010487 701888.000000 0 0 1
28.082423 -7.277415 -14.084694 32.248439 -0.253567 2.022786 0.036436 -0.009453 -406451.000000 0 0 1
27.531883 -8.104415 -15.287494 32.517589 -0.286279 2.060234 0.020331 -0.001855 100255.000000 0 0 1
26.212883 -7.677615 -15.614794 31.462402 -0.284925 2.090128 0.040022 -0.009345 230430.000000 0 0 1
25.715883 -8.643015 -16.518894 31.762906 -0.324235 2.117728 0.033934 0.000472 -174784.000000 0 0 1
24.288583 -8.355415 -17.012694 30.808764 -0.331325 2.155801 0.031361 -0.007935 -182889.000000 0 0 1
24.395583 -7.280715 -17.905794 31.125082 -0.290029 2.183749 0.020053 -0.005298 -649528.000000 0 0 1
23.131783 -6.812515 -18.199694 30.211233 -0.286411 2.217319 0.049924 -0.011347 -545898.000000 0 0 1
22.541083 -7.140315 -19.608194 30.717516 -0.306769 2.263135 0.031399 -0.004625 141343.000000 0 0 1
23.221883 -6.392515 -20.617994 31.705232 -0.268626 2.278779 0.026530 -0.006124 402362.000000 0 0 1
22.893883 -6.823515 -21.927294 32.426786 -0.289667 2.313401 0.041660 -0.005625 -338204.000000 0 0 1
23.536283 -5.938915 -22.980494 33.426493 -0.247171 2.328828 0.041498 -0.007233 -146235.000000 0 0 1
23.188383 -6.396315 -24.270594 34.171270 -0.269148 2.360668 0.041423 -0.009180 187371.000000 0 0 1
23.375383 -5.394415 -25.268844 34.842828 -0.226803 2.382156 0.046722 -0.021683 -255625.000000 0 0 1
23.291083 -5.881215 -26.756874 35.958219 -0.247339 2.409998 0.059649 -0.027028 -73316.600000 0 0 1
22.057983 -6.393315 -27.198274 35.597404 -0.282111 2.440367 0.065045 -0.024746 -296923.000000 0 0 1
22.092983 -6.707715 -28.560194 36.725713 -0.294768 2.461735 0.064455 -0.021127 157940.000000 0 0 1
20.849283 -7.519215 -28.997334 36.497624 -0.346128 2.488979 0.070052 -0.027731 -62673.900000 0 0 1
20.790883 -8.778915 -28.327874 36.218760 -0.399538 2.468877 0.065459 -0.022526 775364.000000 0 0 1
19.901683 -9.673715 -29.035134 36.506119 -0.452446 2.490381 0.067430 -0.027695 219747.000000 0 0 1
20.209483 -11.143015 -28.659034 36.795790 -0.503899 2.463654 0.075609 -0.034437 -143700.000000 0 0 1
19.305583 -11.629115 -27.637864 35.662212 -0.542161 2.457496 0.075413 -0.020608 678628.000000 0 0 1
19.426083 -13.016415 -27.368764 35.997902 -0.590340 2.434552 0.074447 -0.016957 -259937.000000 0 0 1
19.091083 -14.000815 -28.568054 37.102910 -0.632772 2.449587 0.069204 -0.023026 -622465.000000 0 0 1
17.771583 -14.010615 -29.012694 36.794876 -0.667610 2.479160 0.073952 -0.021499 -249517.000000 0 0 1
17.682983 -14.899715 -30.048414 37.915650 -0.700183 2.485705 0.070074 -0.021237 -1310650.000000 0 0 1
16.376183 -14.990315 -30.760484 37.935422 -0.741244 2.516424 0.070404 -0.027175 -1361490.000000 0 0 1
15.413483 -15.773615 -30.102284 37.316616 -0.796945 2.509296 0.055202 -0.029648 -415345.000000 0 0 1
14.298983 -15.973215 -30.902384 37.610661 -0.840648 2.535077 0.052072 -0.033602 -520852.000000 0 0 1
13.174783 -16.753915 -30.160464 36.931316 -0.904422 2.526402 0.056834 -0.033536 105321.000000 0 0 1
13.453883 -18.101115 -30.018734 37.547060 -0.931621 2.497252 0.050362 -0.031223 -390473.000000 0 0 1
12.681083 -18.609115 -28.990944 36.709452 -0.972632 2.481182 0.053053 -0.027185 -504827.000000 0 0 1
13.255183 -19.819015 -28.254154 36.970129 -0.981310 2.440663 0.060666 -0.026963 247897.000000 0 0 1
14.288283 -19.488215 -27.316974 36.471394 -0.938150 2.417344 0.045405 -0.024485 222521.000000 0 0 1
14.253483 -20.524415 -26.363654 36.324312 -0.963795 2.382972 0.037942 -0.014719 -125519.000000 0 0 1
15.296983 -20.485015 -25.235254 35.922855 -0.929385 2.349679 0.037212 -0.004343 66872.700000 0 0 1
16.647883 -20.743315 -25.580554 36.902599 -0.894493 2.336703 0.047792 -0.010512 387382.000000 0 0 1
17.441583 -20.511415 -24.436094 36.360000 -0.866108 2.307783 0.044554 -0.009338 -469687.000000 0 0 1
18.951583 -20.781215 -24.556194 37.336685 -0.831414 2.288553 0.022948 -0.003974 -81059.600000 0 0 1
19.413883 -22.121515 -24.695494 38.420407 -0.850495 2.268905 0.025064 0.000853 326380.000000 0 0 1
19.219983 -22.888015 -23.529894 38.038465 -0.872289 2.237732 0.023241 -0.001077 -676338.000000 0 0 1
19.463883 -24.387515 -23.762594 39.220587 -0.897210 2.221656 0.029868 -0.012594 -619722.000000 0 0 1
20.786283 -24.838415 -23.754494 40.165811 -0.873980 2.203604 0.037652 -0.011671 -443548.000000 0 0 1
20.833183 -26.243075 -23.463494 40.905452 -0.899814 2.181694 0.034722 -0.026601 -59052.400000 0 0 1
20.985683 -26.547665 -21.982194 40.353367 -0.901881 2.146878 0.054377 -0.025039 -537754.000000 0 0 1
19.861183 -26.356275 -21.164294 39.205193 -0.925017 2.141036 0.053276 -0.012084 -181034.000000 0 0 1
20.101883 -26.744635 -19.853994 38.904270 -0.926257 2.106364 0.047335 -0.010875 201123.000000 0 0 1
18.769583 -27.175885 -19.163794 38.184774 -0.966359 2.096556 0.047682 -0.006639 -287919.000000 0 0 1
18.531083 -28.531315 -19.590994 39.258680 -0.994773 2.093268 0.046815 -0.009662 380465.000000 0 0 1
17.297483 -29.104995 -19.185794 38.915271 -1.034569 2.086348 0.034149 0.003685 218826.000000 0 0 1
16.011483 -28.514215 -19.772794 38.215068 -1.059147 2.114616 0.025945 0.001406 -739160.000000 0 0 1
15.507783 -27.370245 -19.094894 36.799954 -1.055303 2.116341 0.026982 0.005283 -521323.000000 0 0 1
14.213083 -27.090615 -19.541394 36.301229 -1.087624 2.139229 0.023820 0.010634 -344108.000000 0 0 1
13.340183 -26.204565 -18.630094 34.809770 -1.099912 2.135538 0.018931 -0.000625 -850978.000000 0 0 1
12.901683 -26.826145 -17.462594 34.511413 -1.122515 2.101331 0.017049 -0.008443 -196202.000000 0 0 1
12.072483 -25.953985 -16.742194 33.161050 -1.135416 2.100034 0.021457 -0.013792 324936.000000 0 0 1
10.552783 -25.896615 -17.036094 32.744837 -1.183844 2.117961 0.035049 -0.008578 -417946.000000 0 0 1
9.775183 -26.955315 -16.595694 33.129447 -1.222902 2.095475 0.042884 -0.008983 -238939.000000 0 0 1
8.399383 -26.627295 -16.623894 32.494866 -1.265233 2.107825 0.043983 0.002829 535691.000000 0 0 1
7.523683 -27.306005 -17.728494 33.414416 -1.301935 2.130062 0.053958 0.008140 74093.800000 0 0 1
7.803683 -26.894245 -19.039594 33.863018 -1.288390 2.167904 0.047886 0.002504 -18341.700000 0 0 1
7.247483 -27.922315 -19.847194 35.015607 -1.316842 2.173425 0.036145 0.006963 -155121.000000 0 0 1
7.089083 -27.404205 -21.286794 35.417130 -1.317660 2.215587 0.038889 -0.001644 -63759.300000 0 0 1
6.083783 -26.396715 -21.475794 34.568898 -1.344277 2.241128 0.055015 -0.011577 280463.000000 0 0 1
6.049683 -25.610075 -22.689794 34.746242 -1.338826 2.282354 0.045418 -0.007421 -648236.000000 0 0 1
4.697483 -24.953415 -22.909494 34.199184 -1.384724 2.304849 0.037358 -0.005031 -110009.000000 0 0 1
3.612283 -25.816115 -23.255394 34.933275 -1.431775 2.299240 0.027825 -0.002919 -189562.000000 0 0 1
2.609683 -25.115985 -23.912294 34.776730 -1.467263 2.328967 0.040229 -0.012351 -677687.000000 0 0 1
1.591983 -26.097265 -24.436394 35.787414 -1.509870 2.322413 0.037592 -0.021309 -546537.000000 0 0 1
2.045383 -26.676625 -25.601424 37.030512 -1.494273 2.334166 0.027383 -0.016404 375815.000000 0 0 1
1.030683 -27.481915 -26.202504 37.985381 -1.533310 2.332016 0.033044 -0.028583 198363.000000 0 0 1
1.641983 -28.488995 -27.154114 39.391177 -1.513224 2.331381 0.016575 -0.014418 -332127.000000 0 0 1
2.222383 -27.975025 -28.327304 39.874517 -1.491521 2.360879 0.014474 -0.016418 -51885.000000 0 0 1
2.523483 -29.059755 -29.168374 41.250834 -1.484176 2.356182 0.013141 -0.024114 1021310.000000 0 0 1
4.003783 -29.582725 -29.389714 41.891803 -1.436272 2.348384 0.008165 -0.017449 1044840.000000 0 0 1
4.610483 -30.338555 -28.347704 41.776510 -1.419982 2.316591 0.004482 -0.023994 -392418.000000 0 0 1
5.848683 -30.896575 -28.672444 42.554841 -1.383711 2.310104 0.012472 -0.020447 -202786.000000 0 0 1
6.278983 -32.011175 -27.723294 42.810302 -1.377106 2.275207 0.031649 -0.025116 -279536.000000 0 0 1
5.378383 -33.118485 -27.663764 43.486146 -1.409804 2.260296 0.026726 -0.032251 82677.300000 0 0 1
5.821283 -34.197748 -26.901024 43.898045 -1.402188 2.230404 0.048385 -0.040476 -388328.000000 0 0 1
4.676283 33.346582 -26.524324 42.864926 1.431472 2.237996 0.048798 -0.041125 -557448.000000 0 0 1
4.136583 32.560794 -27.535344 42.842874 1.444431 2.268821 0.057028 -0.047288 -407933.000000 0 0 1
2.884183 32.139818 -27.048494 42.105908 1.481297 2.268412 0.052698 -0.038544 99722.000000 0 0 1
1.666683 32.400188 -27.979874 42.841842 1.519401 2.282463 0.062471 -0.035317 -407748.000000 0 0 1
1.427683 31.440848 -28.975694 42.780323 1.525419 2.314901 0.071838 -0.040016 -344958.000000 0 0 1
0.526583 32.039208 -29.853134 43.794951 1.554362 2.320821 0.071134 -0.049504 -291795.000000 0 0 1
0.007083 31.100828 -30.942024 43.871066 1.570569 2.353635 0.060367 -0.038760 -506421.000000 0 0 1
0.978283 30.701218 -31.846714 44.246300 1.538942 2.374253 0.067190 -0.041488 -530906.000000 0 0 1
0.469283 29.928088 -32.897634 44.476567 1.555117 2.403365 0.077648 -0.034612 -988110.000000 0 0 1
1.514183 29.396218 -33.855924 44.862612 1.519332 2.425929 0.060148 -0.022949 -184996.000000 0 0 1
1.996483 30.400278 33.701993 45.431126 1.505217 0.735007 0.051649 -0.025997 337914.000000 0 0 1
3.007083 29.952378 32.787022 44.510407 1.470736 0.742745 0.031971 -0.029167 404096.000000 0 0 1
2.470383 29.085508 31.600893 43.019601 1.486065 0.745764 0.026670 -0.020592 15860.800000 0 0 1
2.365583 27.691638 31.902253 42.310478 1.485577 0.716660 0.039442 -0.016095 -1173200.000000 0 0 1
3.532883 26.980758 31.821503 41.869448 1.440596 0.707457 0.035244 -0.009431 -1172750.000000 0 0 1
3.408483 25.474208 32.000203 41.043465 1.437785 0.676664 0.053256 -0.015056 -229669.000000 0 0 1
2.570283 24.886838 31.030633 39.860523 1.467882 0.678555 0.048618 -0.007763 142090.000000 0 0 1
2.787383 23.520538 30.887233 38.923083 1.452838 0.654183 0.040393 0.001590 124434.000000 0 0 1
1.748583 22.804888 29.979093 37.707645 1.494270 0.651722 0.028341 0.011016 583603.000000 0 0 1
0.392083 22.735688 30.386963 37.953034 1.553553 0.642423 0.007423 0.008529 124995.000000 0 0 1
-0.341317 22.077788 29.375743 36.748871 -1.555338 0.644560 0.027931 0.012867 716764.000000 0 0 1
-1.793617 21.642588 29.765413 36.845604 -1.488111 0.630315 0.042070 0.011834 896697.000000 0 0 1
-2.791517 22.683988 29.785103 37.543418 -1.448351 0.654503 0.061886 0.003616 452735.000000 0 0 1
-4.038317 22.073288 30.117543 37.558015 -1.389847 0.640338 0.037448 0.000182 375813.000000 0 0 1
-4.988617 23.234488 30.550793 38.705022 -1.359300 0.661090 0.013051 -0.006663 -163014.000000 0 0 1
-4.640017 23.778518 31.833383 40.003900 -1.378083 0.650540 0.023619 -0.005656 335975.000000 0 0 1
-5.425017 24.954948 32.063123 40.990537 -1.356735 0.672594 0.011712 -0.014872 -291094.000000 0 0 1
-5.310017 25.531768 33.464123 42.425405 -1.365743 0.661982 0.029652 -0.014124 15767.900000 0 0 1
-6.587617 25.844828 33.968988 43.188471 -1.321220 0.665628 0.028699 -0.009434 19502.200000 0 0 1
-6.533517 26.075598 -33.060674 42.610232 -1.325290 2.458914 0.035561 -0.009270 995115.000000 0 0 1
-7.925117 26.560838 -32.481124 42.700223 -1.280830 2.435153 0.047355 -0.008040 657241.000000 0 0 1
-8.290017 27.800808 -33.062314 43.985520 -1.280998 2.421377 0.050032 -0.009129 750527.000000 0 0 1
-9.602617 28.271188 -32.684554 44.269068 -1.243362 2.401366 0.043627 -0.008686 1055240.000000 0 0 1
-9.783017 28.664038 -31.160474 43.454685 -1.241894 2.370400 0.035823 -0.003664 -295179.000000 0 0 1
-9.202817 29.926158 -30.876124 43.972740 -1.272457 2.349230 0.038796 -0.004015 119797.000000 0 0 1
-9.457617 30.276948 -29.519234 43.330420 -1.268030 2.320277 0.047890 -0.007644 -545970.000000 0 0 1
-8.736317 31.571588 -29.105984 43.820620 -1.300837 2.297229 0.045398 -0.017559 1298100.000000 0 0 1
-7.293317 31.470558 -29.064184 43.454750 -1.343066 2.303441 0.045360 -0.022785 1029270.000000 0 0 1
-6.659217 32.736897 -28.828014 44.126002 -1.370118 2.282746 0.052445 -0.013155 267640.000000 0 0 1
-5.119117 32.608708 -28.645074 43.704388 -1.415081 2.285545 0.058251 -0.020876 164838.000000 0 0 1
-4.532317 33.845477 -28.175074 44.270679 -1.437676 2.260654 0.070242 -0.026544 97565.200000 0 0 1
-4.303217 -33.578495 -29.099084 44.640673 1.443337 2.280820 0.076025 -0.029349 -79892.600000 0 0 1
-3.333417 -33.916035 -30.284544 45.591257 1.472827 2.297303 0.081709 -0.041580 21968.400000 0 0 1
-3.910217 33.710818 -31.283114 46.155631 -1.455319 2.315528 0.075149 -0.038919 935685.000000 0 0 1
-4.903217 -34.180270 -32.162624 47.188629 1.428317 2.320710 0.080557 -0.035742 977749.000000 0 0 1
-4.143117 -33.501175 -33.386184 47.477694 1.447750 2.350681 0.045609 -0.026951 350897.000000 0 0 1
-3.484017 -32.355845 -32.873354 46.256853 1.463531 2.361246 0.068504 -0.030422 -458979.000000 0 0 1
-2.660117 -31.779835 -33.796694 46.467738 1.487286 2.385198 0.058099 -0.025675 -373266.000000 0 0 1
32.294823 19.399585 12.496153 39.691981 0.540936 1.250521 0.085690 -0.013494 538087.000000 0 0 1
33.400313 18.547685 12.856753 40.309969 0.506914 1.246178 0.081013 -0.022488 654775.000000 0 0 1
33.099603 17.155485 12.765353 39.406200 0.478179 1.240902 0.084868 -0.014651 -337023.000000 0 0 1
34.187343 16.232885 13.348253 40.130497 0.443303 1.231715 0.099658 -0.030254 69770.300000 0 0 1
35.410023 16.241285 12.621753 40.950674 0.430035 1.257477 0.093574 -0.017815 -298855.000000 0 0 1
36.295013 15.404085 13.266853 41.600759 0.401374 1.246218 0.097238 -0.023584 -626222.000000 0 0 1
-35.532200 14.589785 12.266253 40.321955 -0.389617 1.261690 0.098371 -0.023998 402263.000000 0 0 1
-34.643741 13.590785 12.782153 39.348211 -0.373852 1.239946 0.075395 -0.017803 1000490.000000 0 0 1
-35.440139 12.419485 13.087553 39.768469 -0.337063 1.235453 0.079827 -0.022047 909576.000000 0 0 1
-34.717947 11.635185 14.255453 39.292892 -0.323371 1.199526 0.082354 -0.029721 326664.000000 0 0 1
-34.580964 12.359985 15.454953 39.843041 -0.343271 1.172449 0.078773 -0.022522 207890.000000 0 0 1
-34.084309 11.557085 16.537253 39.607917 -0.326908 1.140078 0.069051 -0.019739 -45415.600000 0 0 1
-33.924284 12.355785 17.843153 40.272827 -0.349283 1.111791 0.062694 -0.017161 -152486.000000 0 0 1
-35.129345 12.856285 18.369853 41.675010 -0.350831 1.114320 0.076112 -0.021026 -57757.100000 0 0 1
-34.843251 13.369485 19.641453 42.173238 -0.366379 1.086334 0.066581 -0.025353 -173964.000000 0 0 1
-35.972628 13.317485 20.668553 43.572635 -0.354566 1.076574 0.085004 -0.033213 -127237.000000 0 0 1
36.134523 12.095185 21.105753 43.559730 0.323004 1.064977 0.072479 -0.018783 327654.000000 0 0 1
35.087833 12.216985 22.056453 43.207613 0.335055 1.035058 0.075666 -0.031611 466786.000000 0 0 1
34.736823 10.837785 22.715953 42.896608 0.302427 1.012725 0.066711 -0.029744 15403.700000 0 0 1
35.747073 10.445085 23.600113 44.089889 0.284280 1.005966 0.064222 -0.024597 54216.600000 0 0 1
35.499613 11.053685 24.876513 44.735303 0.301859 0.981132 0.064375 -0.020657 575457.000000 0 0 1
-35.782184 10.976685 25.654763 45.376417 -0.297651 0.969907 0.063450 -0.022373 1201750.000000 0 0 1
-34.866567 12.017285 25.321413 44.735519 -0.331914 0.969120 0.050597 -0.027846 -287114.000000 0 0 1
-33.862694 11.603485 24.457713 43.353231 -0.330123 0.971393 0.052973 -0.032439 -454030.000000 0 0 1
-32.843654 12.767885 24.199383 42.747335 -0.370768 0.969026 0.048577 -0.035903 885931.000000 0 0 1
-32.053194 13.341685 25.299663 42.959059 -0.394424 0.941068 0.032054 -0.034702 878237.000000 0 0 1
-32.831564 14.106585 26.225853 44.324967 -0.405816 0.937665 0.036347 -0.029002 -571753.000000 0 0 1
-31.970834 14.800685 27.259163 44.544994 -0.433565 0.912277 0.039811 -0.026804 -605357.000000 0 0 1
-31.532194 16.022585 26.750843 44.346478 -0.470134 0.923260 0.068398 -0.034657 -276878.000000 0 0 1
-30.954884 16.863785 27.736103 44.854025 -0.498831 0.904137 0.077123 -0.035125 -50303.100000 0 0 1
-30.425184 18.248085 27.248053 44.734113 -0.540250 0.915857 0.082135 -0.027269 -273135.000000 0 0 1
-31.311784 18.909985 26.369993 45.093147 -0.543301 0.946176 0.055200 -0.044943 -118554.000000 0 0 1
-30.891744 20.198185 25.977623 45.134283 -0.579068 0.957504 0.067863 -0.051092 -432932.000000 0 0 1
-32.045924 21.054085 25.444223 46.017652 -0.581279 0.984928 0.085026 -0.031583 -787059.000000 0 0 1
-32.858654 21.590685 26.405463 47.361349 -0.581335 0.979387 0.072560 -0.032888 -351109.000000 0 0 1
-33.808764 22.511985 25.908413 48.177463 -0.587446 1.003006 0.070399 -0.023552 -596412.000000 0 0 1
-33.264304 23.851085 25.393563 48.168675 -0.622056 1.015518 0.068742 -0.023514 -610454.000000 0 0 1
-34.210320 24.482585 24.601933 48.733952 -0.621152 1.041621 0.076855 -0.021565 -256848.000000 0 0 1
-33.933564 25.860185 24.481713 49.189331 -0.651189 1.049847 0.072499 -0.013737 541927.000000 0 0 1
-34.758950 26.551985 23.336853 49.576217 -0.652331 1.080682 0.074886 -0.011475 500429.000000 0 0 1
-34.223040 26.150585 22.099053 48.409067 -0.652478 1.096732 0.081752 -0.021774 259913.000000 0 0 1
-35.095354 26.645285 21.073253 48.844008 -0.649379 1.124708 0.082248 -0.025341 392371.000000 0 0 1
-34.739447 26.240085 19.656953 47.767846 -0.646910 1.146686 0.096058 -0.048846 -36750.900000 0 0 1
-34.938570 24.869385 19.314353 47.034395 -0.618604 1.147637 0.107873 -0.041437 -105683.000000 0 0 1
-34.419538 24.606585 18.050053 45.999925 -0.620657 1.167564 0.110127 -0.037304 -246716.000000 0 0 1
-34.965199 23.319785 17.358053 45.471745 -0.588194 1.179126 0.087437 -0.030765 50688.600000 0 0 1
36.323593 23.423285 17.024853 46.453195 0.572747 1.195557 0.106160 -0.035905 -378868.000000 0 0 1
36.059293 22.919085 15.705853 45.521763 0.566182 1.218538 0.084376 -0.023853 -1622570.000000 0 0 1
34.649903 22.804585 15.272753 44.203188 0.582078 1.218011 0.094395 -0.019934 -1671770.000000 0 0 1
33.977203 21.849885 16.056353 43.470384 0.571492 1.192473 0.105910 -0.031630 -423229.000000 0 0 1
32.724233 21.607385 15.448953 42.147653 0.583573 1.195505 0.099245 -0.029301 -797920.000000 0 0 1
31.880093 20.668585 16.323853 41.352133 0.575195 1.164998 0.099005 -0.030805 -16219.900000 0 0 1
31.182133 21.246485 17.422753 41.560689 0.598111 1.138219 0.091364 -0.023763 870380.000000 0 0 1
29.966053 21.899885 16.982953 40.816541 0.631115 1.141666 0.074995 -0.015494 178848.000000 0 0 1
29.129803 22.570185 18.045953 41.031879 0.659194 1.115417 0.062738 -0.005935 -419707.000000 0 0 1
29.835633 23.623385 18.697153 42.400623 0.669711 1.114124 0.037555 -0.004331 -587532.000000 0 0 1
29.132433 24.507185 19.532953 42.788281 0.699383 1.096736 0.031346 0.003666 -78109.400000 0 0 1
29.963093 25.074085 20.731553 44.230012 0.696800 1.082954 0.036756 -0.005318 422525.000000 0 0 1
30.717403 26.232585 20.444553 45.273470 0.706810 1.102262 0.067231 -0.014191 346789.000000 0 0 1
31.679903 26.615285 21.433153 46.597958 0.698737 1.092847 0.072165 -0.018311 -461734.000000 0 0 1
32.780713 27.466085 20.809153 47.560297 0.697412 1.117944 0.077045 -0.024076 1114780.000000 0 0 1
33.928763 27.856585 21.650853 48.948031 0.687434 1.112609 0.071633 -0.018240 1514830.000000 0 0 1
33.503033 28.728085 22.636753 49.600188 0.708819 1.096869 0.058852 -0.014251 -139336.000000 0 0 1
34.521883 28.907785 23.832103 50.944966 0.697119 1.083995 0.054293 -0.018302 166944.000000 0 0 1
35.680713 29.587985 23.492593 51.965990 0.692320 1.101705 0.075425 -0.020594 -640830.000000 0 0 1
-36.243454 30.018385 24.633523 53.117812 -0.691727 1.088570 0.085670 -0.003698 449300.000000 0 0 1
-34.874345 30.677585 24.324073 52.430857 -0.721464 1.088374 0.082768 -0.007453 -5362.330000 0 0 1
-33.818294 29.860485 23.919963 51.063590 -0.723325 1.083278 0.065948 -0.008615 -509779.000000 0 0 1
-32.735954 30.718085 23.657603 50.743725 -0.753608 1.085786 0.068407 -0.007950 782367.000000 0 0 1
-31.325794 30.094685 23.318453 49.302594 -0.765357 1.078142 0.072355 -0.011382 893637.000000 0 0 1
-31.014574 29.839285 21.950753 48.312755 -0.766087 1.099157 0.042569 -0.006220 -57865.300000 0 0 1
-31.564424 28.622185 21.474453 47.714720 -0.736552 1.103965 0.053906 -0.002882 -196119.000000 0 0 1
-31.118494 27.300585 22.242353 46.993669 -0.720137 1.077757 0.047551 -0.006107 235858.000000 0 0 1
-29.703024 27.130485 22.072853 45.886204 -0.740165 1.068962 0.014372 -0.008908 516814.000000 0 0 1
-29.123914 26.234585 22.978553 45.436436 -0.733252 1.040569 0.020797 -0.008726 -372709.000000 0 0 1
-28.896704 26.648085 24.430513 46.281637 -0.744937 1.014710 0.037038 -0.007725 -366618.000000 0 0 1
-30.022004 26.787285 25.284663 47.520454 -0.728520 1.009742 0.038685 -0.001135 189771.000000 0 0 1
-29.650404 27.237885 26.644283 48.280086 -0.743016 0.986193 0.059960 -0.010410 697278.000000 0 0 1
-31.001824 27.442185 27.432773 49.666324 -0.724566 0.985626 0.062208 -0.016757 1059180.000000 0 0 1
-31.549994 26.203785 27.890843 49.597779 -0.693092 0.973583 0.047181 -0.015525 -399508.000000 0 0 1
-32.662034 26.517285 28.688083 50.921322 -0.681936 0.972324 0.045778 -0.008387 -111211.000000 0 0 1
-33.299374 25.204885 29.285233 51.007445 -0.647914 0.959247 0.043713 -0.009209 -120993.000000 0 0 1
-32.664274 24.606785 30.395473 50.954229 -0.645625 0.931632 0.040616 -0.006569 -335116.000000 0 0 1
-33.160164 23.310685 30.646383 50.815208 -0.612718 0.923421 0.033119 -0.020497 -189184.000000 0 0 1
-32.455724 22.495685 31.755363 50.673790 -0.606093 0.893533 0.049175 -0.032866 -76947.700000 0 0 1
-31.192484 22.072185 31.291203 49.389187 -0.615817 0.884645 0.060904 -0.023644 313523.000000 0 0 1
-30.286414 21.244585 32.043823 48.942884 -0.611702 0.856986 0.060955 -0.021340 556457.000000 0 0 1
-29.647494 21.866685 33.317819 49.670947 -0.635489 0.835549 0.053904 -0.017851 -492852.000000 0 0 1
-30.572894 22.263585 -34.163778 50.965997 -0.629411 2.305443 0.067167 -0.021082 33928.300000 0 0 1
-30.323204 21.868485 -32.836984 49.759370 -0.624800 2.291503 0.058717 -0.009935 -409425.000000 0 0 1
-29.058494 22.401585 -32.153374 48.785926 -0.656752 2.290379 0.070662 -0.024081 -178110.000000 0 0 1
-29.220474 23.732685 -31.713994 49.222494 -0.682132 2.270902 0.052510 -0.017338 -586485.000000 0 0 1
-28.079344 24.164785 -31.056734 48.341568 -0.710610 2.268479 0.090123 -0.023047 -612388.000000 0 0 1
-28.293594 25.418685 -30.173664 48.549841 -0.731925 2.241451 0.060271 -0.017498 -468824.000000 0 0 1
-28.328394 26.711785 -30.784514 49.635710 -0.756035 2.239805 0.058243 -0.012175 -2133.870000 0 0 1
-29.262204 27.084485 -31.783844 50.990771 -0.746769 2.243785 0.038076 -0.001233 -228932.000000 0 0 1
-29.153714 28.601385 -32.144274 51.973384 -0.775835 2.237598 0.047193 -0.000512 144981.000000 0 0 1
-29.663984 29.551885 -31.179744 52.205769 -0.783505 2.210861 0.028290 -0.003383 101684.000000 0 0 1
-29.492574 30.798085 -31.757254 53.168197 -0.807048 2.210924 0.057092 -0.018698 -161397.000000 0 0 1
-29.631664 31.966285 -30.795704 53.369039 -0.823281 2.185888 0.047694 -0.009192 -25407.300000 0 0 1
-28.496074 32.232985 -29.992264 52.445472 -0.846855 2.179586 0.036541 -0.004734 1220.390000 0 0 1
-28.729604 33.253185 -29.036134 52.671260 -0.858250 2.154683 0.019487 -0.002958 41227.300000 0 0 1
-27.678704 33.327685 -27.864784 51.510110 -0.877731 2.142372 0.018298 -0.006059 569300.000000 0 0 1
-26.416274 33.882085 -28.169774 51.374619 -0.908586 2.151151 0.022954 -0.010138 -149506.000000 0 0 1
-26.204584 -33.149917 -28.152594 50.775642 0.901883 2.158499 0.028214 0.008534 -365879.000000 0 0 1
-26.691424 -32.285317 -26.961254 49.816494 0.879964 2.142673 0.025041 0.008129 44049.900000 0 0 1
-28.082174 -32.129917 -26.782304 50.380868 0.852522 2.131281 0.002094 0.003979 -182622.000000 0 0 1
-28.317204 -31.205617 -25.704504 49.359661 0.833886 2.118536 -0.005159 0.003680 1203820.000000 0 0 1
-29.837324 -30.762717 -25.580194 49.909488 0.800667 2.108927 -0.016106 0.001392 1163870.000000 0 0 1
-30.308674 -29.908617 -26.576104 50.193928 0.778755 2.128770 -0.000639 -0.003897 -4146.620000 0 0 1
-31.642974 -29.578617 -26.263284 50.655034 0.751692 2.115861 -0.002255 -0.014061 -267831.000000 0 0 1
-32.377794 -28.844717 -27.417474 51.303578 0.727753 2.134613 0.010824 -0.016055 -205965.000000 0 0 1
-33.752114 -28.738217 -27.147364 51.981436 0.705335 2.120285 0.013027 -0.023546 -104533.000000 0 0 1
-34.496893 -28.264617 -28.289654 52.813150 0.686422 2.136080 0.023326 -0.018781 449186.000000 0 0 1
-35.982602 -28.672217 -28.245604 53.987571 0.672808 2.121383 0.031532 -0.027580 65908.800000 0 0 1
35.906063 -28.069117 -27.223324 53.087005 -0.663506 2.109246 0.023626 -0.026123 -1157420.000000 0 0 1
34.580053 -28.073217 -27.619894 52.409390 -0.681914 2.125866 0.033647 -0.030855 -1503200.000000 0 0 1
33.671053 -27.537317 -26.581974 50.976906 -0.685521 2.119347 0.042681 -0.024058 -753654.000000 0 0 1
33.536623 -28.281817 -25.397154 50.691041 -0.700598 2.095572 0.033008 -0.017944 43288.000000 0 0 1
32.648903 -27.660317 -24.491994 49.304176 -0.702869 2.090650 0.040277 -0.011204 124634.000000 0 0 1
32.547613 -28.435917 -23.187194 49.046860 -0.718077 2.063212 0.033440 -0.001663 -323151.000000 0 0 1
31.806253 -29.584317 -23.309794 49.297221 -0.749221 2.063310 0.052687 -0.006984 -432711.000000 0 0 1
31.425263 -30.225817 -22.097194 48.881828 -0.765945 2.039862 0.062331 -0.016709 308380.000000 0 0 1
32.523473 -30.533217 -21.011994 49.310826 -0.753846 2.010988 0.053806 -0.005070 352588.000000 0 0 1
33.631913 -31.314317 -21.496694 50.732631 -0.749728 2.008350 0.045784 -0.007094 1412820.000000 0 0 1
34.893093 -31.107317 -20.839594 51.180873 -0.728101 1.990156 0.044253 -0.008077 1371540.000000 0 0 1
35.589833 -29.698717 -21.145494 50.948817 -0.695410 1.998777 0.029676 -0.004547 -332758.000000 0 0 1
35.008443 -28.648117 -20.381794 49.615756 -0.685812 1.994120 0.030219 -0.006340 287385.000000 0 0 1
35.603833 -27.411317 -20.805194 49.516354 -0.656115 2.004427 0.016176 -0.007328 453894.000000 0 0 1
34.750863 -26.206617 -20.295594 48.024165 -0.646138 2.007122 0.016884 -0.007312 660252.000000 0 0 1
33.503453 -26.092617 -20.958794 47.355856 -0.661682 2.029271 0.031063 -0.004753 900923.000000 0 0 1
32.447603 -25.547817 -20.109894 45.934146 -0.666984 2.023945 0.054592 -0.008115 932124.000000 0 0 1
31.158683 -25.221017 -20.896594 45.206536 -0.680469 2.051324 0.057293 -0.008560 248735.000000 0 0 1
30.317133 -26.355017 -21.103494 45.377009 -0.715599 2.054510 0.068015 -0.008223 -98867.800000 0 0 1
29.094743 -26.024617 -21.721794 44.672375 -0.729756 2.078586 0.072676 -0.014428 -118809.000000 0 0 1
28.442303 -27.308117 -22.192994 45.246291 -0.765057 2.083452 0.067986 -0.019109 -381146.000000 0 0 1
28.089433 -28.121817 -21.088694 44.995398 -0.785974 2.058599 0.065217 -0.016756 -66609.500000 0 0 1
27.545183 -29.328417 -21.637694 45.684603 -0.816742 2.064207 0.067337 -0.019437 128669.000000 0 0 1
26.905183 -30.243617 -20.539994 45.392253 -0.843748 2.040363 0.067583 -0.008047 -388567.000000 0 0 1
27.833073 -30.768017 -19.644794 45.904997 -0.835440 2.013014 0.072612 -0.013620 -283400.000000 0 0 1
28.279003 -32.027217 -20.123994 47.227320 -0.847471 2.010984 0.077671 -0.006188 -51425.400000 0 0 1
29.178833 -32.791017 -19.146894 47.887980 -0.843622 1.982124 0.063472 -0.005338 -319309.000000 0 0 1
28.586033 -33.157317 -17.918594 47.303752 -0.859300 1.959294 0.060780 -0.006136 -60308.200000 0 0 1
28.348283 -32.116717 -16.933794 46.063674 -0.847642 1.947242 0.045994 -0.012325 -345240.000000 0 0 1
27.761193 -32.715917 -15.682694 45.683279 -0.867143 1.921216 0.039968 -0.004748 660726.000000 0 0 1
26.345883 -32.937917 -15.838194 45.053971 -0.896138 1.930010 0.041744 -0.001771 963599.000000 0 0 1
25.818583 -33.719617 -14.754794 44.959045 -0.917333 1.905176 0.030482 -0.002389 446588.000000 0 0 1
24.261983 -33.755417 -14.724794 44.100925 -0.947592 1.911222 0.039559 0.001562 629774.000000 0 0 1
23.702683 -32.517117 -14.332594 42.715376 -0.940917 1.912972 0.039678 0.009020 476335.000000 0 0 1
22.308183 -32.546817 -14.042394 41.882445 -0.969924 1.912700 0.057341 0.000139 284034.000000 0 0 1
-0.490664 -6.892415 -29.026974 29.838086 1.499727 2.907893 0.052697 -0.014533 120945.000000 0 0 1
-0.211864 -8.250515 -28.898934 30.054355 1.545123 2.863408 0.058244 -0.010338 -124318.000000 0 0 1
-0.549464 -9.019615 -30.022404 31.352832 1.509953 2.849231 0.045521 -0.019640 -281005.000000 0 0 1
-0.280764 -10.517015 -29.804294 31.606682 1.544106 2.802252 0.061286 -0.014546 -352128.000000 0 0 1
1.050336 -10.818115 -29.520284 31.457622 -1.474009 2.788808 0.040187 -0.017407 -599348.000000 0 0 1
1.241536 -12.187715 -29.290424 31.749185 -1.469279 2.745451 0.041314 -0.016960 441440.000000 0 0 1
2.620436 -12.641615 -28.702264 31.472163 -1.366404 2.718903 0.040838 -0.014890 631632.000000 0 0 1
3.661336 -12.591415 -29.689304 32.456184 -1.287819 2.725686 0.041126 -0.015562 987270.000000 0 0 1
5.019936 -12.832015 -29.309214 32.386577 -1.197896 2.702130 0.052462 -0.023839 1061090.000000 0 0 1
5.395736 -14.220515 -28.797804 32.567630 -1.208145 2.655674 0.068979 -0.032828 -1178410.000000 0 0 1
4.954736 -14.563515 -27.511944 31.520667 -1.242865 2.631752 0.067193 -0.020565 -386419.000000 0 0 1
5.733336 -15.555215 -26.931784 31.625256 -1.217666 2.589809 0.073796 -0.019868 -432193.000000 0 0 1
5.520536 -17.067615 -27.327264 32.688823 -1.257966 2.560716 0.073829 -0.019587 -325679.000000 0 0 1
5.856136 -17.463415 -28.650024 34.060080 -1.247243 2.570224 0.073719 -0.025743 155453.000000 0 0 1
5.458636 -18.806115 -28.862984 34.878912 -1.288300 2.545472 0.060683 -0.025147 -193439.000000 0 0 1
5.595136 -19.235115 -30.308714 36.330611 -1.287726 2.557563 0.065576 -0.029628 241633.000000 0 0 1
6.936836 -19.311415 -30.769684 36.984103 -1.225941 2.553446 0.063674 -0.029979 270217.000000 0 0 1
7.016736 -19.980615 -32.054584 38.418171 -1.233073 2.557767 0.055860 -0.029146 567179.000000 0 0 1
8.478436 -20.040115 -32.623294 39.214403 -1.170559 2.553357 0.064137 -0.029043 696416.000000 0 0 1
8.926336 -18.750515 -33.012944 39.001484 -1.126485 2.580085 0.063961 -0.028260 -176650.000000 0 0 1
10.038536 -18.855015 -33.858094 40.033165 -1.081561 2.578768 0.056991 -0.028919 -540914.000000 0 0 1
10.398236 -17.511415 34.012695 39.643869 -1.034950 0.539519 0.057540 -0.022266 163747.000000 0 0 1
9.362236 -16.976715 33.188606 38.436231 -1.066821 0.528683 0.065463 -0.014547 443728.000000 0 0 1
9.639036 -15.635815 32.760171 37.558202 -1.018353 0.511010 0.060632 -0.009075 629570.000000 0 0 1
8.505836 -15.183915 31.750363 36.207541 -1.060165 0.501424 0.062427 -0.015690 580520.000000 0 0 1
8.473136 -15.977115 30.595383 35.540676 -1.083181 0.533848 0.060599 -0.011524 -7731.000000 0 0 1
7.683736 -15.519715 29.543633 34.245110 -1.111080 0.530190 0.063393 -0.005159 -472495.000000 0 0 1
7.898936 -16.478515 28.295773 33.683607 -1.123807 0.573429 0.056007 -0.008580 -181998.000000 0 0 1
7.297536 -17.751815 28.459743 34.326927 -1.180769 0.593337 0.061683 -0.014072 396994.000000 0 0 1
7.636636 -18.591715 27.364033 33.952325 -1.181053 0.633510 0.050146 -0.018180 36217.100000 0 0 1
7.142336 -20.005115 27.587113 34.817616 -1.227876 0.656174 0.049902 -0.019469 244276.000000 0 0 1
7.892036 -20.582815 28.694753 36.184601 -1.204657 0.655062 0.060277 -0.019510 895004.000000 0 0 1
7.161636 -21.635115 29.267283 37.093680 -1.251130 0.661600 0.043086 -0.015782 34201.800000 0 0 1
7.685936 -21.950315 30.698983 38.513861 -1.233987 0.648337 0.046029 -0.021362 302944.000000 0 0 1
7.113736 -21.050815 31.737793 38.743122 -1.244913 0.610807 0.055591 -0.022178 503846.000000 0 0 1
7.234636 -19.613215 31.572433 37.866036 -1.217415 0.584854 0.052757 -0.018736 -368202.000000 0 0 1
6.598836 -18.801915 32.716281 38.306810 -1.233261 0.547057 0.057032 -0.018199 -394960.000000 0 0 1
5.217336 -19.032615 32.823899 38.299731 -1.303243 0.541325 0.055893 -0.022442 -656433.000000 0 0 1
4.663136 -18.005815 33.569646 38.378058 -1.317384 0.505961 0.059808 -0.019082 249253.000000 0 0 1
3.151536 -18.174615 33.880447 38.576333 -1.399100 0.498564 0.062247 -0.020395 368971.000000 0 0 1
3.031936 -19.161415 -33.589864 38.789579 -1.413866 2.617845 0.053662 -0.021261 222093.000000 0 0 1
2.278236 -18.733215 -32.439024 37.528842 -1.449776 2.614704 0.051741 -0.033272 308208.000000 0 0 1
1.724336 -19.900015 -31.532344 37.326567 -1.484362 2.576931 0.041319 -0.019109 -163664.000000 0 0 1
0.692136 -20.659315 -32.165954 38.235258 -1.537306 2.570414 0.040657 -0.017489 868147.000000 0 0 1
-0.159564 -21.438915 -31.287444 37.928310 1.563354 2.540839 0.046365 -0.023479 758831.000000 0 0 1
-0.978364 -20.719815 -30.200584 36.638002 1.523613 2.539755 0.050224 -0.021688 -1153960.000000 0 0 1
-2.142264 -20.122215 -30.677334 36.750396 1.464733 2.558472 0.066236 -0.029455 -869686.000000 0 0 1
-2.558164 -19.019615 -29.904184 35.532382 1.437097 2.571042 0.074824 -0.015961 -366482.000000 0 0 1
-1.845664 -17.649415 -30.034104 34.884892 1.466601 2.607928 0.049667 -0.010780 253821.000000 0 0 1
-2.721864 -16.536815 -29.729374 34.127855 1.407665 2.628270 0.059164 -0.012733 -84587.400000 0 0 1
-2.088364 -15.322515 -29.905454 33.667149 1.435337 2.664357 0.067169 -0.021306 -182199.000000 0 0 1
-2.889564 -14.053515 -29.477704 32.783927 1.368011 2.688622 0.055809 -0.009586 238433.000000 0 0 1
-2.999564 -13.842615 -28.093354 31.461912 1.357405 2.674613 0.048345 -0.015966 -121410.000000 0 0 1
-4.053764 -12.965715 -27.808454 30.949198 1.267772 2.687181 0.041822 -0.018751 -192753.000000 0 0 1
-4.162764 -12.674315 -26.299064 29.489110 1.253455 2.672155 0.032923 -0.012479 -321328.000000 0 0 1
-4.607764 -13.805515 -25.516734 29.375627 1.248659 2.623239 0.036118 -0.014630 340825.000000 0 0 1
-4.641764 -13.520415 -24.132994 28.049046 1.240089 2.606822 0.019860 -0.012454 -309912.000000 0 0 1
-5.823264 -12.657015 -23.705994 27.496992 1.139590 2.610256 0.025752 -0.013711 -361231.000000 0 0 1
-7.148464 -13.088115 -23.930994 28.197371 1.070891 2.584311 0.026721 -0.015417 -203108.000000 0 0 1
-8.047264 -12.136515 -23.482394 27.631074 0.985293 2.586506 0.017702 -0.014679 646627.000000 0 0 1
-9.550864 -12.293815 -23.942394 28.558626 0.910310 2.565063 0.041126 -0.018550 987787.000000 0 0 1
-10.259164 -13.330915 -23.323194 28.756479 0.914883 2.516756 0.029937 -0.021888 -211140.000000 0 0 1
-10.395664 -14.443215 -24.186694 30.027861 0.946931 2.507273 0.030885 -0.020618 -78397.200000 0 0 1
-11.272864 -15.614615 -23.703094 30.540634 0.945495 2.459280 0.019218 -0.028245 -175678.000000 0 0 1
-10.481464 -16.567615 -23.023794 30.239743 1.006716 2.436228 0.013607 -0.016676 193047.000000 0 0 1
-11.267264 -17.528415 -22.277094 30.503532 0.999499 2.389575 0.023932 -0.014748 516246.000000 0 0 1
-12.155564 -18.553015 -23.025494 31.971010 0.990788 2.374886 0.017009 -0.002173 605932.000000 0 0 1
-13.236864 -17.968515 -23.740494 32.583633 0.935881 2.387075 0.024495 -0.000034 -459795.000000 0 0 1
-14.022264 -18.893415 -24.381194 33.882556 0.932321 2.373993 0.020751 -0.000712 -183874.000000 0 0 1
-15.067064 -18.167315 -25.283724 34.588068 0.878413 2.390576 0.032121 -0.004834 847305.000000 0 0 1
-16.166964 -17.574015 -24.589594 34.276302 0.827076 2.370850 0.026752 0.004276 440463.000000 0 0 1
-17.162964 -16.968515 -25.377634 35.021738 0.779701 2.381287 0.014978 0.007512 450073.000000 0 0 1
-17.901364 -15.747315 -24.753294 34.368042 0.721470 2.374947 0.025327 0.002905 -32704.400000 0 0 1
-18.880064 -15.999515 -23.795594 34.331787 0.703000 2.336586 0.027422 0.005746 -237063.000000 0 0 1
-19.429764 -14.770915 -23.366294 33.788746 0.650011 2.334416 0.044693 -0.001804 657702.000000 0 0 1
-20.294464 -14.841515 -22.077994 33.460031 0.631431 2.291391 0.043928 -0.011338 947065.000000 0 0 1
-19.306864 -14.781115 -21.024494 32.144451 0.653403 2.283740 0.053467 -0.008108 1046920.000000 0 0 1
-19.836664 -14.719415 -19.704394 31.597746 0.638381 2.244137 0.048634 -0.017717 75580.000000 0 0 1
-20.529664 -13.387215 -19.276294 31.181086 0.577844 2.237253 0.049038 -0.023217 348624.000000 0 0 1
-21.766964 -13.035515 -19.886694 32.236718 0.539586 2.235589 0.054785 -0.027801 291285.000000 0 0 1
-22.306464 -11.978115 -19.098594 31.714506 0.492792 2.217055 0.062766 -0.028224 -670930.000000 0 0 1
-23.761364 -11.624415 -19.310694 32.751066 0.454982 2.201385 0.065144 -0.022084 -788536.000000 0 0 1
-23.969364 -10.732715 -20.384394 33.245227 0.420996 2.230841 0.059598 -0.024049 -328940.000000 0 0 1
-25.329194 -10.465015 -20.591594 34.279708 0.391800 2.215164 0.070807 -0.024958 -295003.000000 0 0 1
-25.732524 -9.542315 -21.782394 35.038425 0.355107 2.241671 0.083946 -0.028205 -42848.100000 0 0 1
-25.836844 -10.074015 -23.097594 36.090541 0.371777 2.265282 0.053350 -0.023692 152196.000000 0 0 1
-26.620194 -9.195815 -23.858994 36.911371 0.332611 2.273635 0.051686 -0.026492 -287039.000000 0 0 1
-26.921294 -9.822715 -25.286084 38.218161 0.349858 2.293780 0.037172 -0.015117 313079.000000 0 0 1
-25.831444 -9.728115 -26.195944 38.054267 0.360172 2.330055 0.027149 -0.019446 706186.000000 0 0 1
-24.872364 -10.802115 -26.162464 37.680163 0.409723 2.338285 0.031627 -0.013497 784452.000000 0 0 1
-23.776364 -10.835815 -27.267344 37.765572 0.427616 2.377508 0.040246 -0.013263 429824.000000 0 0 1
-24.330264 -11.034015 -28.542424 39.094516 0.425769 2.389247 0.034240 -0.007667 190545.000000 0 0 1
-23.315664 -10.985815 -29.535644 39.200288 0.440325 2.424097 0.036590 -0.004704 570474.000000 0 0 1
-23.939964 -11.226515 -30.925024 40.688003 0.438496 2.434190 0.037005 -0.006539 90473.600000 0 0 1
-24.762464 -10.227215 -31.465884 41.326473 0.391674 2.436263 0.040811 -0.005761 -422020.000000 0 0 1
-24.131264 -9.265915 -32.243344 41.325638 0.366620 2.465824 0.039348 -0.006915 -897178.000000 0 0 1
-25.096344 -8.211515 -32.854884 42.150906 0.316220 2.464597 0.043324 -0.003727 -925929.000000 0 0 1
-25.897234 -8.762415 -33.890604 43.543308 0.326262 2.462781 0.061499 -0.008397 975759.000000 0 0 1
-27.115694 -9.385115 -33.454724 44.074480 0.333208 2.432649 0.055546 -0.009926 752213.000000 0 0 1
-28.176134 -8.458315 -32.721404 44.001453 0.291635 2.409300 0.033936 -0.001934 979533.000000 0 0 1
-29.564924 -8.900015 -32.665464 44.948054 0.292404 2.384358 0.018895 -0.002493 1497700.000000 0 0 1
-30.190584 -8.485915 -31.455204 44.417474 0.274008 2.357702 0.014895 -0.002323 -141167.000000 0 0 1
-31.655964 -8.922315 -31.369394 45.450486 0.274726 2.332546 0.006662 -0.007359 -189555.000000 0 0 1
-31.732364 -10.346615 -31.460774 45.866934 0.315189 2.326655 0.010124 -0.011164 218533.000000 0 0 1
-33.057094 -10.705015 -31.097404 46.630648 0.313177 2.300821 0.001088 -0.012670 195019.000000 0 0 1
-33.353834 -12.192415 -31.424854 47.419982 0.350458 2.295204 0.024067 -0.016133 -319924.000000 0 0 1
-34.669811 -12.655415 -31.257484 48.365128 0.349999 2.273498 0.023006 -0.013525 -411711.000000 0 0 1
-34.756490 -14.035215 -31.526804 48.978977 0.383791 2.270094 0.027091 -0.016325 420783.000000 0 0 1
-36.059654 -14.808715 -31.168634 49.910725 0.389673 2.245272 0.031869 -0.024097 295108.000000 0 0 1
-36.183694 -14.802115 -29.765894 49.136247 0.388311 2.221546 0.042087 -0.023928 -202565.000000 0 0 1
35.930753 -16.004415 -29.301434 49.048285 -0.419042 2.211051 0.053556 -0.018998 -109422.000000 0 0 1
36.161913 -16.040615 -27.753064 48.324091 -0.417500 2.182559 0.063397 -0.012255 651323.000000 0 0 1
-35.159941 -16.072715 -27.215644 47.278377 0.428769 2.184191 0.061975 -0.024581 412644.000000 0 0 1
-35.067449 -16.074215 -25.799914 46.408425 0.429801 2.160280 0.076780 -0.024622 -311700.000000 0 0 1
-33.649554 -15.741215 -25.355914 44.977780 0.437556 2.169707 0.088087 -0.022186 -93578.300000 0 0 1
-32.657324 -16.759615 -25.289964 44.575417 0.474149 2.174083 0.087096 -0.017365 709630.000000 0 0 1
-31.412044 -16.179315 -24.876494 43.212576 0.475629 2.184228 0.087310 -0.011747 1474910.000000 0 0 1
-30.127184 -17.055115 -25.197094 42.818427 0.515123 2.199954 0.076272 -0.015199 889965.000000 0 0 1
-29.850194 -18.254315 -24.474994 42.699876 0.548855 2.181186 0.069753 -0.025906 349558.000000 0 0 1
-30.783944 -19.276415 -24.831494 43.998119 0.559450 2.170474 0.070805 -0.027152 117462.000000 0 0 1
-30.533024 -20.551515 -23.987594 43.932163 0.592437 2.148396 0.061405 -0.027027 -40411.000000 0 0 1
-29.262854 -21.127815 -24.143394 43.423527 0.625340 2.160360 0.065925 -0.020845 -204484.000000 0 0 1
-29.212734 -22.280215 -23.314094 43.512513 0.651572 2.136254 0.046282 -0.019606 -54210.800000 0 0 1
-27.891864 -23.075415 -23.382594 43.094971 0.691177 2.144305 0.049498 -0.015187 1135580.000000 0 0 1
-26.645744 -22.523515 -22.898994 41.733300 0.701756 2.151603 0.039625 -0.012032 928619.000000 0 0 1
-26.500254 -22.442315 -21.476594 40.830932 0.702675 2.124673 0.032234 -0.018343 -195260.000000 0 0 1
-26.549794 -23.732115 -20.588294 41.133717 0.729419 2.094997 0.029325 -0.004266 -51285.600000 0 0 1
-26.500214 -23.302015 -19.235594 40.190214 0.721268 2.069872 0.028165 -0.005705 -12519.300000 0 0 1
-26.820734 -24.342715 -18.335994 40.597145 0.737003 2.039418 0.022271 0.013607 -30230.400000 0 0 1
-26.732054 -23.838615 -16.890694 39.600225 0.728245 2.011449 0.012732 0.013105 -43569.800000 0 0 1
-27.783504 -22.960815 -16.597694 39.681300 0.690644 2.002342 0.010201 0.005576 -175361.000000 0 0 1
-27.367634 -21.991515 -15.636994 38.433445 0.676907 1.989809 0.014939 -0.001256 909556.000000 0 0 1
-28.600304 -21.221315 -15.024494 38.653034 0.638359 1.970018 0.035766 -0.002573 1055800.000000 0 0 1
-29.354024 -20.373615 -15.880794 39.101695 0.606732 1.989023 0.056559 -0.010643 393688.000000 0 0 1
-30.657374 -20.122015 -15.378994 39.765356 0.580827 1.967894 0.068448 -0.011912 -71797.500000 0 0 1
-31.642654 -19.428815 -16.305294 40.553656 0.550655 1.984570 0.083209 -0.036379 -163522.000000 0 0 1
-32.325684 -20.444415 -17.060294 41.880516 0.563939 1.990354 0.060742 -0.024585 -27591.100000 0 0 1
-33.295634 -19.904515 -17.930294 42.735049 0.538809 2.003767 0.064052 -0.028076 216729.000000 0 0 1
-33.888714 -20.853415 -19.020494 44.103164 0.551630 2.016699 0.050891 -0.023035 1476450.000000 0 0 1
-34.972124 -21.804215 -18.731294 45.269577 0.557501 1.997390 0.049659 -0.022767 895539.000000 0 0 1
-34.666447 -22.718715 -17.699494 45.068555 0.580128 1.974388 0.044900 -0.021046 33198.000000 0 0 1
-35.699658 -23.873115 -17.583794 46.406691 0.589424 1.959411 0.040061 -0.006373 439789.000000 0 0 1
35.633543 -23.507915 -17.223094 46.032666 -0.583173 1.954276 0.045179 -0.016432 -5882.100000 0 0 1
34.954543 -24.597215 -16.677994 45.880263 -0.613199 1.942831 0.056130 -0.016768 20529.700000 0 0 1
33.598653 -24.216315 -16.005194 44.401189 -0.624518 1.939566 0.050629 -0.024197 174454.000000 0 0 1
32.591443 -24.146515 -17.026894 43.990583 -0.637642 1.968235 0.059284 -0.020650 287939.000000 0 0 1
31.341993 -24.295615 -16.329894 42.886628 -0.659421 1.961424 0.061752 -0.020305 738897.000000 0 0 1
30.135293 -24.454415 -17.299794 42.490436 -0.681706 1.990123 0.055304 -0.031088 58681.300000 0 0 1
29.690423 -23.289515 -17.904394 41.767092 -0.665163 2.013819 0.039996 -0.030114 -667686.000000 0 0 1
28.498583 -23.526515 -18.565594 41.356346 -0.690117 2.036350 0.061952 -0.028767 -646265.000000 0 0 1
34.939343 29.489185 -18.200794 49.210148 0.701007 1.949653 0.035883 -0.006527 -669071.000000 0 0 1
34.088963 29.682685 -19.277894 49.140171 0.716413 1.973932 0.040012 -0.013093 -399140.000000 0 0 1
34.548403 29.000485 -20.433894 49.519333 0.698317 1.996152 0.052978 -0.012351 380428.000000 0 0 1
33.616173 29.095885 -21.733894 49.487168 0.713443 2.025485 0.043599 -0.010496 -414.926000 0 0 1
32.329693 28.546985 -21.595194 48.233721 0.723341 2.035010 0.047166 -0.010034 -554615.000000 0 0 1
31.699633 28.547685 -22.815394 48.377466 0.733129 2.061914 0.051332 0.001826 219529.000000 0 0 1
30.573233 29.632485 -22.914094 48.351447 0.769774 2.064519 0.052677 0.005665 -280241.000000 0 0 1
31.128343 30.894985 -22.958794 49.503334 0.781636 2.053057 0.054444 -0.007345 -16954.200000 0 0 1
30.169063 31.938785 -23.066494 49.621785 0.813885 2.054257 0.061978 0.000494 67225.200000 0 0 1
30.743413 33.297285 -22.567194 50.627511 0.825256 2.032808 0.061375 0.002723 119862.000000 0 0 1
30.899713 33.321085 -21.145094 50.121871 0.823084 2.006307 0.070733 -0.000791 -70103.300000 0 0 1
32.283933 33.342785 -20.860594 50.883770 0.801531 1.993213 0.061371 -0.002079 -91296.400000 0 0 1
32.609163 33.422785 -19.350994 50.546029 0.797719 1.963664 0.054533 -0.010265 -118214.000000 0 0 1
32.420353 -33.717717 -18.872794 50.439529 -0.805012 1.954294 0.059412 -0.007252 93670.200000 0 0 1
32.443363 -33.616117 -17.475394 49.879901 -0.803149 1.928740 0.039982 -0.019946 -427965.000000 0 0 1
32.622543 -32.122317 -17.149194 48.889349 -0.777672 1.929196 0.041400 0.008080 1250700.000000 0 0 1
33.901193 -31.446017 -17.361694 49.392016 -0.747845 1.929978 0.059365 -0.011471 1140460.000000 0 0 1
34.828653 -31.650717 -16.313394 49.808933 -0.737631 1.904473 0.061554 -0.007168 31654.600000 0 0 1
36.270303 -31.197117 -16.656494 50.658008 -0.710345 1.905832 0.051289 -0.008147 230117.000000 0 0 1
-35.708316 -32.154617 -17.460294 51.125973 0.733080 1.919325 0.048503 -0.009765 303742.000000 0 0 1
-34.600354 -31.510417 -18.136194 50.189764 0.738693 1.940514 0.022051 -0.001446 1196300.000000 0 0 1
-33.586454 -32.433417 -18.874894 50.361077 0.767935 1.954968 0.005756 -0.003737 -718671.000000 0 0 1
-32.802984 -33.254617 -18.041694 50.074026 0.792235 1.939386 0.025698 -0.012856 95522.400000 0 0 1
-31.705964 -33.843117 -18.713994 50.008383 0.817990 1.954349 -0.000575 -0.003501 368337.000000 0 0 1
-30.471274 -32.992017 -19.083594 48.797083 0.825097 1.972602 -0.001356 -0.008378 -1336620.000000 0 0 1
-30.793924 -32.152117 -20.156294 48.870243 0.806972 1.995933 -0.012363 -0.000179 -463793.000000 0 0 1
-29.722264 -31.614117 -20.872994 48.151296 0.816232 2.019156 -0.002001 -0.004097 -390569.000000 0 0 1
-28.888894 -32.650017 -21.659694 48.679916 0.846440 2.031905 -0.001970 0.005189 -959361.000000 0 0 1
-29.580954 -33.208117 -22.658594 49.912161 0.843101 2.042012 -0.004183 0.013526 -405650.000000 0 0 1
-28.834274 -34.179517 -23.435894 50.486591 0.870022 2.053528 -0.003596 0.011332 167846.000000 0 0 1
-29.714174 33.750785 -24.563894 51.238975 -0.848916 2.070766 -0.011946 0.005686 -287146.000000 0 0 1
-30.704064 32.823885 -24.083994 50.992017 -0.818754 2.062705 -0.011758 0.001824 476834.000000 0 0 1
-31.484084 32.185385 -25.109794 51.552385 -0.796412 2.079532 -0.006453 0.005306 411433.000000 0 0 1
-32.314624 33.052785 -26.075594 53.072198 -0.796690 2.084404 -0.009020 -0.000496 -827768.000000 0 0 1
-31.639044 33.594985 -27.195064 53.565135 -0.815373 2.103310 -0.014753 -0.003463 -168875.000000 0 0 1
-32.404844 -33.828417 -27.756814 54.450679 0.806888 2.105703 -0.016507 -0.006729 444019.000000 0 0 1
-31.630574 -33.117817 -28.910884 54.158307 0.808364 2.133910 -0.005078 -0.006952 -27611.200000 0 0 1
-31.587984 -33.877817 -30.118224 55.250472 0.820361 2.147330 0.005030 -0.002687 -195844.000000 0 0 1
-32.764084 -33.959117 -30.886064 56.397303 0.803307 2.150351 0.010020 -0.001243 -178353.000000 0 0 1
-32.497774 33.710185 -32.206564 56.830843 -0.803708 2.173303 0.028132 -0.000965 294866.000000 0 0 1
-31.656474 -34.100417 -33.153084 57.132283 0.822547 2.189877 0.029311 -0.015897 80676.700000 0 0 1
-31.850154 33.733885 34.119362 57.589393 -0.814113 0.936688 0.026644 -0.028272 195098.000000 0 0 1
-30.793474 34.170085 33.015575 56.620323 -0.837328 0.948251 0.035032 -0.025903 2299900.000000 0 0 1
-29.428674 33.689685 33.230104 55.725054 -0.852804 0.931884 0.038963 -0.024693 1378250.000000 0 0 1
-29.239214 32.352585 32.776153 54.551789 -0.835904 0.926262 0.043986 -0.031379 585441.000000 0 0 1
-27.783784 31.809185 33.031707 53.617689 -0.852844 0.907066 0.041181 -0.024538 415806.000000 0 0 1
-27.477674 31.479385 -34.097029 53.931268 -0.853169 2.255226 0.045332 -0.026173 -866057.000000 0 0 1
-26.163064 31.158785 -33.827374 52.911880 -0.872331 2.264404 0.054479 -0.023658 -945107.000000 0 0 1
-25.709414 29.761185 34.115665 52.063238 -0.858312 0.856252 0.062880 -0.027498 -438039.000000 0 0 1
-25.919004 28.674685 -33.458774 51.122617 -0.835832 2.284292 0.069671 -0.021429 -37774.900000 0 0 1
-25.619444 27.380485 -33.887344 50.541062 -0.818613 2.305667 0.066818 -0.016928 -258328.000000 0 0 1
-25.476304 26.374285 -32.615414 49.075556 -0.802715 2.297749 0.078216 -0.026433 497881.000000 0 0 1
-24.286864 26.462285 -31.793984 47.968341 -0.828238 2.295364 0.076004 -0.027643 665409.000000 0 0 1
-24.101364 27.744585 -31.059914 48.118147 -0.855553 2.272465 0.061356 -0.026432 657141.000000 0 0 1
-22.816864 27.780485 -30.158304 46.924279 -0.883186 2.268816 0.098432 -0.026310 1080080.000000 0 0 1
-21.543264 27.962085 -30.812724 46.855250 -0.914338 2.288445 0.096657 -0.026873 1141880.000000 0 0 1
-20.505064 27.945385 -29.806064 45.714371 -0.937773 2.281024 0.053732 -0.022636 521032.000000 0 0 1
-20.247364 29.344085 -29.079414 46.006993 -0.966815 2.255012 0.037207 -0.008330 -687344.000000 0 0 1
-19.801764 30.266585 -30.014544 47.000520 -0.991443 2.263474 0.035325 0.005349 -114843.000000 0 0 1
-19.791464 31.520285 -29.383584 47.419674 -1.010117 2.239093 0.044169 -0.006614 -328532.000000 0 0 1
-19.384564 32.643385 -30.350144 48.605382 -1.034927 2.245184 0.044327 -0.000455 -398611.000000 0 0 1
-18.035564 32.665585 -30.724324 48.335351 -1.066321 2.259645 0.045412 0.002441 -668913.000000 0 0 1
-17.737464 33.804485 -31.516804 49.504240 -1.087579 2.260941 0.040197 0.004229 370849.000000 0 0 1
-16.193564 33.950885 -31.651754 49.160225 -1.125742 2.270314 0.034915 0.012357 -75892.200000 0 0 1
-15.605964 -34.159417 -30.393994 48.313629 1.142255 2.251188 0.045124 0.009223 260515.000000 0 0 1
-14.211864 -33.883417 -30.446364 47.718384 1.173649 2.262750 0.049908 0.010425 469175.000000 0 0 1
-13.308564 33.372085 -30.504334 47.130970 -1.191331 2.274735 0.053228 0.006408 -863902.000000 0 0 1
-13.402364 32.606185 -29.356344 45.875719 -1.180811 2.265178 0.060322 -0.008390 -103740.000000 0 0 1
-12.893464 31.289285 -29.465324 44.871663 -1.179926 2.287175 0.049165 -0.007699 -347739.000000 0 0 1
-12.853464 30.591185 -28.082804 43.470404 -1.173025 2.273157 0.043857 -0.020747 -215923.000000 0 0 1
-11.699464 30.908085 -27.342874 42.893123 -1.208939 2.262000 0.048522 -0.017755 -293391.000000 0 0 1
-11.732564 30.407585 -26.032494 41.712888 -1.202553 2.244760 0.039495 -0.027876 1054510.000000 0 0 1
-10.323864 30.755685 -25.406374 41.206531 -1.246941 2.235165 0.049068 -0.027717 564445.000000 0 0 1
-9.240764 30.102385 -25.957924 40.808812 -1.272950 2.260212 0.049712 -0.014858 -839016.000000 0 0 1
-8.056564 30.737385 -25.474474 40.726452 -1.314453 2.246571 0.060201 -0.019418 579342.000000 0 0 1
-6.766464 30.020385 -25.959284 40.260316 -1.349105 2.271539 0.061841 -0.024135 70611.600000 0 0 1
-6.498464 28.809185 -25.279214 38.874643 -1.348940 2.278743 0.064793 -0.030622 -436504.000000 0 0 1
-5.555264 28.049285 -25.970964 38.627896 -1.375273 2.308158 0.056934 -0.034799 -303280.000000 0 0 1
-5.024764 26.831485 -25.191524 37.145521 -1.385669 2.316086 0.071727 -0.032322 -582561.000000 0 0 1
-5.958764 25.838385 -25.026494 36.461685 -1.344142 2.327293 0.080424 -0.031502 -1114400.000000 0 0 1
-5.397764 24.769985 -24.399994 35.185903 -1.356235 2.337076 0.082135 -0.039493 27237.500000 0 0 1
-6.338564 23.477385 -24.344594 34.409654 -1.307098 2.356741 0.079995 -0.033734 502561.000000 0 0 1
-6.490464 22.750385 -25.583204 34.845466 -1.292889 2.395270 0.080934 -0.033621 17480.900000 0 0 1
-6.992664 21.444385 -25.413074 33.979161 -1.255585 2.415692 0.078475 -0.034872 -211907.000000 0 0 1
-6.947764 20.529685 -26.696244 34.386463 -1.244470 2.459665 0.064086 -0.030865 864245.000000 0 0 1
-5.744964 19.804685 -27.057584 34.019745 -1.288464 2.490380 0.080158 -0.034339 491099.000000 0 0 1
-5.517364 18.677485 -26.241234 32.678619 -1.283563 2.503124 0.092602 -0.032653 12451.500000 0 0 1
-4.232564 17.866185 -26.508984 32.246572 -1.338181 2.535836 0.081375 -0.035435 47831.900000 0 0 1
-4.202664 17.230185 -27.713734 32.902777 -1.331555 2.572317 0.077483 -0.028589 -346887.000000 0 0 1
-3.145264 16.341685 -27.952314 32.531142 -1.380653 2.604594 0.075858 -0.029069 -669805.000000 0 0 1
-2.785464 16.285585 -29.464454 33.780662 -1.401397 2.630536 0.070653 -0.020186 34523.700000 0 0 1
-2.172864 17.482585 -29.935494 34.734650 -1.447143 2.609670 0.075458 -0.022730 129711.000000 0 0 1
-1.838164 17.431785 -31.317564 35.889216 -1.465736 2.631333 0.070937 -0.020909 135449.000000 0 0 1
-1.241864 18.762585 -31.911354 37.039322 -1.504704 2.609118 0.078123 -0.011146 -494612.000000 0 0 1
0.076836 18.950585 -31.515404 36.774329 1.566742 2.600205 0.084759 -0.016159 -655693.000000 0 0 1
0.637736 20.189785 -31.982264 37.827230 1.539220 2.578265 0.090706 -0.004997 378199.000000 0 0 1
0.396236 21.401385 -31.113664 37.765545 1.552284 2.538991 0.085664 -0.010616 -51702.800000 0 0 1
1.317836 21.359085 -30.061414 36.900350 1.509175 2.522947 0.094304 -0.030205 -59752.700000 0 0 1
0.830836 22.285985 -29.061664 36.632441 1.533533 2.487058 0.093553 -0.031473 323034.000000 0 0 1
1.759636 22.538185 -27.844114 35.865872 1.492881 2.459635 0.097631 -0.027361 946019.000000 0 0 1
2.927636 23.314485 -28.207684 36.712528 1.445879 2.447039 0.080471 -0.032851 670777.000000 0 0 1
3.891936 23.321485 -27.152274 36.003956 1.405438 2.425151 0.081563 -0.034897 512995.000000 0 0 1
4.698536 24.649385 -27.126274 36.952716 1.382441 2.395108 0.080287 -0.030368 -64942.600000 0 0 1
5.471236 24.924085 -28.246394 38.065775 1.354708 2.406907 0.072775 -0.036736 -298874.000000 0 0 1
5.948736 26.248485 -28.218274 38.995403 1.347929 2.379845 0.080054 -0.040751 219463.000000 0 0 1
6.870936 26.616485 -29.453244 40.288220 1.318166 2.390676 0.084512 -0.035748 453092.000000 0 0 1
8.240436 26.360785 -29.188814 40.184358 1.267818 2.383826 0.075685 -0.036601 -2901.510000 0 0 1
8.997736 26.947685 -30.250074 41.499446 1.248539 2.387550 0.080962 -0.036960 -332054.000000 0 0 1
10.455236 27.118285 -29.835954 41.652101 1.202816 2.369301 0.086838 -0.037122 -567644.000000 0 0 1
11.259436 27.806485 -30.747474 42.957918 1.186055 2.368505 0.092476 -0.034569 26127.000000 0 0 1
12.504236 28.171585 -30.154884 43.119731 1.153060 2.345255 0.092592 -0.032420 267721.000000 0 0 1
13.277336 29.130285 -31.074684 44.614988 1.143137 2.341315 0.087057 -0.030713 -167647.000000 0 0 1
12.708736 30.413985 -31.166424 45.363735 1.174990 2.328195 0.096121 -0.030810 218540.000000 0 0 1
13.581736 31.154985 -31.971374 46.661177 1.159695 2.325649 0.116076 -0.034485 100144.000000 0 0 1
13.113236 32.613585 -32.118494 47.615130 1.188499 2.311143 0.119757 -0.038470 132436.000000 0 0 1
11.933136 32.780385 -32.879724 47.937769 1.221675 2.326613 0.107428 -0.041993 33016.100000 0 0 1
11.333736 34.004485 -32.517044 48.395421 1.249075 2.307572 0.087641 -0.033200 -326049.000000 0 0 1
10.107236 -34.090617 -33.360914 48.757328 -1.282571 2.324335 0.065845 -0.031663 -257572.000000 0 0 1
10.258036 -33.396717 33.944927 48.711663 -1.272786 0.799794 0.068665 -0.021457 186870.000000 0 0 1
8.986336 -33.144517 33.361156 47.877761 -1.306035 0.799872 0.076699 -0.026485 453506.000000 0 0 1
9.099636 -32.247117 32.134963 46.425594 -1.295763 0.806288 0.073197 -0.026098 -14509.300000 0 0 1
9.163736 -30.866017 32.437638 45.704326 -1.282197 0.781684 0.052022 -0.028875 33090.100000 0 0 1
9.384936 -30.127217 31.238513 44.402375 -1.268813 0.790440 0.077714 -0.028812 -253928.000000 0 0 1
8.681436 -28.733517 31.195133 43.291092 -1.277381 0.766143 0.068229 -0.041759 983063.000000 0 0 1
7.252336 -28.593317 31.182833 42.924856 -1.322397 0.757652 0.041794 -0.030391 610555.000000 0 0 1
6.670836 -28.837517 32.471713 43.937622 -1.343470 0.739150 0.029853 -0.019555 -1082930.000000 0 0 1
5.168336 -28.666017 32.269633 43.471617 -1.392418 0.734278 0.027529 -0.010071 -198380.000000 0 0 1
4.373236 -29.822917 31.883853 43.876095 -1.425194 0.757320 0.031059 -0.018470 343320.000000 0 0 1
4.711236 -30.375817 30.578243 43.357986 -1.416924 0.788020 0.050120 -0.018908 -488483.000000 0 0 1
4.251436 -29.492817 29.389463 41.852617 -1.427631 0.792295 0.032078 -0.020788 637943.000000 0 0 1
2.823136 -29.456317 29.261963 41.616189 -1.475247 0.790994 0.041460 -0.025556 880200.000000 0 0 1
2.462536 -28.731817 28.059723 40.235923 -1.485298 0.799061 0.053394 -0.024526 162140.000000 0 0 1
1.031236 -29.067717 27.558273 40.068118 -1.535334 0.812362 0.044690 -0.024889 149467.000000 0 0 1
0.902536 -30.338917 26.884203 40.546576 -1.541057 0.845917 0.050195 -0.028238 25209.600000 0 0 1
0.838436 -31.478817 27.691613 41.933809 -1.544168 0.849492 0.068780 -0.030226 -478328.000000 0 0 1
1.120136 -32.773617 26.849603 42.382377 -1.536632 0.884717 0.078737 -0.034188 -182903.000000 0 0 1
2.471636 -33.068017 26.619933 42.523212 -1.496191 0.894371 0.073735 -0.026043 -187432.000000 0 0 1
3.119636 -32.413817 25.534583 41.381187 -1.474848 0.905798 0.067400 -0.029896 -545782.000000 0 0 1
4.617536 -32.702117 25.551753 41.756942 -1.430524 0.912315 0.077709 -0.027304 -293923.000000 0 0 1
5.308336 -32.123917 24.429173 40.705147 -1.407031 0.927108 0.070695 -0.031070 254546.000000 0 0 1
6.710236 -32.116917 24.624153 41.022830 -1.364828 0.926977 0.065698 -0.027325 254954.000000 0 0 1
7.512636 -31.486317 23.434523 39.962542 -1.336576 0.944174 0.053025 -0.016315 -234599.000000 0 0 1
8.882036 -31.385217 23.720003 40.330646 -1.295007 0.942041 0.037114 -0.010146 -285680.000000 0 0 1
9.509736 -30.764217 22.621653 39.352399 -1.270997 0.958378 0.029006 -0.009425 193096.000000 0 0 1
10.732136 -29.891717 23.014153 39.221738 -1.226096 0.943732 0.017029 -0.004364 852484.000000 0 0 1
11.887036 -30.545517 23.582173 40.378820 -1.199671 0.947120 0.027823 -0.010143 945985.000000 0 0 1
12.960536 -29.618917 23.607943 40.032371 -1.158322 0.940083 0.037106 -0.012108 1006210.000000 0 0 1
14.198136 -29.798717 24.563773 41.145225 -1.126151 0.931038 0.054853 -0.007244 700723.000000 0 0 1
13.775536 -29.687117 25.907543 41.740761 -1.136341 0.901190 0.042460 -0.009158 453580.000000 0 0 1
14.874336 -29.437917 26.781133 42.486068 -1.102935 0.888791 0.050944 -0.016039 236266.000000 0 0 1
-10.849164 -13.928815 26.203393 31.596425 0.909054 0.592915 0.055081 -0.024582 286601.000000 0 0 1
-9.471964 -13.804015 25.866103 30.811105 0.969410 0.574423 0.040264 -0.022213 -147761.000000 0 0 1
-8.742064 -14.181315 27.027743 31.749524 1.018369 0.552376 0.048584 -0.024240 150249.000000 0 0 1
-7.227464 -14.090615 26.695443 31.039142 1.096860 0.535414 0.071641 -0.016492 101763.000000 0 0 1
-6.616664 -15.036615 25.840053 30.620065 1.156259 0.566298 0.068240 -0.024803 77013.000000 0 0 1
-6.896764 -14.802715 24.462973 29.412969 1.134789 0.588621 0.059407 -0.017912 -394267.000000 0 0 1
-6.221064 -15.880815 23.574223 29.097180 1.197436 0.626321 0.057182 -0.018510 196532.000000 0 0 1
-6.864364 -17.176715 23.471123 29.883986 1.190607 0.667441 0.062233 -0.011631 -49162.400000 0 0 1
-6.843264 -18.039515 24.589323 31.255226 1.208219 0.665308 0.065423 -0.012314 -228822.000000 0 0 1
-7.632064 -19.340615 24.196353 31.902528 1.194942 0.709871 0.066876 -0.013024 -222664.000000 0 0 1
-9.019664 -19.208315 24.339723 32.291420 1.131787 0.717043 0.037308 -0.001258 -959087.000000 0 0 1
-9.533164 -20.347015 23.737133 32.685375 1.132641 0.757973 0.040228 -0.004924 612494.000000 0 0 1
-11.101264 -20.339515 23.815353 33.228075 1.071185 0.771703 0.029106 -0.004168 638691.000000 0 0 1
-11.615264 -20.494815 25.121553 34.438993 1.055191 0.753278 0.031272 -0.006570 -380469.000000 0 0 1
-13.018664 -20.531015 25.111843 34.951579 1.005682 0.769189 0.034238 -0.007349 -257551.000000 0 0 1
-13.605564 -20.725415 26.500293 36.289389 0.989888 0.752110 0.039849 -0.013082 -700843.000000 0 0 1
-13.294864 -21.978715 27.160023 37.382939 1.026784 0.757530 0.042080 -0.006891 74995.000000 0 0 1
-12.477364 -21.791515 28.297383 37.832481 1.050783 0.725805 0.044342 -0.010324 183348.000000 0 0 1
-12.056564 -23.099815 29.055193 39.027765 1.089756 0.731048 0.046063 -0.006662 -496941.000000 0 0 1
-13.122664 -23.655915 29.727733 40.193839 1.064328 0.738307 0.032016 -0.002058 -583433.000000 0 0 1
-12.789364 -24.957615 30.164923 41.187048 1.097244 0.748973 0.031035 -0.002680 -304693.000000 0 0 1
-13.885664 -25.596645 31.001183 42.533202 1.073745 0.754126 0.019028 -0.017770 -107905.000000 0 0 1
-13.932664 -24.937615 32.242903 43.076775 1.061298 0.725001 0.042357 -0.013866 557008.000000 0 0 1
-15.100464 -25.325825 32.990159 44.246717 1.033140 0.729368 0.036386 -0.017687 601974.000000 0 0 1
-14.872964 -24.764215 -34.032764 44.639673 1.029948 2.437792 0.032428 -0.019864 113122.000000 0 0 1
-14.797264 -23.307315 -33.881224 43.705003 1.005126 2.457868 0.040725 -0.025388 93966.300000 0 0 1
-15.972464 -22.606915 34.180541 43.982969 0.955701 0.680702 0.032523 -0.027235 -151570.000000 0 0 1
-15.963464 -21.098215 -34.085460 43.148412 0.923068 2.481538 0.024182 -0.018804 -347275.000000 0 0 1
-16.107164 -20.802115 -32.700674 41.970261 0.911921 2.464088 0.019537 -0.012080 10303.300000 0 0 1
-16.093164 -19.419315 -32.426804 41.080376 0.878787 2.480546 0.013165 -0.013701 -331170.000000 0 0 1
-16.176164 -19.152415 -30.954324 39.832819 0.869445 2.460851 0.014178 0.001899 -408782.000000 0 0 1
-17.358064 -19.670315 -30.420374 40.169924 0.847763 2.429953 0.015492 0.001884 -387858.000000 0 0 1
-17.508364 -19.489515 -29.012864 39.091307 0.838895 2.407117 0.005278 0.013266 363361.000000 0 0 1
-16.645664 -20.454315 -28.089974 38.529258 0.887699 2.387738 0.000842 0.010428 -810445.000000 0 0 1
-15.294964 -20.351915 -28.297154 38.063963 0.926320 2.408952 0.008359 0.007896 -1333930.000000 0 0 1
-14.635864 -21.503915 -27.761484 38.043749 0.973200 2.388716 0.016303 0.000347 943780.000000 0 0 1
-13.076264 -21.319815 -27.766044 37.369458 1.020627 2.408359 0.066826 -0.011004 282751.000000 0 0 1
-12.650464 -20.359215 -26.810074 35.962646 1.014817 2.412078 0.061666 -0.019120 298388.000000 0 0 1
-11.233964 -20.277015 -26.723154 35.376351 1.064868 2.427055 0.037107 -0.031625 783532.000000 0 0 1
-10.466964 -21.403215 -25.917234 35.204516 1.115958 2.398221 0.057089 -0.039809 -249530.000000 0 0 1
-10.188264 -22.633015 -26.555434 36.348936 1.147817 2.389952 0.064434 -0.034422 130479.000000 0 0 1
-9.756664 -23.548415 -25.565854 36.101707 1.178003 2.357688 0.085693 -0.035352 -77610.200000 0 0 1
-9.679564 -25.010515 -26.042634 37.382330 1.201530 2.341522 0.077827 -0.034225 -248572.000000 0 0 1
-8.637464 -25.359005 -26.918874 37.977766 1.242513 2.358601 0.084405 -0.035282 26905.500000 0 0 1
-8.907264 -26.645795 -27.486584 39.304580 1.248190 2.345246 0.074153 -0.029234 107168.000000 0 0 1
-8.712164 -27.947865 -26.656314 39.592222 1.268614 2.309421 0.074794 -0.026373 -235580.000000 0 0 1
-9.846064 -28.229515 -25.870174 39.536267 1.235203 2.284106 0.070161 -0.025659 -176984.000000 0 0 1
-9.661164 -29.421745 -25.079594 39.849256 1.253521 2.251528 0.087346 -0.025642 -623030.000000 0 0 1
-10.622864 -29.727675 -23.919194 39.606915 1.227598 2.219200 0.089341 -0.032565 -463814.000000 0 0 1
-10.619364 -28.725435 -22.873794 38.224756 1.216693 2.212302 0.075023 -0.038536 -269085.000000 0 0 1
-11.360164 -27.557445 -23.222594 37.785645 1.179787 2.232660 0.072678 -0.032367 -252439.000000 0 0 1
-11.260564 -26.405515 -22.175894 36.274258 1.167700 2.228549 0.074133 -0.032579 17151.300000 0 0 1
-11.875964 -26.706055 -20.937194 35.952997 1.152365 2.192412 0.063622 -0.034159 72004.500000 0 0 1
-11.855764 -25.577335 -20.052194 34.595515 1.136751 2.189057 0.051067 -0.025746 32869.000000 0 0 1
-12.654664 -25.818965 -18.737594 34.319920 1.115075 2.148341 0.057147 -0.023537 -793918.000000 0 0 1
-14.019764 -25.992935 -18.811394 35.015068 1.076152 2.137954 0.074557 -0.028313 -1151060.000000 0 0 1
-14.443464 -26.305505 -17.493394 34.736322 1.068670 2.098563 0.080591 -0.028550 -887571.000000 0 0 1
-15.924564 -26.562215 -17.306794 35.477713 1.030730 2.080389 0.096250 -0.032069 -1777210.000000 0 0 1
-16.574064 -25.329105 -17.305994 34.867758 0.991370 2.090165 0.082166 -0.020304 615304.000000 0 0 1
-17.989564 -25.385835 -17.033694 35.471281 0.954291 2.071691 0.091918 -0.017110 1361870.000000 0 0 1
-18.955464 -25.907875 -18.151394 36.878187 0.939144 2.085410 0.088635 -0.018994 -653914.000000 0 0 1
-18.769964 -27.270315 -18.483094 37.915780 0.967971 2.079995 0.103284 -0.018022 -267615.000000 0 0 1
-19.036664 -28.299535 -17.575194 38.368551 0.978639 2.046611 0.108256 -0.029739 -581194.000000 0 0 1
-20.497664 -28.538255 -17.128894 39.089452 0.947925 2.024389 0.100862 -0.019019 -280439.000000 0 0 1
-21.224464 -29.344235 -17.979694 40.433048 0.944608 2.031611 0.093723 -0.024342 -482604.000000 0 0 1
-22.285764 -29.961805 -17.279594 41.145466 0.931271 2.004201 0.089883 -0.010426 -50182.500000 0 0 1
-23.001364 -30.925265 -18.246394 42.642299 0.931293 2.012958 0.060114 -0.019519 -301971.000000 0 0 1
-22.323864 -32.127575 -18.437094 43.248843 0.963535 2.011198 0.061672 -0.025146 -137655.000000 0 0 1
-22.699264 -32.752775 -19.634494 44.424252 0.964751 2.028598 0.036625 0.003166 -29820.600000 0 0 1
-22.120864 -34.203575 -19.705294 45.249484 0.996715 2.021369 0.038203 -0.003109 176321.000000 0 0 1
-22.777764 33.237792 -18.986394 44.542794 -0.970006 2.011140 0.026292 0.003469 -402536.000000 0 0 1
-21.915864 32.163428 -18.805494 43.225430 -0.972669 2.020897 0.021228 -0.005167 -526049.000000 0 0 1
-22.625464 30.860168 -18.376394 42.449423 -0.938160 2.018505 0.019129 -0.001656 100375.000000 0 0 1
-23.246064 30.901538 -17.095794 42.279436 -0.925849 1.987067 0.007216 -0.006211 -180941.000000 0 0 1
-23.910964 29.710188 -16.681094 41.625574 -0.893131 1.983122 0.009958 -0.005914 216999.000000 0 0 1
-23.019064 28.459108 -16.392494 40.106259 -0.890684 1.991855 0.012142 -0.012731 59105.000000 0 0 1
-22.596364 27.836128 -17.596494 39.938482 -0.888923 2.027052 0.013037 -0.008546 -114132.000000 0 0 1
-22.058964 26.566928 -17.265894 38.607133 -0.877841 2.034451 0.009080 -0.010568 115400.000000 0 0 1
-21.246964 25.971408 -18.456594 38.296128 -0.885121 2.073669 0.027186 -0.007126 -739915.000000 0 0 1
-21.124464 24.584588 -18.497294 37.320167 -0.860953 2.089366 0.030925 -0.018594 479631.000000 0 0 1
-20.345964 24.105128 -19.641894 37.159379 -0.869766 2.127729 0.025239 -0.011270 883400.000000 0 0 1
-18.830764 24.448968 -19.643594 36.581697 -0.914488 2.137648 0.025353 -0.016431 -716211.000000 0 0 1
-18.141464 24.052018 -18.485194 35.345646 -0.924575 2.121144 0.037380 -0.020047 135862.000000 0 0 1
-16.881664 24.683008 -18.358194 35.089383 -0.970931 2.121379 0.064213 -0.035045 7822.230000 0 0 1
-16.920764 26.019848 -17.550994 35.656446 -0.994209 2.085440 0.059115 -0.030472 -358108.000000 0 0 1
-17.728964 27.103918 -17.969694 37.038473 -0.991537 2.077346 0.042088 -0.026477 -107297.000000 0 0 1
-17.607064 28.286208 -17.143394 37.470178 -1.014025 2.046002 0.054344 -0.031453 -311441.000000 0 0 1
-18.817864 29.245388 -17.285994 38.835684 -0.999041 2.032089 0.040347 -0.023386 4403.290000 0 0 1
-18.951364 29.913398 -18.462394 39.935268 -1.006079 2.051393 0.047551 -0.027415 -2036.260000 0 0 1
-19.328464 29.092668 -19.539094 40.021857 -0.984381 2.080835 0.035908 -0.023781 -683579.000000 0 0 1
-19.259064 29.649848 -20.996894 41.120489 -0.994737 2.106701 0.047160 -0.028582 782084.000000 0 0 1
-20.269064 30.661098 -21.269094 42.465424 -0.986680 2.095385 0.051612 -0.024456 736444.000000 0 0 1
-20.453064 30.967758 -22.636994 43.471409 -0.987101 2.118506 0.057888 -0.025552 414782.000000 0 0 1
-21.327664 32.264748 -22.916394 44.956027 -0.986713 2.105692 0.056492 -0.025170 556331.000000 0 0 1
-20.637064 33.559797 -22.772094 45.505128 -1.019468 2.094891 0.034456 -0.021883 -9984.330000 0 0 1
-20.360064 34.047947 -24.049094 46.391312 -1.031862 2.115771 0.048395 -0.008706 56308.900000 0 0 1
-19.031664 -33.627565 -24.089594 45.533788 1.055787 2.128276 0.069912 -0.009468 58125.100000 0 0 1
-18.849164 -32.554725 -23.190794 44.191787 1.045962 2.123248 0.064945 -0.020081 -142229.000000 0 0 1
-18.452664 -32.944935 -21.874094 43.638807 1.060227 2.095843 0.077306 -0.030398 -257790.000000 0 0 1
-18.362164 -31.783575 -20.839394 42.209537 1.046917 2.087150 0.087815 -0.040940 -468604.000000 0 0 1
-17.333864 -30.868045 -21.072794 41.199049 1.059131 2.107711 0.088085 -0.044007 -249898.000000 0 0 1
-17.063064 -30.048575 -19.964694 39.908069 1.054353 2.094704 0.089299 -0.037503 -232152.000000 0 0 1
-15.719864 -29.322475 -20.152094 38.897668 1.078685 2.115401 0.098913 -0.040501 652799.000000 0 0 1
-14.529664 -30.124885 -20.078294 39.009713 1.121397 2.111454 0.102488 -0.044189 -392770.000000 0 0 1
-13.436564 -29.365245 -20.352794 38.171915 1.141668 2.133160 0.087421 -0.043615 -984954.000000 0 0 1
-12.058264 -30.086555 -20.466094 38.333582 1.189613 2.133996 0.093455 -0.043561 560094.000000 0 0 1
-11.336364 -30.536885 -19.348894 37.886596 1.215330 2.106802 0.093106 -0.037662 153653.000000 0 0 1
-10.834664 -29.512705 -18.501094 36.478489 1.218953 2.102704 0.077490 -0.033436 -260544.000000 0 0 1
-10.049764 -30.017745 -17.244794 36.047825 1.247732 2.069613 0.070434 -0.016931 -39674.400000 0 0 1
-10.832864 -30.631715 -16.256894 36.330971 1.230875 2.034727 0.082401 -0.025491 -144221.000000 0 0 1
-11.214864 -31.977975 -16.473094 37.679263 1.233493 2.023271 0.091066 -0.028015 73828.400000 0 0 1
-12.379164 -32.469745 -15.594994 38.088474 1.206556 1.992638 0.094996 -0.028287 -244062.000000 0 0 1
-11.942564 -32.818675 -14.332894 37.750789 1.221797 1.960237 0.087969 -0.023743 61269.000000 0 0 1
-13.066464 -32.970135 -13.467594 37.935977 1.193473 1.933719 0.084769 -0.011844 -425841.000000 0 0 1
-12.761464 -33.657525 -12.128994 37.984160 1.208387 1.895805 0.060193 -0.016574 325715.000000 0 0 1
-11.886564 -32.942285 -11.234694 36.779109 1.224506 1.881222 0.050989 -0.015021 370052.000000 0 0 1
-11.817664 -33.487995 -10.007994 36.895297 1.231547 1.845492 0.049711 -0.019502 -804323.000000 0 0 1
-10.716564 -32.819215 -9.215894 35.733434 1.255178 1.831651 0.038770 -0.023905 -415653.000000 0 0 1
-9.475264 -33.175345 -9.780594 35.861458 1.292592 1.847029 0.039299 -0.022516 -16156.300000 0 0 1
-8.351864 -32.458445 -9.271294 34.774432 1.318950 1.840673 0.023701 -0.024314 1118770.000000 0 0 1
-6.965064 -32.943525 -9.802794 35.069683 1.362440 1.854094 0.035836 -0.027836 423010.000000 0 0 1
-6.581264 34.232140 -9.457194 36.119122 -1.380860 1.835718 0.037196 -0.018459 -513052.000000 0 0 1
-5.509664 33.780608 -10.229094 35.722826 -1.409119 1.861207 0.046939 -0.020045 -241322.000000 0 0 1
-4.737264 32.665595 -9.515194 34.351444 -1.426777 1.851462 0.059146 -0.023129 -63009.700000 0 0 1
-4.032164 33.064338 -8.374994 34.346024 -1.449446 1.817122 0.063511 -0.029457 -42212.900000 0 0 1
-3.346364 32.034758 -7.659594 33.107299 -1.466713 1.804268 0.058975 -0.023962 251541.000000 0 0 1
-2.827564 32.623819 -6.325294 33.351433 -1.484341 1.761608 0.054304 -0.019980 902457.000000 0 0 1
-1.600464 33.413720 -6.408494 34.060343 -1.522934 1.760076 0.039373 -0.018578 993407.000000 0 0 1
-1.404864 34.149283 -5.224494 34.575172 -1.529681 1.722483 0.034843 -0.016620 358759.000000 0 0 1
-0.382564 33.472509 -4.229194 33.740796 -1.559368 1.696471 0.036010 -0.009124 431992.000000 0 0 1
0.939536 33.509552 -4.744194 33.856760 1.542766 1.711384 0.036701 -0.010915 166971.000000 0 0 1
1.830136 32.662064 -4.028694 32.960434 1.514822 1.693331 0.034520 -0.007920 636424.000000 0 0 1
3.334136 32.786280 -4.382994 33.245560 1.469452 1.703018 0.030118 -0.001245 444695.000000 0 0 1
3.925236 34.034697 -4.101994 34.504992 1.455973 1.689959 0.030061 -0.000606 -1453380.000000 0 0 1
5.294936 34.049508 -4.159394 34.708874 1.416525 1.690922 0.047814 -0.006886 -959402.000000 0 0 1
5.808236 -33.097335 -3.603194 33.795742 -1.397076 1.677616 0.045104 -0.005735 -74287.300000 0 0 1
5.515036 -31.951615 -4.424394 32.724556 -1.399875 1.706413 0.043010 -0.012978 -96439.400000 0 0 1
6.143036 -30.777985 -3.973194 31.635542 -1.373793 1.696722 0.043155 -0.019456 -33982.000000 0 0 1
5.883636 -29.581675 -4.882594 30.553762 -1.374464 1.731288 0.044788 -0.019235 -213947.000000 0 0 1
6.647136 -29.537555 -6.062994 30.877361 -1.349444 1.768438 0.049134 -0.018144 -189337.000000 0 0 1
6.560836 -28.326915 -6.822994 29.866568 -1.343198 1.801281 0.056450 -0.017100 58313.300000 0 0 1
7.068936 -27.014685 -6.211294 28.606699 -1.314865 1.789667 0.054562 -0.022153 -335868.000000 0 0 1
6.238536 -26.578305 -5.217394 27.794726 -1.340247 1.759628 0.049497 -0.021041 -786418.000000 0 0 1
6.754436 -25.479405 -4.543194 26.748141 -1.311663 1.741475 0.047167 -0.025146 -52345.800000 0 0 1
5.857436 -25.091565 -3.340594 25.981835 -1.341461 1.699727 0.048578 -0.026948 105987.000000 0 0 1
4.681936 -24.465815 -3.790894 25.196577 -1.381716 1.721823 0.042479 -0.025109 -464963.000000 0 0 1
3.897436 -23.948315 -2.731094 24.416606 -1.409467 1.682885 0.035888 -0.018166 728495.000000 0 1 0
2.613036 -23.264215 -3.315494 23.644114 -1.458945 1.711485 0.041717 -0.018029 1128770.000000 0 1 0
1.684436 -24.111215 -4.000394 24.498799 -1.501049 1.734820 0.041975 -0.017136 -222718.000000 0 1 0
0.495236 -23.466615 -4.360994 23.873532 -1.549696 1.754498 0.029164 -0.012889 46745.700000 0 1 0
-15.250564 23.361185 18.089153 33.249694 -0.992444 0.995552 -0.001175 -0.008845 -117344.000000 0 0 1
-15.403064 22.798385 19.376153 33.651985 -0.976620 0.957238 0.019757 -0.010534 250126.000000 0 0 1
-15.132564 23.795985 20.383953 34.795818 -1.004376 0.944910 0.022401 -0.006503 -899824.000000 0 0 1
-15.029364 23.257885 21.787053 35.234737 -0.997094 0.904167 0.042739 -0.008688 188290.000000 0 0 1
-13.897464 22.423885 22.126953 34.432139 -1.015973 0.872877 0.040384 -0.006086 811431.000000 0 0 1
-12.589964 22.933685 21.992453 34.177904 -1.068742 0.871774 0.015641 -0.016571 -407474.000000 0 0 1
-12.287864 23.997485 23.082753 35.492033 -1.097557 0.862732 0.031368 -0.000498 -906236.000000 0 0 1
-12.198564 23.518085 24.387883 36.009362 -1.092310 0.826757 0.020343 0.009292 35960.400000 0 0 1
-11.856464 24.536585 25.267823 37.162920 -1.120666 0.823142 0.044236 0.002377 683.080000 0 0 1
-11.464664 23.873385 26.622923 37.552058 -1.123091 0.782773 0.036138 -0.000096 63420.300000 0 0 1
-10.092364 23.571285 26.703833 37.021021 -1.166249 0.765097 0.011438 0.000617 -472219.000000 0 0 1
-9.808664 22.974485 28.011793 37.532618 -1.167286 0.728262 0.001617 0.001475 -521023.000000 0 0 1
-8.335364 22.531685 28.128773 36.991662 -1.216469 0.706854 0.008183 -0.008989 417563.000000 0 0 1
-7.343964 23.522485 28.301503 37.526207 -1.268175 0.716392 0.018323 -0.004630 -116606.000000 0 0 1
-7.126164 24.384185 27.213993 37.228647 -1.286469 0.751016 0.021002 -0.005401 -1074700.000000 0 0 1
-6.036564 25.394385 27.532813 37.939040 -1.337415 0.758728 0.023418 -0.012690 13971.100000 0 0 1
-4.700664 24.967685 27.367723 37.342654 -1.384705 0.748249 0.019045 -0.012482 97321.100000 0 0 1
-3.777964 25.788285 28.079843 38.311699 -1.425332 0.748176 0.027015 -0.010564 495610.000000 0 0 1
-2.295664 25.376385 27.988633 37.849631 -1.480577 0.738515 0.035652 -0.010648 69912.100000 0 0 1
-1.642664 25.466885 26.760143 36.977910 -1.506384 0.761678 0.029294 -0.014380 -676156.000000 0 0 1
-0.277964 25.172785 26.811163 36.777505 -1.559755 0.753922 0.037844 -0.002677 -17831.900000 0 0 1
0.320836 24.943885 25.345093 35.562257 1.557935 0.777462 0.029992 -0.006944 43195.800000 0 0 1
-0.028964 23.705685 24.726603 34.254420 -1.569575 0.764322 0.030524 -0.003108 -181517.000000 0 0 1
0.425636 23.566185 23.442993 33.243348 1.552737 0.788100 0.040694 -0.002935 -520149.000000 0 0 1
0.077536 22.245285 22.724253 31.800164 1.567311 0.774751 0.013408 0.001801 157529.000000 0 0 1
0.828136 21.129085 23.149653 31.353317 1.531622 0.740179 0.039266 -0.001787 -71823.200000 0 0 1
0.301436 19.957485 22.518953 30.091450 1.555694 0.725224 0.043645 -0.002862 -45382.000000 0 0 1
1.030036 18.647885 22.771953 29.451086 1.515616 0.686905 0.050995 0.003348 391435.000000 0 0 1
2.347236 18.649585 22.228453 29.110491 1.445595 0.701943 0.054474 -0.004386 77431.800000 0 0 1
3.060636 17.435985 22.377753 28.533225 1.397031 0.669278 0.057392 -0.015153 660078.000000 0 0 1
4.542036 17.553985 21.867453 28.407006 1.317603 0.692283 0.050106 -0.011285 635300.000000 0 0 1
5.272836 18.467485 22.693853 29.729813 1.292676 0.702334 0.036179 -0.009010 -1034900.000000 0 0 1
6.457836 18.745385 22.020353 29.630880 1.239027 0.733022 0.053762 -0.014904 -964697.000000 0 0 1
7.538236 19.354285 22.921353 30.932213 1.199386 0.736210 0.060213 -0.021820 -631034.000000 0 0 1
7.298436 20.607385 23.625253 32.188260 1.230415 0.746646 0.040958 -0.010913 -35319.500000 0 0 1
6.898536 21.697585 22.789253 32.213740 1.262963 0.784928 0.043207 -0.017766 -86282.300000 0 0 1
5.695236 22.465185 23.405953 32.938714 1.322513 0.780459 0.019017 -0.005616 168976.000000 0 0 1
5.331236 23.651185 22.750253 33.247175 1.349091 0.817186 0.010135 -0.006860 348197.000000 0 0 1
4.113336 24.251085 23.178953 33.797907 1.402781 0.815080 0.005161 -0.001311 -6115.350000 0 0 1
3.903236 25.587285 22.490953 34.289756 1.419417 0.855410 0.010483 -0.007853 -41033.500000 0 0 1
3.702736 25.652985 21.107453 33.426195 1.427447 0.887356 0.017674 -0.008596 172379.000000 0 0 1
2.566336 24.961485 20.592553 32.460978 1.468344 0.883592 0.023241 -0.008471 -98305.300000 0 0 1
2.299936 25.421385 19.176753 31.926234 1.480569 0.926472 0.031575 -0.013609 -135346.000000 0 0 1
1.550936 26.649885 19.093653 32.820563 1.512665 0.949907 0.035945 -0.011018 304016.000000 0 0 1
1.270536 27.019585 17.752853 32.354846 1.523808 0.989997 0.044229 -0.008087 530133.000000 0 0 1
0.264036 28.237385 17.665053 33.308764 1.561446 1.011792 0.035996 0.001047 522708.000000 0 0 1
0.702436 29.322685 18.402553 34.626107 1.546846 1.010468 0.046899 0.003095 -45111.800000 0 0 1
-0.341064 30.266385 18.438753 35.442320 -1.559528 1.023656 0.028933 0.005478 -100659.000000 0 0 1
0.013336 31.651685 18.970153 36.901166 1.570375 1.030862 0.031828 0.013138 -147798.000000 0 0 1
0.187236 31.570385 20.384253 37.579809 1.564866 0.997475 0.041008 0.012819 -18331.200000 0 0 1
0.763636 32.759285 20.869753 38.849717 1.547490 1.003692 0.036872 0.001689 -208536.000000 0 0 1
1.331136 32.716285 22.286153 39.608078 1.530132 0.973188 0.045272 -0.006489 101601.000000 0 0 1
0.334536 32.415485 23.239053 39.886454 1.560476 0.948835 0.039527 -0.000304 355687.000000 0 0 1
0.946336 32.582285 24.478633 40.764008 1.541760 0.926675 0.057940 -0.014567 461669.000000 0 0 1
-0.125764 32.297985 25.569423 41.194309 -1.566902 0.901158 0.053999 -0.015542 565385.000000 0 0 1
-1.063664 33.364585 25.810853 42.196292 -1.538927 0.912607 0.056595 -0.006974 794938.000000 0 0 1
-2.096464 32.999985 26.729583 42.518994 -1.507352 0.890980 0.050055 -0.009325 313265.000000 0 0 1
-1.825964 33.536185 28.131583 43.810910 -1.516402 0.873544 0.061241 -0.017632 27625.900000 0 0 1
-0.627164 32.960385 28.643323 43.671733 -1.551771 0.855451 0.064412 -0.019037 231370.000000 0 0 1
-0.257064 33.372785 29.922193 44.823504 -1.563094 0.839875 0.059326 -0.024523 -755488.000000 0 0 1
0.891936 32.511385 30.446483 44.550803 1.543369 0.818372 0.052946 -0.021856 40888.200000 0 0 1
2.126836 32.688385 29.767383 44.262299 1.505824 0.833185 0.049510 -0.021132 72244.400000 0 0 1
2.345436 32.102585 28.475413 42.975879 1.497865 0.846524 0.056272 -0.023898 21437.400000 0 0 1
3.814236 31.685585 28.085593 42.512648 1.450995 0.849124 0.044093 -0.022330 672930.000000 0 0 1
4.268036 30.670585 28.941283 42.385125 1.432527 0.819185 0.043345 -0.023563 1363360.000000 0 0 1
5.638136 30.373685 28.499583 42.030650 1.387260 0.825667 0.053830 -0.029816 1350030.000000 0 0 1
6.190436 29.169485 29.229383 41.755685 1.361676 0.795385 0.066641 -0.021914 -364790.000000 0 0 1
6.479336 29.497385 30.573013 42.974256 1.354572 0.779271 0.069963 -0.027606 899.752000 0 0 1
7.231536 28.479385 31.175033 42.839855 1.322130 0.755818 0.065996 -0.023775 -78802.600000 0 0 1
7.196136 28.660985 32.710471 44.081871 1.324804 0.734689 0.087513 -0.028167 -681827.000000 0 0 1
5.946136 28.564985 33.328426 44.295586 1.365565 0.719084 0.076559 -0.028778 -747458.000000 0 0 1
5.843636 28.297485 -33.765984 44.441393 1.367152 2.433781 0.095677 -0.030449 -125395.000000 0 0 1
5.881636 26.810985 -33.411654 43.240735 1.354843 2.453863 0.088751 -0.023170 138478.000000 0 0 1
7.197036 26.317485 -33.602544 43.284389 1.303853 2.459603 0.075192 -0.025190 109522.000000 0 0 1
7.205136 24.987685 -33.207794 42.178857 1.290064 2.477229 0.073426 -0.027593 -390495.000000 0 0 1
8.580236 24.331185 -33.214234 42.057251 1.231768 2.481179 0.075670 -0.026754 -373711.000000 0 0 1
9.086136 24.069585 33.938998 42.588243 1.209841 0.648634 0.053330 -0.011869 617583.000000 0 0 1
10.393636 23.506685 33.846724 42.499325 1.154484 0.649467 0.063277 -0.028639 421225.000000 0 0 1
10.532636 22.006285 34.141519 41.962559 1.124399 0.620447 0.054938 -0.024232 -646633.000000 0 0 1
10.121636 21.192185 33.044345 40.539918 1.125219 0.617884 0.054574 -0.017694 159628.000000 0 0 1
9.819336 19.815385 33.370276 40.033038 1.110722 0.585260 0.041811 -0.015088 353295.000000 0 0 1
8.460736 19.484685 34.050852 40.133497 1.161138 0.557766 0.050144 -0.017064 -169262.000000 0 0 1
8.359136 19.924385 -33.105784 39.532888 1.173557 2.563349 0.060696 -0.011712 117893.000000 0 0 1
7.145636 20.588285 -32.769224 39.354284 1.236732 2.554712 0.068403 -0.015708 -10766.400000 0 0 1
6.937036 20.885385 -31.314444 38.274224 1.250113 2.529000 0.080672 -0.027408 -625427.000000 0 0 1
7.764236 21.900285 -30.915254 38.673748 1.230095 2.497069 0.089431 -0.024682 -280413.000000 0 0 1
7.382036 22.344485 -29.609004 37.821470 1.251712 2.470049 0.074117 -0.021012 544475.000000 0 0 1
8.564036 23.066085 -28.807234 37.884611 1.215289 2.434716 0.075708 -0.031804 789112.000000 0 0 1
9.550536 22.075285 -28.575954 37.351253 1.162477 2.441931 0.074260 -0.020943 -186398.000000 0 0 1
10.831636 22.578685 -28.951594 38.279448 1.123497 2.428469 0.084699 -0.031350 655904.000000 0 0 1
11.893736 21.422885 -29.030984 37.989459 1.063978 2.440574 0.073516 -0.045582 141731.000000 0 0 1
11.862836 20.378785 -30.033474 38.184176 1.043630 2.475986 0.063462 -0.035733 -571074.000000 0 0 1
10.646036 19.704685 -30.143324 37.553065 1.075447 2.502582 0.063658 -0.025820 -479831.000000 0 0 1
10.689336 18.595685 -31.294204 37.939275 1.049091 2.540733 0.069721 -0.022726 -246056.000000 0 0 1
11.129436 17.281685 -30.976104 37.175799 0.998649 2.555726 0.068625 -0.022029 197492.000000 0 0 1
10.925036 16.351185 -32.010684 37.568625 0.981768 2.590703 0.062544 -0.013483 -71092.800000 0 0 1
12.079836 16.198885 -33.056844 38.743790 0.930040 2.592918 0.053377 -0.000727 57704.600000 0 0 1
12.361436 17.399485 -33.755474 39.937191 0.953092 2.577762 0.057448 -0.014638 -156795.000000 0 0 1
13.254436 17.042885 33.708421 40.029960 0.909795 0.569668 0.058475 -0.016925 -113480.000000 0 0 1
12.603936 16.683785 32.315283 38.490069 0.923810 0.574297 0.063181 -0.019537 -609494.000000 0 0 1
12.955336 17.468385 31.196343 38.028897 0.932664 0.608804 0.059386 -0.021413 -223137.000000 0 0 1
12.340436 17.135385 29.990673 36.678989 0.946660 0.613474 0.067911 -0.019188 -25966.900000 0 0 1
10.846336 17.517085 29.846053 36.266764 1.016389 0.604197 0.044740 -0.015378 -206058.000000 0 0 1
10.074736 16.696185 30.659783 36.335729 1.027869 0.566487 0.043726 -0.011060 154554.000000 0 0 1
8.671736 16.944785 30.456193 35.915240 1.097782 0.558592 0.033931 -0.006765 936389.000000 0 0 1
7.738236 16.130485 31.353823 36.098962 1.123498 0.518523 0.046592 -0.000534 -239897.000000 0 0 1
7.979736 16.326785 32.709412 37.418521 1.116188 0.507113 0.052748 -0.002934 2752.500000 0 0 1
7.487736 15.296085 33.504013 37.583976 1.115568 0.470274 0.063719 -0.003041 -237962.000000 0 0 1
7.606336 15.487385 -33.461994 37.648645 1.114269 2.665509 0.063579 -0.003770 -292353.000000 0 0 1
6.573136 16.320785 -33.000784 37.398207 1.187925 2.651770 0.058460 -0.006574 128205.000000 0 0 1
6.526836 16.467385 -31.578344 36.207267 1.193441 2.630386 0.065990 -0.012701 -160977.000000 0 0 1
5.711736 17.661185 -31.063294 36.186595 1.258007 2.602978 0.060838 -0.017076 -339248.000000 0 0 1
5.542936 17.762485 -29.670894 35.022735 1.268314 2.581469 0.056746 -0.032571 497589.000000 0 0 1
4.764236 18.923385 -29.265884 35.175054 1.324158 2.553512 0.062194 -0.039212 1602270.000000 0 0 1
3.192636 18.736785 -29.227924 34.864475 1.402023 2.565008 0.083063 -0.039701 -62983.800000 0 0 1
2.755236 17.903985 -28.183484 33.503027 1.418105 2.570336 0.092896 -0.039275 5654.910000 0 0 1
1.412636 17.485985 -28.344724 33.334346 1.490185 2.587382 0.095660 -0.034599 -143777.000000 0 0 1
0.346436 18.530485 -28.080474 33.645385 1.552103 2.558204 0.096065 -0.040284 -1439390.000000 0 0 1
0.126136 18.842085 -26.711564 32.688649 1.564102 2.527247 0.104731 -0.051306 60229.800000 0 0 1
-0.570064 20.056685 -26.447324 33.197237 -1.542381 2.492566 0.122502 -0.048613 -110617.000000 0 0 1
-0.887464 20.451185 -24.982394 32.297966 -1.527429 2.455137 0.098778 -0.045144 -478159.000000 0 0 1
-1.692464 19.522185 -24.368494 31.269852 -1.484318 2.464339 0.102448 -0.045411 -375154.000000 0 0 1
-2.250364 20.020385 -23.188394 30.717773 -1.458863 2.426275 0.107539 -0.040440 -168552.000000 0 0 1
-3.354164 19.188285 -22.533194 29.785660 -1.397742 2.428759 0.095456 -0.032236 663162.000000 0 0 1
-4.726364 19.518885 -22.815494 30.395266 -1.333226 2.419806 0.088274 -0.020263 343058.000000 0 0 1
-5.490464 18.441485 -22.380094 29.514440 -1.281429 2.431461 0.078259 -0.026915 962047.000000 0 0 1
-7.050364 18.708985 -22.570694 30.152446 -1.210410 2.416673 0.090012 -0.013826 1637420.000000 0 0 1
-7.708964 19.598885 -21.657694 30.209273 -1.196047 2.370174 0.057049 0.000896 189641.000000 0 0 1
-7.432564 20.989885 -21.893194 31.227076 -1.230472 2.347730 0.060449 -0.008368 -273800.000000 0 0 1
-8.015264 22.085085 -20.955294 31.482055 -1.222652 2.299129 0.058925 -0.015096 104079.000000 0 0 1
-7.228964 22.356985 -19.779094 30.713275 -1.258064 2.270501 0.067502 -0.016025 203457.000000 0 0 1
-7.531364 23.491085 -19.058494 31.173366 -1.260544 2.228588 0.082005 -0.021127 -488700.000000 0 0 1
-6.818964 23.577785 -17.710794 30.266854 -1.289266 2.195867 0.102134 -0.023858 -320096.000000 0 0 1
-5.438764 23.827685 -17.802694 30.236975 -1.346387 2.200335 0.100483 -0.028563 -542914.000000 0 0 1
-4.916464 23.819985 -16.491994 29.386208 -1.367254 2.166650 0.095749 -0.028646 -259362.000000 0 0 1
-3.413864 24.100885 -16.381094 29.340201 -1.430084 2.163151 0.091217 -0.035031 -44824.400000 0 0 1
-2.947664 25.428885 -16.466294 30.437736 -1.455393 2.142402 0.083052 -0.042578 -713862.000000 0 0 1
-1.728964 25.484585 -17.134294 30.757722 -1.503057 2.161653 0.079001 -0.045375 -299976.000000 0 0 1
-1.199964 26.925785 -17.210294 31.978619 -1.526260 2.139074 0.072637 -0.059561 -206213.000000 0 0 1
-1.891964 27.641285 -18.168394 33.131718 -1.502456 2.151208 0.077111 -0.058974 -133771.000000 0 0 1
-1.235364 28.840785 -18.521194 34.297983 -1.527989 2.141243 0.078600 -0.048996 48696.000000 0 0 1
-2.161564 29.792185 -19.371694 35.602095 -1.498369 2.146132 0.112445 -0.040567 615728.000000 0 0 1
-2.956064 30.738185 -18.648594 36.074152 -1.474922 2.114082 0.089664 -0.035631 -172831.000000 0 0 1
-4.288864 30.290085 -18.505894 35.754045 -1.430138 2.114827 0.064380 -0.039810 -278184.000000 0 0 1
-5.100664 31.360285 -17.731094 36.385107 -1.409561 2.079811 0.077235 -0.027770 -119164.000000 0 0 1
-5.633764 32.336385 -18.585994 37.720290 -1.398304 2.086023 0.102933 -0.026699 -134791.000000 0 0 1
-5.957164 33.483385 -17.798794 38.385179 -1.394725 2.052951 0.094088 -0.039158 -238589.000000 0 0 1
-6.814564 -33.929617 -18.502594 39.242875 1.372589 2.061775 0.088507 -0.028247 -201416.000000 0 0 1
-8.149364 34.081685 -18.521194 39.635944 -1.336090 2.057011 0.098420 -0.036095 72544.000000 0 0 1
-8.949564 -33.421017 -19.232894 39.584887 1.309152 2.078148 0.115656 -0.044175 190666.000000 0 0 1
29.256236 -20.680815 -26.059934 44.302862 -0.615332 2.199655 0.056212 -0.003503 145429.000000 0 0 1
28.772736 -21.967015 -25.780164 44.441387 -0.652064 2.189640 0.058090 -0.012810 -332877.000000 0 0 1
27.383436 -22.050215 -26.041604 43.751910 -0.677927 2.208324 0.036619 -0.011983 71066.100000 0 0 1
26.877336 -23.432515 -25.610274 43.901709 -0.717033 2.193649 0.036992 -0.014495 87866.800000 0 0 1
27.419136 -24.654515 -26.210294 45.239735 -0.732357 2.188745 0.045906 -0.003913 641897.000000 0 0 1
28.788036 -25.006015 -25.957134 46.128349 -0.715208 2.168463 0.051908 -0.005479 661616.000000 0 0 1
29.136036 -26.390455 -26.516944 47.418488 -0.735992 2.164230 0.051738 -0.007131 32490.100000 0 0 1
28.464436 -27.423685 -25.811834 47.207344 -0.766778 2.149305 0.064503 -0.020870 -330251.000000 0 0 1
28.732036 -28.737915 -26.348564 48.431854 -0.785500 2.146033 0.051532 -0.011954 269934.000000 0 0 1
27.807236 -29.220645 -27.520094 48.830769 -0.810178 2.169511 0.060593 -0.014239 -188338.000000 0 0 1
27.974136 -28.393575 -28.695104 49.113708 -0.792839 2.194762 0.034974 -0.013105 783019.000000 0 0 1
29.071536 -28.688555 -29.604124 50.443944 -0.778768 2.197986 0.023564 -0.018058 466356.000000 0 0 1
29.180836 -30.136985 -30.140834 51.654902 -0.801516 2.193833 0.029945 -0.016742 -1075540.000000 0 0 1
29.615936 -31.127065 -29.177814 51.935947 -0.810270 2.167361 0.046373 -0.017210 1304910.000000 0 0 1
30.973336 -31.166075 -28.645264 52.452101 -0.788500 2.148525 0.044089 -0.016106 2168410.000000 0 0 1
32.195336 -30.931055 -29.633244 53.585436 -0.765373 2.156768 0.032359 -0.014244 -138945.000000 0 0 1
32.181236 -29.644085 -30.209434 53.169668 -0.744384 2.175077 0.043837 -0.030283 269785.000000 0 0 1
33.377236 -29.230845 -30.906904 54.071424 -0.719267 2.179244 0.047694 -0.022054 437171.000000 0 0 1
33.252936 -27.948655 -31.773694 53.818702 -0.698945 2.202331 0.040404 -0.017038 26509.500000 0 0 1
33.130336 -26.631365 -31.130934 52.687606 -0.677076 2.202919 0.031731 -0.010572 -323397.000000 0 0 1
31.872236 -26.452895 -30.528704 51.454804 -0.692748 2.205962 0.050806 -0.016380 -497736.000000 0 0 1
31.703236 -25.119065 -29.733734 50.201170 -0.670040 2.204696 0.046096 -0.017355 -160195.000000 0 0 1
32.495136 -24.971515 -28.581584 49.964160 -0.655217 2.179789 0.051492 -0.007884 13806.100000 0 0 1
32.379336 -23.694715 -28.045664 48.953245 -0.631741 2.180845 0.046615 -0.004362 14644.400000 0 0 1
33.387936 -23.529515 -26.890284 48.902757 -0.613894 2.153008 0.039728 -0.012178 -259844.000000 0 0 1
33.028936 -24.269215 -25.701024 48.378177 -0.633693 2.130874 0.043770 -0.022553 905641.000000 0 0 1
32.048236 -23.477415 -24.927094 46.900303 -0.632249 2.131156 0.048620 -0.007889 591307.000000 0 0 1
32.570736 -22.468715 -23.904194 46.228849 -0.603877 2.114237 0.055850 -0.006745 -128552.000000 0 0 1
33.135836 -21.333715 -24.560094 46.436077 -0.572023 2.128102 0.063024 -0.010534 7174.940000 0 0 1
33.266736 -20.190215 -23.695194 45.560758 -0.545491 2.117740 0.054894 -0.016003 101702.000000 0 0 1
33.227436 -18.930415 -24.611094 45.476687 -0.517859 2.142637 0.040707 -0.019171 311684.000000 0 0 1
31.980036 -18.783415 -25.267264 44.877321 -0.531065 2.168844 0.052872 -0.012131 282777.000000 0 0 1
31.922736 -17.537815 -25.936834 44.714152 -0.502370 2.189597 0.052558 -0.004520 -178800.000000 0 0 1
30.819336 -17.326515 -26.996034 44.483991 -0.512159 2.222914 0.032893 0.005218 -1017570.000000 0 0 1
29.558536 -17.295315 -26.438664 43.264742 -0.529407 2.228234 0.017943 0.001325 -917180.000000 0 0 1
28.628436 -17.226215 -27.507314 43.277963 -0.541681 2.259577 0.001244 -0.000043 -52468.100000 0 0 1
27.169036 -16.888815 -27.133034 41.947468 -0.556165 2.274222 -0.008667 0.007594 381725.000000 0 0 1
26.458336 -17.854315 -26.353224 41.392179 -0.593618 2.260971 0.010809 0.011149 186636.000000 0 0 1
26.747036 -17.689115 -24.983894 40.650998 -0.584312 2.232669 0.020367 0.015188 -131768.000000 0 0 1
25.826236 -18.585715 -24.098694 39.914537 -0.623789 2.219002 0.026838 0.012003 132964.000000 0 0 1
26.168636 -18.547215 -22.753194 39.325621 -0.616579 2.187788 0.038109 0.019076 378074.000000 0 0 1
25.199836 -19.282315 -21.982394 38.601360 -0.653143 2.176660 0.046837 0.003617 463608.000000 0 0 1
25.048536 -18.583515 -20.628194 37.393830 -0.638297 2.155134 0.048516 -0.005689 51767.300000 0 0 1
24.251636 -17.383815 -20.548094 36.229311 -0.621919 2.173859 0.043578 -0.014932 585157.000000 0 0 1
24.746236 -16.197715 -21.236894 36.410820 -0.579569 2.193530 0.043185 -0.005182 106318.000000 0 0 1
26.057136 -15.578015 -20.713894 36.752065 -0.538830 2.169548 0.034586 -0.007636 154009.000000 0 0 1
25.801336 -14.625815 -19.672794 35.589917 -0.515697 2.156473 0.034812 -0.020805 180344.000000 0 0 1
26.958736 -13.850015 -19.481494 36.029501 -0.474586 2.142077 0.022891 -0.005415 -129770.000000 0 0 1
26.934736 -12.929315 -18.210994 34.989819 -0.447539 2.118192 0.025407 -0.004792 -318129.000000 0 0 1
27.035136 -13.577015 -16.960294 34.682639 -0.465405 2.081755 0.022629 -0.007635 189058.000000 0 0 1
27.124036 -12.554215 -15.983994 33.894095 -0.433484 2.061885 0.007181 0.004195 131073.000000 0 0 1
27.739536 -13.122915 -14.653794 34.006270 -0.441878 2.016302 0.019351 -0.008369 -474878.000000 0 0 1
26.965436 -14.067915 -14.026194 33.492911 -0.480858 2.002899 0.047657 -0.016744 -197449.000000 0 0 1
27.562136 -14.488515 -12.777594 33.657916 -0.483970 1.960194 0.057587 -0.016589 180430.000000 0 0 1
26.827036 -15.625415 -12.008894 33.287490 -0.527415 1.939882 0.060091 -0.031811 341236.000000 0 0 1
25.586436 -15.291015 -11.395994 31.911589 -0.538669 1.935970 0.041026 -0.026260 378054.000000 0 0 1
24.911536 -16.455315 -10.972694 31.808207 -0.583756 1.922997 0.029485 -0.025096 527001.000000 0 0 1
23.439636 -16.078915 -10.565894 30.324679 -0.601248 1.926687 0.048264 -0.033848 418320.000000 0 0 1
23.272836 -15.536815 -9.278894 29.480763 -0.588645 1.890983 0.032377 -0.023338 672075.000000 0 0 1
21.879936 -15.541115 -8.992594 28.304144 -0.617599 1.894113 0.040465 -0.024769 107519.000000 0 0 1
21.637436 -15.359415 -7.456794 27.562547 -0.617309 1.844751 0.043099 -0.018998 -362142.000000 0 0 1
21.992336 -14.038615 -6.990594 27.011367 -0.568136 1.832578 0.050956 -0.008043 432681.000000 0 0 1
21.889536 -13.902115 -5.590394 26.526837 -0.565832 1.783133 0.050919 -0.011577 -646950.000000 0 0 1
22.831636 -14.723115 -4.709494 27.572324 -0.572750 1.742443 0.046239 -0.006112 -1185650.000000 0 0 1
24.101936 -14.145615 -4.694194 28.337911 -0.530737 1.737214 0.053254 -0.010372 -941800.000000 0 0 1
24.975636 -14.934615 -4.001094 29.374034 -0.538924 1.707433 0.052018 -0.012938 -1933140.000000 0 0 1
26.410036 -14.674615 -4.305294 30.518353 -0.507167 1.712341 0.072025 -0.019986 -1364590.000000 0 0 1
26.987636 -13.469015 -3.825994 30.403702 -0.462912 1.696971 0.078686 -0.016284 63350.800000 0 0 1
28.267736 -13.193915 -4.334994 31.495022 -0.436694 1.708875 0.091962 -0.026014 -260218.000000 0 0 1
29.051836 -12.080515 -3.631394 31.672307 -0.394075 1.685704 0.111408 -0.032330 -1801170.000000 0 0 1
29.436136 -12.475815 -2.367094 32.058309 -0.400876 1.644701 0.118707 -0.043026 256989.000000 0 0 1
30.056536 -11.485415 -1.541294 32.213129 -0.365004 1.618661 0.127306 -0.045804 596170.000000 0 0 1
31.447936 -10.983615 -2.065494 33.374822 -0.336018 1.632724 0.123324 -0.035706 -380527.000000 0 0 1
31.423936 -10.464115 -3.386994 33.293140 -0.321449 1.672705 0.121737 -0.029718 -427823.000000 0 0 1
32.603636 -10.822515 -4.055394 34.591474 -0.320498 1.688303 0.114188 -0.024028 -244823.000000 0 0 1
32.440436 -10.491915 -5.591194 34.550305 -0.312803 1.733339 0.110035 -0.021118 -680031.000000 0 0 1
31.466336 -11.339815 -6.046594 33.989454 -0.345891 1.749644 0.099977 -0.028774 -457397.000000 0 0 1
31.358936 -11.134315 -7.456194 34.102062 -0.341176 1.791220 0.089404 -0.020181 -191188.000000 0 0 1
30.106536 -11.818415 -8.022694 33.323296 -0.374070 1.813938 0.089009 -0.023308 -154010.000000 0 0 1
30.039336 -13.182215 -7.775094 33.713270 -0.413528 1.803515 0.089900 -0.019450 75769.500000 0 0 1
28.766436 -13.707115 -8.064794 32.869952 -0.444669 1.818682 0.085598 -0.018687 -145418.000000 0 0 1
28.700236 -15.221915 -7.964894 33.449212 -0.487652 1.811225 0.090966 -0.030414 -101416.000000 0 0 1
29.216736 -15.817115 -9.125394 34.453905 -0.496195 1.838853 0.091705 -0.031092 291115.000000 0 0 1
29.328936 -17.209315 -8.954094 35.164226 -0.530634 1.828268 0.081991 -0.030635 -187322.000000 0 0 1
29.751536 -17.880315 -10.320894 36.212986 -0.541146 1.859808 0.073715 -0.034921 -155028.000000 0 0 1
30.976036 -17.418415 -10.853594 37.157993 -0.512252 1.867211 0.086999 -0.029727 341307.000000 0 0 1
31.313936 -18.012015 -12.103094 38.098296 -0.521990 1.894079 0.070793 -0.025268 -260928.000000 0 0 1
30.614536 -17.421315 -13.350394 37.669418 -0.517354 1.933079 0.063108 -0.024959 -260694.000000 0 0 1
31.074336 -16.161115 -13.757194 37.630524 -0.479582 1.945059 0.053012 -0.022462 145502.000000 0 0 1
30.517836 -15.892315 -15.015394 37.541524 -0.480113 1.982278 0.038309 -0.024709 -1432270.000000 0 0 1
31.020236 -14.602715 -15.670194 37.696807 -0.439973 1.999498 0.037893 -0.009536 183457.000000 0 0 1
32.226036 -14.710015 -16.392994 39.033731 -0.428216 2.004209 0.021646 -0.017182 483070.000000 0 0 1
33.402836 -15.181215 -15.752194 39.929317 -0.426581 1.976322 0.041784 -0.017720 -1176040.000000 0 0 1
34.468336 -15.482515 -16.778994 41.343791 -0.422172 1.988695 0.053561 -0.014829 1131300.000000 0 0 1
35.827236 -15.723815 -16.273794 42.375294 -0.413567 1.964964 0.070567 -0.018670 1777210.000000 0 0 1
-35.957311 -16.160415 -17.269794 43.038738 0.422383 1.983690 0.079465 -0.019395 -37126.300000 0 0 1
-34.428411 -16.248015 -17.059794 41.717503 0.440946 1.992084 0.095837 -0.019723 355697.000000 0 0 1
-33.932911 -17.027215 -15.950494 41.179931 0.465079 1.968537 0.089338 -0.029648 157787.000000 0 0 1
-34.041411 -16.526515 -14.623894 40.568481 0.451966 1.939573 0.091047 -0.035811 -370935.000000 0 0 1
-33.348211 -17.419315 -13.591094 40.003169 0.481364 1.917448 0.092933 -0.031796 981562.000000 0 0 1
-31.909911 -17.397015 -13.587894 38.801152 0.499144 1.928574 0.084677 -0.029218 788614.000000 0 0 1
-31.380011 -17.812615 -12.355994 38.140070 0.516287 1.900712 0.076880 -0.017610 69347.900000 0 0 1
-29.841511 -17.837515 -12.206994 36.847027 0.538757 1.908465 0.096353 -0.017263 -86078.000000 0 0 1
-29.284311 -16.524615 -12.166894 35.758455 0.513742 1.917981 0.097838 -0.023578 566998.000000 0 0 1
-28.026911 -16.558315 -11.470494 34.514602 0.533628 1.909577 0.086369 -0.015814 568962.000000 0 0 1
-28.227811 -16.357815 -9.977094 34.116416 0.525204 1.867576 0.083237 -0.015667 -316087.000000 0 0 1
-28.795411 -17.433715 -9.339894 34.933418 0.544405 1.841451 0.079374 -0.012182 -374517.000000 0 0 1
-29.014011 -17.328515 -7.945194 34.716226 0.538392 1.801704 0.083786 -0.011117 -159060.000000 0 0 1
-29.810311 -18.517915 -7.360194 35.857220 0.555856 1.777530 0.081862 -0.013334 -167426.000000 0 0 1
-31.065211 -18.807915 -7.900294 37.164494 0.544405 1.785007 0.061187 -0.008197 -517278.000000 0 0 1
-31.077911 -19.487615 -9.148494 37.806066 0.560077 1.815207 0.063015 -0.008031 167544.000000 0 0 1
-32.463611 -20.144015 -9.451194 39.357241 0.555364 1.813305 0.058047 -0.005989 -209820.000000 0 0 1
-33.517711 -19.339615 -9.844494 39.929584 0.523334 1.819911 0.074298 -0.006440 -662047.000000 0 0 1
-34.545411 -20.253715 -10.137194 41.308124 0.530279 1.818733 0.077927 -0.019833 -826694.000000 0 0 1
-35.868911 -19.634015 -10.540394 42.227636 0.500831 1.823073 0.076833 -0.027744 -658991.000000 0 0 1
-36.072811 -19.356015 -11.907094 42.634281 0.492483 1.853845 0.079868 -0.026940 -315964.000000 0 0 1
35.258236 -19.045815 -12.217494 41.894551 -0.495273 1.866721 0.079429 -0.033449 -465133.000000 0 0 1
34.835236 -18.930115 -13.702094 41.947470 -0.497776 1.903552 0.068524 -0.038998 -148681.000000 0 0 1
34.974336 -20.145415 -14.462194 42.874199 -0.522590 1.914862 0.064453 -0.035716 218691.000000 0 0 1
34.390336 -19.981215 -15.770194 42.786016 -0.526341 1.948280 0.057746 -0.033053 223148.000000 0 0 1
33.000536 -20.646015 -15.856394 42.032351 -0.559050 1.957613 0.069402 -0.037868 -144929.000000 0 0 1
32.057336 -20.085915 -14.944794 40.675098 -0.559722 1.947028 0.079187 -0.036614 84385.300000 0 0 1
30.801436 -20.704515 -14.828594 39.966143 -0.591819 1.950913 0.093830 -0.042751 -198034.000000 0 0 1
29.780536 -20.482415 -15.903794 39.488483 -0.602476 1.985310 0.097055 -0.040272 -1137030.000000 0 0 1
29.364636 -19.178215 -16.167794 38.619727 -0.578555 2.002744 0.068482 -0.036548 452899.000000 0 0 1
28.404936 -19.129815 -17.227994 38.335283 -0.592696 2.036893 0.064733 -0.038012 366553.000000 0 0 1
27.589936 -17.789015 -17.175994 37.049539 -0.572686 2.052845 0.061565 -0.031800 196014.000000 0 0 1
26.636936 -17.779215 -16.117694 35.852571 -0.588555 2.037063 0.066118 -0.043713 168343.000000 0 0 1
25.943136 -16.557315 -16.086594 34.727071 -0.568046 2.052432 0.042243 -0.024914 -104253.000000 0 0 1
24.545736 -16.665815 -15.365294 33.411596 -0.596472 2.048655 0.027278 -0.022515 1853680.000000 0 0 1
23.388236 -17.271215 -16.010894 33.191161 -0.636073 2.074171 0.023844 -0.029696 1371130.000000 0 0 1
23.051536 -16.597415 -17.241794 33.228405 -0.624032 2.116345 0.032192 -0.018684 -737506.000000 0 0 1
21.921436 -17.402215 -17.957494 33.254443 -0.670976 2.141237 0.032424 -0.015138 315646.000000 0 0 1
20.653236 -17.235915 -17.344594 32.007309 -0.695449 2.143486 0.025543 -0.014146 -160506.000000 0 0 1
19.710436 -17.955315 -18.119894 32.237015 -0.738835 2.167699 0.024673 -0.023809 -544872.000000 0 0 1
18.300936 -17.805915 -17.577294 30.998969 -0.771689 2.173690 0.035325 -0.014743 -698954.000000 0 0 1
17.676236 -16.554415 -17.570694 29.920348 -0.752637 2.198452 0.041324 -0.013447 -718573.000000 0 0 1
16.315536 -16.771615 -17.391294 29.153745 -0.799181 2.209976 0.040781 -0.012486 -910576.000000 0 0 1
15.427336 -15.497015 -17.394494 27.941521 -0.787651 2.242770 0.045264 -0.010406 -44222.300000 0 0 1
15.061136 -15.062715 -18.727694 28.362823 -0.785451 2.292001 0.046386 -0.005540 283862.000000 0 0 1
13.695536 -14.691515 -18.618894 27.387433 -0.820469 2.318332 0.048750 -0.000508 358899.000000 0 0 1
13.112536 -14.161115 -19.970894 27.772511 -0.823826 2.373286 0.053735 -0.000654 131377.000000 0 0 1
13.587136 -12.890215 -20.363394 27.666509 -0.759083 2.397984 0.064216 -0.008144 157637.000000 0 0 1
12.821536 -12.398315 -21.456194 27.901223 -0.768618 2.448080 0.052098 -0.004792 281143.000000 0 0 1
13.330536 -11.009315 -21.921094 27.918498 -0.690319 2.473786 0.064768 -0.006713 8500.390000 0 0 1
14.496236 -10.980715 -22.721594 29.103054 -0.648276 2.466628 0.064233 -0.002827 104027.000000 0 0 1
14.828736 -9.667815 -23.184894 29.170145 -0.577755 2.489500 0.075968 -0.007912 -397018.000000 0 0 1
16.084336 -9.595515 -24.030194 30.466867 -0.537897 2.479540 0.064087 -0.001737 -399126.000000 0 0 1
15.884536 -10.198215 -25.301444 31.567153 -0.570746 2.500615 0.077588 -0.007032 -355389.000000 0 0 1
17.021936 -10.109715 -26.085704 32.747772 -0.535939 2.492387 0.066419 -0.008112 -734044.000000 0 0 1
22.060736 5.451985 -6.952194 23.764116 0.242281 1.867689 0.087250 0.017789 -249737.000000 0 1 0
22.015336 6.850585 -7.104694 24.126380 0.301676 1.869706 0.073565 0.014787 759229.000000 0 1 0
21.548236 7.415085 -5.888294 23.536821 0.331423 1.823656 0.067320 0.014834 -278671.000000 0 1 0
21.193536 8.889585 -6.112994 23.781492 0.397159 1.830763 0.056399 0.014187 308180.000000 0 1 0
19.997236 9.110485 -6.912394 23.036310 0.427491 1.875557 0.019892 -0.000257 1574330.000000 0 1 0
19.537236 10.467685 -7.121694 23.280776 0.491861 1.881685 0.029373 0.003339 -116375.000000 0 1 0
19.177536 11.231685 -5.904094 22.995368 0.529815 1.830456 0.051646 0.001190 -1373860.000000 0 1 0
20.244636 11.652585 -5.126494 23.914618 0.522277 1.786840 0.060813 0.008169 -324363.000000 0 1 0
19.861336 12.412285 -3.976194 23.756002 0.558561 1.738964 0.074933 -0.006204 -109759.000000 0 1 0
20.957336 12.458085 -2.909394 24.553582 0.536329 1.689567 0.074668 -0.020288 317720.000000 0 1 0
22.158836 13.172585 -3.264694 25.984404 0.536337 1.696770 0.074377 -0.027747 1387240.000000 0 0 1
23.064936 13.505285 -2.233094 26.821087 0.529714 1.654152 0.071810 -0.030073 155142.000000 0 0 1
23.870536 12.356185 -1.533494 26.922656 0.477655 1.627786 0.071042 -0.030751 -552565.000000 0 0 1
24.824836 11.756985 -2.400794 27.572867 0.442304 1.657978 0.064998 -0.018975 195074.000000 0 0 1
25.649136 10.874785 -1.698094 27.910977 0.401009 1.631674 0.070558 -0.021620 -217926.000000 0 0 1
27.017736 10.710985 -2.423894 29.164336 0.377436 1.654004 0.080190 -0.020261 300508.000000 0 0 1
27.867836 11.831085 -2.134694 30.350416 0.401483 1.641189 0.071178 -0.030288 1289350.000000 0 0 1
29.254936 11.409885 -2.084394 31.470327 0.371870 1.637078 0.077563 -0.027226 998398.000000 0 0 1
30.143636 12.617085 -1.713094 32.722535 0.396408 1.623172 0.064009 -0.020667 -613677.000000 0 0 1
30.111936 12.879585 -0.304294 32.752175 0.404175 1.580087 0.090977 -0.022378 203149.000000 0 0 1
31.090736 13.787985 0.125606 34.011148 0.417415 1.567103 0.085809 -0.019436 677801.000000 0 0 1
32.538536 13.151885 0.317406 35.097424 0.384117 1.561753 0.097741 -0.024074 1173720.000000 0 0 1
33.571636 14.136185 0.431006 36.429003 0.398542 1.558965 0.104446 -0.033288 372958.000000 0 0 1
34.364736 14.337885 -0.695194 37.242359 0.395268 1.589464 0.099919 -0.021175 -493134.000000 0 0 1
33.937436 15.520985 -1.621294 37.353435 0.428942 1.614214 0.079216 -0.000991 115173.000000 0 0 1
32.686436 15.417185 -2.287094 36.212201 0.440727 1.633996 0.072106 0.002372 308436.000000 0 0 1
32.508136 16.479285 -3.184194 36.585309 0.469175 1.657941 0.060833 0.012570 394839.000000 0 0 1
31.176536 16.189885 -3.937794 35.349611 0.478966 1.682424 0.061924 0.000945 -402663.000000 0 0 1
31.320036 15.272885 -5.053294 35.209962 0.453710 1.714813 0.042772 -0.002763 451697.000000 0 0 1
30.146136 14.933585 -5.779194 34.135034 0.459939 1.740920 0.039405 -0.018188 398179.000000 0 0 1
28.887636 14.367085 -5.055594 32.656817 0.461520 1.726231 0.038685 -0.017770 -192204.000000 0 0 1
27.874436 14.100185 -5.990794 31.807059 0.468314 1.760276 0.061139 -0.028736 -161860.000000 0 0 1
26.807336 13.334585 -5.520894 30.445438 0.461584 1.753142 0.051655 -0.010768 -211934.000000 0 0 1
25.703636 13.119085 -6.586394 29.600133 0.471931 1.795187 0.042531 -0.015144 -500078.000000 0 0 1
26.028736 12.223785 -7.648594 29.755957 0.439055 1.830759 0.037179 -0.000508 809719.000000 0 0 1
24.992236 12.016185 -8.642794 29.046488 0.448167 1.872922 0.043903 0.005285 231115.000000 0 0 1
24.611636 13.219185 -9.506994 29.510378 0.492894 1.898804 0.058185 0.003991 -304748.000000 0 0 1
23.973736 14.218685 -8.743194 29.212231 0.535326 1.874754 0.072026 -0.018061 202756.000000 0 0 1
23.557536 15.301785 -9.578694 29.679176 0.576058 1.899421 0.065894 -0.021984 -885690.000000 0 0 1
22.672836 16.440785 -8.975594 29.409492 0.627394 1.880938 0.071373 -0.021373 728827.000000 0 0 1
21.294036 16.131385 -8.778494 28.119735 0.648318 1.888286 0.083041 -0.022079 706743.000000 0 0 1
21.036936 15.086285 -7.832194 27.046108 0.622132 1.864591 0.095099 -0.027987 -739065.000000 0 0 1
19.633036 14.437585 -7.933694 25.628958 0.634073 1.885526 0.119937 -0.025519 -347121.000000 0 0 1
18.569236 15.090285 -7.338094 25.027602 0.682407 1.868369 0.126175 -0.045888 290079.000000 0 0 1
17.358536 14.387785 -7.674194 23.816389 0.692092 1.898873 0.122003 -0.056401 827966.000000 0 1 0
16.124336 14.722385 -6.787694 22.865162 0.739980 1.872196 0.103348 -0.035616 234900.000000 0 1 0
16.149536 14.027385 -5.525794 22.093199 0.715190 1.823593 0.067546 -0.031998 463007.000000 0 1 0
16.124336 14.853985 -4.389594 22.358525 0.744413 1.768407 0.082409 -0.020545 -85973.300000 0 1 0
15.700936 14.021985 -3.069294 21.273364 0.728971 1.715580 0.050082 -0.003705 124823.000000 0 1 0
16.658636 13.033085 -2.589094 21.309033 0.663893 1.692599 0.035294 -0.013591 1127790.000000 0 1 0
16.366936 12.577485 -1.266594 20.680280 0.655217 1.632081 0.023664 -0.007042 -14500.700000 0 1 0
16.656636 13.565285 -0.110594 21.481916 0.683464 1.575945 0.042246 -0.008750 1808.470000 0 1 0
15.672236 14.596185 0.005306 21.416527 0.749863 1.570549 0.046286 -0.009019 752738.000000 0 1 0
16.009836 15.499485 1.014806 22.306473 0.769203 1.525287 0.062206 -0.001194 -299684.000000 0 1 0
14.833136 16.416085 1.397006 22.168929 0.836011 1.507738 0.066252 0.008196 -35449.300000 0 1 0
14.390836 17.360685 0.378606 22.552891 0.878661 1.554008 0.060099 0.005503 190404.000000 0 1 0
13.488336 18.274685 0.917606 22.731945 0.934962 1.530419 0.060782 -0.001258 -145540.000000 0 1 0
13.475736 19.536685 0.143706 23.733904 0.966972 1.564741 0.056974 -0.000467 -280165.000000 0 1 0
13.165936 19.430885 -1.202694 23.502078 0.975278 1.621993 0.063753 -0.008542 336215.000000 0 1 0
12.316236 20.480085 -1.660194 23.955789 1.029366 1.640154 0.049773 -0.017064 1031250.000000 0 1 0
10.767636 20.353385 -1.469394 23.072958 1.084192 1.634524 0.042106 -0.018550 676469.000000 0 1 0
10.360836 20.497985 -0.107594 22.967932 1.102793 1.575481 0.030617 -0.015442 355507.000000 0 1 0
8.951536 20.360085 0.079806 22.241165 1.156573 1.567208 0.022336 -0.016093 875995.000000 0 1 0
8.468036 20.549285 1.565606 22.280751 1.179916 1.500471 0.020720 -0.007026 -1964.380000 0 1 0
8.329836 21.877485 2.033706 23.497798 1.206995 1.484139 0.021132 0.004046 402566.000000 0 1 0
7.311136 21.726785 3.029306 23.123205 1.246195 1.439411 0.018394 -0.007749 220238.000000 0 1 0
6.895936 23.024885 3.789106 24.332213 1.279799 1.414436 0.016078 -0.000414 159361.000000 0 1 0
7.726236 23.361485 4.875206 25.084285 1.251395 1.375198 0.018756 -0.005309 -89793.700000 0 0 1
7.416436 24.673485 5.264206 26.296317 1.278805 1.369247 0.013510 -0.004283 63839.800000 0 0 1
8.035436 24.933285 6.654506 27.028122 1.259029 1.322032 0.003149 -0.001416 54974.800000 0 0 1
7.365636 24.125885 7.594106 26.343526 1.274484 1.278374 0.020179 -0.018643 328784.000000 0 0 1
7.870436 24.382185 8.892706 27.120379 1.258561 1.236719 0.023314 -0.020477 -4151.500000 0 0 1
7.295836 23.405185 9.950506 26.458354 1.268623 1.185232 0.030200 -0.019582 1072470.000000 0 0 1
5.937436 23.693585 10.356306 26.530967 1.325260 1.169787 0.024192 -0.020567 938469.000000 0 0 1
5.483136 22.558585 11.092906 25.729499 1.332358 1.125045 0.027561 -0.023409 416713.000000 0 0 1
4.118036 22.823085 11.827706 26.033557 1.392284 1.099182 0.029606 -0.027510 744486.000000 0 0 1
3.068336 23.032785 10.887906 25.660678 1.438360 1.132604 0.020462 -0.028310 -340191.000000 0 0 1
1.966736 23.559185 11.555806 26.314253 1.487509 1.116148 0.020127 -0.027545 -488402.000000 0 0 1
0.763436 23.975585 10.705606 26.268261 1.538965 1.151028 0.029748 -0.022073 -470799.000000 0 0 1
1.010736 25.135585 9.967206 27.058537 1.530607 1.193555 0.032990 -0.017550 464872.000000 0 0 1
0.113536 25.289585 8.848306 26.793069 1.566307 1.234232 0.025410 -0.014588 839263.000000 0 0 1
-1.320564 25.793985 9.127806 27.393255 -1.519644 1.231086 0.026345 -0.019140 532950.000000 0 0 1
-2.242164 24.988185 9.855906 26.955066 -1.481307 1.196474 0.022166 -0.018605 1413160.000000 0 0 1
-3.598064 25.490085 9.819506 27.552009 -1.430567 1.206385 0.034571 -0.016710 826207.000000 0 0 1
-4.712764 24.597485 10.416006 27.124521 -1.381495 1.176664 0.032323 -0.019127 -12441.500000 0 0 1
-5.004164 24.631285 11.810206 27.770899 -1.370361 1.131533 0.021203 -0.012763 718481.000000 0 0 1
-5.897864 25.767785 12.030406 29.042972 -1.345787 1.143702 0.024346 -0.008164 92125.200000 0 0 1
-6.501064 25.830385 13.438306 29.833885 -1.324234 1.103541 0.016879 -0.002037 -685233.000000 0 0 1
-7.472564 24.918485 13.775606 29.437008 -1.279449 1.083805 0.003392 -0.012432 -514205.000000 0 0 1
-7.759164 24.836285 15.143406 30.105954 -1.267991 1.043726 0.003702 0.001011 -145036.000000 0 0 1
-8.885964 23.845085 15.504806 29.798447 -1.214084 1.023568 0.002620 -0.010572 16883.000000 0 0 1
-10.127464 24.354385 15.089906 30.387611 -1.176712 1.051141 0.005391 -0.006530 -1243840.000000 0 0 1
-11.182464 23.514385 15.293306 30.197004 -1.126892 1.039732 0.002295 -0.011159 -848380.000000 0 0 1
-12.540564 24.213685 15.126406 31.182952 -1.092922 1.064335 0.003299 -0.009963 -368042.000000 0 0 1
-12.918164 24.992385 16.249706 32.489248 -1.093733 1.047017 0.006601 -0.016214 -354157.000000 0 0 1
-13.825864 25.936185 15.809406 33.373306 -1.081042 1.077293 -0.001155 -0.001248 -916548.000000 0 0 1
-14.473564 26.842685 16.867506 34.850059 -1.076283 1.065574 0.011252 0.002450 -292012.000000 0 0 1
-15.647664 26.286585 17.418206 35.202669 -1.033861 1.053194 0.016338 -0.005425 -116337.000000 0 0 1
-16.126264 27.119085 18.460106 36.555119 -1.034323 1.041422 0.034774 -0.007583 -107651.000000 0 0 1
-17.565164 26.743385 18.903906 37.163172 -0.989653 1.037153 0.034280 -0.010822 601408.000000 0 0 1
-18.578264 27.074085 17.926006 37.409888 -0.969392 1.071078 0.033921 -0.013443 -164118.000000 0 0 1
-19.779164 26.554085 18.426106 37.892693 -0.930591 1.062980 0.048261 -0.003616 -529.768000 0 0 1
-20.998264 26.902985 17.507706 38.356453 -0.908048 1.096798 0.050361 -0.014369 65931.600000 0 0 1
-21.459064 28.240685 17.624606 39.606243 -0.921012 1.109627 0.042210 -0.014930 209218.000000 0 0 1
-22.191264 28.606285 16.458706 39.770099 -0.911019 1.144121 0.044205 -0.013865 -451.752000 0 0 1
-23.246564 29.725685 16.637606 41.241109 -0.907105 1.155542 0.021224 -0.018872 267109.000000 0 0 1
-24.459464 29.309785 17.255006 41.893486 -0.875361 1.146282 0.016040 -0.019013 -16313.100000 0 0 1
-25.249224 30.429885 17.495406 43.238761 -0.878176 1.154230 0.005444 -0.015647 -54162.600000 0 0 1
-26.711644 30.217485 17.945206 44.143389 -0.846903 1.152154 0.008248 -0.014309 -12768.900000 0 0 1
-27.577144 29.514485 17.107906 43.866664 -0.819319 1.170167 0.027611 -0.018327 1369370.000000 0 0 1
-28.921804 29.249285 17.631506 44.753340 -0.791028 1.165849 0.039854 -0.020988 1525500.000000 0 0 1
-29.119594 28.088685 18.612406 44.534781 -0.767380 1.139631 0.029515 -0.020338 -677740.000000 0 0 1
-28.867184 26.840285 18.090206 43.370160 -0.749030 1.140531 0.038913 -0.026287 111831.000000 0 0 1
-29.161224 25.901985 19.112906 43.434929 -0.726276 1.115158 0.042715 -0.021632 -37999.400000 0 0 1
-29.407704 24.460085 18.653306 42.556488 -0.693808 1.117069 0.042959 -0.021665 -105299.000000 0 0 1
-30.533044 24.361985 17.803906 42.927290 -0.673453 1.143133 0.048298 -0.028171 7123.180000 0 0 1
-30.463474 23.277985 16.849206 41.878200 -0.652482 1.156727 0.053004 -0.019940 -407049.000000 0 0 1
-30.682414 21.829185 17.403906 41.482765 -0.618373 1.137852 0.043326 -0.006911 49387.900000 0 0 1
-32.053564 21.508685 17.287806 42.295659 -0.591013 1.149726 0.046675 -0.005119 -138543.000000 0 0 1
-32.202074 20.120685 17.103606 41.645515 -0.558474 1.147580 0.041565 -0.007199 -124185.000000 0 0 1
-33.508804 19.769585 16.385606 42.215691 -0.533021 1.172184 0.052483 -0.019263 -177072.000000 0 0 1
-33.579934 20.090785 14.986606 41.902864 -0.539167 1.205045 0.045398 -0.024280 33446.900000 0 0 1
-34.767289 19.532485 14.454606 42.417190 -0.511862 1.223058 0.064561 -0.026814 172735.000000 0 0 1
-35.030003 20.001085 13.032706 42.390989 -0.518800 1.258294 0.072617 -0.022132 68817.200000 0 0 1
-35.379860 21.404485 13.006006 43.347926 -0.544081 1.266064 0.060154 -0.025311 -77102.300000 0 0 1
-35.808984 21.888285 11.731406 43.577589 -0.548651 1.298226 0.059655 -0.013839 165529.000000 0 0 1
-34.846895 21.809985 10.483806 42.425131 -0.559232 1.321096 0.067639 -0.017444 169034.000000 0 0 1
-34.701475 20.517085 9.921906 41.516110 -0.533957 1.329471 0.084673 -0.020635 91849.000000 0 0 1
-33.426034 20.418185 9.295806 40.256851 -0.548357 1.337781 0.093897 -0.013751 229272.000000 0 0 1
-32.669604 19.219685 9.845206 39.161556 -0.531776 1.316670 0.073024 -0.016636 -442862.000000 0 0 1
-32.383644 19.361385 11.173806 39.349938 -0.538856 1.282875 0.053851 -0.018318 210506.000000 0 0 1
-31.613844 18.232585 11.645206 38.307612 -0.523132 1.261916 0.056594 -0.014214 88276.800000 0 0 1
-30.980954 18.478385 12.993406 38.341868 -0.537800 1.225067 0.043977 -0.010763 -182751.000000 0 0 1
-29.888194 19.361085 12.978506 37.902472 -0.574816 1.221307 0.045745 -0.000732 -235576.000000 0 0 1
-30.307524 20.689485 13.228706 39.007685 -0.598988 1.224804 0.053952 -0.003257 976842.000000 0 0 1
-29.125134 21.714285 13.541306 38.770486 -0.640648 1.214006 0.046092 -0.011607 974083.000000 0 0 1
-28.548454 21.603285 14.813106 38.744603 -0.647790 1.178483 0.041983 -0.003640 -610738.000000 0 0 1
-27.433554 22.436485 14.902706 38.445890 -0.685530 1.172739 0.074018 -0.011634 -360775.000000 0 0 1
-26.683994 22.300685 16.262906 38.390601 -0.696153 1.133362 0.061201 -0.009167 -159964.000000 0 0 1
-26.115394 21.023385 16.475706 37.355661 -0.677794 1.114028 0.086033 -0.003660 110560.000000 0 0 1
-25.576194 20.902685 17.789706 37.517164 -0.685184 1.076769 0.075470 0.000366 35513.500000 0 0 1
-24.822464 19.558285 17.983306 36.360426 -0.667336 1.053440 0.072149 0.000332 -32609.500000 0 0 1
-24.214564 19.490985 19.241106 36.557678 -0.677739 1.016527 0.070756 -0.006180 -148071.000000 0 0 1
-23.416464 18.327285 19.253906 35.425035 -0.664082 0.996182 0.068571 -0.003840 -12872.100000 0 0 1
-22.616064 18.213785 20.549406 35.573957 -0.677993 0.954946 0.065003 -0.003610 16209.800000 0 0 1
-23.491164 17.788685 21.569206 36.517157 -0.648125 0.938920 0.073166 -0.004042 361865.000000 0 0 1
-22.858064 17.791385 22.844606 36.890385 -0.661394 0.903001 0.096378 -0.000188 -82533.700000 0 0 1
-23.777864 17.149985 23.865406 37.802995 -0.624851 0.887555 0.099764 -0.010475 -88039.600000 0 0 1
-23.696864 15.666685 23.807806 37.064782 -0.584159 0.873262 0.105137 -0.029282 -132301.000000 0 0 1
-24.461764 15.171385 24.865106 38.037118 -0.555146 0.858324 0.092644 -0.037595 45109.500000 0 0 1
20.888736 24.392085 34.013812 46.778762 0.862614 0.756678 0.055757 -0.025037 109412.000000 0 0 1
21.910636 23.569285 33.475812 46.435086 0.821852 0.765673 0.070227 -0.030764 -100958.000000 0 0 1
21.801536 22.160585 33.705504 45.852585 0.793565 0.745006 0.072189 -0.033612 -295167.000000 0 0 1
20.678036 21.294285 33.034377 44.410560 0.800079 0.731998 0.065177 -0.039604 311088.000000 0 0 1
20.885236 20.940785 31.681793 43.341038 0.786726 0.751027 0.075809 -0.032930 -412573.000000 0 0 1
19.990536 19.966685 31.291813 42.160024 0.784801 0.734426 0.087262 -0.035274 -472325.000000 0 0 1
20.365136 19.452685 29.850893 41.039268 0.762487 0.756309 0.079353 -0.019742 -135043.000000 0 0 1
21.658436 18.908785 29.797613 41.406856 0.717722 0.767527 0.082833 -0.018965 -437578.000000 0 0 1
21.736336 18.118585 28.627593 40.252832 0.694873 0.779600 0.064688 -0.012514 -373704.000000 0 0 1
22.857436 17.085885 28.620933 40.417170 0.641898 0.783939 0.064763 -0.007172 -1066540.000000 0 0 1
24.069236 17.716385 28.753393 41.472353 0.634519 0.804718 0.054825 -0.001685 -1163590.000000 0 0 1
25.135736 16.828585 28.989043 41.897149 0.589967 0.806666 0.044200 0.015200 -542277.000000 0 0 1
26.503136 17.460185 29.121983 43.073939 0.582535 0.828349 0.029785 0.003420 -712637.000000 0 0 1
27.171136 17.675085 27.906263 42.771939 0.576733 0.859992 0.032629 0.016382 -128694.000000 0 0 1
28.501736 18.075785 28.126813 43.934048 0.565187 0.876031 0.018024 0.021893 400953.000000 0 0 1
29.428236 18.081585 26.851563 43.748957 0.550962 0.909976 0.023544 0.028882 372565.000000 0 0 1
29.233936 19.125785 25.939043 43.511523 0.579345 0.932109 0.038840 0.030846 37224.500000 0 0 1
30.347136 19.144385 25.069203 43.771236 0.562793 0.960961 0.040747 0.039698 55479.100000 0 0 1
30.251636 20.308985 24.021093 43.642059 0.591228 0.987939 0.050115 0.027549 103741.000000 0 0 1
29.250736 20.120685 23.035753 42.321312 0.602538 0.995234 0.041221 0.029331 100004.000000 0 0 1
29.548936 20.904585 21.930053 42.321018 0.615713 1.026071 0.041174 0.014777 232558.000000 0 0 1
30.444136 20.240185 20.845753 42.083915 0.586730 1.052573 0.070337 0.007752 33344.100000 0 0 1
29.729936 19.142985 20.319153 40.782238 0.572072 1.049234 0.076475 -0.014325 222757.000000 0 0 1
30.305136 18.498385 19.179953 40.354208 0.548035 1.075503 0.068280 -0.013762 146457.000000 0 0 1
31.508936 17.560485 19.521753 41.015638 0.508444 1.074742 0.093159 -0.023450 463527.000000 0 0 1
31.060936 16.341785 20.025853 40.408792 0.484325 1.052292 0.100236 -0.029717 737098.000000 0 0 1
32.128236 15.412385 19.797753 40.764153 0.447288 1.063672 0.097397 -0.031898 252538.000000 0 0 1
31.698136 13.940785 20.137553 40.057937 0.414338 1.044065 0.107432 -0.036287 247446.000000 0 0 1
31.267036 13.693485 21.488453 40.334758 0.412790 1.008946 0.090089 -0.041219 1822040.000000 0 0 1
29.963636 14.259385 21.855153 39.734082 0.444174 0.988390 0.070094 -0.026905 1176600.000000 0 0 1
29.349036 13.743585 23.206553 39.859706 0.437952 0.949357 0.054474 -0.019629 307254.000000 0 0 1
28.617936 12.548085 23.072053 38.842764 0.413224 0.934792 0.056686 -0.017381 -22549.200000 0 0 1
28.002336 11.933785 24.169063 38.867591 0.402862 0.899718 0.045797 -0.004809 77131.500000 0 0 1
27.124536 10.704185 23.831893 37.660047 0.375869 0.885611 0.050933 -0.005738 -497115.000000 0 0 1
25.969136 10.848485 23.084853 36.400496 0.395710 0.883835 0.036559 0.007168 -518531.000000 0 0 1
25.550536 9.679285 22.478353 35.380712 0.362123 0.882363 0.034300 0.000288 -100703.000000 0 0 1
24.297036 9.719385 21.575653 33.916386 0.380527 0.881308 0.043471 -0.002876 740017.000000 0 0 1
23.042136 9.529285 22.257553 33.423734 0.392140 0.842069 0.031150 0.004269 1109040.000000 0 0 1
22.075336 8.898985 21.378553 31.993045 0.383192 0.838976 0.021067 0.010804 -178536.000000 0 0 1
20.726836 9.019385 22.077653 31.597054 0.410440 0.797183 0.016021 0.006045 -859345.000000 0 0 1
20.546536 8.119485 23.177453 32.020002 0.376340 0.761440 0.024012 0.016194 -50.271200 0 0 1
19.225236 8.023685 23.638663 31.508342 0.395375 0.722379 0.045821 0.010633 -296293.000000 0 0 1
18.939336 7.254185 24.930073 32.137676 0.365785 0.682930 0.060322 0.010138 -316786.000000 0 0 1
19.039336 5.864885 24.787473 31.801132 0.298817 0.677005 0.053710 0.003429 170164.000000 0 0 1
18.589736 5.161185 25.908763 32.302943 0.270816 0.640067 0.062573 -0.012597 -98745.800000 0 0 1
18.854436 3.678385 25.757223 32.131835 0.192674 0.640812 0.062145 -0.014296 -147504.000000 0 0 1
20.222436 3.404785 25.593553 32.795875 0.166802 0.675508 0.062453 -0.006975 -390212.000000 0 0 1
20.529136 2.064585 25.573723 32.859142 0.100232 0.678869 0.056437 -0.014824 -34856.700000 0 0 1
22.019136 1.801985 25.283683 33.576095 0.081655 0.718147 0.050173 -0.010778 48571.400000 0 0 1
22.916636 2.357185 26.198693 34.886961 0.102499 0.721282 0.055153 -0.017182 -80399.800000 0 0 1
24.280236 2.283585 25.859623 35.545249 0.093775 0.756107 0.060531 -0.012344 597036.000000 0 0 1
25.257636 2.791085 26.986643 37.067738 0.110058 0.755344 0.039512 -0.014737 -132395.000000 0 0 1
25.304636 1.911485 28.102213 37.864399 0.075396 0.734479 0.044665 -0.019398 209311.000000 0 0 1
25.984636 2.391285 29.265223 39.209346 0.091768 0.728185 0.043921 -0.006544 1215450.000000 0 0 1
27.547536 2.590685 29.199023 40.226376 0.093768 0.758501 0.034729 0.000337 365270.000000 0 0 1
27.935636 3.710585 28.416073 40.020512 0.132053 0.781245 0.030544 0.008841 693250.000000 0 0 1
29.308836 3.783485 28.009483 40.716750 0.128380 0.812190 0.032907 0.009226 632121.000000 0 0 1
29.783136 2.791785 26.921923 40.244493 0.093464 0.837989 0.046988 0.001372 -674434.000000 0 0 1
29.212436 2.911285 25.674333 39.000171 0.099331 0.852220 0.035598 0.011888 -360976.000000 0 0 1
29.639736 1.912985 24.857293 38.730588 0.064452 0.873953 0.053202 0.015690 -486976.000000 0 0 1
29.194136 2.122885 23.371153 37.456842 0.072588 0.897011 0.045576 0.008339 318406.000000 0 0 1
29.766236 3.280985 22.734753 37.598706 0.109782 0.921447 0.055576 0.010152 -339865.000000 0 0 1
31.154736 3.171085 22.534953 38.581050 0.101436 0.947033 0.054699 0.005255 -405709.000000 0 0 1
31.671436 4.528485 22.085453 38.876140 0.142021 0.966604 0.056055 -0.005307 -556333.000000 0 0 1
31.356136 4.934885 20.749553 37.922346 0.156101 0.991830 0.057920 -0.003472 317898.000000 0 0 1
32.103036 6.027985 20.146453 38.377351 0.185609 1.018132 0.061520 -0.010897 1419920.000000 0 0 1
33.669536 5.836585 19.952753 39.570389 0.171643 1.042301 0.053419 -0.011627 1450540.000000 0 0 1
34.538636 5.853985 21.092553 40.891103 0.167895 1.028829 0.060966 -0.016916 495366.000000 0 0 1
34.614936 7.109085 21.800353 41.520938 0.202560 1.018029 0.067046 -0.025028 -584660.000000 0 0 1
35.215536 6.863285 23.222853 42.738034 0.192481 0.996342 0.074129 -0.019261 -158995.000000 0 0 1
34.393436 6.153085 24.094083 42.441651 0.177030 0.967088 0.072106 -0.006668 181107.000000 0 0 1
35.223336 5.690185 25.133043 43.643229 0.160162 0.957122 0.073663 -0.016026 252467.000000 0 0 1
34.512236 4.584685 25.909133 43.398121 0.132069 0.931027 0.066611 -0.008620 104554.000000 0 0 1
34.456536 3.331785 25.213213 42.825924 0.096396 0.941301 0.068523 -0.015153 -34283.300000 0 0 1
33.790736 2.359185 25.980573 42.689223 0.069704 0.916504 0.063435 -0.008220 -96008.500000 0 0 1
33.675136 1.015585 25.339173 42.155900 0.030149 0.925941 0.060663 -0.011903 63334.400000 0 0 1
32.666236 0.861485 24.347493 40.750773 0.026366 0.930450 0.076580 -0.012234 -9607.820000 0 0 1
32.822936 -0.425415 23.735023 40.507745 -0.012960 0.944759 0.071991 -0.009833 -162853.000000 0 0 1
31.558836 -0.973215 23.059553 39.097957 -0.030828 0.939999 0.070449 -0.008510 -66407.800000 0 0 1
30.499636 -1.290215 23.948333 38.799679 -0.042277 0.905579 0.063861 -0.002438 -291104.000000 0 0 1
29.629336 -2.190115 23.325153 37.772436 -0.073783 0.905213 0.076048 -0.010114 358313.000000 0 0 1
28.115136 -1.999315 23.624443 36.777336 -0.070992 0.873217 0.037818 0.002488 265223.000000 0 0 1
27.535836 -0.923515 22.962753 35.865905 -0.033526 0.875987 0.050448 0.004826 132039.000000 0 0 1
26.115836 -0.951515 23.098053 34.877820 -0.036418 0.846970 0.039870 0.008247 535445.000000 0 0 1
25.551436 0.461085 22.846753 34.279186 0.018043 0.841305 0.036437 0.006936 -158976.000000 0 0 1
25.735036 0.982585 21.522553 33.563043 0.038162 0.874660 0.027258 0.006698 72290.100000 0 0 1
25.069636 2.231485 21.548253 33.132965 0.088778 0.862742 0.032519 0.008926 3099.470000 0 0 1
25.018436 3.046885 20.256053 32.334399 0.121189 0.893799 0.024610 0.005819 70018.700000 0 0 1
24.165736 2.607985 19.189953 30.968350 0.107505 0.902483 0.034938 -0.002462 603914.000000 0 0 1
23.837136 3.699985 18.330453 30.296938 0.153991 0.920997 0.026223 0.001264 83392.600000 0 0 1
23.497736 3.233585 16.872153 29.107889 0.136754 0.952507 0.037208 -0.005257 358454.000000 0 0 1
24.689136 2.865085 16.174253 29.654150 0.115530 0.993895 0.030065 -0.003551 646196.000000 0 0 1
24.504836 2.600585 14.819153 28.755127 0.105730 1.029372 0.028399 -0.019186 -559679.000000 0 0 1
23.794236 1.282685 14.477253 27.881926 0.053855 1.024842 0.040668 0.003155 -12358.500000 0 0 1
22.395736 1.500585 14.395453 26.665517 0.066903 1.000534 0.042180 0.000917 577715.000000 0 0 1
21.696336 0.343385 13.947753 25.795130 0.015826 0.999512 0.050318 -0.000426 -817602.000000 0 0 1
20.173236 0.395085 13.929153 24.518092 0.019582 0.966580 0.052222 -0.021716 -758095.000000 0 1 0
19.531236 1.111985 12.900853 23.433687 0.056872 0.987802 0.069614 -0.015127 353279.000000 0 1 0
19.766136 0.738785 11.515253 22.887704 0.037359 1.043592 0.084577 -0.016231 -1169590.000000 0 1 0
19.480736 -0.749915 11.127353 22.447259 -0.038476 1.052143 0.083740 -0.008000 -918458.000000 0 1 0
20.438736 -1.681815 11.438053 23.481897 -0.082101 1.062029 0.089731 -0.020971 142594.000000 0 1 0
21.651136 -1.522115 10.691453 24.194952 -0.070186 1.113094 0.087074 -0.012785 332536.000000 0 1 0
22.799836 -2.481615 11.158953 25.505159 -0.108417 1.117960 0.094608 -0.022245 326251.000000 0 0 1
23.207136 -2.141715 12.488053 26.440680 -0.092026 1.078893 0.083940 -0.032713 295105.000000 0 0 1
24.254336 -3.008315 12.891153 27.631587 -0.123402 1.085425 0.078015 -0.027200 120481.000000 0 0 1
24.664136 -2.809515 14.387953 28.691918 -0.113422 1.045507 0.091138 -0.028439 -89404.200000 0 0 1
25.502936 -1.689815 14.481953 29.376558 -0.066163 1.055289 0.066636 -0.019511 -175632.000000 0 0 1
25.832536 -1.471415 15.823453 30.329303 -0.056898 1.021929 0.056776 -0.029072 -418594.000000 0 0 1
27.005136 -0.513615 16.007953 31.397384 -0.019017 1.035786 0.069296 -0.022811 -755478.000000 0 0 1
28.267736 -1.060615 15.787753 32.395107 -0.037503 1.061744 0.083141 -0.024366 -1271900.000000 0 0 1
29.232336 -0.138715 16.082453 33.364562 -0.004745 1.067835 0.069613 -0.020136 -496194.000000 0 0 1
30.583436 -0.871615 16.370053 34.699926 -0.028492 1.079510 0.067046 -0.012688 313103.000000 0 0 1
31.101336 -1.449715 15.160053 34.629784 -0.046579 1.117674 0.068627 -0.003376 31519.500000 0 0 1
32.479936 -1.707815 15.227553 35.912967 -0.052532 1.132925 0.063210 -0.009102 -119396.000000 0 0 1
33.109436 -2.133515 13.874053 35.962146 -0.064349 1.174726 0.060778 -0.013657 40229.800000 0 0 1
32.917736 -1.250315 12.755253 35.324738 -0.037965 1.201365 0.069943 -0.017346 115855.000000 0 0 1
33.278036 -1.920715 11.598453 35.293639 -0.057653 1.235947 0.060993 -0.018231 -120015.000000 0 0 1
32.964036 -1.030215 10.393153 34.578991 -0.031243 1.265514 0.060615 -0.006662 -577871.000000 0 0 1
33.726136 0.090085 10.247553 35.248726 0.002671 1.275816 0.061442 -0.000822 -50102.400000 0 0 1
32.901236 1.154385 9.770753 34.340814 0.035072 1.282287 0.058410 -0.000624 106826.000000 0 0 1
33.687936 2.416185 9.316653 35.035910 0.071600 1.301641 0.069382 -0.003111 -129458.000000 0 0 1
34.083236 2.316985 7.968453 35.078934 0.067876 1.341638 0.072531 -0.007041 84734.900000 0 0 1
34.248636 3.584285 7.374653 35.216497 0.104275 1.359826 0.074324 -0.001667 -187777.000000 0 0 1
34.837836 3.709985 5.957253 35.537693 0.106093 1.402369 0.072157 -0.000592 -17458.300000 0 0 1
35.080936 5.052185 5.424653 35.855592 0.143032 1.418921 0.063704 0.007957 167954.000000 0 0 1
35.443836 5.045785 4.086953 36.033715 0.141410 1.457131 0.075383 -0.012479 -126603.000000 0 0 1
35.985936 6.449785 3.658253 36.741940 0.177348 1.471065 0.088162 -0.022370 9932.560000 0 0 1
34.951336 7.414885 3.605853 35.910703 0.209049 1.470215 0.094212 -0.024293 -16391.900000 0 0 1
35.323736 8.667385 3.054453 36.499583 0.240616 1.487014 0.097348 -0.028796 -896083.000000 0 0 1
34.162436 9.706285 3.012153 35.642069 0.276827 1.486184 0.125665 -0.027479 -58058.400000 0 0 1
33.195236 9.573685 2.022953 34.607390 0.280786 1.512309 0.136593 -0.037129 -300.863000 0 0 1
32.352436 8.433685 2.197153 33.505740 0.255006 1.505174 0.131179 -0.027349 -1282090.000000 0 0 1
31.171236 8.448385 1.217453 32.318777 0.264673 1.533117 0.151046 -0.037875 -385596.000000 0 0 1
31.439736 8.099185 -0.129747 32.466454 0.252128 1.574793 0.150870 -0.035924 555159.000000 0 0 1
30.281536 8.014485 -0.970347 31.339192 0.258733 1.601764 0.153812 -0.030229 169019.000000 0 0 1
30.670936 7.631985 -2.398347 31.697091 0.243881 1.646533 0.125185 -0.021137 -1092340.000000 0 0 1
29.658436 7.069885 -3.147647 30.651489 0.234010 1.673669 0.129385 -0.024995 143605.000000 0 0 1
30.096636 6.653585 -4.449447 31.142820 0.217575 1.714159 0.117326 -0.024927 -586944.000000 0 0 1
28.979936 5.912885 -5.157547 30.023311 0.201271 1.743437 0.112926 -0.014540 -700747.000000 0 0 1
28.671536 4.639485 -4.712847 29.424356 0.160424 1.731657 0.115427 -0.022083 597662.000000 0 0 1
27.720436 4.044585 -5.575247 28.563344 0.144884 1.767246 0.097989 -0.014780 -436415.000000 0 0 1
27.592436 2.475985 -5.551447 28.254054 0.089495 1.768566 0.113063 -0.011230 -641867.000000 0 0 1
26.986736 2.129985 -4.352847 27.418388 0.078764 1.730227 0.108379 -0.024540 332888.000000 0 0 1
26.783036 0.721385 -4.176247 27.116276 0.026928 1.725424 0.105828 -0.023010 -104720.000000 0 0 1
26.961036 0.310785 -2.706647 27.098339 0.011527 1.670846 0.101921 -0.022404 1004370.000000 0 0 1
28.323836 0.451785 -2.242747 28.416082 0.015949 1.649804 0.116282 -0.021309 1225610.000000 0 0 1
28.414336 0.429085 -0.841047 28.430018 0.015100 1.600384 0.114667 -0.014973 -818048.000000 0 0 1
29.771936 0.810785 -0.292047 29.784406 0.027226 1.580602 0.129203 -0.017490 -1256960.000000 0 0 1
30.767236 -0.130715 -0.545647 30.772351 -0.004248 1.588529 0.111995 -0.017957 -739331.000000 0 0 1
31.927636 0.472485 -0.037847 31.931154 0.014798 1.571982 0.093232 -0.017874 -673609.000000 0 0 1
-3.365364 -21.343115 -8.746394 23.309947 1.414405 1.955432 0.028151 0.011359 177444.000000 0 1 0
-3.608264 -21.747215 -7.422894 23.260702 1.406376 1.895594 0.025623 -0.002490 -365506.000000 0 1 0
-2.908064 -22.935115 -7.103794 24.185537 1.444674 1.868913 0.023456 -0.002282 -214547.000000 0 1 0
-3.197664 -23.579615 -5.714394 24.471975 1.436007 1.806480 0.021979 -0.001276 -722538.000000 0 1 0
-2.862064 -22.760115 -4.626494 23.401254 1.445704 1.769810 0.020803 -0.007228 21217.300000 0 1 0
-3.375664 -23.389415 -3.435594 23.880183 1.427462 1.715165 0.021104 -0.010148 -46305.300000 0 1 0
-2.892364 -22.840115 -2.064294 23.114885 1.444832 1.660221 0.021297 -0.011780 -1238830.000000 0 1 0
-1.578864 -23.125815 -1.788894 23.248575 1.502629 1.647819 0.035668 -0.008380 -1589270.000000 0 1 0
-1.373564 -22.593115 -0.498594 22.640320 1.510075 1.592820 0.039044 -0.015436 -45942.300000 0 1 0
0.094436 -22.496315 -0.054294 22.496578 -1.566599 1.573210 0.043441 -0.019129 -96812.800000 0 1 0
0.845136 -21.479915 -0.719094 21.508558 -1.531471 1.604235 0.024090 -0.019451 29311.200000 0 1 0
2.065436 -21.365715 0.000606 21.465316 -1.474425 1.570768 0.025524 -0.017521 169892.000000 0 1 0
3.052636 -20.284815 -0.460094 20.518381 -1.421428 1.593222 0.027976 -0.014123 315918.000000 0 1 0
3.740436 -20.591915 -1.661094 20.994691 -1.391110 1.649999 0.021347 -0.012381 -464328.000000 0 1 0
4.727036 -19.650715 -1.962994 20.306373 -1.334729 1.667616 0.030045 -0.010010 -190259.000000 0 1 0
5.589836 -20.027715 -3.180394 21.034983 -1.298618 1.722574 0.028390 -0.007309 -689011.000000 0 1 0
6.526636 -21.026315 -2.831694 22.197328 -1.269823 1.698714 0.039908 -0.011339 -310591.000000 0 1 0
7.049536 -21.730115 -3.940394 23.182332 -1.257095 1.741600 0.037386 -0.011675 456316.000000 0 1 0
8.282136 -21.070415 -4.656494 23.113612 -1.196279 1.773646 0.053493 -0.008465 -378002.000000 0 1 0
8.092236 -19.837015 -5.289294 22.067353 -1.183467 1.812841 0.037651 -0.006711 -626877.000000 0 1 0
9.175636 -19.462715 -6.059094 22.354019 -1.130251 1.845282 0.046423 -0.002179 -808170.000000 0 1 0
8.815636 -18.201915 -6.757894 21.323561 -1.119767 1.893278 0.028881 -0.003948 281446.000000 0 1 0
9.850336 -17.878415 -7.697394 21.815515 -1.067214 1.931401 0.039714 -0.002098 765497.000000 0 1 0
9.610336 -16.612015 -8.305094 20.911532 -1.046323 1.979210 0.033539 -0.003935 172161.000000 0 1 0
10.191536 -16.474615 -9.758294 21.691119 -1.016798 2.037422 0.039046 -0.009936 -211071.000000 0 1 0
9.584336 -17.221015 -10.774294 22.461261 -1.062939 2.071090 0.043602 -0.008225 -58934.200000 0 1 0
9.149436 -16.408815 -11.841294 22.207603 -1.062142 2.133186 0.033300 -0.014064 -51357.400000 0 1 0
8.580836 -17.072615 -13.095394 23.164504 -1.105064 2.171619 0.041452 -0.014871 169753.000000 0 1 0
7.267136 -17.559815 -12.893994 22.965483 -1.178407 2.166935 0.035228 -0.014212 174950.000000 0 1 0
6.640836 -17.897915 -14.095694 23.730247 -1.215502 2.206815 0.040687 -0.009419 502881.000000 0 1 0
5.343536 -18.749215 -13.828894 23.902400 -1.293157 2.187754 0.048480 -0.005649 268295.000000 0 1 0
5.670636 -20.016715 -13.249294 24.665133 -1.294735 2.137871 0.052401 -0.008992 -906868.000000 0 1 0
4.548036 -20.764215 -13.022094 24.928140 -1.355169 2.120442 0.073047 -0.011350 -870925.000000 0 1 0
4.852636 -22.283115 -12.728794 26.117187 -1.356372 2.079874 0.059361 -0.013010 66972.300000 0 0 1
5.379236 -23.053715 -13.799894 27.401588 -1.341563 2.098576 0.073581 -0.017756 -57470.100000 0 0 1
5.316236 -24.413315 -13.500194 28.399428 -1.356384 2.066179 0.065773 -0.015738 107318.000000 0 0 1
3.988536 -25.178745 -13.787594 28.982328 -1.413693 2.066583 0.071266 -0.013601 202141.000000 0 0 1
2.947336 -24.806015 -12.887094 28.108759 -1.452535 2.047072 0.075843 -0.012407 -87766.800000 0 0 1
1.684836 -24.782915 -13.522994 28.282555 -1.502917 2.069331 0.078410 -0.016687 295579.000000 0 0 1
0.835436 -26.030155 -13.174794 29.186334 -1.538712 2.039133 0.070134 -0.009970 -454719.000000 0 0 1
1.454936 -27.142745 -13.802294 30.485222 -1.517244 2.040648 0.070470 -0.006754 234278.000000 0 0 1
0.899536 -28.377995 -13.408194 31.399035 -1.539109 2.011997 0.072726 -0.007370 789706.000000 0 0 1
-0.564664 -28.831295 -13.721394 31.934919 1.551214 2.014921 0.065065 -0.014152 337188.000000 0 0 1
-1.646764 -28.208285 -13.119494 31.153495 1.512484 2.005481 0.056253 -0.017487 -454200.000000 0 0 1
-2.838864 -28.906785 -13.435794 32.002842 1.472903 2.004056 0.047699 -0.020739 382237.000000 0 0 1
-4.120564 -28.141495 -12.947494 31.249966 1.425406 1.997992 0.028371 -0.022236 360520.000000 0 0 1
-4.546764 -28.169575 -11.584494 30.796079 1.410770 1.956453 0.019980 -0.025125 102132.000000 0 0 1
-4.897264 -29.488625 -11.102094 31.887594 1.406225 1.926408 0.013745 -0.030996 -908047.000000 0 0 1
-5.330764 -29.538055 -9.606194 31.514960 1.392247 1.880539 0.020930 -0.027915 -16444.000000 0 0 1
-6.670364 -29.089585 -9.417794 31.295248 1.345389 1.876468 0.021658 -0.022468 202287.000000 0 0 1
-6.816064 -27.664115 -9.256194 29.957288 1.329221 1.884916 0.025389 -0.014419 -1491260.000000 0 0 1
-8.266364 -27.330655 -8.960494 29.926375 1.277086 1.874879 0.018857 -0.014530 603307.000000 0 0 1
-9.294264 -27.412965 -10.005894 30.626327 1.243913 1.903616 0.037767 -0.016852 916116.000000 0 0 1
-9.505364 -28.765595 -10.540694 32.076746 1.251650 1.905626 0.034683 -0.025435 -1839260.000000 0 0 1
-10.795764 -28.934215 -11.259794 32.871268 1.213680 1.920418 0.040818 -0.024130 -1271310.000000 0 0 1
-10.777464 -28.358875 -12.567894 32.837958 1.207616 1.963540 0.054318 -0.024113 94328.500000 0 0 1
-11.846364 -28.972075 -13.257794 33.992448 1.182651 1.971452 0.056405 -0.027684 -99453.900000 0 0 1
-12.254564 -28.259445 -14.571394 34.074860 1.161626 2.012664 0.062636 -0.025040 733537.000000 0 0 1
-13.319764 -27.265585 -14.535194 33.646695 1.116375 2.017500 0.061510 -0.029730 687405.000000 0 0 1
-13.013464 -26.119175 -13.765994 32.265525 1.108562 2.011579 0.061588 -0.018094 9697.440000 0 0 1
-13.909764 -24.856415 -13.950994 31.716764 1.060609 2.026241 0.084352 -0.014811 46620.500000 0 0 1
-13.628264 -24.118215 -15.134494 31.566925 1.056463 2.070815 0.068079 -0.014858 -49934.600000 0 0 1
-14.745764 -23.345615 -15.474794 31.653191 1.007444 2.081608 0.073736 -0.011650 -233553.000000 0 0 1
-14.482264 -22.495215 -16.779594 31.580460 0.998797 2.130964 0.065042 -0.010566 370882.000000 0 0 1
-13.709764 -21.293815 -16.541894 30.249272 0.998765 2.149397 0.040161 -0.000239 477629.000000 0 0 1
-13.373264 -20.752815 -17.794694 30.433118 0.998363 2.195325 0.024215 0.005819 -258271.000000 0 0 1
-13.299264 -19.218815 -17.950894 29.469779 0.965465 2.225758 0.024798 0.002847 -662799.000000 0 0 1
-12.163364 -18.553115 -17.529594 28.274585 0.990497 2.239510 0.012606 0.011454 -680619.000000 0 0 1
-12.356864 -17.179515 -17.644494 27.552785 0.947248 2.265801 0.019343 0.011946 359020.000000 0 0 1
-11.041464 -16.350315 -17.713294 26.514289 0.976837 2.302403 0.008630 0.005392 413640.000000 0 0 1
-10.414264 -16.083115 -16.490594 25.279699 0.996161 2.281445 0.013758 0.005775 -203777.000000 0 0 1
-9.210464 -15.387615 -16.698294 24.503966 1.031434 2.320542 0.016986 0.002567 -702293.000000 0 1 0
-8.522464 -14.662115 -15.557994 23.014369 1.044272 2.313134 0.013266 0.004059 -389844.000000 0 1 0
-7.901064 -15.437015 -14.554494 22.639822 1.097733 2.269037 0.017729 0.001901 416762.000000 0 1 0
-6.794664 -16.257715 -14.925594 23.092295 1.174925 2.273581 0.016831 0.002045 -237125.000000 0 1 0
-6.312164 -17.143515 -13.774394 22.879629 1.218005 2.216847 0.018627 0.002783 -425539.000000 0 1 0
-5.644864 -16.499715 -12.695894 21.570600 1.241160 2.200090 0.020558 -0.006336 236137.000000 0 1 0
-5.530164 -17.163115 -11.475594 21.373920 1.259088 2.137551 0.020833 -0.017515 -431388.000000 0 1 0
-4.536064 -18.335815 -11.452894 22.089517 1.328277 2.115865 0.037047 -0.012036 -996113.000000 0 1 0
-3.240064 -17.891715 -11.673894 21.607667 1.391645 2.141550 0.034121 -0.005096 -1769520.000000 0 1 0
-2.370864 -18.949815 -11.631994 22.361121 1.446330 2.117868 0.030544 0.004883 -73346.100000 0 1 0
-0.937464 -18.512515 -12.052294 22.109949 1.520200 2.147313 0.029816 0.010654 -176008.000000 0 1 0
-0.767664 -18.104815 -13.443394 22.563210 1.528421 2.209071 0.041565 0.002989 -279557.000000 0 1 0
0.473136 -17.523915 -13.769394 22.291425 -1.543803 2.236610 0.046710 0.000810 879965.000000 0 1 0
1.725236 -18.486215 -13.944094 23.219697 -1.477740 2.214958 0.050906 -0.003769 105338.000000 0 1 0
1.710636 -19.336115 -15.079994 24.580843 -1.482558 2.231263 0.071592 -0.005193 6320.520000 0 1 0
0.853536 -20.461815 -15.049594 25.414654 -1.529107 2.204536 0.072213 -0.009431 -941081.000000 0 0 1
0.971336 -21.448515 -16.268894 26.938062 -1.525540 2.219228 0.086261 -0.010994 42834.100000 0 0 1
2.131736 -22.248515 -16.369994 27.704104 -1.475273 2.202954 0.097360 -0.011444 -253604.000000 0 0 1
3.315736 -21.520715 -16.609094 27.386078 -1.417927 2.222422 0.090619 -0.016005 -1273530.000000 0 0 1
4.474736 -22.485915 -16.638394 28.328003 -1.374361 2.198574 0.089427 -0.019037 -790903.000000 0 0 1
4.676636 -23.165415 -17.884994 29.637482 -1.371594 2.218628 0.072294 -0.012059 370215.000000 0 0 1
5.979436 -23.707615 -18.061794 30.397912 -1.323733 2.207041 0.070571 -0.012471 308140.000000 0 0 1
6.315236 -23.435415 -19.521794 31.148054 -1.307575 2.248161 0.063996 -0.008791 -123878.000000 0 0 1
6.687836 -22.101915 -19.834994 30.440906 -1.276964 2.280475 0.086239 -0.024102 -73517.200000 0 0 1
7.058436 -22.101715 -21.171094 31.408956 -1.261673 2.310469 0.078146 -0.012330 -23985.000000 0 0 1
7.281736 -20.692715 -21.769894 30.905346 -1.232431 2.352381 0.073007 -0.012245 -276329.000000 0 0 1
6.113036 -19.932915 -21.824094 30.182468 -1.273222 2.379035 0.095806 -0.017118 -771965.000000 0 0 1
6.227336 -18.653015 -22.457994 29.850899 -1.248580 2.422402 0.096772 -0.015807 473171.000000 0 0 1
4.974136 -17.802715 -22.909294 29.436617 -1.298341 2.462684 0.098469 -0.016952 -1266980.000000 0 0 1
4.225236 -18.313815 -23.976394 30.464994 -1.344051 2.476751 0.098895 -0.017866 -194103.000000 0 0 1
3.283536 -17.356915 -24.421394 30.140481 -1.383828 2.515379 0.104456 -0.013634 82065.000000 0 0 1
2.034036 -17.303515 -23.513694 29.265043 -1.453783 2.503904 0.100083 -0.006140 -1292330.000000 0 0 1
2.309136 -16.676015 -22.262294 27.911132 -1.433201 2.494124 0.110739 -0.014917 -752882.000000 0 0 1
1.129836 -16.165415 -21.722194 27.100754 -1.501018 2.500654 0.087908 -0.008216 -175219.000000 0 0 1
1.383936 -15.115115 -20.619594 25.603703 -1.479491 2.507039 0.087129 -0.015796 208843.000000 0 0 1
2.022936 -13.887815 -20.996394 25.254945 -1.426151 2.552378 0.084246 -0.014419 59120.700000 0 0 1
1.975036 -12.995815 -19.929894 23.874519 -1.419976 2.558524 0.081213 -0.021851 -546151.000000 0 1 0
3.191936 -12.118815 -19.814194 23.444752 -1.313259 2.577631 0.067897 -0.021387 -4203.880000 0 1 0
4.424236 -12.748315 -19.389094 23.622666 -1.236757 2.533578 0.064528 -0.023956 1104000.000000 0 1 0
5.624236 -12.000115 -19.485294 23.565047 -1.132516 2.544320 0.062253 -0.019861 559049.000000 0 1 0
5.744636 -10.870615 -18.414294 22.141755 -1.084644 2.552877 0.059299 -0.016648 -536957.000000 0 1 0
4.966036 -9.659915 -18.428294 21.391061 -1.095943 2.609003 0.033622 -0.006799 57545.200000 0 1 0
5.195736 -8.673215 -19.432294 21.905122 -1.031072 2.661846 0.045819 -0.007628 -250357.000000 0 1 0
4.501636 -8.855115 -20.838294 23.084893 -1.100479 2.696756 0.052599 -0.021156 805452.000000 0 1 0
3.072536 -8.902215 -20.728294 22.767347 -1.238455 2.715142 0.046438 -0.020385 245823.000000 0 1 0
2.497236 -9.044515 -21.988994 23.907222 -1.301403 2.738274 0.049658 -0.025511 -39310.000000 0 1 0
0.965836 -8.893315 -21.991194 23.741030 -1.462618 2.755254 0.028251 -0.026093 -179012.000000 0 1 0
0.687936 -7.578615 -21.477694 22.785960 -1.480271 2.801083 0.034014 -0.029714 298090.000000 0 1 0
-0.684664 -7.241415 -21.680694 22.868304 1.476528 2.817900 0.031027 -0.024813 426394.000000 0 1 0
-0.967064 -6.286015 -22.886294 23.753561 1.418149 2.870538 0.034799 -0.017712 -132106.000000 0 1 0
-0.675864 -6.747015 -24.173494 25.106509 1.470957 2.868116 0.037198 -0.017477 -392787.000000 0 0 1
-1.202064 -5.929415 -25.223154 25.938589 1.370778 2.906180 0.040887 -0.019361 -6453.260000 0 0 1
-0.455564 -4.699115 -25.685844 26.116121 1.474152 2.959818 0.043297 -0.020834 -562419.000000 0 0 1
-1.271264 -3.999615 -26.575634 26.904969 1.263048 2.984967 0.030958 -0.020621 58322.000000 0 0 1
-0.671964 -2.806615 -27.130774 27.283833 1.335798 3.035620 0.020200 -0.012634 -145887.000000 0 0 1
-1.174664 -1.533115 -26.364484 26.435134 0.917011 3.068466 0.030127 -0.019918 -90908.100000 0 0 1
-2.570964 -1.392015 -26.329624 26.491445 0.496245 3.031006 0.020230 -0.015348 -396829.000000 0 0 1
-3.109164 -0.696715 -27.417674 27.602195 0.220443 3.025899 0.030332 -0.016453 -442332.000000 0 0 1
-4.645364 -0.744115 -27.393104 27.794159 0.158835 2.971509 0.041918 -0.015197 -359390.000000 0 0 1
-5.245764 0.165585 -26.549074 27.062867 -0.031555 2.946423 0.047017 -0.021888 -822352.000000 0 0 1
-6.593364 -0.147215 -26.393544 27.205023 0.022324 2.896734 0.055971 -0.025987 -779123.000000 0 0 1
-7.443864 0.938385 -25.671034 26.744975 -0.125400 2.857246 0.052524 -0.021328 -528881.000000 0 0 1
-7.744664 2.153785 -26.338914 27.538283 -0.271245 2.845374 0.063258 -0.028745 648002.000000 0 0 1
-8.673964 2.130885 -27.433924 28.851317 -0.240894 2.826838 0.077837 -0.034713 1105590.000000 0 0 1
-10.098064 1.477585 -27.292024 29.137754 -0.145293 2.783751 0.068722 -0.020004 795532.000000 0 0 1
-11.176964 2.139485 -27.983714 30.209108 -0.189131 2.755357 0.070460 -0.037522 112704.000000 0 0 1
-12.364064 1.455685 -27.768004 30.431089 -0.117196 2.720121 0.038320 -0.022720 -1072260.000000 0 0 1
-13.581064 2.210585 -28.229714 31.404598 -0.161355 2.688058 0.027342 -0.020577 -1121540.000000 0 0 1
-14.836164 1.583185 -28.107074 31.821783 -0.106309 2.653577 0.032180 -0.015136 922357.000000 0 0 1
-15.929564 2.156885 -28.847684 33.024113 -0.134583 2.633212 0.025584 -0.017953 686944.000000 0 0 1
-16.547064 3.423385 -28.308304 32.967939 -0.204010 2.603449 0.013950 -0.003888 -715626.000000 0 0 1
-15.717164 4.587085 -28.529154 32.893514 -0.283965 2.620586 0.019611 -0.010043 267804.000000 0 0 1
-15.532064 5.208185 -29.797314 34.003678 -0.323536 2.638917 0.011412 -0.016705 -347231.000000 0 0 1
-16.755564 5.768785 -30.556264 35.322982 -0.331580 2.616053 0.004622 -0.005062 -226871.000000 0 0 1
-17.404464 6.807985 -29.900594 35.260595 -0.372865 2.582976 0.001470 0.004021 132099.000000 0 0 1
-18.476964 7.341685 -30.664034 36.545609 -0.378213 2.566353 -0.005414 0.001633 6851.880000 0 0 1
-19.211664 8.410185 -29.847164 36.478383 -0.412632 2.529096 0.005129 -0.000975 -473696.000000 0 0 1
-18.336664 9.496485 -29.678644 36.155752 -0.477862 2.533703 -0.006143 0.004984 340698.000000 0 0 1
-18.957464 10.633385 -29.165724 36.374356 -0.511179 2.501133 0.015057 -0.003991 -275076.000000 0 0 1
-8.732664 24.846085 31.220783 40.845131 -1.232812 0.700733 0.023471 -0.001657 -530633.000000 0 0 1
-9.513064 26.012985 30.889153 41.488716 -1.220200 0.730982 0.031122 -0.003092 292264.000000 0 0 1
-9.591564 26.991485 31.945213 42.907284 -1.229359 0.730985 0.047540 -0.005426 -705568.000000 0 0 1
-8.350464 27.842685 32.046203 43.265512 -1.279417 0.736704 0.039735 -0.011688 -671041.000000 0 0 1
-8.017164 28.549085 30.875293 42.808982 -1.297027 0.765214 0.047695 -0.002451 -242821.000000 0 0 1
-6.664364 28.477185 30.515073 42.267405 -1.340909 0.764176 0.044455 -0.001317 -227420.000000 0 0 1
-6.221464 29.518485 29.474373 42.175660 -1.363072 0.797011 0.062372 -0.011034 -40021.900000 0 0 1
-6.391964 30.779185 30.027733 43.472753 -1.366035 0.808305 0.061752 -0.005761 294755.000000 0 0 1
-5.867364 31.789885 29.182793 43.550639 -1.388283 0.836468 0.076072 0.004665 4539.910000 0 0 1
-6.271264 33.217085 29.618383 44.943878 -1.384196 0.851297 0.068193 -0.003777 84460.500000 0 0 1
-5.548964 33.619285 30.779303 45.917457 -1.407218 0.836159 0.077471 -0.014997 727628.000000 0 0 1
-6.349364 -33.987217 31.639823 46.867086 1.386109 0.829700 0.080285 -0.015172 794300.000000 0 0 1
-7.563964 34.055185 32.481608 47.665754 -1.352235 0.821061 0.047885 -0.014456 110829.000000 0 0 1
-7.242864 33.217085 33.555011 47.767904 -1.356110 0.791949 0.052423 -0.013613 -74968.800000 0 0 1
-7.062864 31.828785 33.214429 46.541959 -1.352433 0.776109 0.059601 -0.007753 7660.310000 0 0 1
-6.942664 30.829885 -34.029534 46.440194 -1.349299 2.393166 0.052018 -0.008296 -112329.000000 0 0 1
-5.704764 31.031285 -33.393924 45.941693 -1.388987 2.384559 0.048965 -0.011061 -220401.000000 0 0 1
-5.707964 30.352585 -32.159774 44.588242 -1.384912 2.376418 0.057139 -0.015353 749477.000000 0 0 1
-4.234864 30.168685 -31.620694 43.908450 -1.431335 2.374816 0.060856 -0.022471 1287240.000000 0 0 1
-3.529564 28.996185 -32.002914 43.329241 -1.449667 2.401785 0.060532 -0.016522 201629.000000 0 0 1
-3.015864 28.973985 -33.307434 44.248982 -1.467081 2.422992 0.062214 -0.021654 -715838.000000 0 0 1
-2.450064 27.604485 -33.737384 43.660297 -1.482272 2.453919 0.056901 -0.023693 26479.400000 0 0 1
-1.163564 27.377285 -33.123234 42.988583 -1.528321 2.450441 0.075752 -0.014596 827783.000000 0 0 1
-0.648964 26.039785 -33.235014 42.226268 -1.545879 2.476840 0.075820 -0.014064 408029.000000 0 0 1
-0.242864 25.612485 33.815010 42.420671 -1.561314 0.648261 0.060104 -0.012822 -393900.000000 0 0 1
-1.431964 25.470785 33.078948 41.773535 -1.514636 0.656942 0.067727 -0.009510 60123.800000 0 0 1
-1.164664 25.276285 31.682993 40.546999 -1.524752 0.673907 0.076895 -0.004684 155951.000000 0 0 1
-0.633464 26.477885 30.928523 40.719200 -1.546877 0.708166 0.050202 -0.008759 -488994.000000 0 0 1
-1.594864 27.452185 30.750853 41.252649 -1.512765 0.729621 0.045033 -0.012641 -555189.000000 0 0 1
-1.092964 28.534785 30.065943 41.465522 -1.532512 0.759641 0.041802 -0.016000 -146267.000000 0 0 1
-1.984564 29.795685 30.181303 42.457419 -1.504289 0.780075 0.057827 -0.005632 92262.200000 0 0 1
-2.084164 30.257285 31.545173 43.760085 -1.502024 0.765745 0.068245 -0.013378 -109683.000000 0 0 1
-2.901764 31.397485 31.633653 44.664419 -1.478638 0.783778 0.057158 -0.009573 -99147.900000 0 0 1
-2.888764 32.047985 33.036707 46.117701 -1.480901 0.772230 0.072445 -0.012187 112030.000000 0 0 1
-1.697164 32.789285 33.079564 46.607673 -1.519083 0.781660 0.082415 -0.021676 -309629.000000 0 0 1
-1.164964 33.023285 -34.115892 47.495143 -1.535534 2.372156 0.063454 -0.025435 646094.000000 0 0 1
0.348736 33.427185 -34.216221 47.835637 1.560364 2.367831 0.062401 -0.027644 671002.000000 0 0 1
0.547436 -33.807917 33.648476 47.702148 -1.554605 0.787827 0.072178 -0.023130 121267.000000 0 0 1
1.901036 -33.580917 33.300031 47.330582 -1.514246 0.790398 0.045813 -0.019656 243551.000000 0 0 1
2.069936 -32.101617 32.946973 46.046732 -1.506405 0.773440 0.054012 -0.023469 -128212.000000 0 0 1
1.645736 -31.282017 34.036640 46.257604 -1.518235 0.743940 0.057549 -0.022051 253369.000000 0 0 1
1.933836 -29.864717 33.862529 45.191946 -1.506133 0.723785 0.038293 -0.016317 -233772.000000 0 0 1
1.571136 -28.985517 -33.441114 44.282466 -1.516645 2.426721 0.050482 -0.010953 -550153.000000 0 0 1
0.222536 -28.667817 -33.335834 43.967842 -1.563034 2.431324 0.049430 -0.018846 -709109.000000 0 0 1
-0.161564 -28.012517 -32.147404 42.640155 1.565029 2.424810 0.051585 -0.023015 -18962.900000 0 0 1
-1.642164 -27.598417 -32.268714 42.492814 1.511364 2.433175 0.082577 -0.018103 -89585.100000 0 0 1
-2.144764 -26.981917 -31.121954 41.245605 1.491474 2.425768 0.078810 -0.020337 -563066.000000 0 0 1
-3.451564 -26.577917 -31.381724 41.268773 1.441653 2.434761 0.086443 -0.027424 -628248.000000 0 0 1
-4.173464 -25.760417 -30.316464 40.001311 1.410181 2.430864 0.077150 -0.031619 -717960.000000 0 0 1
-4.693564 -26.540917 -29.257104 39.779743 1.395763 2.397167 0.083797 -0.034252 -135840.000000 0 0 1
-4.909264 -25.808817 -28.055774 38.435952 1.382825 2.389024 0.082584 -0.030237 1415.170000 0 0 1
-3.624264 -25.623817 -27.214164 37.554308 1.430287 2.381339 0.083774 -0.036086 -526977.000000 0 0 1
-2.782564 -24.692717 -27.789454 37.279038 1.458582 2.411998 0.072046 -0.032840 -458959.000000 0 0 1
-1.664664 -24.615517 -26.905804 36.505028 1.503273 2.399482 0.060646 -0.028677 -307734.000000 0 0 1
-0.635864 -23.582317 -27.420444 36.171961 1.543839 2.431127 0.058290 -0.018905 501639.000000 0 0 1
0.148036 -23.719317 -28.629834 37.179232 -1.564555 2.449714 0.039721 -0.021366 399704.000000 0 0 1
1.124136 -24.733717 -28.545764 37.787314 -1.525378 2.427110 0.044531 -0.020072 -483475.000000 0 0 1
2.123436 -24.831417 -29.677254 38.753679 -1.485490 2.443068 0.012731 -0.017489 -29333.400000 0 0 1
2.816636 -23.602017 -29.934584 38.223919 -1.452019 2.470492 0.038226 -0.015613 52427.200000 0 0 1
3.761236 -23.788117 -30.944504 39.212036 -1.413980 2.480234 0.037666 -0.008861 -163421.000000 0 0 1
5.010936 -22.787817 -31.000274 38.799627 -1.354346 2.496400 0.043356 -0.018499 515149.000000 0 0 1
6.104336 -23.198217 -30.184614 38.555559 -1.313491 2.470088 0.034771 -0.019682 454805.000000 0 0 1
6.835236 -24.384817 -30.514234 39.654234 -1.297503 2.448866 0.043297 -0.009809 -356626.000000 0 0 1
7.358036 -24.459217 -31.960834 40.913188 -1.278579 2.467361 0.043842 -0.011997 -936316.000000 0 0 1
6.393136 -25.043717 -32.812884 41.770149 -1.320855 2.474394 0.013004 -0.016645 63663.400000 0 0 1
6.678636 -24.809217 -34.226107 42.796353 -1.307830 2.497664 0.025861 -0.016747 7105.830000 0 0 1
6.135136 -23.466417 33.759760 41.569629 -1.315077 0.623010 0.035044 -0.013663 -247485.000000 0 0 1
4.726836 -23.489017 33.740223 41.382117 -1.372213 0.617491 0.038170 -0.011666 -329270.000000 0 0 1
4.265936 -22.242317 33.245955 40.227011 -1.381304 0.598008 0.054402 -0.020916 104658.000000 0 0 1
2.769236 -21.934517 33.533848 40.166039 -1.445211 0.582880 0.035391 -0.014677 925692.000000 0 0 1
1.760336 -22.844117 33.063436 40.226152 -1.493890 0.605990 0.046148 -0.018096 466231.000000 0 0 1
1.623136 -23.995417 33.836144 41.512640 -1.503256 0.617928 0.037450 -0.012290 -1520440.000000 0 0 1
0.348236 -24.737517 33.620299 41.741952 -1.556720 0.634393 0.049157 -0.008757 -827552.000000 0 0 1
0.389936 -25.472617 32.414096 41.227174 -1.555489 0.666110 0.049235 -0.009730 395618.000000 0 0 1
-0.933464 -25.904917 32.126633 41.280221 1.534778 0.678911 0.051911 -0.017815 455280.000000 0 0 1
-0.912064 -26.923817 30.995743 41.066530 1.536934 0.715494 0.051619 -0.024901 -11223.500000 0 0 1
-2.168164 -27.002517 30.372643 40.698088 1.490673 0.728323 0.068802 -0.031515 -76437.100000 0 0 1
-2.135364 -27.976617 29.402593 40.641892 1.494617 0.762002 0.069298 -0.035365 -44440.800000 0 0 1
-3.506264 -28.106517 28.709353 40.329855 1.446688 0.778648 0.078154 -0.021823 -59710.600000 0 0 1
-4.526564 -28.582117 29.541373 41.353597 1.413730 0.775087 0.087660 -0.017294 -439816.000000 0 0 1
-5.769364 -28.614017 28.891063 41.069954 1.371837 0.790543 0.073575 -0.017402 92014.700000 0 0 1
-6.896364 -29.296117 29.742003 42.313226 1.339603 0.791329 0.074072 -0.012594 971148.000000 0 0 1
-8.024264 -29.803517 29.004683 42.354576 1.307794 0.816458 0.081743 -0.017536 538134.000000 0 0 1
-9.183264 -30.122717 29.738523 43.313857 1.274885 0.814019 0.069273 -0.018166 80319.800000 0 0 1
-9.215364 -31.355117 30.714063 44.848857 1.284942 0.816419 0.042535 -0.001186 -522952.000000 0 0 1
-9.123364 -32.641117 30.114173 45.338083 1.298246 0.844355 0.053485 -0.007103 -502889.000000 0 0 1
-10.216364 -33.051517 29.368753 45.379517 1.271008 0.866916 0.055915 -0.009840 -778400.000000 0 0 1
-10.154864 33.970285 28.910253 45.748271 -1.280318 0.886740 0.064510 -0.010912 -420126.000000 0 0 1
-10.528464 33.045985 29.914743 45.801502 -1.262363 0.859074 0.055399 -0.003249 301532.000000 0 0 1
-10.241964 31.725985 29.481353 44.503777 -1.258532 0.846717 0.056090 -0.015110 35878.500000 0 0 1
-10.747164 30.638785 30.485843 44.537887 -1.233436 0.816889 0.050951 0.004631 -563930.000000 0 0 1
-12.135964 30.593985 30.575573 44.923705 -1.193157 0.822200 0.044484 0.011068 -817039.000000 0 0 1
-12.640064 29.478685 31.241523 44.774958 -1.165723 0.798551 0.035696 0.006595 -61428.200000 0 0 1
-12.549364 29.497885 32.782853 45.851142 -1.168559 0.774194 0.041324 -0.007864 -505307.000000 0 0 1
-13.477664 30.384585 33.346544 47.083569 -1.153303 0.783792 0.037012 -0.001351 -26249.500000 0 0 1
-13.649164 30.129285 -33.772264 47.271972 -1.145434 2.366598 0.037383 -0.005129 -63688.600000 0 0 1
-14.939664 30.655685 -33.112714 47.533319 -1.117330 2.341473 0.033562 -0.002761 27691.100000 0 0 1
-15.128664 29.992185 -31.866684 46.302195 -1.103619 2.329847 0.020369 -0.002111 -768225.000000 0 0 1
-16.437864 30.171485 -31.438584 46.571520 -1.071943 2.311843 0.031245 0.001275 -572756.000000 0 0 1
-16.513964 29.932485 -29.927384 45.434712 -1.066643 2.289873 0.043057 -0.011584 -431899.000000 0 0 1
-16.388664 28.555285 -29.630754 44.294178 -1.049768 2.303597 0.021908 -0.017908 -103355.000000 0 0 1
-16.467264 28.283585 -28.271484 43.248223 -1.043553 2.283263 0.014138 -0.017410 -176983.000000 0 0 1
-16.842364 26.839385 -27.858034 42.191088 -1.010384 2.291991 -0.006571 -0.020416 163026.000000 0 0 1
-18.175864 26.454785 -28.117734 42.671122 -0.968812 2.290206 0.003344 -0.014468 -189201.000000 0 0 1
-18.491964 25.154085 -27.655774 41.707584 -0.936869 2.295732 -0.007267 -0.017669 -74719.900000 0 0 1
-19.879264 24.586685 -28.004864 42.236982 -0.890871 2.295671 0.002911 -0.017864 -380799.000000 0 0 1
-20.853964 24.949385 -27.059694 42.303507 -0.874574 2.264847 0.013893 -0.018499 -27216.100000 0 0 1
-22.109664 24.440485 -27.499254 42.922996 -0.835428 2.266160 0.053127 -0.028432 148347.000000 0 0 1
-23.240164 24.628485 -26.473984 42.983012 -0.814393 2.234346 0.092582 -0.042465 -432293.000000 0 0 1
-23.771364 25.930585 -26.450224 44.012355 -0.828814 2.215514 0.064584 -0.019217 1832710.000000 0 0 1
-25.198294 25.926485 -26.058564 44.566640 -0.799641 2.195319 0.060207 -0.025433 2301780.000000 0 0 1
-25.508004 25.642085 -24.543594 43.709986 -0.788019 2.167006 0.051223 0.001350 -681104.000000 0 0 1
-25.319154 24.293285 -24.080994 42.557227 -0.764723 2.172260 0.028499 -0.008374 -624567.000000 0 0 1
-26.495924 23.608985 -23.755194 42.705122 -0.727844 2.160676 0.021974 -0.008143 -550818.000000 0 0 1
-27.100774 23.949185 -22.372694 42.527084 -0.723741 2.124782 0.018860 -0.006006 -211095.000000 0 0 1
-26.405164 23.475485 -21.191894 41.199848 -0.726732 2.111067 0.004596 -0.000857 10224.800000 0 0 1
-25.336654 24.291285 -20.815694 40.808157 -0.764337 2.106082 0.009836 0.010011 -286070.000000 0 0 1
-24.451164 23.817385 -19.640794 39.381316 -0.772269 2.092934 0.007389 0.002123 11502.000000 0 0 1
-25.120724 23.700985 -18.380494 39.123267 -0.756326 2.059872 0.002571 0.004991 164505.000000 0 0 1
-24.216764 23.473285 -17.306694 37.907367 -0.769810 2.044912 0.022134 -0.002158 19350.400000 0 0 1
-24.923964 23.424885 -15.925794 37.730096 -0.754403 2.006555 0.025057 -0.001791 -191582.000000 0 0 1
-25.377954 24.705285 -15.495394 38.658750 -0.771968 1.983214 0.036498 -0.012715 -76561.400000 0 0 1
-25.575094 24.628185 -14.050494 38.184412 -0.766539 1.947615 0.003990 -0.007953 -37056.500000 0 0 1
-25.722084 25.945585 -13.338494 38.893630 -0.789724 1.920850 0.005243 -0.011497 -150242.000000 0 0 1
-24.510664 26.594785 -13.081994 38.460289 -0.826156 1.917865 0.026994 -0.014000 -457321.000000 0 0 1
-24.628964 27.554285 -12.048494 38.871464 -0.841398 1.885944 0.033211 -0.014490 -348944.000000 0 0 1
-23.273164 28.133885 -11.646494 38.324881 -0.879671 1.879568 0.041300 -0.013407 -222782.000000 0 0 1
-22.485464 27.192585 -10.946294 36.943933 -0.879869 1.871607 0.046952 -0.015486 -38444.300000 0 0 1
-21.374764 27.756885 -10.288194 36.512630 -0.914573 1.856436 0.049079 -0.013129 261759.000000 0 0 1
-20.388764 26.715685 -9.640494 34.962390 -0.918916 1.850155 0.073065 -0.017629 174584.000000 0 0 1
-19.572964 26.150185 -10.635694 34.351872 -0.928267 1.885580 0.058249 -0.017085 -69083.500000 0 0 1
-19.014464 24.955185 -10.044994 32.942572 -0.919695 1.880655 0.066911 -0.016811 279494.000000 0 0 1
-18.301664 24.058185 -11.171494 32.226534 -0.920466 1.924799 0.066846 -0.023678 282342.000000 0 0 1
-17.768964 22.828785 -10.725094 30.853155 -0.909392 1.925825 0.043127 -0.021362 184994.000000 0 0 1
-17.431564 22.103485 -11.929394 30.573419 -0.903024 1.971633 0.078622 -0.017644 -64571.600000 0 0 1
-17.078264 20.654485 -11.597294 29.202262 -0.879894 1.979191 0.061009 -0.001573 564274.000000 0 0 1
-18.172864 19.777485 -11.238294 29.115308 -0.827655 1.967080 0.048173 0.000131 402286.000000 0 0 1
-17.696364 18.516085 -10.786694 27.791357 -0.808031 1.969399 0.076354 -0.017000 -845630.000000 0 0 1
-18.771164 17.438585 -10.477594 27.681056 -0.748613 1.958984 0.063798 -0.007005 153620.000000 0 0 1
-19.428764 16.918085 -11.640594 28.270160 -0.716432 1.995184 0.036080 0.002614 434951.000000 0 0 1
-20.207964 17.843285 -12.402594 29.674383 -0.723333 2.001991 0.036458 0.011217 -1085360.000000 0 0 1
-20.845864 17.261785 -13.638494 30.307224 -0.691623 2.037571 0.052800 0.005841 -200685.000000 0 0 1
-20.033364 17.160185 -14.804694 30.248746 -0.708302 2.082234 0.066431 0.003541 -235019.000000 0 0 1
-20.738364 16.700185 -15.918094 31.021955 -0.677952 2.109616 0.054868 0.008309 -570941.000000 0 0 1
-19.894464 16.504885 -17.143494 31.017742 -0.692544 2.156396 0.077964 -0.005601 -680214.000000 0 0 1
-19.553464 17.735785 -17.705794 31.786651 -0.736691 2.161589 0.053421 -0.015381 126960.000000 0 0 1
-18.733664 17.478285 -18.821394 31.791280 -0.750745 2.204372 0.054411 -0.003287 -188072.000000 0 0 1
-17.898664 18.665685 -19.416294 32.338251 -0.806372 2.214813 0.032276 0.002993 -497426.000000 0 0 1
-16.845064 19.141585 -18.648794 31.590093 -0.849128 2.202272 0.048841 0.005008 217578.000000 0 0 1
-16.267964 20.408685 -19.121194 32.353998 -0.897820 2.203094 0.063615 -0.010407 178415.000000 0 0 1
33.085243 30.655085 1.911906 45.144467 0.747291 1.528433 0.081395 -0.024645 -70880.300000 0 0 1
34.434953 30.628885 1.508406 46.110410 0.726967 1.538078 0.093877 -0.026249 -58549.300000 0 0 1
34.633763 31.318785 0.268706 46.695139 0.735177 1.565042 0.072558 -0.015507 630868.000000 0 0 1
36.052613 31.121085 -0.369094 47.628238 0.712115 1.578546 0.050790 -0.013187 1036430.000000 0 0 1
-35.600659 31.889885 0.296406 47.796021 -0.730471 1.564595 0.035520 -0.011090 1369150.000000 0 0 1
-34.265665 31.763185 -0.241694 46.723593 -0.747517 1.575969 0.042141 -0.001790 1397490.000000 0 0 1
-33.210174 32.811985 0.207606 46.686028 -0.779367 1.566349 0.036407 -0.005157 369785.000000 0 0 1
-32.601394 32.533385 1.484906 46.081200 -0.784354 1.538567 0.041980 -0.011009 58035.600000 0 0 1
-32.005674 33.746885 1.936206 46.550664 -0.811873 1.529191 0.021915 0.001067 -93651.300000 0 0 1
-31.381594 33.506285 3.333406 46.028113 -0.818131 1.498312 0.035658 0.002510 -305998.000000 0 0 1
-31.036154 -33.751617 3.899706 46.017630 0.827287 1.485951 0.022090 0.018122 51146.600000 0 0 1
-30.471134 -33.872117 5.208606 45.857823 0.838206 1.456969 0.039633 -0.003731 -489564.000000 0 0 1
-30.269864 -32.529417 6.009606 44.839079 0.821363 1.436366 0.046044 0.000474 -94654.300000 0 0 1
-31.396154 -31.826117 6.530806 45.180435 0.792199 1.425739 0.052829 0.002900 389062.000000 0 0 1
-32.031774 -32.555417 7.630206 46.304533 0.793506 1.405258 0.042715 -0.011179 -843419.000000 0 0 1
-33.200564 -31.825517 8.323106 46.737727 0.764255 1.391760 0.051399 -0.011621 -81610.200000 0 0 1
-34.428713 -31.728717 7.661406 47.442017 0.744609 1.408596 0.047176 -0.011828 -113899.000000 0 0 1
-35.117747 -32.996317 7.606906 48.783994 0.754263 1.414227 0.047335 -0.015913 493848.000000 0 0 1
35.988353 -33.050417 7.249606 49.396846 -0.742869 1.423502 0.045865 -0.012613 1359160.000000 0 0 1
35.217073 -32.920317 8.420506 48.937659 -0.751703 1.397870 0.036007 -0.011668 339934.000000 0 0 1
33.813673 -32.880417 8.210506 47.873779 -0.771406 1.398441 0.043514 -0.000171 288780.000000 0 0 1
33.020563 -32.480417 9.495606 47.281091 -0.777152 1.368588 0.055201 -0.019308 618442.000000 0 0 1
31.629983 -32.435217 9.118506 46.213053 -0.797966 1.372179 0.046805 -0.023542 1711970.000000 0 0 1
30.671663 -32.572217 10.231306 45.895314 -0.815440 1.345980 0.053254 -0.026678 927843.000000 0 0 1
30.600703 -31.390517 11.316806 45.275133 -0.798138 1.318161 0.055088 -0.018248 -355068.000000 0 0 1
29.985033 -30.098017 11.075106 43.905020 -0.787279 1.315790 0.054993 -0.016295 577657.000000 0 0 1
30.568713 -29.388317 9.941906 43.554114 -0.765713 1.340500 0.060437 -0.016408 261637.000000 0 0 1
29.878463 -28.052617 9.584706 42.089648 -0.753891 1.341060 0.051811 -0.015084 65930.200000 0 0 1
30.478623 -27.531017 8.416806 41.925481 -0.734629 1.368666 0.056271 -0.012783 134606.000000 0 0 1
29.774113 -26.365817 8.032306 40.573046 -0.724762 1.371508 0.051461 -0.015895 -16091.700000 0 0 1
30.041703 -25.804917 6.590506 40.147633 -0.709679 1.405893 0.044108 -0.012679 743384.000000 0 0 1
31.339003 -25.259817 6.315606 40.744059 -0.678400 1.415162 0.048704 -0.012444 352817.000000 0 0 1
31.432163 -24.872917 4.929506 40.384934 -0.669426 1.448428 0.042146 -0.010141 -59312.700000 0 0 1
32.866043 -24.532917 4.490506 41.257792 -0.641226 1.461740 0.055471 -0.011215 78337.900000 0 0 1
33.674833 -25.683217 4.316706 42.570600 -0.651569 1.469221 0.047623 -0.007309 1261880.000000 0 0 1
35.072533 -25.321017 4.080006 43.449775 -0.625314 1.476756 0.047019 -0.011693 1497540.000000 0 0 1
35.934823 -26.584717 3.996106 44.877918 -0.636944 1.481634 0.042378 -0.004150 -322501.000000 0 0 1
35.870603 -27.306717 5.222006 45.383106 -0.650666 1.455476 0.030960 0.002840 -215180.000000 0 0 1
-36.148734 -28.571417 5.103606 46.358426 0.668851 1.460483 0.036734 0.003480 -920867.000000 0 0 1
35.871043 -29.537617 6.205506 46.879749 -0.688871 1.438036 0.043996 -0.001184 1230160.000000 0 0 1
34.535423 -29.948417 5.885006 46.089439 -0.714384 1.442760 0.034121 -0.000521 219400.000000 0 0 1
33.584313 -28.941217 6.041306 44.743687 -0.711275 1.435362 0.036870 -0.000406 -1324920.000000 0 0 1
32.093263 -29.303517 5.857606 43.851855 -0.739991 1.436819 0.048301 -0.005054 -171373.000000 0 0 1
31.773133 -29.893017 4.594906 43.866133 -0.754919 1.465855 0.037431 -0.002939 417421.000000 0 0 1
30.553283 -29.306717 4.097306 42.534394 -0.764576 1.474317 0.036304 -0.004691 964497.000000 0 0 1
29.291343 -30.137517 4.462806 42.263097 -0.799636 1.465003 0.039463 -0.012383 19614.500000 0 0 1
29.315293 -31.358117 3.772506 43.092339 -0.819055 1.483139 0.043987 -0.002824 -1406170.000000 0 0 1
28.024273 -31.773717 3.572606 42.516967 -0.848018 1.486669 0.047382 -0.005621 -1232160.000000 0 0 1
27.932233 -33.154617 2.932606 43.451564 -0.870682 1.503254 0.049956 -0.007810 -332909.000000 0 0 1
28.039133 -33.125717 1.520006 43.425989 -0.868369 1.535787 0.047591 -0.006053 174961.000000 0 0 1
27.922833 34.075785 0.900106 44.064202 0.884318 1.550368 0.050542 -0.002810 -288958.000000 0 0 1
27.609583 34.233285 -0.586394 43.983528 0.892097 1.584129 0.044467 -0.002881 -672022.000000 0 0 1
28.586233 -33.610617 -1.324094 44.142944 -0.866005 1.600796 0.049269 -0.002542 -566263.000000 0 0 1
28.199903 -33.511117 -2.676394 43.879296 -0.871253 1.631829 0.044380 0.001778 -106334.000000 0 0 1
29.266913 -33.007417 -3.673594 44.266659 -0.845391 1.653880 0.040668 0.006359 -17240.800000 0 0 1
29.572043 -31.634817 -3.606494 43.454277 -0.819087 1.653887 0.025797 0.010521 640973.000000 0 0 1
30.507443 -31.298017 -4.677494 43.956216 -0.798189 1.677411 0.005739 0.017548 601523.000000 0 0 1
31.063593 -29.829217 -4.792394 43.332390 -0.765130 1.681619 0.005145 0.018103 -313171.000000 0 0 1
30.101413 -28.844517 -5.142994 42.006566 -0.764079 1.693537 0.009470 0.009172 -184368.000000 0 0 1
30.455053 -27.454817 -5.172494 41.328343 -0.733636 1.696281 0.012299 -0.003679 -298642.000000 0 0 1
31.646153 -26.964017 -6.023894 42.009814 -0.705681 1.714685 0.019949 -0.003379 -794327.000000 0 0 1
32.830633 -27.496317 -5.539194 43.180789 -0.697204 1.699430 0.009276 0.010552 -986969.000000 0 0 1
33.956713 -27.266517 -6.363694 44.011566 -0.676555 1.715896 0.010139 -0.004482 167643.000000 0 0 1
34.175413 -28.117417 -7.662794 44.913989 -0.688453 1.742245 0.011503 -0.006712 -912850.000000 0 0 1
33.096643 -27.931017 -8.550094 44.143330 -0.700955 1.765718 0.019094 -0.009309 -153582.000000 0 0 1
32.893603 -29.009817 -9.459494 44.866921 -0.722741 1.783225 0.008335 -0.005049 598125.000000 0 0 1
32.317793 -30.371217 -8.904794 45.234344 -0.754357 1.768950 0.003755 0.002102 -188528.000000 0 0 1
33.392653 -30.905017 -8.194094 46.231294 -0.746728 1.748979 -0.001256 0.006896 -592856.000000 0 0 1
33.136693 -32.101917 -7.548994 46.749982 -0.769538 1.732982 -0.003599 0.010529 26509.800000 0 0 1
34.370673 -32.739117 -6.856994 47.960518 -0.761091 1.714260 -0.009237 0.012823 -6768.980000 0 0 1
34.143993 -33.951517 -6.292594 48.560421 -0.782572 1.700745 -0.010688 0.012233 -143378.000000 0 0 1
33.549303 -33.900317 -4.969394 47.952915 -0.790602 1.674613 0.002968 0.012168 199040.000000 0 0 1
33.421333 33.129685 -4.361294 47.260792 0.781016 1.663209 -0.002551 0.013206 116116.000000 0 0 1
32.592203 32.274785 -5.138894 46.155408 0.780505 1.682367 0.006147 0.004080 211048.000000 0 0 1
32.847393 30.954485 -4.757394 45.384625 0.755738 1.675813 0.001157 0.009322 -86328.400000 0 0 1
31.711033 30.023185 -5.196694 43.977118 0.758064 1.689241 0.016096 -0.000352 -45217.000000 0 0 1
31.645083 29.958785 -6.646594 44.080804 0.758032 1.722156 0.001183 0.012095 -510830.000000 0 0 1
30.416663 29.451785 -7.042794 42.920647 0.769283 1.735630 -0.004443 0.008848 -481363.000000 0 0 1
30.337803 29.299285 -8.570994 43.038266 0.767986 1.771285 -0.007001 0.013280 64024.900000 0 0 1
31.083253 28.160485 -8.990194 42.895281 0.736104 1.781947 -0.012177 0.006307 97022.700000 0 0 1
31.143813 27.965685 -10.426194 43.136089 0.731683 1.814919 -0.014689 0.014889 104083.000000 0 0 1
32.304803 28.694885 -11.135694 44.620628 0.726288 1.823026 -0.011974 0.013256 -1342940.000000 0 0 1
33.567413 28.278485 -10.818194 45.204837 0.700088 1.812457 -0.010267 0.007041 -678932.000000 0 0 1
34.665903 29.121085 -11.122194 46.620442 0.698689 1.811688 -0.008530 0.007349 359899.000000 0 0 1
34.810853 30.334985 -10.215894 47.290288 0.716801 1.788538 -0.010093 0.009254 -712205.000000 0 0 1
35.436483 30.047185 -8.978294 47.320053 0.703283 1.761689 -0.020224 0.014737 92664.900000 0 0 1
35.019193 31.148685 -8.144594 47.570147 0.726969 1.742856 -0.014400 0.014561 -812268.000000 0 0 1
35.905153 31.376485 -6.893194 48.178625 0.718190 1.714365 -0.003903 0.010633 1347310.000000 0 0 1
-35.361173 31.692685 -7.166494 48.022885 -0.730743 1.720587 0.004267 0.004063 1434780.000000 0 0 1
-34.562969 30.632485 -7.736494 46.827357 -0.725183 1.736770 0.018317 0.002798 -387311.000000 0 0 1
-33.207204 31.096785 -8.334494 46.251403 -0.752591 1.751986 0.074667 -0.010327 241681.000000 0 0 1
-32.283634 31.712485 -7.476094 45.867273 -0.776474 1.734521 0.072644 -0.011778 722945.000000 0 0 1
-31.035944 32.088085 -8.091694 45.369049 -0.802064 1.750108 0.087154 -0.031479 771831.000000 0 0 1
-30.910464 33.495585 -8.816294 46.423465 -0.825514 1.761867 0.060218 -0.020360 -346963.000000 0 0 1
-30.923304 -33.736717 -8.149494 46.484740 0.828882 1.747023 0.045357 -0.012570 -250339.000000 0 0 1
-29.850284 -33.459217 -7.302094 45.429938 0.842341 1.732230 0.080439 -0.021871 -316817.000000 0 0 1
-30.126874 -32.219117 -6.417994 44.574552 0.818944 1.715282 0.052174 -0.020605 -19470.200000 0 0 1
-31.125114 -32.343317 -5.429694 45.214428 0.804590 1.691174 0.035611 -0.016594 -256901.000000 0 0 1
-30.754534 -33.079517 -4.265494 45.368384 0.821804 1.664954 0.047020 -0.017866 -214237.000000 0 0 1
-31.865874 -33.133417 -3.214094 46.082401 0.804897 1.640600 0.034029 -0.011085 -284449.000000 0 0 1
-32.037904 -31.844417 -2.761394 45.256155 0.782369 1.631851 0.034756 -0.004000 -407544.000000 0 0 1
-32.937404 -31.804917 -1.695794 45.818131 0.767908 1.607816 0.032229 -0.000717 -201871.000000 0 0 1
-33.649574 -30.461417 -1.496994 45.414015 0.735710 1.603766 0.033684 0.012941 -85790.900000 0 0 1
-34.548708 -30.464417 -0.417894 46.063745 0.722658 1.579869 0.016623 0.017031 -545930.000000 0 0 1
-35.159548 -29.265717 -0.156594 45.746044 0.694169 1.574219 0.027653 0.012400 -497782.000000 0 0 1
-36.208044 -29.242017 0.954706 46.551364 0.679365 1.550286 0.030916 0.015364 -773939.000000 0 0 1
35.241733 -29.893417 0.577406 46.216118 -0.703471 1.558302 0.023448 0.015088 -307659.000000 0 0 1
34.250193 -29.836817 1.568206 45.450750 -0.716641 1.536286 0.032635 0.011162 -316647.000000 0 0 1
33.524563 -28.540517 1.775506 44.063702 -0.705267 1.530491 0.018584 0.020520 -1603890.000000 0 0 1
32.456183 -28.488917 0.857506 43.194415 -0.720394 1.550943 0.016138 0.011205 -269032.000000 0 0 1
31.759973 -27.257417 1.070706 41.866563 -0.709254 1.545219 0.013481 0.009405 316106.000000 0 0 1
30.383573 -27.267117 0.334006 40.826079 -0.731393 1.562615 0.014393 -0.014496 936201.000000 0 0 1
29.306523 -28.043517 0.909706 40.572635 -0.763379 1.548373 0.018109 0.002834 650744.000000 0 0 1
29.337623 -29.427517 0.607106 41.557712 -0.786928 1.556187 0.020499 0.006973 -398430.000000 0 0 1
29.012303 -29.776617 -0.870894 41.582678 -0.798398 1.591742 0.019059 0.005709 343096.000000 0 0 1
27.701653 -29.382417 -1.284894 40.402462 -0.814833 1.602604 0.026248 0.004134 358205.000000 0 0 1
27.489883 -29.512417 -2.677494 40.420854 -0.820865 1.637085 0.028770 0.005896 -592097.000000 0 0 1
26.165683 -30.124117 -3.070894 40.019193 -0.855605 1.647607 0.054938 -0.008334 -250235.000000 0 0 1
25.006483 -29.352217 -2.854994 38.665590 -0.865174 1.644702 0.061537 -0.016394 8676.870000 0 0 1
23.818983 -29.999117 -3.279394 38.445356 -0.899731 1.656200 0.044051 -0.018035 210589.000000 0 0 1
22.631883 -29.036117 -3.409994 36.971966 -0.908719 1.663159 0.046848 -0.016259 -82992.500000 0 0 1
22.768783 -28.208917 -4.590094 36.540792 -0.891712 1.696745 0.061252 -0.019410 95692.400000 0 0 1
22.160983 -26.964617 -4.289294 35.165292 -0.882871 1.693076 0.063186 -0.019472 19001.100000 0 0 1
21.687283 -26.177717 -5.553394 34.444902 -0.878939 1.732729 0.064824 -0.027561 -404974.000000 0 0 1
20.438183 -26.523917 -6.080494 34.032483 -0.914268 1.750428 0.073070 -0.024816 -546214.000000 0 0 1
20.135483 -25.529217 -7.008994 33.261157 -0.902969 1.783114 0.081682 -0.025416 -406049.000000 0 0 1
18.672083 -25.602117 -7.449994 32.551766 -0.940664 1.801709 0.074892 -0.026268 -35427.300000 0 0 1
17.798483 -25.108317 -6.452294 31.445917 -0.954143 1.777451 0.072809 -0.022261 1170520.000000 0 0 1
16.386183 -25.398317 -6.610394 30.939923 -0.997825 1.786109 0.061925 -0.023290 1446340.000000 0 0 1
15.568983 -24.507317 -5.621594 29.573707 -1.004840 1.762048 0.058743 -0.018563 -117064.000000 0 0 1
15.567383 -24.844317 -4.265694 29.627346 -1.011049 1.715277 0.051573 -0.009249 580511.000000 0 0 1
14.648683 -23.995317 -3.547094 28.336214 -1.022706 1.696304 0.047237 -0.016684 340496.000000 0 0 1
14.428883 -24.489617 -2.120894 28.503196 -1.038368 1.645274 0.046774 -0.007451 -96261.200000 0 0 1
13.734283 -25.743017 -2.172594 29.258394 -1.080698 1.645120 0.046252 -0.004990 -115948.000000 0 0 1
14.522883 -26.856317 -1.872794 30.588940 -1.075073 1.632059 0.047283 -0.004409 -646279.000000 0 0 1
13.882683 -28.230117 -2.060094 31.526376 -1.113756 1.636188 0.046112 -0.003695 142660.000000 0 0 1
12.753083 -28.342817 -1.187594 31.102521 -1.147977 1.608989 0.053342 -0.014663 564031.000000 0 0 1
12.055283 -29.624417 -1.150394 32.004052 -1.184324 1.606749 0.056603 -0.016906 -200440.000000 0 0 1
12.760183 -30.823317 -0.585194 33.365275 -1.178298 1.588336 0.054543 -0.015637 -435827.000000 0 0 1
13.654683 -31.347417 -1.570594 34.228317 -1.159989 1.616698 0.047894 -0.013875 -25421.000000 0 0 1
14.188483 -32.625517 -1.168594 35.596391 -1.160579 1.603631 0.041123 -0.017927 -478774.000000 0 0 1
15.593083 -32.907417 -1.716094 36.455278 -1.128289 1.617888 0.044019 -0.014397 83387.400000 0 0 1
16.508783 -31.937317 -1.186794 35.971386 -1.093711 1.603795 0.043662 -0.010036 356497.000000 0 0 1
17.887283 -32.163817 -1.441794 36.831302 -1.063259 1.609952 0.053646 -0.025410 29069.200000 0 0 1
18.708183 -31.029017 -0.820094 36.241807 -1.028229 1.593427 0.054536 -0.019059 -473730.000000 0 0 1
18.480883 -29.779717 -1.371494 35.074999 -1.015377 1.609908 0.053614 -0.012996 -3374.710000 0 0 1
18.843983 -28.726217 -0.484294 34.358780 -0.990225 1.584892 0.048528 -0.006095 -129206.000000 0 0 1
18.529983 -27.432917 -1.137594 33.124301 -0.976727 1.605146 0.039860 0.000294 296503.000000 0 0 1
19.260583 -27.147617 -2.340194 33.368244 -0.953739 1.640986 0.057375 -0.016120 474432.000000 0 0 1
18.432283 -26.292517 -3.088794 32.258118 -0.959368 1.666696 0.065165 -0.008800 160523.000000 0 0 1
32.473733 -29.509017 13.819106 46.003186 -0.737603 1.265690 0.052159 -0.027902 38095.400000 0 0 1
33.325183 -30.068517 14.762106 47.250432 -0.734071 1.253054 0.065934 -0.022169 188889.000000 0 0 1
32.579613 -30.227917 15.971806 47.225594 -0.747973 1.225790 0.058549 -0.019431 757758.000000 0 0 1
33.431053 -31.012217 17.038206 48.679496 -0.747881 1.213217 0.054089 -0.011664 -7994.000000 0 0 1
32.677603 -31.370517 18.167006 48.805483 -0.764993 1.189383 0.037525 -0.012069 -196766.000000 0 0 1
33.419123 -31.875117 19.247906 50.033416 -0.761756 1.175912 0.034555 -0.007539 -140383.000000 0 0 1
34.238633 -33.202217 19.144706 51.392519 -0.770032 1.189074 0.039434 -0.004675 -281675.000000 0 0 1
35.268263 -33.051817 18.221206 51.655448 -0.752967 1.210293 0.039506 -0.003009 -450384.000000 0 0 1
35.957213 34.192585 17.973806 52.774158 0.760248 1.223263 0.052436 -0.004550 75709.400000 0 0 1
-35.559756 -34.107217 16.952106 52.107317 0.764551 1.239435 0.045444 -0.010526 -283877.000000 0 0 1
-34.420094 -33.469417 17.466806 51.088493 0.771396 1.221866 0.049447 -0.009329 -436915.000000 0 0 1
-33.441544 -33.326017 16.485206 50.007223 0.783668 1.234857 0.060824 -0.004197 -192602.000000 0 0 1
-32.102664 -32.786917 17.090406 48.965753 0.795943 1.214263 0.043279 -0.007564 1040870.000000 0 0 1
-30.999364 -32.513017 16.213406 47.759098 0.809226 1.224429 0.044139 -0.011443 438986.000000 0 0 1
-31.198084 -31.405917 15.339306 46.850255 0.788718 1.237234 0.059840 -0.008548 -293109.000000 0 0 1
-30.010264 -31.172617 14.353606 45.589188 0.804394 1.250501 0.054588 -0.010217 -230715.000000 0 0 1
-28.824094 -30.855417 14.971106 44.799768 0.819422 1.230063 0.037252 -0.011878 -740608.000000 0 0 1
-27.735144 -30.826117 14.040006 43.779099 0.838131 1.244327 0.027327 0.000536 903931.000000 0 0 1
-26.387774 -30.405517 14.702006 42.859761 0.856024 1.220660 0.025230 0.001306 387046.000000 0 0 1
-25.304544 -30.693617 13.861006 42.125356 0.881339 1.235508 0.023145 0.005237 -196514.000000 0 0 1
-24.120264 -30.029417 14.286806 41.081211 0.894094 1.215605 0.012294 0.010000 -112663.000000 0 0 1
-22.957664 -30.022817 13.320706 40.073247 0.917970 1.231940 0.014148 0.002629 -306534.000000 0 0 1
-22.532564 -31.362517 13.071306 40.769878 0.947791 1.244421 0.017600 -0.004945 -426328.000000 0 0 1
-21.331864 -31.415417 12.362506 39.935053 0.974286 1.256061 0.031160 -0.012991 -254132.000000 0 0 1
-20.885964 -32.858517 12.086006 40.767355 1.004587 1.269809 0.024300 -0.008376 104038.000000 0 0 1
-21.727864 -33.484817 11.129006 41.438965 0.995204 1.298895 0.012023 -0.006877 184263.000000 0 0 1
-21.414764 33.583585 10.946406 41.307059 -1.003148 1.302592 0.022439 -0.000811 105137.000000 0 0 1
-22.257264 32.864385 9.871406 40.901079 -0.975505 1.327041 0.013075 0.005150 85873.100000 0 0 1
-22.003264 33.233885 8.512506 40.756564 -0.985981 1.360385 -0.000188 -0.000845 -448008.000000 0 0 1
-23.209264 33.110185 7.807106 41.181370 -0.959419 1.380063 0.007986 -0.004538 -934146.000000 0 0 1
-23.135964 33.469985 6.332506 41.177827 -0.965970 1.416399 0.009848 -0.002693 -419652.000000 0 0 1
-22.310464 32.618685 5.546306 39.906102 -0.970904 1.431361 0.002983 -0.003556 1145060.000000 0 0 1
-20.901864 32.564185 5.865706 39.137202 -1.000160 1.420354 0.002097 -0.006632 543445.000000 0 0 1
-20.035264 33.803685 5.484806 39.675988 -1.035766 1.432112 0.021476 -0.010423 -593085.000000 0 0 1
-20.199864 -33.545217 6.393206 39.676053 1.028784 1.408956 0.023648 -0.012661 406360.000000 0 0 1
-19.403364 -33.647117 7.626006 39.582509 1.047706 1.376923 0.026566 -0.009870 99467.000000 0 0 1
-19.572364 -32.525817 8.650106 38.933669 1.029092 1.346751 0.032013 -0.012729 -409453.000000 0 0 1
-18.839164 -31.355617 8.235106 37.495411 1.029772 1.349361 0.045572 -0.023513 -39598.000000 0 0 1
-18.857564 -30.246817 9.135006 36.795734 1.013308 1.319910 0.050381 -0.016831 -1451.400000 0 0 1
-18.151364 -30.457817 10.486606 36.974580 1.033359 1.283233 0.036570 -0.008568 -27889.100000 0 0 1
-16.807064 -30.831417 10.243206 36.578368 1.071701 1.286966 0.049150 -0.018744 -341262.000000 0 0 1
-16.085164 -30.844117 11.446906 36.621356 1.090098 1.252894 0.067083 -0.021213 -421634.000000 0 0 1
-14.667764 -31.403617 11.392806 36.484607 1.133836 1.253222 0.065937 -0.029355 25016.100000 0 0 1
-13.800664 -30.533617 10.647206 35.158543 1.146295 1.263131 0.062278 -0.027391 439190.000000 0 0 1
-12.627564 -31.248017 10.233506 35.222416 1.186754 1.276006 0.057081 -0.017096 1356990.000000 0 0 1
-11.483664 -30.463217 9.457606 33.901747 1.210301 1.288074 0.061676 -0.014501 1204490.000000 0 0 1
-10.608464 -29.753917 10.337006 33.236859 1.228307 1.254540 0.042611 -0.013622 -360612.000000 0 0 1
-9.582964 -29.101217 9.644606 32.120593 1.252682 1.265829 0.046748 -0.012790 357809.000000 0 0 1
-8.545864 -28.417117 10.598506 31.510200 1.278670 1.227756 0.038389 -0.005264 212163.000000 0 0 1
-9.174164 -27.466017 11.419306 31.127929 1.248429 1.195175 0.029692 -0.016527 -611522.000000 0 0 1
-8.539564 -27.187617 12.636506 31.173257 1.266457 1.153420 0.034394 -0.017311 -614320.000000 0 0 1
-9.081464 -25.998817 13.485806 30.663960 1.234743 1.115428 0.041236 -0.022167 23134.400000 0 0 1
-8.843764 -24.736817 12.919306 29.275088 1.227443 1.113741 0.025183 -0.017711 554364.000000 0 0 1
-9.627864 -24.388217 11.710706 28.716225 1.194802 1.150744 0.026177 -0.013443 500452.000000 0 0 1
-9.168964 -23.047717 11.118206 27.182378 1.192166 1.149414 0.014621 -0.006172 627520.000000 0 0 1
-7.898464 -23.059617 10.455806 26.522737 1.240797 1.165577 0.009418 -0.012382 401362.000000 0 0 1
-7.535964 -21.778317 10.031706 25.134060 1.237662 1.160231 0.010101 -0.006849 294784.000000 0 0 1
-6.283664 -21.733817 9.099806 24.385441 1.289352 1.188378 0.015430 -0.017608 405887.000000 0 1 0
-5.093164 -22.133217 9.722406 24.705158 1.344620 1.166320 0.021408 -0.015181 -678160.000000 0 1 0
-4.112964 -22.554117 8.801006 24.557329 1.390419 1.204258 0.026831 -0.016269 -10516.300000 0 1 0
-3.087364 -23.421617 9.539406 25.477524 1.439735 1.187020 0.037671 -0.015853 153404.000000 0 0 1
-2.241064 -22.663317 10.434706 25.050577 1.472232 1.141154 0.037094 -0.013282 -347503.000000 0 0 1
-1.118364 -23.410317 10.785706 25.799712 1.523060 1.139493 0.042140 -0.019836 -156339.000000 0 0 1
-0.182864 -22.671617 11.744606 25.533732 1.562731 1.092841 0.031897 -0.019238 -343069.000000 0 0 1
-0.572064 -22.783717 13.102606 26.288844 1.545693 1.049033 0.047155 -0.010914 -176368.000000 0 0 1
0.345736 -22.435117 14.145606 26.524558 -1.555387 1.008297 0.049113 -0.012827 -63267.300000 0 0 1
0.926336 -20.990417 14.261106 25.393599 -1.526694 0.974475 0.047081 -0.014801 -856511.000000 0 0 1
2.051536 -20.814317 13.496506 24.891771 -1.472550 0.997734 0.042344 -0.018121 -1059860.000000 0 1 0
2.325036 -19.499717 13.158506 23.638762 -1.452122 0.980449 0.033344 -0.015489 43980.200000 0 1 0
3.796936 -19.310717 12.723306 23.435081 -1.376650 0.996890 0.043802 -0.015333 144219.000000 0 1 0
4.081736 -19.982517 11.500106 23.413970 -1.369303 1.057370 0.047427 -0.011631 427127.000000 0 1 0
5.498336 -20.146217 11.312506 23.750254 -1.304364 1.074342 0.062302 -0.010852 842860.000000 0 1 0
5.859036 -20.837817 9.998006 23.843302 -1.296700 1.138099 0.053659 -0.022386 -699938.000000 0 1 0
5.778736 -20.084817 8.798306 22.676064 -1.290646 1.172336 0.046657 -0.018362 -221334.000000 0 1 0
6.048736 -20.885117 7.657806 23.052491 -1.288890 1.232172 0.041329 -0.023667 -343622.000000 0 1 0
7.473036 -21.455017 7.499906 23.925146 -1.235626 1.251947 0.044052 -0.012579 162162.000000 0 1 0
8.547936 -20.608117 7.022106 23.389564 -1.177610 1.265869 0.056860 -0.017838 604637.000000 0 1 0
9.013236 -19.573417 7.887106 22.946972 -1.139259 1.219931 0.066071 -0.009480 -265972.000000 0 1 0
9.676736 -19.992317 9.193106 24.038410 -1.120012 1.178367 0.052662 -0.005911 -214275.000000 0 1 0
8.842736 -19.909917 10.338306 24.113883 -1.152829 1.127712 0.060473 -0.014092 -188866.000000 0 1 0
9.669336 -20.063317 11.509306 25.069840 -1.121700 1.093826 0.063922 -0.009663 317194.000000 0 0 1
8.917836 -20.364517 12.785406 25.645818 -1.158041 1.048885 0.076712 -0.009881 -272691.000000 0 0 1
8.622336 -21.726017 13.114306 26.802043 -1.192994 1.059507 0.061276 -0.022692 90145.400000 0 0 1
7.767436 -21.791617 14.266406 27.179735 -1.228395 1.018209 0.072488 -0.012966 389961.000000 0 0 1
7.846636 -23.195017 14.920206 28.673874 -1.244592 1.023546 0.075202 -0.027138 47945.800000 0 0 1
7.453236 -24.199717 14.050406 28.958435 -1.272027 1.064213 0.073723 -0.026420 -262206.000000 0 0 1
7.484436 -25.479517 14.665006 30.336199 -1.285090 1.066243 0.080785 -0.028530 235250.000000 0 0 1
7.588636 -26.686217 13.669106 30.928725 -1.293744 1.113019 0.075557 -0.033888 228846.000000 0 0 1
8.854336 -26.776117 13.052606 31.076201 -1.251435 1.137330 0.077567 -0.027002 -24563.200000 0 0 1
8.821836 -27.722817 12.031906 31.482474 -1.262713 1.178644 0.064574 -0.021750 1047070.000000 0 0 1
10.279836 -27.851517 11.436406 31.814673 -1.217213 1.203097 0.062946 -0.020703 1178550.000000 0 0 1
11.177636 -28.665417 12.146406 33.078405 -1.198997 1.194799 0.057639 -0.014754 -260618.000000 0 0 1
12.478436 -28.730417 11.654806 33.421292 -1.161051 1.214587 0.081156 -0.009898 247975.000000 0 0 1
13.516836 -29.468817 12.599606 34.783130 -1.140745 1.200134 0.057750 -0.006209 -59312.100000 0 0 1
13.831136 -28.935817 13.849206 34.933971 -1.124908 1.163161 0.053514 -0.008898 447589.000000 0 0 1
14.715936 -29.652317 14.716906 36.227145 -1.110127 1.152461 0.047946 -0.005661 -8124.120000 0 0 1
16.150636 -29.922917 14.277306 36.879066 -1.075863 1.173270 0.054469 -0.000767 -1128570.000000 0 0 1
16.912636 -28.765817 14.104306 36.227627 -1.039290 1.170898 0.053660 -0.008893 -473043.000000 0 0 1
18.184436 -29.018917 13.604706 36.849142 -1.011018 1.192648 0.051898 -0.001894 -525925.000000 0 0 1
18.903036 -27.731917 13.133806 36.039990 -0.972503 1.197783 0.046446 -0.004575 1212480.000000 0 0 1
20.319736 -27.933517 12.902606 36.873436 -0.941896 1.213315 0.039529 -0.003456 1544060.000000 0 0 1
21.058836 -26.679217 12.805106 36.321150 -0.902592 1.210499 0.041056 -0.008432 1249440.000000 0 0 1
22.485636 -26.974417 12.206006 37.178079 -0.875906 1.236280 0.042472 -0.006996 613923.000000 0 0 1
23.394236 -27.648317 13.035206 38.492029 -0.868550 1.225318 0.042835 -0.014928 184070.000000 0 0 1
24.516936 -28.102317 12.297406 39.268901 -0.853431 1.252279 0.030154 -0.017209 -124764.000000 0 0 1
25.624636 -28.809217 13.127506 40.729895 -0.843835 1.242631 0.038620 -0.016698 380055.000000 0 0 1
26.658636 -27.997517 13.662806 41.002635 -0.809890 1.231082 0.024922 -0.015732 1089800.000000 0 0 1
27.763136 -27.800417 12.731206 41.300587 -0.786069 1.257436 0.013012 -0.017730 150764.000000 0 0 1
28.996736 -27.139317 13.354906 41.901154 -0.752322 1.246413 0.037083 -0.030834 -334356.000000 0 0 1
28.878336 -25.731917 13.595306 40.999051 -0.727846 1.232797 0.031519 -0.027901 272403.000000 0 0 1
28.109336 -25.278517 14.698506 40.560871 -0.732424 1.199975 0.037073 -0.023798 -396859.000000 0 0 1
28.954636 -25.390017 15.990206 41.697849 -0.719899 1.177237 0.020139 -0.017106 -213331.000000 0 0 1
29.255936 -26.713717 16.396706 42.876386 -0.740008 1.178384 0.028112 -0.017221 527200.000000 0 0 1
30.151036 -26.570017 17.533206 43.845913 -0.722348 1.159408 0.037924 -0.001706 465722.000000 0 0 1
30.328636 -27.879817 18.351806 45.098771 -0.743353 1.151711 0.023369 0.013894 1001500.000000 0 0 1
29.136336 -28.419917 18.971306 44.905770 -0.772952 1.134628 0.012256 0.008000 756572.000000 0 0 1
29.640936 -29.271317 19.991206 46.206530 -0.779124 1.123367 0.039750 0.006240 777861.000000 0 0 1
28.552836 -30.206817 20.662206 46.418132 -0.813539 1.109474 0.044100 0.001427 -1159250.000000 0 0 1
27.714336 -29.504417 21.585906 45.875335 -0.816673 1.080900 0.046477 0.003580 578582.000000 0 0 1
26.511936 -30.202317 21.889706 45.762670 -0.850376 1.072043 0.055690 -0.000496 726949.000000 0 0 1
25.596736 -30.651917 20.687206 44.974364 -0.875029 1.092826 0.077546 -0.012358 -1721630.000000 0 0 1
25.957636 -31.793517 20.005106 45.659948 -0.886108 1.117276 0.065817 -0.006331 -259760.000000 0 0 1
25.343536 -31.914917 18.743806 44.857408 -0.899665 1.139715 0.082705 -0.008268 -268466.000000 0 0 1
25.901536 -30.968217 17.626106 44.052238 -0.874256 1.159150 0.072391 -0.002187 302134.000000 0 0 1
27.167236 -31.304217 17.087206 44.832860 -0.856033 1.179777 0.049463 -0.015173 328332.000000 0 0 1
27.623636 -30.255117 16.183906 44.049474 -0.830832 1.194581 0.051332 -0.025876 -227781.000000 0 0 1
28.616836 -30.783617 15.146206 44.676190 -0.821860 1.224919 0.055853 -0.030265 -466181.000000 0 0 1
28.200636 -31.822117 14.238706 44.840426 -0.845660 1.247660 0.076178 -0.023990 157418.000000 0 0 1
28.166936 -33.101217 14.810806 45.917609 -0.865761 1.242372 0.050331 -0.032629 -107375.000000 0 0 1
27.260236 -34.079417 14.019106 45.837348 -0.896114 1.259971 0.081497 -0.041071 -213077.000000 0 0 1
27.722936 34.110085 12.721306 45.759051 0.888330 1.289078 0.091601 -0.038297 192447.000000 0 0 1
27.121936 32.974585 12.141506 44.388499 0.882480 1.293737 0.099705 -0.036100 -637617.000000 0 0 1
27.755236 32.584685 10.801906 44.145170 0.865265 1.323596 0.098277 -0.033770 -70731.200000 0 0 1
28.976536 31.902185 11.041806 44.489443 0.833418 1.319986 0.072038 -0.038157 155600.000000 0 0 1
29.574336 31.465785 9.834706 44.288356 0.816375 1.346869 0.073409 -0.035141 1513260.000000 0 0 1
31.155736 31.336385 10.050206 45.317277 0.788289 1.347163 0.061269 -0.032574 1463610.000000 0 0 1
31.442636 30.280085 10.967506 45.008989 0.766565 1.324644 0.056810 -0.023987 -302474.000000 0 0 1
32.824736 30.147885 11.160606 45.944721 0.742916 1.325428 0.065733 -0.022112 -265663.000000 0 0 1
33.121636 29.214885 12.343506 45.857545 0.722808 1.298265 0.056931 -0.010957 -154777.000000 0 0 1
32.915536 27.897185 11.961606 44.774607 0.703063 1.300360 0.053395 -0.017994 146015.000000 0 0 1
33.104336 27.087785 13.131506 44.744627 0.685773 1.272935 0.057749 -0.019780 90449.400000 0 0 1
32.855536 25.605585 12.729206 43.556457 0.662015 1.274222 0.061077 -0.020732 -197401.000000 0 0 1
33.730336 25.194885 11.719106 43.701891 0.641546 1.299314 0.052008 -0.017074 -263075.000000 0 0 1
33.715836 23.828185 11.336606 42.814234 0.615232 1.302814 0.058836 -0.017688 -111105.000000 0 0 1
32.402236 23.230585 10.789706 41.303544 0.622007 1.306501 0.060498 -0.007137 585087.000000 0 0 1
31.347636 22.803885 11.665106 40.481677 0.628913 1.278494 0.052610 -0.012920 451792.000000 0 0 1
30.180936 22.616285 10.899206 39.257839 0.643089 1.289469 0.046562 -0.004721 213789.000000 0 0 1
28.882836 22.323585 11.709306 38.336256 0.657998 1.260399 0.042682 0.001533 420166.000000 0 0 1
28.546736 23.376285 12.586006 38.984284 0.686146 1.242059 0.053916 0.002356 -1112970.000000 0 0 1
27.319436 23.142485 13.147506 38.141619 0.702812 1.218875 0.063143 0.007113 -1102630.000000 0 0 1
24.182436 9.259785 25.740443 36.511700 0.365691 0.788385 0.026368 0.001212 -205633.000000 0 0 1
23.915236 8.004785 26.288273 36.429224 0.322993 0.764648 0.029879 -0.006000 426179.000000 0 0 1
22.523336 7.830385 26.506133 35.653761 0.334586 0.732610 0.037927 -0.002331 49056.800000 0 0 1
22.113036 6.601885 27.325323 35.766528 0.290128 0.701319 0.044825 -0.005872 -45281.100000 0 0 1
22.567436 6.672885 28.708193 37.121111 0.287495 0.686663 0.056954 -0.012951 746461.000000 0 0 1
23.814736 6.028585 28.975193 37.987462 0.247937 0.703231 0.050088 -0.015423 345876.000000 0 0 1
24.097036 6.015785 30.512353 39.342858 0.244648 0.683210 0.055224 -0.014072 -328417.000000 0 0 1
24.346536 7.186485 31.121863 40.161795 0.287024 0.684220 0.055715 -0.009541 147599.000000 0 0 1
24.072436 7.107885 32.500446 41.064379 0.287112 0.657617 0.054565 -0.001538 -191944.000000 0 0 1
24.234236 8.492685 33.242971 42.006178 0.337068 0.657728 0.080777 0.001900 114045.000000 0 0 1
25.490936 9.124785 33.066707 42.737064 0.343750 0.686097 0.059120 -0.001690 -33863.500000 0 0 1
25.750136 9.822385 -34.210237 43.930503 0.364413 2.463444 0.078010 -0.002095 -341272.000000 0 0 1
26.812136 10.900785 34.077041 44.709758 0.386150 0.704117 0.056230 -0.008242 -447673.000000 0 0 1
26.321336 12.105385 33.539853 44.320140 0.431063 0.712449 0.032528 -0.003942 399180.000000 0 0 1
25.880236 12.966985 -33.900664 44.577846 0.464478 2.434852 0.040085 -0.010984 -162294.000000 0 0 1
25.533336 14.319985 33.991721 44.860342 0.511124 0.710979 0.035187 -0.008859 -523295.000000 0 0 1
26.724136 14.952985 33.593713 45.456669 0.510131 0.739171 0.019510 -0.012740 313938.000000 0 0 1
26.451936 16.276385 33.193312 45.457910 0.551608 0.752183 0.027936 -0.016003 -90764.900000 0 0 1
27.192436 17.303585 34.076540 46.904725 0.566711 0.757574 0.031173 -0.021537 -238311.000000 0 0 1
26.747936 17.273985 -33.058154 45.898629 0.573421 2.374948 0.040898 -0.028843 170608.000000 0 0 1
27.496536 16.503985 -32.119164 45.388123 0.540582 2.356971 0.043367 -0.028891 -755439.000000 0 0 1
26.762436 16.190085 -30.840474 43.925866 0.544055 2.349143 0.058431 -0.025413 -413675.000000 0 0 1
25.667536 15.317385 -31.091104 43.128893 0.538035 2.375879 0.057691 -0.022385 242419.000000 0 0 1
24.925636 15.252885 -29.869304 41.786519 0.549150 2.367145 0.073950 -0.028630 120628.000000 0 0 1
23.938436 14.076885 -29.836244 40.760384 0.531583 2.392036 0.062315 -0.018523 -446304.000000 0 0 1
23.009636 13.969785 -30.878954 40.964717 0.545644 2.424613 0.065621 -0.019442 414305.000000 0 0 1
22.398136 12.683185 -31.124474 40.389015 0.515242 2.450606 0.059727 0.006451 270731.000000 0 0 1
21.577636 11.983085 -29.992044 38.842134 0.506939 2.453018 0.063697 0.016651 -718200.000000 0 0 1
20.313936 12.577385 -29.880544 38.258248 0.554382 2.467097 0.067886 0.019248 -253247.000000 0 0 1
19.435736 11.716485 -29.216944 36.995320 0.542499 2.481193 0.069618 0.021940 -302795.000000 0 0 1
18.051636 12.216685 -28.793544 36.113393 0.594960 2.493620 0.046793 0.011723 -91497.900000 0 0 1
17.215536 12.539685 -29.884544 36.697471 0.629529 2.522403 0.038617 0.016658 422615.000000 0 0 1
16.018036 13.175785 -29.432784 36.006493 0.688346 2.527731 0.038600 0.005606 1026680.000000 0 0 1
14.836936 13.138085 -30.507144 36.378975 0.724745 2.565491 0.046609 -0.000147 666823.000000 0 0 1
14.396636 11.879285 -30.869824 36.073904 0.689885 2.597773 0.042253 0.014697 -190460.000000 0 0 1
13.164836 11.460685 -30.316674 34.982295 0.716306 2.619203 0.039274 0.004555 -78697.500000 0 0 1
12.284636 10.973185 -31.488824 35.536870 0.729070 2.659634 0.037664 0.012861 -204447.000000 0 0 1
11.765036 11.967985 -32.353254 36.446972 0.793949 2.663079 0.036382 0.016307 255344.000000 0 0 1
10.938836 11.353685 -33.339264 36.879138 0.804005 2.699864 0.032720 0.019671 214119.000000 0 0 1
10.306936 12.265585 34.079743 37.657754 0.871953 0.439449 0.041895 0.013566 128327.000000 0 0 1
11.223036 12.705785 33.092437 37.182024 0.847284 0.473425 0.040021 0.019202 470049.000000 0 0 1
10.506536 13.153785 31.963533 36.125847 0.896820 0.484768 0.048582 0.005151 -593235.000000 0 0 1
11.314036 13.017385 30.683553 35.198582 0.855290 0.512080 0.065246 0.004731 -486414.000000 0 0 1
11.497436 11.684185 30.277263 34.429985 0.793454 0.496224 0.051802 0.006801 227668.000000 0 0 1
11.841336 11.569785 28.902083 33.307771 0.773799 0.520184 0.056389 -0.001288 -78206.200000 0 0 1
12.475236 10.243485 28.403583 32.669926 0.687478 0.516788 0.052717 0.008133 764123.000000 0 0 1
11.559436 9.132985 28.608343 32.178708 0.668668 0.475540 0.047287 0.000430 685592.000000 0 0 1
12.231436 7.994785 28.160423 31.725921 0.578920 0.478654 0.038329 -0.001280 -88960.200000 0 0 1
11.441736 6.665685 28.235803 31.186620 0.527510 0.438518 0.028307 0.003409 -154030.000000 0 0 1
10.359436 6.497685 27.346893 29.956475 0.560197 0.420494 0.039246 0.000405 -189067.000000 0 0 1
9.621136 5.318585 27.577973 29.688351 0.504992 0.379323 0.028491 -0.006028 -97570.700000 0 0 1
10.191836 3.958085 27.019613 29.147889 0.370430 0.384507 0.023837 -0.005640 20147.100000 0 0 1
11.073536 3.245685 27.860673 30.155841 0.285117 0.392672 0.021269 -0.007016 266988.000000 0 0 1
10.954036 1.903385 27.489373 29.652646 0.172043 0.384340 0.019065 -0.003289 -522617.000000 0 0 1
11.576936 0.927985 28.556263 30.827695 0.079987 0.386276 0.009420 -0.003320 -83390.400000 0 0 1
10.897636 0.935185 29.764273 31.710329 0.085606 0.352159 0.024456 -0.008845 -340183.000000 0 0 1
10.839736 -0.404515 30.358973 32.238653 -0.037300 0.343164 0.030124 -0.012092 -131963.000000 0 0 1
9.766636 -0.433515 31.447603 32.932155 -0.044358 0.301403 0.049838 -0.007181 -162150.000000 0 0 1
9.986936 0.463185 32.536141 34.037537 0.046346 0.298121 0.033842 -0.014558 -231791.000000 0 0 1
8.770536 0.723185 33.201006 34.347520 0.082270 0.259103 0.050756 -0.020375 -118572.000000 0 0 1
8.789336 1.956285 34.114505 35.282842 0.219005 0.258061 0.046318 -0.021458 -147428.000000 0 0 1
8.832836 3.186585 33.469716 34.761979 0.346233 0.273522 0.036195 -0.014618 596288.000000 0 0 1
10.054436 3.500085 32.764777 34.451022 0.334993 0.314168 0.022018 -0.010434 310365.000000 0 0 1
10.117536 4.788385 31.965503 33.868666 0.442041 0.336829 0.014195 -0.008791 -100207.000000 0 0 1
10.264436 5.934085 32.804475 34.881307 0.524177 0.346815 0.012870 -0.003299 142103.000000 0 0 1
10.212836 7.060085 31.979133 34.304690 0.604860 0.370328 0.015104 -0.000263 -351970.000000 0 0 1
10.374336 8.328085 32.870709 35.460786 0.676421 0.384571 0.030534 0.004415 596173.000000 0 0 1
9.154636 8.840485 33.424967 35.765765 0.767942 0.363798 0.034585 0.000068 428767.000000 0 0 1
8.566036 8.007485 -34.071924 36.033218 0.751710 2.810138 0.036317 -0.004686 -8121.630000 0 0 1
7.128736 8.496785 -33.709534 35.487278 0.872728 2.823727 0.038628 -0.000184 387029.000000 0 0 1
6.477736 7.619585 -32.797194 34.288119 0.866219 2.845616 0.040602 0.004862 -482583.000000 0 0 1
5.390336 8.272085 -32.252614 33.730020 0.993276 2.844525 0.046769 -0.000245 -578014.000000 0 0 1
4.708136 7.557685 -31.059464 32.310609 1.013665 2.862398 0.047125 -0.003759 -212867.000000 0 0 1
5.408236 7.732585 -29.833274 31.290032 0.960467 2.835252 0.059911 -0.006528 63515.300000 0 0 1
4.908136 7.138385 -28.665614 29.946014 0.968462 2.848113 0.050000 -0.010148 12467.800000 0 0 1
3.523936 7.593285 -28.104074 29.324309 1.136291 2.852098 0.040438 -0.009510 -173941.000000 0 0 1
2.493736 6.990785 -28.787404 29.728848 1.228150 2.889258 0.029120 -0.005918 -950433.000000 0 0 1
1.208036 7.440885 -28.433594 29.415904 1.409850 2.882435 0.039111 -0.000569 96031.800000 0 0 1
0.153736 6.852285 -29.412034 30.200086 1.548364 2.912644 0.032612 -0.010418 -185741.000000 0 0 1
0.314736 7.403285 -30.699364 31.580985 1.528309 2.904751 0.036077 -0.009810 133836.000000 0 0 1
-0.259164 6.544885 -31.657434 32.327942 -1.531219 2.937569 0.052731 -0.013935 -434915.000000 0 0 1
-0.216564 7.239185 -33.090524 33.873817 -1.540890 2.926123 0.058590 -0.023174 825955.000000 0 0 1
1.099636 7.568785 -33.586604 34.446418 1.426520 2.917693 0.047296 -0.016680 1339980.000000 0 0 1
1.990136 6.518185 -34.006634 34.682828 1.274466 2.943804 0.050125 -0.018035 298263.000000 0 0 1
1.883236 6.146485 32.983392 33.604018 1.273485 0.192489 0.061947 -0.024379 360842.000000 0 0 1
0.616536 5.531885 32.715360 33.185489 1.459803 0.168525 0.062531 -0.027488 458112.000000 0 0 1
0.282936 5.445185 31.320853 31.791916 1.518882 0.172359 0.079383 -0.021473 -120801.000000 0 0 1
0.997936 4.333685 30.544283 30.866324 1.344468 0.144579 0.074423 -0.013417 -104021.000000 0 0 1
0.717136 4.473385 29.170903 29.520621 1.411837 0.154078 0.069094 -0.014327 -7512.200000 0 0 1
1.462136 3.560385 28.417503 28.676971 1.181128 0.134623 0.057765 -0.011804 -22559.700000 0 0 1
1.420236 3.797485 26.903733 27.207514 1.212908 0.149574 0.051024 -0.005009 164161.000000 0 0 1
2.086136 5.017385 26.606373 27.155574 1.176760 0.201459 0.061882 -0.005694 104400.000000 0 0 1
2.018936 5.290885 25.229643 25.857387 1.206263 0.220799 0.048637 -0.004285 -253812.000000 0 0 1
2.647136 6.667285 24.885573 25.898876 1.192850 0.280653 0.048779 0.001504 -153785.000000 0 0 1
4.043336 6.722985 24.846883 26.055992 1.029334 0.305835 0.046966 0.009106 -483992.000000 0 0 1
4.589336 6.630585 23.539463 24.882383 0.965361 0.330040 0.039255 -0.005839 -68057.700000 0 1 0
6.144236 6.668885 23.469893 25.160714 0.826322 0.368693 0.047333 -0.007666 405016.000000 0 0 1
6.789336 5.725685 24.341783 25.911406 0.700612 0.349852 0.049310 -0.003954 33157.600000 0 0 1
6.606136 4.324885 24.262093 25.514600 0.579656 0.314632 0.054583 -0.011316 -965338.000000 0 0 1
6.794136 3.654185 22.908853 24.172896 0.493463 0.324820 0.043714 -0.014377 512781.000000 0 1 0
5.872636 3.887585 21.821653 22.930018 0.584753 0.312190 0.030534 -0.017192 784010.000000 0 1 0
4.514736 3.465985 21.965053 22.690515 0.654736 0.253550 0.027131 -0.022221 785922.000000 0 1 0
3.503636 3.865285 20.838553 21.481648 0.834437 0.245306 0.011882 -0.025206 390306.000000 0 1 0
3.221336 5.274785 20.885853 21.781167 1.022543 0.287714 0.012631 -0.026577 -657323.000000 0 1 0
1.998936 5.555285 20.293353 21.134737 1.225395 0.283116 0.013650 -0.021621 -778504.000000 0 1 0
1.612236 7.046585 20.461953 21.701272 1.345871 0.339588 0.022041 -0.011525 -153643.000000 0 1 0
2.285736 7.911085 19.591853 21.252072 1.289528 0.397892 0.023379 -0.022437 -120109.000000 0 1 0
1.800936 9.201085 19.886453 21.985776 1.377509 0.440557 0.041100 -0.024277 153538.000000 0 1 0
2.742036 10.326185 19.421753 22.166492 1.311244 0.502926 0.046292 -0.031742 -617476.000000 0 1 0
2.910436 10.491485 18.043253 21.073701 1.300192 0.542932 0.039408 -0.032826 263116.000000 0 1 0
3.857236 11.503285 17.589053 21.367701 1.247262 0.603841 0.037316 -0.034075 346054.000000 0 1 0
5.319336 11.065185 17.756853 21.587948 1.122685 0.604941 0.041669 -0.032435 -555757.000000 0 1 0
5.768536 10.022585 16.906453 20.483075 1.048546 0.599910 0.029375 -0.034081 -707652.000000 0 1 0
7.044236 9.567785 17.222253 20.922949 0.936157 0.603900 0.025098 -0.024092 -614413.000000 0 1 0
7.082536 8.083085 17.682653 20.692385 0.851278 0.546115 0.031289 -0.020025 -93069.800000 0 1 0
6.665636 7.947885 19.069353 21.708059 0.872918 0.498196 0.036125 -0.018451 -87696.300000 0 1 0
6.779936 6.645485 19.617353 21.793819 0.775384 0.450720 0.038396 -0.022300 1810970.000000 0 1 0
8.256736 6.098385 19.996153 22.476880 0.636162 0.474257 0.059879 -0.017950 1897870.000000 0 1 0
9.201736 6.027985 18.937053 21.900240 0.579947 0.526251 0.058439 -0.013329 128656.000000 0 1 0
10.407236 5.366685 19.296353 22.571245 0.476104 0.545422 0.066516 -0.013513 183834.000000 0 1 0
10.486336 3.818385 19.348353 22.336116 0.349207 0.523177 0.068101 -0.010786 -440270.000000 0 1 0
9.730536 3.170485 20.353653 22.781714 0.314981 0.465893 0.067800 -0.018439 138269.000000 0 1 0
9.826136 1.767585 20.318453 22.638835 0.177983 0.456719 0.058693 -0.021665 -209806.000000 0 1 0
8.882836 1.102085 21.321653 23.124278 0.123438 0.397462 0.052221 -0.024378 -311682.000000 0 1 0
9.268536 1.091485 22.680153 24.525221 0.117223 0.390369 0.059139 -0.022828 -23353.000000 0 1 0
8.578636 0.074085 23.325653 24.853261 0.008636 0.352435 0.056174 -0.033309 -360762.000000 0 1 0
9.063636 0.051285 24.830903 26.433423 0.005658 0.349993 0.056714 -0.022960 1536510.000000 0 0 1
10.425636 -0.401115 25.124083 27.204307 -0.038455 0.393603 0.045698 -0.024388 1520270.000000 0 0 1
10.558236 -1.781715 24.914793 27.118218 -0.167176 0.405900 0.048225 -0.027305 300563.000000 0 0 1
12.044236 -2.270115 24.852413 27.710277 -0.186296 0.458164 0.042349 -0.025435 470571.000000 0 0 1
12.170336 -3.662615 24.938453 27.990324 -0.292325 0.471326 0.053311 -0.014962 128417.000000 0 0 1
13.498636 -4.088115 25.200933 28.879281 -0.294073 0.510234 0.052002 -0.011131 87303.400000 0 0 1
13.598736 -5.621415 25.333453 29.296924 -0.391985 0.526216 0.056432 -0.011575 -229677.000000 0 0 1
13.273136 -6.345915 24.170443 28.295885 -0.445976 0.546779 0.051476 -0.012846 291643.000000 0 0 1
12.926336 -7.686015 24.426373 28.684712 -0.536440 0.551868 0.061335 -0.014500 -19601.800000 0 0 1
12.852036 -8.506915 23.109053 27.777162 -0.584704 0.588194 0.067454 -0.020947 65363.500000 0 0 1
12.459436 -9.838615 23.297653 28.192490 -0.668399 0.598151 0.068862 -0.014801 -353049.000000 0 0 1
12.319836 -10.509915 22.076553 27.379022 -0.706285 0.632874 0.062590 -0.017694 -388.024000 0 0 1
11.643136 -11.914015 22.197153 27.752837 -0.796896 0.643808 0.070176 -0.013111 777088.000000 0 0 1
10.221536 -11.773715 22.141653 27.080490 -0.855850 0.613525 0.072518 -0.016910 -37327.200000 0 0 1
9.622236 -12.963315 22.584253 27.761186 -0.932263 0.620618 0.071001 -0.014022 261202.000000 0 0 1
8.101036 -12.781815 22.847553 27.404603 -1.005898 0.585000 0.047286 -0.013314 324469.000000 0 0 1
7.428636 -12.369515 21.692353 26.052787 -1.029965 0.586955 0.046506 -0.014743 -309760.000000 0 0 1
6.045736 -12.145915 21.875453 25.741205 -1.108943 0.555148 0.030893 -0.018993 452779.000000 0 0 1
5.476236 -10.952915 21.054653 24.356804 -1.107165 0.526789 0.022173 -0.021811 211715.000000 0 1 0
5.760936 -9.785715 21.741053 24.527984 -1.038721 0.481335 0.018302 -0.009755 173979.000000 0 1 0
4.975436 -8.691815 21.209553 23.455228 -1.050897 0.441160 0.015286 -0.008724 623781.000000 0 1 0
5.475236 -7.307015 21.760653 23.598659 -0.927736 0.397287 0.021415 -0.012270 371948.000000 0 1 0
4.559236 -6.350715 21.293353 22.683146 -0.948152 0.351869 0.010126 -0.014899 318765.000000 0 1 0
5.151436 -5.046715 21.495253 22.672726 -0.775130 0.323695 0.036893 -0.035541 474742.000000 0 1 0
-8.101764 -15.394415 -21.007494 27.275289 1.086347 2.449955 0.001513 0.007351 60235.800000 0 0 1
-7.771164 -14.768815 -19.757494 25.862472 1.086419 2.440200 -0.005128 0.006342 94134.400000 0 0 1
-6.882764 -13.683715 -19.965294 25.164051 1.104760 2.487180 0.000840 -0.010074 -32783.100000 0 0 1
-6.332864 -13.124215 -18.621694 23.645669 1.121220 2.477588 -0.006189 -0.008868 154829.000000 0 1 0
-5.583464 -14.026015 -17.803094 23.342115 1.191947 2.438278 0.007596 -0.009390 339702.000000 0 1 0
-4.694264 -13.273615 -16.991094 22.066314 1.230870 2.449640 0.026838 -0.013316 -47144.400000 0 1 0
-3.632164 -14.135915 -16.297394 21.877426 1.319291 2.411243 0.026665 -0.011767 35792.800000 0 1 0
-2.549664 -14.478415 -17.167894 22.602253 1.396483 2.433441 0.022972 -0.010517 -143762.000000 0 1 0
-1.650364 -15.316415 -16.472794 22.553696 1.463459 2.389676 0.033631 -0.003743 93775.700000 0 1 0
-0.379064 -15.536715 -17.328494 23.276810 1.546403 2.410512 0.037150 0.002455 79543.600000 0 1 0
-0.566264 -16.464915 -18.428194 24.718665 1.536418 2.412107 0.068798 -0.011082 -148092.000000 0 1 0
-0.647164 -17.873915 -18.158594 25.487844 1.534605 2.363767 0.065158 -0.000505 -105368.000000 0 0 1
-0.887464 -18.613615 -19.515294 26.983346 1.523154 2.379271 0.075815 -0.009963 171150.000000 0 0 1
-2.217264 -18.337315 -19.912694 27.160426 1.450465 2.393740 0.064903 -0.009932 13841.300000 0 0 1
-2.377464 -18.585815 -21.300494 28.368925 1.443569 2.420128 0.058045 -0.011419 -226145.000000 0 0 1
-3.494764 -17.799115 -21.992294 28.507593 1.376918 2.451919 0.050369 -0.005108 -164902.000000 0 0 1
-3.286864 -16.419715 -21.932794 27.594528 1.373230 2.489514 0.052167 0.001067 -25937.900000 0 0 1
-4.063964 -15.807615 -20.955994 26.562194 1.319157 2.479879 0.009279 0.001282 -424618.000000 0 0 1
-3.229464 -14.623715 -20.521294 25.404842 1.353447 2.511157 0.024339 -0.006983 23550.000000 0 0 1
-2.860964 -13.695815 -21.552894 25.696064 1.364864 2.565803 0.015754 -0.013284 229832.000000 0 0 1
-1.967164 -12.734915 -21.012694 24.649160 1.417537 2.591490 0.023051 -0.010534 7155.580000 0 1 0
-1.590264 -11.745315 -22.114994 25.090921 1.436219 2.649602 0.025576 -0.015816 -50203.200000 0 0 1
-2.612664 -10.806015 -22.399794 25.006934 1.333570 2.680897 0.011849 -0.016037 133669.000000 0 0 1
-2.480364 -10.188015 -23.634194 25.855811 1.331983 2.724022 0.018650 -0.011673 -79416.000000 0 0 1
-3.485164 -9.029515 -23.930394 25.813606 1.202439 2.757252 0.011072 -0.006879 -429928.000000 0 0 1
-4.775364 -9.438715 -24.256294 26.462450 1.102413 2.730365 0.041007 -0.012042 -409718.000000 0 0 1
-5.604864 -8.308115 -24.144694 26.142026 0.977304 2.748156 0.027165 -0.010617 322955.000000 0 0 1
-7.146964 -8.605215 -23.973394 26.454724 0.877710 2.705016 0.015825 -0.016707 1066180.000000 0 0 1
-7.940964 -9.045015 -25.041794 27.784216 0.850305 2.693548 0.033990 -0.019933 146372.000000 0 0 1
-8.239364 -8.004315 -25.912704 28.344742 0.770929 2.724321 0.039761 -0.020862 -374034.000000 0 0 1
-9.232764 -8.380715 -27.048764 29.784492 0.737061 2.709638 0.032070 -0.022852 146319.000000 0 0 1
-9.769164 -7.276515 -27.706594 30.266146 0.640194 2.727376 0.038782 -0.021862 72487.400000 0 0 1
-10.663864 -7.716015 -28.725334 31.597463 0.626368 2.711921 0.048030 -0.024790 -330437.000000 0 0 1
-11.423464 -6.649715 -29.469494 32.298070 0.527161 2.719962 0.054665 -0.031820 -311693.000000 0 0 1
-10.650664 -5.683715 -30.187954 32.512364 0.490203 2.761168 0.025141 -0.019428 105756.000000 0 0 1
-11.409664 -5.035515 -31.238234 33.635756 0.415627 2.761745 0.073061 -0.028346 326082.000000 0 0 1
-10.600364 -3.927215 -31.951854 33.892650 0.354801 2.801540 0.054026 -0.027778 629816.000000 0 0 1
-9.583364 -4.449115 -32.835604 34.493657 0.434644 2.830278 0.037653 -0.029163 436490.000000 0 0 1
-9.173164 -3.491215 -33.798664 35.194960 0.363662 2.858968 0.047386 -0.034006 -300344.000000 0 0 1
-7.977764 -3.941315 33.819423 34.970446 0.458866 0.257279 0.038316 -0.023964 367352.000000 0 0 1
-6.742064 -3.790915 -33.956854 34.826633 0.512221 2.917632 0.033512 -0.022873 -504565.000000 0 0 1
-5.778564 -4.414715 33.747250 34.521854 0.652389 0.212238 0.026583 -0.020578 -185293.000000 0 0 1
-4.342964 -4.056915 34.239241 34.751195 0.751357 0.171862 0.036149 -0.022101 256162.000000 0 0 1
-3.984164 -2.734215 34.022513 34.363948 0.601452 0.141084 0.051542 -0.032594 251524.000000 0 0 1
-2.602164 -2.558715 -34.150175 34.344617 0.776979 3.035133 0.049500 -0.033539 647277.000000 0 0 1
-2.336164 -1.072115 -33.845284 33.942751 0.430248 3.065792 0.064620 -0.036704 -2445.630000 0 0 1
-2.979364 -0.787315 -32.624024 32.769245 0.258350 3.047413 0.042497 -0.038139 149495.000000 0 0 1
-3.222164 0.579485 -32.388954 32.553993 -0.177941 3.040855 0.065802 -0.039755 -435252.000000 0 0 1
-3.741564 0.858185 -30.931154 31.168447 -0.225466 3.018119 0.086977 -0.042224 1197570.000000 0 0 1
-4.988064 0.241385 -30.547934 30.953438 -0.048355 2.979548 0.063795 -0.039141 905890.000000 0 0 1
-6.181064 0.899585 -30.968084 31.591724 -0.144524 2.942565 0.069032 -0.036750 -606411.000000 0 0 1
-7.288764 -0.110915 -30.922494 31.770096 0.015216 2.910081 0.057413 -0.041363 -979392.000000 0 0 1
-7.565264 -0.647815 -29.668904 30.625100 0.085422 2.891047 0.037528 -0.024240 912361.000000 0 0 1
-8.695864 -1.572815 -29.700824 30.987590 0.178935 2.852401 0.050352 -0.016031 1023940.000000 0 0 1
-8.907964 -2.447815 -28.409054 29.873366 0.268170 2.827195 0.042442 -0.011195 -239703.000000 0 0 1
-9.507264 -1.770415 -27.362674 29.021343 0.184108 2.801868 0.041101 -0.010301 -47831.400000 0 0 1
-9.705264 -2.570115 -26.236844 28.092163 0.258874 2.776123 0.029786 -0.007984 386463.000000 0 0 1
-10.758664 -2.007915 -25.225154 27.497072 0.184510 2.732233 0.033256 -0.003000 664899.000000 0 0 1
-10.260464 -0.818115 -24.648294 26.711137 0.079566 2.746010 0.024397 -0.004187 953556.000000 0 0 1
-11.364664 -0.155815 -24.007094 26.561635 0.013710 2.699424 0.037131 -0.013013 822589.000000 0 0 1
-10.847264 1.090185 -23.279794 25.706039 -0.100167 2.703626 0.040780 -0.020094 209629.000000 0 0 1
-10.590764 2.169285 -24.109194 26.422023 -0.202034 2.720067 0.036044 -0.024087 232421.000000 0 0 1
-9.868964 3.286485 -23.566594 25.760081 -0.321462 2.725931 0.035991 -0.022619 68874.300000 0 0 1
-9.985864 4.528485 -24.495594 26.837638 -0.425752 2.720720 0.049969 -0.025553 -135672.000000 0 0 1
-11.301364 5.024085 -24.563894 27.501766 -0.418317 2.675153 0.040315 -0.029752 -3349.730000 0 0 1
-11.907064 4.700385 -25.839644 28.836765 -0.375978 2.681623 0.033770 -0.030309 1171310.000000 0 0 1
-13.330264 5.390385 -25.991274 29.703510 -0.384270 2.636281 0.018519 -0.017359 1065850.000000 0 0 1
-13.227564 6.697285 -26.333634 30.220562 -0.468685 2.628807 0.023008 -0.015974 858263.000000 0 0 1
-14.505764 7.226685 -26.737434 31.265517 -0.462202 2.596681 0.021982 -0.014122 423894.000000 0 0 1
-14.409364 8.760585 -27.005574 31.838321 -0.546265 2.583392 0.038751 -0.012286 -200853.000000 0 0 1
-14.238364 9.485885 -25.801134 30.958223 -0.587693 2.556060 0.056343 -0.016597 122844.000000 0 0 1
-14.699764 10.804585 -25.971174 31.738368 -0.633843 2.529225 0.053390 -0.018041 -127592.000000 0 0 1
-14.367764 11.613485 -24.687094 30.834369 -0.679782 2.499152 0.048191 -0.005862 392437.000000 0 0 1
-15.165764 11.271985 -23.526994 30.175777 -0.639168 2.464927 0.059055 -0.002133 362062.000000 0 0 1
-14.693964 11.971885 -22.431494 29.366827 -0.683669 2.440035 0.045640 0.000644 -15051.200000 0 0 1
-15.608164 11.878285 -21.202694 28.883606 -0.650523 2.395098 0.050293 -0.001506 282804.000000 0 0 1
-16.891564 12.473285 -21.226894 29.857810 -0.636057 2.361620 0.041437 -0.006351 209080.000000 0 0 1
-17.351564 12.818185 -19.918294 29.361899 -0.636252 2.316341 0.038578 0.003521 -506443.000000 0 0 1
-18.836964 13.152885 -19.938394 30.419881 -0.609550 2.285561 0.055702 -0.004742 -657036.000000 0 0 1
-19.119764 14.262185 -20.751794 31.616646 -0.640897 2.286776 0.058162 -0.011265 448929.000000 0 0 1
-20.515264 14.551885 -20.748494 32.605727 -0.616954 2.260547 0.042623 -0.015540 442574.000000 0 0 1
-20.790864 15.976385 -21.255394 33.753469 -0.655194 2.251995 0.026585 -0.018339 -238883.000000 0 0 1
-20.687764 15.974485 -22.657494 34.590892 -0.657540 2.284997 0.030581 -0.017971 270620.000000 0 0 1
-21.213264 17.172885 -23.197394 35.819403 -0.680528 2.275254 0.002335 -0.007522 -49244.600000 0 0 1
-21.161964 17.061585 -24.734494 36.752165 -0.678533 2.309064 0.004956 -0.017204 610732.000000 0 0 1
-19.848864 17.280485 -25.254484 36.474396 -0.716334 2.335592 0.008783 -0.015046 549736.000000 0 0 1
-19.767164 16.669885 -26.547994 37.059707 -0.700598 2.369364 0.002112 -0.018481 103607.000000 0 0 1
-18.638564 17.174785 -27.525904 37.417172 -0.744548 2.397421 -0.018441 -0.010046 341768.000000 0 0 1
-18.942964 18.442985 -28.080594 38.568113 -0.772026 2.386310 -0.043130 -0.024704 404077.000000 0 0 1
-18.328664 19.575285 -27.417284 38.351521 -0.818275 2.367269 -0.053569 -0.022856 -1596490.000000 0 0 1
-18.976164 20.991485 -27.613264 39.537699 -0.835779 2.343961 -0.001986 -0.017915 630762.000000 0 0 1
-20.137764 21.322685 -26.846754 39.760969 -0.813970 2.312037 0.021109 -0.012670 308695.000000 0 0 1
-21.244564 20.478685 -26.989844 39.989495 -0.767044 2.311657 0.059552 -0.034666 -745821.000000 0 0 1
-22.447964 20.944585 -26.096454 40.294065 -0.750766 2.275293 0.063184 -0.020220 448196.000000 0 0 1
-22.171664 20.826385 -24.713294 39.192702 -0.754121 2.253069 0.029040 -0.011735 -165092.000000 0 0 1
-23.250564 21.295385 -23.939394 39.587583 -0.741535 2.220210 0.020114 -0.020650 -175103.000000 0 0 1
-23.212364 20.997685 -22.395694 38.487449 -0.735346 2.191854 0.009023 -0.004891 188701.000000 0 0 1
-22.181264 21.689485 -21.673994 37.844475 -0.774189 2.180607 0.009844 -0.003867 345245.000000 0 0 1
-21.073364 20.857485 -21.335894 36.528643 -0.780250 2.194551 0.013979 -0.001903 -108997.000000 0 0 1
-21.197864 19.977085 -20.029294 35.349767 -0.755758 2.173174 0.032301 -0.015662 -565166.000000 0 0 1
-22.175964 18.913085 -20.207894 35.466000 -0.706155 2.177037 0.048747 -0.020667 726240.000000 0 0 1
-22.693864 18.353685 -19.041694 34.849037 -0.680054 2.148862 0.034154 -0.009157 -67555.000000 0 0 1
-23.793464 19.242385 -18.419894 35.716814 -0.680039 2.112645 0.016944 -0.002781 -173908.000000 0 0 1
-25.030964 19.367585 -19.110594 36.971169 -0.658526 2.114028 0.008529 0.002892 528227.000000 0 0 1
-25.905414 20.288585 -18.490994 37.744325 -0.664400 2.082773 0.005633 -0.000912 -658131.000000 0 0 1
-27.367514 20.269285 -18.969594 38.982948 -0.637479 2.079004 -0.009244 0.014708 -150253.000000 0 0 1
-28.171524 19.183285 -18.581894 38.819068 -0.597823 2.069946 0.002213 0.012194 15989.500000 0 0 1
-28.501054 19.190385 -17.191894 38.420596 -0.592596 2.034726 -0.003019 0.004857 -1015270.000000 0 0 1
-29.351264 17.954185 -16.828494 38.302059 -0.548978 2.025685 -0.002082 0.001900 -686884.000000 0 0 1
-28.735644 16.719285 -16.872494 37.282071 -0.526953 2.040434 0.023467 -0.004462 -582633.000000 0 0 1
-29.492434 15.659485 -16.355394 37.182282 -0.488113 2.026251 0.022957 -0.002155 -70695.300000 0 0 1
-28.728624 14.759285 -15.347694 35.759224 -0.474586 2.014398 0.056683 -0.010790 -46321.900000 0 0 1
-28.448494 15.276785 -14.063894 35.220592 -0.492806 1.981559 0.069126 -0.009236 236514.000000 0 0 1
-29.611834 15.576685 -13.297494 36.004405 -0.484253 1.949084 0.041504 -0.004469 465601.000000 0 0 1
-29.293514 16.104385 -11.859994 35.469997 -0.502658 1.911730 0.060993 -0.006404 71798.000000 0 0 1
-28.546284 17.299885 -11.733794 35.381610 -0.544841 1.908833 0.053505 -0.003817 59577.900000 0 0 1
-29.272814 18.504085 -11.969394 36.641032 -0.563707 1.903571 0.015568 0.001568 38950.100000 0 0 1
-28.301564 19.648485 -12.370794 36.607077 -0.606859 1.915518 0.033665 -0.005734 272455.000000 0 0 1
-27.697414 20.269385 -11.240794 36.115789 -0.631761 1.887297 0.028746 -0.013841 380577.000000 0 0 1
-26.646964 21.103285 -11.763194 35.969183 -0.669818 1.903961 0.024500 -0.010417 491516.000000 0 0 1
-25.894384 21.891885 -10.698994 35.556185 -0.701835 1.876437 0.027534 -0.006310 -771136.000000 0 0 1
-26.652984 22.893085 -10.150294 36.571894 -0.709656 1.852033 0.049673 -0.011569 -575863.000000 0 0 1
-26.133774 24.187585 -10.170994 37.033263 -0.746742 1.849017 0.046714 -0.011615 49520.100000 0 0 1
-26.891124 25.091385 -9.126594 37.894655 -0.750790 1.814029 0.069964 0.009587 775673.000000 0 0 1
-26.283384 25.042385 -7.825794 37.137318 -0.761224 1.783114 0.056900 0.012852 391760.000000 0 0 1
-27.345034 25.031085 -6.896394 37.707644 -0.741247 1.754723 0.078273 -0.001680 223136.000000 0 0 1
-27.076734 24.183585 -5.588494 36.731820 -0.729018 1.723533 0.081991 -0.003029 -427676.000000 0 0 1
-27.206794 22.763585 -5.757994 35.938071 -0.696715 1.731710 0.085083 -0.003414 203704.000000 0 0 1
-27.039014 22.156385 -4.463594 35.241132 -0.686472 1.697796 0.084921 -0.004462 -32873.400000 0 0 1
-27.277494 20.626285 -4.518894 34.495300 -0.647435 1.702174 0.079267 -0.010575 -2780.470000 0 0 1
-26.281324 19.845885 -5.150094 33.333026 -0.646778 1.725922 0.060537 -0.017326 -89995.500000 0 0 1
-26.228324 19.876385 -6.571194 33.558550 -0.648488 1.767883 0.049888 -0.005326 -935355.000000 0 0 1
-27.299584 19.235185 -7.443094 34.214899 -0.613804 1.790089 0.052200 -0.005663 -630092.000000 0 0 1
-27.301114 17.822785 -7.367394 33.425754 -0.578357 1.793032 0.046006 -0.006706 227707.000000 0 0 1
-27.655794 17.310885 -8.639294 33.751253 -0.559275 1.829647 0.030822 -0.006388 -262683.000000 0 0 1
-27.159704 15.949785 -8.892494 32.727995 -0.530999 1.845965 0.058108 -0.010022 -505104.000000 0 0 1
-27.854444 15.082485 -8.071794 32.687999 -0.496275 1.820312 0.039988 -0.007403 -140346.000000 0 0 1
-27.660184 13.706485 -8.441094 32.003212 -0.460066 1.837712 0.058494 -0.017314 -159105.000000 0 0 1
-28.526314 12.728885 -7.640194 32.158167 -0.419702 1.810672 0.043857 -0.019936 -543636.000000 0 0 1
-29.865714 12.705485 -8.066294 33.443315 -0.402227 1.814391 0.047247 -0.014527 -324216.000000 0 0 1
-30.549104 11.744885 -7.230294 33.518163 -0.367038 1.788218 0.058590 -0.021370 -78671.800000 0 0 1
-30.869964 10.328885 -7.814494 33.476960 -0.322884 1.806399 0.055376 -0.011952 -235881.000000 0 0 1
-29.739284 9.620785 -8.263994 32.330761 -0.312878 1.829273 0.062061 -0.006345 87974.700000 0 0 1
-30.153394 8.292085 -8.642294 32.444955 -0.268363 1.840419 0.056605 -0.007118 416385.000000 0 0 1
-28.972514 7.368485 -9.107794 31.251449 -0.249047 1.866524 0.096207 -0.012101 163960.000000 0 0 1
-28.624614 7.609285 -10.449094 31.407855 -0.259821 1.909951 0.101911 -0.017417 511918.000000 0 0 1
-27.676314 6.624585 -10.917194 30.480299 -0.234939 1.937106 0.111838 -0.022859 302058.000000 0 0 1
-27.032374 7.009685 -12.288594 30.510564 -0.253719 1.985332 0.093561 -0.025553 128003.000000 0 0 1
-26.106174 8.082185 -12.192294 29.925008 -0.300231 1.990433 0.118705 -0.023856 344774.000000 0 0 1
-25.565234 8.429185 -13.420294 30.078841 -0.318489 2.033278 0.105437 -0.018491 -258017.000000 0 0 1
-31.299574 25.696085 33.687253 52.676211 -0.687399 0.876928 0.009710 0.020153 64536.700000 0 0 1
-31.112074 27.080785 33.384006 53.064319 -0.716234 0.890371 -0.006570 0.010103 99816.100000 0 0 1
-31.952664 27.427585 32.321283 53.083995 -0.709340 0.916160 0.009480 -0.001310 -311507.000000 0 0 1
-32.032494 28.936985 32.110063 53.800427 -0.734670 0.931244 0.020782 -0.009493 448360.000000 0 0 1
-32.935764 29.392585 31.082263 53.988848 -0.728612 0.957316 0.050624 -0.012647 271100.000000 0 0 1
-33.060064 30.824185 31.071803 54.850298 -0.750414 0.968564 0.068885 -0.017503 -243866.000000 0 0 1
-32.444194 31.414085 29.842423 54.129851 -0.769268 0.986861 0.075786 -0.022403 193218.000000 0 0 1
-31.051444 31.165085 29.719633 53.091537 -0.787225 0.976675 0.062859 -0.022024 102072.000000 0 0 1
-30.525494 31.973485 28.646493 52.675717 -0.808562 0.995805 0.056095 -0.007676 815401.000000 0 0 1
-29.053144 31.590585 28.257133 51.385950 -0.827216 0.988552 0.061625 -0.011120 489587.000000 0 0 1
-28.819904 30.372285 27.555433 50.123492 -0.811618 0.988730 0.078151 -0.009849 -1018270.000000 0 0 1
-27.775804 30.462185 26.680903 49.105098 -0.831493 0.996382 0.037522 0.001577 -1031110.000000 0 0 1
-27.896044 31.308685 25.372733 49.012230 -0.842976 1.026657 0.023968 -0.001072 -288008.000000 0 0 1
-27.753024 32.707985 25.623353 49.965977 -0.867168 1.032335 0.015650 -0.001546 114424.000000 0 0 1
-28.436634 33.526685 24.695763 50.423819 -0.867360 1.058977 0.023151 0.003134 48282.800000 0 0 1
-28.712354 -33.514517 25.288383 50.863784 0.862417 1.050452 0.040046 0.006177 6667.110000 0 0 1
-29.554974 -33.557117 26.411483 51.934026 0.848727 1.037287 0.053681 -0.013580 -131133.000000 0 0 1
-29.539384 -32.300917 27.025533 51.442239 0.830024 1.017662 0.035705 -0.011239 -184360.000000 0 0 1
-30.223734 -32.367317 28.365983 52.590364 0.819632 1.001100 0.049157 -0.021462 -1021020.000000 0 0 1
-31.518714 -32.840417 28.363533 53.632195 0.805932 1.013548 0.058724 -0.025842 -1072410.000000 0 0 1
-31.953554 -32.973917 29.670233 54.668378 0.801112 0.997111 0.059158 -0.026321 -161226.000000 0 0 1
-33.361774 -33.552717 29.870813 55.955860 0.788252 1.007675 0.070354 -0.033524 -21918.400000 0 0 1
-33.741934 -33.459217 31.236903 56.866347 0.781191 0.989265 0.056787 -0.032378 -440683.000000 0 0 1
-35.090123 -33.803217 31.418063 57.974727 0.766721 0.998068 0.050241 -0.033664 -147192.000000 0 0 1
-35.367235 34.180785 32.887810 59.167351 -0.768340 0.981419 0.057286 -0.022786 -96564.000000 0 0 1
-34.894059 32.878085 33.126522 58.274611 -0.755661 0.966169 0.021520 -0.011379 -265583.000000 0 0 1
-35.706228 32.259985 34.074218 58.963495 -0.734736 0.954660 0.034600 -0.005887 248064.000000 0 0 1
-35.148724 30.824985 -34.041554 57.831133 -0.719954 2.200168 0.013818 0.001882 686399.000000 0 0 1
-34.018824 30.860585 -33.178624 56.661073 -0.736758 2.196371 0.012072 0.005434 -136167.000000 0 0 1
-33.742964 29.530985 -32.728764 55.514311 -0.718929 2.201305 0.002996 0.007111 426775.000000 0 0 1
-33.011914 29.427785 -31.335794 54.200674 -0.728060 2.187248 -0.001566 0.005849 -69860.200000 0 0 1
-33.792684 29.621785 -30.188684 54.136423 -0.719721 2.162337 0.005485 0.002405 -592503.000000 0 0 1
-34.016234 31.018885 -29.871184 54.877710 -0.739343 2.146378 -0.006946 0.012356 540687.000000 0 0 1
-35.070260 31.146785 -28.701084 54.989068 -0.726216 2.119922 -0.000545 0.013063 227576.000000 0 0 1
-34.732433 30.774285 -27.395494 53.887955 -0.725048 2.104097 -0.018600 0.001837 -277481.000000 0 0 1
-35.788388 30.770385 -26.439974 54.098961 -0.710148 2.081434 0.010655 -0.004268 -112935.000000 0 0 1
-35.263845 30.359985 -25.113004 52.876559 -0.710810 2.065688 0.022626 -0.016544 -221662.000000 0 0 1
-34.639450 31.411685 -24.442494 52.763823 -0.736569 2.052448 0.016304 -0.008574 -598770.000000 0 0 1
-34.534049 31.131785 -23.023294 51.883145 -0.733633 2.030578 0.012485 -0.016979 567717.000000 0 0 1
-35.833477 31.098785 -22.102494 52.342075 -0.714777 2.006745 0.013149 -0.013701 907813.000000 0 0 1
36.027763 32.307985 -22.082394 53.192459 0.731018 1.998895 0.025045 -0.018176 152324.000000 0 0 1
-36.015491 33.472385 -21.528794 53.674996 -0.748817 1.983509 0.033619 -0.027075 -145006.000000 0 0 1
-35.839958 33.499385 -19.981994 52.971610 -0.751656 1.957590 0.034321 -0.024971 326793.000000 0 0 1
-34.793688 32.635585 -19.542194 51.551717 -0.753404 1.959598 0.039880 -0.024867 46972.900000 0 0 1
-34.700926 32.525385 -18.151394 50.907053 -0.753048 1.935379 0.050789 -0.009565 1500950.000000 0 0 1
-33.437784 31.587085 -17.722194 49.294072 -0.756944 1.938550 0.053720 -0.011392 1534050.000000 0 0 1
-33.303894 31.288585 -16.370794 48.539961 -0.754208 1.914806 0.055117 -0.004751 408725.000000 0 0 1
-32.124914 30.498385 -16.119094 47.137955 -0.759431 1.919794 0.045388 -0.001873 652964.000000 0 0 1
-31.864164 30.350585 -14.608594 46.366950 -0.761075 1.891321 0.064422 -0.009693 196322.000000 0 0 1
-32.950094 29.623385 -14.044494 46.481195 -0.732283 1.877748 0.053745 -0.002416 338407.000000 0 0 1
-32.663814 29.202285 -12.729994 45.626209 -0.729504 1.853555 0.070914 -0.003532 474020.000000 0 0 1
-33.923334 28.615685 -12.009494 45.976929 -0.700732 1.835069 0.058778 -0.002136 349114.000000 0 0 1
-33.517974 28.278685 -10.713094 45.143206 -0.700818 1.810396 0.060661 0.001449 316196.000000 0 0 1
-34.369481 27.395385 -9.971694 45.068870 -0.672961 1.793897 0.068544 -0.006040 177573.000000 0 0 1
-33.593054 26.487585 -8.968794 43.709550 -0.667679 1.777455 0.065600 0.001999 344278.000000 0 0 1
-33.122244 27.234985 -7.841194 43.592566 -0.688166 1.751655 0.081133 -0.006959 41083.200000 0 0 1
-31.836324 26.874385 -7.402994 42.315345 -0.701083 1.746649 0.084158 -0.016395 -336644.000000 0 0 1
-31.524264 27.577385 -6.022694 42.315060 -0.718716 1.713611 0.092372 -0.016556 -629965.000000 0 0 1
-30.413594 26.894685 -5.546594 40.976524 -0.724072 1.706573 0.107724 -0.009885 -222777.000000 0 0 1
-30.129954 27.337885 -4.225294 40.902656 -0.736851 1.674282 0.107824 -0.019581 -339018.000000 0 0 1
-29.358254 26.398685 -3.310194 39.620135 -0.732368 1.654442 0.100605 -0.019785 -183602.000000 0 0 1
-30.036814 25.195685 -2.995794 39.319303 -0.697972 1.647062 0.084564 -0.012927 -214368.000000 0 0 1
-29.276964 24.397885 -2.166794 38.171880 -0.694747 1.627591 0.062254 -0.008346 -52615.300000 0 0 1
-29.995414 23.079385 -1.732094 37.886450 -0.655821 1.616530 0.063358 -0.016771 63038.600000 0 0 1
-30.261174 22.084885 -2.682794 37.558996 -0.630453 1.642286 0.048281 -0.007084 -303322.000000 0 0 1
-31.271734 21.218985 -2.315594 37.861969 -0.596175 1.631993 0.053065 -0.008597 -443724.000000 0 0 1
-31.858734 20.470385 -3.512194 38.030923 -0.571110 1.663279 0.069277 -0.005756 -60870.300000 0 0 1
-30.957914 19.439085 -3.854694 36.757709 -0.560696 1.675857 0.055929 -0.010692 409799.000000 0 0 1
-31.190294 18.967185 -5.159294 36.867423 -0.546363 1.711199 0.059244 -0.006006 345321.000000 0 0 1
-30.120434 17.862785 -5.461494 35.442172 -0.535290 1.725509 0.057976 -0.013208 279095.000000 0 0 1
-30.198294 16.718885 -4.678194 34.833082 -0.505631 1.705507 0.044112 -0.015484 94792.600000 0 0 1
-29.127364 15.893985 -5.075994 33.567661 -0.499514 1.722595 0.053320 -0.018703 -89722.700000 0 0 1
-28.908754 14.710485 -4.111894 32.695904 -0.470710 1.696892 0.053824 -0.024647 -375272.000000 0 0 1
-30.079114 13.961785 -3.962694 33.397418 -0.434574 1.689729 0.056893 -0.016017 24422.000000 0 0 1
-29.744604 12.706485 -3.374694 32.520529 -0.403721 1.674755 0.061099 -0.023464 -1312.290000 0 0 1
-30.915744 11.870685 -2.833594 33.237414 -0.366611 1.656153 0.070373 -0.027222 148973.000000 0 0 1
-31.884934 11.415185 -3.773494 34.076308 -0.343794 1.681760 0.066662 -0.013804 1190620.000000 0 0 1
-32.941264 10.594685 -3.269194 34.757185 -0.311175 1.664994 0.078449 -0.015516 454015.000000 0 0 1
-33.959004 10.024485 -4.297794 35.667567 -0.287042 1.691586 0.064772 -0.006683 86024.300000 0 0 1
-33.474604 8.973385 -5.132594 35.034473 -0.261908 1.717827 0.059408 -0.007819 -220621.000000 0 0 1
-34.368476 8.667085 -6.127394 35.970203 -0.247031 1.741978 0.062300 -0.005118 -542559.000000 0 0 1
-33.741684 7.750685 -7.217294 35.364724 -0.225790 1.776322 0.067658 -0.012516 -184299.000000 0 0 1
-33.535394 6.440785 -6.774094 34.813715 -0.189749 1.766627 0.057284 -0.008069 345003.000000 0 0 1
-32.949534 5.663985 -7.800094 34.330657 -0.170235 1.800003 0.070681 -0.011014 828327.000000 0 0 1
-31.789054 4.692785 -7.255894 32.942589 -0.146564 1.792876 0.086150 -0.019740 1355190.000000 0 0 1
-30.591634 5.326085 -6.805994 31.788942 -0.172375 1.786566 0.091677 -0.022000 415883.000000 0 0 1
-29.708304 4.411285 -6.206894 30.668686 -0.147410 1.774589 0.089917 -0.021971 133379.000000 0 0 1
-28.282994 4.993185 -5.983794 29.337100 -0.174743 1.776205 0.125842 -0.022997 520198.000000 0 0 1
-27.542244 5.133185 -7.211194 28.929676 -0.184261 1.822719 0.118645 -0.018746 -847427.000000 0 0 1
-26.195444 4.993185 -6.993694 27.568913 -0.188353 1.827280 0.142937 -0.026813 -1153380.000000 0 0 1
-25.268724 5.288885 -8.161294 27.075588 -0.206327 1.876984 0.132127 -0.027723 -181611.000000 0 0 1
-25.428274 4.318285 -9.166394 27.372751 -0.168217 1.912267 0.124589 -0.039204 156176.000000 0 0 1
-24.422464 4.469685 -10.128394 26.814534 -0.181012 1.958129 0.121171 -0.035523 -330620.000000 0 0 1
-24.666864 3.544585 -11.358494 27.386742 -0.142721 1.998458 0.112319 -0.049541 487957.000000 0 0 1
-25.678204 4.038985 -12.266694 28.742918 -0.156014 2.011718 0.108433 -0.030285 748464.000000 0 0 1
-25.770394 3.211085 -13.411894 29.228465 -0.123965 2.047513 0.113264 -0.029587 501569.000000 0 0 1
-26.762914 3.952485 -14.389094 30.641830 -0.146625 2.059623 0.093708 -0.025242 686328.000000 0 0 1
-26.122894 5.113685 -15.082494 30.594722 -0.193310 2.086304 0.082546 -0.019975 1157850.000000 0 0 1
-27.030864 5.904185 -15.868794 31.895856 -0.215046 2.091533 0.117034 -0.031390 344018.000000 0 0 1
-27.805484 5.283285 -17.071894 33.053103 -0.187770 2.113554 0.076711 -0.007337 -378529.000000 0 0 1
-28.830934 4.476985 -16.612094 33.574214 -0.154054 2.088386 0.090560 -0.026624 -446093.000000 0 0 1
-29.621394 3.835185 -17.613694 34.675321 -0.128757 2.103612 0.081182 -0.011795 685282.000000 0 0 1
-31.067864 3.491485 -17.100894 35.634860 -0.111913 2.071328 0.078291 -0.009514 540108.000000 0 0 1
-31.158504 2.321385 -16.319794 35.250204 -0.074365 2.052140 0.080760 -0.023967 304484.000000 0 0 1
-31.079204 1.185985 -17.132194 35.508246 -0.038142 2.074286 0.082566 -0.021194 -566812.000000 0 0 1
-31.067764 -0.147515 -16.345294 35.105503 0.004748 2.055114 0.089127 -0.023914 -429823.000000 0 0 1
-30.803434 -1.325315 -17.066494 35.240222 0.042998 2.076348 0.093375 -0.012736 413683.000000 0 0 1
-30.894124 -2.450715 -16.258794 34.997161 0.079160 2.053951 0.097303 -0.020206 -96465.000000 0 0 1
-30.828474 -3.761315 -17.005894 35.408230 0.121408 2.071771 0.091472 -0.016170 10264.000000 0 0 1
-32.020734 -4.032815 -17.710494 36.813756 0.125284 2.072687 0.091977 -0.014744 111138.000000 0 0 1
-31.860004 -5.069115 -18.663094 37.270187 0.157783 2.095263 0.084760 -0.013219 -155859.000000 0 0 1
-32.852944 -5.132015 -19.835694 38.718320 0.154959 2.108666 0.084931 -0.016251 -284513.000000 0 0 1
-32.727004 -6.322515 -20.541394 39.153287 0.190839 2.123089 0.097710 -0.014066 393856.000000 0 0 1
-33.533574 -6.367715 -21.717594 40.456177 0.187656 2.137457 0.102727 -0.013741 -120703.000000 0 0 1
-33.351654 -7.722215 -22.412494 40.918032 0.227530 2.150458 0.102184 -0.010205 595984.000000 0 0 1
-31.979094 -7.802715 -22.797994 40.041146 0.239318 2.176529 0.085400 -0.010007 566050.000000 0 0 1
-31.878804 -8.528915 -24.000294 40.804591 0.261419 2.199598 0.069759 -0.012897 -948965.000000 0 0 1
-30.543114 -8.381315 -24.668394 40.145460 0.267817 2.232517 0.053218 -0.013110 -1189170.000000 0 0 1
-30.258264 -7.133215 -25.196794 40.016543 0.231517 2.251911 0.055045 -0.018107 220377.000000 0 0 1
-29.795984 -7.214415 -26.547334 40.553784 0.237555 2.284477 0.029610 -0.013967 143605.000000 0 0 1
-30.942804 -7.167915 -27.611364 42.085907 0.227635 2.286398 0.027730 -0.018273 810497.000000 0 0 1
-31.801894 -8.322515 -27.455484 42.830227 0.255959 2.266637 0.039834 -0.020103 -644266.000000 0 0 1
-33.117524 -8.146715 -27.847034 44.029498 0.241205 2.255525 0.032896 -0.013316 -366207.000000 0 0 1
-34.037313 -9.269915 -27.314164 44.615396 0.265897 2.229654 0.048737 -0.019361 -339134.000000 0 0 1
-33.691794 -10.555115 -27.828164 44.955024 0.303599 2.238294 0.048001 -0.011249 137574.000000 0 0 1
-34.583320 -11.620915 -27.417314 45.637274 0.324173 2.215255 0.044459 -0.006048 472122.000000 0 0 1
-35.880227 -11.691615 -28.269614 47.151412 0.315002 2.213735 0.029626 -0.002723 -397697.000000 0 0 1
35.916223 -10.592615 -28.163404 46.854625 -0.286795 2.215649 0.025034 -0.001977 -835014.000000 0 0 1
35.007913 -10.702415 -29.204194 46.829270 -0.296691 2.244176 0.028620 -0.006312 -780395.000000 0 0 1
33.866113 -9.704615 -29.039024 45.654770 -0.279080 2.260174 0.035361 -0.003913 468911.000000 0 0 1
32.809173 -10.067215 -28.095674 44.352649 -0.297721 2.256814 0.026013 0.001880 739757.000000 0 0 1
32.039973 -8.935015 -27.767954 43.329593 -0.271961 2.266407 0.017144 0.006282 196781.000000 0 0 1
30.899933 -9.249815 -26.753304 41.905897 -0.290858 2.263232 0.015382 0.009982 352584.000000 0 0 1
31.336503 -9.605315 -25.378274 41.452325 -0.297429 2.229672 0.001562 0.018162 526156.000000 0 0 1
30.218173 -10.015615 -24.607994 40.236847 -0.320049 2.228851 -0.007439 0.021982 225470.000000 0 0 1
30.648293 -10.151215 -23.145394 39.724983 -0.319844 2.192770 -0.019986 0.023676 143351.000000 0 0 1
31.385983 -11.344815 -22.939994 40.497260 -0.346849 2.172998 -0.018042 0.024229 195545.000000 0 0 1
31.377633 -11.658515 -21.557694 39.814708 -0.355747 2.142958 -0.016096 0.019742 -43463.900000 0 0 1
32.351373 -12.782715 -21.138594 40.704413 -0.376293 2.116851 0.016302 0.016011 682372.000000 0 0 1
33.745853 -12.516815 -21.308994 41.827341 -0.355184 2.105343 0.022671 0.017436 203129.000000 0 0 1
34.569883 -13.404415 -20.610194 42.420929 -0.369900 2.078131 0.049920 0.016015 -357431.000000 0 0 1
36.012743 -13.274015 -21.125094 43.810806 -0.353141 2.073948 0.065322 0.000824 -301519.000000 0 0 1
-35.962470 -12.039215 -20.951694 43.326844 0.323044 2.075529 0.072784 0.005081 171666.000000 0 0 1
36.312303 -11.019615 -21.856994 43.792047 -0.294635 2.093366 0.074088 0.009599 -1038170.000000 0 0 1
-35.786714 -10.988415 -23.293294 44.090948 0.297915 2.127395 0.061287 0.002456 41811.100000 0 0 1
-36.313434 -11.969415 -24.197594 45.248823 0.318399 2.135029 0.064098 0.006544 1705270.000000 0 0 1
34.909523 -11.847415 -24.467794 44.246005 -0.327178 2.156750 0.075626 0.011901 1227250.000000 0 0 1
34.361863 -12.789115 -25.586224 44.709662 -0.356304 2.180074 0.046301 0.000211 -167219.000000 0 0 1
34.309443 -14.201915 -25.414184 44.996811 -0.392462 2.170987 0.053449 -0.004213 494781.000000 0 0 1
33.525873 -14.612115 -24.288894 43.902715 -0.411021 2.157049 0.042187 -0.003275 -197431.000000 0 0 1
-29.224804 8.834485 -19.625594 36.294645 -0.293560 2.142101 0.050253 -0.005602 -503845.000000 0 0 1
-27.990974 8.236685 -19.450594 35.066554 -0.286184 2.158770 0.055453 0.002353 -1082410.000000 0 0 1
-27.245034 8.267785 -20.605994 35.146197 -0.294628 2.197272 0.071009 -0.015855 -172499.000000 0 0 1
-26.138514 7.186585 -20.632594 34.067182 -0.268313 2.221372 0.071136 -0.016558 405650.000000 0 0 1
-24.957864 7.493685 -19.882794 32.777672 -0.291689 2.222568 0.071718 -0.015720 490363.000000 0 0 1
-23.991964 6.454485 -20.043294 31.921910 -0.262805 2.249629 0.078587 -0.019029 -456330.000000 0 0 1
-22.635264 6.997785 -19.652194 30.782023 -0.299834 2.263254 0.070247 -0.018196 -621899.000000 0 0 1
-22.014764 7.971985 -20.474894 31.103435 -0.347431 2.289333 0.068898 -0.016412 176345.000000 0 0 1
-20.983264 8.708185 -19.828494 30.154586 -0.393375 2.288374 0.052066 -0.007082 380012.000000 0 0 1
-20.306264 9.775385 -20.762094 30.642570 -0.448655 2.315232 0.046993 -0.002386 226583.000000 0 0 1
-19.531064 9.174585 -21.791094 30.667365 -0.439151 2.361094 0.056977 -0.009416 345309.000000 0 0 1
-18.952164 10.099885 -22.763394 31.294797 -0.489631 2.385301 0.054463 -0.007367 39779.600000 0 0 1
-18.091964 9.400385 -23.798094 31.337449 -0.479196 2.433208 0.060149 -0.009600 -315689.000000 0 0 1
-18.784164 8.579885 -24.716094 32.207834 -0.428463 2.445563 0.054093 -0.007022 260248.000000 0 0 1
-17.876064 7.961985 -25.634874 32.250483 -0.419021 2.489586 0.045507 -0.003337 -189838.000000 0 0 1
-18.546764 6.880085 -26.526334 33.090247 -0.355223 2.500823 0.030393 -0.002596 -98723.900000 0 0 1
-18.795264 5.657485 -25.810784 32.426311 -0.292379 2.491426 0.056108 -0.006430 165941.000000 0 0 1
-19.458764 4.691285 -26.556954 33.255428 -0.236574 2.495720 0.050919 -0.007284 -891174.000000 0 0 1
-19.736164 3.399185 -25.764474 32.632480 -0.170558 2.480847 0.059198 -0.008004 389861.000000 0 0 1
-18.599964 2.587185 -25.466014 31.641272 -0.138209 2.506194 0.059892 -0.006137 696915.000000 0 0 1
-17.580764 3.127785 -24.627894 30.420379 -0.176067 2.514242 0.052231 -0.008147 -289911.000000 0 0 1
-16.772164 1.922685 -24.040994 29.376378 -0.114137 2.529380 0.059947 -0.009567 -157713.000000 0 0 1
-17.323664 1.107185 -23.023194 28.834054 -0.063825 2.495550 0.052692 -0.009866 18709.400000 0 0 1
-18.592264 0.517085 -23.254794 29.777930 -0.027805 2.466967 0.058876 -0.006397 126347.000000 0 0 1
-19.135364 -0.322315 -22.053994 29.200081 0.016842 2.426865 0.084648 -0.013540 -92533.400000 0 0 1
-18.608264 -1.608915 -21.805694 28.711398 0.086248 2.433308 0.080766 -0.012351 4609.210000 0 0 1
-19.385464 -2.288915 -20.873594 28.578703 0.117530 2.389689 0.072843 -0.009877 -302187.000000 0 0 1
-18.825864 -3.698715 -20.545594 28.110765 0.193999 2.390407 0.064345 -0.016737 8968.520000 0 0 1
-18.859164 -4.461515 -21.775994 29.150765 0.232299 2.414354 0.069573 -0.020144 327883.000000 0 0 1
-18.760164 -5.825915 -21.474594 29.104007 0.301105 2.400686 0.076520 -0.019011 -129479.000000 0 0 1
-18.870264 -6.788415 -22.661894 30.261046 0.345327 2.417167 0.049649 -0.026721 176816.000000 0 0 1
-17.704264 -6.775015 -23.478994 30.176232 0.365484 2.462372 0.051381 -0.009316 413480.000000 0 0 1
-17.777964 -7.872615 -24.387394 31.189406 0.416875 2.468525 0.072663 -0.021330 378082.000000 0 0 1
-16.510464 -7.715915 -25.262944 31.150395 0.437176 2.516654 0.066776 -0.019402 -456228.000000 0 0 1
-16.471264 -8.548015 -26.401804 32.271138 0.478704 2.528938 0.078104 -0.049913 1139200.000000 0 0 1
-15.144964 -8.650115 -26.978044 32.124901 0.518939 2.567685 0.077687 -0.046978 961639.000000 0 0 1
-14.105264 -9.491115 -26.243634 31.269283 0.592290 2.566751 0.065557 -0.042124 -869371.000000 0 0 1
-13.572164 -8.870915 -25.066794 29.853659 0.578909 2.567445 0.065532 -0.030742 826494.000000 0 0 1
-12.659964 -9.817115 -24.425594 29.210616 0.659588 2.561093 0.038717 -0.022352 378519.000000 0 0 1
-11.869964 -9.291815 -23.234194 27.695878 0.664165 2.566064 0.055618 -0.017316 -423598.000000 0 0 1
-12.585864 -9.074615 -22.070694 26.979032 0.624692 2.528841 0.055455 -0.007367 -208254.000000 0 0 1
-11.702764 -8.941115 -21.006694 25.655008 0.652412 2.530139 0.045307 -0.002699 -471548.000000 0 0 1
-12.418764 -8.632715 -19.655294 24.800807 0.607453 2.485737 0.039653 0.006316 169646.000000 0 1 0
-13.037464 -7.342815 -19.514394 24.590729 0.512928 2.487445 0.034889 0.011987 317563.000000 0 1 0
-14.386764 -7.303115 -19.909994 25.626594 0.469731 2.460566 0.034989 -0.002267 -269462.000000 0 0 1
-15.089964 -5.964715 -19.481794 25.353996 0.376428 2.447120 0.050539 -0.003055 -146235.000000 0 0 1
-15.201064 -5.676815 -18.094494 24.304512 0.357410 2.410569 0.045341 0.001510 322670.000000 0 1 0
-15.065164 -4.346815 -17.818994 23.735427 0.280905 2.419969 0.040252 -0.005408 -694191.000000 0 1 0
-14.960664 -4.027115 -16.249094 22.451552 0.262948 2.380004 0.048110 -0.005958 161023.000000 0 1 0
-16.167864 -4.062815 -15.505894 22.767061 0.246192 2.320015 0.076502 -0.011468 361653.000000 0 1 0
-17.037464 -2.963515 -15.811794 23.432252 0.172218 2.311473 0.062581 -0.012463 43887.100000 0 1 0
-18.196164 -2.950215 -14.793594 23.635875 0.160735 2.247076 0.072700 -0.022926 -30422.500000 0 1 0
-17.689364 -2.455215 -13.579194 22.435155 0.137915 2.220894 0.074876 -0.029821 965082.000000 0 1 0
-18.728764 -1.895515 -12.816194 22.773107 0.100865 2.168539 0.075652 -0.030562 -193829.000000 0 1 0
-18.147364 -0.755115 -12.032494 21.787105 0.041586 2.155888 0.069651 -0.027231 -13178.500000 0 1 0
-17.582164 0.158485 -12.952494 21.838606 -0.009014 2.205701 0.071182 -0.027753 748692.000000 0 1 0
-16.655264 1.058585 -12.368594 20.772591 -0.063473 2.208595 0.059741 -0.019298 -596561.000000 0 1 0
-16.222764 2.153585 -13.381594 21.139609 -0.131979 2.256232 0.060756 -0.016585 426929.000000 0 1 0
-15.522564 1.741685 -14.572594 21.362209 -0.111736 2.321519 0.051499 -0.018456 698065.000000 0 1 0
-14.305964 1.045385 -14.350494 20.290148 -0.072944 2.356417 0.050219 -0.013149 -504467.000000 0 1 0
-13.902964 0.081385 -15.457794 20.790441 -0.005854 2.409093 0.048834 -0.007151 -40454.300000 0 1 0
-13.501264 0.696785 -16.674394 21.466370 -0.051563 2.460314 0.046463 -0.012093 426252.000000 0 1 0
-12.824764 -0.189815 -17.548194 21.735909 0.014800 2.510421 0.019343 -0.001238 226466.000000 0 1 0
-12.219764 0.428985 -18.871794 22.486691 -0.035091 2.566686 0.027076 -0.006987 -311055.000000 0 1 0
-11.029564 1.145585 -18.677094 21.720900 -0.103494 2.605806 0.008512 0.000278 -429730.000000 0 1 0
-10.836864 2.069685 -19.722694 22.598803 -0.188713 2.631567 0.020553 -0.001774 -154511.000000 0 1 0
-9.455064 2.729685 -19.670994 21.995396 -0.281059 2.677713 0.018157 -0.000287 73322.000000 0 1 0
-8.364264 1.795985 -19.801794 21.570756 -0.211510 2.733785 0.018723 0.002713 124238.000000 0 1 0
-7.110664 2.273385 -19.405194 20.791618 -0.309444 2.774342 0.022333 0.001680 273762.000000 0 1 0
-6.389764 3.364085 -20.311994 21.557441 -0.484607 2.800013 0.026719 0.002416 -434947.000000 0 1 0
-6.070164 2.925885 -21.638394 22.663358 -0.449153 2.839696 0.019451 0.002982 298368.000000 0 1 0
-5.889764 3.992385 -22.585494 23.679802 -0.595706 2.836394 0.011770 0.001672 -228524.000000 0 1 0
-5.306864 3.428785 -23.922094 24.742392 -0.573631 2.883374 0.020649 -0.007421 1195190.000000 0 1 0
-3.944464 2.936485 -23.923794 24.423957 -0.639944 2.938868 0.040733 -0.012400 1058160.000000 0 1 0
-3.511964 2.392485 -25.177754 25.533844 -0.598023 2.974390 0.049618 -0.016111 -97014.400000 0 0 1
-2.098364 1.810885 -25.013194 25.166293 -0.711992 3.031233 0.039451 -0.021111 -283972.000000 0 0 1
-1.072064 2.810185 -24.902494 25.083474 -1.206346 3.021394 0.024960 -0.021688 1793110.000000 0 0 1
0.302736 2.339785 -24.829294 24.941132 1.442125 3.046857 0.030009 -0.020798 1454150.000000 0 1 0
0.706436 1.464485 -23.631794 23.687665 1.121345 3.072897 0.036139 -0.024387 -1080050.000000 0 1 0
0.411936 0.112085 -23.866194 23.870012 0.265663 3.123707 0.045337 -0.020602 86447.600000 0 1 0
0.796236 -0.613115 -22.742994 22.765186 -0.656189 3.097435 0.039191 -0.022082 -890798.000000 0 1 0
0.401236 -2.110115 -22.826094 22.926930 -1.382891 3.047769 0.046914 -0.023545 -9942.230000 0 1 0
-0.794264 -2.418515 -22.119694 22.265690 1.253483 3.027014 0.038065 -0.021173 530375.000000 0 1 0
-1.962664 -2.388115 -22.958694 23.165854 0.882875 3.007758 0.044331 -0.021205 226439.000000 0 1 0
-2.753264 -1.080915 -22.908794 23.098954 0.374105 3.013189 0.046223 -0.020064 -1669070.000000 0 1 0
-3.404364 -0.941415 -21.669094 21.955081 0.269790 2.980011 0.042230 -0.015447 734181.000000 0 1 0
-4.485764 0.008185 -21.663394 22.122947 -0.001825 2.937411 0.031108 -0.016490 981279.000000 0 1 0
-5.795364 -0.459715 -22.351394 23.095073 0.079159 2.887132 0.034299 -0.011097 -606038.000000 0 1 0
-6.475864 -1.500015 -21.699094 22.694439 0.227617 2.844329 0.033083 -0.000227 177173.000000 0 1 0
-7.871264 -1.355315 -21.960094 23.367486 0.170513 2.792757 0.023544 0.008236 536781.000000 0 1 0
-8.698664 -2.621015 -21.607794 23.439992 0.292660 2.743584 0.022603 0.007968 -161733.000000 0 1 0
-8.759764 -3.627515 -22.633994 24.539560 0.392612 2.744908 0.047888 0.007103 -14760.900000 0 1 0
-9.303264 -4.818415 -22.073794 24.433997 0.477886 2.698441 0.030349 0.010144 -216159.000000 0 1 0
-10.196964 -5.577215 -23.099094 25.858297 0.500497 2.675420 0.032808 0.003407 915483.000000 0 0 1
-11.571164 -5.171615 -23.093394 26.342784 0.420306 2.639650 0.033042 0.006561 355983.000000 0 0 1
-12.339764 -5.755815 -24.082194 27.664982 0.436445 2.627001 0.044358 -0.011374 -704929.000000 0 0 1
-13.804964 -5.362915 -24.009394 28.209730 0.370534 2.588880 0.058766 -0.018898 -641597.000000 0 0 1
-14.195864 -4.023915 -24.269294 28.402695 0.276211 2.595329 0.067323 -0.019999 175229.000000 0 0 1
-15.606464 -3.914215 -24.166494 29.032779 0.245738 2.554196 0.075604 -0.021112 476115.000000 0 0 1
-16.160164 -2.489915 -24.543594 29.491331 0.152875 2.553916 0.070606 -0.019503 -33658.200000 0 0 1
-15.864564 -2.223015 -25.947154 30.493950 0.139218 2.588483 0.069157 -0.017582 349744.000000 0 0 1
-16.367864 -0.981915 -26.409534 31.085923 0.059919 2.585958 0.056879 -0.018790 388035.000000 0 0 1
-17.876564 -0.877415 -26.808194 32.233844 0.049042 2.552920 0.060309 -0.015765 476195.000000 0 0 1
-18.215164 -1.667215 -28.001674 33.446458 0.091275 2.562956 0.068746 -0.023892 126697.000000 0 0 1
-17.825264 -1.031315 -29.190944 34.218633 0.057792 2.592640 0.052008 -0.021844 -279450.000000 0 0 1
-18.049964 -2.007415 -30.397644 35.409712 0.110759 2.603046 0.036072 -0.022035 -787223.000000 0 0 1
-19.344964 -2.155315 -30.849844 36.477197 0.110957 2.578727 0.031203 -0.023383 -854771.000000 0 0 1
-19.420664 -2.726815 -32.180164 37.685019 0.139496 2.594277 0.033287 -0.028966 -332317.000000 0 0 1
-20.801064 -3.368115 -32.502534 38.735555 0.160527 2.566401 0.017613 -0.021538 495162.000000 0 0 1
-21.907464 -2.515815 -32.726634 39.462626 0.114337 2.548663 0.010467 -0.021258 520564.000000 0 0 1
-22.439764 -1.882515 -31.547844 38.760203 0.083696 2.521670 0.006458 -0.011987 -275570.000000 0 0 1
-23.442364 -0.713715 -31.680704 39.417266 0.030436 2.504328 0.010188 -0.015198 95662.600000 0 0 1
-22.794964 0.452585 -32.111944 39.382638 -0.019852 2.524187 0.019569 -0.022024 -151026.000000 0 0 1
-23.733264 1.412185 -32.442394 40.221524 -0.059432 2.509162 0.017567 -0.022900 -419443.000000 0 0 1
-23.214164 2.596785 -33.290964 40.668526 -0.111399 2.529753 0.025527 -0.020374 -675562.000000 0 0 1
-22.723964 3.733185 -32.543374 39.867109 -0.162830 2.525766 0.020092 -0.021699 362473.000000 0 0 1
-23.660164 4.493385 -31.805584 39.894725 -0.187678 2.493502 0.020369 -0.019613 -463540.000000 0 0 1
-24.755264 5.286585 -32.558154 41.240811 -0.210394 2.480732 0.013514 -0.017532 -192893.000000 0 0 1
-25.845814 4.405085 -32.792504 41.985226 -0.168815 2.467140 0.021915 -0.024775 -289370.000000 0 0 1
-26.575904 4.942185 -33.861574 43.327936 -0.183865 2.467892 0.038301 -0.030886 69308.900000 0 0 1
-27.947964 4.261985 -34.177052 44.354527 -0.151331 2.450488 0.041683 -0.032561 302342.000000 0 0 1
-27.781624 2.873585 34.008120 44.007140 -0.103068 0.687576 0.043566 -0.033265 271318.000000 0 0 1
-28.881814 2.443485 33.225609 44.091620 -0.084402 0.717338 0.048214 -0.029645 10668.800000 0 0 1
-29.138814 0.946785 32.957781 44.002071 -0.032481 0.724237 0.048728 -0.010831 -349984.000000 0 0 1
-29.390784 0.263885 34.150685 45.057265 -0.008978 0.710648 0.038383 -0.008089 114547.000000 0 0 1
-29.680754 -1.127715 33.973673 45.126814 0.037977 0.718417 0.033771 -0.002839 -481330.000000 0 0 1
-29.296804 -1.980515 -33.273614 44.377456 0.067499 2.418536 0.000168 -0.003086 251094.000000 0 0 1
-27.948934 -2.210415 -32.879094 43.209532 0.078923 2.435530 0.009038 -0.012492 346094.000000 0 0 1
-27.328314 -1.051515 -32.382824 42.386197 0.038458 2.440278 0.009106 -0.013455 -796816.000000 0 0 1
-27.423674 -0.686915 -30.886944 41.310205 0.025043 2.415363 0.016251 -0.010843 -1137080.000000 0 0 1
-26.572024 -1.363715 -30.079894 40.158837 0.051276 2.417383 0.012018 -0.014185 -290765.000000 0 0 1
-26.471244 -0.781915 -28.796224 39.122381 0.029530 2.398020 0.008281 -0.015935 -234615.000000 0 0 1
-25.474654 -1.485415 -27.851304 37.773795 0.058244 2.399888 0.019028 -0.015924 4616.180000 0 0 1
-25.805474 -2.776815 -27.466584 37.789502 0.107193 2.384493 0.000450 -0.009873 -382747.000000 0 0 1
-24.813164 -3.152415 -26.590094 36.505670 0.126369 2.386755 0.034460 -0.015526 -475231.000000 0 0 1
-25.089544 -4.503515 -25.886444 36.330082 0.177606 2.363900 0.037800 -0.019232 -284364.000000 0 0 1
-26.264314 -4.495615 -25.135044 36.630523 0.169525 2.327018 0.037275 -0.014656 -410871.000000 0 0 1
-26.404394 -5.664015 -24.338694 36.354437 0.211308 2.304310 0.039136 -0.014974 -183833.000000 0 0 1
-27.676724 -5.550015 -23.498094 36.728247 0.197905 2.265012 0.048668 -0.017301 -232431.000000 0 0 1
-27.861074 -6.612515 -22.536294 36.439667 0.233027 2.237571 0.062158 -0.019490 -174340.000000 0 0 1
-28.853364 -6.266815 -21.604494 36.586114 0.213873 2.202488 0.082638 -0.015655 -75083.500000 0 0 1
-29.304734 -7.490615 -20.740994 36.675136 0.250253 2.171876 0.086777 -0.023318 -27509.600000 0 0 1
-28.294984 -7.982615 -19.883694 35.492106 0.274975 2.165458 0.085915 -0.025368 232454.000000 0 0 1
-28.758864 -8.992815 -18.999294 35.621849 0.303064 2.133365 0.110464 -0.021080 153950.000000 0 0 1
-29.524244 -8.496115 -17.757994 35.485368 0.280197 2.094893 0.110003 -0.021381 111993.000000 0 0 1
-28.660684 -7.746915 -16.957694 34.190831 0.263989 2.089750 0.094262 -0.024068 159969.000000 0 0 1
-29.382324 -7.161415 -15.927994 34.180518 0.239071 2.055557 0.093704 -0.020249 249556.000000 0 0 1
-28.433514 -6.390015 -14.939494 32.748824 0.221062 2.044499 0.096811 -0.019978 375212.000000 0 0 1
-27.881154 -5.214815 -15.492494 32.319815 0.184901 2.070710 0.093129 -0.016947 203702.000000 0 0 1
-26.950474 -4.635215 -14.604994 31.001921 0.170324 2.061333 0.095949 -0.025319 -234812.000000 0 0 1
-13.809764 21.150785 -5.170394 25.783683 -0.992371 1.772695 0.062831 -0.024267 -250587.000000 0 0 1
-13.918964 20.515785 -6.404994 25.605839 -0.974679 1.823619 0.083090 -0.026341 732636.000000 0 0 1
-14.915864 19.460685 -6.291494 25.313715 -0.916843 1.821970 0.060205 -0.037408 530543.000000 0 0 1
-15.091364 18.709785 -7.682294 25.235352 -0.892042 1.880132 0.077464 -0.041464 -245668.000000 0 0 1
-13.871164 18.148185 -8.115694 24.241087 -0.918188 1.912180 0.083533 -0.040013 -197924.000000 0 1 0
-13.963664 17.107285 -9.073994 23.874264 -0.886231 1.960673 0.065138 -0.048271 -215481.000000 0 1 0
-14.531864 15.702185 -8.628894 23.069277 -0.824088 1.954161 0.072436 -0.050274 758936.000000 0 1 0
-15.957164 15.751785 -8.450194 23.961545 -0.778921 1.931205 0.073080 -0.042607 898937.000000 0 1 0
-16.342264 14.772885 -7.469394 23.261548 -0.735003 1.897692 0.082460 -0.034881 259746.000000 0 1 0
-17.753764 14.992885 -6.851594 24.226578 -0.701287 1.857522 0.094322 -0.039061 461088.000000 0 1 0
-18.803664 14.601785 -7.738194 25.033369 -0.660271 1.885059 0.098366 -0.037348 117744.000000 0 0 1
-19.993464 15.220585 -7.268294 26.157846 -0.650680 1.852365 0.080739 -0.031334 307966.000000 0 0 1
-21.262764 14.682385 -8.002694 27.050336 -0.604336 1.871136 0.087025 -0.017539 262045.000000 0 0 1
-21.609064 13.302085 -7.679294 26.511671 -0.551796 1.864665 0.114124 -0.031829 27693.400000 0 0 1
-22.457464 12.788685 -8.676994 27.261299 -0.517663 1.894721 0.118023 -0.030901 43030.500000 0 0 1
-22.967764 11.364285 -8.450094 26.982759 -0.459473 1.889322 0.092201 -0.018694 -486310.000000 0 0 1
-21.982964 10.398385 -8.611194 25.797864 -0.441832 1.911123 0.106610 -0.013562 -218430.000000 0 0 1
-22.297764 9.273985 -7.775294 25.370303 -0.394151 1.882281 0.106287 -0.018238 -993953.000000 0 0 1
-21.128864 8.380285 -7.583094 23.961665 -0.377596 1.892800 0.095206 -0.005061 -1215590.000000 0 1 0
-20.870364 7.423485 -8.568594 23.750811 -0.341739 1.939890 0.079350 -0.004954 481671.000000 0 1 0
-19.912264 6.482185 -8.080594 22.445779 -0.314718 1.939070 0.082416 -0.005281 18750.800000 0 1 0
-19.553064 5.270185 -8.931994 22.133181 -0.263276 1.986197 0.061371 -0.007910 -490402.000000 0 1 0
-20.491864 4.238385 -8.934394 22.753105 -0.203957 1.974326 0.068246 -0.008805 62754.200000 0 1 0
-20.256964 3.360985 -9.991294 22.835647 -0.164420 2.023647 0.058765 -0.006381 -62054.800000 0 1 0
-21.103864 2.048285 -9.828994 23.370445 -0.096754 2.004874 0.058345 -0.012093 310952.000000 0 1 0
-20.818164 1.298685 -8.629594 22.573268 -0.062302 1.963072 0.066199 -0.020713 378402.000000 0 1 0
-21.869964 0.373785 -8.413594 23.435520 -0.017090 1.938004 0.082816 -0.017471 75370.300000 0 1 0
-21.661964 -0.818915 -9.346694 23.606609 0.037786 1.977883 0.051324 -0.030642 -73307.900000 0 1 0
-20.636664 -1.663915 -8.889194 22.531274 0.080455 1.976349 0.058828 -0.019657 155462.000000 0 1 0
-20.615964 -3.000015 -9.412294 22.860651 0.144505 1.995142 0.048510 -0.015668 -222211.000000 0 1 0
-21.683064 -3.918415 -8.812194 23.731077 0.178784 1.951243 0.059311 -0.016205 128877.000000 0 1 0
-21.294164 -4.150915 -7.417994 22.928108 0.192518 1.900257 0.047937 -0.014150 736145.000000 0 1 0
-22.274464 -4.853215 -6.668794 23.752437 0.214530 1.855385 0.061809 -0.010357 -331817.000000 0 1 0
-22.415764 -6.381715 -6.811494 24.281458 0.277359 1.855135 0.065932 -0.016845 470654.000000 0 1 0
-21.346364 -7.170215 -6.219694 23.361589 0.324058 1.840282 0.060972 -0.020640 1281670.000000 0 1 0
-21.533764 -8.548115 -6.382694 24.031480 0.377886 1.839620 0.065607 -0.019874 63757.200000 0 1 0
-20.478064 -9.406815 -5.611094 23.223343 0.430611 1.814826 0.061245 -0.021670 447826.000000 0 1 0
-19.264564 -9.658415 -6.300494 22.452275 0.464732 1.855233 0.048177 -0.012709 -105249.000000 0 1 0
-18.516364 -10.587815 -5.634794 22.061470 0.519432 1.829072 0.062798 -0.004371 -294602.000000 0 1 0
-17.735864 -11.518515 -6.613894 22.158083 0.575987 1.873903 0.047191 -0.000858 -228900.000000 0 1 0
-16.537464 -11.091915 -7.187594 21.170257 0.590800 1.917196 0.043466 -0.021446 156783.000000 0 1 0
-16.783664 -10.510315 -8.476194 21.540751 0.559478 1.975227 0.042650 -0.027278 -504505.000000 0 1 0
-15.708564 -10.685115 -9.519894 21.249919 0.597320 2.035320 0.040867 -0.025787 -363956.000000 0 1 0
-15.743664 -12.022015 -10.078294 22.225297 0.652155 2.041440 0.046031 -0.029345 -366518.000000 0 1 0
-14.661964 -12.272715 -10.902994 22.010634 0.696924 2.089035 0.047667 -0.021311 -661523.000000 0 1 0
-14.631964 -13.721515 -11.462094 23.103115 0.753299 2.089929 0.045695 -0.022262 -243257.000000 0 1 0
-15.478264 -13.848215 -12.574794 24.279109 0.729872 2.115222 0.047732 -0.014083 -140103.000000 0 1 0
-15.330364 -15.066115 -13.215694 25.232171 0.776705 2.122059 0.025825 -0.012357 -254729.000000 0 0 1
-16.125264 -15.018615 -14.532494 26.396521 0.749880 2.153814 0.046787 -0.005302 -217221.000000 0 0 1
-16.087264 -16.210515 -15.282594 27.479784 0.789214 2.160530 0.038138 0.002985 51007.800000 0 0 1
-16.450564 -16.019515 -16.639594 28.357045 0.772124 2.197884 0.048727 0.003437 -289541.000000 0 0 1
-16.842664 -17.305315 -17.320694 29.717936 0.798946 2.193011 0.050712 -0.006822 -365785.000000 0 0 1
-18.130964 -17.751715 -17.032394 30.560721 0.774829 2.161962 0.035318 -0.002827 -379626.000000 0 0 1
-19.022964 -17.843715 -18.127794 31.763001 0.753422 2.178179 0.030194 0.000184 -145781.000000 0 0 1
-20.519064 -17.795815 -17.837294 32.494493 0.714442 2.151883 0.015681 -0.002591 34267.900000 0 0 1
-21.129564 -16.588915 -17.304994 31.954865 0.665592 2.143070 0.031337 -0.003514 504033.000000 0 0 1
-21.051464 -16.649015 -15.879694 31.185229 0.669150 2.105058 0.032733 -0.003049 -236929.000000 0 0 1
-21.136164 -15.219215 -15.226494 30.169654 0.624060 2.099826 0.041233 -0.013243 -166649.000000 0 0 1
-22.438764 -14.729615 -15.042094 30.768885 0.580886 2.081594 0.053184 -0.016509 -1703.550000 0 0 1
-22.419364 -13.375615 -14.592594 29.907838 0.537923 2.080500 0.060572 -0.015000 312709.000000 0 0 1
-23.832464 -12.740115 -14.412194 30.626920 0.490919 2.060736 0.071885 -0.019202 206629.000000 0 0 1
-24.603964 -13.103715 -13.321294 30.895295 0.489375 2.016592 0.062472 -0.011366 -713815.000000 0 0 1
-25.649634 -12.272915 -13.023694 31.275306 0.446286 2.000302 0.069444 -0.016820 -823061.000000 0 0 1
-26.649254 -12.946215 -12.056394 31.986620 0.452223 1.957265 0.075268 -0.012564 -254033.000000 0 0 1
-27.425664 -12.022915 -11.339594 32.020367 0.413150 1.932787 0.082251 -0.021125 345293.000000 0 0 1
-28.259404 -12.590615 -10.302794 32.607745 0.419136 1.892266 0.089053 -0.016073 1015070.000000 0 0 1
-29.117254 -11.462615 -9.565194 32.721537 0.375038 1.867449 0.081886 -0.014439 291658.000000 0 0 1
-28.262054 -10.592415 -8.835094 31.448400 0.358589 1.855569 0.079460 -0.017566 470137.000000 0 0 1
-29.011734 -9.595615 -8.171594 31.631179 0.319423 1.832100 0.080733 -0.018590 -623312.000000 0 0 1
-28.098044 -8.495115 -7.754194 30.361070 0.293601 1.829057 0.084582 -0.011312 2679.640000 0 0 1
-27.340884 -8.797115 -6.561594 29.461291 0.311296 1.795399 0.080841 -0.013817 699778.000000 0 0 1
-26.466884 -7.847715 -5.959594 28.241801 0.288253 1.783415 0.079603 -0.015585 564840.000000 0 0 1
-27.194584 -6.502615 -5.511694 28.499266 0.234707 1.765420 0.091827 -0.019670 -141405.000000 0 0 1
-28.101024 -6.547615 -4.447494 29.194503 0.228918 1.723732 0.087107 -0.016500 299138.000000 0 0 1
-27.550154 -6.804315 -3.147994 28.552050 0.242134 1.681276 0.088382 -0.009711 -302829.000000 0 0 1
-26.925964 -5.591115 -2.436994 27.608098 0.204738 1.659182 0.093137 -0.009323 -35224.000000 0 0 1
-27.850504 -4.672215 -1.895094 28.303208 0.166213 1.637803 0.094375 -0.011312 415616.000000 0 0 1
-27.151524 -3.681215 -1.141894 27.423722 0.134759 1.612447 0.093654 -0.022574 -34002.500000 0 0 1
-28.120834 -2.610215 -0.586494 28.247805 0.092556 1.591560 0.094225 -0.030266 486850.000000 0 0 1
-28.949584 -2.934015 0.561606 29.103303 0.101004 1.551498 0.083532 -0.018747 497608.000000 0 0 1
-28.217964 -3.294115 1.719406 28.461572 0.116212 1.510348 0.085310 -0.020571 -450395.000000 0 0 1
-29.102294 -3.700715 2.869406 29.476640 0.126483 1.473297 0.076697 -0.018409 -154758.000000 0 0 1
-29.729474 -4.966015 2.736406 30.265341 0.165512 1.480259 0.070148 -0.013809 861153.000000 0 0 1
-30.699184 -5.172715 3.812106 31.364455 0.166929 1.448953 0.074458 -0.021547 732848.000000 0 0 1
-31.459174 -6.535215 3.813006 32.356262 0.204823 1.452677 0.056058 -0.011804 269513.000000 0 0 1
-30.674754 -7.707415 4.147806 31.899045 0.246167 1.440398 0.052658 -0.005175 51041.900000 0 0 1
-31.456944 -8.885715 4.113406 32.945643 0.275300 1.445615 0.058541 -0.001893 -221714.000000 0 0 1
-30.767434 -10.162615 4.584006 32.725019 0.319022 1.430258 0.052932 -0.003162 -244065.000000 0 0 1
-30.579474 -10.108715 5.978806 32.757235 0.319263 1.387249 0.044662 -0.009594 292994.000000 0 0 1
-29.729094 -11.150915 6.423706 32.394844 0.358845 1.371179 0.039010 -0.007127 -153357.000000 0 0 1
-29.720754 -11.492015 7.959906 32.844326 0.368959 1.326006 0.038232 -0.007792 -116673.000000 0 0 1
-29.416804 -10.311615 8.692006 32.360914 0.337151 1.298861 0.049298 -0.004624 521196.000000 0 0 1
-29.695154 -10.613015 10.052506 33.098204 0.343251 1.262204 0.065247 -0.008160 -276549.000000 0 0 1
-29.782464 -9.370815 10.957406 33.088851 0.304835 1.233273 0.066097 -0.007901 -143415.000000 0 0 1
-28.594094 -8.603915 10.954706 31.806527 0.292281 1.219179 0.072149 -0.005156 246895.000000 0 0 1
-28.637094 -7.443715 11.743506 31.833975 0.254305 1.192973 0.092770 -0.014620 273972.000000 0 0 1
-27.569814 -6.354315 11.400306 30.503097 0.226525 1.187756 0.095956 -0.009303 352326.000000 0 0 1
-27.966434 -5.635215 10.236706 30.309524 0.198837 1.226283 0.094117 -0.012474 798570.000000 0 0 1
-27.139524 -4.466915 10.095106 29.298776 0.163128 1.219029 0.102900 -0.014289 180926.000000 0 0 1
-27.305074 -3.748015 8.712106 28.905285 0.136412 1.264634 0.108269 -0.019102 -277818.000000 0 0 1
-26.724084 -4.429815 7.668206 28.153176 0.164267 1.294936 0.096486 -0.013307 -110715.000000 0 0 1
-26.950474 -3.858215 6.455006 27.980010 0.142193 1.337999 0.091505 -0.018928 -233857.000000 0 0 1
-26.004814 -4.345915 5.326106 26.898043 0.165589 1.371468 0.089143 -0.014427 -39489.400000 0 0 1
-24.697664 -3.822115 5.470206 25.583321 0.153538 1.355313 0.116140 -0.024386 258200.000000 0 0 1
-23.835864 -4.160415 4.394506 24.592055 0.172803 1.391135 0.110449 -0.022549 -459587.000000 0 1 0
-22.401764 -3.698015 4.564506 23.159211 0.163602 1.372405 0.112234 -0.019779 -519311.000000 0 1 0
-22.232064 -2.319315 4.481606 22.797559 0.103947 1.372925 0.100378 -0.023034 -1870520.000000 0 1 0
-20.922064 -2.074215 4.623706 21.527048 0.098817 1.354324 0.083532 -0.022379 -2243190.000000 0 1 0
-20.565964 -0.563015 4.703806 21.104541 0.027369 1.346027 0.069022 -0.026127 -452028.000000 0 1 0
-20.749564 0.218985 3.541606 21.050780 -0.010553 1.401751 0.078108 -0.018173 -206308.000000 0 1 0
-22.002464 0.779285 3.365806 22.272054 -0.035403 1.419093 0.079350 -0.031022 -813015.000000 0 1 0
-21.875764 2.008185 2.454706 22.104467 -0.091543 1.459517 0.085987 -0.026015 -317608.000000 0 1 0
-21.316964 3.136185 3.127906 21.772286 -0.146074 1.426633 0.070271 -0.033963 290656.000000 0 1 0
-21.371864 4.355185 2.333706 21.935597 -0.201029 1.464206 0.075456 -0.024501 9865.160000 0 1 0
-20.371564 4.391985 1.149306 20.871298 -0.212344 1.515702 0.055875 -0.011434 -704247.000000 0 1 0
-20.747164 5.160385 0.038906 21.379334 -0.243780 1.568977 0.076051 -0.007032 -218231.000000 0 1 0
-21.602164 4.593885 -0.883294 22.102884 -0.209537 1.610770 0.093556 -0.012171 -615721.000000 0 1 0
-21.081864 3.477685 -1.782994 21.441044 -0.163489 1.654050 0.083102 -0.006814 -600120.000000 0 1 0
-20.894764 2.227485 -1.157894 21.045037 -0.106204 1.625844 0.050454 -0.007527 224541.000000 0 1 0
-20.434764 1.226485 -1.976994 20.566778 -0.059948 1.667071 0.042873 -0.005859 -142960.000000 0 1 0
-19.734864 0.153285 -1.081194 19.765054 -0.007767 1.625526 0.048820 -0.006370 336661.000000 0 1 0
-20.737664 -0.632515 -0.434694 20.751861 0.030491 1.591745 0.073589 -0.013827 1048260.000000 0 1 0
-20.209764 -1.393515 0.651906 20.268237 0.068844 1.538627 0.080629 -0.015250 334202.000000 0 1 0
-19.277564 -2.609115 0.240706 19.454817 0.134527 1.558423 0.047706 -0.010376 272408.000000 0 1 0
-18.489464 -3.145215 1.274806 18.798345 0.168496 1.502929 0.047263 -0.010445 1083480.000000 0 1 0
-17.566564 -4.166215 0.826906 18.072778 0.232865 1.525026 0.023428 -0.010819 181076.000000 0 1 0
-18.275864 -5.486315 0.531406 19.088983 0.291635 1.542954 0.016614 -0.010052 -263583.000000 0 1 0
-18.965064 -5.926815 1.693706 19.941651 0.302896 1.485761 0.037056 -0.018457 676731.000000 0 1 0
-19.904864 -6.956815 1.379206 21.130620 0.336232 1.505479 0.048462 -0.014912 -89716.700000 0 1 0
-20.794264 -7.205315 2.623206 22.163014 0.333558 1.452159 0.071442 -0.012606 -231671.000000 0 1 0
-20.071064 -7.815115 3.660306 21.847688 0.371311 1.402465 0.066726 -0.012884 499730.000000 0 1 0
-20.913864 -8.227215 4.688606 22.957783 0.374791 1.365122 0.075461 -0.015107 -216672.000000 0 1 0
-20.152364 -9.036015 5.747806 22.821144 0.421510 1.316191 0.071501 -0.007424 -59882.200000 0 1 0
-19.698064 -10.255415 5.178306 22.803555 0.480016 1.341715 0.071220 -0.003417 745511.000000 0 1 0
-18.806964 -11.045415 6.002706 22.621573 0.531032 1.302226 0.071546 -0.005586 871764.000000 0 1 0
-18.052564 -12.271515 5.365806 22.478368 0.597016 1.329759 0.049627 -0.003981 17090.500000 0 1 0
-18.800264 -13.439715 5.432406 23.739985 0.620635 1.339921 0.058047 -0.002167 175178.000000 0 1 0
-18.099564 -14.637315 4.973206 23.802899 0.680030 1.360313 0.046646 -0.000504 272658.000000 0 1 0
-18.958264 -15.918015 5.202206 25.295492 0.698446 1.363661 0.061714 -0.005892 325653.000000 0 0 1
-18.274564 -17.117915 4.818306 25.498995 0.752729 1.380693 0.063512 -0.011067 270474.000000 0 0 1
-18.937564 -18.276015 5.301206 26.846729 0.767623 1.372028 0.066100 -0.012425 184860.000000 0 0 1
-18.131064 -19.607315 5.107606 27.189518 0.824496 1.381822 0.068491 -0.018106 -41963.400000 0 0 1
-17.779864 -19.796515 3.694806 26.864049 0.839015 1.432822 0.063563 -0.019316 503144.000000 0 0 1
-16.991364 -20.973215 3.509306 27.219431 0.889899 1.441510 0.055220 -0.015372 -36306.800000 0 0 1
-15.490364 -20.965915 3.784606 26.340923 0.934479 1.426620 0.057347 -0.012630 -510938.000000 0 0 1
-14.839864 -22.201215 3.846006 26.979756 0.981577 1.427758 0.051593 -0.013545 -895091.000000 0 0 1
-13.481664 -22.052815 4.090606 26.168969 1.022084 1.413838 0.044563 -0.010980 -695897.000000 0 0 1
-12.714264 -23.367415 4.249606 26.939705 1.072492 1.412390 0.042268 -0.006238 -326039.000000 0 0 1
-12.724564 -24.158615 3.043206 27.473884 1.086010 1.459801 0.050391 -0.011973 -126471.000000 0 0 1
-12.240264 -25.388135 3.325306 28.380259 1.121550 1.453357 0.051950 -0.013280 -440346.000000 0 0 1
18.291936 19.351485 -24.282294 36.037546 0.813538 2.310143 0.055689 -0.005184 113791.000000 0 0 1
17.531236 19.489385 -25.467394 36.548167 0.838242 2.341747 0.048381 -0.010813 -276112.000000 0 0 1
18.350736 19.532485 -26.563264 37.734261 0.816583 2.351749 0.055136 -0.010113 -36112.900000 0 0 1
17.488236 19.739085 -27.861724 38.363336 0.845787 2.383661 0.051184 -0.011620 483470.000000 0 0 1
17.130336 21.090885 -28.127834 39.108169 0.888651 2.373492 0.047507 -0.007792 1014160.000000 0 0 1
16.083236 21.157585 -29.139434 39.438820 0.920822 2.402161 0.047092 -0.012000 635449.000000 0 0 1
15.754236 22.539685 -29.495044 40.326058 0.960772 2.391190 0.055404 -0.017650 -411296.000000 0 0 1
15.247036 23.309385 -28.394634 39.775052 0.991533 2.365820 0.054546 -0.019521 373596.000000 0 0 1
15.053036 24.655685 -28.725854 40.739065 1.022670 2.353386 0.058799 -0.018351 226144.000000 0 0 1
14.137936 25.440585 -27.699944 40.179491 1.063569 2.331464 0.053237 -0.024774 -298975.000000 0 0 1
12.812536 25.031485 -27.702904 39.473880 1.097708 2.348722 0.060588 -0.031128 -1235740.000000 0 0 1
12.136436 25.664685 -26.684864 38.962176 1.129075 2.325251 0.057721 -0.028582 -507453.000000 0 0 1
10.623536 25.311985 -26.597164 38.222575 1.173420 2.340399 0.066055 -0.029293 503083.000000 0 0 1
9.969436 26.159785 -25.670374 37.982787 1.206690 2.312903 0.053772 -0.026247 -29649.000000 0 0 1
9.556736 27.408285 -26.181934 39.090139 1.235297 2.304714 0.064601 -0.029523 -373553.000000 0 0 1
9.006636 28.401885 -25.069394 38.939198 1.263713 2.270262 0.061328 -0.022504 -644339.000000 0 0 1
9.979436 28.920485 -24.262494 39.046795 1.238525 2.241286 0.052563 -0.019436 -289437.000000 0 0 1
9.392436 29.547185 -23.110094 38.669503 1.263018 2.211339 0.064314 -0.024941 -29795.100000 0 0 1
10.442936 29.885885 -22.048494 38.579232 1.234632 2.179144 0.039996 -0.016391 279860.000000 0 0 1
11.465636 30.806185 -22.457994 39.810091 1.214495 2.170173 0.034033 -0.024181 454382.000000 0 0 1
12.305036 31.063985 -21.336394 39.643749 1.193640 2.139100 0.010856 -0.015468 134427.000000 0 0 1
13.556536 31.872485 -21.789494 40.919641 1.168641 2.132342 0.006221 -0.010477 717373.000000 0 0 1
14.602236 31.049285 -22.360094 40.954331 1.131196 2.148350 0.007627 -0.017335 408144.000000 0 0 1
15.582936 31.909685 -22.939894 42.276408 1.116516 2.144346 0.010064 -0.009193 -183001.000000 0 0 1
16.797336 31.105985 -23.413994 42.402216 1.075660 2.155783 0.006777 -0.007242 -55284.500000 0 0 1
17.598136 30.606285 -22.338894 41.778766 1.048974 2.134943 0.005858 -0.004088 213234.000000 0 0 1
18.860336 30.199085 -22.833394 42.297292 1.012533 2.141033 0.014621 -0.009243 -333433.000000 0 0 1
19.846336 29.611485 -21.841894 41.806524 0.980335 2.120520 0.020140 -0.001857 -627317.000000 0 0 1
20.502936 30.559085 -21.084094 42.411875 0.979850 2.091081 0.026604 0.000856 33851.600000 0 0 1
21.383236 29.867985 -20.197894 41.920094 0.949462 2.073526 0.044748 0.001003 351717.000000 0 0 1
22.139036 30.721685 -19.173094 42.444863 0.946357 2.039486 0.054701 0.004676 -149402.000000 0 0 1
23.147036 31.621085 -19.560994 43.798525 0.938907 2.033773 0.068279 0.003627 -152090.000000 0 0 1
23.760536 32.052185 -18.377494 43.927644 0.932881 2.002433 0.064857 0.002762 -667297.000000 0 0 1
25.095536 32.738985 -18.650594 45.271092 0.916797 1.995418 0.072500 -0.000998 -502716.000000 0 0 1
26.093036 31.857085 -19.103194 45.394410 0.884538 2.005153 0.075498 0.005083 -546967.000000 0 0 1
27.336136 32.379285 -18.695194 46.316225 0.869651 1.986291 0.075649 0.000699 245245.000000 0 0 1
28.585636 31.717785 -19.350394 46.878505 0.837291 1.996298 0.074736 0.000449 219794.000000 0 0 1
28.970636 30.513185 -18.776794 46.075158 0.811325 1.990539 0.067345 0.014676 188724.000000 0 0 1
30.378636 30.436085 -19.012094 47.017832 0.786343 1.987074 0.050782 0.012311 495685.000000 0 0 1
31.088536 29.275185 -18.309994 46.462775 0.755367 1.975862 0.034182 0.006411 -440599.000000 0 0 1
31.250036 29.407485 -16.924694 46.128193 0.755031 1.946477 0.030575 0.013488 -86290.200000 0 0 1
31.748636 28.265185 -16.277594 45.517652 0.727419 1.936504 0.032388 0.003768 -326761.000000 0 0 1
32.092736 28.561985 -14.806394 45.441831 0.727253 1.902688 0.026635 0.011729 -225149.000000 0 0 1
33.219136 29.389085 -14.618494 46.700425 0.724299 1.889175 -0.008158 0.022391 -155669.000000 0 0 1
32.990036 30.776785 -14.757894 47.469447 0.750704 1.886928 0.009245 0.015547 92564.900000 0 0 1
34.341336 31.516985 -14.955394 48.952135 0.742539 1.881271 0.013782 0.005574 395739.000000 0 0 1
35.117736 31.556285 -13.781994 49.183309 0.732033 1.854816 0.007459 0.006742 -269898.000000 0 0 1
-36.274311 32.112485 -14.124994 50.463381 -0.724616 1.854492 0.044656 -0.013723 556796.000000 0 0 1
-35.392011 32.285485 -12.829394 49.593753 -0.739528 1.832462 0.037604 -0.000315 117035.000000 0 0 1
-35.815611 33.389385 -12.144894 50.449059 -0.750354 1.813920 0.040151 -0.004542 407044.000000 0 0 1
-35.047411 33.490385 -10.935194 49.694118 -0.762684 1.792662 0.033200 0.001234 -10997.200000 0 0 1
-35.649011 -33.893717 -10.019294 50.199824 0.760163 1.771734 0.020273 0.003644 -272866.000000 0 0 1
-34.981311 -33.157417 -9.025094 49.036301 0.758637 1.755901 0.017866 0.003855 -495567.000000 0 0 1
-34.638111 -33.891617 -7.855194 49.093223 0.774506 1.731493 -0.002542 0.008763 367872.000000 0 0 1
-33.981111 -33.034517 -6.718294 47.865757 0.771274 1.711618 0.011113 0.012254 442044.000000 0 0 1
-35.005411 -32.213717 -6.133994 47.965907 0.743891 1.699030 -0.007583 0.016490 195878.000000 0 0 1
-34.544611 -31.109617 -5.404594 46.801155 0.733126 1.686534 0.020384 0.008479 -15059.700000 0 0 1
-35.718211 -30.285217 -4.807994 47.075490 0.703270 1.673108 0.002410 0.015776 445827.000000 0 0 1
36.236436 -30.871817 -3.723794 47.749503 -0.705628 1.648862 -0.011241 0.013355 299558.000000 0 0 1
34.887336 -30.471317 -3.552194 46.456921 -0.717935 1.647333 -0.007705 0.013765 343558.000000 0 0 1
34.643136 -29.327617 -2.535294 45.460793 -0.702496 1.626594 0.004989 0.014193 -145359.000000 0 0 1
35.103236 -28.046317 -2.928494 45.026760 -0.674111 1.635881 0.018117 0.014523 353003.000000 0 0 1
34.351936 -27.124017 -2.161894 43.822843 -0.668362 1.620149 0.022300 0.008798 122498.000000 0 0 1
34.779436 -25.686917 -2.472294 43.307495 -0.636143 1.627914 0.029530 -0.000627 -133513.000000 0 0 1
34.490436 -25.310017 -3.825194 42.951359 -0.633070 1.659973 0.024664 -0.005021 162469.000000 0 0 1
34.129936 -23.959317 -4.020094 41.893467 -0.612069 1.666904 0.042720 -0.013473 -356973.000000 0 0 1
33.885136 -23.682817 -5.514494 41.707169 -0.609997 1.703404 0.039477 -0.015906 69159.400000 0 0 1
35.006236 -23.851517 -6.385294 42.838107 -0.598100 1.720410 0.034317 -0.016647 320529.000000 0 0 1
34.596736 -23.564117 -7.700994 42.561803 -0.597934 1.752735 0.028964 -0.028007 -694549.000000 0 0 1
35.662236 -23.368917 -8.752294 43.525900 -0.580081 1.773259 0.037925 -0.031047 -495577.000000 0 0 1
36.321636 -24.536017 -9.168294 44.780967 -0.594107 1.776991 0.018259 -0.006030 133336.000000 0 0 1
-35.145111 -24.276017 -9.899294 43.846321 0.604482 1.798532 0.033554 -0.010068 390697.000000 0 0 1
-34.526411 -25.499417 -10.629294 44.218494 0.636132 1.813555 0.020467 -0.006242 23317.500000 0 0 1
-34.008911 -26.546917 -9.824294 44.247730 0.662791 1.794692 0.028262 0.005687 -449218.000000 0 0 1
-34.990511 -27.469117 -9.501994 45.488198 0.665555 1.781235 0.016653 0.004183 -187210.000000 0 0 1
-34.378611 -28.783217 -8.840794 45.700352 0.697041 1.765475 0.011906 0.009826 599600.000000 0 0 1
-33.605511 -29.528517 -9.807794 45.797997 0.720911 1.786621 0.024458 0.008796 163426.000000 0 0 1
-32.931211 -30.601917 -9.207694 45.888164 0.748752 1.772823 0.031969 -0.000168 -189937.000000 0 0 1
-32.213911 -31.432417 -10.293494 46.170217 0.773120 1.795632 0.043934 -0.004047 124400.000000 0 0 1
-31.014011 -30.883417 -10.831694 45.088579 0.783288 1.813401 0.024612 0.006333 327111.000000 0 0 1
-30.658311 -31.616717 -11.955994 45.634358 0.800787 1.835886 0.007560 -0.001156 -222299.000000 0 0 1
-30.981911 -30.967917 -13.314894 45.784027 0.785172 1.865880 -0.002330 0.009635 -580260.000000 0 0 1
-30.075311 -29.964017 -13.655794 44.596495 0.783544 1.882003 -0.011439 0.012637 -274439.000000 0 0 1
-30.496411 -29.137617 -14.742294 44.680724 0.762617 1.907044 -0.023300 0.022675 -197960.000000 0 0 1
-29.432811 -28.123917 -15.227294 43.463957 0.762661 1.928734 -0.022986 0.013756 562727.000000 0 0 1
-28.242011 -28.794517 -15.678694 43.273050 0.795085 1.941552 -0.013796 0.008491 70661.000000 0 0 1
-27.387711 -27.845217 -16.269794 42.310153 0.793681 1.965502 0.018132 0.013706 -890164.000000 0 0 1
-26.168711 -28.521217 -16.858194 42.219190 0.828387 1.981551 0.034210 -0.000203 -992425.000000 0 0 1
-26.287911 -29.309717 -18.025694 43.301726 0.839696 2.000148 0.016770 0.000822 -83696.400000 0 0 1
-26.538811 -28.557817 -19.204794 43.458964 0.822027 2.028519 0.016660 0.000430 -321225.000000 0 0 1
-25.251711 -27.973117 -19.786894 42.563663 0.836484 2.054293 0.042782 0.000203 -61740.100000 0 0 1
-24.798311 -26.824317 -19.109094 41.226905 0.824625 2.052749 0.036544 0.002540 -1291520.000000 0 0 1
-23.443311 -26.632317 -19.253694 40.367981 0.848996 2.067983 0.069342 -0.011122 -867299.000000 0 0 1
-23.002611 -25.390617 -18.433694 38.905072 0.834704 2.064411 0.060710 -0.004545 -146494.000000 0 0 1
-23.062411 -25.544317 -17.010394 38.389327 0.836415 2.029852 0.065454 -0.001848 245874.000000 0 0 1
-22.556711 -24.416517 -16.289894 37.017998 0.824970 2.026454 0.061957 -0.003134 -7644.970000 0 0 1
-22.928411 -24.482417 -14.822394 36.671572 0.818164 1.986893 0.048976 0.000893 430749.000000 0 0 1
-24.303011 -24.211517 -14.548194 37.262365 0.783512 1.971891 0.020676 0.020769 450162.000000 0 0 1
-24.565911 -24.167617 -13.150294 36.884793 0.777225 1.935341 0.017355 0.022385 338000.000000 0 0 1
-26.076511 -24.121917 -12.794494 37.756462 0.746480 1.916511 0.018782 0.033359 -263233.000000 0 0 1
-26.755011 -25.376717 -12.981094 39.093698 0.758966 1.909273 0.022397 0.022325 859304.000000 0 0 1
-28.065111 -25.558917 -12.420094 39.939547 0.738696 1.887012 0.014186 0.022794 930934.000000 0 0 1
-29.167011 -24.639317 -13.088094 40.362219 0.701448 1.901032 0.018591 0.016294 -1103070.000000 0 0 1
-29.211611 -23.281517 -12.678694 39.447390 0.672906 1.898012 0.027834 0.013503 75005.600000 0 0 1
-29.715611 -23.143117 -11.353894 39.338687 0.661692 1.863581 0.053145 0.009075 -865408.000000 0 0 1
-31.181411 -23.470517 -11.007394 40.550072 0.645232 1.845698 0.034042 0.008048 -675223.000000 0 0 1
-32.157411 -22.679117 -11.607194 41.026435 0.614243 1.857633 0.063774 -0.005283 -174775.000000 0 0 1
-32.377111 -22.873017 -13.000794 41.718975 0.615046 1.887702 0.066051 -0.006128 -1396550.000000 0 0 1
-33.728111 -22.356817 -13.506394 42.659529 0.585359 1.892949 0.036967 -0.015950 354032.000000 0 0 1
-34.753311 -23.323117 -13.197394 43.885438 0.591069 1.876248 0.041640 -0.011726 728987.000000 0 0 1
-36.062111 -22.921117 -13.613694 44.846250 0.566186 1.879227 0.065617 -0.021900 610548.000000 0 0 1
35.523236 -23.856617 -12.975294 44.714614 -0.591395 1.865211 0.060120 -0.015627 -327936.000000 0 0 1
35.370636 -24.997117 -13.751294 45.442665 -0.615221 1.878224 0.041634 -0.007482 101954.000000 0 0 1
34.631036 -25.929017 -12.950694 45.159086 -0.642683 1.861660 0.045816 -0.016303 143869.000000 0 0 1
34.292636 -27.231617 -13.722194 45.889481 -0.671130 1.874469 0.045046 -0.025333 282033.000000 0 0 1
33.426836 -27.077117 -14.829094 45.501930 -0.680834 1.902760 0.052788 -0.027440 -100732.000000 0 0 1
33.412936 -28.207917 -15.709794 46.464056 -0.701130 1.915700 0.051733 -0.007932 78751.200000 0 0 1
32.502436 -28.052917 -16.972794 46.167632 -0.712051 1.947260 0.055096 -0.022476 -117061.000000 0 0 1
31.133736 -28.160717 -16.731694 45.191648 -0.735300 1.950062 0.058393 -0.020105 -300368.000000 0 0 1
30.344736 -28.064717 -17.940594 45.058809 -0.746383 1.980306 0.061256 -0.023749 -324857.000000 0 0 1
28.860336 -28.210317 -17.678494 44.059847 -0.774009 1.983665 0.057310 -0.026611 -873924.000000 0 0 1
28.384636 -27.047217 -17.083594 42.767847 -0.761276 1.981713 0.052830 -0.026890 -928003.000000 0 0 1
27.001836 -27.126317 -16.941394 41.856267 -0.787698 1.987504 0.056959 -0.024123 -523272.000000 0 0 1
26.369936 -26.146817 -15.930594 40.408086 -0.781150 1.976040 0.048914 -0.027927 -181434.000000 0 0 1
26.300836 -24.831317 -16.339694 39.690224 -0.756666 1.995094 0.064456 -0.033932 -50432.900000 0 0 1
26.147436 -24.036717 -15.171694 38.621658 -0.743363 1.974502 0.057084 -0.028304 -80789.600000 0 0 1
25.839636 -22.510117 -15.541894 37.629013 -0.716644 1.996574 0.062600 -0.030584 144054.000000 0 0 1
24.535136 -22.306417 -16.034994 36.833004 -0.737854 2.021216 0.061738 -0.028101 -117834.000000 0 0 1
24.311336 -20.904617 -16.233694 35.938515 -0.710197 2.039475 0.065782 -0.025905 -366204.000000 0 0 1
22.830636 -20.543817 -16.153394 34.701852 -0.732724 2.054985 0.050475 -0.022508 -500260.000000 0 0 1
22.237736 -20.576117 -14.857394 33.743676 -0.746607 2.026731 0.051341 -0.021984 224690.000000 0 0 1
21.036236 -19.826617 -14.878794 32.511482 -0.755805 2.046144 0.040158 -0.028358 20059.800000 0 0 1
21.091436 -18.563617 -13.973594 31.380215 -0.721739 2.032305 0.036746 -0.020316 -415434.000000 0 0 1
20.520236 -18.789117 -12.745794 30.603370 -0.741388 2.000370 0.033215 -0.030112 17190.000000 0 0 1
20.137236 -17.551417 -12.204794 29.368648 -0.716896 1.999368 0.034661 -0.036110 -518199.000000 0 0 1
19.348736 -17.798317 -10.883594 28.453581 -0.743685 1.963301 0.040718 -0.026900 -221376.000000 0 0 1
20.088736 -18.340117 -9.790894 28.909839 -0.739927 1.916299 0.044728 -0.034449 323300.000000 0 0 1
19.207536 -18.585817 -8.729194 28.116914 -0.768949 1.886474 0.041725 -0.037800 147539.000000 0 0 1
19.961036 -19.381517 -7.608594 28.844009 -0.770669 1.837740 0.049464 -0.033804 -34282.100000 0 0 1
20.900436 -18.558617 -6.966494 28.805946 -0.726120 1.815060 0.052893 -0.036330 -407709.000000 0 0 1
21.488636 -19.219817 -5.884894 29.424392 -0.729722 1.772155 0.054142 -0.022754 -13141.700000 0 0 1
22.846436 -18.495717 -5.611694 29.925613 -0.680547 1.759435 0.052530 -0.019543 214062.000000 0 0 1
23.774336 -18.725317 -6.671994 30.989870 -0.667151 1.787791 0.038253 -0.030585 462019.000000 0 0 1
24.799136 -17.730817 -6.693494 31.211887 -0.620707 1.786928 0.038420 -0.019947 29560.500000 0 0 1
25.778236 -18.037417 -7.857594 32.428501 -0.610535 1.815537 0.046238 -0.036036 -309593.000000 0 0 1
26.695636 -19.054717 -7.594894 33.666328 -0.619912 1.798348 0.066389 -0.044892 47102.300000 0 0 1
26.408036 -20.122817 -8.444794 34.258235 -0.651134 1.819868 0.071714 -0.048252 -519298.000000 0 0 1
27.262536 -21.358417 -8.204994 35.591428 -0.664558 1.803422 0.072960 -0.052237 930934.000000 0 0 1
28.663536 -21.146717 -8.484094 36.616414 -0.635619 1.804623 0.064005 -0.027537 1310060.000000 0 0 1
29.491936 -22.229417 -8.033694 37.794993 -0.645894 1.784990 0.071936 -0.043007 349364.000000 0 0 1
-29.473654 29.684385 3.956706 42.018027 -0.788960 1.476490 0.034906 -0.019614 52625.600000 0 0 1
-28.992284 30.840085 3.321606 42.458173 -0.816271 1.492484 0.028236 -0.015054 614648.000000 0 0 1
-27.889544 31.555285 3.946006 42.298152 -0.846986 1.477370 0.022067 -0.006000 808197.000000 0 0 1
-27.524024 32.846085 3.201706 42.973110 -0.873328 1.496222 0.024825 -0.009199 -437895.000000 0 0 1
-26.743654 32.640385 2.035306 42.246423 -0.884372 1.522601 0.029757 -0.004687 273610.000000 0 0 1
-26.065454 33.798385 1.536706 42.709486 -0.913862 1.534808 0.039896 -0.024161 537583.000000 0 0 1
-24.787364 34.231385 2.339106 42.328154 -0.944070 1.515507 0.032597 -0.029053 32373.600000 0 0 1
-23.658864 33.495985 1.904406 41.053010 -0.955842 1.524391 0.035563 -0.030480 -910738.000000 0 0 1
-22.511564 33.975485 2.517206 40.834305 -0.985627 1.509113 0.035140 -0.029280 -929151.000000 0 0 1
-21.196664 33.576685 1.880906 39.752109 -1.007686 1.523463 0.037832 -0.027300 -473593.000000 0 0 1
-20.939864 -34.106917 0.785106 40.029690 1.020184 1.551182 0.058521 -0.041308 43875.400000 0 0 1
-19.638864 34.048585 0.317306 39.307656 -1.047618 1.562724 0.057561 -0.034633 -607628.000000 0 0 1
-19.196264 -33.720717 -0.940294 38.813239 1.053277 1.595025 0.064601 -0.033533 -225574.000000 0 0 1
-18.809964 -32.349517 -0.840894 37.430110 1.044120 1.593264 0.077203 -0.038029 322365.000000 0 0 1
-17.714864 -32.120217 0.029106 36.681407 1.066789 1.570003 0.084027 -0.032989 -639194.000000 0 0 1
-17.419564 -30.604217 0.178806 35.214930 1.053341 1.565719 0.094921 -0.036417 -61269.700000 0 0 1
-16.715664 -29.992717 -0.920794 34.348572 1.062347 1.597607 0.088300 -0.028563 134194.000000 0 0 1
-16.791164 -28.583717 -0.882294 33.162487 1.039665 1.597405 0.074335 -0.025561 -194305.000000 0 0 1
-15.794964 -27.852817 -1.787994 32.069569 1.054929 1.626579 0.068913 -0.015832 -367015.000000 0 0 1
-16.030664 -28.074517 -3.157794 32.482801 1.051970 1.668164 0.067302 -0.014051 -352293.000000 0 0 1
-15.139364 -27.488317 -4.052694 31.642255 1.067373 1.699228 0.057041 0.000711 -619449.000000 0 0 1
-15.653364 -27.540117 -5.460794 32.145080 1.053948 1.741504 0.071009 -0.010278 -327012.000000 0 0 1
-16.752264 -26.676417 -5.575794 31.989984 1.010057 1.745989 0.076220 -0.004798 -444800.000000 0 0 1
-17.370164 -26.807417 -6.855894 32.670530 0.995856 1.782217 0.083573 -0.005531 239044.000000 0 0 1
-18.224064 -25.572817 -7.127494 32.200725 0.951641 1.793991 0.067453 -0.001122 -199431.000000 0 0 1
-17.385564 -24.462217 -7.220994 30.867470 0.952918 1.806920 0.049588 0.009886 38217.800000 0 0 1
-18.053064 -23.245017 -7.489694 30.370042 0.910461 1.819982 0.031164 0.014080 59611.300000 0 0 1
-17.079364 -22.105517 -7.132894 28.831177 0.912969 1.820794 0.037782 0.013158 621082.000000 0 0 1
-15.865164 -22.255717 -7.827694 28.430497 0.951493 1.849727 0.059637 0.002163 -542338.000000 0 0 1
-14.774164 -21.458717 -7.450194 27.097193 0.967835 1.849327 0.073404 -0.009334 -153554.000000 0 0 1
-13.744164 -21.373717 -8.536194 26.806799 0.999329 1.894873 0.067230 -0.007726 -529147.000000 0 0 1
-14.164864 -20.507317 -9.608294 26.711660 0.966324 1.938747 0.066642 -0.006071 -176316.000000 0 0 1
-13.146964 -20.362017 -10.566694 26.440678 0.997477 1.981918 0.057569 -0.001148 155925.000000 0 0 1
-13.529664 -19.283117 -11.651694 26.280266 0.958975 2.030143 0.055432 -0.009738 -827554.000000 0 0 1
-14.567664 -19.738317 -12.418394 27.496082 0.934994 2.039402 0.044642 0.003278 -1003020.000000 0 0 1
-14.778764 -18.935617 -13.597694 27.601934 0.908075 2.085912 0.038492 0.000329 -576689.000000 0 0 1
-15.890764 -19.422217 -14.480094 28.972608 0.885071 2.094148 0.042554 0.001377 -679310.000000 0 0 1
-17.165864 -19.318917 -13.905694 29.347160 0.844342 2.064436 0.055705 -0.003637 -637837.000000 0 0 1
-18.134764 -19.837617 -14.784094 30.675237 0.830213 2.073681 0.044468 0.003929 -593884.000000 0 0 1
-19.536664 -19.629717 -14.212594 31.128843 0.787774 2.044936 0.033480 0.012520 -1507360.000000 0 0 1
-20.490064 -20.051717 -15.066594 32.386978 0.774586 2.054663 0.034228 0.005640 -1596280.000000 0 0 1
-21.747364 -19.995817 -14.459294 32.891515 0.743463 2.025956 0.025852 0.006952 -299869.000000 0 0 1
-22.877864 -20.473817 -15.408494 34.351063 0.730000 2.035949 0.031104 0.003459 -195325.000000 0 0 1
-23.044064 -19.808117 -16.612294 34.631759 0.710027 2.071091 0.032065 -0.010954 555741.000000 0 0 1
-23.922964 -20.636417 -17.402394 36.069561 0.711775 2.074266 0.036611 -0.015550 304289.000000 0 0 1
-24.162264 -20.046117 -18.808094 36.597899 0.692558 2.110535 0.033435 -0.010856 -152648.000000 0 0 1
-22.985164 -19.927217 -19.560794 36.166786 0.714258 2.142243 0.021794 -0.009232 -109836.000000 0 0 1
-23.272864 -19.485417 -20.856794 36.828163 0.697051 2.172839 0.023890 -0.006232 -66285.500000 0 0 1
-22.082964 -18.773717 -21.575294 36.133130 0.704578 2.210684 0.013088 0.007460 86750.700000 0 0 1
-21.048364 -19.634717 -21.909694 36.174445 0.750664 2.221401 0.002864 0.008199 -451061.000000 0 0 1
-20.059764 -19.095517 -22.749194 35.840742 0.760777 2.258455 0.003913 0.008678 -413352.000000 0 0 1
-18.766264 -19.875517 -22.880394 35.647178 0.814096 2.267714 0.017038 0.012019 -815999.000000 0 0 1
-18.761964 -21.056417 -23.634494 36.796376 0.842957 2.268298 0.001388 0.018545 -306155.000000 0 0 1
-17.532064 -21.717717 -23.609594 36.557427 0.891638 2.272896 0.004808 0.015609 -500052.000000 0 0 1
-17.638964 -23.063417 -24.268994 37.842283 0.917889 2.267013 0.011778 0.009493 -189510.000000 0 0 1
-17.817664 -23.076317 -25.715674 38.875204 0.913289 2.293604 0.013051 0.016174 225457.000000 0 0 1
-17.954064 -24.378517 -26.189044 40.031570 0.936010 2.283934 0.025349 0.001175 -104659.000000 0 0 1
-18.002264 -24.473217 -27.713904 41.122748 0.936581 2.310313 0.025522 0.012753 -390064.000000 0 0 1
-16.793064 -24.325517 -28.392574 40.986291 0.966578 2.336069 0.029765 0.013315 -278614.000000 0 0 1
-17.008064 -24.284517 -29.806884 42.041198 0.959824 2.358865 0.035648 0.007411 -456990.000000 0 0 1
-15.725964 -23.801517 -30.477464 41.745587 0.986927 2.389230 0.026296 -0.005583 95154.000000 0 0 1
-14.655064 -24.702317 -30.184274 41.666123 1.035342 2.381006 0.028695 -0.003710 -737336.000000 0 0 1
-13.502964 -24.493017 -30.900484 41.678266 1.066957 2.405958 0.034579 -0.006940 -576623.000000 0 0 1
-12.410164 -25.494417 -30.472944 41.624245 1.117781 2.392190 0.047705 -0.005796 -887609.000000 0 0 1
-12.626664 -26.713217 -31.211494 42.978902 1.129247 2.383582 0.040091 0.004352 178539.000000 0 0 1
-11.782264 -27.811717 -30.857664 43.179958 1.170075 2.366890 0.031154 0.001370 483665.000000 0 0 1
-10.352264 -27.599517 -31.445104 43.101013 1.211948 2.388486 0.045911 -0.009362 -17628.600000 0 0 1
-9.609864 -26.571517 -30.786584 41.787663 1.223772 2.399031 0.068054 -0.032447 -1064450.000000 0 0 1
-8.421664 -26.362417 -31.461874 41.901682 1.261586 2.420144 0.068683 -0.024651 -767882.000000 0 0 1
-7.535264 -25.293817 -30.799664 40.560778 1.281259 2.433104 0.093245 -0.040430 -839164.000000 0 0 1
-8.005264 -23.959417 -30.834154 39.860795 1.248340 2.455214 0.094271 -0.032820 -507982.000000 0 0 1
-8.839764 -23.609317 -29.804084 39.036198 1.212536 2.439510 0.080130 -0.020052 -482159.000000 0 0 1
-9.239064 -22.163217 -29.790804 38.263044 1.175836 2.463195 0.084214 -0.038596 -258982.000000 0 0 1
-9.894364 -21.699217 -30.912174 39.042502 1.142982 2.484476 0.071513 -0.033046 -421202.000000 0 0 1
-10.323164 -20.406617 -30.696654 38.279006 1.102461 2.501296 0.089031 -0.035738 194246.000000 0 0 1
-11.272464 -19.876017 -31.818504 39.173227 1.054890 2.518798 0.063514 -0.024662 323411.000000 0 0 1
-11.788664 -18.552717 -31.668154 38.549292 1.004743 2.534829 0.058523 -0.021843 -300308.000000 0 0 1
-12.527564 -18.233217 -32.762364 39.531792 0.968799 2.547684 0.050904 -0.011609 -1173830.000000 0 0 1
-13.362364 -16.961417 -32.734764 39.214885 0.903533 2.558481 0.053814 -0.016977 -575580.000000 0 0 1
-12.737464 -15.745617 -32.902804 38.636278 0.890620 2.589834 0.064785 -0.020349 -354697.000000 0 0 1
-11.901364 -15.303417 -31.837684 37.275665 0.909806 2.594642 0.055223 -0.017324 230497.000000 0 0 1
-11.531564 -13.791817 -32.078064 36.772182 0.874418 2.630777 0.041518 -0.020142 -283605.000000 0 0 1
-10.605364 -13.424117 -33.084014 37.245572 0.902168 2.664355 0.043468 -0.025709 -3148.550000 0 0 1
-10.994964 -13.529717 34.014996 38.222539 0.888388 0.473627 0.051255 -0.021438 -341300.000000 0 0 1
-11.527564 -12.206117 33.326203 37.316348 0.813981 0.466668 0.061371 -0.014552 249122.000000 0 0 1
-12.707464 -11.670917 33.875344 38.016166 0.742905 0.471083 0.037107 -0.006647 -563086.000000 0 0 1
-13.598964 -11.103217 32.975240 37.357459 0.684706 0.489230 0.051049 -0.020404 -132153.000000 0 0 1
-14.726164 -10.378417 33.703703 38.216633 0.613914 0.490894 0.073816 -0.024392 -214996.000000 0 0 1
-14.269464 -9.195417 -34.130830 38.119377 0.572437 2.680051 0.066226 -0.028213 -172914.000000 0 0 1
-15.197864 -8.676517 -33.201534 37.531305 0.518750 2.656509 0.073945 -0.030930 208246.000000 0 0 1
-14.611164 -7.575017 -32.214164 36.174844 0.478291 2.669268 0.071701 -0.042869 -204170.000000 0 0 1
-14.390664 -6.268817 -32.780644 36.345012 0.410829 2.695013 0.076285 -0.047788 545423.000000 0 0 1
-15.554664 -5.440117 -32.879364 36.777643 0.336445 2.677000 0.074056 -0.038019 395079.000000 0 0 1
-15.989064 -4.846617 -31.512154 35.667292 0.294317 2.654084 0.081602 -0.039992 -368654.000000 0 0 1
-16.407864 -5.842617 -30.613954 35.221703 0.342087 2.624335 0.080964 -0.043306 -306785.000000 0 0 1
-16.774864 -5.373217 -29.338284 34.219913 0.309987 2.600886 0.094437 -0.045581 211302.000000 0 0 1
-15.627364 -4.950617 -28.355484 32.752963 0.306790 2.617419 0.086884 -0.043459 513345.000000 0 0 1
-15.042064 -3.735217 -28.835394 32.736761 0.243395 2.648401 0.085277 -0.038305 1311970.000000 0 0 1
-13.713664 -3.363517 -28.363524 31.683865 0.240520 2.679685 0.074390 -0.026882 1475720.000000 0 0 1
-13.405464 -2.043517 -29.096084 32.100850 0.151275 2.705469 0.047462 -0.009862 -109048.000000 0 0 1
-13.524664 -2.185517 -30.534014 33.466686 0.160210 2.719834 0.060574 -0.023386 298691.000000 0 0 1
-13.303464 -0.968517 -31.202684 33.934167 0.072674 2.737619 0.058378 -0.027226 -100781.000000 0 0 1
-13.532764 -1.069517 -32.742074 35.444647 0.078868 2.748561 0.051636 -0.031792 331939.000000 0 0 1
-14.905764 -1.314517 -33.060544 36.289245 0.087961 2.716568 0.045071 -0.038429 760138.000000 0 0 1
-15.182764 -1.572517 34.056016 37.320254 0.103205 0.421358 0.040320 -0.035136 114500.000000 0 0 1
-16.667064 -1.729517 33.615913 37.560776 0.103398 0.462424 0.021959 -0.030889 350208.000000 0 0 1
-16.640764 -2.221517 32.307023 36.408707 0.132714 0.479245 0.040625 -0.039703 -296434.000000 0 0 1
-17.870564 -2.083517 31.680453 36.432804 0.116065 0.516489 0.027589 -0.028238 -730884.000000 0 0 1
-17.665964 -1.986517 30.166633 35.015115 0.111978 0.532517 0.040767 -0.019641 -236839.000000 0 0 1
-16.996264 -0.764517 29.892403 34.394960 0.044951 0.517432 0.032754 -0.005586 100349.000000 0 0 1
-16.881964 -0.675517 28.462583 33.099482 0.039993 0.535703 0.028436 -0.012818 357961.000000 0 0 1
-16.119964 0.638483 27.937603 32.260976 -0.039587 0.523675 0.024230 -0.010197 648497.000000 0 0 1
-16.797864 1.879483 28.304093 32.966989 -0.111425 0.538345 0.032653 -0.008349 711864.000000 0 0 1
-18.097364 2.256483 27.858533 33.297210 -0.124046 0.579635 0.048744 -0.012180 441398.000000 0 0 1
-18.138264 2.888483 26.461063 32.210679 -0.157922 0.606760 0.041997 -0.008928 -238613.000000 0 0 1
-17.697964 4.244483 26.331833 32.009358 -0.235383 0.604776 0.037879 -0.002402 -126559.000000 0 0 1
-18.345264 4.900483 25.299913 31.633037 -0.261030 0.643844 0.039902 -0.003410 -694269.000000 0 0 1
-18.272864 6.448483 25.454183 31.990560 -0.339255 0.650670 0.041386 -0.002664 1081410.000000 0 0 1
-16.954564 7.029483 25.411853 31.346980 -0.393035 0.625512 0.028586 0.000578 794987.000000 0 0 1
-16.205464 6.921483 24.228283 29.958867 -0.403655 0.628827 0.022631 0.003933 -268270.000000 0 0 1
-14.934864 7.775483 24.142073 29.433790 -0.480012 0.609007 -0.006342 0.010833 -342558.000000 0 0 1
-13.801564 7.327483 24.832353 29.339750 -0.488074 0.561660 -0.004286 0.003798 -678397.000000 0 0 1
-12.752464 8.062483 24.292743 28.596614 -0.563781 0.555765 0.000594 0.019896 -568265.000000 0 0 1
-11.390364 8.097483 24.991503 28.633631 -0.618008 0.509881 0.001577 0.026035 19933.700000 0 0 1
-10.354664 8.658483 24.191723 27.702488 -0.696423 0.508925 -0.002559 0.017994 513884.000000 0 0 1
-9.108964 8.851483 24.830853 27.890738 -0.771063 0.472814 0.008613 0.008700 42474.100000 0 0 1
-8.967164 10.206483 25.577453 28.961844 -0.849945 0.488276 0.005067 -0.003910 -498748.000000 0 0 1
-10.038464 10.344483 26.504923 30.171013 -0.800410 0.498105 -0.005996 -0.008031 574901.000000 0 0 1
-10.180964 11.611483 27.082513 31.175970 -0.850947 0.518228 -0.004794 -0.011876 -439180.000000 0 0 1
-10.851064 12.717483 26.163353 31.048366 -0.864424 0.568584 -0.013668 -0.013618 -863117.000000 0 0 1
-12.242664 12.731483 26.125913 31.536278 -0.804969 0.594480 0.002622 -0.018278 -492549.000000 0 0 1
-12.661264 11.943483 25.043663 30.498188 -0.756234 0.607369 -0.002457 -0.006235 -562460.000000 0 0 1
-14.173164 11.977483 24.752713 30.935990 -0.701632 0.643290 0.003723 -0.009884 -581215.000000 0 0 1
-14.561464 13.222483 24.258283 31.230347 -0.737243 0.681302 0.008394 -0.014127 -460142.000000 0 0 1
-15.895864 13.225483 23.835783 31.555292 -0.693955 0.714584 0.026226 -0.001325 -308296.000000 0 0 1
-16.140964 12.604483 22.445753 30.384462 -0.662986 0.739620 0.021065 0.006619 -506940.000000 0 0 1
-15.976264 11.197483 22.410053 29.712541 -0.611318 0.716318 0.023587 -0.000575 -3669.410000 0 0 1
-16.129664 10.792483 21.053253 28.633603 -0.589691 0.744740 0.017025 0.006448 -183044.000000 0 0 1
-16.315464 9.315483 20.823753 28.046413 -0.518793 0.734039 0.006651 0.009912 -19272.100000 0 0 1
-17.667264 8.971483 20.987253 28.863204 -0.469870 0.756667 0.032584 0.005276 -451573.000000 0 0 1
-17.839264 7.576483 20.894653 28.499631 -0.401624 0.747846 0.021744 0.006497 -1373800.000000 0 0 1
-19.260664 7.282483 21.201453 29.555192 -0.361487 0.770803 0.049969 -0.003840 -1320170.000000 0 0 1
-19.665964 7.739483 22.470353 30.847472 -0.374931 0.754763 0.043470 -0.010907 -938342.000000 0 0 1
-21.046364 7.718483 22.598053 31.830747 -0.351507 0.781377 0.040338 -0.009791 -807339.000000 0 0 1
-21.524064 8.470483 23.871923 33.240083 -0.374921 0.769632 0.071874 -0.021679 -529530.000000 0 0 1
-21.389264 9.886483 23.790443 33.484748 -0.432967 0.780608 0.071610 -0.016886 -43235.000000 0 0 1
-20.141064 10.504483 23.582413 32.743501 -0.480735 0.766682 0.058228 -0.008185 102585.000000 0 0 1
-19.126264 10.514483 24.771043 33.014738 -0.502644 0.722277 0.070095 -0.017832 -120943.000000 0 0 1
-19.612864 11.054483 25.962733 34.364655 -0.513251 0.714369 0.083976 -0.028218 74437.700000 0 0 1
-19.398764 10.129483 27.041643 34.787482 -0.481227 0.680373 0.065093 -0.025578 -292694.000000 0 0 1
-31.272604 -14.244615 20.710653 40.122512 0.427417 1.028405 0.098707 -0.022942 -23299.100000 0 0 1
-30.068584 -14.972015 20.564353 39.384941 0.461989 1.021441 0.092532 -0.019227 141340.000000 0 0 1
-30.170974 -16.009715 19.620153 39.389707 0.487853 1.049386 0.089490 -0.004517 -39408.900000 0 0 1
-29.946324 -15.564415 18.106853 38.300019 0.479318 1.078372 0.089471 0.000668 -968293.000000 0 0 1
-30.962244 -14.823315 17.577253 38.566190 0.446507 1.097561 0.103422 -0.018348 -1007270.000000 0 0 1
-30.679864 -14.356615 16.255653 37.571435 0.437680 1.123355 0.096244 -0.014631 -475545.000000 0 0 1
-31.715064 -13.388615 15.573353 37.783986 0.399457 1.145964 0.080042 -0.014337 1098870.000000 0 0 1
-32.990414 -13.998415 15.258953 38.950721 0.401293 1.168263 0.084892 -0.018334 1064320.000000 0 0 1
-33.945544 -14.077715 16.281553 40.194166 0.393127 1.153738 0.092346 -0.017299 -377418.000000 0 0 1
-34.671869 -12.789015 16.754853 40.576132 0.353376 1.145134 0.079354 -0.020322 -527126.000000 0 0 1
-35.685232 -12.997415 17.696153 41.898955 0.349290 1.134757 0.058345 -0.014857 222563.000000 0 0 1
-36.316004 -11.749415 18.140253 42.260735 0.312904 1.127138 0.057590 -0.008246 325039.000000 0 0 1
35.357303 -11.938315 19.332453 42.028632 -0.325629 1.092820 0.065808 -0.004070 -453449.000000 0 0 1
35.969153 -12.403515 20.507753 43.222622 -0.332068 1.076437 0.055008 -0.002406 -197877.000000 0 0 1
35.247253 -12.031815 21.654553 43.081934 -0.328952 1.044150 0.038316 -0.005793 -1064850.000000 0 0 1
36.039913 -12.476415 22.927353 44.499435 -0.333271 1.029523 0.030206 -0.005666 15680.500000 0 0 1
-35.408396 -11.806715 23.156753 43.924802 0.321850 1.015505 0.038089 -0.007635 367128.000000 0 0 1
-34.327172 -12.244115 22.315053 42.734467 0.342621 1.021392 0.050713 -0.012118 45656.800000 0 0 1
-32.994814 -11.435215 22.444153 41.510985 0.333621 0.999551 0.066935 -0.014543 560753.000000 0 0 1
-33.093734 -10.168015 21.830053 40.928413 0.298094 1.008215 0.069299 -0.012880 536376.000000 0 0 1
-31.771104 -9.657315 21.621753 39.625333 0.295091 0.993626 0.078232 -0.020523 406312.000000 0 0 1
-31.630744 -8.448315 20.643153 38.704235 0.260999 1.008233 0.066680 -0.011689 9562.460000 0 0 1
-31.989644 -8.750815 19.299953 38.371894 0.267019 1.043763 0.066900 -0.009220 80324.500000 0 0 1
-33.374714 -8.825115 19.025453 39.417281 0.258509 1.067098 0.057106 -0.013239 -288512.000000 0 0 1
-33.766334 -8.633415 17.576153 39.033605 0.250318 1.103715 0.066145 -0.016122 -420379.000000 0 0 1
-35.154233 -8.729715 17.367453 40.170343 0.243403 1.123704 0.028617 -0.013069 -11994.000000 0 0 1
-35.519095 -8.344615 16.026153 39.850675 0.230749 1.156927 0.038182 -0.004857 5671.880000 0 0 1
35.623783 -8.460415 15.744553 39.856285 -0.233174 1.164692 0.050548 -0.006967 103418.000000 0 0 1
35.167813 -9.823015 15.879953 39.817579 -0.272376 1.160569 0.046390 0.007280 438604.000000 0 0 1
33.756993 -9.847515 15.665753 38.495765 -0.283841 1.151687 0.049092 0.006078 783819.000000 0 0 1
33.059073 -11.228815 15.995053 38.403519 -0.327433 1.141205 0.032865 0.006589 230898.000000 0 0 1
32.997273 -11.547715 17.354753 39.030208 -0.336639 1.110014 0.021545 -0.000997 -457583.000000 0 0 1
31.979383 -12.474315 17.558053 38.556124 -0.371920 1.097987 0.026577 0.000589 -261053.000000 0 0 1
31.729383 -12.845415 19.000353 39.150630 -0.384674 1.064074 0.017105 -0.001279 179530.000000 0 0 1
32.557403 -13.926315 19.427253 40.389910 -0.404195 1.069010 0.013819 0.000773 -53403.800000 0 0 1
32.157843 -14.262015 20.740153 40.837310 -0.417436 1.038083 0.012295 0.005873 -528604.000000 0 0 1
32.671653 -15.589915 21.294353 41.999188 -0.445217 1.039074 0.006077 0.007826 -210302.000000 0 0 1
32.674013 -15.608915 22.706253 42.741119 -0.445662 1.010720 0.006161 -0.000260 -117188.000000 0 0 1
33.259363 -16.838215 23.142853 43.878267 -0.468651 1.015220 0.005749 0.003425 79604.000000 0 0 1
33.762433 -16.749515 24.632303 45.024421 -0.460522 0.991915 0.011259 0.003183 507066.000000 0 0 1
34.941323 -15.951815 24.704113 45.668913 -0.428272 0.999243 0.022343 0.009540 208133.000000 0 0 1
35.311143 -15.636415 26.002893 46.556683 -0.416865 0.978194 0.014628 0.009982 -154032.000000 0 0 1
-36.186754 -14.625115 26.130103 46.969750 0.384084 0.980848 0.024033 0.003412 -90740.100000 0 0 1
-34.925672 -15.183315 25.806233 46.003231 0.410085 0.975245 0.019230 0.002612 801050.000000 0 0 1
-33.958264 -14.078315 25.701213 44.854376 0.393009 0.960644 0.026509 -0.004902 1001040.000000 0 0 1
-32.497844 -14.532015 25.459403 43.766089 0.420497 0.949960 0.050018 -0.013868 -255771.000000 0 0 1
-32.161834 -14.868515 24.114663 42.859926 0.433038 0.973222 0.057862 -0.010425 -226076.000000 0 0 1
-30.812344 -15.258315 24.037083 41.952331 0.459801 0.960681 0.068125 -0.020098 -6819.010000 0 0 1
-30.386264 -16.714015 24.604823 42.521532 0.502883 0.953731 0.062927 -0.015420 -727388.000000 0 0 1
-30.403974 -16.829215 25.991243 43.395493 0.505542 0.928621 0.064380 -0.019946 113107.000000 0 0 1
-30.192784 -18.176715 26.417563 44.044123 0.541905 0.927548 0.062807 -0.023656 -97436.700000 0 0 1
-29.987274 -18.291815 27.935953 44.880336 0.547730 0.898922 0.042220 -0.024098 339445.000000 0 0 1
-28.868794 -17.494115 28.356483 44.085615 0.544810 0.872108 0.038576 -0.025572 293728.000000 0 0 1
-28.391934 -17.825815 29.609983 44.728209 0.560645 0.847315 0.039707 -0.022218 -220829.000000 0 0 1
-27.098964 -17.054415 29.903043 43.810945 0.561713 0.819554 0.055054 -0.022730 -526684.000000 0 0 1
-27.175494 -15.770815 30.491983 43.783411 0.525832 0.800389 0.063864 -0.033433 -315670.000000 0 0 1
-26.085354 -14.955915 30.150073 42.581123 0.520590 0.784046 0.056839 -0.031523 -496319.000000 0 0 1
-25.926104 -13.616815 30.894653 42.568299 0.483617 0.758648 0.064007 -0.026560 17752.500000 0 0 1
-25.275894 -13.705815 32.158193 43.137797 0.496872 0.729548 0.066565 -0.024804 248891.000000 0 0 1
-24.862964 -12.441315 32.639642 42.875395 0.463964 0.705531 0.065641 -0.018944 -210987.000000 0 0 1
-24.154664 -12.434015 33.979218 43.504480 0.475391 0.674449 0.072806 -0.013888 800662.000000 0 0 1
-22.802364 -12.938015 34.008980 42.941248 0.516102 0.656737 0.046917 -0.011887 834413.000000 0 0 1
-22.638964 -14.348815 34.158623 43.419151 0.564910 0.665322 0.046745 -0.015134 -243260.000000 0 0 1
-22.591564 -14.907115 -32.880574 42.587944 0.583271 2.452877 0.038079 -0.009469 -695306.000000 0 0 1
-21.454164 -14.482815 -32.204384 41.317737 0.593790 2.464556 0.027150 -0.002236 -351191.000000 0 0 1
-21.185164 -15.300515 -31.138064 40.650904 0.625489 2.443372 0.033205 -0.008129 415255.000000 0 0 1
-19.835064 -14.955815 -30.404374 39.262350 0.646062 2.456547 0.042718 -0.001321 497759.000000 0 0 1
-19.741864 -13.858715 -29.492194 38.099799 0.612064 2.456053 0.030290 -0.005388 137712.000000 0 0 1
-20.426064 -14.100415 -28.255654 37.608879 0.604196 2.420830 0.036077 -0.000748 134033.000000 0 0 1
-20.093664 -12.989815 -27.175034 36.207362 0.573885 2.419674 0.045378 -0.006280 482662.000000 0 0 1
-18.750464 -12.911415 -26.699774 35.087925 0.603028 2.435556 0.038170 -0.007305 319065.000000 0 0 1
-18.564064 -11.803515 -25.854834 33.947310 0.566346 2.436600 0.060120 -0.020436 -99616.600000 0 0 1
-17.172264 -11.734115 -25.222804 32.691986 0.599442 2.452037 0.059711 -0.020172 -574798.000000 0 0 1
-17.033864 -12.544415 -24.031694 32.016202 0.634766 2.419782 0.068554 -0.021662 832622.000000 0 0 1
-15.686164 -12.610015 -23.538094 30.969502 0.677111 2.434173 0.071234 -0.026720 1602750.000000 0 0 1
-14.580964 -13.485915 -24.285494 31.372912 0.746402 2.456075 0.051959 -0.015341 308983.000000 0 0 1
-14.116564 -12.787715 -25.404394 31.751949 0.736047 2.498240 0.056814 -0.033088 -570124.000000 0 0 1
-13.391164 -13.641415 -26.203094 32.434759 0.794655 2.511327 0.061448 -0.024206 -644880.000000 0 0 1
-12.455764 -12.912715 -27.175824 32.563932 0.803409 2.558089 0.057850 -0.025326 -177013.000000 0 0 1
-13.146064 -11.998015 -28.009464 33.185862 0.739771 2.575528 0.065628 -0.031073 38629.200000 0 0 1
-12.309964 -11.406015 -29.004404 33.509519 0.747301 2.617058 0.067383 -0.041399 35661.500000 0 0 1
-13.078864 -10.571115 -30.031734 34.419619 0.679757 2.631129 0.040117 -0.035943 -48375.700000 0 0 1
-12.202564 -9.713515 -30.744974 34.474750 0.672311 2.672130 0.041973 -0.032073 297297.000000 0 0 1
-11.688564 -10.322315 -31.952294 35.554491 0.723406 2.687559 0.057549 -0.024923 130074.000000 0 0 1
-10.871264 -9.288015 -32.806164 35.786813 0.707022 2.730566 0.043245 -0.025595 -873455.000000 0 0 1
-9.670564 -9.034015 -32.197414 34.811014 0.751380 2.751622 0.024663 -0.019739 -1433310.000000 0 0 1
-9.174264 -7.823115 -32.653994 34.808786 0.706073 2.787889 0.021494 -0.017307 -592042.000000 0 0 1
-7.681864 -7.651215 -32.364444 34.132233 0.783399 2.818341 0.024032 -0.015885 -564830.000000 0 0 1
-7.218564 -7.495415 -31.010604 32.710036 0.804211 2.817831 0.016805 -0.010272 -34352.500000 0 0 1
-7.551564 -6.284515 -30.267044 31.821615 0.694077 2.827727 0.025757 -0.004526 -368189.000000 0 0 1
-6.897364 -4.938815 -30.817234 31.963533 0.621413 2.872970 0.023103 -0.011097 354072.000000 0 0 1
-5.516164 -4.782015 -30.551624 31.411741 0.714229 2.907038 0.018815 -0.010151 118024.000000 0 0 1
-5.109464 -3.460715 -30.821784 31.433510 0.595338 2.943985 0.028917 -0.018528 704405.000000 0 0 1
-3.622964 -3.214015 -30.398424 30.781812 0.725655 2.983599 0.028156 -0.012324 172272.000000 0 0 1
-2.583464 -3.928015 -31.047564 31.401510 0.989026 2.991307 0.022264 -0.015682 449663.000000 0 0 1
-1.316564 -3.638115 -30.476714 30.721317 1.223577 3.015318 0.027345 -0.015015 488514.000000 0 0 1
-0.659964 -2.268215 -30.942134 31.032177 1.287652 3.065395 0.018895 -0.015289 773350.000000 0 0 1
0.710636 -2.114915 -30.433014 30.514688 -1.246637 3.068411 0.036019 -0.019152 1663360.000000 0 0 1
1.227036 -0.779715 -30.527004 30.561602 -0.566076 3.094005 0.006805 -0.008304 14495.300000 0 0 1
1.085236 0.203885 -29.363694 29.384449 0.185707 3.104005 0.015839 -0.015412 -1420050.000000 0 0 1
-0.084664 0.857185 -29.193514 29.206218 -1.472346 3.112096 0.025488 -0.020646 -1651450.000000 0 0 1
0.180036 2.095385 -28.586364 28.663623 1.485087 3.068155 0.042444 -0.028922 600200.000000 0 0 1
-1.107464 2.940385 -28.174504 28.349163 -1.210589 3.030531 0.030738 -0.028933 808190.000000 0 0 1
-1.912364 3.178085 -29.339124 29.572649 -1.029102 3.015838 0.028555 -0.037275 -283016.000000 0 0 1
-2.892764 4.092485 -28.933414 29.364246 -0.955489 2.970082 0.063728 -0.038057 -416823.000000 0 0 1
-4.207964 4.099485 -29.713974 30.289156 -0.772341 2.946400 0.085280 -0.041642 -578109.000000 0 0 1
-4.015064 4.581985 -30.981114 31.574432 -0.851247 2.947427 0.087871 -0.044229 161858.000000 0 0 1
-5.199964 4.798385 -31.711944 32.491715 -0.745255 2.922067 0.100510 -0.039685 -524013.000000 0 0 1
-4.774964 5.441485 -33.094304 33.876880 -0.850546 2.926232 0.097379 -0.033810 201882.000000 0 0 1
-4.211264 4.544985 -34.020974 34.580606 -0.823492 2.961441 0.097257 -0.032421 373614.000000 0 0 1
-2.923164 4.035485 -33.688104 34.054638 -0.943905 2.994742 0.082550 -0.031416 -267002.000000 0 0 1
-2.238764 3.578485 33.455366 33.720604 -1.011753 0.125508 0.060818 -0.028192 -191745.000000 0 0 1
-2.788464 2.311185 33.051530 33.249372 -0.692079 0.109144 0.061439 -0.039586 187987.000000 0 0 1
-2.504764 1.817585 31.760643 31.911063 -0.627735 0.097133 0.066978 -0.027819 -286828.000000 0 0 1
-2.480264 2.771285 30.558733 30.784215 -0.840758 0.121108 0.060378 -0.024637 -802415.000000 0 0 1
-3.684164 3.427585 30.351563 30.765871 -0.749336 0.164297 0.055309 -0.023142 -458323.000000 0 0 1
-3.556964 4.277485 29.244683 29.769118 -0.877109 0.187982 0.055198 -0.025449 -190190.000000 0 0 1
-4.745564 5.217985 29.046313 29.890401 -0.832778 0.238216 0.052372 -0.021397 -291411.000000 0 0 1
-4.763764 5.955185 27.858683 28.883627 -0.896095 0.267197 0.046480 -0.010508 -257094.000000 0 0 1
-5.955064 6.687785 27.681563 29.093955 -0.843289 0.312870 0.037197 -0.006435 -191371.000000 0 0 1
-6.020764 7.248385 26.241253 27.881751 -0.877652 0.344743 0.036465 -0.005393 390162.000000 0 0 1
-4.969964 8.215785 26.111593 27.821125 -1.026761 0.352383 0.031982 -0.004370 429242.000000 0 0 1
-5.175864 9.099285 25.015553 27.117604 -1.053618 0.396330 0.039303 -0.000875 -175641.000000 0 0 1
-4.404164 10.437485 25.024783 27.469575 -1.171506 0.425094 0.034484 -0.004559 -578035.000000 0 0 1
-4.901264 11.353685 24.068523 27.059608 -1.163273 0.474627 0.054579 -0.007501 262261.000000 0 0 1
-4.362864 12.675785 24.035413 27.521105 -1.239308 0.508769 0.054994 -0.006421 -1131930.000000 0 0 1
-2.862864 12.969285 23.835733 27.286270 -1.353539 0.508362 0.051460 -0.003998 -112713.000000 0 0 1
-2.026564 12.480685 24.870613 27.900213 -1.409825 0.470343 0.058376 -0.007779 -54746.700000 0 0 1
-2.205264 13.199285 26.075503 29.308978 -1.405251 0.474161 0.057588 -0.004444 -1059090.000000 0 0 1
-1.470864 12.650485 27.347583 30.167674 -1.455047 0.435831 0.057425 -0.003283 -475561.000000 0 0 1
-0.102664 12.841185 27.228313 30.104611 -1.562802 0.440692 0.064427 0.001727 -1100860.000000 0 0 1
0.531036 12.327685 28.401023 30.965657 1.527746 0.409856 0.060545 -0.006172 481340.000000 0 0 1
2.081736 12.417085 28.329363 31.001136 1.404690 0.418211 0.056436 -0.001507 377925.000000 0 0 1
2.617236 13.689385 28.504973 31.729839 1.381889 0.454764 0.055365 -0.003829 -989015.000000 0 0 1
3.960836 13.712585 28.172433 31.581786 1.289603 0.468942 0.049458 -0.002603 -488603.000000 0 0 1
4.599636 15.164585 28.409503 32.530312 1.276302 0.508812 0.054728 -0.006355 -177571.000000 0 0 1
4.835836 15.531485 29.723513 33.883618 1.268953 0.500748 0.065565 0.007858 8549.340000 0 0 1
3.866536 16.381585 30.286283 34.649176 1.339009 0.507250 0.039283 0.007501 -178333.000000 0 0 1
3.704736 17.829385 29.723813 34.858530 1.365923 0.549667 0.046703 0.012106 404568.000000 0 0 1
4.713436 18.747485 30.182533 35.842293 1.324485 0.569645 0.063709 0.015895 305643.000000 0 0 1
4.895036 19.909585 29.328603 35.784353 1.329715 0.610096 0.040654 0.011896 -59010.000000 0 0 1
5.949936 20.918385 29.771393 36.868909 1.293679 0.630906 0.046748 0.013460 -127134.000000 0 0 1
5.600436 21.562085 31.013163 38.185137 1.316676 0.622919 0.046875 -0.001651 245208.000000 0 0 1
6.687336 22.312185 31.543453 39.211523 1.279599 0.636058 0.050045 -0.004941 171822.000000 0 0 1
6.761836 23.798085 31.033293 39.687990 1.293959 0.673038 0.052728 0.003539 -161197.000000 0 0 1
7.200136 23.817185 29.694023 38.740615 1.277223 0.697449 0.028645 0.004868 106449.000000 0 0 1
7.566636 25.110985 29.293143 39.317983 1.278122 0.730214 0.032014 -0.000195 172570.000000 0 0 1
8.261836 25.138985 27.889343 38.445312 1.253270 0.759139 0.042471 -0.004778 98145.300000 0 0 1
7.361936 24.832785 26.840123 37.299565 1.282590 0.767595 0.028340 -0.004508 310823.000000 0 0 1
7.977336 24.962985 25.573733 36.616995 1.261487 0.797621 0.039411 -0.015729 -156798.000000 0 0 1
28.658153 2.235785 6.556506 29.483491 0.077858 1.346543 0.080180 -0.001101 -126369.000000 0 0 1
28.811083 3.147485 7.625706 29.968926 0.108814 1.313513 0.069238 0.000353 13888.300000 0 0 1
27.920673 2.924885 8.696906 29.389711 0.104376 1.270381 0.060784 0.003808 -349637.000000 0 0 1
28.170113 3.765585 9.996506 30.127479 0.132885 1.232578 0.053095 0.001858 -26835.000000 0 0 1
27.885793 5.157685 9.948306 30.053085 0.182891 1.233407 0.057236 -0.003669 84838.100000 0 0 1
28.857523 5.872785 9.219206 30.858386 0.200768 1.267405 0.086166 -0.017057 -154843.000000 0 0 1
28.678123 7.413385 9.099706 30.987056 0.252965 1.272741 0.105479 -0.019969 500565.000000 0 0 1
27.648653 7.682485 8.134706 29.826867 0.271024 1.294566 0.086175 -0.012744 478420.000000 0 0 1
27.826613 9.031685 7.675606 30.245771 0.313843 1.314216 0.097219 -0.028812 222791.000000 0 0 1
27.018983 9.378585 6.392406 29.306077 0.334099 1.350903 0.086323 -0.021295 429290.000000 0 0 1
25.631783 9.589085 6.606306 28.152835 0.357989 1.333929 0.082867 -0.018454 -34925.000000 0 0 1
24.954083 9.331985 5.398106 27.183299 0.357864 1.370886 0.098603 -0.031773 409685.000000 0 0 1
23.484783 9.856485 5.438906 26.043560 0.397370 1.360409 0.053554 -0.028032 234778.000000 0 0 1
23.489183 11.245985 5.709606 26.661086 0.446522 1.354970 0.048852 -0.005826 615039.000000 0 0 1
22.200283 11.846585 5.924206 25.851312 0.490183 1.339577 0.050833 -0.014885 497377.000000 0 0 1
22.105083 13.358385 6.238506 26.570662 0.543585 1.333795 0.049309 -0.005251 -205282.000000 0 0 1
22.305883 14.308285 5.184006 27.002840 0.570347 1.377617 0.054222 -0.013082 324434.000000 0 0 1
22.425783 15.659785 5.635906 27.926834 0.609580 1.367591 0.095207 -0.010737 -110931.000000 0 0 1
22.279283 16.688285 4.572706 28.209483 0.642893 1.407980 0.096242 -0.020168 -278594.000000 0 0 1
20.978783 16.711485 4.034406 27.123044 0.672658 1.421498 0.115204 -0.015586 127709.000000 0 0 1
20.722683 17.885785 3.287306 27.570587 0.712051 1.451280 0.099098 -0.018423 156823.000000 0 0 1
19.225083 18.091185 2.925106 26.560328 0.755021 1.460442 0.105219 -0.008996 120008.000000 0 0 1
18.434883 18.213185 4.099306 26.236793 0.779349 1.413911 0.108936 -0.021575 317723.000000 0 0 1
17.067583 18.121785 3.733606 25.172233 0.815347 1.421925 0.102415 -0.024157 -395593.000000 0 0 1
16.202283 19.218785 4.261006 25.495722 0.870354 1.402882 0.099081 -0.025676 98350.400000 0 0 1
14.804083 19.017985 4.022206 24.434049 0.909350 1.405429 0.093253 -0.025559 737492.000000 0 1 0
14.062083 20.195985 4.298506 24.981936 0.962571 1.397871 0.079004 -0.020766 1125040.000000 0 1 0
12.504283 20.039785 4.075206 23.969927 1.012936 1.399953 0.065011 -0.011041 1136970.000000 0 1 0
11.885583 19.554385 5.249306 23.477570 1.024645 1.345302 0.049443 -0.011050 906599.000000 0 1 0
10.450383 19.494585 5.134506 22.707103 1.078714 1.342705 0.043054 0.001329 1261690.000000 0 1 0
9.674383 18.917585 6.341006 22.173793 1.098073 1.280779 0.040952 0.000605 -251918.000000 0 1 0
9.512983 19.680985 7.505306 23.112067 1.120550 1.240064 0.042189 0.000636 -397555.000000 0 1 0
8.830983 18.982685 8.530006 22.607291 1.135364 1.183904 0.036824 0.001411 -65954.200000 0 1 0
7.609783 19.774085 9.103406 23.060686 1.203430 1.164991 0.030966 -0.006182 706251.000000 0 1 0
6.523483 19.821885 8.184606 22.415413 1.252856 1.197021 0.027523 -0.022170 9860.980000 0 1 0
6.572583 20.992385 7.390206 23.205479 1.267371 1.246683 0.028002 -0.016731 -4966.470000 0 1 0
5.244383 21.124985 6.565506 22.734873 1.327461 1.277838 0.018403 -0.011880 1528070.000000 0 1 0
3.942483 21.239685 7.159006 22.757829 1.387266 1.250789 0.019944 -0.022400 763192.000000 0 1 0
3.713783 22.352085 8.021806 24.036582 1.406151 1.230535 0.020204 -0.021995 -809273.000000 0 1 0
3.571483 23.815485 7.413306 25.197022 1.421941 1.272164 0.028094 -0.011465 -194469.000000 0 0 1
2.729883 23.824085 6.301506 24.794118 1.456709 1.313824 0.022814 -0.016308 -125275.000000 0 1 0
2.946083 25.017985 5.623106 25.810818 1.453578 1.351177 0.031743 -0.003453 -706290.000000 0 0 1
1.850083 25.323185 4.652106 25.813342 1.497867 1.389585 0.031321 -0.006531 -1388390.000000 0 0 1
0.686783 25.811785 5.206506 26.340608 1.544195 1.371825 0.040771 -0.013146 -1193980.000000 0 0 1
-0.249517 26.052485 4.197506 26.389644 -1.561219 1.411059 0.042125 -0.009766 861775.000000 0 0 1
-1.691117 26.284885 4.832206 26.778822 -1.506547 1.389354 0.040121 -0.012459 821102.000000 0 0 1
-2.586317 26.810885 3.926206 27.219987 -1.474629 1.426052 0.066867 -0.021294 378757.000000 0 0 1
-3.589317 27.730185 4.500306 28.321355 -1.442075 1.411218 0.054299 -0.017263 1411970.000000 0 0 1
-4.539517 28.296085 3.359706 28.854173 -1.411723 1.454094 0.048249 -0.021478 206076.000000 0 0 1
-3.932117 29.192785 2.528906 29.564770 -1.436907 1.485154 0.052520 -0.018084 327880.000000 0 0 1
-4.864817 29.606085 1.511806 30.041177 -1.407934 1.520451 0.068898 -0.024000 -138125.000000 0 0 1
-4.125517 30.396085 0.460406 30.678231 -1.435895 1.555788 0.061812 -0.021024 -495182.000000 0 0 1
-3.892217 31.718385 0.708406 31.964154 -1.448695 1.548632 0.058631 -0.018487 429934.000000 0 0 1
-2.827117 31.884585 1.661406 32.052764 -1.482360 1.518940 0.059550 -0.014492 -481369.000000 0 0 1
-2.259917 33.297385 1.828906 33.424063 -1.503030 1.516051 0.049616 -0.016750 -1134070.000000 0 0 1
-1.521517 33.618985 0.724106 33.661187 -1.525570 1.549283 0.032543 -0.005133 -450629.000000 0 0 1
-0.631117 -33.771817 0.781106 33.786744 1.552111 1.547676 0.031998 -0.002554 1810120.000000 0 0 1
0.723383 -34.057817 1.620506 34.104021 -1.549560 1.523262 0.026559 -0.000459 711107.000000 0 0 1
0.412483 -34.207317 2.985106 34.339796 -1.558739 1.483758 0.030809 -0.005201 14298.100000 0 0 1
1.525083 34.015985 3.818106 34.263553 1.525992 1.459131 0.031403 -0.005530 107228.000000 0 0 1
1.077983 34.206885 5.273406 34.627762 1.539293 1.417913 0.038533 -0.007513 155940.000000 0 0 1
-0.001317 33.396185 5.672506 33.874512 -1.570757 1.402547 0.030855 -0.016857 -110891.000000 0 0 1
-0.427517 33.734485 6.971806 34.450027 -1.558124 1.367014 0.040091 -0.022406 -499860.000000 0 0 1
0.592383 33.584885 8.076506 34.547437 1.553160 1.334833 0.043276 -0.017001 -370021.000000 0 0 1
1.017283 32.242085 8.366206 33.325371 1.539255 1.317035 0.042560 -0.024698 -313920.000000 0 0 1
2.234283 32.289185 9.044806 33.606428 1.501710 1.298297 0.049184 -0.021561 -565416.000000 0 0 1
2.841983 30.885785 9.218706 32.357274 1.479039 1.281890 0.038908 -0.024915 191210.000000 0 0 1
2.137183 30.094385 10.184906 31.842925 1.499899 1.245227 0.051738 -0.029260 529568.000000 0 0 1
2.790683 28.845285 10.212006 30.726592 1.474350 1.232001 0.049071 -0.028379 -141539.000000 0 0 1
2.354083 27.909385 11.334206 30.214892 1.486648 1.186270 0.044982 -0.026590 -705698.000000 0 0 1
2.654583 28.289185 12.620606 31.090264 1.477233 1.152795 0.045010 -0.021824 -313230.000000 0 0 1
2.437983 27.238785 13.573106 30.530712 1.481530 1.110100 0.046004 -0.016171 -529380.000000 0 0 1
0.967483 26.836585 13.866306 30.222720 1.534761 1.094148 0.035510 -0.016455 -4211.990000 0 0 1
0.233983 27.783785 14.610506 31.392043 1.562375 1.086686 0.035184 -0.020959 -86086.900000 0 0 1
-0.195817 28.846785 13.759306 31.960818 -1.564008 1.125744 0.044819 -0.026109 -1456170.000000 0 0 1
-1.062317 29.842585 14.449506 33.173734 -1.535214 1.120124 0.035227 -0.022020 -775401.000000 0 0 1
-2.350017 29.497585 14.867906 33.116231 -1.491296 1.105194 0.023924 -0.017274 -437172.000000 0 0 1
-2.827317 30.688185 15.452706 34.475275 -1.478925 1.106017 0.018143 -0.006985 -704915.000000 0 0 1
-4.138617 30.530285 16.223606 34.819992 -1.436060 1.086113 0.009856 0.009082 64367.600000 0 0 1
-5.144717 30.044985 15.332406 34.121136 -1.401207 1.104756 0.017292 -0.002023 901082.000000 0 0 1
-6.474117 30.083585 15.859106 34.618601 -1.358825 1.094929 0.022281 0.002477 600206.000000 0 0 1
-7.496017 29.182185 15.140106 33.719624 -1.319363 1.105151 0.008241 -0.004939 646581.000000 0 0 1
-8.810617 29.183185 15.703006 34.290956 -1.277591 1.095126 0.006094 -0.002316 414132.000000 0 0 1
-9.638417 28.224985 15.081906 33.421741 -1.241727 1.102619 0.015350 0.003668 730907.000000 0 0 1
-10.814717 27.775285 16.048906 33.852503 -1.199492 1.076874 0.018367 0.002591 495576.000000 0 0 1
-11.708017 28.815785 16.422306 35.172707 -1.184866 1.085009 0.019026 -0.000994 504340.000000 0 0 1
-11.283017 29.446685 17.641906 36.133788 -1.204884 1.060726 0.022575 -0.009373 -130790.000000 0 0 1
-12.191217 30.663985 17.951706 37.565537 -1.192383 1.072560 0.036937 -0.004797 -586526.000000 0 0 1
-13.199917 30.340985 18.825006 38.068282 -1.160442 1.053530 0.038911 -0.003289 -512352.000000 0 0 1
-13.972117 31.483885 19.172306 39.421218 -1.153122 1.062895 0.057342 -0.012609 272773.000000 0 0 1
-14.977217 31.166685 20.312806 40.103484 -1.122828 1.039664 0.061689 -0.011756 68013.500000 0 0 1
-14.389817 31.017185 21.558206 40.421391 -1.136418 1.008256 0.058155 -0.012744 -155779.000000 0 0 1
-15.383117 30.841685 22.549906 41.186747 -1.108128 0.991418 0.054334 -0.005898 262188.000000 0 0 1
-14.791517 30.691085 24.001906 41.675211 -1.121694 0.957058 0.047276 -0.001305 -819681.000000 0 0 1
-13.808717 29.702985 24.037306 40.629301 -1.135626 0.937724 0.035990 -0.006514 340686.000000 0 0 1
-13.231217 29.339785 25.332206 40.958623 -1.147140 0.903986 0.042791 -0.002021 168027.000000 0 0 1
-12.662417 30.501085 26.214906 42.164847 -1.177301 0.899854 0.036897 -0.006941 -1222800.000000 0 0 1
-13.638017 31.399385 26.618806 43.364476 -1.161041 0.909882 0.042832 -0.007980 -220884.000000 0 0 1
-13.145117 32.620085 27.173706 44.444059 -1.187727 0.912950 0.050283 -0.012012 129876.000000 0 0 1
-14.315817 33.539585 27.696306 45.792268 -1.167374 0.921250 0.064685 -0.020818 840962.000000 0 0 1
-15.071417 32.939985 28.748306 46.245598 -1.141688 0.899956 0.039454 -0.023271 451625.000000 0 0 1
-14.456517 33.185085 30.025606 47.029542 -1.159954 0.878325 0.048336 -0.009307 -34983.900000 0 0 1
-15.216917 32.458785 31.144606 47.488039 -1.132413 0.855500 0.028589 -0.009515 409523.000000 0 0 1
-16.484917 33.096485 31.361106 48.483490 -1.108681 0.867362 0.033987 -0.008059 366859.000000 0 0 1
-17.002017 32.626285 32.640506 49.182779 -1.090400 0.845099 0.022925 -0.008831 -239800.000000 0 0 1
-18.491917 32.895785 32.818006 50.011051 -1.058683 0.855005 0.021688 -0.007631 -395690.000000 0 0 1
-18.714417 34.238385 33.146906 51.197791 -1.070574 0.866591 0.036670 -0.010351 1413810.000000 0 0 1
-20.118617 -33.959817 33.454106 51.741716 1.035966 0.867730 0.021867 -0.014259 1530620.000000 0 0 1
-20.365017 -32.417317 33.538406 50.896376 1.009889 0.851368 0.029362 -0.006885 -180579.000000 0 0 1
-19.931517 -31.692317 -33.731841 50.393506 1.009392 2.304155 0.037840 -0.000956 176559.000000 0 0 1
-20.638217 -32.032617 -32.544241 50.111398 0.998447 2.277641 0.038701 -0.000791 106273.000000 0 0 1
-20.121217 -31.189517 -31.344341 48.581036 0.997854 2.272077 0.054448 -0.000976 58044.400000 0 0 1
-20.264717 -29.814717 -31.589041 47.931656 0.973833 2.290342 0.062895 0.002239 -46813.600000 0 0 1
-20.038417 -29.076417 -30.438141 46.620346 0.967380 2.282195 0.051419 0.002809 -26772.500000 0 0 1
-20.401217 -27.546817 -30.606541 45.954294 0.933337 2.299659 0.049185 -0.005856 -351293.000000 0 0 1
-21.781617 -27.384217 -30.495941 46.414832 0.898862 2.287669 0.054813 -0.004947 -657175.000000 0 0 1
-22.135017 -26.005217 -30.485741 45.777841 0.865620 2.299563 0.058153 -0.006915 421393.000000 0 0 1
-23.344217 -25.701017 -29.559541 45.598917 0.833415 2.276081 0.061086 -0.009008 238230.000000 0 0 1
-23.064217 -26.058017 -28.186541 44.782357 0.846269 2.251592 0.062091 -0.006341 48262.900000 0 0 1
-22.229817 -25.179517 -27.486141 43.401162 0.847536 2.256612 0.065063 -0.010467 -248358.000000 0 0 1
-22.045117 -25.630017 -26.007541 42.652986 0.860451 2.226538 0.063514 -0.003046 426834.000000 0 0 1
-23.281017 -25.550117 -25.296841 42.833917 0.831833 2.202573 0.061632 -0.005649 553326.000000 0 0 1
-23.181117 -26.123517 -24.011541 42.383446 0.845005 2.173086 0.060500 -0.003468 -562570.000000 0 0 1
-24.531517 -25.956817 -23.302441 42.644525 0.813621 2.148897 0.048614 -0.003957 -65581.500000 0 0 1
-25.628517 -26.755717 -23.676641 43.968996 0.806913 2.139434 0.039237 0.000180 -128236.000000 0 0 1
-25.467417 -28.152117 -23.413541 44.601849 0.835426 2.123447 0.055949 -0.002545 -1793380.000000 0 0 1
-26.767717 -28.920017 -23.406341 45.833775 0.824028 2.106771 0.021160 0.002413 -342196.000000 0 0 1
-27.639517 -28.558517 -22.342141 45.592797 0.801750 2.082928 0.008740 0.008246 34838.800000 0 0 1
-28.705217 -27.743717 -22.795441 45.971029 0.768367 2.089627 0.008200 0.006453 -133502.000000 0 0 1
-29.440517 -27.005617 -21.645741 45.437711 0.742288 2.067332 0.010619 0.008354 98627.700000 0 0 1
-30.052417 -27.943217 -20.762841 45.989855 0.749046 2.039204 -0.006304 0.009698 168964.000000 0 0 1
-30.433917 -27.381117 -19.545141 45.364760 0.732644 2.016224 -0.011969 0.011265 -666649.000000 0 0 1
-31.056617 -28.449717 -18.573141 46.031092 0.741617 1.986126 -0.016641 0.017087 240977.000000 0 0 1
-32.383017 -28.900217 -18.809941 47.304294 0.728628 1.979736 -0.010145 0.010348 913982.000000 0 0 1
-33.455517 -27.960117 -18.630741 47.414600 0.696157 1.974615 -0.009149 0.014415 114746.000000 0 0 1
-33.798417 -27.426617 -17.171241 46.791066 0.681700 1.946553 0.006162 0.015977 -251488.000000 0 0 1
-32.834017 -26.584117 -16.538041 45.368434 0.680598 1.943922 0.001192 0.018163 630558.000000 0 0 1
-33.419617 -25.969317 -15.374841 45.029568 0.660601 1.919244 0.010776 0.011682 254287.000000 0 0 1
-33.364817 -26.755517 -14.091741 45.029390 0.675903 1.889089 0.013019 0.013963 -141473.000000 0 0 1
-34.186817 -27.894117 -14.106441 46.322910 0.684380 1.880235 0.023292 0.008709 173261.000000 0 0 1
-33.998417 -28.613317 -12.866741 46.261943 0.699601 1.852641 0.015894 -0.001969 -184092.000000 0 0 1
-34.757417 -29.947817 -12.818341 47.636747 0.711204 1.843239 0.035066 -0.002775 -294862.000000 0 0 1
-34.308617 -30.935517 -13.693841 48.183075 0.733744 1.858973 0.031715 -0.007024 58415.500000 0 0 1
-34.763617 -32.215317 -13.349641 49.239706 0.747370 1.845348 0.035329 -0.011992 -11926.000000 0 0 1
-34.119517 -33.166817 -14.409841 49.717429 0.771240 1.864851 0.037027 0.008603 1479670.000000 0 0 1
-32.782417 -33.689917 -14.165441 49.095388 0.799050 1.863486 0.023910 -0.000663 981122.000000 0 0 1
-32.172517 34.199085 -15.241041 49.365349 -0.815922 1.884664 0.047640 -0.017964 635023.000000 0 0 1
-30.680717 33.784085 -14.971341 48.029282 -0.833502 1.887791 0.034988 -0.019901 903049.000000 0 0 1
-30.211417 33.062985 -16.088041 47.589030 -0.830434 1.915653 0.053270 -0.013065 331821.000000 0 0 1
-28.807117 32.773785 -15.920641 46.448228 -0.849723 1.920651 0.030534 -0.013577 819264.000000 0 0 1
9.771336 20.162585 -9.284394 24.253017 1.119522 1.963637 0.047901 -0.007103 -586865.000000 0 1 0
8.407436 19.863385 -9.362494 23.513727 1.170398 1.980319 0.037748 -0.011190 -342792.000000 0 1 0
7.892136 19.897185 -10.685894 23.924300 1.193185 2.033819 0.038771 -0.015753 212251.000000 0 1 0
7.833636 18.556585 -11.418594 23.153769 1.171343 2.086519 0.038727 -0.009962 -463781.000000 0 1 0
9.066036 18.290885 -12.020794 23.690694 1.110628 2.102968 0.061533 -0.015104 -265227.000000 0 1 0
9.046536 16.960485 -12.552794 22.958016 1.080796 2.149300 0.059136 -0.026755 657135.000000 0 1 0
10.375136 16.620685 -13.320594 23.692380 1.012751 2.167878 0.077823 -0.018573 929993.000000 0 1 0
10.151936 15.388885 -14.031394 23.168073 0.987637 2.221360 0.081039 -0.031637 -175501.000000 0 1 0
11.275936 15.130585 -14.810694 23.988289 0.930348 2.236247 0.081473 -0.029960 -853657.000000 0 1 0
11.188036 13.781985 -15.585194 23.622310 0.888909 2.291303 0.067744 -0.034931 -353727.000000 0 1 0
11.105736 12.661885 -14.731194 22.375629 0.850778 2.289433 0.078629 -0.036986 486863.000000 0 1 0
12.299936 12.245385 -14.078794 22.348385 0.783176 2.252310 0.094901 -0.037888 50147.000000 0 1 0
13.336236 11.383785 -14.848594 22.976651 0.706579 2.273453 0.102968 -0.042802 -25490.200000 0 1 0
13.807536 12.204585 -15.960294 24.378903 0.723853 2.284551 0.075068 -0.024931 394186.000000 0 1 0
14.780836 11.529285 -16.744794 25.135347 0.662436 2.299878 0.074481 -0.029876 78915.100000 0 0 1
15.334736 12.344985 -17.961794 26.649181 0.677803 2.310419 0.043315 -0.026606 -249985.000000 0 0 1
16.195636 13.323985 -17.491494 27.308965 0.688424 2.265950 0.020991 -0.008533 -314960.000000 0 0 1
16.889336 14.008785 -18.518394 28.712831 0.692439 2.271757 0.007750 -0.002896 967118.000000 0 0 1
18.120136 14.913585 -18.044394 29.603285 0.688632 2.226277 0.004952 0.012116 632590.000000 0 0 1
17.784436 16.200585 -17.596694 29.805851 0.738827 2.202322 0.010867 0.006526 197701.000000 0 0 1
17.207736 17.151585 -18.455894 30.510704 0.783764 2.220435 0.013096 0.009070 -288379.000000 0 0 1
17.145836 18.611885 -17.883594 30.987173 0.826375 2.186005 0.015777 0.014558 50417.500000 0 0 1
18.262936 19.456485 -18.048794 32.215658 0.817030 2.165483 0.021607 0.008412 280409.000000 0 0 1
17.834936 20.716285 -17.558194 32.489069 0.860000 2.141749 0.008120 0.006914 198866.000000 0 0 1
18.776436 21.895385 -17.911194 33.952516 0.861934 2.126495 0.027605 -0.001593 -403023.000000 0 0 1
20.047736 21.986485 -17.371494 34.454115 0.831489 2.099243 0.035720 -0.004210 -753754.000000 0 0 1
20.005936 22.907485 -16.308394 34.510202 0.852909 2.062998 0.039389 -0.005865 794414.000000 0 0 1
21.352836 23.267285 -15.557894 35.204520 0.828277 2.028544 0.057178 -0.010765 316720.000000 0 0 1
21.599136 22.322785 -14.589094 34.317213 0.801872 2.009896 0.051173 -0.007816 -30581.400000 0 0 1
22.382636 22.891685 -13.534494 34.759088 0.796641 1.970755 0.058508 -0.009734 -294694.000000 0 0 1
23.892936 22.733285 -13.612294 35.678694 0.760532 1.962241 0.059904 -0.010686 -772868.000000 0 0 1
24.376236 23.295285 -14.816494 36.829332 0.762727 1.984826 0.063057 -0.009737 -160903.000000 0 0 1
25.786436 23.376385 -14.798094 37.820355 0.736416 1.972811 0.069583 -0.008315 73541.200000 0 0 1
26.508936 23.945085 -16.034394 39.156003 0.734626 1.992703 0.070682 0.003527 -176055.000000 0 0 1
26.654636 22.982385 -17.096194 39.127222 0.711551 2.022989 0.069003 -0.011357 434233.000000 0 0 1
27.101136 23.506585 -18.390994 40.314511 0.714490 2.044503 0.058118 0.002216 -340230.000000 0 0 1
27.444636 22.513585 -19.545594 40.522831 0.687013 2.074115 0.054387 -0.008785 -276939.000000 0 0 1
28.787736 22.115085 -19.560394 41.236146 0.655055 2.065023 0.045421 0.001098 -581080.000000 0 0 1
28.967936 21.455285 -20.754594 41.595958 0.637494 2.093191 0.063413 -0.015462 558205.000000 0 0 1
30.450436 21.460985 -21.230494 42.878162 0.613930 2.088787 0.087758 -0.026033 418446.000000 0 0 1
30.862936 22.739085 -21.766294 44.083538 0.634984 2.087194 0.061966 -0.008982 -442299.000000 0 0 1
32.262136 22.790385 -21.825094 45.128503 0.615017 2.075583 0.102273 -0.020738 -373160.000000 0 0 1
32.676036 24.238385 -22.041394 46.271435 0.638219 2.067295 0.100758 -0.016640 -137689.000000 0 0 1
32.727936 24.708885 -23.400694 47.214821 0.646680 2.089347 0.083671 -0.010162 -231225.000000 0 0 1
31.507436 24.638285 -24.082994 46.687838 0.663658 2.112773 0.066778 -0.010388 -755944.000000 0 0 1
31.575136 25.112185 -25.565344 47.761887 0.671878 2.135620 0.068121 -0.014598 -200367.000000 0 0 1
31.497636 26.528285 -25.696114 48.540100 0.699966 2.128665 0.071389 -0.015323 157601.000000 0 0 1
30.294236 27.076385 -26.237754 48.366219 0.729368 2.144184 0.054935 -0.009448 151089.000000 0 0 1
29.984236 26.931485 -27.749244 48.932401 0.731813 2.173769 0.061720 -0.007775 -148670.000000 0 0 1
29.417636 25.638885 -27.843814 47.937748 0.716872 2.190548 0.064407 -0.016265 -84965.500000 0 0 1
29.264536 25.286985 -29.202834 48.462874 0.712613 2.217528 0.063277 -0.020974 -155445.000000 0 0 1
28.587436 23.893685 -29.438204 47.484287 0.696199 2.239484 0.064378 -0.025275 -140437.000000 0 0 1
27.247136 23.973585 -29.032904 46.476324 0.721574 2.245520 0.053249 -0.020665 -504437.000000 0 0 1
26.588436 22.745285 -29.296054 45.634983 0.707654 2.267854 0.059462 -0.026349 -306434.000000 0 0 1
25.196436 22.721285 -28.666694 44.417300 0.733790 2.272336 0.042676 -0.018738 -455497.000000 0 0 1
25.226336 22.561685 -27.287324 43.474081 0.729696 2.249351 0.033975 -0.004878 403480.000000 0 0 1
23.924836 22.483485 -26.712654 42.325770 0.754350 2.253793 0.034887 -0.013448 201330.000000 0 0 1
23.841436 22.631985 -25.196134 41.418184 0.759379 2.224757 0.037610 -0.006865 -44458.100000 0 0 1
24.276536 21.446185 -24.504394 40.617169 0.723575 2.218431 0.030803 -0.005134 184954.000000 0 0 1
24.665936 21.713385 -23.214494 40.234217 0.721823 2.185827 0.036172 -0.005163 -259642.000000 0 0 1
25.157836 20.594385 -22.359394 39.458686 0.685984 2.173235 0.050125 -0.005498 190644.000000 0 0 1
26.370136 20.013085 -22.828194 40.212362 0.649192 2.174495 0.039368 -0.007993 232996.000000 0 0 1
26.445336 18.607085 -22.660394 39.485097 0.613142 2.182053 0.079625 -0.010471 -656486.000000 0 0 1
27.689736 17.962885 -23.237094 40.365199 0.575475 2.184221 0.095827 -0.017296 -553115.000000 0 0 1
28.909336 18.262985 -22.606294 40.991839 0.563426 2.154937 0.126231 -0.035388 -416197.000000 0 0 1
29.935236 17.670885 -23.376194 41.890631 0.533259 2.162805 0.119450 -0.024681 107278.000000 0 0 1
31.229936 17.402885 -22.562394 42.275654 0.508392 2.133763 0.122360 -0.028357 118278.000000 0 0 1
31.780936 18.580885 -22.068094 42.921766 0.529060 2.110809 0.109976 -0.024644 469601.000000 0 0 1
33.169736 18.419485 -21.743294 43.729620 0.506911 2.091189 0.111571 -0.028471 929854.000000 0 0 1
33.796736 19.568685 -20.949794 44.317566 0.524844 2.063171 0.091450 -0.042022 85749.200000 0 0 1
33.269736 19.697685 -19.620194 43.356962 0.534561 2.040393 0.110657 -0.038368 51064.700000 0 0 1
33.876136 20.745385 -18.919694 43.999073 0.549480 2.015291 0.087648 -0.022233 -48355.700000 0 0 1
33.406736 20.745185 -17.439594 43.017580 0.555709 1.988219 0.084933 -0.030668 64721.100000 0 0 1
33.687936 19.581985 -16.713794 42.399081 0.526538 1.975995 0.087008 -0.039886 199229.000000 0 0 1
33.360636 19.852185 -15.372194 41.753391 0.536793 1.947832 0.085045 -0.031650 -184677.000000 0 0 1
33.651236 18.607185 -14.441194 41.075310 0.505099 1.930053 0.068943 -0.025018 303446.000000 0 0 1
35.058436 18.399885 -14.308994 42.099846 0.483317 1.917588 0.044763 -0.028127 515026.000000 0 0 1
35.377836 17.384785 -13.360494 41.621206 0.456747 1.897584 0.038648 -0.012219 102252.000000 0 0 1
35.109736 17.812685 -11.860894 41.117710 0.469505 1.863416 0.045493 -0.017571 -388627.000000 0 0 1
35.970836 18.877985 -11.480694 42.214757 0.483301 1.846225 0.035340 -0.021162 160947.000000 0 0 1
35.663736 19.471485 -10.229594 41.900900 0.499747 1.817427 0.035522 -0.015992 81646.800000 0 0 1
34.393236 20.394285 -10.246394 41.277235 0.535237 1.821653 0.036699 -0.021131 428491.000000 0 0 1
33.230636 19.649185 -10.481194 40.002763 0.533996 1.835903 0.059625 -0.031622 -1217150.000000 0 0 1
32.066236 20.362385 -10.220894 39.336203 0.565765 1.833647 0.051582 -0.023198 1416.590000 0 0 1
30.765836 19.514685 -10.359194 37.877071 0.565257 1.847821 0.064692 -0.020843 299842.000000 0 0 1
30.604636 19.223185 -11.715794 37.992557 0.560835 1.884276 0.074532 -0.029549 -253850.000000 0 0 1
29.481736 18.414285 -11.946394 36.755612 0.558311 1.901832 0.080787 -0.026274 -167058.000000 0 0 1
29.377736 18.127985 -13.455794 37.050420 0.552873 1.942470 0.108340 -0.027846 -21268.900000 0 0 1
30.458736 17.388885 -13.946494 37.744041 0.518747 1.949269 0.095479 -0.018675 -166371.000000 0 0 1
30.042436 16.804985 -15.111394 37.594012 0.510012 1.984456 0.074848 -0.005199 -163320.000000 0 0 1
31.145236 15.964285 -15.738794 38.374389 0.473657 1.993402 0.095431 -0.018527 -136960.000000 0 0 1
31.797336 15.087085 -14.823194 38.189237 0.443021 1.969421 0.074150 -0.015020 204443.000000 0 0 1
32.955636 14.563985 -15.446594 39.201797 0.416120 1.975806 0.081458 -0.019443 81783.100000 0 0 1
33.730436 13.555885 -14.566794 39.162429 0.382134 1.951914 0.050143 -0.023731 -529658.000000 0 0 1
34.407936 14.095285 -13.503994 39.559335 0.388799 1.919160 0.055376 -0.015608 -357246.000000 0 0 1
34.971836 13.072285 -12.737694 39.448229 0.357714 1.899585 0.046931 -0.013505 -158620.000000 0 0 1
35.943936 13.616885 -11.664694 40.167788 0.362130 1.865440 0.060718 -0.012777 -124543.000000 0 0 1
-35.505011 14.061885 -12.238994 40.101564 -0.377100 1.880945 0.034886 -0.015866 -933378.000000 0 0 1
-34.649011 14.374085 -11.215294 39.152920 -0.393241 1.861314 0.031030 -0.014185 -667156.000000 0 0 1
-33.186611 14.688785 -11.616994 38.105985 -0.416693 1.880588 0.046158 -0.019076 203660.000000 0 0 1
-32.390311 13.676985 -12.193194 37.213790 -0.399544 1.904614 0.053353 -0.016936 215611.000000 0 0 1
-31.957611 12.627485 -11.304194 36.173569 -0.376303 1.888619 0.070166 -0.012003 -11882.200000 0 0 1
-30.781711 11.780485 -11.924394 35.049747 -0.365513 1.917940 0.085701 -0.011594 397763.000000 0 0 1
-31.074311 10.988785 -13.043494 35.447129 -0.339904 1.947622 0.073309 -0.006918 114765.000000 0 0 1
-30.208711 9.870685 -12.971794 34.325852 -0.315814 1.958325 0.097857 -0.013320 -38321.500000 0 0 1
-30.092111 9.038285 -14.296294 34.519701 -0.291782 1.997804 0.106424 -0.017872 -465192.000000 0 0 1
-31.266811 8.359785 -14.621694 35.514693 -0.261258 1.995124 0.095309 -0.016800 -147622.000000 0 0 1
-31.109111 7.428485 -15.681394 35.621136 -0.234399 2.026648 0.102556 -0.028180 -617080.000000 0 0 1
-32.429011 7.021785 -16.328494 36.980616 -0.213236 2.028113 0.089915 -0.032104 -805323.000000 0 0 1
-33.289311 6.402985 -15.422394 37.242807 -0.190023 1.997754 0.100145 -0.032305 69334.100000 0 0 1
-34.263211 5.717585 -16.216894 38.335963 -0.165349 2.007572 0.065009 -0.035343 -544035.000000 0 0 1
-35.314911 5.066285 -15.364494 38.844277 -0.142488 1.977453 0.064076 -0.027892 -810072.000000 0 0 1
36.277636 4.411885 -16.009594 39.897853 0.121020 1.983693 0.056016 -0.021397 -327744.000000 0 0 1
35.306436 4.092485 -15.075794 38.607932 0.115398 1.971954 0.060066 -0.023557 -23375.700000 0 0 1
34.443336 2.818885 -15.364894 37.820226 0.081659 1.989155 0.054719 -0.021646 518808.000000 0 0 1
35.173736 1.591885 -15.140794 38.327137 0.045227 1.976909 0.059281 -0.020070 219786.000000 0 0 1
34.318436 0.511185 -15.190894 37.533713 0.014894 1.987476 0.063540 -0.003274 245067.000000 0 0 1
33.379836 0.232985 -13.960494 36.182359 0.006980 1.966911 0.074961 -0.017488 272722.000000 0 0 1
34.123136 -0.278615 -12.858294 36.466447 -0.008165 1.931151 0.087602 -0.016968 217125.000000 0 0 1
33.585836 -0.095315 -11.590194 35.529566 -0.002838 1.903091 0.091276 -0.007272 -492670.000000 0 0 1
33.848136 1.249185 -10.854794 35.568010 0.036889 1.880928 0.093578 -0.014335 -211700.000000 0 0 1
33.125536 2.272185 -11.512394 35.142555 0.068486 1.904549 0.089727 -0.012985 388947.000000 0 0 1
33.272136 3.585185 -10.919394 35.201161 0.107339 1.886200 0.091939 -0.018137 -229931.000000 0 0 1
32.337436 4.627885 -11.603494 34.666528 0.142147 1.912102 0.083607 -0.017942 102060.000000 0 0 1
32.562236 4.873185 -12.943194 35.377583 0.148555 1.945352 0.076536 -0.018598 841613.000000 0 0 1
31.559236 5.810785 -13.373994 34.765131 0.182084 1.965674 0.076944 -0.022410 286037.000000 0 0 1
31.900436 6.433985 -14.732294 35.722184 0.199020 1.995898 0.053762 -0.020801 -633646.000000 0 0 1
31.705436 5.618785 -15.874794 35.900063 0.175397 2.028840 0.044192 -0.007881 196838.000000 0 0 1
31.957336 6.254285 -17.166994 36.811589 0.193265 2.055954 0.036813 -0.003221 -832605.000000 0 0 1
30.839136 7.199985 -17.693394 36.276001 0.229361 2.080300 0.049015 -0.007795 1219960.000000 0 0 1
29.523136 6.692685 -18.014794 35.226984 0.222925 2.107600 0.046842 -0.006362 1404890.000000 0 0 1
28.860236 5.934785 -17.030894 34.032135 0.202812 2.094898 0.044601 -0.002051 -1641310.000000 0 0 1
27.439436 5.534185 -17.445694 32.983361 0.199017 2.128129 0.046852 0.003560 -416868.000000 0 0 1
27.315936 4.608385 -18.504194 33.313702 0.167133 2.159704 0.050460 -0.006529 221295.000000 0 0 1
26.287536 5.021885 -19.374394 33.039688 0.188762 2.197401 0.050299 -0.016350 -190044.000000 0 0 1
25.934036 3.864985 -20.338994 33.184138 0.147943 2.230538 0.043700 0.007261 -53359.400000 0 0 1
25.247536 2.833485 -19.655494 32.121724 0.111761 2.229265 0.047765 -0.008956 218059.000000 0 0 1
24.661336 1.859285 -20.467494 32.102286 0.075250 2.262138 0.054905 -0.011557 -702774.000000 0 0 1
23.771736 0.899885 -19.718094 30.898357 0.037837 2.262902 0.056309 -0.016743 -654220.000000 0 0 1
22.479436 1.435085 -19.668894 29.904011 0.063753 2.288603 0.048797 -0.023113 -273010.000000 0 0 1
21.623536 0.821285 -18.726394 28.616947 0.037963 2.284160 0.051372 -0.022949 373607.000000 0 0 1
20.290936 1.615885 -18.562294 27.547993 0.079468 2.310158 0.049037 -0.027820 -646348.000000 0 0 1
19.450536 1.519585 -19.716094 27.737283 0.077967 2.361453 0.049098 -0.026835 441050.000000 0 0 1
18.346736 2.397885 -19.710794 27.034570 0.129962 2.387796 0.031892 -0.020568 -15460.200000 0 0 1
17.206336 2.179685 -18.718794 25.518665 0.126008 2.394303 0.048751 -0.021391 -1359580.000000 0 0 1
17.586536 2.498985 -17.401094 24.866227 0.141152 2.345897 0.062716 -0.018803 8090.260000 0 1 0
16.547636 2.292585 -16.472994 23.461452 0.137668 2.349181 0.045171 -0.008057 -205871.000000 0 1 0
15.509836 3.400085 -16.266994 22.731711 0.215807 2.368290 0.056913 -0.014132 -144451.000000 0 1 0
14.638736 3.459885 -17.369094 22.977137 0.232092 2.427869 0.041664 -0.013767 523571.000000 0 1 0
13.500936 4.311785 -17.207394 22.292626 0.309131 2.452601 0.039133 -0.017206 388443.000000 0 1 0
-19.995164 -21.911315 -17.873294 34.631877 0.831091 2.113080 0.047238 -0.006786 -102718.000000 0 0 1
-19.809164 -22.568915 -19.082394 35.579441 0.850428 2.136882 0.056193 -0.013596 311130.000000 0 0 1
-20.822064 -22.326415 -20.042894 36.520470 0.820249 2.151739 0.054715 -0.005918 17855.500000 0 0 1
-20.558064 -23.208715 -21.291794 37.611420 0.845887 2.172562 0.047872 -0.001285 76698.800000 0 0 1
-20.416864 -24.587115 -20.975094 38.227335 0.877798 2.151597 0.048666 -0.010019 303463.000000 0 0 1
-19.935064 -25.394185 -22.049694 39.095529 0.905254 2.170012 0.047497 -0.014398 99967.400000 0 0 1
-19.715664 -26.878565 -21.696294 39.773029 0.937933 2.147785 0.053407 -0.004993 -349640.000000 0 0 1
-20.942064 -27.533335 -21.619594 40.792909 0.920541 2.129378 0.061294 0.008827 -349721.000000 0 0 1
-20.748964 -28.945605 -21.474994 41.587774 0.948867 2.113412 0.090454 -0.023611 -19465.800000 0 0 1
-22.017564 -29.726265 -21.847794 42.962193 0.933289 2.104279 0.082057 -0.016863 178034.000000 0 0 1
-22.650464 -29.679705 -23.143294 43.926535 0.918924 2.125703 0.065424 -0.010441 410545.000000 0 0 1
-21.837964 -30.160955 -24.205994 44.412949 0.944113 2.147211 0.067618 -0.013852 -248794.000000 0 0 1
-22.351464 -29.673905 -25.548124 45.086974 0.925227 2.173220 0.058087 -0.004702 -242562.000000 0 0 1
-23.590764 -30.232925 -25.910364 46.280675 0.908183 2.165004 0.054760 0.000573 -5794.840000 0 0 1
-24.228964 -29.470355 -26.925684 46.696220 0.882696 2.185374 0.047958 0.003071 -227450.000000 0 0 1
-23.653664 -29.492165 -28.342434 47.250155 0.894817 2.214095 0.048792 -0.002778 -397426.000000 0 0 1
-24.087264 -30.680585 -29.036614 48.627354 0.905208 2.210709 0.045075 0.005614 403560.000000 0 0 1
-23.785764 -30.591265 -30.407484 49.256503 0.909905 2.236140 0.057573 0.008939 -50740.100000 0 0 1
-24.370864 -31.821315 -31.156994 50.767050 0.917218 2.231566 0.040374 0.005796 381138.000000 0 0 1
-23.674164 -33.087445 -30.862784 51.066197 0.949741 2.219769 0.040948 -0.000169 498416.000000 0 0 1
-24.508164 -34.188191 -31.233594 52.392937 0.948844 2.209483 0.040717 -0.000656 -150390.000000 0 0 1
-24.009664 32.826153 -31.054164 51.170122 -0.939294 2.222926 0.052033 -0.005547 -538625.000000 0 0 1
-22.979164 32.582226 -31.943484 51.088449 -0.956544 2.246259 0.045949 -0.017923 -594079.000000 0 0 1
-22.528064 31.272718 -31.795074 49.964220 -0.946527 2.260563 0.062369 -0.015285 -559029.000000 0 0 1
-21.542164 30.763128 -32.837784 49.887423 -0.959896 2.289272 0.057953 -0.007995 -236674.000000 0 0 1
-22.128164 30.269488 -34.018904 50.627892 -0.939541 2.307621 0.044720 -0.000276 198370.000000 0 0 1
-21.294864 29.268658 33.880008 49.578025 -0.941809 0.818431 0.032802 -0.000306 193966.000000 0 0 1
-21.308364 29.211928 32.324953 48.500368 -0.940584 0.841307 0.019514 -0.007518 437961.000000 0 0 1
-20.370864 30.158668 31.758713 48.302518 -0.976733 0.853306 0.017347 -0.001868 812349.000000 0 0 1
-20.459864 30.217728 30.378593 47.482376 -0.975618 0.876576 0.021997 0.002038 -94846.100000 0 0 1
-19.901964 31.560328 29.770993 47.733160 -1.008180 0.897334 0.012639 -0.013485 -219196.000000 0 0 1
-20.857464 32.563638 29.802493 48.822259 -1.001119 0.914195 0.007796 -0.009749 48504.000000 0 0 1
-20.286664 33.738360 29.248983 49.044151 -1.029426 0.931812 0.006071 -0.024358 534830.000000 0 0 1
-21.303264 -33.537245 29.335873 49.387947 1.004887 0.934789 0.014156 -0.027409 500058.000000 0 0 1
-21.438264 -32.958125 30.676713 49.868807 0.994091 0.908222 0.006948 -0.016979 387381.000000 0 0 1
-22.558964 -32.066715 30.849883 49.888840 0.957725 0.904126 0.019485 -0.015092 328613.000000 0 0 1
-22.442264 -30.628595 30.391953 48.635757 0.938445 0.895807 0.030631 -0.014584 -480412.000000 0 0 1
-22.125764 -30.575655 28.992873 47.592087 0.944380 0.915751 0.024866 -0.016145 -32209.400000 0 0 1
-22.210264 -29.260225 28.476833 46.479959 0.921522 0.911363 0.038648 -0.022996 148287.000000 0 0 1
-23.644564 -28.831275 28.068923 46.670893 0.883918 0.925516 0.035110 -0.012258 -725550.000000 0 0 1
-24.558264 -28.546605 29.099243 47.589735 0.860361 0.912891 0.037743 -0.007447 573806.000000 0 0 1
-25.728074 -29.395205 28.953633 48.624322 0.851826 0.932963 0.027108 -0.003808 974869.000000 0 0 1
-26.752014 -29.241105 27.778803 48.398082 0.829822 0.959457 0.019028 -0.005827 -793645.000000 0 0 1
-26.329894 -29.641745 26.470113 47.671409 0.844499 0.982119 0.012496 0.004180 60732.400000 0 0 1
-27.270754 -29.403655 25.397923 47.469184 0.823015 1.006241 0.018493 0.005272 -4382.700000 0 0 1
-26.828414 -29.722195 23.946073 46.653907 0.836525 1.031805 0.014606 0.008084 -826705.000000 0 0 1
-25.937694 -28.681405 23.552543 45.278132 0.835590 1.023741 -0.006793 0.004501 169417.000000 0 0 1
-25.309414 -28.868945 22.315953 44.407028 0.851004 1.044271 0.009816 0.001468 -127686.000000 0 0 1
-24.137264 -29.856815 22.399553 44.449712 0.890934 1.042653 0.006980 -0.007448 -1325840.000000 0 0 1
-24.535064 -31.195805 22.039653 45.397069 0.904350 1.063877 -0.004128 -0.010683 358909.000000 0 0 1
-23.460364 -32.081845 21.783853 45.322949 0.939393 1.069416 0.012157 0.004357 -33939.700000 0 0 1
-22.731564 -32.721345 23.006553 46.007737 0.963635 1.047130 0.012822 -0.003893 105966.000000 0 0 1
-21.999764 -31.754195 23.759533 45.352331 0.964909 1.019387 0.041168 -0.017093 249091.000000 0 0 1
-21.366364 -32.485485 24.824563 46.131195 0.989013 1.002580 0.050399 -0.031600 -23614.400000 0 0 1
-20.304764 -31.640015 25.603343 45.485219 1.000247 0.972914 0.054377 -0.020480 -1413840.000000 0 0 1
-19.147164 -31.318535 24.926743 44.371241 1.022060 0.974264 0.069342 -0.026152 -560948.000000 0 0 1
-18.279864 -30.515775 25.718333 43.895314 1.031090 0.944804 0.078697 -0.032176 189301.000000 0 0 1
-17.440664 -31.304245 26.759913 44.723880 1.062492 0.929373 0.061775 -0.042734 -945523.000000 0 0 1
-18.217164 -31.888205 27.793293 46.056376 1.051761 0.922960 0.049503 -0.040204 281121.000000 0 0 1
-17.378964 -32.625595 28.691283 46.793670 1.081349 0.910761 0.054860 -0.033590 39867.600000 0 0 1
-17.610964 -32.169295 30.157833 47.481622 1.069916 0.882597 0.058040 -0.032819 -36361.800000 0 0 1
-17.233764 -30.817825 30.289963 46.521208 1.060906 0.861763 0.056538 -0.028668 179979.000000 0 0 1
-17.695964 -30.237155 31.537573 47.138638 1.041301 0.837882 0.052786 -0.022583 29084.000000 0 0 1
-17.614864 -28.682795 31.717983 46.249504 1.020054 0.815092 0.044100 -0.025398 199329.000000 0 0 1
-18.505164 -27.941515 30.874693 45.567708 0.985835 0.826361 0.057643 -0.024370 152685.000000 0 0 1
-18.512864 -28.097015 29.435323 44.705778 0.988196 0.852074 0.071094 -0.022533 -16978.600000 0 0 1
-17.217564 -27.803385 28.612863 43.453063 1.016334 0.852002 0.057067 -0.015642 297040.000000 0 0 1
-16.811664 -26.458275 28.655643 42.471381 1.004751 0.830232 0.044702 -0.006370 763115.000000 0 0 1
-15.620364 -26.290735 27.852013 41.363428 1.034697 0.832067 0.042203 -0.004665 703580.000000 0 0 1
-15.461864 -24.838315 27.346423 40.047946 1.013996 0.819150 0.036064 0.001297 -100970.000000 0 0 1
-16.364464 -24.555515 26.283613 39.517051 0.982959 0.843141 0.061318 -0.011845 235872.000000 0 0 1
-15.981364 -23.396815 25.520993 38.133135 0.971532 0.837584 0.047245 -0.006416 -18159.300000 0 0 1
-16.770964 -22.162415 25.977453 38.042948 0.923002 0.819146 0.054992 -0.007582 -569533.000000 0 0 1
-16.690464 -21.109015 25.061103 36.772557 0.901765 0.820963 0.039073 -0.001131 43707.100000 0 0 1
-17.299064 -19.898015 25.469533 36.659047 0.855155 0.802699 0.048403 -0.006859 -296443.000000 0 0 1
-17.030764 -18.752115 24.453653 35.208946 0.833467 0.803031 0.041066 -0.011706 -322015.000000 0 0 1
-15.705264 -18.331815 24.593653 34.460971 0.862413 0.776077 0.035583 -0.012555 -630063.000000 0 0 1
-15.444764 -17.405315 23.513803 33.081485 0.845009 0.780184 0.028914 -0.012476 714401.000000 0 0 1
-14.055464 -16.673915 23.599073 32.132410 0.870403 0.745967 0.042087 -0.012603 -758733.000000 0 0 1
-12.953364 -17.509815 23.593463 32.109730 0.933870 0.745460 0.004619 0.000030 33193.500000 0 0 1
-11.755064 -16.705415 23.707433 31.293686 0.957613 0.711201 0.007723 -0.006574 290416.000000 0 0 1
-11.326964 -15.887715 22.406053 29.711123 0.951439 0.716468 0.012950 -0.009215 -914730.000000 0 0 1
-10.729064 -16.712415 21.450953 29.232875 1.000079 0.746904 0.045046 0.001442 -422999.000000 0 0 1
-9.435364 -17.181315 21.696953 29.240066 1.068595 0.734706 0.039319 0.004363 -1009760.000000 0 0 1
-9.177164 -18.375215 20.769053 29.209971 1.107603 0.779840 0.040853 0.008957 -473653.000000 0 0 1
-8.770664 -18.065215 19.490553 27.984964 1.118816 0.800337 0.041904 0.003523 -224653.000000 0 0 1
-8.299164 -19.252315 18.925953 28.243928 1.163793 0.836467 0.041797 0.002548 9062.080000 0 0 1
-8.064264 -19.136715 17.386553 27.083915 1.171977 0.873756 0.038231 -0.009254 7156.040000 0 0 1
-7.128164 -18.154715 17.031153 25.893330 1.196656 0.852978 0.052428 -0.007835 -308586.000000 0 0 1
-7.109364 -18.042915 15.643953 24.916322 1.195451 0.891996 0.074015 -0.012613 203216.000000 0 1 0
-6.084464 -16.970615 15.213753 23.589844 1.226543 0.869867 0.048369 -0.012945 168549.000000 0 1 0
-6.322964 -15.749915 15.806253 23.192182 1.189032 0.820940 0.047215 -0.016018 -37532.200000 0 1 0
-5.144764 -14.966115 15.790653 22.356160 1.239691 0.786507 0.031624 -0.002907 -236200.000000 0 1 0
-5.213564 -13.769715 16.731253 22.287241 1.208851 0.721660 0.006760 0.003110 -391754.000000 0 1 0
-5.093264 -13.928815 18.148353 23.437490 1.220236 0.685141 0.022174 0.008064 293100.000000 0 1 0
-6.046064 -14.696315 18.925953 24.712917 1.180501 0.698461 0.045529 -0.005293 404674.000000 0 1 0
-7.327864 -13.935015 19.287753 24.897784 1.086676 0.684591 0.057170 -0.015004 -343645.000000 0 1 0
-7.066664 -12.962215 20.212053 25.029659 1.071666 0.630854 0.048822 -0.019619 729467.000000 0 0 1
-8.219864 -12.539715 21.007653 25.809535 0.990560 0.619878 0.051777 -0.008806 1249360.000000 0 0 1
-7.790064 -11.662415 22.258153 26.308219 0.981897 0.562259 0.057250 -0.002540 -575249.000000 0 0 1
-7.433464 -10.374315 21.748653 25.216794 0.949065 0.530672 0.050493 -0.001854 123942.000000 0 0 1
-6.939364 -9.485615 22.785353 25.637940 0.939197 0.476216 0.045669 -0.006404 165574.000000 0 0 1
-5.510564 -9.777715 23.300753 25.863007 1.057584 0.448889 0.051494 -0.003700 -241449.000000 0 0 1
-5.431564 -10.946715 24.087523 27.010021 1.110208 0.469489 0.065418 -0.001820 -961988.000000 0 0 1
-4.129264 -11.085115 24.519653 27.223960 1.214215 0.449500 0.056619 -0.005469 -1053910.000000 0 0 1
-4.153864 -12.417815 25.295373 28.483550 1.247989 0.477668 0.059257 -0.007201 188271.000000 0 0 1
-2.898064 -12.786315 25.866513 28.999399 1.347909 0.469118 0.060885 -0.007556 550646.000000 0 0 1
-2.996664 -14.044915 26.581983 30.213266 1.360585 0.495331 0.052805 -0.004205 97631.000000 0 0 1
-3.052964 -15.416715 25.780743 30.193416 1.375296 0.547453 0.062893 -0.020352 514470.000000 0 0 1
-1.760464 -15.902415 25.392473 30.012726 1.460541 0.562252 0.057198 -0.015255 569198.000000 0 0 1
-1.738464 -17.176415 24.672063 30.112492 1.469928 0.610555 0.059845 -0.010998 -106063.000000 0 0 1
-0.348164 -17.860715 24.592313 30.395858 1.551305 0.628232 0.056299 -0.017425 788594.000000 0 0 1
0.317136 -18.397315 25.763393 31.659346 -1.553560 0.620188 0.065138 -0.020152 436947.000000 0 0 1
0.980836 -17.434415 26.575753 31.799237 -1.514597 0.581325 0.064023 -0.019255 -78841.700000 0 0 1
1.569936 -17.974115 27.895563 33.221919 -1.483673 0.574115 0.063590 -0.008798 -224509.000000 0 0 1
2.774336 -18.727715 27.708803 33.558933 -1.423725 0.599397 0.069260 -0.020728 565691.000000 0 0 1
3.398336 -18.980115 28.980373 34.808842 -1.393626 0.587087 0.059935 -0.015469 384603.000000 0 0 1
4.199136 -17.794515 29.621273 34.809443 -1.339057 0.552995 0.060581 -0.015404 -672144.000000 0 0 1
3.382236 -16.701615 29.948233 34.456931 -1.370989 0.517316 0.052333 -0.015178 -128022.000000 0 0 1
4.139736 -15.632115 30.529313 34.547639 -1.311916 0.487114 0.056742 -0.022151 -19345.700000 0 0 1
3.337436 -14.484515 31.213143 34.571664 -1.344335 0.444436 0.057104 -0.019819 147545.000000 0 0 1
2.635536 -14.986315 32.356003 35.755372 -1.396714 0.439588 0.057815 -0.024316 295781.000000 0 0 1
1.702436 -14.057815 32.909934 35.827143 -1.450281 0.406335 0.048331 -0.020384 235974.000000 0 0 1
0.926136 -14.726615 34.085134 37.141988 -1.507990 0.408549 0.049153 -0.019388 356258.000000 0 0 1
1.709136 -14.869715 -33.234324 36.449278 -1.456358 2.718434 0.062506 -0.015859 -16540.000000 0 0 1
0.915836 -15.373615 -32.202444 35.695717 -1.511295 2.695495 0.049968 -0.022861 131898.000000 0 0 1
1.816136 -15.540115 -30.965144 34.693424 -1.454456 2.673735 0.055135 -0.021191 248591.000000 0 0 1
1.269136 -16.324915 -29.923024 34.110129 -1.493210 2.640894 0.048502 -0.017895 -426021.000000 0 0 1
2.151936 -16.382915 -28.856544 33.252531 -1.440192 2.621554 0.050625 -0.018845 -335198.000000 0 0 1
1.707236 -17.418715 -27.864354 32.905144 -1.473097 2.580752 0.065867 -0.017755 -50583.800000 0 0 1
2.028436 -18.683215 -28.397914 34.053173 -1.462650 2.556985 0.068183 -0.013389 113289.000000 0 0 1
1.639036 -19.695715 -27.474134 33.844285 -1.487770 2.517991 0.086763 -0.017778 -487265.000000 0 0 1
2.425336 -21.020515 -27.540234 34.730516 -1.455925 2.486464 0.077208 -0.020756 -249663.000000 0 0 1
3.768136 -21.115715 -27.154374 34.603934 -1.394203 2.473039 0.060069 -0.019668 -284228.000000 0 0 1
4.051236 -20.976115 -25.754444 33.461938 -1.380010 2.449111 0.070517 -0.019353 -1078790.000000 0 0 1
5.397736 -21.505515 -25.262994 33.613116 -1.324883 2.421253 0.056719 -0.017380 -442355.000000 0 0 1
5.544236 -22.947115 -25.433574 34.701229 -1.333730 2.393415 0.064798 -0.020005 26393.000000 0 0 1
5.764036 -23.359315 -26.760634 35.986292 -1.328874 2.409286 0.045110 -0.012778 -633088.000000 0 0 1
5.252936 -24.793515 -27.006914 37.036267 -1.362016 2.387951 0.034859 -0.007334 204567.000000 0 0 1
5.985636 -25.775695 -26.323714 37.324954 -1.342620 2.353583 0.029797 -0.002983 56526.700000 0 0 1
5.264036 -26.960975 -26.479334 38.154415 -1.377976 2.337833 0.024566 -0.001915 15932.600000 0 0 1
5.869036 -27.999775 -25.548894 38.355951 -1.364178 2.299764 0.019994 -0.004444 -151307.000000 0 0 1
7.141036 -28.468545 -25.981084 39.197821 -1.325028 2.295374 0.023404 -0.003436 165450.000000 0 0 1
7.583636 -29.517145 -25.125954 39.497936 -1.319313 2.260273 0.019717 -0.005428 -629737.000000 0 0 1
8.893336 -30.126575 -25.591314 40.516876 -1.283750 2.254439 0.032644 -0.011773 -521958.000000 0 0 1
8.903836 -30.550395 -26.903654 41.670271 -1.287204 2.272647 0.027047 -0.007775 -569413.000000 0 0 1
10.204836 -30.744855 -27.404744 42.431177 -1.250318 2.272950 0.069296 -0.019034 44344.100000 0 0 1
10.299536 -30.435015 -28.916464 43.226525 -1.244483 2.303594 0.075065 -0.015275 1199.030000 0 0 1
9.874736 -31.407425 -29.837784 44.432309 -1.266174 2.307073 0.066374 -0.027442 -101437.000000 0 0 1
10.328136 -31.072305 -31.116124 45.170473 -1.249895 2.330711 0.074830 -0.038595 9437.860000 0 0 1
-34.999047 -4.631815 -5.753894 35.770020 0.131577 1.732356 0.098336 -0.026733 -64477.200000 0 0 1
-34.774342 -3.937115 -4.532894 35.288849 0.112739 1.699603 0.099010 -0.039646 716335.000000 0 0 1
-33.757304 -2.932915 -4.669894 34.204758 0.086665 1.707752 0.103311 -0.041688 317937.000000 0 0 1
-34.299901 -1.549715 -5.231594 34.731174 0.045151 1.722003 0.121382 -0.031106 -110575.000000 0 0 1
-35.079518 -0.780415 -4.325894 35.353853 0.022243 1.693464 0.096344 -0.028722 343587.000000 0 0 1
-35.679269 0.281085 -5.014094 36.030964 -0.007878 1.710410 0.087604 -0.030205 -295304.000000 0 0 1
36.021153 1.168185 -4.212794 36.285475 0.032419 1.687160 0.100428 -0.026505 29444.900000 0 0 1
-35.949859 2.053685 -3.325594 36.161714 -0.057064 1.662891 0.088228 -0.025106 414408.000000 0 0 1
35.791283 2.815785 -2.551794 35.992447 0.078511 1.641754 0.088916 -0.024323 -245565.000000 0 0 1
36.310533 4.221385 -2.196994 36.621055 0.115738 1.630825 0.072043 -0.025453 -448763.000000 0 0 1
-36.069814 5.039785 -3.318094 36.571036 -0.138824 1.661651 0.086719 -0.021268 406436.000000 0 0 1
-34.770909 4.901685 -3.888694 35.329373 -0.140048 1.681090 0.071999 -0.013597 -603611.000000 0 0 1
-33.860684 5.945385 -3.320294 34.538644 -0.173812 1.667078 0.060572 -0.017851 -1143520.000000 0 0 1
-33.507654 5.856485 -1.952594 34.071600 -0.173033 1.628136 0.062136 -0.024208 394446.000000 0 0 1
-33.339024 7.113985 -1.359094 34.116660 -0.210230 1.610644 0.070952 -0.037013 -290859.000000 0 0 1
-32.733944 7.073185 0.050906 33.489456 -0.212809 1.569276 0.077507 -0.036179 -52362.400000 0 0 1
-31.331414 6.837785 0.021506 32.068884 -0.214871 1.570126 0.084998 -0.031868 764881.000000 0 0 1
-30.585434 7.347485 1.131906 31.475952 -0.235761 1.534828 0.091869 -0.040652 211079.000000 0 0 1
-30.319014 8.885085 1.279606 31.620006 -0.285072 1.530317 0.087565 -0.036263 -274126.000000 0 0 1
-31.472024 9.679485 1.490906 32.960636 -0.298377 1.525548 0.092211 -0.042001 103535.000000 0 0 1
-31.106324 11.022285 1.576306 33.039052 -0.340538 1.523068 0.099343 -0.031804 287179.000000 0 0 1
-32.255684 12.078285 1.435706 34.472821 -0.358292 1.529137 0.105941 -0.045086 -325579.000000 0 0 1
-32.722354 12.204085 0.116506 34.924286 -0.356980 1.567460 0.104635 -0.045229 774828.000000 0 0 1
-33.912174 12.964785 -0.112694 36.306114 -0.365159 1.573900 0.101667 -0.034585 1071510.000000 0 0 1
-35.247272 12.243385 0.289406 37.314266 -0.334318 1.563040 0.115554 -0.043042 -53420.900000 0 0 1
-35.625837 11.155385 -0.486994 37.334703 -0.303455 1.583841 0.105646 -0.038632 544149.000000 0 0 1
35.779053 10.566085 -0.109794 37.306766 0.287153 1.573739 0.119239 -0.036220 830943.000000 0 0 1
35.081693 9.452585 -0.952194 36.345333 0.263194 1.596998 0.111979 -0.034217 401467.000000 0 0 1
34.611373 9.944985 -2.221894 36.080281 0.279795 1.632417 0.107547 -0.024745 299329.000000 0 0 1
34.146043 8.873885 -3.047194 35.411629 0.254256 1.656954 0.095588 -0.038692 -109354.000000 0 0 1
33.610243 9.256285 -4.436494 35.142705 0.268739 1.697376 0.081736 -0.028200 165623.000000 0 0 1
32.253713 9.669585 -4.440494 33.963522 0.291271 1.701915 0.093120 -0.029914 369388.000000 0 0 1
31.803923 9.956085 -5.754794 33.819089 0.303382 1.741792 0.075193 -0.014591 184222.000000 0 0 1
30.321513 10.357685 -5.969794 32.593162 0.329168 1.754997 0.093987 -0.013583 -145158.000000 0 0 1
29.406843 9.307285 -5.861394 31.396559 0.306525 1.758587 0.081122 -0.009868 -232724.000000 0 0 1
28.129243 9.854785 -6.055694 30.414512 0.336977 1.771241 0.094114 -0.002727 -266853.000000 0 0 1
26.971383 8.817685 -6.013794 29.006426 0.315974 1.779637 0.103249 0.006674 -83398.800000 0 0 1
26.977283 8.024485 -7.147394 29.038791 0.289119 1.819484 0.095147 0.002732 -135164.000000 0 0 1
25.899783 7.152985 -7.244794 27.828959 0.269462 1.834163 0.097858 -0.007822 -530633.000000 0 0 1
25.931883 6.198985 -8.452994 27.970396 0.234645 1.877809 0.097647 -0.020789 18035.600000 0 0 1
27.002783 5.271785 -8.370394 28.757703 0.192806 1.866137 0.102119 -0.019905 650928.000000 0 0 1
26.995983 4.352185 -9.474994 28.939594 0.159841 1.904353 0.091309 -0.018504 -626132.000000 0 0 1
27.992213 3.225285 -9.335894 29.683756 0.114715 1.890739 0.087513 -0.013089 -619699.000000 0 0 1
29.352333 3.593285 -9.487094 31.056015 0.121813 1.881242 0.113605 -0.011699 702125.000000 0 0 1
30.261983 3.001085 -8.570194 31.594973 0.098847 1.845490 0.090846 -0.017851 182945.000000 0 0 1
30.488633 1.447185 -8.540094 31.695177 0.047431 1.843613 0.096375 -0.018784 -308600.000000 0 0 1
29.396593 0.856085 -7.835394 30.434946 0.029114 1.831176 0.112308 -0.024475 777707.000000 0 0 1
29.696183 -0.497415 -7.403794 30.609261 -0.016749 1.815100 0.102493 -0.021774 -133775.000000 0 0 1
29.743473 -1.664115 -8.393994 30.950001 -0.055891 1.845448 0.091841 -0.012785 -664662.000000 0 0 1
30.854323 -1.821115 -9.222594 32.254642 -0.058955 1.860774 0.091966 -0.012289 -77994.600000 0 0 1
30.619623 -2.995615 -10.009494 32.353129 -0.097523 1.885340 0.075525 -0.012163 -229560.000000 0 0 1
31.606923 -3.340215 -11.152794 33.682925 -0.105289 1.908277 0.069442 -0.012287 -580152.000000 0 0 1
32.847713 -3.732715 -10.632894 34.726990 -0.113152 1.881980 0.085643 -0.001154 -243070.000000 0 0 1
33.755553 -4.014015 -11.677894 35.943328 -0.118358 1.901700 0.074204 -0.016119 -175433.000000 0 0 1
35.200633 -4.272615 -11.223194 37.192739 -0.120788 1.877332 0.088402 -0.013363 -302121.000000 0 0 1
35.253003 -5.420315 -10.428394 37.160536 -0.152560 1.855248 0.081218 -0.016635 616141.000000 0 0 1
-36.142354 -5.594915 -9.768694 37.854989 0.153583 1.831805 0.078153 -0.014558 437292.000000 0 0 1
-36.068904 -6.907515 -8.896994 37.786719 0.189218 1.808481 0.073924 -0.018673 -630027.000000 0 0 1
35.900593 -6.671815 -7.729694 37.324440 -0.183745 1.779401 0.071386 -0.015374 317972.000000 0 0 1
35.470823 -7.914115 -7.080294 37.026248 -0.219521 1.763205 0.078929 -0.011350 -192784.000000 0 0 1
35.063863 -7.639615 -5.607094 36.321862 -0.214525 1.725789 0.077271 -0.014727 -366341.000000 0 0 1
36.166913 -7.344615 -4.771994 37.212375 -0.200351 1.699387 0.083209 -0.014890 386217.000000 0 0 1
-36.074264 -8.403115 -3.895694 37.244346 0.228858 1.675586 0.082620 -0.013554 -150767.000000 0 0 1
-35.334209 -9.639415 -4.461894 36.896248 0.266326 1.692024 0.079366 -0.012893 -669621.000000 0 0 1
-36.072734 -10.556715 -5.260894 37.952120 0.284701 1.709863 0.073289 -0.014737 73695.700000 0 0 1
-35.260129 -11.460115 -5.987194 37.556057 0.314247 1.730900 0.065725 -0.010564 -381667.000000 0 0 1
-35.924216 -12.150915 -7.173994 38.596117 0.326158 1.757757 0.065218 -0.015119 -175658.000000 0 0 1
-36.067864 -11.238915 -8.209794 38.660118 0.302069 1.784784 0.056098 -0.014590 336809.000000 0 0 1
35.778973 -11.875715 -9.184494 38.801062 -0.320477 1.809772 0.070857 -0.010879 -14485.300000 0 0 1
35.892503 -11.198215 -10.585594 39.060550 -0.302423 1.845233 0.058178 -0.018445 -105901.000000 0 0 1
35.132943 -10.005415 -10.658194 38.052977 -0.277442 1.854682 0.055019 -0.016222 363293.000000 0 0 1
35.083303 -9.618515 -12.012294 38.309909 -0.267587 1.889732 0.053863 -0.021102 -359631.000000 0 0 1
34.352513 -8.319915 -12.330994 37.434870 -0.237617 1.906463 0.049287 -0.013435 -213471.000000 0 0 1
34.511783 -7.957515 -13.685294 37.969362 -0.226613 1.939525 0.057440 -0.006575 680073.000000 0 0 1
33.678393 -6.833315 -13.977794 37.098612 -0.200182 1.957108 0.038984 -0.009854 181250.000000 0 0 1
33.665673 -6.420615 -15.469194 37.601832 -0.188454 1.994780 0.038614 -0.006895 -102518.000000 0 0 1
34.725263 -5.578915 -15.842394 38.573950 -0.159297 1.994020 0.039120 -0.007899 232841.000000 0 0 1
34.272213 -4.258915 -15.964494 38.047181 -0.123633 2.003798 0.051709 -0.006681 -496530.000000 0 0 1
35.464983 -3.345215 -15.923894 39.019557 -0.094046 1.991169 0.059316 -0.005039 -901566.000000 0 0 1
36.135583 -3.342815 -17.132694 40.130835 -0.092245 2.011881 0.057822 -0.006882 156826.000000 0 0 1
-35.155031 -2.913015 -17.173494 39.233796 0.082673 2.023860 0.072871 -0.007566 686968.000000 0 0 1
-34.752744 -1.456415 -16.755194 38.608430 0.041883 2.019699 0.068970 -0.006628 -570333.000000 0 0 1
-35.232901 -0.493915 -17.652694 39.410898 0.014018 2.035227 0.063794 -0.008133 460853.000000 0 0 1
-34.846129 0.819685 -17.130294 38.837760 -0.023519 2.027590 0.069457 -0.013804 -44832.900000 0 0 1
-35.194831 1.997985 -18.077394 39.616414 -0.056708 2.044641 0.057296 -0.017091 -399541.000000 0 0 1
-34.199451 2.196185 -19.023294 39.195809 -0.064129 2.077548 0.050915 -0.009108 54527.900000 0 0 1
-34.489273 3.354185 -19.825594 39.922609 -0.096948 2.090474 0.050256 -0.006620 59548.500000 0 0 1
-33.516984 3.582385 -21.026594 39.728320 -0.106478 2.128524 0.043708 0.002766 994051.000000 0 0 1
-32.203044 4.019685 -20.605594 38.441962 -0.124181 2.136510 0.047917 0.002457 916780.000000 0 0 1
-31.525434 4.613085 -21.695594 38.546496 -0.145298 2.168617 0.040683 0.002071 249775.000000 0 0 1
-30.089954 5.041385 -21.229594 37.168758 -0.166002 2.178724 0.061324 0.001869 558020.000000 0 0 1
-29.309454 3.924785 -20.855894 36.185859 -0.133117 2.185057 0.052532 0.009463 835637.000000 0 0 1
-27.952464 4.045885 -21.347594 35.403802 -0.143743 2.218021 0.047496 0.005560 1001030.000000 0 0 1
-27.070114 2.954585 -20.677694 34.191924 -0.108715 2.220253 0.068886 0.000165 -187384.000000 0 0 1
-26.778404 3.156585 -19.355894 33.191830 -0.117337 2.193400 0.062938 0.005293 -3003.810000 0 0 1
-26.140714 2.054985 -18.731494 32.224661 -0.078451 2.191095 0.070700 0.003843 94814.000000 0 0 1
-25.299264 2.516585 -17.464994 30.844967 -0.099147 2.172707 0.077157 -0.004949 314225.000000 0 0 1
-24.156664 3.275585 -17.851994 30.215353 -0.134776 2.202878 0.066795 -0.006279 184466.000000 0 0 1
-23.439364 3.543585 -16.673294 28.982055 -0.150045 2.183764 0.078136 -0.014011 -123070.000000 0 0 1
-22.164564 4.407085 -16.821194 28.171668 -0.196275 2.210673 0.066778 -0.013667 819409.000000 0 0 1
-21.098964 3.747485 -17.547594 27.697076 -0.175782 2.256935 0.081749 -0.016657 793687.000000 0 0 1
-19.918164 4.543385 -17.663594 27.007002 -0.224266 2.283706 0.076280 -0.018887 797868.000000 0 0 1
-18.752064 3.559185 -18.072194 26.285203 -0.187571 2.328896 0.082114 -0.027870 -26814.600000 0 0 1
-18.316164 2.685485 -17.081494 25.188711 -0.145581 2.316026 0.097490 -0.026275 -12776.800000 0 0 1
-17.345464 1.830085 -17.636094 24.804156 -0.105119 2.361735 0.080753 -0.021644 -749481.000000 0 1 0
-17.476964 0.408685 -16.973394 24.366112 -0.023380 2.341442 0.099968 -0.024046 -71274.200000 0 1 0
-18.442664 -0.416515 -17.575694 25.479607 0.022580 2.332002 0.079285 -0.018593 -132235.000000 0 0 1
-19.753264 -0.088415 -17.197794 26.190903 0.004476 2.287141 0.088154 -0.023821 -809980.000000 0 0 1
-20.859964 -1.009015 -17.762894 27.416722 0.048333 2.275601 0.087828 -0.027291 -156841.000000 0 0 1
-20.917564 -2.326815 -17.203894 27.183313 0.110782 2.256069 0.084909 -0.021317 364004.000000 0 0 1
-21.931064 -3.131015 -17.766294 28.397465 0.141808 2.246735 0.087492 -0.010772 38793.400000 0 0 1
-22.390764 -4.339115 -16.874294 28.371042 0.191418 2.207778 0.088419 -0.009329 111296.000000 0 0 1
-22.716864 -3.874415 -15.584894 27.820063 0.168927 2.165428 0.085877 -0.015962 365757.000000 0 0 1
-23.124964 -4.884615 -14.679094 27.822639 0.208167 2.126564 0.097276 -0.024088 -101578.000000 0 0 1
-23.220964 -4.427915 -13.211494 27.080679 0.188424 2.080429 0.081273 -0.026401 147393.000000 0 0 1
-24.360264 -3.595015 -13.052694 27.869686 0.146519 2.058216 0.078869 -0.027263 599942.000000 0 0 1
-24.280364 -2.904115 -11.824294 27.162178 0.119042 2.021192 0.078886 -0.031371 -59595.400000 0 0 1
-25.200354 -1.647715 -11.734894 27.847451 0.065292 2.005784 0.099232 -0.036413 -153215.000000 0 0 1
-25.163614 -1.136115 -10.455094 27.272829 0.045118 1.964219 0.094428 -0.034637 235657.000000 0 0 1
-25.848444 0.035585 -10.287294 27.820348 -0.001377 1.949564 0.108447 -0.036007 -605678.000000 0 0 1
-26.259674 0.303985 -8.814194 27.701136 -0.011576 1.894615 0.126244 -0.038749 -470778.000000 0 0 1
-25.135914 0.601485 -8.046194 26.399190 -0.023925 1.880514 0.115726 -0.036837 -61295.300000 0 0 1
-25.447234 0.880585 -6.690894 26.326892 -0.034591 1.827762 0.114685 -0.036778 -40724.800000 0 0 1
-24.230164 1.208585 -5.790394 24.941736 -0.049838 1.805091 0.083387 -0.026514 -123305.000000 0 1 0
-23.814464 2.544485 -5.825194 24.648245 -0.106442 1.809387 0.104709 -0.025234 198577.000000 0 1 0
-22.493364 2.695185 -5.349494 23.277297 -0.119253 1.802685 0.092733 -0.012154 -134518.000000 0 1 0
-22.022664 4.141485 -5.297894 23.026448 -0.185885 1.802955 0.096373 -0.012657 -121996.000000 0 1 0
-22.660364 5.029185 -4.359794 23.617634 -0.218398 1.756460 0.102370 -0.013871 682158.000000 0 1 0
-22.281864 6.341185 -4.688994 23.636387 -0.277259 1.770501 0.091817 -0.014660 -235530.000000 0 1 0
-22.813164 7.406185 -3.700794 24.269073 -0.313911 1.723884 0.092631 -0.015726 -253808.000000 0 1 0
-22.283364 7.344485 -2.357894 23.580701 -0.318382 1.670956 0.088960 -0.015551 259453.000000 0 1 0
-20.967964 7.798685 -2.174594 22.476741 -0.356079 1.667697 0.100114 -0.015917 -403128.000000 0 1 0
-20.685564 9.340785 -2.334294 22.816480 -0.424151 1.673283 0.098335 -0.016625 -521608.000000 0 1 0
-20.623164 9.679185 -3.705894 23.081057 -0.438817 1.732054 0.085920 -0.019633 523814.000000 0 1 0
-20.230764 11.034785 -3.888994 23.370378 -0.499340 1.737981 0.101901 -0.016322 -226541.000000 0 1 0
-20.147864 11.457385 -5.325994 23.781807 -0.517060 1.796664 0.113888 -0.022938 -100660.000000 0 1 0
-18.983064 10.959185 -5.958994 22.714975 -0.523571 1.836240 0.093395 -0.015605 288084.000000 0 1 0
-18.913364 11.443085 -7.256594 23.266235 -0.544107 1.887982 0.089704 -0.018089 -459001.000000 0 1 0
-17.541664 11.320985 -7.931194 22.333350 -0.573118 1.933847 0.079176 -0.016520 -376566.000000 0 1 0
-17.087864 10.028885 -8.330694 21.493583 -0.530732 1.968812 0.054060 -0.008260 345634.000000 0 1 0
-17.881964 9.244785 -9.217794 22.140425 -0.477147 2.000205 0.059345 -0.011671 -329617.000000 0 1 0
-18.102264 9.905385 -10.600394 23.198642 -0.500684 2.045349 0.078513 -0.011319 -80095.500000 0 1 0
-16.965864 9.760385 -11.411094 22.656539 -0.522056 2.098621 0.062582 -0.012598 58169.500000 0 1 0
-17.128164 10.418485 -12.671094 23.716565 -0.546476 2.134442 0.067764 -0.012582 -313297.000000 0 1 0
-15.892664 10.163885 -13.535194 23.218157 -0.568982 2.193160 0.043729 -0.006407 -288864.000000 0 1 0
-15.867064 8.964785 -14.300494 23.165389 -0.514281 2.236130 0.034986 -0.001850 21382.900000 0 1 0
-15.625964 7.816885 -13.494094 22.076345 -0.463847 2.228431 0.030062 -0.006656 -522063.000000 0 1 0
-15.841864 6.508085 -14.239394 22.272857 -0.389795 2.264405 0.053536 -0.013236 -128166.000000 0 1 0
-14.906364 6.245385 -15.272694 22.236450 -0.396756 2.327917 0.059057 -0.013758 514913.000000 0 1 0
-14.979464 4.938385 -15.765994 22.301089 -0.318456 2.355988 0.065860 -0.028801 44535.700000 0 1 0
32.427693 -16.455315 28.444563 46.167367 -0.469587 0.906991 0.002016 0.008222 -262422.000000 0 0 1
31.657233 -15.279215 28.430293 45.209693 -0.449668 0.890718 0.004065 0.009692 -520936.000000 0 0 1
30.673013 -15.211115 29.419483 45.141087 -0.460372 0.860942 0.009325 -0.000275 -212184.000000 0 0 1
31.067583 -15.158515 30.917553 46.377477 -0.453938 0.841091 -0.000223 0.000080 -185193.000000 0 0 1
31.573953 -13.902315 31.382473 46.637415 -0.414766 0.832670 -0.009574 0.000814 107133.000000 0 0 1
31.566133 -13.872615 32.780728 47.575690 -0.414069 0.810657 -0.012448 0.000904 -356277.000000 0 0 1
31.931423 -12.463815 33.271572 47.769864 -0.372143 0.800292 0.004412 -0.000613 -64998.900000 0 0 1
31.850333 -12.318015 -33.822944 48.064214 -0.369029 2.351393 -0.007059 -0.012989 154259.000000 0 0 1
32.116953 -11.003515 -33.417414 47.637165 -0.330074 2.348295 0.020991 -0.008136 -136393.000000 0 0 1
31.705893 -10.771815 -31.915374 46.258910 -0.327507 2.332188 0.028888 -0.004734 377026.000000 0 0 1
30.290293 -10.818515 -31.787374 45.221447 -0.343040 2.350301 0.073027 -0.011594 228118.000000 0 0 1
29.963503 -10.344215 -30.489684 43.982213 -0.332417 2.336754 0.055305 -0.004077 335763.000000 0 0 1
28.475623 -10.648615 -30.134034 42.805538 -0.357855 2.351775 0.053701 0.005979 366826.000000 0 0 1
28.088183 -10.139615 -28.891514 41.550901 -0.346434 2.339673 0.048225 0.004815 185646.000000 0 0 1
27.066583 -11.028115 -28.443694 40.783121 -0.386907 2.342612 0.049717 0.006729 -621539.000000 0 0 1
26.549283 -10.820415 -27.073414 39.432417 -0.387006 2.327568 0.041775 0.005091 -889214.000000 0 0 1
25.652683 -9.694615 -26.771874 38.324652 -0.361327 2.344172 0.035088 0.003741 2134880.000000 0 0 1
24.333583 -9.607715 -27.376454 37.866894 -0.376045 2.378881 0.042513 -0.001378 925144.000000 0 0 1
23.481783 -10.859015 -27.195784 37.535623 -0.433154 2.381152 0.033176 0.013420 -2031460.000000 0 0 1
23.937483 -12.005115 -27.920054 38.686629 -0.464862 2.377048 0.033469 0.002785 -63605.500000 0 0 1
23.399783 -13.209815 -27.404994 38.380760 -0.513928 2.366033 0.035310 -0.006917 -106986.000000 0 0 1
24.217583 -14.376615 -27.977084 39.697551 -0.535733 2.352875 0.023441 0.007269 121228.000000 0 0 1
24.219583 -14.226115 -29.417614 40.673905 -0.531089 2.379301 0.027322 -0.004450 285761.000000 0 0 1
25.198783 -15.106515 -29.928064 41.938937 -0.540047 2.365435 0.021095 0.000206 -107788.000000 0 0 1
25.233983 -15.088115 -31.471814 43.068320 -0.538895 2.390204 0.047717 -0.013250 -111312.000000 0 0 1
24.074883 -15.506315 -32.168374 43.067970 -0.572207 2.414216 0.062596 -0.015769 179374.000000 0 0 1
24.316683 -15.700915 -33.574644 44.329183 -0.573336 2.430109 0.079414 -0.012864 174808.000000 0 0 1
24.542383 -14.478315 33.989638 44.353643 -0.532983 0.697683 0.065147 -0.025479 -279989.000000 0 0 1
23.326383 -13.776715 33.901302 43.396040 -0.533484 0.674199 0.084667 -0.026259 -148721.000000 0 0 1
23.282783 -12.987715 32.788577 42.259431 -0.508831 0.682675 0.072993 -0.019958 -759997.000000 0 0 1
22.411283 -11.671615 32.843715 41.439134 -0.480142 0.655772 0.090638 -0.022878 550234.000000 0 0 1
21.009483 -11.881115 32.877238 40.785684 -0.514675 0.633269 0.080507 -0.019793 451271.000000 0 0 1
20.474983 -12.436715 31.670553 39.710461 -0.545850 0.647595 0.063006 -0.015189 397074.000000 0 0 1
18.904383 -12.640715 31.864003 39.146878 -0.589385 0.619859 0.064612 -0.008739 1738880.000000 0 0 1
18.090583 -11.449415 31.746073 38.290618 -0.564256 0.593332 0.070561 -0.015858 791015.000000 0 0 1
16.871783 -11.626115 32.481482 38.404040 -0.603364 0.562765 0.062818 -0.007815 314190.000000 0 0 1
16.154483 -10.303615 32.738274 37.933183 -0.567763 0.529517 0.075312 -0.015799 -663031.000000 0 0 1
15.274383 -10.004015 31.634063 36.525348 -0.579850 0.523479 0.080521 -0.017629 775920.000000 0 0 1
14.431283 -8.842215 31.885373 36.098805 -0.549714 0.487982 0.093770 -0.013238 817573.000000 0 0 1
13.340483 -8.969015 32.977586 36.686958 -0.591903 0.453564 0.100232 -0.018847 -1077670.000000 0 0 1
12.335383 -9.905215 32.697719 36.323763 -0.676563 0.450627 0.096910 -0.013756 585429.000000 0 0 1
11.195783 -9.897315 33.568505 36.744345 -0.723917 0.418820 0.092928 -0.013349 1179890.000000 0 0 1
10.044183 -8.940515 33.064597 35.694341 -0.727329 0.386256 0.068629 -0.014931 -20842.600000 0 0 1
10.455583 -7.531815 33.111147 35.530205 -0.624262 0.371137 0.098029 -0.018581 386482.000000 0 0 1
9.449183 -6.664915 32.629321 34.617636 -0.614303 0.340573 0.078157 -0.006189 97951.500000 0 0 1
9.923883 -5.183715 32.521540 34.394838 -0.481365 0.331561 0.088104 -0.012895 63483.100000 0 0 1
10.072783 -4.578815 33.763130 35.529923 -0.426650 0.316685 0.094055 -0.023769 93062.200000 0 0 1
10.634683 -3.312715 33.705535 35.498361 -0.301975 0.319172 0.080769 -0.024009 -238755.000000 0 0 1
10.375283 -2.481315 -33.496104 35.153839 -0.234747 2.833268 0.074096 -0.029462 356726.000000 0 0 1
9.010183 -2.091915 -33.405384 34.662360 -0.228131 2.871464 0.064948 -0.015632 87320.800000 0 0 1
8.769383 -1.494415 -32.198364 33.404640 -0.168791 2.872036 0.056717 -0.015179 810678.000000 0 0 1
7.211883 -1.356715 -32.037874 32.867572 -0.185949 2.916423 0.050974 -0.012153 718330.000000 0 0 1
6.614583 -0.500315 -32.985694 33.646085 -0.075494 2.943138 0.066698 -0.015479 -1419690.000000 0 0 1
5.305883 -0.216015 -32.724424 33.152481 -0.040690 2.980722 0.073108 -0.014818 -1262360.000000 0 0 1
4.696983 0.768285 -33.712824 34.047120 0.162134 3.001345 0.053205 -0.009923 -112410.000000 0 0 1
5.186583 2.115185 -33.512604 33.977482 0.387228 2.975983 0.051971 -0.012276 206650.000000 0 0 1
4.729983 3.000185 33.921144 34.380487 0.565253 0.163649 0.042153 -0.012694 145667.000000 0 0 1
5.708283 4.152585 33.721583 34.452484 0.628923 0.206350 0.042327 -0.010900 -62612.000000 0 0 1
5.293783 4.914485 32.629262 33.419232 0.748259 0.217862 0.061117 -0.026989 519160.000000 0 0 1
6.298683 5.898985 32.463110 33.590549 0.752642 0.259822 0.064365 -0.020187 139746.000000 0 0 1
5.729683 7.009585 31.546173 32.819576 0.885531 0.279477 0.075177 -0.017033 575577.000000 0 0 1
4.765783 7.842685 32.276983 33.556282 1.024755 0.277015 0.073155 -0.015857 919674.000000 0 0 1
4.432783 9.109885 31.734643 33.312567 1.117934 0.309018 0.063543 -0.016248 436319.000000 0 0 1
3.717983 9.085785 30.256483 31.809270 1.182377 0.313745 0.069803 -0.015770 331791.000000 0 0 1
2.447783 8.487185 30.168193 31.434755 1.290007 0.284834 0.073672 -0.018471 -198188.000000 0 0 1
2.140283 7.909085 28.900213 30.039254 1.306515 0.276263 0.059950 0.003901 -768099.000000 0 0 1
0.672383 7.889385 28.545743 29.623537 1.485776 0.270576 0.065858 -0.011763 -1235230.000000 0 0 1
0.105283 9.125885 28.198953 29.639059 1.559260 0.313007 0.064668 -0.011439 -511331.000000 0 0 1
-0.983917 9.011185 27.331853 28.795829 -1.462039 0.320239 0.051710 0.000035 -96232.800000 0 0 1
-2.371617 8.818585 27.957823 29.411425 -1.308078 0.315707 0.054516 -0.002585 -453605.000000 0 0 1
-2.831817 9.910185 28.772963 30.563285 -1.292465 0.343972 0.045936 -0.004277 -133610.000000 0 0 1
-4.224917 9.842085 28.937983 30.856498 -1.165314 0.354487 0.034816 -0.000961 -327353.000000 0 0 1
-4.931917 11.023285 29.652973 32.017736 -1.150099 0.386744 0.025131 0.004193 56908.300000 0 0 1
-5.036217 12.270385 28.970213 31.862189 -1.181325 0.429354 0.027648 -0.003684 674519.000000 0 0 1
-6.128817 12.296785 28.025913 31.212580 -1.108423 0.455811 0.030147 -0.008276 498394.000000 0 0 1
-6.483717 13.767685 27.568933 31.490218 -1.130668 0.504376 0.034137 -0.002612 63944.600000 0 0 1
-5.407717 14.374685 26.885583 30.963036 -1.210976 0.519007 0.026709 -0.000291 -67786.700000 0 0 1
-5.657217 15.673085 26.482563 31.288590 -1.224399 0.561614 0.009325 0.004319 238899.000000 0 0 1
-4.396617 16.445485 25.974213 31.055498 -1.309561 0.580150 0.053050 -0.002969 490624.000000 0 0 1
-4.156217 16.122485 24.577373 29.685955 -1.318499 0.595421 0.048456 0.010252 78971.400000 0 0 1
-3.124217 16.880185 23.970213 29.483428 -1.387785 0.621499 0.058172 0.005282 218044.000000 0 0 1
-3.180617 16.743385 22.398553 28.145203 -1.383070 0.650434 0.066545 -0.001882 -268634.000000 0 0 1
-2.695317 15.558185 21.919953 27.014926 -1.399258 0.624250 0.065330 -0.011815 -143705.000000 0 0 1
-2.751817 15.452485 20.537153 25.848142 -1.394561 0.652561 0.062715 -0.014079 384783.000000 0 0 1
-1.848417 14.240385 20.070153 24.678255 -1.441717 0.621042 0.054002 -0.018495 265622.000000 0 1 0
-2.408617 12.948785 20.225653 24.136063 -1.386887 0.577217 0.050663 -0.011341 -179861.000000 0 1 0
-1.612217 11.923085 19.639353 23.031791 -1.436393 0.549652 0.044510 -0.013352 -194942.000000 0 1 0
-2.313017 10.545085 19.241053 22.062797 -1.354870 0.511311 0.041279 -0.016865 -112968.000000 0 1 0
-2.556917 9.712685 20.331753 22.677175 -1.313381 0.458825 0.059716 -0.022460 -495333.000000 0 1 0
-3.473017 10.010985 21.316053 23.804533 -1.236867 0.461328 0.057583 -0.011447 748237.000000 0 1 0
-5.038617 9.938485 21.019653 23.790481 -1.101580 0.487446 0.049301 -0.003198 1238130.000000 0 1 0
-5.462617 8.605385 20.945953 23.294330 -1.005188 0.452889 0.031092 -0.006816 797453.000000 0 1 0
-6.899917 8.626185 21.067953 23.788203 -0.896128 0.482911 0.023791 0.003730 1344710.000000 0 1 0
-7.607817 7.187885 21.239353 23.678148 -0.757024 0.457856 0.027232 0.007253 314090.000000 0 1 0
-7.416917 6.618185 22.490653 24.589439 -0.728550 0.416163 0.024223 0.011762 258371.000000 0 1 0
-8.067517 5.329785 22.550953 24.536441 -0.583824 0.405057 0.028752 0.008598 324954.000000 0 1 0
-8.006817 4.626585 23.934373 25.658695 -0.523959 0.368697 0.027240 0.000722 -284487.000000 0 0 1
-8.804917 5.339685 24.826343 26.877242 -0.545144 0.393184 0.009588 0.004250 -69265.400000 0 0 1
-8.959117 4.596585 26.036163 27.915518 -0.474043 0.369032 0.007377 0.001383 -202845.000000 0 0 1
-9.733217 5.263785 27.162703 29.330111 -0.495757 0.386848 0.016635 0.000974 -357156.000000 0 0 1
-9.107617 6.404285 27.669423 29.825502 -0.612856 0.382565 0.010162 -0.006577 -264200.000000 0 0 1
-9.883317 7.011585 28.686753 31.141164 -0.617031 0.399683 0.015842 -0.011117 -262722.000000 0 0 1
-9.201017 8.177585 29.384743 31.858982 -0.726576 0.396708 0.022522 -0.011250 -35948.800000 0 0 1
-8.061517 7.694485 30.074933 32.073272 -0.762108 0.354862 0.037461 -0.014747 -273771.000000 0 0 1
-7.566817 8.628785 30.978413 33.035961 -0.850876 0.354794 0.041280 -0.015065 -374684.000000 0 0 1
-6.588917 7.963185 31.945593 33.575990 -0.879557 0.312911 0.066344 -0.017000 -318924.000000 0 0 1
-5.326717 7.766085 31.366053 32.749279 -0.969600 0.291676 0.062977 -0.017264 -1016170.000000 0 0 1
-4.440617 7.265885 32.290663 33.394597 -1.022211 0.257841 0.074511 -0.018075 -694180.000000 0 0 1
-2.956517 7.361885 31.931213 32.901987 -1.188913 0.243521 0.061821 -0.014500 -363450.000000 0 0 1
-2.561717 8.676185 32.153433 33.401824 -1.283695 0.274263 0.065765 -0.016139 -614098.000000 0 0 1
-1.227417 8.911585 31.810933 33.058409 -1.433925 0.275591 0.057163 -0.016605 -206563.000000 0 0 1
-0.964417 10.364285 31.465893 33.142887 -1.478012 0.319473 0.059960 -0.012466 -3177.070000 0 0 1
-1.354517 11.340085 32.428180 34.380505 -1.451914 0.338619 0.061891 -0.018204 104705.000000 0 0 1
-1.435017 12.621285 31.877213 34.314907 -1.457584 0.379200 0.064859 -0.018029 124442.000000 0 0 1
-1.700017 13.711585 32.925897 35.707315 -1.447442 0.397310 0.055343 -0.010185 -552261.000000 0 0 1
-0.500917 13.949485 33.590843 36.375594 -1.534902 0.393834 0.082189 -0.010267 -613171.000000 0 0 1
-0.630517 14.761685 -33.766394 36.857486 -1.528109 2.729124 0.081670 -0.010706 -981657.000000 0 0 1
0.726883 15.088285 -33.238264 36.509819 1.522658 2.715028 0.055606 -0.005834 -994796.000000 0 0 1
1.464783 15.989885 -34.050644 37.646625 1.479444 2.700957 0.066931 -0.007254 -151140.000000 0 0 1
2.738283 16.210985 -33.516014 37.331186 1.403461 2.685549 0.074274 -0.004144 -244184.000000 0 0 1
3.704683 17.065485 34.134365 38.342018 1.357027 0.472881 0.070634 0.000443 -39320.900000 0 0 1
3.300383 18.419285 33.961919 38.775953 1.393497 0.503602 0.072926 0.004427 93995.600000 0 0 1
4.348783 19.220385 33.440017 38.814557 1.348284 0.532515 0.055063 0.016274 180578.000000 0 0 1
3.985683 20.707285 33.440208 39.533844 1.380644 0.562616 0.062092 0.002703 -227638.000000 0 0 1
4.106583 21.363685 -33.765594 40.166982 1.380890 2.569243 0.077157 -0.010026 74911.500000 0 0 1
3.723683 22.718985 -33.856264 40.942212 1.408339 2.544419 0.066732 -0.012994 -21898.400000 0 0 1
3.575483 23.281185 -32.465324 40.109786 1.418409 2.513946 0.078713 -0.020436 -70677.300000 0 0 1
3.224083 24.659385 -32.513364 40.934079 1.440789 2.488628 0.075922 -0.025473 276463.000000 0 0 1
3.130483 25.105985 -31.180914 40.154201 1.446746 2.459935 0.085043 -0.026473 -273797.000000 0 0 1
2.791783 26.551985 -30.919594 40.851233 1.466037 2.429326 0.087431 -0.039274 -344696.000000 0 0 1
3.806483 27.518685 -30.959094 41.596068 1.433345 2.410251 0.080887 -0.038374 -313823.000000 0 0 1
3.320783 28.775685 -30.547314 42.097578 1.455902 2.382748 0.078241 -0.042096 -155094.000000 0 0 1
4.419783 29.845385 -30.263274 42.733444 1.423776 2.357723 0.087619 -0.050085 -50650.100000 0 0 1
5.156383 29.511185 -29.141844 41.794084 1.397816 2.342381 0.080044 -0.051254 -235880.000000 0 0 1
6.013783 30.592785 -28.783634 42.433262 1.376696 2.316280 0.074174 -0.049904 -1263470.000000 0 0 1
7.172683 30.298685 -27.893094 41.802900 1.338343 2.301310 0.079158 -0.046210 -793301.000000 0 0 1
8.282283 29.719285 -28.567274 42.046656 1.299009 2.317766 0.081105 -0.044084 750140.000000 0 0 1
9.448883 30.559385 -28.649414 42.941196 1.270923 2.301210 0.083952 -0.040842 387436.000000 0 0 1
9.436083 31.856185 -29.558644 44.469873 1.282821 2.297874 0.098002 -0.048167 -1130090.000000 0 0 1
8.801283 32.899285 -28.941674 44.692796 1.309396 2.275186 0.081123 -0.044712 -285386.000000 0 0 1
8.805583 34.112185 -29.692274 46.073969 1.318175 2.271097 0.059395 -0.034258 270449.000000 0 0 1
7.517483 -34.116417 -30.547024 46.406499 -1.353914 2.289287 0.054533 -0.034071 295012.000000 0 0 1
7.459083 33.466185 -31.675354 46.679241 1.351497 2.316617 0.051882 -0.036532 -183311.000000 0 0 1
6.148183 33.015585 -31.898184 46.317634 1.386685 2.330468 0.058630 -0.030770 -204320.000000 0 0 1
6.171283 32.192285 -33.223384 46.671418 1.381393 2.362935 0.071672 -0.045949 103011.000000 0 0 1
6.117683 33.103085 34.144237 47.948610 1.388051 0.778311 0.067630 -0.033570 101276.000000 0 0 1
6.087983 32.413185 32.908358 46.590108 1.385135 0.786485 0.087182 -0.031813 -63159.800000 0 0 1
5.446683 33.154085 31.749293 46.226371 1.407967 0.813689 0.068530 -0.027366 34107.100000 0 0 1
6.392783 33.995685 31.152823 46.551828 1.384920 0.837655 0.068896 -0.022231 213123.000000 0 0 1
5.812983 -33.930717 29.981003 45.650245 -1.401124 0.854289 0.046430 -0.025567 311687.000000 0 0 1
17.878136 -22.228015 29.705423 41.184032 -0.893435 0.765141 0.072085 -0.008301 -378941.000000 0 0 1
17.063436 -21.122515 30.072693 40.517753 -0.891298 0.734434 0.063963 -0.007368 1298040.000000 0 0 1
15.667036 -21.446115 30.286343 40.282185 -0.939873 0.719926 0.056896 -0.006292 1160890.000000 0 0 1
15.312336 -21.950115 31.662813 41.458520 -0.961685 0.701736 0.050193 -0.016764 -589878.000000 0 0 1
15.632036 -23.328715 31.978783 42.558572 -0.980436 0.720605 0.086951 -0.022423 201540.000000 0 0 1
15.468036 -23.513315 33.353977 43.641996 -0.988928 0.700898 0.074247 -0.024893 -86808.800000 0 0 1
16.335536 -24.675915 33.882676 44.986512 -0.986029 0.717922 0.081221 -0.027348 -109338.000000 0 0 1
15.971136 -25.945415 33.414936 45.219461 -1.019009 0.739285 0.095162 -0.032931 -404451.000000 0 0 1
16.754736 -26.872995 34.090911 46.530304 -1.013292 0.748574 0.099801 -0.031340 10586.300000 0 0 1
16.392136 -28.340205 33.809565 47.063319 -1.046406 0.769319 0.097803 -0.031409 289436.000000 0 0 1
17.177336 -28.803155 32.713100 46.849007 -1.033050 0.797823 0.090276 -0.029549 306995.000000 0 0 1
16.705736 -30.056725 32.289043 47.170654 -1.063506 0.816857 0.100410 -0.028984 8648.220000 0 0 1
17.554336 -30.664045 31.156803 47.108223 -1.050863 0.848129 0.085585 -0.023909 163815.000000 0 0 1
18.818736 -31.181085 31.491023 48.146541 -1.027785 0.857849 0.072395 -0.027134 -310226.000000 0 0 1
19.440436 -31.804195 30.405653 48.103441 -1.022143 0.886550 0.051204 -0.012675 46832.800000 0 0 1
20.859736 -32.319105 30.782103 49.266530 -0.997640 0.895911 0.042629 -0.008963 375180.000000 0 0 1
21.867936 -31.315565 30.711713 49.011024 -0.961206 0.893577 0.043316 -0.005938 210840.000000 0 0 1
23.065236 -31.805895 31.312413 50.240295 -0.943365 0.897901 0.029853 -0.002745 224043.000000 0 0 1
24.079536 -30.616585 31.308303 49.974085 -0.904350 0.893754 0.032002 -0.000678 -107247.000000 0 0 1
24.605736 -30.425275 30.011973 49.313873 -0.890757 0.916513 0.028893 0.001637 -277963.000000 0 0 1
25.493036 -29.326145 30.101563 49.153044 -0.855207 0.911697 0.026281 -0.002474 468283.000000 0 0 1
26.724936 -29.438275 29.146383 49.298538 -0.833672 0.938223 0.032460 -0.001003 383676.000000 0 0 1
27.616136 -30.502275 29.418933 50.581749 -0.835017 0.950088 0.036848 0.006827 134069.000000 0 0 1
28.687936 -30.539515 28.485373 50.666321 -0.816650 0.973734 0.037517 -0.000625 -140799.000000 0 0 1
29.784236 -31.517455 28.780053 52.045577 -0.813664 0.984862 0.040266 0.003823 -276512.000000 0 0 1
29.293536 -32.828785 28.661673 52.510302 -0.842245 0.993418 0.041456 0.004584 -27629.600000 0 0 1
30.327536 -33.698155 29.069463 53.854979 -0.837994 1.000629 0.050444 -0.004929 -264952.000000 0 0 1
29.870736 33.362886 29.611073 53.685740 0.840568 0.986559 0.038914 0.002680 -299693.000000 0 0 1
29.276736 33.284332 30.911673 54.041702 0.849370 0.961858 0.036266 0.001925 1139640.000000 0 0 1
28.068336 34.044957 31.192413 54.035703 0.881324 0.955433 0.011728 0.011973 403604.000000 0 0 1
26.796936 33.658220 30.466703 52.717849 0.898408 0.954619 0.028089 0.005954 -918625.000000 0 0 1
26.254336 32.383048 30.827933 51.848948 0.889539 0.934063 0.026722 0.011194 466039.000000 0 0 1
24.827136 32.361118 30.739183 51.073731 0.916384 0.924969 0.012054 0.007511 987261.000000 0 0 1
24.202936 30.918148 30.691893 49.836797 0.906627 0.907334 0.017165 0.002111 55075.600000 0 0 1
24.494636 30.224168 29.483093 48.813321 0.889727 0.922290 0.031655 -0.008691 -61100.700000 0 0 1
23.733036 29.052498 29.440733 47.687120 0.885834 0.905398 0.062731 -0.032504 -362322.000000 0 0 1
23.119736 28.803508 28.035573 46.369792 0.894429 0.921522 0.075969 -0.037293 94630.600000 0 0 1
22.066336 29.668758 27.626363 46.155978 0.931303 0.929115 0.088032 -0.037968 111791.000000 0 0 1
21.437536 29.111778 26.477623 44.812142 0.936065 0.938674 0.096671 -0.038174 823474.000000 0 0 1
20.031936 29.703518 26.114343 44.334370 0.977462 0.940936 0.084029 -0.032076 681820.000000 0 0 1
20.139936 31.053048 25.720523 45.071656 0.995430 0.963489 0.089258 -0.028592 -567493.000000 0 0 1
18.894836 31.542148 25.325293 44.646303 1.031087 0.967642 0.069515 -0.019947 -882445.000000 0 0 1
18.822836 32.996294 24.875753 45.407683 1.052386 0.991027 0.074520 -0.012293 -128525.000000 0 0 1
19.345736 33.226457 23.558043 45.091422 1.043539 1.021074 0.088528 -0.017543 -536832.000000 0 0 1
20.731136 33.270933 23.466443 45.688171 1.013564 1.031396 0.092570 -0.018664 -936618.000000 0 0 1
21.255036 33.592567 22.063353 45.464587 1.006657 1.064105 0.108506 -0.025876 -102411.000000 0 0 1
21.091936 -33.559025 21.552653 45.117566 -1.009682 1.072762 0.100650 -0.012277 91106.500000 0 0 1
21.731036 -33.390875 20.322653 44.723580 -0.993854 1.099091 0.128692 -0.019340 -97997.800000 0 0 1
21.498136 -31.958985 19.700153 43.262485 -0.978643 1.098016 0.104708 -0.021957 -228918.000000 0 0 1
22.105536 -30.859485 20.374153 43.082115 -0.949195 1.078201 0.096131 -0.013828 231204.000000 0 0 1
21.754836 -29.553635 19.862153 41.727633 -0.936242 1.074701 0.104405 -0.024001 -231372.000000 0 0 1
22.215436 -29.093335 18.462253 40.997591 -0.918653 1.103667 0.082210 -0.025418 -234526.000000 0 0 1
21.870936 -29.918085 17.332253 40.912548 -0.939549 1.133335 0.073727 -0.027069 283039.000000 0 0 1
22.195536 -29.206915 16.146153 40.079720 -0.920963 1.156167 0.063940 -0.018096 -163286.000000 0 0 1
21.916236 -30.044075 14.832653 40.037175 -0.940565 1.191279 0.057509 -0.024975 -155546.000000 0 0 1
22.688536 -31.217215 14.652953 41.279452 -0.942312 1.207915 0.086316 -0.024411 12827.500000 0 0 1
22.755236 -31.686035 13.253153 41.200141 -0.947995 1.243296 0.071035 -0.018706 599909.000000 0 0 1
21.433336 -31.939005 12.430953 40.422970 -0.979751 1.258209 0.061966 -0.015275 403686.000000 0 0 1
20.507136 -32.869145 12.848753 40.816832 -1.012987 1.250560 0.059610 -0.020261 -328708.000000 0 0 1
19.362536 -33.073085 12.060253 40.176939 -1.041146 1.265917 0.055000 -0.010376 -324868.000000 0 0 1
18.231736 -33.705165 12.850653 40.417491 -1.074952 1.247232 0.066008 -0.006692 -528940.000000 0 0 1
17.852536 -32.835695 13.925153 39.884906 -1.072808 1.214150 0.063458 0.001596 339514.000000 0 0 1
18.424636 -33.308415 15.153153 40.969937 -1.065536 1.191938 0.058977 -0.013003 -699357.000000 0 0 1
18.129836 -32.372625 16.334453 40.540006 -1.060281 1.156089 0.063360 -0.014354 32479.800000 0 0 1
16.795436 -32.056495 16.706653 39.859977 -1.088187 1.138306 0.059021 -0.018057 450667.000000 0 0 1
15.957936 -33.124945 17.135353 40.565231 -1.121855 1.134689 0.063868 -0.015768 -536710.000000 0 0 1
16.324036 -33.728295 18.484953 41.782359 -1.120041 1.112512 0.052760 -0.016322 -427801.000000 0 0 1
17.094936 33.570957 18.344653 41.901937 1.099802 1.117646 0.060923 -0.013872 -1349.550000 0 0 1
17.449836 33.072258 19.588553 42.213534 1.085292 1.088252 0.060276 -0.015823 -180666.000000 0 0 1
18.199936 31.725728 19.498253 41.448056 1.049966 1.081023 0.071163 -0.018190 -459115.000000 0 0 1
17.499936 30.530498 19.331153 40.150374 1.050319 1.068467 0.037322 -0.011175 -247408.000000 0 0 1
18.379236 29.477208 18.891853 39.542436 1.013272 1.072692 0.042641 -0.018754 151638.000000 0 0 1
17.706836 28.128618 18.626253 38.101030 1.008971 1.060008 0.045327 -0.010181 -391129.000000 0 0 1
17.506636 27.378398 19.816253 38.062355 1.001886 1.023212 0.045356 -0.019239 -154626.000000 0 0 1
17.108936 26.045698 19.565753 36.795554 0.989599 1.010140 0.045516 -0.014669 -497770.000000 0 0 1
16.940936 25.185338 20.802153 36.797094 0.978662 0.969975 0.054014 -0.016145 -28586.700000 0 0 1
15.798836 25.436648 21.601353 36.922144 1.015003 0.945853 0.051580 -0.015786 156293.000000 0 0 1
14.728336 24.587928 21.193053 35.645976 1.031107 0.934100 0.046131 -0.018436 -472132.000000 0 0 1
13.448836 24.830918 21.994253 35.793754 1.074412 0.909080 0.046980 -0.028537 -723303.000000 0 0 1
12.777736 25.953858 21.530653 36.061646 1.113307 0.930976 0.045410 -0.029544 -378757.000000 0 0 1
11.546636 26.047618 22.235753 36.141831 1.153537 0.908111 0.040840 -0.028946 -212412.000000 0 0 1
10.658336 27.053238 21.490753 36.157023 1.195494 0.934311 0.024242 -0.019621 -732798.000000 0 0 1
11.123536 28.392298 21.458453 37.287007 1.197396 0.957588 0.015208 -0.016275 -150338.000000 0 0 1
10.455536 29.225898 20.529953 37.214921 1.227235 0.986444 0.022728 -0.018373 215714.000000 0 0 1
10.989536 30.708258 20.596753 38.574516 1.227128 1.007534 0.003422 -0.019760 303514.000000 0 0 1
10.396136 31.417048 21.703953 39.574893 1.251231 0.990314 0.016177 -0.013175 -118681.000000 0 0 1
11.298436 31.595988 22.767753 40.550360 1.227375 0.974637 0.030193 -0.018736 -253557.000000 0 0 1
10.758936 32.493191 23.895053 41.743691 1.251045 0.961338 0.034449 -0.016132 815135.000000 0 0 1
9.636536 31.903828 24.597613 41.421729 1.277460 0.934981 0.025944 -0.010930 420079.000000 0 0 1
9.498836 32.456386 25.865133 42.575228 1.286083 0.917867 0.020232 -0.009702 -1408730.000000 0 0 1
8.188136 32.259068 26.600043 42.605814 1.322222 0.896524 0.080719 -0.025950 -347545.000000 0 0 1
7.046636 33.084468 26.312523 42.855408 1.360943 0.909699 0.078413 -0.019740 762126.000000 0 0 1
6.516536 32.876923 24.984833 41.804297 1.375122 0.930215 0.064525 -0.031301 -415048.000000 0 0 1
5.505036 31.666388 24.867893 40.638377 1.398672 0.912296 0.057838 -0.024623 -135261.000000 0 0 1
6.033136 30.407828 25.200423 39.951171 1.374933 0.888238 0.048537 -0.027359 -845500.000000 0 0 1
5.300336 29.343028 24.689893 38.713017 1.392090 0.879200 0.033160 -0.028779 -777689.000000 0 0 1
6.141136 28.028468 24.686883 37.851695 1.355101 0.860313 0.036942 -0.025821 1257860.000000 0 0 1
7.257336 27.895878 23.739263 37.341687 1.316280 0.881841 0.027051 -0.025102 907408.000000 0 0 1
8.296736 28.804828 23.889743 38.331107 1.290354 0.897909 0.049518 -0.020076 -1082590.000000 0 0 1
9.467636 28.400198 24.800523 38.875099 1.249017 0.878958 0.048052 -0.028975 -725424.000000 0 0 1
9.081836 28.420988 26.231763 39.728299 1.261505 0.849606 0.052057 -0.026751 312718.000000 0 0 1
10.131636 28.055568 27.108543 40.306799 1.224243 0.833140 0.049559 -0.014867 -101507.000000 0 0 1
11.347636 28.981168 27.155023 41.304627 1.197594 0.853389 0.045971 -0.014292 -935226.000000 0 0 1
11.096236 30.228948 27.742883 42.503921 1.218993 0.859636 0.063886 -0.021623 334618.000000 0 0 1
12.279336 30.996718 28.008633 43.543796 1.193614 0.872088 0.064820 -0.005653 278566.000000 0 0 1
12.076036 32.180528 29.019383 44.983793 1.211799 0.869632 0.047230 -0.014643 63981.600000 0 0 1
11.666036 31.950088 30.369883 45.598622 1.220704 0.841927 0.062151 -0.035561 209335.000000 0 0 1
10.286736 31.708038 30.556243 45.220577 1.257089 0.828862 0.091242 -0.030261 -40509.100000 0 0 1
9.885636 31.464248 32.011203 45.961308 1.266376 0.800314 0.126712 -0.030472 140041.000000 0 0 1
10.475536 30.288568 32.614443 45.725662 1.237816 0.776653 0.108477 -0.036639 344229.000000 0 0 1
10.523236 30.286298 34.001227 46.734161 1.236387 0.756059 0.123788 -0.031700 -79843.600000 0 0 1
10.775736 28.848568 -33.885174 45.788223 1.213317 2.403928 0.103649 -0.033097 -375610.000000 0 0 1
12.085636 28.419778 -34.110980 46.014186 1.168710 2.405823 0.112846 -0.026260 -433315.000000 0 0 1
12.073036 27.003728 -34.065354 45.115495 1.150367 2.426557 0.114346 -0.028260 843999.000000 0 0 1
13.478536 26.319248 -33.891344 44.977738 1.097502 2.424187 0.122290 -0.030319 823775.000000 0 0 1
13.329036 24.916548 -33.735804 44.006841 1.079583 2.444331 0.091390 -0.031295 -90260.700000 0 0 1
13.520036 24.532108 -32.418604 42.843688 1.067097 2.429004 0.087392 -0.029351 -42106.700000 0 0 1
13.426836 22.992088 -32.277804 41.842236 1.042242 2.451861 0.071434 -0.042064 -349988.000000 0 0 1
14.452236 22.391688 -33.026554 42.438286 0.997641 2.462631 0.074206 -0.033232 -227818.000000 0 0 1
14.456036 20.977188 -32.920844 41.626931 0.967402 2.483000 0.072401 -0.036013 815108.000000 0 0 1
15.823136 20.293888 -33.341914 42.117654 0.908557 2.484281 0.087518 -0.046634 1197260.000000 0 0 1
16.877036 20.560188 -32.418864 41.934931 0.883465 2.454472 0.077209 -0.041982 335387.000000 0 0 1
18.039236 19.847188 -32.827044 42.390326 0.833082 2.456562 0.084507 -0.041721 -577981.000000 0 0 1
19.241236 20.010588 -31.931054 42.311240 0.804996 2.425948 0.066269 -0.042878 -932387.000000 0 0 1
19.809036 21.253888 -32.196524 43.367520 0.820570 2.407458 0.048362 -0.033844 158401.000000 0 0 1
20.873436 21.630988 -31.311724 43.405346 0.803219 2.376588 0.031816 -0.020428 661735.000000 0 0 1
20.337936 22.052388 -29.932684 42.378120 0.825821 2.355088 0.026994 -0.021992 -86831.300000 0 0 1
19.595336 23.222488 -29.936464 42.655047 0.869908 2.348755 0.013707 -0.007142 -348656.000000 0 0 1
19.134636 23.758468 -28.723084 41.900056 0.892782 2.326106 0.032140 -0.000599 592186.000000 0 0 1
20.284636 24.320238 -27.758454 42.112613 0.875627 2.290482 0.014679 0.000722 1241060.000000 0 0 1
21.105136 25.380548 -28.225054 43.431010 0.877113 2.278226 0.024552 0.000969 18173.800000 0 0 1
20.380836 26.572268 -28.432214 43.930112 0.916506 2.274721 0.016420 0.004491 -296247.000000 0 0 1
21.151636 27.523228 -29.399594 45.489075 0.915559 2.273522 0.016723 0.003015 -292049.000000 0 0 1
21.323236 27.179048 -30.770984 46.262669 0.905549 2.298473 0.017076 0.005458 19127.000000 0 0 1
22.045436 26.022948 -31.120474 46.170109 0.867957 2.310460 0.016020 0.003840 255664.000000 0 0 1
23.496436 25.788218 -30.603374 46.407771 0.831866 2.290877 0.032653 -0.002805 -64586.900000 0 0 1
24.437936 26.719338 -31.091634 47.726570 0.829964 2.280295 0.029500 0.000044 -217200.000000 0 0 1
25.655136 26.466718 -30.408394 47.784345 0.800968 2.260576 0.045687 -0.015985 303506.000000 0 0 1
26.815936 27.345818 -31.010304 49.280089 0.795181 2.251405 0.041865 -0.007787 138076.000000 0 0 1
26.862536 28.592318 -30.344724 49.597568 0.816581 2.229154 0.029916 -0.000851 224848.000000 0 0 1
27.900236 29.418268 -30.859424 50.952544 0.811876 2.221379 0.036403 -0.006702 332631.000000 0 0 1
27.982536 30.685018 -30.004444 51.233381 0.831430 2.196469 0.028678 0.000080 -105236.000000 0 0 1
28.589736 30.534618 -28.752204 50.758498 0.818281 2.172989 0.039187 -0.003812 229759.000000 0 0 1
27.813136 31.254558 -27.807884 50.236405 0.843595 2.157406 0.038157 0.002389 -710411.000000 0 0 1
28.386436 31.299548 -26.394504 49.820892 0.834167 2.129147 0.054659 0.008247 -223389.000000 0 0 1
28.618636 29.987418 -25.781964 48.815789 0.808750 2.127214 0.049784 0.011430 50963.500000 0 0 1
27.470336 29.232528 -25.463294 47.513571 0.816466 2.136389 0.064042 0.008079 -395189.000000 0 0 1
26.901136 29.452588 -24.090294 46.599016 0.830643 2.114104 0.065916 0.012636 -192848.000000 0 0 1
26.163136 30.629538 -23.878794 46.828144 0.863881 2.105893 0.081579 0.006684 366227.000000 0 0 1
25.477736 30.709978 -22.609694 45.863014 0.878251 2.086312 0.064401 0.014148 520909.000000 0 0 1
3.353436 -26.742765 -19.912394 33.510064 -1.446051 2.207093 0.058896 -0.019649 -174286.000000 0 0 1
3.383936 -27.585435 -18.809894 33.559191 -1.448735 2.165785 0.068125 -0.005498 281122.000000 0 0 1
3.290436 -26.750955 -17.657294 32.221430 -1.448409 2.150766 0.079852 -0.004496 -66539.600000 0 0 1
3.341736 -27.603575 -16.323694 32.242635 -1.450321 2.101658 0.083030 -0.010250 517144.000000 0 0 1
4.642736 -28.173745 -16.155094 32.807041 -1.407475 2.085673 0.073752 -0.010637 419809.000000 0 0 1
4.780936 -28.775245 -14.896794 32.753420 -1.406153 2.042962 0.074738 -0.021314 251338.000000 0 0 1
6.049136 -29.618015 -14.582894 33.563069 -1.369329 2.020271 0.080407 -0.011531 616968.000000 0 0 1
7.244036 -28.845545 -14.476994 33.077558 -1.324753 2.023800 0.065626 -0.010639 -176239.000000 0 0 1
8.427236 -29.500145 -14.128794 33.777206 -1.292540 2.002362 0.058850 -0.004795 -155397.000000 0 0 1
8.580936 -30.129065 -12.713694 33.808742 -1.293337 1.956323 0.048938 -0.008305 -989082.000000 0 0 1
8.910036 -29.245955 -11.658094 32.720418 -1.275071 1.935095 0.048887 -0.017445 -8061.830000 0 0 1
8.820636 -29.786795 -10.352694 32.745000 -1.282898 1.892477 0.052399 -0.017980 -459003.000000 0 0 1
9.855136 -30.873965 -9.969194 33.907377 -1.261814 1.869219 0.040398 -0.011705 -339335.000000 0 0 1
11.142536 -30.309785 -9.870294 33.767763 -1.218510 1.867427 0.041441 -0.017215 -556510.000000 0 0 1
12.016036 -31.396575 -9.735394 34.998684 -1.205276 1.852679 0.047558 -0.016094 -64202.000000 0 0 1
13.210336 -31.151275 -8.764494 34.953272 -1.169713 1.824250 0.057268 -0.014598 -471645.000000 0 0 1
14.219636 -30.329755 -9.231594 34.746430 -1.132390 1.839710 0.062199 -0.021380 -214566.000000 0 0 1
15.074036 -29.935585 -8.165894 34.497067 -1.104313 1.809777 0.058897 -0.019424 -530334.000000 0 0 1
16.368336 -29.240685 -8.566394 34.587905 -1.060476 1.821071 0.067998 -0.019416 -521574.000000 0 0 1
16.352436 -27.929785 -9.066594 33.610685 -1.041119 1.843933 0.072500 -0.020508 25516.400000 0 0 1
15.683536 -27.806625 -10.320794 33.551460 -1.057252 1.883477 0.050593 -0.018436 -161827.000000 0 0 1
15.415036 -26.338745 -10.720694 32.346346 -1.041285 1.908620 0.050954 -0.010253 -1266230.000000 0 0 1
14.683736 -25.624725 -9.735994 31.097077 -1.050444 1.889235 0.045832 -0.016675 299382.000000 0 0 1
14.260036 -24.333915 -10.070494 29.948337 -1.040723 1.913741 0.027765 -0.014601 138489.000000 0 0 1
13.471636 -24.178315 -11.391194 29.930506 -1.062459 1.961228 0.016696 -0.013286 157177.000000 0 0 1
14.375336 -24.081715 -12.513394 30.710980 -1.032630 1.990464 0.016125 -0.003239 518613.000000 0 0 1
13.538336 -24.000815 -13.635494 30.744956 -1.057209 2.030300 0.017084 -0.003386 -287232.000000 0 0 1
14.116036 -23.350315 -14.855294 31.067337 -1.027050 2.069360 0.006076 0.002677 17997.300000 0 0 1
15.268136 -24.094215 -15.251994 32.346104 -1.005976 2.061816 0.010019 0.002267 247460.000000 0 0 1
15.701236 -23.653015 -16.524694 32.849040 -0.984770 2.097920 0.008606 -0.005277 -660925.000000 0 0 1
16.729336 -24.556315 -17.208194 34.336645 -0.972756 2.095736 0.021155 -0.010107 300800.000000 0 0 1
18.079036 -24.518315 -16.783094 34.780332 -0.935428 2.074355 0.041710 -0.012912 459202.000000 0 0 1
18.851536 -23.400415 -17.249794 34.648452 -0.892646 2.091916 0.045734 -0.017917 156012.000000 0 0 1
20.359636 -23.421315 -16.883394 35.328766 -0.855216 2.069052 0.046491 -0.014998 381206.000000 0 0 1
21.084736 -24.409815 -17.553094 36.722149 -0.858356 2.069170 0.062176 -0.009849 -723116.000000 0 0 1
22.344836 -24.652415 -16.995194 37.361342 -0.834459 2.043042 0.068005 -0.000876 3135.300000 0 0 1
23.046836 -25.880835 -17.672394 38.900999 -0.843256 2.042373 0.064259 -0.015065 -250597.000000 0 0 1
23.597336 -25.552895 -18.934094 39.601573 -0.825165 2.069303 0.065824 -0.015514 -204910.000000 0 0 1
23.899336 -26.737155 -19.670094 40.901910 -0.841383 2.072487 0.061976 -0.022596 396362.000000 0 0 1
25.154936 -26.593845 -20.631094 42.019584 -0.813197 2.084019 0.061410 -0.021627 480762.000000 0 0 1
25.151536 -25.596895 -21.661394 41.916784 -0.794174 2.113872 0.058588 -0.031693 -90665.500000 0 0 1
25.663936 -24.344715 -21.157694 41.218330 -0.759024 2.109831 0.064423 -0.032895 11703.200000 0 0 1
24.604336 -23.166115 -21.178894 39.882173 -0.755300 2.130620 0.081727 -0.026823 339408.000000 0 0 1
24.315336 -22.456215 -22.354094 39.940238 -0.745670 2.164806 0.076152 -0.022666 126501.000000 0 0 1
23.773436 -23.311015 -23.388594 40.689138 -0.775577 2.183170 0.041795 -0.021686 -414661.000000 0 0 1
23.038236 -22.455415 -24.430894 40.396467 -0.772588 2.220283 0.030853 -0.015830 -143377.000000 0 0 1
23.896136 -21.828515 -25.355954 41.114885 -0.740210 2.235353 0.017632 -0.007844 -69182.500000 0 0 1
23.178136 -20.798715 -26.019544 40.581143 -0.731345 2.266823 0.008716 0.004053 -12982.600000 0 0 1
23.843036 -20.070815 -27.232284 41.387501 -0.699708 2.288934 0.011280 0.006811 -32276.000000 0 0 1
23.052636 -19.113815 -27.922334 40.944092 -0.692257 2.321239 0.010095 0.007156 134518.000000 0 0 1
23.490136 -19.018515 -29.273034 42.076132 -0.680590 2.340212 0.020307 0.000927 -93553.600000 0 0 1
22.635136 -17.998515 -30.060044 41.712134 -0.671782 2.375542 0.048681 -0.001614 -587254.000000 0 0 1
21.315436 -18.454015 -30.158194 41.284563 -0.713572 2.389844 0.048523 -0.003893 -559281.000000 0 0 1
20.605336 -17.515215 -30.907554 41.068717 -0.704513 2.422770 0.055322 -0.011980 -424263.000000 0 0 1
19.230936 -18.078215 -31.300474 40.943503 -0.754512 2.441030 0.052405 -0.013454 -242133.000000 0 0 1
19.318136 -18.725415 -32.537134 42.219623 -0.769819 2.450678 0.061080 -0.011860 1186790.000000 0 0 1
18.021436 -19.197215 -32.933804 42.165633 -0.816979 2.467155 0.056711 -0.021192 694117.000000 0 0 1
18.214036 -19.898815 34.201828 43.560062 -0.829574 0.667834 0.085167 -0.016302 365357.000000 0 0 1
19.036336 -21.077615 -34.118931 44.393123 -0.836241 2.447389 0.078433 -0.010742 537959.000000 0 0 1
19.022636 -21.935315 33.280597 44.165788 -0.856393 0.717369 0.060415 -0.016955 133074.000000 0 0 1
19.957236 -23.240115 33.354457 45.287018 -0.861250 0.742896 0.050448 -0.004171 312217.000000 0 0 1
19.590236 -24.223915 -34.237257 46.290011 -0.890764 2.403310 0.059871 -0.007588 -225115.000000 0 0 1
20.062036 -24.055315 -32.912044 45.435075 -0.875667 2.380924 0.060668 -0.012198 -316727.000000 0 0 1
19.346836 -24.809215 -31.771684 44.712829 -0.908479 2.361107 0.066968 -0.015270 -169925.000000 0 0 1
19.367236 -26.202835 -31.774124 45.511244 -0.934290 2.343620 0.072716 -0.027002 419772.000000 0 0 1
20.384436 -26.670735 -30.876944 45.609637 -0.918206 2.314452 0.060487 -0.020337 375864.000000 0 0 1
20.541936 -28.206325 -30.892684 46.603925 -0.941345 2.295452 0.066173 -0.030863 603890.000000 0 0 1
19.384436 -28.902745 -30.416224 46.219819 -0.980022 2.289059 0.070755 -0.029090 457795.000000 0 0 1
19.691336 -30.235175 -30.544674 47.274640 -0.993527 2.273275 0.078894 -0.023350 74214.600000 0 0 1
18.483836 -31.099565 -30.126014 47.078783 -1.034546 2.265173 0.104075 -0.024968 991878.000000 0 0 1
17.235836 -30.965725 -30.825434 46.969751 -1.062892 2.286678 0.122025 -0.029160 588809.000000 0 0 1
17.252736 -31.444425 -32.204764 48.203273 -1.068972 2.302453 0.115621 -0.034784 -1401690.000000 0 0 1
15.923536 -31.875245 -32.743224 48.391207 -1.107502 2.313980 0.128615 -0.043707 -784035.000000 0 0 1
14.933136 -30.900475 -32.914424 47.552047 -1.120626 2.335297 0.133847 -0.039886 -199352.000000 0 0 1
13.803036 -31.403605 -33.575314 48.000124 -1.156678 2.345471 0.096473 -0.031202 175381.000000 0 0 1
12.823436 -30.429205 34.219283 47.553510 -1.171963 0.767577 0.089537 -0.028293 557581.000000 0 0 1
12.069136 -29.567795 -33.388674 46.203053 -1.183254 2.378426 0.099758 -0.038782 521685.000000 0 0 1
11.217836 -28.724545 -34.193603 46.044997 -1.198479 2.407760 0.072761 -0.037816 801843.000000 0 0 1
10.069136 -27.985745 -33.408004 44.729008 -1.225422 2.414181 0.069488 -0.037249 996417.000000 0 0 1
8.901636 -28.776505 -33.171384 44.806998 -1.270796 2.404338 0.061765 -0.020059 321974.000000 0 0 1
7.936636 -27.989095 -32.510594 43.627037 -1.294488 2.411622 0.016840 -0.017865 299918.000000 0 0 1
6.951136 -28.708085 -31.552414 43.220681 -1.333237 2.389163 0.011818 -0.019582 365039.000000 0 0 1
5.985836 -29.633965 -32.076174 44.078147 -1.371486 2.385776 0.019647 -0.017474 72613.800000 0 0 1
6.363036 -30.894605 -32.529804 45.311731 -1.367677 2.371594 0.019130 -0.014527 -896580.000000 0 0 1
5.220936 -31.845615 -32.853184 46.051417 -1.408297 2.365138 0.026065 -0.023637 -429163.000000 0 0 1
4.576536 -32.139305 -31.614584 45.314032 -1.429350 2.342947 0.018275 -0.035873 284415.000000 0 0 1
3.380636 -32.862835 -31.914984 45.934310 -1.468286 2.338933 0.049920 -0.062192 -479942.000000 0 0 1
2.602836 -33.259865 -30.658844 45.309580 -1.492698 2.314003 0.042813 -0.070865 342872.000000 0 0 1
1.613936 -32.391055 -30.121974 44.261931 -1.521011 2.319294 0.046443 -0.061868 905427.000000 0 0 1
0.409836 -32.252385 -30.902144 44.669081 -1.558090 2.334777 0.048803 -0.031730 331293.000000 0 0 1
-0.476164 -31.022335 -30.636284 43.602682 1.555448 2.349875 0.050956 -0.023362 -161553.000000 0 0 1
-1.112164 -31.100545 -29.398004 42.810319 1.535051 2.327741 0.047341 -0.027529 -452729.000000 0 0 1
-1.599064 -29.863505 -29.098574 41.726645 1.517302 2.342506 0.066423 -0.020307 36172.100000 0 0 1
-2.284264 -29.780775 -27.691394 40.729912 1.494244 2.318393 0.062892 -0.021400 81978.000000 0 0 1
-1.330964 -30.043535 -26.713864 40.224569 1.526524 2.297110 0.045820 -0.019175 -72135.900000 0 0 1
-1.978064 -30.143635 -25.443074 39.495588 1.505269 2.270774 0.054922 -0.022185 289109.000000 0 0 1
-0.967664 -30.455925 -24.334694 38.995859 1.539034 2.244689 0.043949 -0.010238 133706.000000 0 0 1
-1.552064 -30.487775 -23.051394 38.252844 1.519932 2.217559 0.067949 -0.016934 246724.000000 0 0 1
-0.626064 -31.034825 -22.086694 38.096907 1.550626 2.189219 0.053071 -0.009164 750430.000000 0 0 1
-1.246764 -31.131195 -20.659694 37.383534 1.530769 2.156327 0.032137 -0.004428 204571.000000 0 0 1
-1.450164 -29.856365 -20.180394 36.065964 1.522263 2.164628 0.043698 -0.007046 -409627.000000 0 0 1
-0.292064 -29.259145 -19.676994 35.261409 1.560815 2.162809 0.059863 -0.013842 -260760.000000 0 0 1
-0.601064 -27.904225 -19.065494 33.800889 1.549259 2.170082 0.054196 -0.014728 67972.500000 0 0 1
-1.397464 -27.968175 -17.906794 33.238907 1.520872 2.139725 0.054792 -0.014930 25226.500000 0 0 1
-1.061064 -26.792465 -17.127394 31.816814 1.531214 2.139230 0.064470 -0.014029 -342384.000000 0 0 1
-2.114564 -26.425495 -16.123094 31.027928 1.490947 2.117216 0.061961 -0.009185 -803395.000000 0 0 1
-1.881364 -25.148135 -15.601194 29.654097 1.496124 2.124811 0.053420 -0.002427 -254013.000000 0 0 1
-2.839864 -24.785315 -14.659294 28.935645 1.456715 2.102053 0.054937 -0.004322 -334532.000000 0 0 1
-2.497464 -23.481015 -13.939194 27.420731 1.464834 2.104058 0.048562 -0.003430 494785.000000 0 0 1
-1.471664 -23.688715 -12.941194 27.033229 1.508751 2.069986 0.054645 -0.002635 325404.000000 0 0 1
-1.370964 -22.499715 -12.163594 25.613858 1.509939 2.065628 0.050475 -0.002173 888288.000000 0 0 1
-0.140064 -22.562215 -11.166794 25.174798 1.564588 2.030375 0.049142 -0.005314 851648.000000 0 0 1
0.095636 -21.292915 -10.606394 23.788505 -1.566305 2.032934 0.038863 -0.003318 24515.700000 0 1 0
1.342536 -21.287115 -9.929894 23.527568 -1.507812 2.006506 0.027743 -0.005914 322877.000000 0 1 0
1.944436 -19.908415 -9.725594 22.242144 -1.473436 2.023346 0.028707 -0.006724 -744707.000000 0 1 0
2.535636 -19.336815 -10.893194 22.338387 -1.440410 2.080186 0.033155 0.004688 420653.000000 0 1 0
3.408736 -18.208415 -10.699994 21.392889 -1.385732 2.094587 0.020867 0.007066 615818.000000 0 1 0
4.748136 -18.465815 -9.967894 21.514879 -1.319117 2.052514 0.031624 -0.010816 -419093.000000 0 1 0
4.604836 -18.705815 -8.583694 21.090088 -1.329424 1.989965 0.029167 -0.017200 -365812.000000 0 1 0
5.643636 -19.506015 -8.084594 21.856255 -1.289159 1.949696 0.034083 -0.017480 -456294.000000 0 1 0
5.132936 -20.534115 -7.026894 22.301886 -1.325845 1.891338 0.043383 -0.024139 328269.000000 0 1 0
4.408836 -21.623915 -7.648294 23.356539 -1.369666 1.904409 0.038441 -0.020751 342772.000000 0 1 0
3.993236 -22.615815 -6.757494 23.939188 -1.396029 1.856964 0.050085 -0.023277 45994.900000 0 1 0
3.172836 -23.722515 -7.435994 25.062294 -1.437838 1.872032 0.042888 -0.018059 220813.000000 0 0 1
3.960036 -24.361815 -8.442394 26.085511 -1.409655 1.900374 0.061033 -0.015053 104987.000000 0 0 1
3.186336 -25.106075 -9.341394 26.976459 -1.444556 1.924399 0.058395 -0.011439 3628.870000 0 0 1
4.014736 -26.066955 -10.232394 28.289682 -1.417981 1.940888 0.051181 -0.012267 134935.000000 0 0 1
4.501236 -27.265265 -9.599094 29.254032 -1.407182 1.905118 0.059635 -0.022580 129669.000000 0 0 1
5.368236 -27.911605 -10.517394 30.306620 -1.380787 1.925202 0.072133 -0.010188 16826.000000 0 0 1
5.190236 -29.449585 -10.671694 31.750616 -1.396346 1.913580 0.055849 -0.015770 -1406700.000000 0 0 1
4.059836 -29.878375 -11.291794 32.197890 -1.435745 1.929115 0.062020 -0.014307 -1003580.000000 0 0 1
3.981536 -31.276455 -11.151794 33.442963 -1.444176 1.910765 0.068670 -0.016928 438587.000000 0 0 1
2.608736 -31.874185 -11.603194 34.020630 -1.489134 1.918844 0.071002 -0.025123 332042.000000 0 0 1
2.263236 -31.837125 -12.954394 34.446205 -1.499828 1.956354 0.079316 -0.029357 334494.000000 0 0 1
1.331936 -32.841775 -13.327094 35.467840 -1.530262 1.956004 0.080657 -0.026405 119336.000000 0 0 1
0.760536 -32.725695 -14.783094 35.917814 -1.547561 1.994985 0.090518 -0.025448 -148754.000000 0 0 1
-0.309864 -31.851305 -15.001794 35.208741 1.561068 2.010953 0.083842 -0.024760 -384284.000000 0 0 1
-0.761164 -31.944225 -16.335594 35.886829 1.546973 2.043390 0.043812 -0.016901 -194038.000000 0 0 1
-1.982764 -31.065225 -16.569394 35.263641 1.507057 2.059942 0.053962 -0.006611 655124.000000 0 0 1
-3.159264 -31.315275 -15.755094 35.197306 1.470251 2.034901 0.049615 -0.011106 917826.000000 0 0 1
-4.322464 -30.964785 -16.501994 35.352756 1.432100 2.056444 0.048245 -0.002595 474380.000000 0 0 1
-5.653464 -31.084995 -15.739794 35.298437 1.390892 2.032983 0.039945 -0.018949 -755795.000000 0 0 1
-5.812064 -30.049925 -14.779594 33.988446 1.379742 2.020659 0.020582 -0.014955 215234.000000 0 0 1
-7.094664 -29.812625 -14.195594 33.773388 1.337167 2.004593 0.039491 -0.013500 326957.000000 0 0 1
-7.601764 -30.997015 -13.351794 34.595840 1.330301 1.967019 0.030730 -0.018347 -384438.000000 0 0 1
-7.761664 -32.187925 -14.044994 35.966203 1.334178 1.971977 0.049080 -0.018336 -136323.000000 0 0 1
-8.711264 -32.944785 -13.281894 36.573948 1.312292 1.942445 0.047149 -0.020164 532920.000000 0 0 1
-9.119264 34.204340 -13.972794 38.057021 -1.310246 1.946744 0.081282 -0.021619 108731.000000 0 0 1
-7.995864 33.348119 -14.095494 37.077133 -1.335469 1.960773 0.092604 -0.019709 212078.000000 0 0 1
-8.353364 32.147058 -14.742694 36.339498 -1.316570 1.988534 0.114284 -0.028776 -47012.200000 0 0 1
-7.967664 -22.154515 -3.328294 23.777799 1.225559 1.711232 0.049344 -0.006028 57179.100000 0 1 0
-7.559064 -21.132915 -4.196894 22.833166 1.227286 1.755654 0.044156 -0.008493 188559.000000 0 1 0
-6.341064 -21.364515 -4.903594 22.818782 1.282275 1.787378 0.035475 0.000324 594159.000000 0 1 0
-5.981264 -20.289615 -5.941094 21.971358 1.284122 1.844607 0.034227 -0.009454 647656.000000 0 1 0
-7.007064 -20.273415 -6.959094 22.550815 1.238021 1.884513 0.039569 -0.017522 453827.000000 0 1 0
-6.759064 -19.254815 -7.877894 21.874507 1.233202 1.939215 0.022516 -0.018224 -19778.500000 0 1 0
-7.782964 -19.251115 -9.068694 22.658799 1.186600 1.982562 0.019230 -0.028276 471002.000000 0 1 0
-7.465664 -20.182515 -10.032694 23.742893 1.216498 2.007060 0.032264 -0.011239 119430.000000 0 1 0
-8.423264 -20.138215 -11.099794 24.488865 1.174638 2.041214 0.041666 -0.011060 365600.000000 0 1 0
-8.047464 -21.085615 -12.249794 25.679219 1.206203 2.068070 0.036702 -0.004531 -324884.000000 0 0 1
-6.990964 -20.522715 -13.027294 25.293592 1.242480 2.111854 0.038084 0.003650 1071.930000 0 0 1
-6.912364 -21.197615 -14.220894 26.445292 1.255577 2.138560 0.030792 0.006213 -129875.000000 0 0 1
-5.764164 -20.712515 -15.115594 26.281458 1.299370 2.183575 0.021479 0.016665 -254094.000000 0 0 1
-4.462664 -20.765015 -14.554794 25.747684 1.359104 2.171576 0.026391 0.013531 365631.000000 0 0 1
-3.429064 -20.201215 -15.345494 25.599448 1.402654 2.213605 0.034750 0.016166 188604.000000 0 0 1
-3.433764 -18.654915 -15.541194 24.521935 1.388766 2.257210 0.046953 0.016078 -371431.000000 0 1 0
-4.559864 -18.181315 -16.299494 24.840009 1.325065 2.286540 0.035355 0.016555 351457.000000 0 1 0
-4.578664 -18.392415 -17.729494 25.953421 1.326813 2.322833 0.031694 0.004877 -1436720.000000 0 0 1
-5.892664 -17.952715 -18.285394 26.294088 1.253644 2.339798 0.014459 0.018323 -680897.000000 0 0 1
-6.919264 -18.881015 -18.039994 27.015002 1.219528 2.302015 0.017730 0.021643 -203921.000000 0 0 1
-8.068764 -18.851615 -18.840494 27.846949 1.166375 2.313895 -0.003429 0.022081 606362.000000 0 0 1
-9.168164 -19.908515 -18.444694 28.646307 1.139233 2.270351 0.013876 0.019542 299400.000000 0 0 1
-8.617464 -21.185315 -18.444894 29.381837 1.184471 2.249475 0.024019 0.014261 239989.000000 0 0 1
-9.510564 -22.174615 -17.952994 30.074480 1.165632 2.210492 0.036852 0.009538 11579.000000 0 0 1
-9.017064 -23.606315 -18.146494 31.110461 1.205923 2.193572 0.042967 -0.007339 -1094380.000000 0 0 1
-8.983864 -24.021015 -19.526294 32.233447 1.212902 2.221539 0.042541 -0.013587 87881.800000 0 0 1
-8.010564 -24.987115 -19.866194 32.911863 1.260560 2.218828 0.057594 -0.027070 -357853.000000 0 0 1
-6.562264 -24.527515 -19.716994 32.146884 1.309372 2.231080 0.061937 -0.017949 -1655410.000000 0 0 1
-6.252064 -23.394415 -20.547194 31.758056 1.309653 2.274429 0.067538 -0.018030 221462.000000 0 0 1
-5.822764 -22.135415 -19.971094 30.376401 1.313572 2.288231 0.046749 -0.014217 475297.000000 0 0 1
-4.607864 -22.219715 -18.981094 29.584287 1.366317 2.267371 0.048114 0.001512 215750.000000 0 0 1
-3.376064 -22.569215 -19.576394 30.066634 1.422310 2.279830 0.062668 -0.009875 791392.000000 0 0 1
-2.343064 -22.623215 -18.540794 29.343838 1.467595 2.254729 0.063506 -0.003355 1314490.000000 0 0 1
-0.947864 -23.149115 -18.966094 29.941487 1.529873 2.256785 0.080835 -0.008867 23081.500000 0 0 1
-0.181564 -22.418515 -19.856594 29.948407 1.562698 2.295651 0.092802 -0.010412 400258.000000 0 0 1
1.149736 -22.997515 -19.810794 30.375568 -1.520844 2.281273 0.081089 -0.020129 1421710.000000 0 0 1
2.137036 -22.233515 -20.767694 30.499069 -1.474973 2.319826 0.088304 -0.016150 207604.000000 0 0 1
1.812736 -22.341415 -22.121294 31.492483 -1.489836 2.349604 0.074495 -0.023678 -309043.000000 0 0 1
1.150836 -21.250915 -22.647394 31.077810 -1.516695 2.387265 0.085155 -0.018681 -580518.000000 0 0 1
0.657336 -21.518615 -24.095194 32.311936 -1.540259 2.412390 0.084504 -0.025601 -10632.800000 0 0 1
0.020836 -20.471215 -24.821594 32.174253 -1.569779 2.451951 0.077839 -0.030138 -991610.000000 0 0 1
-1.257464 -20.174715 -24.416994 31.698421 1.508548 2.450093 0.061793 -0.021043 -1260070.000000 0 0 1
-1.799364 -18.853615 -25.055694 31.408348 1.475646 2.494334 0.055371 -0.015097 -348484.000000 0 0 1
-1.113664 -17.741215 -24.710094 30.439771 1.508106 2.517973 0.051722 -0.010691 -572454.000000 0 0 1
-1.751864 -16.603215 -25.227764 30.251873 1.465672 2.556977 0.057756 -0.013450 -47169.000000 0 0 1
-1.094664 -15.264615 -24.839794 29.175711 1.499206 2.589418 0.051456 -0.008499 339538.000000 0 0 1
0.253436 -15.130615 -25.285004 29.467459 -1.554048 2.602287 0.062834 -0.025832 485004.000000 0 0 1
0.906336 -13.882015 -24.883794 28.508507 -1.505600 2.631819 0.058349 -0.023250 524211.000000 0 0 1
0.295936 -12.581115 -25.504624 28.440427 -1.547278 2.683220 0.055301 -0.017753 -124128.000000 0 0 1
0.958136 -11.364515 -25.212524 27.672036 -1.486686 2.716788 0.049022 -0.017066 139509.000000 0 0 1
0.480136 -10.346715 -26.098734 28.078977 -1.524425 2.763786 0.042976 -0.016403 -521006.000000 0 0 1
1.255436 -9.012915 -25.845834 27.401020 -1.432394 2.803062 0.040442 -0.018767 778723.000000 0 0 1
2.625436 -8.997815 -26.238904 27.862765 -1.286892 2.798502 0.060377 -0.021780 304945.000000 0 0 1
2.979836 -9.305815 -27.598634 29.277333 -1.260901 2.801315 0.051786 -0.014223 -679721.000000 0 0 1
4.468436 -9.115515 -27.971504 29.756757 -1.115018 2.793442 0.050872 -0.016086 -114672.000000 0 0 1
4.732936 -7.739415 -28.036014 29.467224 -1.021937 2.828646 0.045128 -0.016889 225450.000000 0 0 1
5.992636 -7.399315 -28.590554 30.134388 -0.890054 2.820111 0.046514 -0.018889 858988.000000 0 0 1
7.313336 -7.405715 -27.706304 29.596770 -0.791674 2.782244 0.055462 -0.022348 778849.000000 0 0 1
7.824236 -8.666615 -27.423194 29.805376 -0.836435 2.739069 0.045845 -0.025488 492920.000000 0 0 1
8.566936 -9.365215 -28.442294 31.145846 -0.829885 2.721858 0.046929 -0.030815 -277350.000000 0 0 1
9.131036 -10.700515 -27.962804 31.301681 -0.864374 2.675503 0.055102 -0.032308 11204.200000 0 0 1
8.116436 -11.667915 -27.679624 31.115564 -0.963016 2.667210 0.049888 -0.028467 394189.000000 0 0 1
8.542136 -12.900115 -27.061644 31.172321 -0.985910 2.622220 0.056175 -0.024356 25604.800000 0 0 1
9.278036 -14.054615 -27.840514 32.537799 -0.987325 2.597575 0.058184 -0.028921 -233380.000000 0 0 1
8.491136 -14.538515 -28.876624 33.426445 -1.042192 2.613730 0.058018 -0.034677 -172677.000000 0 0 1
9.096436 -15.614115 -29.611474 34.689842 -1.043286 2.593666 0.063211 -0.032929 -366831.000000 0 0 1
8.122336 -16.201915 -30.597274 35.562165 -1.106094 2.606828 0.064130 -0.036843 -835149.000000 0 0 1
7.643836 -15.256015 -31.464174 35.793414 -1.106319 2.644661 0.059021 -0.037620 97640.700000 0 0 1
6.727036 -15.895815 -32.337574 36.655813 -1.170455 2.651300 0.056528 -0.029720 -279700.000000 0 0 1
5.878736 -14.870515 -33.066814 36.730177 -1.194324 2.691169 0.061872 -0.023308 -25648.000000 0 0 1
6.657136 -14.055615 -33.933254 37.327516 -1.128468 2.711838 0.071601 -0.014338 61952.900000 0 0 1
5.831336 -13.069215 33.961909 36.854038 -1.151116 0.398807 0.044967 -0.015790 -501919.000000 0 0 1
6.382336 -11.945215 33.139559 35.800178 -1.080086 0.387963 0.064877 -0.011881 -607001.000000 0 0 1
6.707536 -12.329815 31.811003 34.770034 -1.072564 0.415543 0.061315 -0.008577 260052.000000 0 0 1
7.093536 -11.247215 30.980383 33.713532 -1.008114 0.405437 0.059928 -0.004783 -210556.000000 0 0 1
7.479136 -11.622415 29.507483 32.583885 -0.998997 0.438039 0.046846 0.001944 58696.100000 0 0 1
6.422936 -12.074515 28.708193 31.799502 -1.081923 0.444589 0.041455 0.000956 289038.000000 0 0 1
6.956936 -12.029515 27.393233 30.716403 -1.046469 0.469463 0.036022 0.000310 505966.000000 0 0 1
6.131936 -12.927415 26.400923 30.028777 -1.127890 0.496642 0.029281 -0.015715 122791.000000 0 0 1
6.233736 -14.329515 26.593853 30.845218 -1.160463 0.531257 0.038586 -0.012655 -114369.000000 0 0 1
5.822436 -15.099615 25.489853 30.193240 -1.202764 0.565681 0.024027 -0.017538 797480.000000 0 0 1
4.293636 -15.434515 25.306013 29.950857 -1.299472 0.564385 0.035693 -0.022016 936829.000000 0 0 1
3.498936 -14.262515 25.186373 29.155021 -1.330224 0.527878 0.021034 -0.021131 -1007690.000000 0 0 1
2.171736 -14.510615 24.929343 28.926571 -1.422234 0.531960 0.025572 -0.021365 -502156.000000 0 0 1
1.258436 -13.244315 24.840253 28.178604 -1.476064 0.491706 0.034497 -0.016497 -31745.400000 0 0 1
1.451836 -12.562215 23.616133 26.788781 -1.455735 0.491623 0.019365 -0.014284 322932.000000 0 0 1
0.503136 -11.501915 23.428293 26.104254 -1.527081 0.456753 0.027427 -0.001651 1505420.000000 0 0 1
-0.939764 -11.921215 22.939653 25.869407 1.492128 0.480534 0.030476 0.001601 476604.000000 0 0 1
-0.932064 -12.355115 21.575753 24.880328 1.495499 0.521283 0.028217 -0.008304 7177.100000 0 1 0
-2.222164 -12.824315 21.196553 24.873579 1.399223 0.550675 0.044543 -0.016004 456607.000000 0 1 0
-2.251064 -13.566915 19.876353 24.170186 1.406371 0.605267 0.053383 -0.016042 -332925.000000 0 1 0
-1.393964 -14.653315 19.793853 24.666969 1.475952 0.639417 0.057400 -0.020342 -594284.000000 0 1 0
-1.603464 -15.362915 18.580453 24.162439 1.466800 0.693551 0.059117 -0.022160 207949.000000 0 1 0
-2.117064 -16.788815 18.734653 25.245465 1.445359 0.734599 0.039742 -0.016226 9418.020000 0 0 1
-2.236264 -17.422815 17.471153 24.774917 1.443142 0.788098 0.028292 -0.020387 -229245.000000 0 1 0
-3.031764 -18.581415 17.646853 25.804495 1.409060 0.817746 0.030631 -0.005754 296222.000000 0 0 1
-2.458664 -19.782315 16.853853 26.104355 1.447144 0.868943 0.030196 -0.013920 825806.000000 0 0 1
-1.360264 -20.516415 17.400553 26.936088 1.504592 0.868471 0.034039 -0.013322 321286.000000 0 0 1
-1.836264 -21.808415 17.570253 28.065862 1.486795 0.894336 0.042572 -0.022668 408599.000000 0 0 1
-0.791964 -22.762015 18.232553 29.174689 1.536017 0.895736 0.061628 -0.015076 1137760.000000 0 0 1
0.291236 -23.160415 17.356553 28.943731 -1.558222 0.927713 0.069754 -0.016630 -124105.000000 0 0 1
1.256836 -23.848015 18.092153 29.960531 -1.518143 0.922454 0.071361 -0.014683 -189706.000000 0 0 1
2.655636 -23.734315 17.443853 29.574619 -1.459370 0.939954 0.064920 -0.020825 -24287.800000 0 0 1
3.091536 -22.379015 17.401753 28.516642 -1.433521 0.914444 0.062991 -0.020759 -152871.000000 0 0 1
4.110936 -22.208915 16.426453 27.927836 -1.387765 0.941996 0.047021 -0.019645 99084.100000 0 0 1
5.123236 -21.100315 16.793453 27.449788 -1.332602 0.912477 0.048006 -0.015505 -862816.000000 0 0 1
5.954536 -21.500915 17.868153 28.583504 -1.300624 0.895510 0.058153 -0.007974 34328.900000 0 0 1
6.679636 -20.426315 18.487353 28.348441 -1.254746 0.860383 0.069088 -0.009202 515121.000000 0 0 1
7.706536 -19.611815 17.666753 27.497784 -1.196379 0.873067 0.074442 -0.005676 -1217070.000000 0 0 1
7.178536 -18.745815 16.698253 26.110699 -1.205082 0.876926 0.067512 -0.004114 -475588.000000 0 0 1
8.075836 -17.881815 16.052253 25.350606 -1.146594 0.885103 0.069434 -0.010681 -405336.000000 0 0 1
7.318536 -16.914515 15.161353 23.864794 -1.162440 0.882397 0.059637 0.001141 -178995.000000 0 1 0
6.870136 -17.505915 13.953653 23.417093 -1.196818 0.932442 0.058047 -0.002160 118901.000000 0 1 0
6.099836 -16.553515 13.258153 22.068200 -1.217744 0.926319 0.049467 0.001557 -25371.000000 0 1 0
6.527536 -16.629115 11.798453 21.408869 -1.196740 0.987113 0.055285 -0.005343 1070410.000000 0 1 0
7.922236 -16.281015 11.638553 21.524153 -1.117931 0.999503 0.056591 0.002943 952702.000000 0 1 0
8.313236 -16.485115 10.267953 21.125808 -1.103725 1.063245 0.053402 -0.003290 -167627.000000 0 1 0
9.756436 -15.995715 10.139453 21.303977 -1.023100 1.074762 0.046455 -0.003509 -84998.300000 0 1 0
10.349436 -16.401015 8.882453 21.330778 -1.007877 1.141298 0.047674 -0.006293 -440403.000000 0 1 0
11.719136 -16.073115 8.949953 21.812492 -0.940797 1.147999 0.051117 -0.000360 89159.600000 0 1 0
12.548936 -17.092115 8.103053 22.699684 -0.937488 1.205777 0.054562 -0.009320 80421.400000 0 1 0
12.819836 -18.336115 8.720053 24.012509 -0.960636 1.199154 0.059914 -0.013806 -219361.000000 0 1 0
13.505136 -19.194715 7.873453 24.755141 -0.957668 1.247121 0.056222 -0.018327 -40582.800000 0 1 0
13.955436 -20.497315 8.672453 26.269860 -0.973044 1.234356 0.054777 -0.013371 412901.000000 0 0 1
12.898136 -21.371815 9.066753 26.557906 -1.027799 1.222395 0.056791 -0.011792 466314.000000 0 0 1
13.480336 -22.593415 9.529753 27.982102 -1.032845 1.223277 0.049311 -0.011029 542529.000000 0 0 1
12.461736 -23.373915 10.393053 28.454355 -1.080984 1.196891 0.060479 -0.017213 186250.000000 0 0 1
12.400136 -22.788615 11.703353 28.461426 -1.072465 1.147026 0.070833 -0.030140 -756668.000000 0 0 1
11.327736 -23.226315 12.459153 28.688147 -1.117028 1.121540 0.078390 -0.031366 -646186.000000 0 0 1
11.431736 -24.612615 13.077353 30.124451 -1.135977 1.121745 0.071861 -0.023264 -114212.000000 0 0 1
12.555136 -24.763615 13.910553 31.054332 -1.101565 1.106334 0.065521 -0.030417 -215734.000000 0 0 1
12.529336 -25.993115 14.642753 32.357943 -1.121632 1.101202 0.061220 -0.030622 -206799.000000 0 0 1
13.823136 -26.319475 15.412653 33.486470 -1.087188 1.092503 0.057129 -0.024670 -250664.000000 0 0 1
14.070636 -25.455145 16.498453 33.438692 -1.065835 1.054809 0.050238 -0.025807 -97370.600000 0 0 1
14.884136 -26.072375 17.432153 34.715791 -1.052066 1.044726 0.052566 -0.022704 -596716.000000 0 0 1
14.769636 -25.402205 18.843253 34.906766 -1.044142 1.000577 0.057304 -0.023455 61441.100000 0 0 1
15.096836 -24.015915 18.976253 34.128826 -1.009600 0.981209 0.035340 -0.028744 799436.000000 0 0 1
16.459136 -23.920915 19.434653 34.940221 -0.968126 0.980959 0.042773 -0.030292 713531.000000 0 0 1
16.879336 -22.434015 19.702353 34.298392 -0.925761 0.958877 0.041095 -0.030961 -140088.000000 0 0 1
16.926936 -21.467015 18.648553 33.092634 -0.903101 0.972149 0.035194 -0.024948 885492.000000 0 0 1
15.634336 -20.874215 18.412953 31.924945 -0.927949 0.956042 0.044918 -0.018496 70692.600000 0 0 1
15.652336 -19.889015 17.271153 30.640843 -0.904043 0.971981 0.044906 -0.013666 547024.000000 0 0 1
16.518136 -18.764815 17.571953 30.557170 -0.848988 0.958129 0.050816 -0.013496 430184.000000 0 0 1
17.893436 -19.029115 17.407553 31.389571 -0.816147 0.982956 0.052044 -0.011798 -669740.000000 0 0 1
18.787036 -17.795915 17.631153 31.313014 -0.758312 0.972711 0.061177 -0.010690 -120837.000000 0 0 1
18.996236 -17.401415 18.961953 31.987839 -0.741610 0.936282 0.059622 -0.004240 124174.000000 0 0 1
19.908636 -16.329015 19.006753 32.003862 -0.686936 0.934912 0.066990 -0.005201 -113670.000000 0 0 1
20.300236 -15.966815 20.485953 32.965330 -0.666476 0.900218 0.064566 -0.001122 -21256.600000 0 0 1
21.207136 -16.938915 20.974353 34.301500 -0.673970 0.912879 0.064018 0.000263 5008.100000 0 0 1
21.723336 -16.621215 22.260253 35.265946 -0.653115 0.887683 0.057583 0.000378 140949.000000 0 0 1
33.936273 -1.458115 -7.586594 34.804498 -0.042940 1.790538 0.097867 -0.014801 -118400.000000 0 0 1
35.196483 -0.999315 -7.999794 36.108001 -0.028385 1.794202 0.091987 -0.015329 115310.000000 0 0 1
36.132723 -2.047015 -8.146794 37.096282 -0.056592 1.792213 0.101746 -0.026046 359089.000000 0 0 1
-35.153186 -1.661415 -8.780994 36.271375 0.047227 1.815317 0.084761 -0.023499 631654.000000 0 0 1
-34.184119 -2.690115 -8.634694 35.360270 0.078533 1.817483 0.096347 -0.016814 -720321.000000 0 0 1
-32.991364 -2.445015 -9.268794 34.355767 0.073976 1.843970 0.141212 -0.027448 -837437.000000 0 0 1
-31.961584 -3.547315 -8.893194 33.364880 0.110534 1.840601 0.126149 -0.024303 -264429.000000 0 0 1
-31.620424 -3.451915 -7.514794 32.683927 0.108737 1.802795 0.117496 -0.030100 -871858.000000 0 0 1
-30.508524 -4.119715 -7.140594 31.602693 0.134223 1.798713 0.113382 -0.034607 -1207020.000000 0 0 1
-30.232544 -4.055415 -5.586094 31.010604 0.133345 1.751920 0.105373 -0.044523 -321343.000000 0 0 1
-29.595934 -2.857015 -5.237394 30.191260 0.096236 1.745152 0.106682 -0.038325 526576.000000 0 0 1
-29.828034 -2.556615 -3.863794 30.185705 0.085503 1.699149 0.095084 -0.038048 -93024.000000 0 0 1
-29.271794 -1.087815 -3.602694 29.512721 0.037145 1.693174 0.110804 -0.037042 176031.000000 0 0 1
-27.877974 -0.886115 -3.417394 28.100627 0.031775 1.692711 0.108854 -0.031739 629175.000000 0 0 1
-27.562974 0.473285 -3.123694 27.743450 -0.017169 1.683628 0.131196 -0.036381 1071300.000000 0 0 1
-26.038124 0.522885 -2.695494 26.182494 -0.020079 1.673929 0.131513 -0.027659 975001.000000 0 0 1
-25.817444 0.086585 -1.357894 25.853274 -0.003354 1.623344 0.130320 -0.026382 532140.000000 0 0 1
-24.439264 -0.048215 -1.029794 24.460998 0.001973 1.612908 0.110243 -0.026449 458227.000000 0 1 0
-24.147164 -0.833015 0.256706 24.162892 0.034484 1.560172 0.107499 -0.025905 -31975.500000 0 1 0
-24.406264 -2.195215 0.052206 24.504845 0.089703 1.568666 0.112710 -0.021947 297491.000000 0 1 0
-23.623264 -2.948015 0.956006 23.825687 0.124151 1.530661 0.097995 -0.019940 -77733.200000 0 1 0
-23.913564 -4.461315 0.819806 24.339966 0.184440 1.537108 0.104996 -0.011540 560123.000000 0 1 0
-25.112464 -4.953315 1.447306 25.637197 0.194745 1.514313 0.093866 -0.014022 686656.000000 0 0 1
-25.307594 -6.360515 1.550306 26.140656 0.246228 1.511455 0.093772 -0.004950 618988.000000 0 0 1
-26.611954 -6.899115 2.249606 27.583593 0.253664 1.489150 0.091600 -0.004220 513677.000000 0 0 1
-26.476314 -6.933315 3.666406 27.613558 0.256118 1.437628 0.090830 -0.006962 13980.200000 0 0 1
-27.556764 -7.678215 4.166906 28.908361 0.271740 1.426151 0.066947 0.001148 -440282.000000 0 0 1
-27.530644 -7.895815 5.691706 29.200613 0.279304 1.374623 0.074187 0.001938 280860.000000 0 0 1
-26.481794 -8.795515 6.114406 28.566282 0.320671 1.355085 0.071450 0.004875 570392.000000 0 0 1
-26.380284 -8.878515 7.552406 28.840705 0.324651 1.305841 0.056069 -0.002357 7880.930000 0 0 1
-25.742034 -7.659415 8.256806 28.097932 0.289203 1.272536 0.066286 -0.001776 -1067050.000000 0 0 1
-24.383764 -7.535015 8.029206 26.754673 0.299709 1.265994 0.081281 -0.004427 -1034950.000000 0 0 1
-24.023464 -6.165215 8.024506 26.067785 0.251212 1.257882 0.081779 -0.012771 15888.700000 0 0 1
-22.617764 -5.879415 7.430906 24.522421 0.254318 1.262931 0.094771 -0.018010 253359.000000 0 1 0
-21.582964 -6.116215 8.354806 23.938154 0.276142 1.214275 0.096426 -0.027578 -742413.000000 0 1 0
-20.332264 -5.901115 7.790706 22.559238 0.282473 1.218191 0.087669 -0.024605 -899031.000000 0 1 0
-19.180564 -6.100415 8.755906 21.949373 0.307935 1.160464 0.086163 -0.033150 -650569.000000 0 1 0
-19.048464 -5.216815 9.843606 22.067073 0.267316 1.108419 0.073613 -0.025844 237230.000000 0 1 0
-18.039564 -5.710515 10.712406 21.743769 0.306575 1.055646 0.071700 -0.028854 -39038.100000 0 1 0
-17.764464 -4.596315 11.718806 21.772292 0.253184 1.002444 0.055312 -0.019119 153590.000000 0 1 0
-18.815564 -4.497115 12.674106 23.127526 0.234609 0.990813 0.056753 -0.014789 432908.000000 0 1 0
-18.901364 -3.219115 13.237206 23.299096 0.168693 0.966549 0.053770 -0.014543 70081.600000 0 1 0
-20.176664 -3.118115 14.101706 24.812870 0.153328 0.966331 0.055439 -0.016724 -149207.000000 0 1 0
-20.061664 -3.843615 15.343006 25.547046 0.189296 0.926572 0.049453 -0.015116 736467.000000 0 0 1
-21.306964 -3.827115 16.052506 26.950259 0.177723 0.932741 0.038188 -0.008728 401638.000000 0 0 1
-21.276964 -4.782315 17.207306 27.778969 0.221091 0.902772 0.037683 -0.005363 -98870.500000 0 0 1
-22.121964 -4.553315 18.341506 29.095100 0.202993 0.888730 0.029716 -0.007525 461632.000000 0 0 1
-22.042564 -5.583515 19.255006 29.796066 0.248088 0.868167 0.043010 -0.005147 -631547.000000 0 0 1
-22.843064 -5.206315 20.483806 31.120694 0.224089 0.852364 0.040647 -0.001751 -844285.000000 0 0 1
-22.326764 -3.998915 21.007106 30.915598 0.177229 0.823717 0.037662 -0.006937 317746.000000 0 0 1
-22.852164 -3.578515 22.269106 32.108258 0.155333 0.804373 0.049410 -0.014979 -88412.100000 0 0 1
-22.779064 -2.107415 22.676806 32.211248 0.092253 0.789778 0.050855 -0.009348 156116.000000 0 0 1
-23.676564 -1.425415 21.820606 32.229650 0.060131 0.827070 0.064448 -0.015150 -16883.200000 0 0 1
-23.661964 -0.033515 22.196106 32.443132 0.001416 0.817353 0.063266 -0.017986 -564222.000000 0 0 1
-24.864664 0.741385 21.661406 32.985113 -0.029808 0.854358 0.086818 -0.021156 -44299.100000 0 0 1
-25.935394 0.523685 22.566206 34.382446 -0.020189 0.854853 0.087860 -0.020062 448601.000000 0 0 1
-27.218304 0.943485 22.082206 35.062089 -0.034650 0.889497 0.087937 -0.019750 1337660.000000 0 0 1
-28.332034 1.054885 23.193506 36.629983 -0.037216 0.885137 0.077222 -0.012454 312767.000000 0 0 1
-28.042084 2.032785 24.184806 37.086326 -0.072364 0.860416 0.065803 -0.009680 225210.000000 0 0 1
-29.010324 2.055285 25.242106 38.509571 -0.070729 0.855983 0.054870 -0.009890 166780.000000 0 0 1
-28.652464 3.033485 26.409406 39.084811 -0.105479 0.828889 0.066823 -0.008136 -291252.000000 0 0 1
-27.596194 2.547085 27.179106 38.816767 -0.092038 0.795133 0.055638 -0.008592 -247145.000000 0 0 1
-27.157984 3.438285 28.126106 39.248640 -0.125933 0.771862 0.051906 -0.009623 -357158.000000 0 0 1
-26.040274 2.999585 29.076806 39.147849 -0.114685 0.733638 0.061164 -0.012458 -340504.000000 0 0 1
-26.408454 2.004685 29.981106 40.003649 -0.075765 0.723551 0.053748 -0.014257 609300.000000 0 0 1
-25.382204 1.729985 30.964106 40.075242 -0.068052 0.687793 0.053568 -0.019290 629632.000000 0 0 1
-25.688044 0.496985 31.827206 40.903467 -0.019345 0.679153 0.029521 -0.021572 -227825.000000 0 0 1
-25.780474 -0.725215 31.130306 40.425917 0.028123 0.691864 0.034864 -0.016412 -236974.000000 0 0 1
-26.032914 -1.756115 32.026906 41.310038 0.067355 0.683636 0.048647 -0.012748 -767550.000000 0 0 1
-26.758604 -2.887315 31.319506 41.294926 0.107486 0.709888 0.051121 -0.009018 701878.000000 0 0 1
-28.090534 -2.675715 30.816406 41.783830 0.094967 0.741406 0.043917 -0.000138 755833.000000 0 0 1
-28.210254 -1.790115 29.724906 41.019422 0.063371 0.760264 0.047145 -0.001281 -680163.000000 0 0 1
-29.687974 -1.453715 29.432706 41.830291 0.048927 0.790315 0.046265 -0.008161 219368.000000 0 0 1
-30.379014 -0.873615 30.502506 43.058688 0.028749 0.783576 0.054074 -0.005690 -1450320.000000 0 0 1
-31.640414 -0.486515 30.120006 43.687152 0.015375 0.810070 0.033205 -0.011408 -736987.000000 0 0 1
-32.572564 -0.086215 31.274506 45.156108 0.002647 0.805728 0.031350 -0.001142 -88469.800000 0 0 1
-32.770794 -1.160415 32.212906 45.966758 0.035395 0.794296 0.024284 -0.004509 -400974.000000 0 0 1
-33.745034 -0.832815 33.143706 47.306724 0.024675 0.794540 0.039625 -0.009815 -501220.000000 0 0 1
-34.056308 -1.944815 34.199906 48.303706 0.057044 0.784108 0.038744 -0.010741 -55650.500000 0 0 1
-34.674779 -3.010915 33.517006 48.319723 0.086616 0.804251 0.010587 -0.002223 -83333.100000 0 0 1
-34.499146 -4.235215 34.173806 48.743996 0.122152 0.793875 0.001031 -0.000927 -501389.000000 0 0 1
-35.406653 -5.428115 33.760906 49.222904 0.152123 0.814987 -0.004274 0.000125 -754478.000000 0 0 1
35.972013 -5.111415 34.203606 49.899889 -0.141149 0.815582 0.004666 -0.009168 -1974270.000000 0 0 1
35.029663 -5.595715 33.344706 48.685303 -0.158404 0.816326 0.003793 -0.010713 -440396.000000 0 0 1
33.577953 -5.182115 33.778406 47.909435 -0.153123 0.788307 0.025430 -0.011826 319162.000000 0 0 1
33.119013 -5.773115 -33.501141 47.460766 -0.172580 2.354447 0.044836 -0.017786 196285.000000 0 0 1
32.665113 -7.141115 -33.633741 47.426086 -0.215230 2.359134 0.047875 -0.019267 606621.000000 0 0 1
31.151383 -7.279315 -34.074041 46.737965 -0.229556 2.387721 0.072848 -0.029922 706313.000000 0 0 1
30.296163 -7.028015 -32.998141 45.344545 -0.227945 2.385788 0.080227 -0.031265 215542.000000 0 0 1
28.933473 -7.228715 -33.405941 44.781213 -0.244827 2.412803 0.082019 -0.026945 975861.000000 0 0 1
27.860723 -6.934115 -32.313141 43.225466 -0.243929 2.415160 0.098698 -0.038005 580500.000000 0 0 1
26.595083 -7.498815 -32.609941 42.742706 -0.274828 2.438639 0.093173 -0.037956 431561.000000 0 0 1
25.516983 -7.030015 -31.809341 41.380813 -0.268834 2.447599 0.088473 -0.036814 880978.000000 0 0 1
24.109383 -7.449915 -32.365441 41.040045 -0.299697 2.479375 0.073807 -0.037198 817057.000000 0 0 1
23.627983 -8.822715 -32.324341 40.999816 -0.357368 2.479003 0.074679 -0.041381 433787.000000 0 0 1
23.377483 -9.369615 -31.044641 39.975819 -0.381193 2.460024 0.071686 -0.036343 -521966.000000 0 0 1
23.199983 -10.897915 -31.074941 40.282201 -0.439146 2.451883 0.075981 -0.031596 -367448.000000 0 0 1
22.018183 -11.377515 -31.656641 40.204367 -0.476944 2.477365 0.089641 -0.040781 -62799.600000 0 0 1
21.977183 -12.778015 -31.671741 40.612478 -0.526647 2.465226 0.080596 -0.029768 -519270.000000 0 0 1
20.919783 -13.373215 -32.653941 41.021458 -0.568789 2.491489 0.075698 -0.025130 760712.000000 0 0 1
19.543283 -13.182415 -32.327941 40.010145 -0.593423 2.511535 0.085025 -0.024404 634397.000000 0 0 1
19.092283 -11.866115 -32.605341 39.603386 -0.556088 2.537991 0.079405 -0.031780 -572062.000000 0 0 1
17.741883 -11.461115 -31.956341 38.305865 -0.573552 2.557552 0.068665 -0.034875 656231.000000 0 0 1
16.599383 -12.057815 -32.551541 38.477698 -0.628226 2.579205 0.056295 -0.020593 368440.000000 0 0 1
15.372183 -11.663215 -31.971441 37.343107 -0.649060 2.598576 0.078341 -0.030143 99498.500000 0 0 1
14.111983 -11.915515 -32.790041 37.633952 -0.701207 2.628619 0.073553 -0.020213 -984298.000000 0 0 1
13.791983 -13.252615 -32.929041 38.081128 -0.765457 2.615364 0.073740 -0.019791 623909.000000 0 0 1
12.583883 -13.597215 -33.644541 38.408248 -0.824084 2.638243 0.058123 -0.022763 260179.000000 0 0 1
11.407983 -13.607915 -32.675241 37.188557 -0.873114 2.643796 0.043492 -0.016704 -901752.000000 0 0 1
11.016083 -12.255615 -32.257141 36.222608 -0.838611 2.669294 0.079457 -0.012312 -32510.100000 0 0 1
9.911383 -12.340615 -31.375941 35.142225 -0.894137 2.674381 0.069440 -0.023941 -74176.100000 0 0 1
8.700283 -11.556915 -31.882441 35.010673 -0.925493 2.715649 0.062968 -0.016916 -427336.000000 0 0 1
8.944783 -10.161415 -31.894941 34.648965 -0.848990 2.740197 0.066948 -0.018680 582657.000000 0 0 1
7.754983 -9.482515 -32.273141 34.519755 -0.885284 2.778824 0.053355 -0.014143 303584.000000 0 0 1
7.930483 -7.965115 -32.450841 34.342287 -0.787577 2.808158 0.073686 -0.014425 24815.500000 0 0 1
8.506083 -7.346115 -31.298541 33.255338 -0.712354 2.796838 0.067446 -0.023032 465294.000000 0 0 1
9.014983 -6.076615 -31.745841 33.555828 -0.593102 2.811648 0.070709 -0.018873 46259.900000 0 0 1
9.295383 -5.054315 -30.674541 32.448077 -0.498028 2.809439 0.071502 -0.021522 -246809.000000 0 0 1
8.083983 -4.670215 -30.086741 31.501963 -0.523870 2.840709 0.073039 -0.021047 -250896.000000 0 0 1
8.233483 -3.748015 -29.015141 30.392701 -0.427183 2.839361 0.074633 -0.016889 183746.000000 0 0 1
6.860583 -3.266815 -28.505441 29.500845 -0.444404 2.881082 0.062196 -0.015342 -818640.000000 0 0 1
6.161483 -2.350915 -29.362741 30.094206 -0.364501 2.920663 0.059674 -0.010202 1871440.000000 0 0 1
4.802783 -1.977715 -28.945841 29.408159 -0.390625 2.964042 0.059144 -0.016245 2144820.000000 0 0 1
3.788883 -3.172715 -28.838241 29.258604 -0.697119 2.971877 0.040497 -0.019160 -856989.000000 0 0 1
3.931183 -3.942615 -27.677741 28.232176 -0.786850 2.943083 0.045024 -0.022164 -263427.000000 0 0 1
2.960183 -4.945415 -27.609341 28.204530 -1.031428 2.935791 0.062550 -0.022388 -254453.000000 0 0 1
3.069983 -5.874715 -26.362641 27.183192 -1.089252 2.895263 0.048567 -0.037913 -356884.000000 0 0 1
2.828183 -5.175915 -25.126141 25.809139 -1.070712 2.911024 0.056584 -0.035749 91781.600000 0 0 1
3.031183 -6.032215 -24.040241 24.970160 -1.105151 2.867824 0.049268 -0.039467 -155261.000000 0 1 0
2.963483 -5.260315 -22.695441 23.484808 -1.057749 2.881586 0.053110 -0.047837 56970.400000 0 1 0
3.941983 -4.234615 -22.660741 23.387612 -0.821172 2.891626 0.056355 -0.038664 66706.300000 0 1 0
3.893183 -3.476015 -21.469541 22.094813 -0.728849 2.903123 0.057830 -0.036512 -472616.000000 0 1 0
4.899283 -2.353315 -21.338741 22.020057 -0.447795 2.892187 0.072187 -0.033729 -758972.000000 0 1 0
6.183183 -2.794415 -20.998241 22.067320 -0.424464 2.829046 0.067926 -0.032998 -108422.000000 0 1 0
6.995183 -1.644415 -20.631841 21.847415 -0.230886 2.806442 0.081588 -0.020664 600665.000000 0 1 0
8.506283 -1.919915 -20.432941 22.215940 -0.221986 2.738220 0.075373 -0.018913 -568707.000000 0 1 0
9.190683 -2.093215 -21.684141 23.644284 -0.223934 2.731537 0.079252 -0.027242 1248260.000000 0 1 0
10.406883 -2.874515 -21.608941 24.156001 -0.269493 2.678237 0.064111 -0.024399 1179500.000000 0 1 0
11.630683 -2.382515 -20.818541 23.965826 -0.202052 2.623320 0.057580 -0.020166 -909432.000000 0 1 0
11.342983 -2.507215 -19.431641 22.639303 -0.217539 2.602772 0.052356 -0.004482 -87447.900000 0 1 0
12.385683 -2.092915 -18.592141 22.437761 -0.167397 2.547416 0.050037 -0.014576 -414623.000000 0 1 0
12.610983 -0.572715 -18.557641 22.444396 -0.045383 2.544240 0.033565 -0.010801 97698.000000 0 1 0
13.304883 -0.006515 -19.683841 23.758652 -0.000490 2.547205 0.045937 -0.021297 451770.000000 0 1 0
13.469883 1.398485 -19.432441 23.685719 0.103452 2.532957 0.067444 -0.034400 -100586.000000 0 1 0
13.602383 2.232085 -20.743241 24.905603 0.162646 2.555078 0.044464 -0.028176 -846099.000000 0 1 0
14.864883 2.161385 -21.308041 26.070461 0.144390 2.527549 0.036848 -0.019353 -548713.000000 0 0 1
15.116283 3.345185 -22.020941 26.918657 0.217787 2.528817 0.043572 -0.026749 405345.000000 0 0 1
16.542283 3.386785 -22.684141 28.278750 0.201944 2.501704 0.043219 -0.028055 725984.000000 0 0 1
16.594883 2.575585 -23.864941 29.181487 0.153975 2.528393 0.028615 -0.022819 62861.800000 0 0 1
17.301683 1.380485 -23.708641 29.382880 0.079620 2.509658 0.031987 -0.015385 -583145.000000 0 0 1
8.966336 26.885185 2.975006 28.496650 1.248892 1.466207 -0.001453 0.003817 25461.800000 0 0 1
9.113336 27.205585 4.357906 29.020477 1.247564 1.420060 0.006940 0.001533 856969.000000 0 0 1
10.508236 27.428385 4.626806 29.734604 1.204930 1.414558 0.016681 -0.005775 616126.000000 0 0 1
10.725136 28.247585 5.913606 30.788396 1.207926 1.377523 0.022583 -0.008923 -253783.000000 0 0 1
10.728736 27.376485 7.041106 30.234995 1.197296 1.335759 0.020969 -0.009589 255825.000000 0 0 1
10.508636 28.173885 8.209806 31.170501 1.213787 1.304268 0.026670 -0.011550 -382912.000000 0 0 1
10.372936 27.283285 9.566706 30.716402 1.207480 1.254075 0.032451 -0.014331 -514251.000000 0 0 1
11.562036 26.839285 10.131906 30.930300 1.164034 1.237063 0.042061 -0.012677 -330149.000000 0 0 1
12.092436 25.749685 9.365306 29.949662 1.131751 1.252760 0.048184 -0.014866 -123115.000000 0 0 1
13.361636 25.108685 9.983406 30.143785 1.081759 1.233229 0.057113 -0.018480 825934.000000 0 0 1
14.564036 25.874585 9.805606 31.269078 1.058126 1.251827 0.061191 -0.017851 82202.000000 0 0 1
15.714536 25.231885 10.195706 31.425262 1.013777 1.240374 0.069245 -0.010603 -1303810.000000 0 0 1
16.814036 26.139985 10.640406 32.851619 0.999195 1.240955 0.061047 -0.012758 -1382580.000000 0 0 1
17.605336 26.633485 9.553006 33.324920 0.986711 1.280055 0.040933 -0.009857 1360860.000000 0 0 1
19.014136 26.632285 9.874006 34.180579 0.950769 1.277742 0.053432 -0.020848 957362.000000 0 0 1
19.593136 27.454485 11.064806 35.497460 0.950962 1.253807 0.047749 -0.016612 -1002890.000000 0 0 1
19.494536 28.872285 11.041606 36.545353 0.976910 1.263865 0.046549 -0.026513 1004510.000000 0 0 1
18.185136 29.445185 11.263006 36.394689 1.017541 1.256162 0.046216 -0.015246 902982.000000 0 0 1
18.315636 30.929185 11.681806 37.796053 1.036147 1.256576 0.049655 -0.014378 -405304.000000 0 0 1
18.828336 31.933485 10.783606 38.607511 1.038051 1.287717 0.062931 -0.031464 279306.000000 0 0 1
18.111036 32.087885 9.541806 38.061635 1.056950 1.317400 0.072807 -0.040099 -939846.000000 0 0 1
16.760636 32.718385 9.639006 38.004238 1.097381 1.314365 0.066092 -0.026042 -1260620.000000 0 0 1
16.734536 34.108485 9.941206 39.271632 1.114675 1.314872 0.065802 -0.023025 -529238.000000 0 0 1
15.443836 -33.836417 9.890506 38.486846 -1.142611 1.310896 0.062668 -0.008941 -259870.000000 0 0 1
15.402736 -32.286617 9.931306 37.125473 -1.125666 1.299992 0.066059 -0.002607 -91129.000000 0 0 1
15.891736 -31.741617 8.693206 36.546537 -1.106621 1.330627 0.064599 -0.011665 122513.000000 0 0 1
15.948036 -30.311817 8.712406 35.341932 -1.086462 1.321711 0.068075 -0.006679 14474.700000 0 0 1
16.645536 -29.665217 7.464506 34.825534 -1.059461 1.354780 0.059531 0.005650 320784.000000 0 0 1
15.918636 -29.919817 6.277906 34.467529 -1.081844 1.387634 0.058731 0.017894 -22958.500000 0 0 1
16.530036 -29.307717 5.205706 34.048256 -1.057256 1.417302 0.057520 0.011588 -103370.000000 0 0 1
16.071536 -29.903917 3.844906 34.166092 -1.077648 1.458022 0.064936 -0.003330 43619.600000 0 0 1
16.673936 -31.145017 3.677906 35.518435 -1.079259 1.467061 0.059239 -0.006874 90839.500000 0 0 1
16.480936 -31.552817 2.376306 35.677000 -1.089446 1.504141 0.052529 -0.013759 -198807.000000 0 0 1
16.928436 -32.998817 2.055206 37.144552 -1.096802 1.515438 0.052487 -0.021362 264688.000000 0 0 1
18.345036 -33.199117 2.003506 37.983362 -1.065978 1.518025 0.058268 -0.015773 627577.000000 0 0 1
18.628636 34.031585 1.487706 38.825097 1.069957 1.532469 0.073946 -0.024068 -877138.000000 0 0 1
20.053236 33.597285 1.750406 39.165977 1.032681 1.526089 0.087475 -0.026965 -706039.000000 0 0 1
20.265736 33.106285 3.079206 38.938512 1.021497 1.491635 0.071882 -0.039561 -342901.000000 0 0 1
21.584936 32.744585 3.342106 39.360983 0.987987 1.485785 0.048537 -0.029173 -809079.000000 0 0 1
21.948336 32.807685 4.847006 39.768922 0.981180 1.448613 0.045019 -0.018235 -384290.000000 0 0 1
21.398536 31.821585 5.708606 38.769818 0.978798 1.423015 0.060156 -0.027122 274889.000000 0 0 1
22.194836 30.632885 5.792006 38.269201 0.943788 1.418863 0.047013 -0.028922 -186309.000000 0 0 1
21.573536 29.541285 6.679706 37.184990 0.940033 1.390181 0.060893 -0.038386 -303527.000000 0 0 1
20.309836 29.202185 6.153506 36.098791 0.963103 1.399497 0.071303 -0.034039 -22175.000000 0 0 1
19.399136 29.114085 7.253406 35.729097 0.983038 1.366364 0.061807 -0.044003 -339407.000000 0 0 1
17.899036 29.153885 6.955606 34.909955 1.020182 1.370210 0.074106 -0.035897 -281210.000000 0 0 1
17.342236 30.422885 6.634906 35.641648 1.052698 1.383548 0.069505 -0.043833 261374.000000 0 0 1
17.736236 30.968385 5.340106 36.085062 1.050677 1.422264 0.075173 -0.040311 -267332.000000 0 0 1
17.723336 32.498585 5.458506 37.417509 1.071525 1.424393 0.083158 -0.039438 1445170.000000 0 0 1
16.373136 33.042785 5.477706 37.281504 1.110745 1.423334 0.081615 -0.036208 1294450.000000 0 0 1
16.435736 -34.052117 5.815806 38.255767 -1.121113 1.418180 0.081667 -0.034189 -1140530.000000 0 0 1
15.058436 -33.460917 5.885306 37.162162 -1.147917 1.411759 0.075055 -0.030672 -643110.000000 0 0 1
14.359736 -33.547217 4.616906 36.782246 -1.166349 1.444944 0.064478 -0.028865 -508284.000000 0 0 1
13.198636 -32.792617 4.678006 35.657306 -1.188147 1.439224 0.063164 -0.021550 -683739.000000 0 0 1
12.613136 -32.592617 3.278506 35.101546 -1.201552 1.477259 0.052195 -0.022799 1407390.000000 0 0 1
11.259036 -32.045117 3.401506 34.135402 -1.232920 1.470983 0.051423 -0.020083 1419260.000000 0 0 1
10.679136 -31.793417 2.161406 33.608585 -1.246745 1.506441 0.046764 -0.016499 270018.000000 0 0 1
9.629136 -30.578917 2.239606 32.137304 -1.265731 1.501051 0.048576 -0.017075 563182.000000 0 0 1
9.236236 -29.985517 1.037406 31.392921 -1.271995 1.537744 0.058559 -0.008099 921938.000000 0 0 1
8.192936 -30.742117 0.320606 31.816737 -1.310345 1.560720 0.048544 -0.015320 619113.000000 0 0 1
8.568836 -31.253017 -1.109294 32.425400 -1.303196 1.605014 0.058428 -0.017458 -430866.000000 0 0 1
9.616636 -32.160317 -0.940594 33.580506 -1.280237 1.598810 0.058111 -0.018525 -523738.000000 0 0 1
9.717036 -32.961917 -2.081594 34.427341 -1.284121 1.631297 0.049878 -0.006190 -351980.000000 0 0 1
10.926536 -33.906317 -2.169794 35.689432 -1.259048 1.631630 0.042554 -0.014658 -409206.000000 0 0 1
10.988736 33.637685 -1.133594 35.405243 1.255046 1.602819 0.036560 -0.011456 40569.000000 0 0 1
12.141136 32.840985 -1.286394 35.037013 1.216685 1.607520 0.048991 -0.017124 -211444.000000 0 0 1
12.520436 31.897885 -0.112094 34.267316 1.196758 1.574067 0.036544 -0.013884 -529339.000000 0 0 1
12.693636 32.594785 1.157506 34.998404 1.199428 1.537717 0.039406 -0.021276 350177.000000 0 0 1
13.932636 33.218385 1.456406 36.051360 1.173657 1.530387 0.048633 -0.021561 830655.000000 0 0 1
15.241236 32.340285 1.593706 35.787277 1.130390 1.526249 0.058580 -0.028702 304487.000000 0 0 1
15.681936 31.800085 0.343206 35.458234 1.112651 1.561117 0.056130 -0.025430 -202423.000000 0 0 1
16.622736 30.770685 0.465306 34.976663 1.075498 1.557493 0.061488 -0.019535 -594082.000000 0 0 1
16.959736 30.295785 -0.924494 34.732146 1.060456 1.597417 0.056483 -0.015602 368285.000000 0 0 1
18.013536 31.002185 -1.612994 35.891848 1.044434 1.615752 0.037174 -0.014057 481210.000000 0 0 1
17.676136 32.305685 -2.083094 36.884175 1.070142 1.627303 0.049126 -0.017490 -613224.000000 0 0 1
18.847536 33.027685 -2.747894 38.126218 1.052231 1.642932 0.049880 -0.015617 -440425.000000 0 0 1
19.708536 33.599485 -1.812994 38.995368 1.040308 1.617306 0.046820 -0.017683 -195088.000000 0 0 1
20.751736 -34.180717 -2.480594 40.063816 -1.025159 1.632752 0.051735 -0.015821 -1351430.000000 0 0 1
21.742936 -33.515317 -1.513694 39.979032 -0.995303 1.608668 0.057251 -0.016061 -682245.000000 0 0 1
22.570536 34.081885 -0.716994 40.884203 0.985862 1.588334 0.048884 -0.015219 1140940.000000 0 0 1
23.349736 33.042685 -1.395794 40.484287 0.955619 1.605281 0.041670 -0.007359 389820.000000 0 0 1
24.314536 33.601985 -2.545094 41.554393 0.944404 1.632082 0.041688 -0.001518 -864451.000000 0 0 1
23.668236 34.111485 -3.674294 41.680682 0.964210 1.659064 0.044815 -0.012115 233269.000000 0 0 1
24.587136 -33.685617 -4.589394 41.956056 -0.940284 1.680401 0.045523 -0.008970 544307.000000 0 0 1
23.894336 -33.141617 -5.865194 41.275981 -0.946130 1.713376 0.047121 -0.016165 526362.000000 0 0 1
23.019536 -31.997217 -5.652594 39.820507 -0.947153 1.713229 0.060712 -0.016725 692151.000000 0 0 1
22.373736 -31.590617 -6.844494 39.311554 -0.954562 1.745797 0.067833 -0.022342 714498.000000 0 0 1
21.227736 -30.507917 -6.647294 37.756275 -0.962888 1.747777 0.082452 -0.028278 653408.000000 0 0 1
20.106236 -30.933717 -5.917994 37.365469 -0.994437 1.729847 0.074351 -0.022796 104557.000000 0 0 1
19.317836 -29.733617 -5.632394 35.902516 -0.994634 1.728327 0.076246 -0.027040 489502.000000 0 0 1
18.114736 -29.860317 -4.685794 35.238315 -1.025502 1.704166 0.062281 -0.019537 239015.000000 0 0 1
16.933636 -30.361917 -5.260694 35.160616 -1.062041 1.720979 0.065847 -0.025935 -290413.000000 0 0 1
15.833936 -30.372417 -4.371494 34.529802 -1.090234 1.697738 0.047918 -0.024638 106287.000000 0 0 1
14.628736 -31.093817 -4.969994 34.720689 -1.131050 1.714432 0.034603 -0.018723 -363411.000000 0 0 1
14.834036 -32.480617 -4.997094 36.055652 -1.142381 1.709838 0.024121 -0.010179 -354516.000000 0 0 1
13.656936 -33.232417 -5.166094 36.298677 -1.180884 1.713603 0.031556 -0.008141 -192060.000000 0 0 1
13.941736 33.751585 -5.221494 36.889098 1.179075 1.712819 0.026329 -0.008477 -177901.000000 0 0 1
14.219936 33.154085 -3.981994 36.294025 1.165623 1.680733 0.031475 -0.014637 -2542.540000 0 0 1
14.554336 31.749485 -4.061194 35.161795 1.140969 1.686555 0.037503 -0.017121 28479.400000 0 0 1
13.455836 30.773885 -4.566294 33.896056 1.158597 1.705922 0.033000 -0.016954 93388.800000 0 0 1
12.433236 30.253985 -3.744894 32.922837 1.180876 1.684791 0.036314 -0.014615 -109109.000000 0 0 1
12.800736 29.288485 -2.818794 32.087689 1.158758 1.658756 0.045193 -0.018233 -580094.000000 0 0 1
11.668736 28.679185 -1.975494 31.025113 1.184381 1.634513 0.040834 -0.012579 109627.000000 0 0 1
10.864636 29.569285 -1.200594 31.524980 1.218679 1.608889 0.027331 -0.016091 -182193.000000 0 0 1
9.881636 28.794785 -0.571094 30.448523 1.240215 1.589553 0.014329 -0.001190 -164938.000000 0 0 1
8.659336 29.570885 -0.019694 30.812688 1.285928 1.571435 0.004170 0.010779 -196651.000000 0 0 1
7.775136 28.692985 0.604706 29.733917 1.306174 1.550458 0.000790 0.004981 -138634.000000 0 0 1
6.581636 29.458585 0.850506 30.196847 1.350986 1.542627 0.016320 0.008146 315814.000000 0 0 1
5.561836 28.630485 1.654306 29.212591 1.378923 1.514136 0.010300 0.009159 -122686.000000 0 0 1
5.057236 27.530285 0.906606 28.005610 1.389125 1.538418 0.003303 0.003903 669863.000000 0 0 1
3.863736 27.058685 1.590106 27.379360 1.428964 1.512687 0.010384 0.004806 915614.000000 0 0 1
3.062136 26.177585 0.608706 26.363103 1.454350 1.547705 0.007163 0.000937 -145248.000000 0 0 1
2.106336 25.354885 1.244806 25.472660 1.487912 1.521909 0.018120 -0.002658 -154817.000000 0 0 1
1.474936 24.591185 0.243206 24.636578 1.510890 1.560924 0.009778 -0.005900 -149196.000000 0 1 0
0.240536 23.775185 0.678106 23.786070 1.560680 1.542284 0.008823 -0.009043 879387.000000 0 1 0
-0.921364 24.631785 0.797306 24.661903 -1.533408 1.538461 0.014873 -0.012370 -746750.000000 0 1 0
-2.053564 23.904185 0.977006 24.012117 -1.485099 1.530097 0.017512 -0.013063 -708255.000000 0 1 0
-3.328564 24.785285 1.249306 25.038979 -1.437299 1.520881 0.038654 -0.024075 -94905.700000 0 0 1
-4.416464 24.017885 1.683806 24.478545 -1.388945 1.501955 0.030759 -0.027703 153243.000000 0 1 0
-5.610064 24.693585 2.062406 25.406682 -1.347401 1.489531 0.034175 -0.024594 656554.000000 0 0 1
-6.518064 25.235885 0.944206 26.081154 -1.318035 1.534586 0.048097 -0.024325 -365695.000000 0 0 1
-6.069864 26.480985 0.367406 27.170220 -1.345473 1.557274 0.050911 -0.025293 37728.200000 0 0 1
-6.939264 26.690585 -0.704694 27.586905 -1.316438 1.596344 0.059179 -0.022419 -332892.000000 0 0 1
-6.720464 27.887485 -1.606294 28.730762 -1.334320 1.626734 0.066507 -0.019480 -150889.000000 0 0 1
-6.994264 29.208185 -1.093294 30.053837 -1.335760 1.607182 0.076605 -0.032863 40311.800000 0 0 1
-7.046164 30.170585 -2.132394 31.055752 -1.341364 1.639514 0.075431 -0.027905 -227690.000000 0 0 1
-7.238364 31.610185 -1.623594 32.468967 -1.345689 1.620822 0.068037 -0.027090 -705686.000000 0 0 1
-7.327264 32.670085 -2.601694 33.582616 -1.350167 1.648345 0.065922 -0.020543 9459.520000 0 0 1
-6.204164 32.741385 -3.480194 33.505249 -1.383527 1.674854 0.058494 -0.020994 1523820.000000 0 0 1
-4.841864 33.182585 -2.766094 33.647866 -1.425903 1.653096 0.060002 -0.017999 302836.000000 0 0 1
-4.932664 -33.955917 -2.316394 34.390423 1.426539 1.638203 0.056779 -0.015871 68581.800000 0 0 1
-3.851364 -33.647017 -1.447294 33.897632 1.456829 1.613505 0.046888 -0.009157 271562.000000 0 0 1
-3.745064 -32.114217 -1.450194 32.364356 1.454704 1.615620 0.035565 -0.006341 629442.000000 0 0 1
-4.962964 -31.509917 -1.006794 31.914253 1.414575 1.602348 0.035854 -0.003425 415913.000000 0 0 1
-5.292064 -30.291217 -1.685694 30.796191 1.397836 1.625561 0.040482 -0.001919 658351.000000 0 0 1
-6.714464 -29.677517 -1.424194 30.460916 1.348295 1.617568 0.054573 -0.008478 625607.000000 0 0 1
-6.908264 -29.398617 -0.098294 30.199544 1.339998 1.574051 0.043281 -0.008881 -189802.000000 0 0 1
-8.141464 -28.733217 0.050906 29.864424 1.294687 1.569092 0.028964 -0.008347 28554.700000 0 0 1
-8.213764 -28.028217 1.447906 29.242834 1.285725 1.521263 0.029023 -0.008626 -276975.000000 0 0 1
-7.293564 -26.995317 1.545606 28.005930 1.306918 1.515580 0.043809 -0.012234 -578944.000000 0 0 1
-7.201664 -26.446217 2.826906 27.554633 1.304929 1.468023 0.039416 -0.010510 348328.000000 0 0 1
-8.367164 -25.504017 3.277306 27.040804 1.253788 1.449299 0.027223 -0.007946 471665.000000 0 0 1
-8.159764 -24.252617 2.707706 25.731360 1.246244 1.465371 0.028668 -0.016060 -225685.000000 0 0 1
-9.116164 -23.308617 3.167906 25.227598 1.197980 1.444891 0.029126 -0.021646 -146766.000000 0 0 1
-8.509864 -21.971317 3.664506 23.845024 1.201271 1.416505 0.017870 -0.000411 383885.000000 0 1 0
-7.606964 -22.088517 4.757606 23.841211 1.239132 1.369894 0.012172 -0.000678 -224478.000000 0 1 0
-6.825064 -20.951417 5.019406 22.599509 1.255880 1.346826 0.000630 -0.001727 9615.740000 0 1 0
-7.559664 -19.687417 5.699606 21.845559 1.204172 1.306837 0.008399 -0.012134 212589.000000 0 1 0
-8.006064 -19.943617 6.992206 22.599466 1.189054 1.256238 0.007169 -0.015112 -114433.000000 0 1 0
-8.596164 -18.765317 7.465406 21.949111 1.141237 1.223748 0.002468 -0.022455 -520354.000000 0 1 0
-27.193814 29.201885 -5.313994 40.255337 -0.820990 1.703190 0.109465 0.005935 239230.000000 0 0 1
-26.386874 30.110485 -4.524194 40.291150 -0.851211 1.683321 0.093822 -0.010947 272425.000000 0 0 1
-25.317374 29.514185 -3.848994 39.075201 -0.861789 1.669459 0.078886 -0.003790 -54374.600000 0 0 1
-24.455364 30.505685 -3.026694 39.215081 -0.895040 1.648055 0.062394 -0.015589 -574067.000000 0 0 1
-25.027264 31.001785 -1.814194 39.884407 -0.891629 1.616298 0.049052 -0.022467 151054.000000 0 0 1
-24.202264 31.983885 -1.221594 40.127432 -0.923020 1.601244 0.046080 -0.027958 214369.000000 0 0 1
-22.902564 31.457485 -0.575594 38.915706 -0.941493 1.585588 0.034749 -0.025857 -444065.000000 0 0 1
-21.971064 30.963385 -1.472694 37.995101 -0.953668 1.609566 0.042672 -0.023716 -335239.000000 0 0 1
-20.706664 30.733485 -0.856594 37.068138 -0.977906 1.593907 0.032236 -0.018611 1104130.000000 0 0 1
-19.575964 30.164585 -1.820494 36.006038 -0.995144 1.621379 0.044876 -0.021404 640366.000000 0 0 1
-18.311964 30.166485 -1.195294 35.309682 -1.025224 1.604655 0.046385 -0.020060 -456958.000000 0 0 1
-17.433264 29.324485 -1.900494 34.168056 -1.034434 1.626447 0.051835 -0.020250 -1111080.000000 0 0 1
-16.029864 29.450685 -1.384894 33.559162 -1.072344 1.612075 0.058398 -0.026406 -1186080.000000 0 0 1
-15.757364 28.910485 -0.118494 32.926050 -1.071769 1.574395 0.058885 -0.026448 506230.000000 0 0 1
-14.497964 29.314385 0.437706 32.706509 -1.111504 1.557413 0.070554 -0.030031 705144.000000 0 0 1
-14.083664 28.499085 1.722006 31.835715 -1.111816 1.516680 0.072438 -0.032572 -327388.000000 0 0 1
-14.819064 28.796685 2.864606 32.512455 -1.095529 1.482574 0.054712 -0.028218 -429554.000000 0 0 1
-14.358164 28.154485 4.024306 31.859488 -1.099198 1.444144 0.053993 -0.033156 174853.000000 0 0 1
-13.148564 28.793085 4.747106 32.007211 -1.142420 1.421933 0.067458 -0.028077 -18078.900000 0 0 1
-13.350264 30.032285 5.436606 33.312526 -1.152500 1.406863 0.055977 -0.023518 -274967.000000 0 0 1
-13.780564 31.174385 4.700906 34.407045 -1.154575 1.433741 0.051656 -0.027266 78683.500000 0 0 1
-13.440364 32.513485 5.407006 35.595026 -1.178811 1.418303 0.062871 -0.018824 -123802.000000 0 0 1
-14.384064 32.852285 6.392106 36.428464 -1.158100 1.394413 0.064061 -0.018914 -157013.000000 0 0 1
-14.231964 34.113085 6.915806 37.604252 -1.175551 1.385833 0.074186 -0.021357 -88704.400000 0 0 1
-15.399064 -34.012117 7.853906 38.152839 1.145656 1.363460 0.059316 -0.019211 5258.560000 0 0 1
-15.628264 33.541085 8.888806 38.055984 -1.134763 1.335047 0.039835 -0.016777 -139468.000000 0 0 1
-16.592764 34.073785 9.773306 39.138986 -1.117630 1.318418 0.050943 -0.016701 -780149.000000 0 0 1
-16.750964 33.296085 11.101906 38.890570 -1.104679 1.281304 0.046079 -0.015321 574884.000000 0 0 1
-15.942964 33.772485 12.214006 39.293012 -1.129742 1.254715 0.055970 -0.018261 -100980.000000 0 0 1
-14.586464 33.456585 12.069606 38.441949 -1.159661 1.251425 0.058050 -0.012166 -1030650.000000 0 0 1
-13.929364 33.500285 13.449606 38.693516 -1.176745 1.215793 0.056634 -0.006080 -498634.000000 0 0 1
-14.203664 32.449685 14.438406 38.251715 -1.158207 1.183747 0.046802 0.001756 -92432.200000 0 0 1
-13.465464 31.266585 14.363006 36.948803 -1.164136 1.171547 0.029426 0.003399 -417430.000000 0 0 1
-14.185964 30.115685 13.649306 35.979156 -1.130577 1.181684 0.033385 0.001207 29526.200000 0 0 1
-14.071664 30.210685 12.288706 35.520551 -1.134894 1.217534 0.031083 0.007142 1586180.000000 0 0 1
-15.326364 29.769385 11.656806 35.454124 -1.095350 1.235779 0.011791 -0.002784 1563690.000000 0 0 1
-15.206164 29.656985 10.069706 34.816134 -1.097013 1.277379 0.009617 0.001617 -119965.000000 0 0 1
-14.401064 28.600885 9.642306 33.442120 -1.104338 1.278316 0.005283 0.001974 -120154.000000 0 0 1
-14.690964 28.244185 8.292106 32.898594 -1.091166 1.315998 0.013864 -0.006484 -227598.000000 0 0 1
-13.926664 26.921585 7.952706 31.336389 -1.093401 1.314205 0.027190 -0.012262 982935.000000 0 0 1
-12.560564 27.172985 7.594306 30.883853 -1.137807 1.322349 0.038602 -0.008508 949205.000000 0 0 1
-11.764864 25.963485 7.609206 29.502790 -1.145342 1.309933 0.038813 -0.017759 -1801.670000 0 0 1
-10.555264 26.051185 6.695106 28.894676 -1.185838 1.336964 0.061085 -0.022516 -663880.000000 0 0 1
-10.883964 26.095585 5.333106 28.772944 -1.175652 1.384367 0.074610 -0.026428 217414.000000 0 0 1
-9.749764 26.049185 4.483706 28.173065 -1.212655 1.410968 0.079437 -0.015581 -59815.300000 0 0 1
-10.031264 26.305585 2.978706 28.310471 -1.206482 1.465386 0.082672 -0.027538 -80770.800000 0 0 1
-10.130864 27.677085 2.800706 29.605733 -1.219906 1.476055 0.080614 -0.018730 81328.700000 0 0 1
-10.180064 28.086785 1.474606 29.911130 -1.223073 1.521477 0.090384 -0.028849 81589.600000 0 0 1
-9.769464 29.586385 1.276106 31.183731 -1.251867 1.529863 0.101893 -0.028869 135726.000000 0 0 1
-10.672364 30.429785 1.920306 32.304160 -1.233479 1.511317 0.090052 -0.036071 -433321.000000 0 0 1
-10.219564 31.730785 1.857106 33.387589 -1.259216 1.515145 0.090763 -0.036374 -118492.000000 0 0 1
-10.968664 32.884785 2.659106 34.767680 -1.248852 1.494239 0.080964 -0.025907 371444.000000 0 0 1
-12.223764 33.355785 2.205306 35.593429 -1.219528 1.508798 0.082563 -0.027740 -3707.380000 0 0 1
-12.182664 33.980185 0.947606 36.110501 -1.226549 1.544551 0.074088 -0.025496 -739713.000000 0 0 1
-13.553864 -33.931617 0.582406 36.543140 1.190767 1.554858 0.074139 -0.025624 71138.300000 0 0 1
-14.525264 33.568985 0.216806 36.577412 -1.162423 1.564869 0.057739 -0.024259 -66840.600000 0 0 1
-14.932864 33.548985 -1.146294 36.740153 -1.152019 1.602001 0.056144 -0.024949 349604.000000 0 0 1
-13.862364 33.185285 -2.249394 36.034540 -1.175103 1.633260 0.064726 -0.023838 333812.000000 0 0 1
-13.344464 31.885085 -2.164294 34.632608 -1.174429 1.633330 0.062238 -0.023241 -206685.000000 0 0 1
-11.965164 31.911985 -2.433294 34.168127 -1.212076 1.642072 0.072668 -0.019666 43113.500000 0 0 1
-11.181364 30.577985 -2.556794 32.658434 -1.220233 1.649165 0.053850 -0.026473 343734.000000 0 0 1
-11.483864 29.914285 -3.794794 32.266764 -1.204253 1.688676 0.055219 -0.021520 -410863.000000 0 0 1
-10.303364 29.712485 -4.503994 31.769121 -1.237003 1.713048 0.044091 -0.015718 -353814.000000 0 0 1
-10.559464 29.134885 -5.915294 31.548923 -1.223088 1.759409 0.049946 -0.017302 -167132.000000 0 0 1
-10.908364 27.780985 -5.946994 30.432586 -1.196637 1.767477 0.049661 -0.013448 65594.400000 0 0 1
-10.923064 27.237585 -7.259594 30.230797 -1.189403 1.813305 0.043600 -0.009726 -226628.000000 0 0 1
-11.513264 25.842585 -7.137794 29.177775 -1.151678 1.817936 0.056452 -0.015187 -104784.000000 0 0 1
-10.742664 24.774885 -6.538794 27.784089 -1.161655 1.808368 0.040577 -0.008796 16821.500000 0 0 1
-11.184964 23.453085 -6.816594 26.862922 -1.125792 1.827356 0.066040 -0.024205 -224052.000000 0 0 1
-10.475764 22.346185 -6.004994 25.399874 -1.132423 1.809474 0.062096 -0.024658 -800633.000000 0 0 1
-9.109164 22.093185 -6.137294 24.672902 -1.179726 1.822182 0.060180 -0.025887 -311544.000000 0 1 0
-8.617364 20.941485 -5.500494 23.303652 -1.180418 1.809081 0.052139 -0.026618 -470781.000000 0 1 0
-8.442064 20.897285 -3.937594 22.879459 -1.186865 1.743759 0.045723 -0.028956 -510230.000000 0 1 0
-9.631464 20.928685 -3.186494 23.257874 -1.139489 1.708236 0.059167 -0.027319 -119472.000000 0 1 0
-10.239064 19.618785 -3.251294 22.367523 -1.089782 1.716671 0.057764 -0.028958 -890402.000000 0 1 0
-11.507264 19.617385 -2.414894 22.871175 -1.040299 1.676580 0.054734 -0.022286 -798959.000000 0 1 0
-11.393264 19.511885 -1.012294 22.617358 -1.042289 1.615569 0.053618 -0.026932 266844.000000 0 1 0
-11.198864 18.181885 -0.549994 21.361133 -1.018742 1.596547 0.058872 -0.027365 -380799.000000 0 1 0
-11.129964 18.150085 0.992206 21.313990 -1.020714 1.524228 0.060834 -0.030749 96301.300000 0 1 0
-12.406164 18.258085 1.596406 22.131857 -0.973969 1.498602 0.080725 -0.031737 278824.000000 0 1 0
-12.258664 18.528485 2.990006 22.416952 -0.986301 1.437016 0.073995 -0.025491 -378059.000000 0 1 0
-13.556064 18.362385 3.773206 23.133983 -0.934857 1.406962 0.053693 -0.033212 -296647.000000 0 1 0
-14.063964 17.051385 3.987406 22.459836 -0.881116 1.392315 0.049198 -0.025698 440219.000000 0 1 0
-15.176164 17.120885 4.870806 23.391568 -0.845539 1.361032 0.061284 -0.029168 -17171.100000 0 1 0
-15.564364 15.748685 5.473506 22.808547 -0.791284 1.328455 0.042166 -0.027250 -131621.000000 0 1 0
-14.687164 15.415885 6.544806 22.275475 -0.809601 1.272584 0.034382 -0.019735 196531.000000 0 1 0
-15.075264 16.064685 7.730406 23.347310 -0.817161 1.233322 0.023199 -0.016178 -1475860.000000 0 1 0
-14.019664 16.092685 8.819506 23.093488 -0.854133 1.178940 0.018511 -0.005684 499252.000000 0 1 0
-12.836364 16.863385 8.602806 22.872566 -0.920167 1.185192 0.021755 -0.025789 474997.000000 0 1 0
-12.007864 16.458685 7.525906 21.719033 -0.940495 1.216946 0.024307 -0.023767 -1427090.000000 0 1 0
-10.814964 17.376885 7.290006 21.727029 -1.014086 1.228632 0.038254 -0.031716 -55861.200000 0 1 0
-9.787464 17.170485 8.264906 21.422621 -1.052715 1.174719 0.038322 -0.028956 210971.000000 0 1 0
-9.003264 18.387585 8.331506 22.103757 -1.115472 1.184320 0.036633 -0.031717 -137499.000000 0 1 0
-7.824764 18.263785 9.303306 21.939560 -1.166024 1.132892 0.032838 -0.027057 -1131750.000000 0 1 0
-6.768264 17.496285 8.734306 20.693417 -1.201686 1.135056 0.017621 -0.025410 -441963.000000 0 1 0
-5.618464 17.709885 9.523506 20.878322 -1.263590 1.097140 0.020588 -0.023061 33878.300000 0 1 0
-4.792564 18.857585 8.893806 21.393387 -1.321920 1.142054 0.014496 -0.022046 -1679200.000000 0 1 0
-5.151864 20.114085 9.311106 22.755545 -1.320055 1.149242 0.019149 -0.023915 -5964.310000 0 1 0
-4.463164 21.220485 8.711206 23.369081 -1.363494 1.188808 0.022698 -0.024592 1530420.000000 0 1 0
-2.978064 21.662885 9.108306 23.687776 -1.434180 1.176114 0.021933 -0.024108 1255040.000000 0 1 0
-1.974264 20.768185 8.722206 22.611770 -1.476019 1.174789 0.012267 -0.009217 806624.000000 0 1 0
-0.719564 21.514185 8.576606 23.171882 -1.537363 1.191647 0.014285 -0.009213 1755590.000000 0 1 0
0.495736 20.620985 8.181906 22.190412 1.546761 1.193172 0.011134 -0.006193 351976.000000 0 1 0
0.805536 19.753885 9.223206 21.815875 1.530040 1.134291 0.016120 -0.024154 -315965.000000 0 1 0
2.153036 19.309785 9.130206 21.467744 1.459755 1.131504 0.013199 -0.024538 32506.500000 0 1 0
2.697936 19.014785 10.540106 21.907413 1.429851 1.068864 0.002382 -0.026321 -465195.000000 0 1 0
4.072636 18.729885 10.608006 21.907185 1.356689 1.065319 0.020889 -0.006317 -194379.000000 0 1 0
4.338636 18.335985 11.925906 22.299313 1.338451 1.006513 0.012216 -0.006775 599795.000000 0 1 0
5.872436 18.383385 12.259006 22.863018 1.261599 1.004875 0.023860 -0.003619 822706.000000 0 1 0
6.661436 17.463985 11.517506 21.954919 1.206393 1.018554 0.011789 -0.001531 -582279.000000 0 1 0
7.555736 16.830285 12.351606 22.201573 1.148827 0.980823 0.009747 0.008653 -1050980.000000 0 1 0
8.785736 16.294985 11.629906 21.862535 1.076307 1.009888 0.011176 0.005753 445534.000000 0 1 0
9.751836 17.313985 11.195506 22.808151 1.057849 1.057725 0.023950 -0.000995 1020360.000000 0 1 0
10.880636 16.646585 10.623106 22.546561 0.991877 1.080187 0.024487 -0.000284 655001.000000 0 1 0
11.927236 17.618385 9.972706 23.497262 0.975690 1.132475 0.036537 0.001331 -35304.800000 0 1 0
12.837836 16.929485 9.165906 23.139389 0.921997 1.163512 0.045434 -0.001899 -36576.200000 0 1 0
13.607836 17.880985 8.403006 23.989859 0.920278 1.212934 0.066643 -0.003412 650298.000000 0 1 0
14.656636 17.345385 7.375406 23.876264 0.869219 1.256759 0.086627 -0.011995 239724.000000 0 1 0
15.730336 16.637985 7.956106 24.239753 0.813432 1.236372 0.091956 -0.015826 253164.000000 0 1 0
16.908736 16.869785 7.186206 24.942666 0.784245 1.278545 0.102987 -0.006289 -92627.500000 0 1 0
18.196336 16.736785 7.986206 25.980880 0.743641 1.258350 0.096037 -0.012010 -555713.000000 0 0 1
18.493136 15.460185 8.529006 25.568679 0.696308 1.230706 0.100542 -0.008265 -784949.000000 0 0 1
19.637736 15.585885 9.259506 26.726372 0.670869 1.217006 0.115265 -0.014197 -1068100.000000 0 0 1
20.012136 14.374885 10.108206 26.632663 0.622908 1.181495 0.107717 -0.011513 -89900.500000 0 0 1
20.483136 13.232885 9.440006 26.149222 0.573585 1.201451 0.097427 -0.025841 273965.000000 0 0 1
20.516336 12.172085 10.347106 26.002736 0.535469 1.161544 0.094503 -0.028205 -827859.000000 0 0 1
21.314736 11.077385 9.774306 25.933829 0.479287 1.184356 0.077533 -0.023709 -341677.000000 0 0 1
22.715436 11.417585 9.690906 27.207829 0.465754 1.206619 0.071586 -0.023572 1841030.000000 0 0 1
23.636636 10.446185 9.171706 27.421406 0.416139 1.229751 0.079459 -0.024271 358773.000000 0 0 1
23.674836 9.080685 9.902106 27.221469 0.366253 1.198494 0.077563 -0.024844 -441556.000000 0 0 1
22.481036 8.320885 9.682806 25.853256 0.354493 1.186907 0.075906 -0.025530 1031650.000000 0 0 1
22.633136 7.010285 10.207406 25.799110 0.300364 1.164021 0.074503 -0.018281 -66073.000000 0 0 1
23.657736 6.027485 9.545006 26.213092 0.249471 1.198096 0.076795 -0.022973 224676.000000 0 0 1
23.391336 5.908385 8.172406 25.472570 0.247414 1.244189 0.062798 -0.014671 1043820.000000 0 0 1
24.525436 5.419185 7.433906 26.194036 0.217468 1.283040 0.062301 -0.009530 664162.000000 0 0 1
24.119736 5.222585 5.903906 25.375050 0.213236 1.335979 0.060350 -0.015114 -167984.000000 0 0 1
23.217936 4.183985 5.624506 24.253110 0.178291 1.336757 0.050464 -0.006594 549787.000000 0 1 0
23.126736 3.966585 4.197306 23.836885 0.169862 1.393789 0.065752 -0.009287 -371117.000000 0 1 0
22.270236 2.778885 3.850006 22.770774 0.124139 1.400904 0.067100 0.002250 -427186.000000 0 1 0
22.931836 1.563285 4.167106 23.359746 0.068066 1.391448 0.084358 -0.003999 825560.000000 0 1 0
22.166036 0.431085 3.717506 22.479743 0.019446 1.404662 0.083467 -0.006879 33838.900000 0 1 0
22.873136 -0.868915 4.041906 23.243760 -0.037970 1.396016 0.092172 -0.013457 -731729.000000 0 1 0
22.694436 -1.231215 5.402406 23.361064 -0.054199 1.337427 0.090345 -0.014762 522700.000000 0 1 0
22.594636 -2.649215 5.657506 23.442339 -0.116717 1.327053 0.070247 -0.017068 -1106420.000000 0 1 0
22.562236 -3.117315 7.074906 23.850082 -0.137296 1.269623 0.105599 -0.018777 -215150.000000 0 1 0
22.533836 -4.525415 7.239106 24.096842 -0.198191 1.265666 0.093629 -0.029462 498252.000000 0 1 0
22.508636 -4.892415 8.561706 24.573913 -0.214028 1.214926 0.118010 -0.028991 -72959.600000 0 1 0
22.300336 -6.424315 8.807106 24.822206 -0.280487 1.208088 0.130623 -0.041324 -388854.000000 0 1 0
20.973736 -6.785915 8.583006 23.656167 -0.312914 1.199501 0.134555 -0.042861 -132066.000000 0 1 0
20.679336 -8.037615 9.161306 24.003494 -0.370709 1.179199 0.122300 -0.043184 -134500.000000 0 1 0
-26.586474 -32.680217 5.457706 42.480864 0.887857 1.441966 0.021352 -0.009685 -182829.000000 0 0 1
-27.258504 -33.822417 5.867806 43.833927 0.892450 1.436529 0.033172 -0.020459 -287185.000000 0 0 1
-27.080514 -33.985817 7.264506 44.058632 0.897999 1.405157 0.035232 -0.009396 -225687.000000 0 0 1
-27.704574 33.186185 7.797006 43.927891 -0.875180 1.392355 0.046178 -0.007581 63233.200000 0 0 1
-29.117114 33.208385 7.792706 44.847848 -0.850948 1.396151 0.058613 -0.012823 -205612.000000 0 0 1
-29.656344 31.882985 7.965806 44.265987 -0.821565 1.389857 0.070360 -0.019186 754041.000000 0 0 1
-31.208254 31.908785 8.091006 45.360667 -0.796497 1.391466 0.079891 -0.024501 595877.000000 0 0 1
-31.875284 32.143785 6.842006 45.782854 -0.789592 1.420790 0.063404 -0.018996 -160322.000000 0 0 1
-33.251904 32.382485 7.031206 46.944141 -0.772153 1.420452 0.056728 -0.016231 261473.000000 0 0 1
-33.978364 32.467985 5.628506 47.332646 -0.762671 1.451600 0.049413 -0.011175 86381.400000 0 0 1
-33.826364 31.210185 5.019206 46.297851 -0.745194 1.462172 0.057098 -0.019348 362631.000000 0 0 1
-34.636650 31.216185 3.845206 46.786038 -0.733504 1.488516 0.073118 -0.020635 95990.400000 0 0 1
-34.204342 30.046385 2.959606 45.623257 -0.720774 1.505880 0.072811 -0.021323 119492.000000 0 0 1
-34.638910 28.782685 3.427106 45.166826 -0.693321 1.494847 0.093743 -0.024678 241748.000000 0 0 1
-34.240854 27.794185 2.461206 44.170243 -0.681850 1.515047 0.084391 -0.020364 -164275.000000 0 0 1
-34.437578 26.342285 2.959506 43.458273 -0.652987 1.502644 0.099336 -0.022008 821781.000000 0 0 1
-35.847322 26.064285 3.021306 44.424158 -0.628678 1.502733 0.099678 -0.021628 619444.000000 0 0 1
-36.159844 24.919685 3.813806 44.080270 -0.603409 1.484168 0.100450 -0.017982 840908.000000 0 0 1
34.976623 24.526685 3.718006 42.880602 0.611552 1.483981 0.093075 -0.022923 557568.000000 0 0 1
34.496163 23.683985 2.642006 41.927277 0.601655 1.507741 0.086155 -0.026851 327052.000000 0 0 1
34.920903 22.321085 2.597506 41.526465 0.568738 1.508205 0.081497 -0.018029 -1406040.000000 0 0 1
34.028823 21.471385 1.739906 40.274166 0.562885 1.527581 0.088723 -0.017112 -1047140.000000 0 0 1
32.730193 21.278085 2.198406 39.100581 0.576450 1.514542 0.076505 -0.025440 -306175.000000 0 0 1
32.592353 20.461085 3.348306 38.628081 0.560602 1.484007 0.049929 -0.016117 -828243.000000 0 0 1
32.730543 18.960785 3.023906 37.946592 0.525059 1.491023 0.063178 -0.021427 -225081.000000 0 0 1
31.711593 18.470485 2.148106 36.761370 0.527417 1.512329 0.052271 -0.027330 558980.000000 0 0 1
31.941573 17.126885 1.763606 36.286424 0.492182 1.522175 0.062593 -0.019893 -397372.000000 0 0 1
31.434943 16.083985 2.759806 35.418452 0.472932 1.492797 0.064147 -0.020790 46136.600000 0 0 1
30.031023 16.133485 2.973106 34.219746 0.492984 1.483804 0.029492 -0.015270 321277.000000 0 0 1
29.660583 14.990285 3.774006 33.447002 0.467954 1.457720 0.031358 -0.008020 258972.000000 0 0 1
28.132983 14.899685 4.023506 32.088221 0.487059 1.445077 0.025941 -0.002216 101322.000000 0 0 1
27.370483 14.586685 2.889706 31.149079 0.489647 1.477893 0.027002 -0.020983 -433104.000000 0 0 1
26.082583 15.113485 3.045106 30.298370 0.525170 1.470122 0.009710 -0.003486 -90069.400000 0 0 1
25.125483 14.799885 1.840206 29.218365 0.532321 1.507773 0.031217 -0.016955 -22478.000000 0 0 1
25.475783 15.339385 0.611206 29.743669 0.541974 1.550246 0.037528 -0.017605 566887.000000 0 0 1
26.451283 14.599385 -0.149794 30.213157 0.504328 1.575754 0.042238 -0.016943 -357664.000000 0 0 1
26.827283 15.275785 -1.498694 30.907908 0.517625 1.619304 0.055721 -0.015913 -58593.700000 0 0 1
27.417583 16.555085 -1.439094 32.060344 0.543218 1.615698 0.026233 -0.014497 298536.000000 0 0 1
28.719773 16.572185 -0.905194 33.170500 0.523359 1.598089 0.042355 -0.021939 -934370.000000 0 0 1
29.283903 17.953285 -0.662694 34.355590 0.549979 1.590087 0.046233 -0.012069 -337175.000000 0 0 1
29.707713 18.556885 -1.876294 35.077438 0.558347 1.624312 0.062646 -0.006201 232020.000000 0 0 1
30.383713 19.744485 -1.573794 36.269705 0.576261 1.614201 0.055724 0.004158 -112208.000000 0 0 1
30.671063 20.616985 -2.799094 37.062233 0.591821 1.646392 0.054809 -0.001938 -531577.000000 0 0 1
31.485343 21.700985 -2.530494 38.323139 0.603469 1.636875 0.038573 0.008182 -209249.000000 0 0 1
31.540843 22.626085 -3.536994 38.977876 0.622281 1.661665 0.039570 0.001253 192507.000000 0 0 1
32.810813 23.530985 -3.407294 40.519950 0.622158 1.654985 0.020678 0.002709 40949.400000 0 0 1
32.758003 24.515385 -2.362394 40.983799 0.642463 1.628470 0.048568 -0.000568 -16412.900000 0 0 1
33.026013 24.007985 -1.055094 40.843777 0.628580 1.596632 0.058308 0.005135 -319382.000000 0 0 1
32.626003 25.030085 0.067906 41.121355 0.654407 1.569145 0.068296 -0.019115 405204.000000 0 0 1
33.357783 26.300485 0.064006 42.478951 0.667650 1.569290 0.068992 -0.012287 540788.000000 0 0 1
34.646903 26.282585 0.669806 43.492882 0.648972 1.555395 0.090634 -0.023330 387919.000000 0 0 1
35.576273 27.393785 0.129406 44.901085 0.656180 1.567914 0.074197 -0.020487 -106878.000000 0 0 1
36.049353 27.363485 -1.218194 45.274719 0.649272 1.597706 0.056147 -0.021525 -195833.000000 0 0 1
35.098153 27.717485 -2.157794 44.774942 0.668437 1.619007 0.045786 -0.019039 -734586.000000 0 0 1
35.423493 27.397385 -3.643394 44.930111 0.658325 1.651976 0.045718 -0.011015 750415.000000 0 0 1
-36.038894 27.991685 -4.217794 45.827133 -0.660376 1.662964 0.028383 -0.005066 1021850.000000 0 0 1
-35.644505 27.561785 -5.524494 45.394965 -0.658210 1.692797 0.029499 -0.002846 -441706.000000 0 0 1
35.972713 27.668485 -6.641494 45.866007 0.655646 1.716109 0.004922 0.008474 -737333.000000 0 0 1
34.862693 26.863685 -6.382994 44.472548 0.656528 1.714820 0.005215 0.009343 -931528.000000 0 0 1
33.997903 26.919785 -7.468094 44.003462 0.669725 1.741338 -0.017165 0.018352 -847404.000000 0 0 1
32.866793 25.916485 -7.296194 42.486759 0.667708 1.743380 -0.009692 0.007488 -1341280.000000 0 0 1
33.057653 24.533185 -7.567594 41.856350 0.638447 1.752595 -0.003921 0.002741 93357.800000 0 0 1
34.118303 23.921685 -6.816094 42.222799 0.611490 1.732937 0.005153 0.005564 405244.000000 0 0 1
34.081733 22.429085 -7.099894 41.413004 0.582046 1.743089 0.019503 0.006880 49449.800000 0 0 1
33.068853 21.757185 -6.385194 40.096070 0.581934 1.730725 0.024155 0.007046 131661.000000 0 0 1
33.198293 20.343985 -6.555794 39.483956 0.549780 1.737606 0.041629 -0.004157 228842.000000 0 0 1
32.005983 19.502085 -5.995194 37.955983 0.547249 1.729412 0.051572 -0.004407 72801.800000 0 0 1
30.875783 19.591785 -6.815094 37.196741 0.565427 1.755055 0.048713 -0.014461 -65167.200000 0 0 1
29.731553 19.067585 -6.142994 35.850724 0.570253 1.742995 0.073314 -0.022855 637290.000000 0 0 1
28.510803 18.787485 -7.075694 34.869771 0.582648 1.775133 0.055196 -0.034905 323685.000000 0 0 1
28.582623 17.594085 -7.840394 34.467230 0.551776 1.800279 0.054358 -0.032777 -132732.000000 0 0 1
27.406183 17.445985 -8.588594 33.603946 0.566877 1.829247 0.062482 -0.033420 -208268.000000 0 0 1
27.521083 16.281385 -9.572994 33.378672 0.534218 1.861681 0.061828 -0.027693 -291484.000000 0 0 1
26.667783 16.479985 -10.686994 33.120574 0.553531 1.899345 0.058990 -0.025479 240222.000000 0 0 1
26.782883 15.428685 -11.634394 33.026145 0.522634 1.930801 0.058078 -0.020435 -575762.000000 0 0 1
26.015383 15.552085 -12.917794 32.947487 0.538803 1.973679 0.064835 -0.009626 -184919.000000 0 0 1
24.607983 15.432385 -12.784894 31.735861 0.560129 1.985428 0.044519 -0.008323 506141.000000 0 0 1
23.873583 15.277885 -13.993394 31.609758 0.569277 2.029395 0.045274 -0.008583 -181864.000000 0 0 1
23.765983 13.864785 -14.678594 31.185178 0.528115 2.060871 0.048124 -0.012821 132038.000000 0 0 1
25.008683 13.288585 -15.118194 32.102656 0.488419 2.061144 0.064935 -0.016455 606604.000000 0 0 1
25.341983 13.865285 -16.359794 33.197968 0.500635 2.086095 0.087619 -0.024435 -699781.000000 0 0 1
26.744083 13.421785 -16.778494 34.306095 0.465135 2.081833 0.117963 -0.026269 -316441.000000 0 0 1
26.795183 12.100685 -17.262494 34.094019 0.424183 2.101709 0.127155 -0.028697 -641061.000000 0 0 1
28.082703 11.683885 -17.570994 35.126787 0.394268 2.094645 0.122533 -0.020419 -519220.000000 0 0 1
28.263563 10.270785 -18.212694 35.157079 0.348556 2.115352 0.100054 -0.017745 -100790.000000 0 0 1
27.699423 10.274885 -19.536394 35.418949 0.355208 2.155054 0.097297 -0.022165 304426.000000 0 0 1
27.965053 9.047285 -20.279594 35.709375 0.312894 2.174757 0.067303 -0.010198 -32005.300000 0 0 1
29.432893 8.879985 -20.739094 37.084489 0.293018 2.164264 0.070242 -0.011454 -442253.000000 0 0 1
29.837293 9.908085 -21.754794 38.232254 0.320614 2.176106 0.077957 -0.009077 382865.000000 0 0 1
30.356683 9.249085 -22.907094 39.138328 0.295745 2.196028 0.057258 -0.003476 -459165.000000 0 0 1
31.808793 8.777485 -22.815394 40.117150 0.269245 2.175744 0.046700 0.000567 -863010.000000 0 0 1
32.767133 9.803985 -22.821494 41.117195 0.290724 2.159202 0.051932 -0.001257 386007.000000 0 0 1
34.087973 9.264285 -22.864894 42.078739 0.265366 2.145259 0.016130 0.004632 720062.000000 0 0 1
35.232923 10.292285 -22.688594 43.151620 0.284213 2.124437 0.035431 -0.003063 100600.000000 0 0 1
35.171783 10.834785 -21.398394 42.571565 0.298829 2.097452 0.032690 -0.005320 984459.000000 0 0 1
36.193393 11.854885 -21.150894 43.564438 0.316530 2.077741 0.013131 0.000111 839449.000000 0 0 1
36.034843 12.438685 -19.699694 42.910473 0.332379 2.047765 0.011620 -0.000271 -1326.350000 0 0 1
-36.019476 11.678485 -18.701394 42.231882 -0.313533 2.029545 0.019930 -0.001642 383626.000000 0 0 1
36.113053 12.217785 -17.458394 41.931162 0.326232 2.000233 0.028077 -0.003767 186814.000000 0 0 1
-36.245284 11.322185 -16.222594 41.292676 -0.302773 1.974545 0.017174 -0.012184 -231665.000000 0 0 1
35.569723 10.209185 -16.152894 40.377576 0.279505 1.982364 0.013057 -0.006935 -44243.400000 0 0 1
36.190833 9.214285 -15.323894 40.367080 0.249306 1.960175 0.019318 -0.011971 -98084.300000 0 0 1
35.312833 8.047185 -14.873294 39.153138 0.224057 1.960457 0.058695 -0.007522 -331486.000000 0 0 1
34.211433 8.456785 -14.070494 37.946253 0.242334 1.950667 0.075459 -0.015122 481411.000000 0 0 1
34.414373 8.307085 -12.657094 37.597324 0.236853 1.914152 0.070510 -0.020174 -374298.000000 0 0 1
33.207193 8.773785 -11.800494 36.317332 0.258311 1.901731 0.075917 -0.020219 -92380.300000 0 0 1
33.164773 10.184785 -11.662794 36.601267 0.297955 1.895095 0.080613 -0.025992 757283.000000 0 0 1
32.181703 10.635785 -10.684794 35.537962 0.319191 1.876179 0.051483 -0.012804 119839.000000 0 0 1
32.610293 10.542585 -9.259194 35.500845 0.312685 1.834664 0.064058 -0.013377 -309812.000000 0 0 1
33.799353 11.184485 -8.861894 36.688174 0.319566 1.814755 0.066626 -0.009658 5444.660000 0 0 1
33.685393 12.581685 -8.561494 36.963545 0.357460 1.804539 0.070993 -0.011545 -629510.000000 0 0 1
33.431473 12.981385 -7.132694 36.565763 0.370378 1.767120 0.066477 -0.012886 -275791.000000 0 0 1
34.511603 12.642885 -6.286294 37.288212 0.351154 1.740192 0.085507 -0.012426 251754.000000 0 0 1
34.290243 12.990885 -4.946694 37.000725 0.362142 1.704890 0.090993 -0.017989 358775.000000 0 0 1
35.517243 12.683785 -4.007094 37.926373 0.343000 1.676648 0.099497 -0.007316 418613.000000 0 0 1
-36.104934 13.592285 -4.245394 38.811595 -0.360055 1.680400 0.090432 -0.000981 34581.000000 0 0 1
-34.919371 13.424985 -3.472494 37.571943 -0.367036 1.663351 0.076623 -0.012800 346476.000000 0 0 1
-34.007014 14.657185 -3.545794 37.200575 -0.406946 1.666257 0.073047 -0.017770 -62174.300000 0 0 1
-34.313427 15.643785 -2.613294 37.801701 -0.427757 1.639983 0.105925 -0.015396 -46267.000000 0 0 1
-33.355354 16.662685 -2.609994 37.376956 -0.463288 1.640682 0.097663 -0.014962 -51059.500000 0 0 1
-33.677804 17.743985 -1.546094 38.097689 -0.484916 1.611390 0.106289 -0.011849 72178.700000 0 0 1
-34.764339 18.600885 -1.828894 39.470205 -0.491298 1.617149 0.078791 -0.005417 240253.000000 0 0 1
-35.149512 19.397985 -0.709194 40.153120 -0.504278 1.588459 0.071886 -0.002190 -44174.700000 0 0 1
36.265253 20.250685 -1.002694 41.548336 0.509273 1.594932 0.070236 0.000317 -168705.000000 0 0 1
-36.005142 21.361285 -1.741794 41.901177 -0.535467 1.612377 0.073277 0.004826 216933.000000 0 0 1
36.289153 21.310485 -3.093294 42.197249 0.530985 1.644168 0.042947 0.010780 -140353.000000 0 0 1
-36.124434 22.679485 -3.763194 42.819335 -0.560621 1.658795 0.070530 -0.014240 -216628.000000 0 0 1
-34.749297 22.728985 -4.051294 41.719701 -0.579241 1.668057 0.078336 -0.000221 -111945.000000 0 0 1
-34.351192 23.979185 -4.611294 42.145816 -0.609423 1.680429 0.083148 -0.003285 -21934.900000 0 0 1
-32.843984 24.029085 -4.911494 40.990816 -0.631629 1.690904 0.077143 -0.012197 -27666.900000 0 0 1
-32.447264 23.126485 -5.933994 40.284880 -0.619226 1.718635 0.072733 -0.008978 322855.000000 0 0 1
-31.078714 23.290785 -6.283094 39.342400 -0.643125 1.731186 0.073492 0.000982 498298.000000 0 0 1
-30.439484 22.440585 -7.371894 38.529040 -0.635271 1.763317 0.077764 -0.015777 240795.000000 0 0 1
-31.158154 22.707885 -8.564994 39.494781 -0.629791 1.789397 0.067383 -0.025674 377063.000000 0 0 1
-30.386704 22.343185 -9.670694 38.937027 -0.634023 1.821791 0.037937 -0.020816 642893.000000 0 0 1
-31.369114 22.271285 -10.892394 39.983443 -0.617389 1.846706 0.027542 -0.009591 529810.000000 0 0 1
-31.878754 23.486585 -11.375094 41.197906 -0.634965 1.850539 0.035247 -0.010479 473069.000000 0 0 1
-32.710614 23.337685 -12.562794 42.100542 -0.619702 1.873812 0.019714 -0.002728 19344.400000 0 0 1
-33.442734 24.662185 -12.946594 43.523030 -0.635418 1.872833 0.047864 -0.001742 175069.000000 0 0 1
-32.563944 25.767285 -13.184094 43.568151 -0.669403 1.878225 0.036689 -0.004077 -231787.000000 0 0 1
-31.753164 25.738985 -14.304994 43.305793 -0.681169 1.907444 0.016334 -0.010970 300066.000000 0 0 1
-30.459694 26.618285 -14.078794 42.831513 -0.718198 1.905725 0.021152 -0.003649 1034660.000000 0 0 1
-29.355414 26.145885 -13.299294 41.499625 -0.727635 1.897020 0.032621 -0.006558 798291.000000 0 0 1
-29.665134 25.934785 -11.934394 41.171143 -0.718406 1.864890 0.042680 -0.005912 -531104.000000 0 0 1
-29.829744 27.214485 -11.042594 41.861447 -0.739584 1.837745 0.061998 0.000937 196086.000000 0 0 1
-28.594534 27.816285 -10.694194 41.300834 -0.771603 1.832715 0.069297 0.002063 82352.500000 0 0 1
-28.809934 28.821085 -9.744994 41.900265 -0.785592 1.805522 0.056745 -0.004921 321885.000000 0 0 1
-27.556254 29.662985 -9.397694 41.563885 -0.822200 1.798871 0.071474 -0.000507 401235.000000 0 0 1
-27.922314 30.966685 -8.920894 42.640047 -0.837049 1.781567 0.061819 -0.017066 -281415.000000 0 0 1
-26.760964 31.644985 -8.547794 42.315707 -0.868826 1.774196 0.077878 -0.004936 -195037.000000 0 0 1
34.886083 -25.367665 34.212270 55.054851 -0.628721 0.900241 0.027690 -0.003388 -261791.000000 0 0 1
34.383103 -24.009015 34.193549 54.109420 -0.609570 0.886751 0.026868 -0.008443 -127620.000000 0 0 1
33.339723 -24.024915 -33.354644 52.926986 -0.624424 2.252608 0.028367 -0.009797 -51157.400000 0 0 1
32.883683 -22.572115 -32.923634 51.718494 -0.601556 2.260869 0.023311 -0.014857 396215.000000 0 0 1
32.238063 -21.849015 -33.981244 51.685559 -0.595629 2.288241 0.017696 -0.008214 -60311.700000 0 0 1
31.752213 -20.627315 -33.579364 50.608920 -0.576118 2.296293 0.017611 -0.004184 40630.900000 0 0 1
31.545843 -19.798715 33.646396 50.191725 -0.560479 0.836106 0.003214 0.003649 824620.000000 0 0 1
32.785703 -19.431215 33.015845 50.423411 -0.535015 0.856915 0.022646 -0.009609 698520.000000 0 0 1
32.535913 -19.236115 31.647043 49.296542 -0.533944 0.873728 0.015675 0.000983 258052.000000 0 0 1
33.767113 -19.271415 30.674353 49.522937 -0.518608 0.902822 0.009310 0.005532 322533.000000 0 0 1
34.639843 -18.177815 30.907883 49.856282 -0.483264 0.902131 -0.001442 0.001853 -138767.000000 0 0 1
35.710263 -18.081615 30.025213 50.036797 -0.468709 0.927217 0.005145 0.002073 -609955.000000 0 0 1
-36.011725 -16.917115 30.403303 50.073885 0.439170 0.918304 0.003139 -0.005034 -665813.000000 0 0 1
-35.125088 -16.636815 29.338843 48.696233 0.442342 0.924183 0.021359 -0.007288 57110.300000 0 0 1
-34.162040 -15.641415 29.545113 47.797621 0.429371 0.904436 0.023063 -0.008394 597962.000000 0 0 1
-32.887754 -16.069115 30.358313 47.554684 0.454490 0.878395 0.051093 -0.015340 20293.400000 0 0 1
-32.173284 -14.955415 30.907023 47.053467 0.435126 0.854164 0.050443 -0.014643 494612.000000 0 0 1
-30.959384 -15.447615 31.479223 46.776637 0.462818 0.832581 0.056450 -0.021750 710584.000000 0 0 1
-30.028924 -14.335915 32.093533 46.230397 0.445408 0.803477 0.054268 -0.021381 449500.000000 0 0 1
-30.577674 -13.795815 33.275787 47.250362 0.423829 0.789438 0.062520 -0.021430 217506.000000 0 0 1
-29.717604 -12.783815 33.691824 46.708681 0.406247 0.765093 0.061640 -0.021446 -167153.000000 0 0 1
-29.888334 -12.370115 -33.295954 46.421469 0.392412 2.370649 0.045745 -0.017571 -140212.000000 0 0 1
-29.634324 -13.400315 -32.312224 45.845844 0.424673 2.352940 0.061820 -0.018827 236796.000000 0 0 1
-29.641234 -12.836915 -31.027154 44.789211 0.408691 2.336074 0.055994 -0.013783 -330309.000000 0 0 1
-29.758324 -13.922215 -29.927994 44.441768 0.437592 2.309622 0.059581 -0.014338 479056.000000 0 0 1
-31.041214 -14.540015 -30.014014 45.561058 0.438058 2.289972 0.057475 -0.020813 288099.000000 0 0 1
-31.221224 -15.372415 -28.887244 45.227744 0.457526 2.263612 0.067513 -0.018828 70811.600000 0 0 1
-32.456134 -16.280515 -28.944434 46.435289 0.464940 2.243788 0.075684 -0.025574 -226457.000000 0 0 1
-32.332664 -17.360215 -29.860474 47.312008 0.492749 2.253818 0.074678 -0.029251 -69325.400000 0 0 1
-33.444824 -18.215415 -29.787374 48.349201 0.498719 2.234563 0.074520 -0.026482 -166238.000000 0 0 1
-33.088934 -19.611215 -30.355144 48.999103 0.535021 2.238907 0.066434 -0.022552 63377.100000 0 0 1
-34.239324 -20.366415 -30.621834 50.247576 0.536606 2.226124 0.042725 -0.024588 -217149.000000 0 0 1
-33.891914 -21.657015 -30.994684 50.777540 0.568605 2.227364 0.031300 -0.013475 58292.600000 0 0 1
-35.132141 -22.561915 -31.199554 52.122160 0.570873 2.212530 0.021487 -0.003854 214092.000000 0 0 1
-35.951267 -22.680315 -30.052794 52.058243 0.562804 2.186204 0.020499 -0.014759 -156984.000000 0 0 1
35.758483 -23.726615 -30.061794 52.395923 -0.585824 2.181865 0.036961 -0.014521 22330.200000 0 0 1
36.301013 -25.221025 -30.221454 53.546241 -0.607210 2.170502 0.029454 -0.009163 134908.000000 0 0 1
-35.974488 -25.553215 -31.580614 54.262932 0.617615 2.191973 0.031544 0.000477 -576407.000000 0 0 1
-35.195564 -26.690845 -31.543184 54.278001 0.648829 2.190927 0.004594 0.007012 -318576.000000 0 0 1
-35.116021 -27.484405 -32.825014 55.371554 0.664087 2.205344 0.013018 0.001461 -363349.000000 0 0 1
36.281523 -27.986535 -33.183854 56.575288 -0.657039 2.197581 0.033307 -0.001671 -801549.000000 0 0 1
36.220473 -29.117145 -34.025584 57.597492 -0.677106 2.202781 0.021753 -0.005020 402044.000000 0 0 1
-35.755799 -30.434315 -33.442884 57.646779 0.705174 2.189690 0.022900 -0.011222 121275.000000 0 0 1
36.174783 -30.912485 -32.341054 57.533819 -0.707119 2.167746 0.028986 -0.012733 -361953.000000 0 0 1
-35.687452 -31.674935 -31.443014 57.145069 0.725902 2.153438 0.030415 -0.017424 -408000.000000 0 0 1
-36.313594 -32.143015 -30.125574 57.091161 0.724550 2.126657 0.021932 -0.013407 -381636.000000 0 0 1
35.400463 -33.160975 -30.329724 57.207824 -0.752746 2.129594 0.036127 -0.011602 -200327.000000 0 0 1
34.966783 -33.619955 -29.076704 56.554681 -0.765764 2.110794 0.031048 -0.015115 124835.000000 0 0 1
33.846373 33.782373 -29.151824 56.005844 0.784452 2.118249 0.033154 -0.021186 295021.000000 0 0 1
32.595583 34.137958 -29.682464 55.757698 0.808507 2.132167 0.042870 -0.021818 -130713.000000 0 0 1
31.559073 33.340324 -29.133574 54.372028 0.812838 2.136274 0.041864 -0.021120 891372.000000 0 0 1
30.168353 33.560486 -29.821504 54.090275 0.838576 2.154752 0.031696 -0.012273 340876.000000 0 0 1
30.091163 33.200810 -31.188744 54.594044 0.834490 2.178867 0.036971 -0.006024 -438875.000000 0 0 1
28.926513 33.636074 -31.826044 54.598770 0.860534 2.193099 0.030434 -0.001377 -366179.000000 0 0 1
28.736443 33.137365 -33.270314 55.052538 0.856406 2.219730 0.026538 -0.000500 48622.700000 0 0 1
28.621053 31.705818 -33.418614 54.233083 0.836488 2.234709 0.021086 -0.001312 -8502.970000 0 0 1
28.513983 31.348238 33.709075 54.148509 0.832709 0.898825 0.024596 0.007479 93517.200000 0 0 1
28.311213 29.841308 33.590452 53.106938 0.811704 0.886012 0.031229 -0.010379 48902.100000 0 0 1
29.475483 29.109418 33.859480 53.503520 0.779150 0.885573 0.048546 -0.011582 -477787.000000 0 0 1
29.098473 27.907898 -34.016144 52.751018 0.764516 2.271615 0.053840 -0.021075 -315770.000000 0 0 1
30.219763 27.018038 -33.545234 52.616453 0.729519 2.262101 0.071055 -0.027546 -334191.000000 0 0 1
30.991873 27.515538 -32.481444 52.655913 0.726051 2.235546 0.073509 -0.019560 -381848.000000 0 0 1
32.194493 26.824848 -32.309634 52.914746 0.694667 2.227612 0.073024 -0.021648 5671.650000 0 0 1
32.917623 26.850198 -30.928294 52.545812 0.684228 2.200118 0.087556 -0.021782 -293422.000000 0 0 1
33.723623 27.981548 -30.775184 53.547752 0.692609 2.183063 0.058089 -0.011484 -509513.000000 0 0 1
33.166293 29.263308 -30.712724 53.848079 0.722961 2.177739 0.072214 -0.020152 -576485.000000 0 0 1
32.438513 29.690468 -29.437994 52.918584 0.741196 2.160709 0.060073 -0.006670 8103.590000 0 0 1
33.199853 29.956388 -28.286804 52.912746 0.734087 2.134823 0.052423 -0.003270 -586701.000000 0 0 1
32.335933 30.333348 -27.255404 52.044035 0.753454 2.121983 0.047661 -0.003499 -50598.100000 0 0 1
32.966593 30.816408 -25.896494 52.029565 0.751700 2.091772 0.056786 -0.003211 41084.000000 0 0 1
33.535973 32.112768 -25.964944 53.198399 0.763722 2.080682 0.041128 -0.005317 -117322.000000 0 0 1
33.899953 32.613693 -24.753894 53.156515 0.766062 2.055199 0.032633 -0.013151 -74779.400000 0 0 1
34.091913 34.146958 -24.690694 54.202432 0.786205 2.043761 0.041623 -0.015178 -287999.000000 0 0 1
32.867733 -33.689845 -24.876294 53.236486 -0.797749 2.057007 0.057340 -0.012890 -244196.000000 0 0 1
32.991003 -32.240895 -24.726194 52.338000 -0.773900 2.062845 0.054497 -0.018828 -298153.000000 0 0 1
33.619443 -31.364565 -25.930544 52.786323 -0.750713 2.084305 0.042710 -0.020519 1043210.000000 0 0 1
34.991593 -31.621005 -26.214144 53.958140 -0.734841 2.078102 0.042848 -0.025490 787430.000000 0 0 1
36.012173 -31.072755 -25.370474 53.907825 -0.711901 2.060798 0.045946 -0.020267 188594.000000 0 0 1
-35.216019 -31.484255 -25.807024 53.827770 0.729508 2.070809 0.011839 -0.017936 -325521.000000 0 0 1
-34.832394 -32.871485 -25.591504 54.302442 0.756443 2.061535 0.016361 -0.018757 -164727.000000 0 0 1
-34.415191 -33.084495 -24.262094 53.550335 0.765687 2.041003 0.025636 -0.019895 837276.000000 0 0 1
-33.005264 -32.578035 -23.731094 52.094535 0.778884 2.043774 0.012050 -0.012866 883999.000000 0 0 1
-33.018824 -31.162305 -23.547194 51.144915 0.756480 2.049244 0.013289 -0.011743 -41593.800000 0 0 1
-33.074814 -30.710635 -22.225694 50.309720 0.748351 2.028375 0.005880 -0.013040 -271306.000000 0 0 1
-33.053174 -29.166535 -22.098494 49.310673 0.723013 2.035489 0.002756 -0.002245 284359.000000 0 0 1
-34.198965 -28.434575 -22.522094 49.853174 0.693623 2.039543 -0.001462 -0.007258 -155904.000000 0 0 1
-34.203204 -28.285115 -23.920594 50.419259 0.690973 2.065117 0.004427 -0.007198 468128.000000 0 0 1
-35.512952 -27.490435 -24.244794 51.036299 0.658745 2.065817 0.014375 -0.010271 650503.000000 0 0 1
-35.464348 -26.157485 -23.681994 50.027701 0.635499 2.063918 0.013453 -0.014260 -479457.000000 0 0 1
36.198223 -25.284775 -24.163394 50.333893 -0.609724 2.071522 0.029539 -0.016775 -36330.500000 0 0 1
-36.156954 -24.623015 -25.558704 50.664243 0.597863 2.099567 0.026222 -0.011358 170895.000000 0 0 1
-35.123144 -23.630615 -25.598894 49.470644 0.592232 2.114672 0.020766 -0.018087 78905.200000 0 0 1
-34.954702 -23.049115 -26.900864 49.766950 0.582955 2.141871 0.035174 -0.021792 -606222.000000 0 0 1
-33.647894 -22.287315 -26.946084 48.528307 0.585021 2.159478 0.036916 -0.029264 -771916.000000 0 0 1
-33.447154 -21.179015 -26.017014 47.372437 0.564480 2.152205 0.054727 -0.022365 223073.000000 0 0 1
-34.248521 -19.999815 -26.272394 47.573023 0.528543 2.155862 0.057903 -0.022573 877138.000000 0 0 1
-35.504008 -19.739715 -25.342564 47.879395 0.507427 2.128572 0.052000 -0.013188 554862.000000 0 0 1
-35.322498 -19.511315 -23.906294 46.902891 0.504666 2.105630 0.054494 -0.022745 -352839.000000 0 0 1
-34.643958 -20.487415 -23.143294 46.427902 0.534050 2.092639 0.034037 -0.023994 78548.500000 0 0 1
-35.524894 -21.698715 -22.698294 47.413762 0.548325 2.070002 0.040876 -0.019010 305349.000000 0 0 1
36.247793 -21.373615 -21.640894 47.318729 -0.532777 2.045802 0.039820 -0.015118 -483876.000000 0 0 1
35.616653 -22.538415 -21.217294 47.187918 -0.564193 2.037152 0.034001 -0.007995 -250542.000000 0 0 1
34.618643 -22.172515 -20.097794 45.760159 -0.569653 2.025503 0.039722 -0.016278 -549973.000000 0 0 1
33.431553 -21.651515 -20.573394 44.829916 -0.574712 2.047577 0.054611 -0.015388 -880093.000000 0 0 1
32.357443 -21.805915 -19.671694 43.697569 -0.592999 2.037761 0.066002 -0.021116 700294.000000 0 0 1
31.027293 -21.054515 -20.034694 42.513227 -0.596205 2.061513 0.062956 -0.010350 101022.000000 0 0 1
30.513083 -21.782315 -21.137394 43.038435 -0.619973 2.084181 0.057696 -0.011225 134990.000000 0 0 1
29.244163 -21.333615 -21.591494 42.148983 -0.630251 2.108618 0.066009 -0.008406 320708.000000 0 0 1
29.293573 -20.055115 -22.473694 42.016520 -0.600333 2.135159 0.054023 -0.007296 -311488.000000 0 0 1
29.664743 -18.921615 -21.686594 41.331983 -0.567785 2.123151 0.059917 -0.005653 18101.400000 0 0 1
29.529413 -17.731015 -22.414894 41.095043 -0.540752 2.147711 0.045012 -0.001734 -146106.000000 0 0 1
30.316153 -16.629315 -21.687694 40.816164 -0.501714 2.130990 0.047880 -0.009432 -317821.000000 0 0 1
29.702613 -16.095115 -20.481194 39.506673 -0.496584 2.115803 0.033409 -0.009776 127174.000000 0 0 1
30.581563 -15.632415 -19.496194 39.493113 -0.472545 2.087090 0.021404 -0.008208 -258012.000000 0 0 1
31.565853 -16.654715 -18.898094 40.384657 -0.485497 2.057769 0.035376 -0.017049 -643581.000000 0 0 1
32.640233 -17.029815 -19.671994 41.741906 -0.480890 2.061534 0.039195 -0.014007 -655740.000000 0 0 1
33.480683 -18.022915 -19.142094 42.569958 -0.493822 2.037183 0.047892 -0.013693 358040.000000 0 0 1
34.710873 -18.449415 -19.986294 44.098498 -0.488542 2.041170 0.053405 -0.017153 193346.000000 0 0 1
35.803943 -17.555115 -19.944794 44.585863 -0.455867 2.034579 0.061852 -0.020493 -306966.000000 0 0 1
-35.947985 -18.063915 -20.879694 45.326860 0.465647 2.049521 0.057809 -0.020504 -263743.000000 0 0 1
-35.047404 -17.006715 -21.574694 44.531071 0.451777 2.076572 0.068778 -0.016330 712974.000000 0 0 1
-33.978024 -16.442515 -20.792894 43.095323 0.450698 2.074287 0.090434 -0.023283 226836.000000 0 0 1
-33.255394 -15.486115 -21.487194 42.514004 0.435810 2.100659 0.095940 -0.023434 -151393.000000 0 0 1
-31.978384 -15.045715 -20.712594 40.963424 0.439767 2.100916 0.094930 -0.014738 1047260.000000 0 0 1
-30.808664 -15.879015 -20.687994 40.364712 0.475897 2.108921 0.090408 -0.028129 896142.000000 0 0 1
-31.012714 -17.029115 -19.872194 40.579345 0.502153 2.082556 0.088309 -0.031658 -549303.000000 0 0 1
-30.022094 -18.175515 -20.118394 40.452753 0.544384 2.091316 0.066513 -0.039096 -106090.000000 0 0 1
-30.352844 -19.369615 -19.472694 40.934862 0.567998 2.066555 0.061277 -0.038863 861609.000000 0 0 1
-29.220024 -20.280215 -19.421694 40.525290 0.606723 2.070595 0.055626 -0.034301 832484.000000 0 0 1
-29.624714 -21.694915 -18.989594 41.338816 0.632093 2.048076 0.033735 -0.012068 -134847.000000 0 0 1
-30.432724 -22.325615 -19.964494 42.698534 0.632926 2.057335 0.036823 -0.015152 -133172.000000 0 0 1
-30.912554 -23.542915 -19.505394 43.477756 0.650882 2.036027 0.020770 -0.002193 161705.000000 0 0 1
-32.069264 -24.081915 -20.406894 44.997974 0.644099 2.041493 0.008682 -0.003102 229635.000000 0 0 1
-31.616134 -24.190015 -21.740694 45.358511 0.653105 2.070662 0.004327 -0.010011 552506.000000 0 0 1
-32.598974 -24.845115 -22.560494 46.786202 0.651228 2.073965 0.010267 -0.010658 457538.000000 0 0 1
-32.160834 -24.891815 -24.051994 47.248493 0.658672 2.104881 0.010701 -0.006192 471648.000000 0 0 1
-30.988354 -25.657705 -24.312794 47.007530 0.691570 2.114385 0.019183 -0.007761 79604.500000 0 0 1
-30.786154 -25.815985 -25.725924 47.708233 0.697814 2.140324 0.023211 -0.004661 272620.000000 0 0 1
-29.350174 -26.282245 -26.104824 47.261516 0.730308 2.155975 0.030302 -0.006493 665629.000000 0 0 1
-28.470364 -25.143095 -26.170414 46.126212 0.723417 2.174099 0.037182 -0.009056 853983.000000 0 0 1
-27.104944 -25.546895 -26.400904 45.654458 0.755815 2.187411 0.037393 -0.006803 1538130.000000 0 0 1
-26.101934 -24.336715 -26.519104 44.461776 0.750415 2.209864 0.045652 -0.005076 254715.000000 0 0 1
-26.278034 -23.558015 -27.659144 44.839083 0.730873 2.235535 0.047092 -0.011662 295709.000000 0 0 1
-25.231944 -22.599215 -27.885884 43.874800 0.730412 2.259554 0.053043 -0.015320 470738.000000 0 0 1
-25.334094 -21.816715 -29.237994 44.414476 0.710938 2.289353 0.048703 -0.021416 -68622.900000 0 0 1
-24.756064 -22.500515 -30.321714 45.150218 0.737705 2.307127 0.049971 -0.012062 -5987.970000 0 0 1
-24.814264 -21.834915 -31.577484 45.712675 0.721618 2.333366 0.049864 -0.014373 -207380.000000 0 0 1
-24.290764 -22.695315 -32.763014 46.674764 0.751455 2.348918 0.043626 -0.028569 113162.000000 0 0 1
-25.078404 -23.824315 -33.210954 47.953016 0.759759 2.335846 0.021678 -0.013839 72725.000000 0 0 1
-24.385964 -24.860915 -33.943014 48.629914 0.795042 2.343378 0.051778 -0.005646 309984.000000 0 0 1
-19.312364 -14.954815 -11.752994 27.106213 0.658913 2.019270 0.045828 0.003152 391951.000000 0 0 1
-19.978264 -14.485915 -10.547594 26.836999 0.627363 1.974715 0.046928 -0.005404 353457.000000 0 0 1
-19.281264 -14.803515 -9.328294 26.037056 0.654775 1.937210 0.039801 -0.010501 6053.050000 0 0 1
-19.854564 -14.089315 -8.094294 25.655995 0.617157 1.891773 0.057141 -0.018501 336666.000000 0 0 1
-21.115464 -14.564215 -7.622794 26.759786 0.603808 1.859657 0.058387 -0.013213 645613.000000 0 0 1
-21.374564 -13.995015 -6.375594 26.332122 0.579708 1.815349 0.075240 -0.019999 33098.000000 0 0 1
-22.402164 -14.816115 -5.531594 27.422121 0.584327 1.773910 0.069042 -0.017835 -259204.000000 0 0 1
-22.034164 -16.119615 -5.095294 27.772439 0.631604 1.755307 0.047445 -0.021915 57398.000000 0 0 1
-21.269564 -16.083415 -3.928494 26.953732 0.647438 1.717067 0.057428 -0.025514 -455199.000000 0 0 1
-20.964264 -17.454015 -3.406894 27.490906 0.694282 1.695044 0.036913 -0.016897 178561.000000 0 0 1
-22.149364 -18.140915 -3.026294 28.789678 0.686235 1.676108 0.055707 -0.017173 368558.000000 0 0 1
-21.874964 -19.463915 -2.740594 29.408653 0.727140 1.664122 0.036425 -0.008728 -495508.000000 0 0 1
-23.088964 -20.233515 -2.244194 30.782004 0.719582 1.643767 0.057543 -0.021936 -703026.000000 0 0 1
-23.938764 -20.663515 -3.252094 31.790272 0.712097 1.673274 0.024195 -0.018784 -516162.000000 0 0 1
-24.798064 -21.637915 -2.729894 33.024168 0.717449 1.653554 0.047380 -0.012950 -228378.000000 0 0 1
-24.973264 -22.861715 -3.639994 34.052481 0.741284 1.677895 0.050084 -0.014973 -325170.000000 0 0 1
-23.704464 -23.438915 -3.782094 33.549792 0.779765 1.683767 0.046486 -0.017361 -378473.000000 0 0 1
-23.646464 -24.281615 -4.879494 34.242686 0.798650 1.713780 0.044067 -0.016772 200302.000000 0 0 1
-22.288064 -24.216615 -5.645094 33.392654 0.826844 1.740664 0.038524 -0.009758 468611.000000 0 0 1
-21.879464 -23.035115 -6.307694 32.390036 0.811122 1.766791 0.011521 0.003865 134597.000000 0 0 1
-21.497664 -21.945215 -5.481294 31.205554 0.795700 1.747364 0.009270 0.005899 -529257.000000 0 0 1
-21.453564 -20.576115 -6.194194 30.364452 0.764524 1.776233 0.015791 0.008198 -297220.000000 0 0 1
-20.417764 -20.394315 -7.145694 29.730020 0.784824 1.813526 0.002234 0.009328 -67072.700000 0 0 1
-20.524664 -19.269315 -7.987194 29.263691 0.753862 1.847243 -0.005556 0.014994 257234.000000 0 0 1
-19.221564 -18.944615 -8.768794 28.377081 0.778142 1.884948 0.007507 0.005183 -487847.000000 0 0 1
-19.020964 -19.810915 -9.851594 29.177445 0.805738 1.915209 0.006293 0.013019 259323.000000 0 0 1
-17.690464 -19.666015 -10.352194 28.405503 0.838233 1.943831 0.036647 0.009143 668440.000000 0 0 1
-17.297364 -18.217615 -10.928194 27.395359 0.811304 1.981121 0.032237 0.006993 -930663.000000 0 0 1
-17.060264 -17.166015 -10.006394 26.188788 0.788488 1.962850 0.039030 -0.004093 376724.000000 0 0 1
-15.688664 -17.155815 -9.606594 25.154379 0.830038 1.962653 0.053624 -0.006591 253434.000000 0 0 1
-15.458164 -16.055215 -8.596094 23.887603 0.804342 1.938910 0.047212 -0.009445 77611.100000 0 1 0
-16.172664 -16.323915 -7.392194 24.138554 0.790052 1.882037 0.030034 -0.001179 361301.000000 0 1 0
-16.183364 -15.171815 -6.576094 23.137205 0.753148 1.858991 0.030879 -0.005296 -310738.000000 0 1 0
-16.989764 -15.483315 -5.304794 23.590802 0.739041 1.797603 0.037390 -0.005317 -175478.000000 0 1 0
-17.437264 -14.263515 -4.789594 23.031419 0.685615 1.780284 0.037143 -0.003257 344217.000000 0 1 0
-17.858764 -14.460215 -3.408894 23.230450 0.680627 1.718071 0.032103 -0.004123 -148543.000000 0 1 0
-18.512664 -13.166815 -2.818494 22.891650 0.618225 1.694233 0.028811 -0.003276 -776896.000000 0 1 0
-19.847464 -13.125015 -3.210294 24.010286 0.584274 1.704903 0.056262 -0.016547 -387654.000000 0 1 0
-20.424564 -11.997715 -2.538294 23.823327 0.531115 1.677546 0.063082 -0.010966 377368.000000 0 1 0
-21.986364 -12.011115 -2.684894 25.196741 0.499997 1.677556 0.076768 -0.009437 517538.000000 0 0 1
-22.480264 -11.649115 -3.965194 25.627854 0.478096 1.726142 0.087837 -0.019162 -149723.000000 0 0 1
-23.875264 -11.783515 -3.895094 26.908200 0.458470 1.716062 0.093303 -0.008165 -272794.000000 0 0 1
-24.594064 -11.169315 -5.156094 27.499216 0.426297 1.759412 0.093433 -0.018519 -129591.000000 0 0 1
-24.247464 -11.758615 -6.357294 27.687899 0.451529 1.802469 0.085795 -0.022923 -68418.400000 0 0 1
-24.799964 -11.130415 -7.423194 28.178505 0.421862 1.837377 0.090288 -0.022652 -519256.000000 0 0 1
-24.030964 -11.590615 -8.630894 28.041432 0.449404 1.883667 0.083702 -0.026308 -177717.000000 0 0 1
-22.873264 -10.823615 -8.865694 26.813008 0.441978 1.907787 0.090828 -0.026161 -56003.200000 0 0 1
-22.091564 -11.418615 -9.875294 26.757119 0.477058 1.948806 0.076740 -0.021203 -572478.000000 0 0 1
-20.811264 -10.608015 -10.073194 25.438316 0.471397 1.977937 0.087463 -0.018800 -551991.000000 0 0 1
-21.010264 -9.366915 -10.628694 25.340470 0.419377 2.003620 0.081391 -0.020938 383355.000000 0 0 1
-19.994264 -8.540615 -10.105094 23.975521 0.403693 2.005868 0.083286 -0.018124 -33961.600000 0 1 0
-19.733764 -7.247615 -10.974794 23.714879 0.351976 2.051926 0.070575 -0.016162 28843.300000 0 1 0
-19.211364 -7.497915 -12.278494 24.001180 0.372104 2.107818 0.080514 -0.014104 415868.000000 0 1 0
-18.569464 -6.411715 -12.895694 23.499660 0.332466 2.151678 0.071895 -0.020391 -236356.000000 0 1 0
-17.923964 -6.805115 -14.175294 23.843595 0.362855 2.207454 0.064240 -0.013283 -698167.000000 0 1 0
-18.876964 -7.038115 -15.156594 25.211053 0.356877 2.215784 0.084048 -0.021877 -7862.610000 0 0 1
-18.394464 -6.909415 -16.491994 25.653113 0.359318 2.269055 0.085404 -0.023185 -236039.000000 0 0 1
-19.147864 -7.759115 -17.514094 27.084831 0.384999 2.273966 0.084228 -0.023729 803944.000000 0 0 1
-20.501264 -7.389615 -17.869494 28.182034 0.345951 2.257607 0.090076 -0.031420 1429180.000000 0 0 1
-20.863764 -8.087515 -19.024294 29.370535 0.369801 2.275403 0.100389 -0.030686 2415.980000 0 0 1
-22.292264 -7.754615 -19.532994 30.636856 0.334768 2.262130 0.087632 -0.031852 -234693.000000 0 0 1
-22.378664 -6.479815 -20.186394 30.826662 0.281845 2.284761 0.097819 -0.036310 556707.000000 0 0 1
-23.617164 -6.241415 -20.831594 32.104221 0.258368 2.276900 0.086394 -0.038134 1356870.000000 0 0 1
-24.928464 -5.909715 -19.995994 32.499120 0.232770 2.233535 0.097626 -0.035233 725989.000000 0 0 1
-25.075844 -4.642715 -19.469194 32.084300 0.183074 2.222842 0.097567 -0.029128 -8527.400000 0 0 1
-26.273664 -4.587415 -18.738994 32.596007 0.172859 2.183261 0.104256 -0.020033 -492462.000000 0 0 1
-26.544764 -3.211115 -18.181194 32.334062 0.120385 2.167952 0.090941 -0.013124 -123059.000000 0 0 1
-26.776804 -2.259315 -19.196094 33.024109 0.084176 2.191091 0.085241 -0.013348 -214656.000000 0 0 1
-28.133634 -2.119415 -19.498594 34.295604 0.075192 2.175532 0.079128 -0.006151 -582084.000000 0 0 1
-28.305464 -0.832815 -20.416094 34.910024 0.029414 2.195455 0.071392 -0.005153 -102208.000000 0 0 1
-27.698454 -0.872315 -21.713694 35.205821 0.031483 2.235422 0.069691 -0.005492 184846.000000 0 0 1
-28.226674 -1.772815 -22.656094 36.237917 0.062724 2.246189 0.060035 0.001955 -195150.000000 0 0 1
-27.458734 -1.703515 -24.011394 36.516176 0.061960 2.288365 0.056301 -0.003411 -334711.000000 0 0 1
-27.747314 -0.583515 -24.939694 37.312763 0.021026 2.302846 0.027434 0.000393 220350.000000 0 0 1
-27.416384 0.785585 -24.632094 36.864825 -0.028646 2.302547 0.057197 0.008299 -402200.000000 0 0 1
-25.998204 1.026785 -24.080594 35.451882 -0.039474 2.317533 0.066603 -0.001430 -343287.000000 0 0 1
-24.986764 0.878485 -25.067794 35.404864 -0.035144 2.357504 0.055227 -0.006941 -44218.300000 0 0 1
-23.689564 1.018785 -24.523594 34.112169 -0.042979 2.373030 0.060120 -0.007539 -214996.000000 0 0 1
-22.663064 0.384085 -25.455974 34.084727 -0.016946 2.414100 0.059067 -0.012254 -461507.000000 0 0 1
-22.467164 1.063285 -26.673614 34.891055 -0.047291 2.441035 0.036616 -0.008672 160042.000000 0 0 1
-21.577364 0.301985 -27.468324 34.931113 -0.013995 2.475686 0.028136 -0.011967 4090.440000 0 0 1
-21.338664 0.970685 -28.870244 35.913393 -0.045458 2.504595 0.023413 -0.004628 -656356.000000 0 0 1
-20.410164 1.995585 -28.946584 35.474806 -0.097464 2.525212 0.027267 -0.006955 -132495.000000 0 0 1
-20.467464 2.553885 -30.271364 36.630519 -0.124136 2.543476 0.012245 -0.002361 -89102.700000 0 0 1
-19.664164 1.800985 -31.359324 37.058469 -0.091332 2.579632 0.007178 -0.000859 -235609.000000 0 0 1
-18.286464 2.102485 -31.307994 36.318118 -0.114472 2.610095 0.003825 -0.001017 217681.000000 0 0 1
-17.600264 1.763785 -32.535304 37.032773 -0.099880 2.643623 -0.000289 -0.004119 1104240.000000 0 0 1
-16.035564 1.838785 -32.507424 36.293981 -0.114171 2.680731 0.016279 -0.015590 792082.000000 0 0 1
-15.473864 3.148385 -32.602904 36.225711 -0.200725 2.690551 0.015906 -0.012310 244287.000000 0 0 1
-14.104364 3.065485 -32.961294 35.983013 -0.214015 2.728849 0.023465 -0.011136 -60316.700000 0 0 1
-13.497564 4.423985 -33.297904 36.200916 -0.316728 2.738388 0.032590 -0.012486 -529562.000000 0 0 1
-13.252464 5.267785 -32.214684 35.230147 -0.378345 2.724836 0.035092 -0.025655 498546.000000 0 0 1
-12.761664 6.584285 -32.695174 35.709765 -0.476320 2.727746 0.038370 -0.015593 -57708.400000 0 0 1
-12.640164 7.482085 -31.387544 34.654484 -0.534464 2.703891 0.046429 -0.023110 -350460.000000 0 0 1
-11.472764 7.255385 -30.613134 33.487743 -0.563904 2.724226 0.075621 -0.035232 381846.000000 0 0 1
-11.652164 6.356285 -29.518544 32.365410 -0.499384 2.719027 0.061915 -0.036756 -308503.000000 0 0 1
-10.340964 5.576885 -29.378604 31.640790 -0.494591 2.761160 0.089438 -0.041811 -572258.000000 0 0 1
-9.881964 4.782385 -30.426674 32.346668 -0.450726 2.795317 0.070207 -0.048027 87270.100000 0 0 1
-10.529164 3.521985 -30.630564 32.580656 -0.322798 2.793854 0.075487 -0.044943 -344122.000000 0 0 1
-9.971664 2.644885 -31.771904 33.404841 -0.259270 2.827628 0.074244 -0.037822 -375881.000000 0 0 1
-10.583964 1.408085 -31.958454 33.694893 -0.132263 2.819155 0.076528 -0.030809 -58844.000000 0 0 1
-10.205264 0.707385 -33.126174 34.669745 -0.069205 2.842071 0.070905 -0.027035 -397926.000000 0 0 1
-10.676864 1.227585 33.959485 35.619503 -0.114474 0.306499 0.074319 -0.028137 393012.000000 0 0 1
-12.078464 1.217485 33.714514 35.833504 -0.100459 0.345620 0.039735 -0.014730 228801.000000 0 0 1
-12.276964 1.500085 32.376373 34.658385 -0.121584 0.364907 0.027175 -0.007010 -466375.000000 0 0 1
-13.667464 1.112285 31.869203 34.694133 -0.081203 0.406334 0.018702 0.001549 -855010.000000 0 0 1
-14.610464 2.099685 32.110853 35.340929 -0.142734 0.430871 0.012113 0.006337 -782115.000000 0 0 1
-15.830764 1.599285 31.625053 35.402186 -0.100682 0.466144 0.013943 0.008927 83462.500000 0 0 1
-16.903564 2.720285 31.372713 35.740419 -0.159562 0.499560 0.031261 0.006463 128908.000000 0 0 1
-17.418464 3.426785 32.469175 37.005312 -0.194252 0.500340 0.027844 -0.002844 108621.000000 0 0 1
-16.610464 4.483785 32.943833 37.165952 -0.263653 0.481291 0.025512 0.000226 -474528.000000 0 0 1
-17.089364 5.274485 34.227242 38.618269 -0.299366 0.481510 0.019699 -0.001596 -692135.000000 0 0 1
-18.296164 5.959285 34.103191 39.157252 -0.314876 0.513706 0.020835 -0.008566 -706765.000000 0 0 1
-19.221064 5.462785 -33.451754 38.965513 -0.276907 2.603127 0.014663 -0.003772 -887639.000000 0 0 1
-20.579464 6.125385 -33.579954 39.857847 -0.289295 2.572691 0.008537 -0.009827 -850104.000000 0 0 1
-20.644264 7.460485 -33.191804 39.793722 -0.346779 2.557289 0.006802 -0.013719 66713.100000 0 0 1
-20.367864 8.283485 34.193006 40.652524 -0.386264 0.571475 0.004858 -0.012122 -336843.000000 0 0 1
-20.178164 9.731585 -33.864874 40.604086 -0.449374 2.557162 0.005220 -0.004930 184398.000000 0 0 1
-18.988764 10.042485 -33.103934 39.462579 -0.486472 2.565998 0.004436 -0.000774 914303.000000 0 0 1
-18.839164 11.416185 -32.791304 39.503329 -0.544806 2.550065 0.002675 -0.000142 -201624.000000 0 0 1
-18.220964 12.182885 -33.944704 40.406301 -0.589353 2.568235 -0.001955 -0.013084 -323792.000000 0 0 1
-19.084464 12.237685 33.391326 40.360357 -0.570191 0.596459 0.017171 -0.018924 364993.000000 0 0 1
-18.411864 12.322685 32.181013 39.069975 -0.589809 0.602932 0.023249 -0.018628 -152617.000000 0 0 1
-19.150564 11.432585 31.087983 38.261087 -0.538199 0.622330 0.032749 -0.025869 236276.000000 0 0 1
-18.991264 10.032285 31.307433 37.966699 -0.485998 0.601297 0.047934 -0.025226 749259.000000 0 0 1
-17.732864 9.581485 30.794343 36.804224 -0.495384 0.579554 0.052190 -0.022435 475567.000000 0 0 1
-17.680264 7.997085 30.671203 36.294184 -0.424779 0.564096 0.053534 -0.021757 399825.000000 0 0 1
-18.491564 7.381385 29.627033 35.695712 -0.379796 0.591709 0.058390 -0.014680 631666.000000 0 0 1
-18.790664 6.051185 29.944283 35.865945 -0.311545 0.582855 0.055732 -0.009110 -301732.000000 0 0 1
-19.704464 5.333385 28.961233 35.432527 -0.264335 0.613978 0.062143 -0.009473 129579.000000 0 0 1
-21.021564 5.870485 28.881973 36.201342 -0.272323 0.647134 0.082738 -0.013147 567351.000000 0 0 1
-21.882564 4.919385 28.248513 36.069731 -0.221132 0.671058 0.076619 -0.012825 -740752.000000 0 0 1
-23.230564 5.380685 27.800733 36.626379 -0.227607 0.708965 0.067588 -0.008127 -1079690.000000 0 0 1
-23.361364 5.962085 26.536823 35.853909 -0.249877 0.737521 0.070527 -0.018881 -654813.000000 0 0 1
-24.623064 6.495985 26.359813 36.651506 -0.257940 0.768144 0.062366 -0.017005 -973390.000000 0 0 1
-24.941464 7.005185 24.928183 35.952240 -0.273811 0.804642 0.063828 -0.022899 -185096.000000 0 0 1
-25.008364 6.025985 23.873623 35.095308 -0.236451 0.822691 0.070927 -0.016191 -174326.000000 0 0 1
-26.089574 5.153885 23.921463 35.769607 -0.195035 0.838250 0.067912 -0.008467 -655274.000000 0 0 1
-26.260064 4.302985 22.641153 34.938925 -0.162417 0.865813 0.080226 -0.012647 -192316.000000 0 0 1
-26.916934 5.115485 21.707053 34.955482 -0.187807 0.900789 0.086857 -0.008908 -41469.300000 0 0 1
-27.262094 4.383985 20.527653 34.406768 -0.159444 0.931518 0.100374 -0.010864 17754.900000 0 0 1
-27.949704 5.325485 19.515753 34.502339 -0.188281 0.969592 0.099952 -0.011000 -628192.000000 0 0 1
-29.323364 5.402485 19.682953 35.727653 -0.182195 0.987334 0.100312 -0.011996 -919213.000000 0 0 1
-29.989134 5.760785 18.492753 35.700374 -0.189784 1.026287 0.098286 -0.007332 113621.000000 0 0 1
-31.530284 5.688485 18.613153 37.053571 -0.178493 1.044504 0.096827 -0.008762 203020.000000 0 0 1
-32.106934 6.619085 19.495053 38.140852 -0.203309 1.034294 0.082641 -0.006052 -178551.000000 0 0 1
-33.270084 6.141185 20.124353 39.364988 -0.182531 1.034187 0.085873 -0.005220 -80610.100000 0 0 1
-33.965724 7.250385 20.983553 40.577679 -0.210305 1.027313 0.078309 -0.017085 49794.100000 0 0 1
-33.464964 7.375485 22.260353 40.863492 -0.216926 0.994706 0.066850 -0.024431 27842.900000 0 0 1
-34.173352 8.407285 22.891753 41.982530 -0.241228 0.994087 0.069283 -0.022873 -204809.000000 0 0 1
-0.544264 31.991985 11.443906 33.981559 -1.553785 1.227314 0.038251 -0.008338 23086.200000 0 0 1
-0.983764 32.398185 12.755406 34.832608 -1.540441 1.195883 0.029267 -0.008927 45494.600000 0 0 1
-0.306664 33.581185 13.148706 36.064921 -1.561665 1.197610 0.022407 -0.014695 -199827.000000 0 0 1
-0.343564 33.800685 14.698806 36.859996 -1.560632 1.160617 0.015167 -0.005252 -549408.000000 0 0 1
-1.583364 34.061185 15.256206 37.355364 -1.524344 1.150088 0.012669 0.015204 -763294.000000 0 0 1
-1.348064 -34.150317 16.613706 38.001009 1.531342 1.118323 0.004986 0.002525 -100770.000000 0 0 1
-2.555064 -33.802017 17.485106 38.142282 1.495351 1.094582 0.007539 0.010000 -352340.000000 0 0 1
-3.338464 33.584185 17.958706 38.230328 -1.471716 1.081788 0.012152 0.011209 149059.000000 0 0 1
-4.159364 34.043285 19.008306 39.211749 -1.449220 1.064707 0.020383 0.007377 -267753.000000 0 0 1
-5.169664 33.003985 19.542406 38.702637 -1.415421 1.041487 0.011811 0.003550 391983.000000 0 0 1
-6.280764 32.878785 18.649306 38.317870 -1.382043 1.062488 0.010911 0.001373 -355446.000000 0 0 1
-7.308764 32.158185 19.236406 38.178610 -1.347317 1.042743 0.022160 -0.017375 -243649.000000 0 0 1
-8.488464 32.086685 18.207806 37.856751 -1.312173 1.069040 0.010031 -0.015995 -26462.800000 0 0 1
-9.133364 33.325185 17.947706 38.937212 -1.303297 1.091743 0.022373 -0.019132 -478.375000 0 0 1
-9.730364 33.231985 16.652806 38.423441 -1.285957 1.122532 0.028469 -0.006728 -877610.000000 0 0 1
-10.705164 -34.175617 16.314706 39.354072 1.267238 1.143335 0.064573 -0.017775 -618364.000000 0 0 1
-11.886564 34.122385 17.064806 39.960420 -1.235591 1.129577 0.067325 -0.014719 -610143.000000 0 0 1
-12.856764 -33.405317 16.813106 39.546076 1.203399 1.131666 0.058818 -0.019825 -322242.000000 0 0 1
-14.205264 -33.736917 17.479906 40.564963 1.172268 1.125294 0.094676 -0.018510 -18592.000000 0 0 1
-14.165464 -33.467417 18.892806 40.959328 1.170399 1.091384 0.089770 -0.017935 -1171490.000000 0 0 1
-15.423564 -33.460917 19.436606 41.656944 1.138880 1.085368 0.082598 -0.026595 -866249.000000 0 0 1
-15.487664 -33.265617 20.976806 42.266954 1.135065 1.051472 0.085518 -0.044908 -97462.100000 0 0 1
-15.248964 -31.958517 21.325306 41.335777 1.125596 1.028733 0.100502 -0.035604 -31105.500000 0 0 1
-15.408264 -31.766517 22.711706 41.980327 1.119182 0.999161 0.089678 -0.027388 168145.000000 0 0 1
-15.157864 -30.291317 23.008406 40.947668 1.106826 0.974118 0.091244 -0.035458 84826.400000 0 0 1
-15.203864 -29.899317 24.409206 41.484166 1.100370 0.941720 0.086381 -0.044249 -180505.000000 0 0 1
-14.921064 -28.507817 24.601906 40.504168 1.088602 0.918023 0.070510 -0.009475 418080.000000 0 0 1
-16.102364 -27.516317 24.275506 40.071612 1.041335 0.920021 0.076297 -0.008510 499598.000000 0 0 1
-17.181264 -27.652517 25.188606 41.162160 1.014842 0.912290 0.082390 -0.014247 -119839.000000 0 0 1
-18.170964 -26.776217 24.714006 40.717709 0.974562 0.918567 0.077295 -0.015494 -1130740.000000 0 0 1
-19.332864 -26.392317 25.593906 41.537478 0.938577 0.906933 0.083903 -0.014335 -53973.100000 0 0 1
-20.275164 -27.400817 25.964606 42.849129 0.933760 0.919832 0.090612 -0.013711 1108510.000000 0 0 1
-21.194464 -27.909417 24.974106 43.033090 0.921305 0.951642 0.070762 -0.014119 -1008020.000000 0 0 1
-22.511864 -27.263017 24.753006 43.159790 0.880563 0.960000 0.054302 -0.006874 -1288670.000000 0 0 1
-22.413464 -25.952117 24.210106 41.976243 0.858433 0.956043 0.067466 -0.013793 312775.000000 0 0 1
-23.676964 -25.671217 23.631706 42.167138 0.825788 0.975892 0.058713 -0.011958 146596.000000 0 0 1
-24.007864 -24.252917 23.096706 41.207273 0.790476 0.975806 0.064952 -0.003604 -1951.700000 0 0 1
-24.359664 -23.464817 24.241806 41.613172 0.766689 0.948932 0.056666 -0.002526 -197057.000000 0 0 1
-25.004564 -22.299817 23.898206 41.153789 0.728283 0.951202 0.049414 0.001884 -181334.000000 0 0 1
-25.595814 -21.526517 25.086806 41.807709 0.699256 0.927230 0.049465 0.000909 -76161.100000 0 0 1
-26.835034 -22.042317 25.502206 43.085326 0.687655 0.937382 0.034790 0.007306 -113414.000000 0 0 1
-27.162664 -21.428917 26.753106 43.734855 0.667943 0.912574 0.021501 -0.001477 -943255.000000 0 0 1
-28.272534 -22.124317 27.557806 45.257643 0.664002 0.916111 0.018186 0.004650 1325290.000000 0 0 1
-29.647324 -21.885117 27.135706 45.763181 0.635895 0.936067 0.021660 0.001974 1432720.000000 0 0 1
-30.038894 -22.348317 25.872506 45.510098 0.639637 0.966115 0.008752 0.005355 -924692.000000 0 0 1
-31.548454 -22.668217 25.962506 46.724777 0.623048 0.981655 0.015118 0.003990 93234.000000 0 0 1
-32.276654 -23.198317 24.885006 46.895713 0.623189 1.011434 0.010395 -0.000958 455564.000000 0 0 1
-31.794474 -24.543317 24.490606 47.043095 0.657393 1.023244 0.010048 -0.005111 -600699.000000 0 0 1
-32.198014 -25.082217 23.131506 46.913711 0.661804 1.055187 0.018033 -0.003616 -789836.000000 0 0 1
-33.534394 -25.419217 22.970106 47.940776 0.648604 1.071127 0.017995 0.002435 -800448.000000 0 0 1
-33.820034 -25.946817 21.694806 47.829872 0.654420 1.100015 0.020251 0.004725 992319.000000 0 0 1
-35.208584 -26.714817 21.608806 49.196203 0.649083 1.116047 0.027920 0.011416 818006.000000 0 0 1
-35.360488 -27.801817 22.553806 50.318777 0.666294 1.106025 0.030553 0.016911 -94985.600000 0 0 1
-34.488457 -28.918217 22.465406 50.303195 0.697774 1.107835 0.014294 0.016112 -236166.000000 0 0 1
-34.815068 -30.010717 21.393706 50.699337 0.711422 1.135177 0.031395 0.010287 -134076.000000 0 0 1
-34.772304 -29.628717 20.060706 49.893947 0.705699 1.157023 0.030145 0.001742 264147.000000 0 0 1
-35.169605 -30.707517 19.235206 50.495999 0.717768 1.179999 0.039144 0.002245 -186503.000000 0 0 1
-35.362015 -30.188417 17.808006 49.788932 0.706636 1.205025 0.051671 -0.002630 -194205.000000 0 0 1
-34.192142 -29.772617 17.118506 48.461888 0.716415 1.209768 0.068008 -0.011487 259635.000000 0 0 1
-34.448327 -29.309417 15.753706 47.894764 0.704971 1.235633 0.074834 -0.008865 -336536.000000 0 0 1
-35.023835 -30.245417 14.697006 48.553644 0.712318 1.263276 0.056285 -0.019362 83896.100000 0 0 1
-34.201240 -31.348017 14.207906 48.521002 0.741898 1.273622 0.068272 -0.022439 110009.000000 0 0 1
-34.734592 -32.173817 13.160206 49.140996 0.747144 1.299682 0.065969 -0.019204 -6984.130000 0 0 1
-35.054269 -31.484817 11.813706 48.576323 0.731805 1.325134 0.070307 -0.021841 -193486.000000 0 0 1
-36.091954 -30.575717 11.997206 48.799965 0.702844 1.322405 0.060622 -0.025065 -417564.000000 0 0 1
-36.055374 -29.517017 11.013006 47.880378 0.686015 1.338708 0.049756 -0.002858 49468.600000 0 0 1
35.200723 -28.921617 10.722706 46.803069 -0.687786 1.339641 0.076887 0.004016 72417.300000 0 0 1
35.310053 -27.821317 9.898406 46.030468 -0.667328 1.354063 0.083691 -0.029852 608115.000000 0 0 1
34.044373 -27.201717 9.672606 44.637563 -0.674136 1.352372 0.075228 -0.024155 350774.000000 0 0 1
34.148673 -26.055317 8.593106 43.804713 -0.651767 1.373347 0.062409 -0.019233 396763.000000 0 0 1
34.880363 -24.881517 8.985906 43.777575 -0.619622 1.364064 0.072281 -0.027115 279398.000000 0 0 1
34.890063 -24.087317 7.806806 43.109878 -0.604239 1.388701 0.073076 -0.025646 -246263.000000 0 0 1
35.486583 -22.672617 7.950906 42.855128 -0.568537 1.384185 0.080588 -0.031088 -105072.000000 0 0 1
34.662853 -21.692217 8.603506 41.786193 -0.559179 1.363420 0.077232 -0.035698 -78360.100000 0 0 1
35.147643 -20.350417 8.372206 41.467941 -0.524834 1.367503 0.084333 -0.029821 -297304.000000 0 0 1
34.305593 -19.274417 8.983806 40.361933 -0.511892 1.346335 0.096286 -0.027505 -381511.000000 0 0 1
34.500503 -19.263517 10.420406 40.865054 -0.509235 1.312953 0.092013 -0.044364 51558.300000 0 0 1
33.711073 -18.328117 11.122306 39.950745 -0.497980 1.288668 0.076798 -0.027716 206537.000000 0 0 1
34.222663 -18.340117 12.614106 40.824823 -0.491958 1.256675 0.071968 -0.040893 -70247.100000 0 0 1
35.493213 -17.815017 12.845506 41.739071 -0.465188 1.257961 0.036686 -0.030332 -340604.000000 0 0 1
35.878223 -17.930017 14.176606 42.540669 -0.463445 1.231050 0.045778 -0.022534 148002.000000 0 0 1
-35.460118 -17.141317 14.474806 41.961468 0.450277 1.218606 0.072239 -0.028183 -520074.000000 0 0 1
-34.347465 -17.727217 13.908006 41.078404 0.476456 1.225397 0.082883 -0.032438 -957058.000000 0 0 1
-33.231784 -17.139717 14.542606 40.119930 0.476178 1.199871 0.081376 -0.025643 -79802.400000 0 0 1
-31.926364 -17.200317 13.706106 38.768557 0.494165 1.209447 0.089491 -0.025296 224276.000000 0 0 1
-31.343404 -18.505017 13.512106 38.825529 0.533328 1.215337 0.075579 -0.026350 1827200.000000 0 0 1
-30.010034 -18.375417 12.908906 37.481969 0.549421 1.219193 0.044981 -0.017620 1558900.000000 0 0 1
-29.250274 -19.673117 12.609906 37.438213 0.592085 1.227260 0.041803 -0.015008 -107559.000000 0 0 1
-29.910534 -20.491717 11.710706 38.101065 0.600656 1.258380 0.060266 -0.012918 -779531.000000 0 0 1
-28.980274 -21.371617 11.206206 37.711820 0.635423 1.269086 0.057185 -0.013017 -972973.000000 0 0 1
-29.483984 -22.171717 9.973406 38.214646 0.644775 1.306755 0.076640 -0.014872 545911.000000 0 0 1
-30.317394 -23.321917 10.230506 39.594437 0.655713 1.309449 0.080727 -0.023990 -385245.000000 0 0 1
-31.652314 -22.934217 10.339106 40.431973 0.627024 1.312208 0.099507 -0.030964 -572637.000000 0 0 1
-32.622104 -24.152217 10.636706 41.960348 0.637305 1.314506 0.114490 -0.026411 406870.000000 0 0 1
-32.827594 -24.952017 9.440206 42.300965 0.649929 1.345733 0.106937 -0.016060 -67628.000000 0 0 1
-33.482914 -26.166217 9.806806 43.611351 0.663346 1.343989 0.105606 -0.008017 239702.000000 0 0 1
-33.683294 -27.222817 8.636106 44.161391 0.679721 1.373970 0.090132 -0.004361 -417480.000000 0 0 1
-32.480474 -27.523317 8.011606 43.320896 0.702971 1.384789 0.082705 -0.007462 -676646.000000 0 0 1
-32.650234 -28.295517 6.802006 43.737185 0.714067 1.414643 0.063287 0.000091 431336.000000 0 0 1
-31.294874 -28.566217 6.072006 42.804990 0.739847 1.428463 0.053738 0.006471 571213.000000 0 0 1
-30.818304 -27.457717 5.324306 41.617813 0.727795 1.442511 0.051990 0.011536 27613.100000 0 0 1
-29.610554 -27.829917 4.678206 40.904460 0.754408 1.456176 0.049774 0.005326 232048.000000 0 0 1
-28.931484 -26.649217 3.893006 39.526789 0.744359 1.472146 0.046461 0.004168 36536.800000 0 0 1
-29.586374 -26.170017 2.746806 39.595054 0.724202 1.501368 0.055332 0.000728 -297027.000000 0 0 1
-28.840724 -25.157517 2.073206 38.327356 0.717294 1.516678 0.063886 -0.012183 218855.000000 0 0 1
-29.436114 -24.632217 0.688706 38.388869 0.696782 1.552855 0.067430 -0.007688 -32255.100000 0 0 1
-29.143714 -25.505117 -0.374094 38.729924 0.718915 1.580456 0.057015 -0.008169 -80439.500000 0 0 1
-29.178874 -24.922817 -1.671594 38.410256 0.706892 1.614330 0.063437 -0.011971 382702.000000 0 0 1
-30.613304 -24.661417 -2.222394 39.373836 0.678133 1.627270 0.071119 -0.005381 517064.000000 0 0 1
-31.238754 -23.485317 -1.704294 39.119362 0.644653 1.614377 0.054636 -0.002969 -791108.000000 0 0 1
-32.569534 -23.433017 -2.082994 40.177353 0.623678 1.622665 0.055319 -0.004963 -683123.000000 0 0 1
-33.334724 -22.155617 -1.651494 40.059988 0.586599 1.612034 0.057872 -0.010213 -124555.000000 0 0 1
-33.551704 -22.047117 -0.251394 40.147920 0.581356 1.577058 0.061228 -0.019256 285951.000000 0 0 1
-34.051281 -20.734717 0.014206 39.867511 0.546957 1.570440 0.057701 -0.018584 -228778.000000 0 0 1
-34.312363 -20.445617 1.503306 39.970257 0.537375 1.533177 0.055303 -0.015815 -779217.000000 0 0 1
-35.337196 -21.159417 2.069406 41.239797 0.539526 1.520595 0.053261 -0.015605 -509669.000000 0 0 1
-35.379996 -21.075617 3.502606 41.330304 0.537247 1.485948 0.063627 -0.016472 -1385620.000000 0 0 1
36.253773 -22.038517 4.165106 42.630745 -0.546205 1.472938 0.080935 -0.014793 562102.000000 0 0 1
34.924053 -21.912117 3.691706 41.393949 -0.560339 1.481493 0.073694 -0.010373 98045.300000 0 0 1
34.284253 -20.690617 3.940406 40.237277 -0.542991 1.472710 0.079270 -0.023191 -1392290.000000 0 0 1
33.086693 -20.368417 3.030606 38.971608 -0.551817 1.492953 0.074116 -0.016046 67902.200000 0 0 1
31.952153 -21.138317 3.351006 38.457740 -0.584460 1.483551 0.075083 -0.008798 83523.400000 0 0 1
30.782153 -20.706317 2.648206 37.192815 -0.592149 1.499534 0.077492 -0.013718 357352.000000 0 0 1
29.527993 -21.505617 2.965406 36.649523 -0.629476 1.489795 0.060707 0.001757 -356610.000000 0 0 1
29.596363 -22.708417 2.307006 37.375650 -0.654463 1.509032 0.041036 -0.001437 567176.000000 0 0 1
28.453193 -23.482017 2.728906 36.992381 -0.689970 1.496960 0.040425 0.001450 697391.000000 0 0 1
28.000413 -24.625317 1.830506 37.333365 -0.721352 1.521745 0.029215 0.000993 -77789.200000 0 0 1
27.313783 -24.138517 0.697706 36.458161 -0.723764 1.551658 0.020893 -0.000078 -40542.300000 0 0 1
27.106783 -25.209117 -0.154494 37.017579 -0.749141 1.574970 0.024723 -0.007852 306732.000000 0 0 1
26.245483 -24.922817 -1.455194 36.222780 -0.759555 1.610981 0.026902 -0.012675 579517.000000 0 0 1
27.002583 -24.262917 -2.494294 36.387500 -0.732008 1.639398 0.020742 -0.023536 554753.000000 0 0 1
27.747233 -25.142517 -3.326294 37.591479 -0.736190 1.659398 0.027806 -0.029635 -465572.000000 0 0 1
26.858783 -25.922317 -4.339294 37.579119 -0.767658 1.686525 0.033573 -0.032801 31760.000000 0 0 1
26.249083 -25.140117 -5.318494 36.733176 -0.763822 1.716094 0.039067 -0.041260 1046800.000000 0 0 1
25.086183 -24.375817 -4.918694 35.322664 -0.771037 1.710501 0.033787 -0.035733 22977.200000 0 0 1
24.591183 -23.276117 -5.843594 34.360610 -0.757932 1.741694 0.047179 -0.041576 -47840.300000 0 0 1
23.913483 -23.705417 -7.023694 34.396711 -0.781029 1.776439 0.055441 -0.038753 1526930.000000 0 0 1
22.752883 -22.861117 -7.387394 33.089242 -0.787771 1.795951 0.048085 -0.035728 1142510.000000 0 0 1
22.925783 -21.622917 -8.268894 32.580925 -0.756161 1.827399 0.046506 -0.037870 -725058.000000 0 0 1
23.326783 -21.797317 -9.589194 33.334884 -0.751516 1.862582 0.040175 -0.039866 136217.000000 0 0 1
23.086983 -20.663217 -10.341994 32.663958 -0.730055 1.892958 0.037827 -0.039687 -397801.000000 0 0 1
23.740083 -20.682217 -11.739094 33.602857 -0.716670 1.927672 0.030864 -0.030840 767403.000000 0 0 1
25.135983 -20.355417 -11.624294 34.369825 -0.680695 1.915813 0.057752 -0.035224 626321.000000 0 0 1
25.631383 -19.753917 -12.807094 34.802395 -0.656613 1.947648 0.057455 -0.039522 -400384.000000 0 0 1
27.146583 -19.534917 -12.701494 35.775381 -0.623765 1.933747 0.045824 -0.037713 86661.200000 0 0 1
27.936163 -20.728917 -12.925194 37.110347 -0.638368 1.926543 0.032959 -0.037320 561624.000000 0 0 1
28.357093 -21.439317 -11.829394 37.466033 -0.647360 1.892029 0.051336 -0.043983 -409153.000000 0 0 1
28.442873 -22.933017 -12.064194 38.476812 -0.678561 1.889720 0.040515 -0.029852 -211410.000000 0 0 1
29.287413 -23.307217 -13.122994 39.663483 -0.672181 1.908009 0.047516 -0.046530 180736.000000 0 0 1
29.350193 -24.752117 -13.225194 40.607966 -0.700613 1.902527 0.031458 -0.037125 -347728.000000 0 0 1
-3.774464 -8.652715 -27.515024 29.089390 1.159463 2.811087 0.022098 -0.002292 50680.100000 0 0 1
-3.617164 -7.354215 -27.113264 28.324855 1.113691 2.848051 0.014403 0.003457 -171591.000000 0 0 1
-4.563564 -6.500315 -27.696744 28.813015 0.958694 2.862327 0.011596 0.003011 -170594.000000 0 0 1
-4.780764 -5.163815 -26.938874 27.842838 0.823898 2.886078 0.010878 -0.004777 -6023.810000 0 0 1
-5.528664 -5.227115 -25.755004 26.855336 0.757369 2.854345 0.015206 0.001541 89412.400000 0 0 1
-5.215864 -4.114715 -24.951594 25.820886 0.667926 2.881374 0.020274 -0.008522 170451.000000 0 0 1
-5.741764 -4.286515 -23.528594 24.595463 0.641289 2.845978 0.020785 -0.009146 -117817.000000 0 1 0
-4.929464 -5.133515 -22.756194 23.843174 0.805673 2.838477 0.010548 -0.011158 589416.000000 0 1 0
-5.516364 -5.205115 -21.455994 22.757047 0.756376 2.801814 0.025207 -0.009620 362812.000000 0 1 0
-4.698964 -6.236915 -20.607494 22.037427 0.925115 2.779375 0.020554 -0.016348 -175616.000000 0 1 0
-5.024864 -7.600315 -20.921994 22.819813 0.986630 2.730875 0.006669 -0.007100 136220.000000 0 1 0
-4.187064 -8.455115 -20.221894 22.314692 1.110987 2.705039 0.005106 -0.014313 -1205490.000000 0 1 0
-4.782664 -9.892215 -20.159194 22.959157 1.120454 2.642560 0.000145 -0.012171 -88028.400000 0 1 0
-5.935864 -10.049415 -19.363794 22.609328 1.037267 2.599152 -0.001135 -0.009692 675181.000000 0 1 0
-7.148564 -9.493615 -19.904394 23.182226 0.925387 2.603340 0.005258 -0.004218 54323.300000 0 1 0
-8.299964 -9.413515 -18.853694 22.648740 0.848180 2.554291 0.015624 -0.000674 -184755.000000 0 1 0
-8.897164 -10.654715 -18.696694 23.286237 0.875049 2.502953 0.015476 -0.005295 -122966.000000 0 1 0
-9.747264 -10.684615 -17.559694 22.748912 0.831243 2.452607 0.022821 0.001559 -222632.000000 0 1 0
-10.470464 -12.011215 -17.550294 23.704698 0.853825 2.404420 0.019495 0.004769 -197415.000000 0 1 0
-11.481364 -12.153315 -18.547894 24.970966 0.813821 2.408007 0.028423 -0.003372 441577.000000 0 1 0
-11.030164 -12.794015 -19.748594 25.987657 0.859299 2.433990 0.045802 -0.006447 -207422.000000 0 0 1
-12.127064 -12.694915 -20.897494 27.293439 0.808271 2.442863 0.053799 -0.018885 1700110.000000 0 0 1
-13.315764 -13.503415 -20.770994 28.126251 0.792395 2.401627 0.047984 -0.006600 940277.000000 0 0 1
-14.132764 -13.308615 -19.595594 27.583356 0.755374 2.360882 0.039686 0.000939 -976543.000000 0 0 1
-15.429864 -14.108415 -19.744894 28.757415 0.740691 2.327601 0.038460 0.002504 -451114.000000 0 0 1
-15.325064 -15.465615 -19.914594 29.506506 0.789963 2.311656 0.043575 0.002515 -537623.000000 0 0 1
-16.161364 -16.004615 -20.894294 30.885416 0.780525 2.313810 0.048182 0.001771 -172725.000000 0 0 1
-15.763264 -17.399515 -21.436794 31.792448 0.834698 2.310776 0.028376 0.006729 -60538.000000 0 0 1
-15.898064 -18.488115 -20.519594 31.868677 0.860579 2.270355 0.027830 0.010185 214949.000000 0 0 1
-15.423464 -19.775515 -20.983394 32.699496 0.908415 2.267514 0.015253 0.009502 -341903.000000 0 0 1
-16.087764 -20.953715 -20.292094 33.311310 0.916015 2.225804 0.023177 0.001768 -456435.000000 0 0 1
-15.727564 -22.211115 -20.733994 34.213863 0.954659 2.221833 0.024028 0.000893 -81752.900000 0 0 1
-16.553564 -23.235015 -20.195994 34.953749 0.951770 2.186817 0.045625 -0.003850 52005.300000 0 0 1
-16.152464 -24.649115 -20.529594 35.915807 0.990707 2.179255 0.054545 -0.014434 -281898.000000 0 0 1
-16.184964 -25.028415 -21.878494 36.973546 0.996770 2.204004 0.042758 -0.009344 -87081.400000 0 0 1
-15.512564 -26.235745 -21.983994 37.579914 1.036816 2.195668 0.050266 -0.010533 -313812.000000 0 0 1
-15.554164 -26.913135 -23.409494 38.913407 1.046756 2.216273 0.052085 -0.009612 1394470.000000 0 0 1
-16.864564 -27.380125 -23.888494 40.059267 1.018737 2.209716 0.063818 -0.012611 1342550.000000 0 0 1
-17.144264 -28.733265 -23.679794 40.990962 1.032829 2.186684 0.065882 -0.010835 92600.900000 0 0 1
-18.184964 -29.415005 -24.630394 42.456940 1.017087 2.189680 0.077570 -0.019858 123712.000000 0 0 1
-17.860664 -29.459055 -26.072804 43.204517 1.025766 2.218647 0.061870 -0.004901 91193.200000 0 0 1
-17.726564 -28.177465 -26.707584 42.678983 1.009251 2.246925 0.078071 -0.013268 8049.850000 0 0 1
-16.589764 -28.077855 -27.743544 42.816941 1.037133 2.275696 0.082984 -0.007656 -12364.300000 0 0 1
-17.006164 -28.544015 -29.030824 44.122093 1.033480 2.288910 0.066263 -0.000036 1060500.000000 0 0 1
-15.905864 -28.207995 -29.921884 44.090890 1.057361 2.316707 0.043500 0.004676 871995.000000 0 0 1
-16.065664 -28.465185 -31.437224 45.350539 1.056967 2.336723 0.043541 -0.001152 -52947.200000 0 0 1
-16.071964 -29.807965 -31.809404 46.461392 1.076295 2.324908 0.036181 -0.002350 -118684.000000 0 0 1
-16.758764 -29.871465 -33.011074 47.569860 1.059525 2.337756 0.032131 -0.007075 -140338.000000 0 0 1
-16.759564 -31.252925 -33.676314 48.905239 1.078566 2.330358 0.031745 -0.012888 526996.000000 0 0 1
-15.459564 -31.514655 -34.220663 49.022702 1.114736 2.343477 0.041051 -0.010184 443836.000000 0 0 1
-15.444364 -32.635445 33.389482 49.177821 1.128786 0.824459 0.034605 -0.012713 33841.500000 0 0 1
-14.004564 -32.923045 32.896661 48.602932 1.168610 0.827328 0.026950 -0.011819 200680.000000 0 0 1
-13.263364 -33.729115 33.787672 49.549741 1.196138 0.820447 0.035085 -0.007727 -402849.000000 0 0 1
-12.196264 34.128595 33.116149 49.093678 -1.227578 0.830441 0.042700 -0.009577 -429263.000000 0 0 1
-11.398364 33.278920 34.094763 48.988388 -1.240810 0.801018 0.041680 -0.008731 -116396.000000 0 0 1
-10.672864 34.045824 -33.451444 48.908356 -1.267014 2.323976 0.045075 -0.001523 -108359.000000 0 0 1
-9.837364 33.305063 -32.589304 47.624193 -1.283591 2.324442 0.051164 -0.007595 -225299.000000 0 0 1
-9.040264 34.103822 -31.589744 47.357249 -1.311675 2.301041 0.038844 -0.002316 -552080.000000 0 0 1
-9.801364 -33.626945 -30.695614 46.573156 1.287180 2.290396 0.043735 -0.001677 -477879.000000 0 0 1
-9.013664 -32.693975 -30.005474 45.282122 1.301781 2.295127 0.045748 -0.005089 -228398.000000 0 0 1
-9.868064 -31.816615 -29.043984 44.195347 1.270050 2.287858 0.048498 0.000476 198416.000000 0 0 1
-9.995164 -32.259155 -27.706704 43.683152 1.270337 2.257854 0.067005 -0.012580 -323765.000000 0 0 1
-10.687764 -33.451625 -27.504944 44.606742 1.261548 2.235225 0.071825 -0.014561 -531452.000000 0 0 1
-10.862664 -33.806295 -25.996794 44.007912 1.259896 2.202760 0.068330 -0.022920 -184656.000000 0 0 1
-9.677764 -33.976055 -25.283244 43.442765 1.293304 2.191970 0.082908 -0.035574 -917683.000000 0 0 1
-9.944164 -34.068952 -23.887094 42.780523 1.286802 2.163208 0.070731 -0.043543 96273.900000 0 0 1
-8.763664 -34.131366 -22.886194 42.018208 1.319463 2.146796 0.100693 -0.042048 -264722.000000 0 0 1
-8.151864 33.068887 -22.879594 41.030233 -1.329104 2.162321 0.084829 -0.040661 -607054.000000 0 0 1
-7.198364 33.041567 -21.866594 40.270455 -1.356290 2.144794 0.101544 -0.038058 -323737.000000 0 0 1
-6.354864 31.738888 -21.762794 39.004622 -1.373186 2.162715 0.103507 -0.038670 145354.000000 0 0 1
-5.363864 31.591868 -22.759194 39.303920 -1.402614 2.188367 0.084179 -0.040752 229052.000000 0 0 1
-4.695264 30.331038 -22.651394 38.145813 -1.417215 2.206583 0.067289 -0.027775 1009270.000000 0 0 1
-3.214064 30.166778 -23.161994 38.168609 -1.464654 2.222867 0.068637 -0.036171 931682.000000 0 0 1
-3.116464 30.399578 -24.533194 39.188319 -1.468637 2.247252 0.083755 -0.036506 291810.000000 0 0 1
-2.271664 31.543648 -24.762394 40.166384 -1.498904 2.235080 0.066821 -0.040752 302373.000000 0 0 1
-2.117864 31.862778 -26.307544 41.374012 -1.504426 2.259902 0.078348 -0.028784 -295230.000000 0 0 1
-1.156264 32.752660 -26.782954 42.324937 -1.535508 2.255952 0.081423 -0.033689 -664728.000000 0 0 1
-1.421964 34.158123 -26.524954 43.270920 -1.529191 2.230645 0.063567 -0.029957 -275226.000000 0 0 1
-0.354664 -33.361795 -27.055664 42.955140 1.560166 2.252167 0.040188 -0.016480 173367.000000 0 0 1
0.800536 -33.266365 -26.208654 42.357826 -1.546737 2.237939 0.044975 -0.022468 270902.000000 0 0 1
1.681036 -32.348825 -26.824744 42.057570 -1.518877 2.262448 0.039956 -0.012856 457393.000000 0 0 1
2.829136 -31.692735 -25.992154 41.085588 -1.481765 2.255746 0.024761 -0.011741 241566.000000 0 0 1
2.415936 -30.858945 -24.871794 39.707900 -1.492666 2.247683 0.026465 -0.013034 211416.000000 0 0 1
3.470736 -30.017205 -24.440494 38.864075 -1.455683 2.250897 0.009039 -0.004179 -539496.000000 0 0 1
3.262736 -29.499375 -23.000294 37.548263 -1.460640 2.230083 0.022393 0.004154 -35033.600000 0 0 1
3.570036 -30.561695 -22.098894 37.883023 -1.454509 2.193638 0.029224 0.000857 358106.000000 0 0 1
3.497236 -30.133925 -20.735594 36.745733 -1.455257 2.170381 0.045543 -0.002703 -223326.000000 0 0 1
3.520336 -31.289915 -19.773594 37.181266 -1.458760 2.131540 0.051545 -0.003238 -973148.000000 0 0 1
2.234736 -31.832225 -19.615194 37.457181 -1.500708 2.121949 0.061764 -0.004471 -171155.000000 0 0 1
2.103036 -33.262625 -19.529394 38.629292 -1.507655 2.100826 0.049069 0.007423 -476295.000000 0 0 1
2.725336 -34.075713 -18.366794 38.806195 -1.490987 2.063824 0.041519 -0.011235 1332540.000000 0 0 1
4.085936 33.992311 -18.679294 39.001130 1.451169 2.070246 0.053913 0.003397 1146080.000000 0 0 1
4.653336 33.083903 -17.702994 37.809975 1.431060 2.058060 0.057772 -0.018816 393119.000000 0 0 1
5.935036 32.385198 -18.213394 37.626499 1.389544 2.076082 0.056715 -0.012165 185355.000000 0 0 1
7.050436 33.250351 -18.355894 38.629436 1.361850 2.065964 0.084814 -0.013935 -189271.000000 0 0 1
8.024636 32.510077 -19.085394 38.542861 1.328798 2.088831 0.058078 -0.028781 1020580.000000 0 0 1
9.419836 33.246387 -19.256294 39.558317 1.294699 2.079199 0.031047 -0.026878 858723.000000 0 0 1
10.151336 33.240521 -18.059294 39.167844 1.274402 2.050002 0.024694 -0.019484 -88673.100000 0 0 1
11.339636 34.008124 -18.216494 40.211696 1.248951 2.040940 0.023795 -0.005378 852265.000000 0 0 1
12.308536 34.173951 -16.998194 40.103586 1.225088 2.008496 -0.001983 0.002886 342753.000000 0 0 1
12.985336 33.015840 -16.573694 39.158039 1.196074 2.007827 -0.000609 0.000719 173678.000000 0 0 1
14.022436 33.283424 -15.633994 39.355264 1.172060 1.979318 -0.009840 -0.000325 175200.000000 0 0 1
14.963836 32.113678 -15.351894 38.611985 1.134746 1.979690 0.013551 0.003438 -105715.000000 0 0 1
14.406236 31.006768 -14.668194 37.203699 1.135855 1.976067 0.023221 -0.007818 -562255.000000 0 0 1
15.235436 29.905618 -14.768394 36.668378 1.099617 1.985322 0.026132 -0.003320 -172809.000000 0 0 1
14.674336 28.671338 -13.967194 35.106471 1.097744 1.979971 0.020728 -0.011998 -67951.000000 0 0 1
14.599536 28.942628 -12.550494 34.761143 1.103611 1.940189 0.026512 -0.018979 -287959.000000 0 0 1
13.349836 28.816908 -11.914294 33.920241 1.136967 1.929696 0.058581 -0.019901 -173286.000000 0 0 1
12.848736 27.422448 -11.658394 32.449944 1.132625 1.938285 0.050095 -0.023491 -881964.000000 0 0 1
12.256536 26.815288 -12.767994 32.129488 1.142076 1.979469 0.018458 -0.018658 237000.000000 0 0 1
11.591636 25.545858 -12.593694 30.749927 1.144822 1.992759 0.030135 -0.018280 1142810.000000 0 0 1
10.527536 25.387838 -11.411794 29.759039 1.177709 1.964350 0.025941 -0.018448 -42442.500000 0 0 1
9.492136 26.337568 -11.423394 30.236767 1.224884 1.958213 0.022240 -0.014008 50837.800000 0 0 1
9.038136 26.572538 -10.083594 29.823926 1.242941 1.915698 0.005989 -0.001493 565727.000000 0 0 1
8.057636 27.831048 -10.023294 30.658754 1.288982 1.903851 0.016903 -0.001277 795534.000000 0 0 1
8.726336 29.096358 -10.209294 32.046477 1.279421 1.895025 0.024643 -0.014519 303898.000000 0 0 1
7.792036 30.164438 -10.313194 32.817238 1.318004 1.890475 0.012020 -0.003545 365839.000000 0 0 1
8.480836 31.482388 -10.763394 34.335346 1.307659 1.889650 0.037245 -0.011389 -347633.000000 0 0 1
9.356236 32.118788 -9.837894 34.870329 1.287339 1.856808 0.028819 -0.009637 -277294.000000 0 0 1
9.763536 33.369485 -10.270094 36.253606 1.286153 1.858014 0.037096 -0.011030 -295661.000000 0 0 1
10.751336 33.343683 -11.461694 36.861400 1.258882 1.886979 0.029882 -0.015557 -1060700.000000 0 0 1
11.966236 32.818795 -11.023694 36.630397 1.221161 1.876479 0.036249 -0.009696 -962782.000000 0 0 1
13.006236 32.910857 -11.958394 37.353579 1.194438 1.896674 0.037922 -0.008213 58360.300000 0 0 1
14.405236 32.922292 -11.314094 37.674884 1.158342 1.875813 0.042747 -0.012640 15286.400000 0 0 1
14.551536 33.961284 -10.373894 38.376213 1.165987 1.844523 0.039086 -0.013863 216553.000000 0 0 1
15.905136 -34.077956 -10.435594 39.027965 -1.134119 1.841477 0.057982 -0.021397 518715.000000 0 0 1
16.308536 -33.128015 -9.292694 38.076080 -1.113337 1.817342 0.054244 -0.025175 -144558.000000 0 0 1
16.415836 -33.791305 -8.071394 38.424983 -1.118573 1.782428 0.053787 -0.023045 -100849.000000 0 0 1
17.078736 -33.028985 -7.114594 37.857819 -1.093576 1.759850 0.053716 -0.023076 -1206500.000000 0 0 1
17.548836 -33.835035 -5.879194 38.565997 -1.092333 1.723838 0.061417 -0.021428 -900122.000000 0 0 1
18.494936 33.715579 -6.215594 38.954288 1.069061 1.731042 0.053849 -0.024171 -1056190.000000 0 0 1
19.805636 -34.235421 -6.175794 40.030834 -1.046326 1.725691 0.062654 -0.025490 -833746.000000 0 0 1
20.739236 33.277689 -6.970394 39.825958 1.013480 1.746724 0.048384 -0.018013 27188.300000 0 0 1
20.984536 31.986328 -6.540694 38.810522 0.990182 1.740133 0.047704 -0.006618 330284.000000 0 0 1
21.893536 31.965128 -5.402494 39.118835 0.970263 1.709344 0.048517 -0.007481 132066.000000 0 0 1
22.199636 30.558128 -4.839394 38.079427 0.942524 1.698228 0.038678 -0.005942 20149.700000 0 0 1
23.082536 29.786578 -5.652394 38.105029 0.911530 1.719683 0.043178 -0.000335 54363.800000 0 0 1
23.315036 28.572448 -5.059994 37.223369 0.886377 1.707154 0.047932 0.001511 -282969.000000 0 0 1
24.315036 27.786908 -5.939394 37.397990 0.851936 1.730288 0.038708 0.010654 -592016.000000 0 0 1
25.522336 28.519018 -5.965794 38.733896 0.840793 1.725432 0.053515 0.010533 193835.000000 0 0 1
26.554036 27.819798 -6.695894 39.037072 0.808673 1.743175 0.037771 0.008002 621943.000000 0 0 1
27.335836 26.675378 -5.996394 38.662391 0.773171 1.726521 0.035719 0.010500 -965558.000000 0 0 1
28.427936 27.151978 -5.273594 39.663437 0.762445 1.704150 0.030706 0.007779 -306334.000000 0 0 1
29.055036 26.054068 -4.626394 39.299022 0.730997 1.688793 0.025483 0.005935 -110604.000000 0 0 1
30.322336 26.334568 -3.814394 40.342324 0.715130 1.665488 0.031194 0.003286 -75923.900000 0 0 1
30.066436 27.273768 -2.753094 40.686958 0.736733 1.638513 0.046059 -0.008909 803130.000000 0 0 1
31.322736 27.584588 -2.128794 41.791806 0.722025 1.621756 0.065026 -0.024646 646900.000000 0 0 1
31.107336 28.657378 -1.045294 42.308443 0.744428 1.595505 0.068452 -0.016458 80493.000000 0 0 1
31.013136 29.903368 -1.680794 43.114395 0.767182 1.609791 0.042330 -0.004638 -66208.900000 0 0 1
30.342336 30.828918 -0.861794 43.264561 0.793352 1.590717 0.054380 -0.010199 -41748.000000 0 0 1
33.370783 23.108385 19.354953 44.969110 0.605657 1.125854 0.117339 -0.019534 217252.000000 0 0 1
33.340493 23.075685 20.749653 45.548038 0.605419 1.097800 0.088234 -0.014333 -37139.800000 0 0 1
34.390403 23.758685 21.393653 46.955972 0.604560 1.097738 0.084001 -0.009986 -16558.800000 0 0 1
34.285093 23.656085 22.947753 47.557095 0.603971 1.067255 0.061124 0.003533 -450260.000000 0 0 1
33.080893 24.145385 23.436253 47.186895 0.630505 1.051040 0.040404 0.010870 -386589.000000 0 0 1
33.100823 24.416385 24.825473 48.042985 0.635542 1.027764 0.029911 0.018705 -30172.500000 0 0 1
31.814703 25.146085 25.273673 47.783464 0.668855 1.013468 0.035528 0.007477 112646.000000 0 0 1
31.872933 26.535685 25.153783 48.505043 0.694273 1.025606 0.032727 -0.004757 153858.000000 0 0 1
30.631263 27.043185 25.588233 48.211677 0.723266 1.011314 0.028230 -0.008738 63446.600000 0 0 1
30.496333 28.591285 25.618593 49.028565 0.753168 1.020988 0.027487 -0.011720 -226517.000000 0 0 1
30.383993 29.185685 24.380503 48.676485 0.765285 1.046195 0.042619 -0.024250 110037.000000 0 0 1
29.908643 30.514785 24.384983 49.196610 0.795429 1.052197 0.044146 -0.025416 -233355.000000 0 0 1
30.228333 31.294585 23.057753 49.241884 0.802727 1.083482 0.049615 -0.022504 712610.000000 0 0 1
31.649593 31.302085 22.905153 50.061595 0.779878 1.095570 0.032596 -0.021007 194996.000000 0 0 1
32.009603 32.096085 21.789253 50.294581 0.786747 1.122720 0.030895 -0.015244 1264990.000000 0 0 1
33.567563 32.346785 21.655353 51.400877 0.766880 1.135915 0.025818 -0.030453 1238710.000000 0 0 1
33.975863 33.302485 22.633753 52.684927 0.775390 1.126740 0.034802 -0.008426 -201905.000000 0 0 1
35.348283 33.572185 22.458053 53.674546 0.759634 1.139101 0.032250 -0.005276 72419.000000 0 0 1
35.808073 -33.669117 23.202253 54.352296 -0.754621 1.129750 0.035351 0.006796 -129638.000000 0 0 1
34.986343 -32.597817 22.824853 52.987128 -0.750071 1.125459 0.023214 0.012297 155630.000000 0 0 1
35.211553 -31.484817 23.699553 52.847100 -0.729580 1.105760 0.031009 0.012888 -684552.000000 0 0 1
34.368413 -30.220717 23.319253 51.364064 -0.721270 1.099547 0.022585 0.011181 -317363.000000 0 0 1
33.016493 -30.378717 23.626363 50.706610 -0.743814 1.086097 0.024329 0.009088 -445944.000000 0 0 1
32.202383 -30.897817 22.596753 50.022813 -0.764727 1.102094 0.027881 0.010601 -160329.000000 0 0 1
31.523843 -32.293817 22.879953 50.597782 -0.797463 1.101574 0.022237 0.006037 428798.000000 0 0 1
30.546023 -32.274417 23.925443 50.469043 -0.812904 1.076898 0.043514 0.000772 247441.000000 0 0 1
29.911543 -33.528317 24.049313 50.962907 -0.842348 1.079354 0.041464 -0.005353 437165.000000 0 0 1
28.934263 -33.668517 25.280173 51.086669 -0.860878 1.053136 0.037709 -0.002600 518157.000000 0 0 1
28.421873 33.480585 25.359443 50.713448 0.866938 1.047136 0.049206 -0.016114 -251467.000000 0 0 1
27.511483 33.368385 26.399643 50.668254 0.881307 1.022740 0.038962 -0.011664 -655221.000000 0 0 1
27.165783 31.883085 26.617433 49.628607 0.865117 1.004711 0.038507 -0.008678 209644.000000 0 0 1
26.515383 31.112585 25.623063 48.245205 0.865003 1.010897 0.054382 -0.013912 606064.000000 0 0 1
25.118883 31.386485 25.484613 47.597639 0.895867 1.005794 0.048046 -0.001177 159361.000000 0 0 1
24.530183 31.266785 24.112393 46.483860 0.905551 1.025436 0.090015 -0.030744 -528061.000000 0 0 1
24.845483 32.254985 23.106353 46.814374 0.914440 1.054602 0.108946 -0.034632 -166591.000000 0 0 1
26.187983 32.479285 22.756953 47.524660 0.892227 1.071458 0.082794 -0.029588 -317443.000000 0 0 1
26.369083 33.076585 21.293053 47.358031 0.897757 1.104458 0.087093 -0.031171 900425.000000 0 0 1
27.764753 33.295285 21.017353 48.178695 0.875727 1.119383 0.087859 -0.030194 899034.000000 0 0 1
27.863033 33.981885 19.833653 48.212975 0.884016 1.146833 0.071571 -0.028626 792727.000000 0 0 1
29.351733 -34.216017 19.398053 49.076924 -0.861771 1.164447 0.078753 -0.033746 786350.000000 0 0 1
30.062013 33.155285 18.917053 48.588604 0.834290 1.170891 0.092262 -0.038962 -453229.000000 0 0 1
31.091023 33.619885 18.089553 49.235966 0.824458 1.194579 0.077303 -0.027846 -280541.000000 0 0 1
32.006223 32.482085 17.540653 48.858558 0.792777 1.203591 0.057218 -0.034753 -309222.000000 0 0 1
33.018043 32.032185 18.398753 49.545597 0.770244 1.190334 0.046968 -0.026398 -146638.000000 0 0 1
33.801503 31.061585 17.718753 49.206889 0.743182 1.202435 0.066826 -0.038400 221225.000000 0 0 1
34.811083 30.304885 18.615053 49.766633 0.716306 1.187428 0.065931 -0.043448 292981.000000 0 0 1
35.888443 31.113485 19.055353 51.177493 0.714252 1.189269 0.076716 -0.034404 277754.000000 0 0 1
-35.800404 30.362185 19.801953 50.947508 -0.703388 1.171605 0.073360 -0.032090 552576.000000 0 0 1
-34.751371 31.352985 20.380153 51.049174 -0.734034 1.160124 0.068630 -0.023324 43208.200000 0 0 1
-33.847884 31.896085 19.438153 50.407156 -0.755719 1.174913 0.066202 -0.024912 482038.000000 0 0 1
-32.645994 32.515685 19.914053 50.195620 -0.783398 1.162846 0.055928 -0.006366 797678.000000 0 0 1
-32.728794 33.771685 20.781453 51.415654 -0.801079 1.154708 0.048131 0.001987 -420397.000000 0 0 1
-33.003994 33.462685 22.097953 51.935869 -0.792299 1.131298 0.061422 0.006376 47892.300000 0 0 1
-32.801804 -33.884717 22.898153 52.425737 0.801636 1.118788 0.062270 0.010019 -106126.000000 0 0 1
-32.877214 -34.138917 24.401153 53.308472 0.804223 1.095350 0.059611 0.000210 -1015880.000000 0 0 1
-34.112051 -34.131217 24.992683 54.343410 0.785679 1.092911 0.059806 0.005027 -1343510.000000 0 0 1
-34.072575 33.705485 26.238293 54.639255 -0.779982 1.069903 0.073156 -0.003221 2005050.000000 0 0 1
-35.540101 33.555885 26.905103 55.794093 -0.756689 1.067608 0.056921 -0.013643 2024310.000000 0 0 1
-35.603183 32.868685 28.123783 56.025747 -0.745483 1.044910 0.077407 -0.023442 301441.000000 0 0 1
35.715543 32.821185 28.653653 56.337040 0.743192 1.037225 0.077032 -0.024116 465365.000000 0 0 1
35.615223 31.716385 29.744343 56.205864 0.727558 1.013135 0.074873 -0.022577 -244133.000000 0 0 1
35.676273 30.383185 29.304403 55.269182 0.705443 1.011945 0.064361 -0.022918 113625.000000 0 0 1
-35.810442 29.898985 28.655033 54.748955 -0.695676 1.019972 0.063873 -0.017491 -48866.200000 0 0 1
-36.053594 28.411585 28.401083 53.978712 -0.667404 1.016725 0.072751 -0.020784 590923.000000 0 0 1
35.457373 28.217785 27.530483 53.022601 0.672189 1.024856 0.057711 -0.009903 819690.000000 0 0 1
35.180213 26.868785 27.147193 51.928307 0.652241 1.020685 0.064698 -0.010795 9110.180000 0 0 1
34.886323 25.769685 28.142493 51.702341 0.636214 0.995221 0.056683 -0.014421 626102.000000 0 0 1
36.054653 25.178185 28.776113 52.554198 0.609607 0.991361 0.050991 -0.012172 735508.000000 0 0 1
35.705083 24.085585 29.609803 52.265752 0.593454 0.968515 0.055861 -0.005299 -38200.700000 0 0 1
35.770103 22.807785 28.785293 51.266835 0.567624 0.974623 0.029405 0.019080 -425415.000000 0 0 1
34.930703 22.706585 27.665283 50.011108 0.576408 0.984616 0.041495 0.005918 -252060.000000 0 0 1
35.466653 22.016185 26.554813 49.474781 0.555543 1.004234 0.042491 0.001503 -715579.000000 0 0 1
35.150993 20.498985 26.680133 48.658300 0.527952 0.990447 0.036512 0.003118 -231480.000000 0 0 1
33.798403 20.150285 26.451033 47.413323 0.537614 0.978965 0.033780 0.015909 304266.000000 0 0 1
33.359783 18.969885 27.152303 47.010416 0.517045 0.955035 0.038139 0.016219 -179725.000000 0 0 1
33.222863 19.070385 28.722933 47.879485 0.521093 0.927419 0.030775 0.000855 47386.200000 0 0 1
32.059813 19.730285 29.194173 47.638383 0.551681 0.911161 0.034313 0.002172 347174.000000 0 0 1
32.306693 21.132585 29.113013 48.351588 0.579269 0.924654 0.028809 -0.002552 -255759.000000 0 0 1
31.349223 22.093385 29.896243 48.627942 0.613907 0.908670 0.037618 -0.007473 945765.000000 0 0 1
29.969413 22.049085 29.488953 47.475533 0.634299 0.900600 0.037642 -0.014153 793253.000000 0 0 1
29.522523 22.762385 28.323233 46.817850 0.656817 0.921072 0.030401 -0.005663 -178407.000000 0 0 1
29.394213 24.357185 28.604733 47.702442 0.691961 0.927734 0.032839 -0.002257 45051.800000 0 0 1
30.614423 25.108185 28.595353 48.840128 0.686903 0.945313 0.034908 -0.002943 223606.000000 0 0 1
30.658583 26.222085 29.456633 49.952374 0.707559 0.940116 0.035370 -0.009018 8264.110000 0 0 1
31.071893 25.944785 30.932223 50.945037 0.695716 0.918304 0.040678 -0.017214 1408780.000000 0 0 1
32.434203 25.426785 31.065913 51.609978 0.664877 0.924873 0.032525 -0.009548 1374510.000000 0 0 1
32.881253 25.454885 32.424826 52.730421 0.658776 0.908516 0.050171 -0.009335 274665.000000 0 0 1
32.501533 24.103585 33.233520 52.362194 0.638112 0.883195 0.055499 -0.009084 43912.400000 0 0 1
32.927003 24.011585 -33.919294 53.021338 0.630080 2.264942 0.061977 -0.023731 11428.000000 0 0 1
32.276293 22.922585 -33.331784 51.751443 0.617538 2.270609 0.047067 -0.024026 -30095.600000 0 0 1
32.750843 22.581185 -31.882124 50.980363 0.603633 2.246415 0.056104 -0.027436 51688.100000 0 0 1
32.271533 23.522085 -30.881954 50.482031 0.629847 2.229057 0.048162 -0.027465 335694.000000 0 0 1
32.633023 23.146785 -29.551954 49.739379 0.616944 2.206987 0.076821 -0.037221 201290.000000 0 0 1
33.937133 23.806885 -29.021494 50.603793 0.611732 2.181574 0.072994 -0.013617 310023.000000 0 0 1
34.386533 23.151385 -27.881954 49.958219 0.592560 2.162897 0.075522 -0.019513 -387225.000000 0 0 1
35.551013 23.767485 -27.367114 50.771319 0.589303 2.140078 0.084122 -0.015233 267894.000000 0 0 1
-36.243124 22.905985 -26.394064 50.347739 -0.563624 2.122613 0.078050 -0.017081 -107774.000000 0 0 1
-35.620948 21.860585 -27.099674 49.810937 -0.550432 2.146054 0.070638 -0.012201 -120401.000000 0 0 1
-35.466312 20.635485 -26.310444 48.743431 -0.526955 2.140965 0.044854 -0.005358 -461588.000000 0 0 1
-34.307200 19.786985 -26.854754 47.850670 -0.523155 2.166655 0.054557 0.004069 -4578.190000 0 0 1
-33.051094 20.297385 -26.428254 46.934117 -0.550738 2.168920 0.062128 -0.006777 -88573.300000 0 0 1
-32.111004 19.222585 -26.428424 45.815783 -0.539411 2.185652 0.019416 -0.001103 -717130.000000 0 0 1
-30.849374 19.436885 -25.674114 44.594131 -0.562228 2.184291 0.005251 -0.008286 -1059920.000000 0 0 1
-31.088534 19.906085 -24.367594 44.232667 -0.569528 2.154234 0.003077 0.000857 -342856.000000 0 0 1
-29.931984 19.977985 -23.568194 43.017477 -0.588542 2.150618 0.000016 -0.003191 -84714.600000 0 0 1
-30.174094 20.202285 -22.062894 42.489759 -0.589978 2.116772 -0.011069 -0.000310 -161886.000000 0 0 1
-30.805544 19.151685 -21.413394 42.122465 -0.556220 2.104076 -0.013496 0.007224 -236609.000000 0 0 1
-31.099284 19.527985 -20.101794 41.863944 -0.560699 2.071644 -0.006892 0.008640 -1095650.000000 0 0 1
-32.000374 18.491885 -19.428994 41.754755 -0.523984 2.054784 -0.005963 0.007306 -78481.900000 0 0 1
-32.835414 18.947085 -18.412694 42.144795 -0.523360 2.022936 -0.000366 -0.003106 10584.500000 0 0 1
-33.865294 19.847485 -18.749494 43.500855 -0.530115 2.016413 0.003735 -0.006980 -141797.000000 0 0 1
-35.055905 20.037285 -17.725294 44.097566 -0.519261 1.984449 0.024625 -0.019069 552333.000000 0 0 1
-34.681483 20.746385 -16.620694 43.697429 -0.539093 1.960980 0.021820 -0.026184 -339435.000000 0 0 1
-35.491323 20.391385 -15.565594 43.791898 -0.521493 1.934186 0.029749 -0.016057 -1017740.000000 0 0 1
-35.366997 21.416485 -14.372294 43.772745 -0.544490 1.905341 0.015283 -0.009215 34104.800000 0 0 1
-35.843907 22.772385 -14.585494 44.901045 -0.565987 1.901635 0.020363 -0.014629 606836.000000 0 0 1
35.404873 22.957285 -14.687894 44.679707 0.575265 1.905763 0.037597 -0.006475 250318.000000 0 0 1
34.895343 24.363585 -15.024494 45.133188 0.609510 1.910166 0.030808 -0.010474 -145055.000000 0 0 1
35.288473 25.269285 -14.047894 45.619693 0.621435 1.883818 0.018276 -0.004914 -66608.900000 0 0 1
35.293663 26.662085 -14.282994 46.481322 0.646971 1.883135 0.007392 0.004759 235999.000000 0 0 1
-36.121434 27.197985 -15.083094 47.665377 -0.645393 1.892768 0.032109 0.004062 349674.000000 0 0 1
-35.998082 26.795185 -16.443394 47.793609 -0.639876 1.922023 0.038356 -0.002408 -153518.000000 0 0 1
-35.006752 27.635485 -16.965394 47.718103 -0.668264 1.934281 0.055559 -0.006857 -1212310.000000 0 0 1
-34.611715 27.250785 -18.388694 47.735943 -0.666966 1.966239 0.043018 -0.008615 -143272.000000 0 0 1
-33.871924 26.029885 -18.503594 46.553681 -0.655224 1.979552 0.042378 -0.010914 8611.080000 0 0 1
-32.497994 26.284585 -18.287494 45.622708 -0.680088 1.983232 0.026787 -0.002407 -683845.000000 0 0 1
-31.715404 25.045885 -18.710994 44.533858 -0.668433 2.004409 0.021358 -0.007283 -667660.000000 0 0 1
-31.646274 24.946085 -20.112294 45.036632 -0.667553 2.033732 0.022534 -0.002675 52824.300000 0 0 1
-30.915914 23.803185 -20.506094 44.078172 -0.656137 2.054681 0.009561 0.003421 -64586.100000 0 0 1
-30.781374 23.637685 -22.030494 44.627075 -0.654873 2.087087 0.014720 -0.001264 -683268.000000 0 0 1
-32.001994 23.420885 -22.660794 45.674688 -0.631788 2.089937 0.045622 -0.006409 -598647.000000 0 0 1
-31.851214 23.226785 -24.072294 46.189379 -0.630074 2.119012 0.046898 -0.009502 -1168630.000000 0 0 1
-32.864744 23.769785 -24.982394 47.636269 -0.626167 2.122854 0.027038 -0.001820 -1278810.000000 0 0 1
-32.832844 25.145085 -25.043394 48.347105 -0.653569 2.115298 0.011485 0.003534 -345018.000000 0 0 1
-33.700364 25.805785 -25.921594 49.735120 -0.653500 2.119045 0.021824 0.000235 -338537.000000 0 0 1
-33.283754 27.255185 -26.299194 50.421236 -0.686144 2.119509 -0.000267 0.014629 210522.000000 0 0 1
-32.098884 27.316985 -27.064274 50.090229 -0.705089 2.141602 -0.007917 0.007607 -416534.000000 0 0 1
-31.671004 28.622685 -27.391544 50.720877 -0.734883 2.141287 -0.000492 0.001835 -366299.000000 0 0 1
-30.321914 28.735885 -28.067414 50.328415 -0.758549 2.162391 0.010844 -0.000245 -457237.000000 0 0 1
-29.240234 28.400085 -27.228964 49.020125 -0.770823 2.159718 -0.004264 0.005102 33592.400000 0 0 1
-27.956884 28.520785 -27.818314 48.671153 -0.795382 2.179198 0.040472 0.001868 614996.000000 0 0 1
-27.115114 29.790385 -27.584404 48.822083 -0.832376 2.171228 0.045217 -0.008619 -73073.700000 0 0 1
-26.579204 30.053685 -26.285494 47.964626 -0.846672 2.150790 0.046742 -0.005128 545056.000000 0 0 1
-27.588474 30.456085 -25.335924 48.276351 -0.834762 2.123289 0.027360 0.002125 480351.000000 0 0 1
-27.015264 30.892685 -23.981194 47.531886 -0.852257 2.099632 0.006548 0.004475 235989.000000 0 0 1
-26.407454 32.184885 -24.084794 48.096755 -0.883684 2.095270 0.013162 0.005859 558190.000000 0 0 1
-25.368904 32.406685 -23.106394 47.198305 -0.906613 2.082381 0.040895 0.009933 388313.000000 0 0 1
-24.826664 33.835085 -23.213994 47.959001 -0.937773 2.076060 0.029545 0.020836 -472647.000000 0 0 1
-25.530654 -33.588317 -22.627194 47.874620 0.920859 2.063074 0.008899 0.002480 -221875.000000 0 0 1
-24.877564 -32.320317 -22.724194 46.689240 0.914794 2.079118 0.027163 0.003911 69018.600000 0 0 1
16.882536 8.787385 -25.608384 31.906543 0.479914 2.502448 0.043282 -0.014722 833696.000000 0 0 1
15.593636 8.149685 -25.373564 30.877121 0.481586 2.535288 0.032873 -0.018125 1274650.000000 0 0 1
15.778136 6.748585 -25.470204 30.711956 0.404170 2.548696 0.026918 -0.023000 -333330.000000 0 0 1
14.485636 6.005585 -25.239954 29.714575 0.393020 2.585669 0.047606 -0.023399 -555727.000000 0 0 1
13.809436 5.998185 -24.016294 28.345390 0.409767 2.581627 0.073469 -0.027561 268881.000000 0 0 1
12.614836 5.241985 -24.076294 27.681771 0.393832 2.625497 0.065565 -0.025022 -41626.800000 0 0 1
11.633636 5.451785 -22.921794 26.276836 0.438232 2.630723 0.065015 -0.036078 -261374.000000 0 0 1
12.084036 4.831585 -21.718894 25.319528 0.380362 2.601755 0.076431 -0.029018 11201.200000 0 0 1
11.392636 5.244685 -20.585894 24.105558 0.431434 2.594402 0.084690 -0.026581 -600354.000000 0 1 0
11.745436 6.577785 -19.985494 24.096525 0.510510 2.548817 0.070423 -0.033032 -181531.000000 0 1 0
11.097336 6.811685 -18.703194 22.789458 0.550514 2.533423 0.055165 -0.021050 104514.000000 0 1 0
11.251036 8.088285 -18.082294 22.781034 0.623293 2.487735 0.046828 -0.026563 461628.000000 0 1 0
12.716036 8.333785 -17.597794 23.255793 0.580145 2.429056 0.031944 -0.030929 439149.000000 0 1 0
13.182236 7.629085 -16.473894 22.435763 0.524640 2.395386 0.046012 -0.030013 78230.800000 0 1 0
14.557736 7.791785 -16.259494 23.173492 0.491435 2.348496 0.037052 -0.028660 -545790.000000 0 1 0
14.889236 7.467685 -14.789294 22.275073 0.464886 2.296871 0.040260 -0.033967 -669590.000000 0 1 0
16.267936 7.614785 -14.567694 23.126790 0.437792 2.252228 0.029312 -0.036596 207284.000000 0 1 0
16.571336 7.620485 -13.207894 22.519534 0.431023 2.197537 0.009654 -0.038614 -128363.000000 0 1 0
17.311036 8.897485 -12.757894 23.272324 0.474767 2.151007 0.052306 -0.039801 -27023.700000 0 1 0
16.399736 9.999585 -12.758394 23.059047 0.547551 2.157108 0.058222 -0.038135 817606.000000 0 1 0
17.056136 11.227385 -12.513094 23.948768 0.582161 2.120570 0.090744 -0.045278 311707.000000 0 1 0
15.971936 12.347985 -12.634394 23.816032 0.658125 2.129986 0.093066 -0.032564 623430.000000 0 1 0
14.861236 12.342485 -11.737994 22.604729 0.693073 2.116795 0.079862 -0.025095 536460.000000 0 1 0
14.973236 13.183185 -10.570694 22.577284 0.721908 2.058049 0.056463 -0.026272 -194515.000000 0 1 0
14.861736 14.734785 -10.810994 23.555523 0.781109 2.047618 0.071419 -0.015828 -401835.000000 0 1 0
13.582036 15.141585 -10.411194 22.850214 0.839640 2.043874 0.081877 -0.021325 -58199.500000 0 1 0
13.420736 16.512785 -10.566294 23.757837 0.888330 2.031691 0.079495 -0.018407 -87230.600000 0 1 0
12.160536 17.017185 -9.862594 23.124316 0.950337 2.011419 0.069668 -0.016795 -225547.000000 0 1 0
12.386636 16.806885 -8.454194 22.524954 0.935669 1.955544 0.062132 -0.018054 423498.000000 0 1 0
11.362836 17.318285 -7.623294 22.071512 0.990132 1.923451 0.049668 -0.009813 -14775.100000 0 1 0
11.753336 17.165085 -6.129894 21.687708 0.970397 1.857345 0.042683 -0.008929 625665.000000 0 1 0
12.865136 17.929585 -5.663094 22.782721 0.948397 1.822000 0.056876 -0.014347 543876.000000 0 1 0
13.318636 17.499885 -4.399294 22.427346 0.920248 1.768234 0.067578 -0.022614 -219529.000000 0 1 0
14.465836 18.360885 -3.855194 23.690611 0.903501 1.734254 0.076732 -0.026089 140887.000000 0 1 0
15.699836 18.349885 -4.566394 24.577532 0.863070 1.757678 0.091147 -0.032904 398563.000000 0 1 0
16.278636 19.618985 -4.518794 25.890502 0.878183 1.746230 0.079683 -0.024523 -57806.600000 0 0 1
17.661136 19.680485 -5.248194 26.958872 0.839423 1.766722 0.065855 -0.020757 122513.000000 0 0 1
18.693036 19.023385 -4.571794 27.059565 0.794157 1.740564 0.071726 -0.037072 -210918.000000 0 0 1
19.008136 17.862085 -5.273994 26.611620 0.754325 1.770301 0.081459 -0.040323 435408.000000 0 0 1
20.228336 17.042585 -4.704794 26.865784 0.700130 1.746826 0.084404 -0.042302 749175.000000 0 0 1
21.536636 17.491385 -4.980794 28.188358 0.682117 1.748426 0.076360 -0.041841 353498.000000 0 0 1
22.502636 16.669385 -4.354394 28.340744 0.637571 1.725052 0.079015 -0.046462 83321.800000 0 0 1
23.957436 16.761685 -4.858594 29.639817 0.610487 1.735461 0.068579 -0.040849 321909.000000 0 0 1
24.561936 18.022985 -4.498594 30.795357 0.633037 1.717401 0.070191 -0.039905 436523.000000 0 0 1
25.924936 17.886485 -4.143094 31.767812 0.603938 1.701587 0.056076 -0.026917 823.084000 0 0 1
26.619036 19.046885 -3.441594 32.912026 0.621077 1.675557 0.069726 -0.021867 -214936.000000 0 0 1
26.696736 20.196485 -4.235294 33.742428 0.647658 1.696647 0.074549 -0.027816 250444.000000 0 0 1
26.852436 21.287785 -3.392594 34.434471 0.670316 1.669480 0.078435 0.001950 -315114.000000 0 0 1
26.812136 22.579185 -4.210394 35.304924 0.699905 1.690339 0.058920 -0.001454 93729.700000 0 0 1
27.936036 22.998085 -4.979694 36.525763 0.688752 1.707556 0.051960 0.005335 347961.000000 0 0 1
28.180036 22.291785 -6.180394 36.458681 0.669259 1.741137 0.060546 -0.003944 -364526.000000 0 0 1
29.320636 22.980885 -6.926194 37.891859 0.664771 1.754618 0.048360 -0.004020 -296060.000000 0 0 1
28.877036 23.963485 -7.874494 38.342398 0.692676 1.777641 0.033794 -0.001690 193272.000000 0 0 1
29.887836 24.764985 -8.457894 39.725599 0.691937 1.785346 0.019608 0.000410 -960677.000000 0 0 1
30.729936 24.176685 -9.582594 40.257511 0.666607 1.811136 0.024092 -0.007295 -424948.000000 0 0 1
30.090436 23.872485 -10.807694 39.901581 0.670678 1.845081 0.033638 -0.006276 -244222.000000 0 0 1
31.082536 23.400585 -11.696694 40.626642 0.645325 1.862837 0.029596 -0.011511 149946.000000 0 0 1
30.506536 22.619985 -12.888694 40.105248 0.638026 1.897974 0.040484 -0.014219 -25125.400000 0 0 1
30.241636 23.305985 -14.057494 40.685853 0.656592 1.923582 0.047578 -0.011974 70959.900000 0 0 1
30.141636 22.428185 -15.155194 40.511993 0.639710 1.954213 0.057608 -0.012081 -51467.300000 0 0 1
30.273636 23.247885 -16.504194 41.585402 0.654875 1.978906 0.055068 -0.010786 -207218.000000 0 0 1
31.540936 23.800385 -16.785594 42.930702 0.646430 1.972506 0.055584 -0.009055 -80531.800000 0 0 1
31.513736 24.650785 -17.917694 43.838573 0.663807 1.991847 0.055532 -0.016379 -327804.000000 0 0 1
32.892936 25.176885 -18.297494 45.283762 0.653297 1.986751 0.047265 -0.020140 -113625.000000 0 0 1
33.852036 24.162685 -18.634494 45.574555 0.619910 1.992022 0.063605 -0.015297 -450928.000000 0 0 1
35.108736 24.774485 -18.688694 46.857931 0.614508 1.981045 0.066413 -0.017154 4153.080000 0 0 1
36.286936 23.741385 -18.715194 47.229795 0.579370 1.978234 0.050662 -0.025773 321303.000000 0 0 1
-36.309611 23.103585 -19.980094 47.448579 -0.566680 2.005442 0.054805 -0.019181 -300661.000000 0 0 1
-34.989111 22.997985 -20.438594 46.592718 -0.581483 2.024909 0.076046 -0.014430 -193357.000000 0 0 1
-34.793211 22.240785 -21.755594 46.674682 -0.568765 2.055687 0.089057 -0.026282 -204724.000000 0 0 1
-34.949611 20.820785 -21.596694 46.058632 -0.537279 2.058836 0.058040 -0.022546 95932.100000 0 0 1
-34.679411 20.161585 -22.810894 46.146375 -0.526609 2.087844 0.047365 -0.011379 -4506.610000 0 0 1
-34.306011 18.686685 -22.656394 45.159792 -0.498770 2.096352 0.030032 -0.002852 -283159.000000 0 0 1
-35.326511 17.848785 -22.185094 45.373119 -0.467840 2.081680 0.042934 -0.012570 -38094.100000 0 0 1
-35.041611 16.487585 -22.531694 44.804377 -0.439782 2.097736 0.018591 -0.008746 -491357.000000 0 0 1
-36.245111 15.556085 -22.417594 45.367923 -0.405415 2.087629 0.017658 -0.005171 -476986.000000 0 0 1
35.370736 15.900785 -23.310494 45.247133 0.422477 2.112016 0.085982 -0.009405 139930.000000 0 0 1
34.242236 15.051585 -23.234494 44.033199 0.414140 2.126638 0.106720 -0.008881 -124402.000000 0 0 1
34.385436 13.630585 -23.913994 44.045773 0.377404 2.144725 0.060865 -0.010788 -627864.000000 0 0 1
34.323636 13.691985 -25.338904 44.806724 0.379565 2.171855 0.069632 -0.004664 347489.000000 0 0 1
34.609136 12.419285 -25.902634 44.977521 0.344532 2.184503 0.054460 -0.003524 -106287.000000 0 0 1
34.815636 12.386385 -27.411134 46.010013 0.341807 2.209014 0.074935 -0.000334 515488.000000 0 0 1
33.581636 12.351485 -28.153894 45.529410 0.352448 2.237460 0.068843 0.000186 1073140.000000 0 0 1
33.176836 13.705985 -28.554974 45.868759 0.391765 2.242776 0.072776 -0.004266 -42822.800000 0 0 1
33.585236 14.014485 -30.041644 47.189768 0.395315 2.260895 0.059597 -0.014061 480540.000000 0 0 1
34.990536 14.256585 -30.223584 48.384428 0.386905 2.245486 0.065603 -0.003468 742173.000000 0 0 1
35.281936 13.984985 -31.595814 49.383097 0.377380 2.265048 0.060462 -0.012583 121678.000000 0 0 1
-35.846111 13.833885 -31.851684 49.908415 -0.368314 2.262958 0.069202 -0.014977 356352.000000 0 0 1
-35.078911 12.746385 -31.315874 48.720471 -0.348530 2.268900 0.061982 -0.009515 470909.000000 0 0 1
-34.956811 12.586085 -29.946604 47.719883 -0.345597 2.249199 0.046117 -0.001306 -805734.000000 0 0 1
-33.926011 11.523185 -29.559854 46.449360 -0.327430 2.260604 0.037133 -0.002474 -157739.000000 0 0 1
-34.318711 10.220585 -29.996614 46.712216 -0.289450 2.268106 0.040617 -0.003823 89048.300000 0 0 1
-33.257411 9.324085 -29.848814 45.650254 -0.273344 2.283469 0.034191 -0.001484 -188486.000000 0 0 1
-33.631311 7.949285 -30.407884 46.031464 -0.232106 2.292400 0.032958 -0.001522 -486577.000000 0 0 1
-33.762211 7.944785 -31.840314 47.083034 -0.231111 2.313468 0.034924 -0.007218 162743.000000 0 0 1
-34.103211 6.770785 -32.496964 47.591230 -0.195989 2.322433 0.041163 -0.010211 447079.000000 0 0 1
-35.465911 6.082985 -32.144604 48.250483 -0.169864 2.299902 0.051601 -0.001042 207825.000000 0 0 1
-35.294711 5.371385 -30.909804 47.222711 -0.151028 2.284389 0.054121 -0.000449 -377675.000000 0 0 1
36.180036 4.881085 -30.382904 47.496746 0.134101 2.264883 0.050672 0.007572 -861846.000000 0 0 1
-36.303811 4.187685 -29.072114 46.697872 -0.114844 2.242803 0.053497 0.001534 -762291.000000 0 0 1
-35.426211 3.142485 -29.001054 45.890661 -0.088474 2.254876 0.051572 0.002457 -255673.000000 0 0 1
-35.660911 2.181785 -27.967614 45.372329 -0.061105 2.234962 0.055323 0.012772 -131169.000000 0 0 1
-34.521811 1.137185 -27.980574 44.451785 -0.032929 2.251653 0.071082 -0.001468 -280758.000000 0 0 1
-33.438711 1.438185 -27.155654 43.100410 -0.042983 2.252421 0.071629 -0.002925 -580459.000000 0 0 1
-32.564411 0.369085 -27.061154 42.342451 -0.011334 2.264127 0.060883 -0.011447 7004.910000 0 0 1
-31.483211 0.497585 -25.941254 40.796922 -0.015803 2.259923 0.044887 -0.004823 86103.400000 0 0 1
-32.058511 0.451385 -24.700794 40.473215 -0.014079 2.227235 0.053336 -0.004910 12924.000000 0 0 1
-31.060311 0.508985 -23.710594 39.079333 -0.016386 2.222736 0.056861 0.001933 -337733.000000 0 0 1
-31.554011 0.319785 -22.245094 38.608316 -0.010134 2.184836 0.050153 0.011049 -674517.000000 0 0 1
-31.872511 -1.030315 -21.947894 38.712124 0.032315 2.173597 0.059005 -0.001640 312811.000000 0 0 1
-32.481811 -1.119615 -20.679394 38.522187 0.034455 2.137457 0.060539 -0.004835 715169.000000 0 0 1
-34.020411 -0.810215 -20.595794 39.777274 0.023811 2.115048 0.064214 -0.006657 367399.000000 0 0 1
-34.838411 -1.824115 -21.154894 40.799164 0.052312 2.115907 0.065559 -0.006659 886287.000000 0 0 1
-36.222511 -1.690815 -20.796494 41.802193 0.046645 2.091508 0.070319 -0.006553 751115.000000 0 0 1
35.742236 -3.052415 -20.614394 41.373638 -0.085194 2.092375 0.058747 -0.011454 82838.900000 0 0 1
35.135136 -3.698315 -21.771094 41.498624 -0.104874 2.123067 0.057200 -0.009899 669969.000000 0 0 1
36.131936 -4.334015 -22.559494 42.816250 -0.119379 2.125735 0.063708 -0.011847 127931.000000 0 0 1
35.532236 -5.328315 -23.564594 42.967672 -0.148848 2.151277 0.051943 -0.006026 -838153.000000 0 0 1
35.097536 -6.564415 -23.021094 42.484107 -0.184897 2.143463 0.053338 -0.001875 396940.000000 0 0 1
34.439636 -7.377415 -23.996394 42.618560 -0.211024 2.168868 0.060518 -0.001405 1349200.000000 0 0 1
32.933636 -6.986715 -24.310794 41.526537 -0.209046 2.196204 0.039039 0.005725 509755.000000 0 0 1
32.864536 -5.857415 -25.154274 41.798619 -0.176377 2.216545 0.049486 -0.002381 -138366.000000 0 0 1
31.535736 -5.498715 -25.457394 40.900090 -0.172629 2.242638 0.035282 0.003350 -84482.100000 0 0 1
31.338436 -4.390015 -26.485094 41.265361 -0.139178 2.267671 0.061423 -0.025431 -75026.800000 0 0 1
31.575436 -4.872715 -27.781724 42.338820 -0.153112 2.286537 0.064524 -0.030510 236919.000000 0 0 1
31.345936 -3.834715 -28.720254 42.686364 -0.121730 2.308811 0.071928 -0.035422 -6874.360000 0 0 1
31.472936 -4.313415 -30.185764 43.821588 -0.136203 2.330675 0.077623 -0.028017 52909.900000 0 0 1
31.114336 -3.277715 -31.070784 44.093525 -0.104957 2.352735 0.072444 -0.041206 -85958.200000 0 0 1
30.543636 -3.847415 -32.205744 44.552511 -0.125305 2.378745 0.072363 -0.043991 -820043.000000 0 0 1
30.074936 -2.828515 -33.273894 44.940564 -0.093773 2.404458 0.077365 -0.033935 889844.000000 0 0 1
29.033836 -1.878815 -32.840904 43.875033 -0.064621 2.416609 0.079945 -0.034960 1398960.000000 0 0 1
27.781736 -2.375515 -32.375934 42.727848 -0.085299 2.430615 0.088273 -0.037084 346438.000000 0 0 1
26.740036 -2.712015 -33.477834 42.931922 -0.101076 2.465125 0.096190 -0.045362 -481219.000000 0 0 1
27.173536 -3.814415 -34.163501 43.818896 -0.139461 2.464907 0.108832 -0.046982 -86558.300000 0 0 1
26.567636 -3.948915 33.040310 42.580457 -0.147556 0.682576 0.097352 -0.038999 -453145.000000 0 0 1
27.036536 -5.181315 32.215963 42.375566 -0.189345 0.707101 0.080007 -0.043050 69345.000000 0 0 1
28.392436 -5.186615 31.814963 42.956062 -0.180684 0.736774 0.078326 -0.034285 110135.000000 0 0 1
28.791736 -4.327615 30.706693 42.315403 -0.149191 0.758800 0.095494 -0.036666 -324617.000000 0 0 1
29.370136 -2.942315 31.101903 42.878788 -0.099847 0.759261 0.070230 -0.034383 -562180.000000 0 0 1
30.738736 -3.068115 31.403753 44.050867 -0.099483 0.777175 0.071675 -0.030547 -351934.000000 0 0 1
31.257036 -1.793715 31.823503 44.642525 -0.057323 0.777240 0.060515 -0.026778 56358.000000 0 0 1
32.726836 -1.909215 32.264163 45.996381 -0.058272 0.793366 0.044675 -0.025668 -116113.000000 0 0 1
33.582536 -2.245115 31.210243 45.901051 -0.066754 0.823107 0.050230 -0.017464 -209757.000000 0 0 1
34.949936 -2.290315 31.581153 47.160500 -0.065438 0.837055 0.036094 -0.012672 367483.000000 0 0 1
35.825836 -2.854615 30.446803 47.102517 -0.079512 0.867947 0.015303 -0.008644 -157150.000000 0 0 1
35.952236 -1.900115 29.376853 46.466904 -0.052802 0.886394 0.016883 0.000925 -138122.000000 0 0 1
-35.599411 -2.263315 28.581223 45.709156 0.063492 0.895300 0.008826 0.002678 21542.700000 0 0 1
-35.427611 -1.454715 27.324823 44.764693 0.041039 0.914218 0.023301 0.006291 349147.000000 0 0 1
36.205236 -1.712215 26.358773 44.816690 -0.047257 0.942031 0.042355 -0.011261 -14710.300000 0 0 1
-36.006611 -1.140615 25.175553 43.949807 0.031667 0.960848 0.047376 -0.012069 -200416.000000 0 0 1
-26.779564 15.189185 12.167306 33.104377 -0.515947 1.194430 0.062762 -0.011389 346984.000000 0 0 1
-27.863624 14.450685 12.726306 33.869791 -0.478434 1.185599 0.039469 -0.003367 -216071.000000 0 0 1
-28.911084 15.256885 13.089206 35.212933 -0.485575 1.189940 0.040016 -0.000986 -116839.000000 0 0 1
-30.190544 14.497785 13.611806 36.151570 -0.447690 1.184759 0.048389 0.001199 361696.000000 0 0 1
-31.143604 15.399385 14.087406 37.490268 -0.459209 1.185578 0.043499 -0.003793 -199006.000000 0 0 1
-32.251814 14.652185 14.609506 38.318452 -0.426429 1.179631 0.060713 -0.010404 579791.000000 0 0 1
-33.137364 15.438685 15.601606 39.747302 -0.435997 1.167427 0.052251 -0.009718 255679.000000 0 0 1
-32.417194 15.604385 16.811706 39.711520 -0.448626 1.133661 0.030654 -0.002826 277178.000000 0 0 1
-33.218164 16.271885 17.782006 41.041691 -0.455494 1.122682 0.037136 -0.012973 114067.000000 0 0 1
-32.447584 16.528585 19.077106 41.109316 -0.471134 1.088225 0.037296 -0.008083 -287697.000000 0 0 1
-32.196864 15.360385 19.853006 40.825499 -0.445142 1.062958 0.036468 -0.011091 -42014.400000 0 0 1
-31.043224 15.542185 20.654406 40.396111 -0.464178 1.034103 0.028966 -0.013145 250664.000000 0 0 1
-31.345694 15.937885 22.100006 41.532867 -0.470389 1.009707 0.041694 -0.026066 -71279.800000 0 0 1
-32.032864 17.199985 22.109206 42.553036 -0.492767 1.024451 0.044544 -0.027973 295416.000000 0 0 1
-32.499474 17.667485 23.365606 43.752799 -0.497935 1.007428 0.059821 -0.037782 -821608.000000 0 0 1
-33.503724 16.837385 24.194506 44.624782 -0.465688 0.997771 0.047315 -0.029900 1430480.000000 0 0 1
-34.838160 16.621885 23.615206 45.251104 -0.445174 1.021754 0.056089 -0.010844 1327660.000000 0 0 1
-35.624795 17.748885 23.306106 46.122918 -0.462220 1.041062 0.060030 -0.007450 -739446.000000 0 0 1
35.594133 17.167485 23.134706 45.791696 0.449398 1.041164 0.047176 -0.007661 115966.000000 0 0 1
35.079593 16.686085 24.344506 45.843846 0.443990 1.010979 0.058309 -0.005058 -324297.000000 0 0 1
34.004983 15.784785 24.237206 44.642362 0.434592 0.996887 0.083893 -0.008612 121412.000000 0 0 1
33.651303 15.089085 25.564306 44.873427 0.421519 0.964658 0.072148 -0.008187 -132490.000000 0 0 1
32.892443 15.924685 26.502006 45.142715 0.450883 0.943360 0.067273 0.000193 554356.000000 0 0 1
32.648403 15.267085 27.735606 45.478192 0.437411 0.914905 0.051103 0.008710 224268.000000 0 0 1
31.611003 14.109285 27.692006 44.330290 0.419807 0.896082 0.052229 0.007299 -136511.000000 0 0 1
32.188883 12.979185 27.026906 43.989056 0.383279 0.909170 0.056698 -0.009259 -193288.000000 0 0 1
31.451683 11.837885 27.274506 43.280972 0.359983 0.889020 0.051928 -0.004399 -373100.000000 0 0 1
32.067783 10.526685 26.774706 43.081767 0.317181 0.900159 0.055083 -0.011680 -93388.200000 0 0 1
33.084173 9.998685 27.604106 44.232599 0.293492 0.896859 0.057877 -0.015613 7855.840000 0 0 1
33.494273 8.738885 27.055806 43.934622 0.255217 0.907370 0.052763 -0.012626 -191463.000000 0 0 1
34.628753 8.124885 27.880306 45.193758 0.230460 0.905991 0.052821 -0.007468 423921.000000 0 0 1
35.968503 8.485185 27.554606 46.097591 0.231670 0.930111 0.061368 -0.013642 720940.000000 0 0 1
-35.721992 7.877185 28.430706 46.329427 -0.217040 0.910103 0.063309 -0.013933 432648.000000 0 0 1
-34.585791 8.909585 28.731206 45.837101 -0.252126 0.893343 0.068675 -0.017939 -262912.000000 0 0 1
-33.798444 9.135385 27.604506 44.584738 -0.263982 0.903140 0.057536 -0.017811 -990259.000000 0 0 1
-32.584134 9.612285 28.066306 44.066306 -0.286862 0.880312 0.063647 -0.009772 -474410.000000 0 0 1
-31.678954 10.199985 26.913606 42.801145 -0.311498 0.890780 0.050759 -0.014355 195315.000000 0 0 1
-31.188484 9.226185 25.999606 41.639207 -0.287618 0.896431 0.049829 -0.020067 105265.000000 0 0 1
-30.275664 9.831985 25.128706 40.555341 -0.314005 0.902544 0.043222 -0.016165 -184819.000000 0 0 1
-29.833674 8.946385 23.954006 39.292243 -0.291342 0.915194 0.055715 -0.017653 -957847.000000 0 0 1
-28.782444 9.383985 23.227406 38.157577 -0.315165 0.916346 0.050333 -0.024945 -1035310.000000 0 0 1
-28.100484 8.273585 22.645906 37.026024 -0.286338 0.912688 0.056210 -0.016282 -400634.000000 0 0 1
-26.917644 8.759985 21.838806 35.752348 -0.314627 0.913681 0.050460 -0.010496 -1232500.000000 0 0 1
-25.975884 9.535185 22.590506 35.721104 -0.351808 0.886131 0.060212 -0.021955 807893.000000 0 0 1
-25.079794 10.357585 21.811106 34.813790 -0.391650 0.893732 0.055006 -0.015031 1038460.000000 0 0 1
-24.101764 9.661185 20.814006 33.278467 -0.381239 0.895089 0.054925 -0.008322 -427012.000000 0 0 1
-24.881664 9.327885 19.677706 33.065371 -0.358674 0.933387 0.060173 -0.010331 220263.000000 0 0 1
-24.223964 8.654385 18.607606 31.748100 -0.343133 0.944558 0.074607 -0.013930 -242717.000000 0 0 1
-24.013464 7.143785 18.827106 31.339114 -0.289153 0.926352 0.078628 -0.002555 -103012.000000 0 0 1
-23.092964 6.751385 19.843006 31.186713 -0.284430 0.881150 0.060764 0.000029 473599.000000 0 0 1
-23.328064 5.413985 20.339706 31.419953 -0.228043 0.866694 0.074377 -0.002346 -77273.700000 0 0 1
-23.118764 4.239185 19.322006 30.426762 -0.181351 0.882745 0.065852 -0.009634 -894565.000000 0 0 1
-24.197664 4.036285 18.490006 30.719682 -0.165283 0.924925 0.101374 -0.011719 -378694.000000 0 0 1
-23.968264 3.175485 17.358506 29.763722 -0.131720 0.948121 0.090330 -0.010804 -232084.000000 0 0 1
-23.951864 1.660085 17.637106 29.791193 -0.069199 0.937228 0.086871 -0.010157 -587231.000000 0 0 1
-22.700864 1.252485 18.077606 29.046476 -0.055118 0.899032 0.043808 -0.008319 -108220.000000 0 0 1
-22.934664 -0.090415 18.539506 29.491020 0.003942 0.890981 0.061932 -0.021080 -174238.000000 0 0 1
-21.641064 -0.850815 18.795606 28.676373 0.039295 0.856033 0.051054 -0.010981 -806674.000000 0 0 1
-20.780564 -0.457115 19.780406 28.693297 0.021994 0.810172 0.025131 -0.006727 -798435.000000 0 0 1
-19.787064 -1.418215 19.993406 28.165147 0.071551 0.781492 0.011315 -0.007741 -565005.000000 0 0 1
-18.817664 -0.962015 21.068106 28.264732 0.051078 0.729684 0.018588 -0.005714 -420131.000000 0 0 1
-19.345064 -0.965115 22.338706 29.566548 0.049848 0.714318 0.026894 -0.009353 -372164.000000 0 0 1
-18.342264 -0.927215 23.337406 29.697355 0.050508 0.666741 0.021714 -0.009287 -355542.000000 0 0 1
-18.834964 -1.020415 24.797506 31.156274 0.054124 0.650292 0.025074 -0.009652 -110627.000000 0 0 1
-19.470664 0.104085 25.360206 31.972764 -0.005346 0.654781 0.026204 -0.012051 436733.000000 0 0 1
-20.895864 -0.046415 25.354306 32.855443 0.002221 0.689298 0.059427 -0.014203 488973.000000 0 0 1
-21.585564 1.111585 26.116206 33.900272 -0.051451 0.691354 0.055253 -0.019541 -139768.000000 0 0 1
-21.416564 2.365685 25.465106 33.357717 -0.110015 0.702244 0.061299 -0.016627 -427910.000000 0 0 1
-22.489764 2.725885 24.664606 33.489741 -0.120617 0.742941 0.065126 -0.011857 -1146590.000000 0 0 1
-22.152464 3.765485 23.583406 32.574339 -0.168371 0.761231 0.061147 -0.012299 274561.000000 0 0 1
-21.451664 3.307585 22.411206 31.198977 -0.152983 0.769395 0.067157 -0.006848 774282.000000 0 0 1
-20.100664 2.907685 22.608706 30.391527 -0.143660 0.731887 0.032380 -0.001405 -62404.300000 0 0 1
-19.428564 2.342885 21.297506 28.923035 -0.120010 0.743135 0.016542 -0.005332 31670.500000 0 0 1
-18.943164 3.285985 20.343606 27.991132 -0.171756 0.757163 0.014862 0.003279 27967.000000 0 0 1
-18.972964 2.699585 19.045006 27.018020 -0.141337 0.788514 0.012695 -0.004995 -39273.900000 0 0 1
-18.580564 3.646085 17.921706 26.071418 -0.193769 0.812882 0.012836 -0.002140 95363.500000 0 0 1
-17.204964 3.918885 17.710506 25.000610 -0.223956 0.783563 0.003297 -0.008774 91992.600000 0 0 1
-16.966664 4.835985 16.669306 24.271799 -0.277666 0.813751 0.012671 0.000863 763096.000000 0 1 0
-15.446564 5.177985 16.408506 23.122434 -0.323447 0.781815 0.014471 0.000554 616628.000000 0 1 0
-14.922464 6.163485 17.268606 23.640500 -0.391692 0.751791 0.008003 -0.000323 54732.100000 0 1 0
-15.496164 7.501985 17.213906 24.346036 -0.450862 0.785476 0.007160 -0.007800 -409401.000000 0 1 0
-15.026664 8.420985 16.042506 23.538811 -0.510795 0.820939 0.002598 -0.005230 -20648.600000 0 1 0
-15.441264 7.964885 14.731406 22.779077 -0.476222 0.867536 0.009777 -0.004986 1029640.000000 0 1 0
-16.828964 8.254485 14.463706 23.675924 -0.456013 0.913595 0.023688 -0.003262 655101.000000 0 1 0
-17.329064 7.471585 13.250206 23.058383 -0.407076 0.958635 0.026245 -0.008373 -197483.000000 0 1 0
-17.385864 6.100885 13.477906 22.828557 -0.337486 0.939246 0.032575 -0.003894 137210.000000 0 1 0
-18.015264 5.389485 12.451106 22.552746 -0.290688 0.985930 0.040222 -0.006761 159411.000000 0 1 0
-17.667264 3.850685 12.665906 22.076802 -0.214600 0.959756 0.038844 -0.002680 -167055.000000 0 1 0
-18.210564 3.359385 13.814206 23.102866 -0.182424 0.929864 0.030894 -0.000586 47505.400000 0 1 0
-17.703964 2.060785 14.010706 22.671062 -0.115881 0.904601 0.017928 -0.004724 -145665.000000 0 1 0
-18.620464 1.226685 14.947806 23.909482 -0.065783 0.895430 0.026013 -0.007305 531209.000000 0 1 0
-19.917964 1.024985 14.377206 24.586174 -0.051415 0.946202 0.042011 -0.007199 103720.000000 0 1 0
-20.846264 0.634985 15.336206 25.887625 -0.030451 0.936744 0.043350 -0.012342 -1583080.000000 0 0 1
-22.140364 0.323685 14.645906 26.548127 -0.014619 0.986427 0.062291 -0.014314 -1272680.000000 0 0 1
-22.123364 -0.687515 13.704006 26.032973 0.031066 1.016424 0.067477 -0.014774 1011310.000000 0 0 1
-23.440164 -0.894215 13.148606 26.891016 0.038130 1.059900 0.105115 -0.018391 917620.000000 0 0 1
-23.380264 -2.118115 12.168606 26.442355 0.090347 1.092583 0.095079 -0.019978 -156015.000000 0 0 1
-23.301164 -3.394315 12.696806 26.752094 0.144654 1.076276 0.076415 -0.010091 168995.000000 0 0 1
-23.448764 -4.398415 11.745606 26.592289 0.185421 1.113312 0.084536 -0.010437 47079.400000 0 0 1
-23.252764 -5.766315 12.428406 26.989011 0.243080 1.092239 0.077196 -0.010502 741312.000000 0 0 1
-24.384764 -6.047015 13.268606 28.411952 0.243080 1.084892 0.076691 -0.009237 790781.000000 0 0 1
-24.350264 -7.406615 13.561306 28.839250 0.295278 1.081236 0.077207 -0.016599 827468.000000 0 0 1
-25.345044 -7.763815 14.765906 30.342710 0.297249 1.062560 0.085150 -0.013181 2235630.000000 0 0 1
-26.756484 -7.457415 14.602606 31.380863 0.271816 1.086784 0.088025 -0.019163 1445930.000000 0 0 1
-27.509074 -7.780015 15.760906 32.644815 0.275618 1.066947 0.091795 -0.017556 -842986.000000 0 0 1
-28.945734 -7.240715 15.684106 33.708673 0.245118 1.086841 0.100375 -0.022998 -175125.000000 0 0 1
-29.835424 -7.920315 14.769506 34.220202 0.259482 1.124528 0.091593 -0.020706 822226.000000 0 0 1
-30.114164 -9.339715 14.873306 34.861273 0.300737 1.130019 0.102479 -0.026628 -773823.000000 0 0 1
-30.525334 -9.779315 16.262206 35.942876 0.310036 1.101290 0.097845 -0.031212 -1314860.000000 0 0 1
-29.429994 -9.984315 17.096306 35.469632 0.327072 1.067862 0.110952 -0.014739 -310130.000000 0 0 1
-29.673754 -10.903915 18.141106 36.448961 0.352144 1.049837 0.108698 -0.011352 202727.000000 0 0 1
-28.454734 -11.037115 19.101106 36.004750 0.370017 1.011587 0.115542 -0.009186 326761.000000 0 0 1
-27.476344 -11.950315 18.681806 35.309622 0.410252 1.013274 0.108476 -0.017601 -689856.000000 0 0 1
-26.284854 -11.712415 19.367206 34.686638 0.419185 0.978403 0.098488 -0.023058 -198455.000000 0 0 1
-25.139864 -12.717115 19.044406 34.006281 0.468320 0.976379 0.082335 -0.015745 -78904.200000 0 0 1
-24.665864 -12.371415 17.787706 32.830767 0.464895 0.998219 0.073443 -0.007998 -1259740.000000 0 0 1
-23.433864 -12.945515 17.652206 32.067627 0.504705 0.987871 0.065100 -0.008329 -1222140.000000 0 0 1
-22.805964 -12.889715 16.278006 30.842020 0.514431 1.014804 0.075221 -0.003748 65979.500000 0 0 1
-22.343064 -11.610815 15.783106 29.717503 0.479252 1.010892 0.057385 -0.007846 -94931.700000 0 0 1
-21.892764 -11.718515 14.462606 28.736452 0.491463 1.043401 0.080823 -0.003749 159274.000000 0 0 1
-20.776464 -10.746715 14.033506 27.278061 0.477356 1.030417 0.058159 -0.003883 -213634.000000 0 0 1
-21.198464 -9.428615 13.829106 27.009588 0.418503 1.033276 0.053442 -0.005603 -104142.000000 0 0 1
-20.218064 -8.522415 13.376606 25.696989 0.398923 1.023300 0.053505 -0.008291 -486524.000000 0 0 1
-19.614164 -8.641515 11.986206 24.557287 0.414989 1.060894 0.072305 -0.007111 -112363.000000 0 1 0
-18.820664 -9.787815 11.672606 24.212981 0.479564 1.067769 0.055677 -0.015015 477545.000000 0 1 0
-18.859864 -10.019715 10.316106 23.717319 0.488351 1.120801 0.084741 -0.014612 148128.000000 0 1 0
-17.997764 -11.277615 9.835206 23.405884 0.559758 1.137128 0.056137 -0.009617 1832440.000000 0 1 0
-16.555364 -11.328915 9.843506 22.345447 0.600114 1.114624 0.062315 -0.022102 1625700.000000 0 1 0
-15.991964 -11.381115 11.165106 22.581680 0.618520 1.053615 0.066481 -0.018981 -1267320.000000 0 1 0
-14.576664 -11.885515 11.180406 21.880267 0.684049 1.034470 0.074681 -0.022491 -1035840.000000 0 1 0
-14.361064 -13.207415 10.731306 22.267395 0.743576 1.067941 0.064521 -0.030950 292970.000000 0 1 0
-12.974664 -13.504715 10.814106 21.625543 0.805413 1.047126 0.072776 -0.032351 169774.000000 0 1 0
-12.673564 -15.005415 10.771406 22.401002 0.869446 1.069178 0.079512 -0.030536 -201610.000000 0 1 0
-12.696364 -15.588515 9.470806 22.223762 0.887295 1.130556 0.056008 -0.036211 111802.000000 0 1 0
-12.302564 -16.977715 9.678306 23.092542 0.943731 1.138332 0.047896 -0.027825 -30756.900000 0 1 0
-12.658264 -17.975715 8.537206 23.584780 0.957266 1.200406 0.038609 -0.012609 160205.000000 0 1 0
-11.967364 -17.753715 7.302206 22.621547 0.977681 1.242111 0.036304 -0.021449 93033.600000 0 1 0
-12.278464 -18.696715 6.272306 23.230791 0.989713 1.297404 0.015807 -0.008303 -454332.000000 0 1 0
-11.377664 -18.574715 5.066506 22.363827 1.021211 1.342263 0.019239 -0.007720 -611915.000000 0 1 0
-11.680564 -19.348015 3.914706 22.937004 1.027654 1.399285 0.024866 -0.009226 -157198.000000 0 1 0
-10.931364 -18.992615 2.780406 22.089472 1.048542 1.444591 0.030377 -0.019902 85505.200000 0 1 0
-11.315664 -19.813715 1.487206 22.865680 1.051896 1.505709 0.044511 -0.019016 275874.000000 0 1 0
-10.888564 -21.151815 1.719106 23.851948 1.095394 1.498660 0.028662 -0.026012 114177.000000 0 1 0
-11.545264 -22.055415 0.785806 24.906865 1.088552 1.539241 0.045661 -0.023308 379603.000000 0 1 0
-10.750564 -22.305515 -0.540494 24.766969 1.121677 1.592621 0.060305 -0.015245 69698.000000 0 1 0
-10.527064 -21.148415 -1.375794 23.663629 1.108934 1.628969 0.057276 -0.031333 323984.000000 0 1 0
-11.485164 -20.837415 -2.422394 23.915995 1.067048 1.672258 0.065728 -0.029317 1114740.000000 0 1 0
-12.660364 -19.875915 -1.973994 23.648117 1.003636 1.654367 0.070886 -0.026775 165012.000000 0 1 0
-13.539264 -20.445715 -1.093494 24.546581 0.985889 1.615359 0.068561 -0.014320 -953589.000000 0 1 0
-14.607664 -19.563415 -0.865694 24.430728 0.929422 1.606238 0.073377 0.000186 -56500.500000 0 1 0
26.156736 -20.220715 -4.316994 33.341994 -0.658097 1.700637 0.044599 -0.011174 -564077.000000 0 0 1
25.070536 -20.330215 -3.464894 32.463131 -0.681364 1.677733 0.032814 -0.014527 -336613.000000 0 0 1
25.200336 -21.361115 -2.529894 33.132378 -0.703129 1.647228 0.023324 -0.011069 -78984.800000 0 0 1
23.853736 -21.713715 -1.848094 32.309465 -0.738469 1.628027 0.022357 -0.007125 405042.000000 0 0 1
22.877636 -22.395915 -2.632694 32.123111 -0.774758 1.652845 0.033564 -0.017982 89812.800000 0 0 1
21.683636 -22.576515 -1.908794 31.361163 -0.805569 1.631699 0.026231 -0.015915 -912704.000000 0 0 1
20.587536 -23.168015 -2.748394 31.115224 -0.844305 1.659241 0.045296 -0.024157 -846336.000000 0 0 1
20.003136 -22.196915 -3.555094 30.090981 -0.837337 1.689218 0.052181 -0.027220 -140730.000000 0 0 1
19.023036 -22.704215 -4.450194 29.952654 -0.873390 1.719923 0.059913 -0.023204 252785.000000 0 0 1
18.233336 -21.609715 -5.214294 28.751055 -0.869938 1.753166 0.058848 -0.022712 458290.000000 0 0 1
17.163536 -20.901115 -4.522494 27.420731 -0.883275 1.736483 0.063872 -0.019578 1001350.000000 0 0 1
17.519236 -20.040115 -3.450594 26.840947 -0.852415 1.699710 0.049476 -0.020330 -658947.000000 0 0 1
16.342536 -19.695515 -2.542194 25.718758 -0.878171 1.669804 0.053367 -0.012644 -271345.000000 0 0 1
15.823136 -20.786415 -1.793194 26.185152 -0.920150 1.639331 0.050355 -0.013520 226530.000000 0 0 1
14.947836 -20.259815 -0.801394 25.190080 -0.935144 1.602616 0.055693 -0.004334 -306420.000000 0 0 1
14.862536 -21.055515 0.473806 25.777008 -0.956139 1.552414 0.049246 -0.000312 -40705.500000 0 0 1
14.070236 -22.212815 0.478906 26.298479 -1.006159 1.552585 0.061495 -0.005117 -272761.000000 0 0 1
13.430136 -22.413915 1.709506 26.185388 -1.030975 1.505465 0.048942 -0.000128 -22091.000000 0 0 1
12.378036 -23.545615 1.753106 26.658678 -1.086797 1.504988 0.052385 -0.007289 284352.000000 0 0 1
12.920436 -24.861815 1.806306 28.076863 -1.091521 1.506418 0.039171 0.002345 355040.000000 0 0 1
11.895636 -25.785435 1.471406 28.435186 -1.138559 1.519027 0.045191 -0.000812 392090.000000 0 0 1
12.248536 -27.178985 2.011406 29.879250 -1.147392 1.503428 0.049057 -0.001437 81490.100000 0 0 1
11.959036 -27.280035 3.388106 29.978294 -1.157647 1.457536 0.056622 -0.005737 136135.000000 0 0 1
12.234436 -28.525705 4.063306 31.303477 -1.165634 1.440625 0.057300 -0.011771 -101144.000000 0 0 1
11.990236 -28.630025 5.589606 31.538671 -1.174189 1.392625 0.064798 -0.012618 -90349.600000 0 0 1
12.217136 -29.894955 6.174606 32.879971 -1.182839 1.381882 0.060758 -0.011781 -20538.500000 0 0 1
12.205736 -29.921935 7.572106 33.190947 -1.183482 1.340632 0.062907 -0.005178 -85473.500000 0 0 1
12.304436 -31.353085 8.191806 34.662959 -1.196818 1.332212 0.055843 -0.005701 -162285.000000 0 0 1
12.109336 -31.398235 9.576906 34.988602 -1.202705 1.293543 0.049504 -0.000422 425965.000000 0 0 1
10.995836 -32.255395 9.858606 35.475498 -1.242252 1.289190 0.037049 0.000809 410439.000000 0 0 1
10.982536 -32.685735 11.332606 36.296023 -1.246644 1.253260 0.031999 0.003791 34735.600000 0 0 1
12.048036 -33.529175 11.744006 37.513763 -1.225834 1.252385 0.025086 0.001054 188907.000000 0 0 1
12.041036 -33.885775 13.144006 38.288342 -1.229371 1.220379 0.027829 0.005091 215901.000000 0 0 1
10.894736 33.643260 13.610606 37.892121 1.257622 1.203393 0.025889 0.005408 145415.000000 0 0 1
11.016636 32.358358 13.098006 36.605838 1.242648 1.204873 0.028536 0.007980 24593.700000 0 0 1
9.875236 31.552988 13.276506 35.628317 1.267481 1.188945 0.027974 0.007042 -272890.000000 0 0 1
9.768636 30.430458 12.210106 34.212947 1.260173 1.205865 0.034649 0.005599 43140.400000 0 0 1
9.361136 30.768868 10.834006 33.937145 1.275454 1.245872 -0.001694 0.002803 342390.000000 0 0 1
10.400136 31.466498 10.159006 34.662786 1.251585 1.273349 0.012304 0.002204 81322.600000 0 0 1
10.113036 31.827708 8.687206 34.507160 1.263142 1.316307 0.025683 -0.010554 -201506.000000 0 0 1
9.136936 32.830644 8.528806 35.129408 1.299360 1.325563 0.023330 -0.003659 -90672.300000 0 0 1
8.794736 32.906227 7.151306 34.803855 1.309634 1.363848 0.023688 -0.008013 -275180.000000 0 0 1
9.207836 34.128931 6.373306 35.919176 1.307275 1.392417 0.030576 -0.004639 -100663.000000 0 0 1
8.491136 -33.209215 6.783506 34.942342 -1.320473 1.375421 0.034451 0.002068 -300678.000000 0 0 1
9.023736 -32.093065 6.184006 33.906261 -1.296699 1.387384 0.046385 -0.015891 -161082.000000 0 0 1
8.288736 -30.757765 6.464806 32.504414 -1.307565 1.370571 0.041209 -0.014676 15275.400000 0 0 1
8.368736 -30.375835 7.795506 32.457618 -1.301959 1.328250 0.041019 -0.010556 -69820.300000 0 0 1
7.895536 -29.058705 8.014706 31.160605 -1.305492 1.310666 0.053527 -0.005898 -267782.000000 0 0 1
8.837836 -27.858895 7.774406 30.243458 -1.263603 1.310817 0.057435 -0.010109 -421503.000000 0 0 1
8.724736 -26.865315 8.781606 29.580107 -1.256783 1.269377 0.053445 -0.008129 177301.000000 0 0 1
9.437136 -25.642535 8.411906 28.589496 -1.218153 1.272146 0.073928 -0.017863 101238.000000 0 0 1
8.863836 -24.787715 7.266506 27.309348 -1.227376 1.301471 0.039055 -0.023287 -146222.000000 0 0 1
8.934036 -25.474485 6.033906 27.661786 -1.233493 1.350897 0.042967 -0.011032 -204508.000000 0 0 1
8.506136 -24.665915 4.989606 26.564221 -1.238713 1.381842 0.048491 -0.006646 104561.000000 0 0 1
8.506236 -25.276785 3.600406 26.911611 -1.246177 1.436608 0.046916 -0.005485 267530.000000 0 0 1
7.531136 -26.318585 3.458506 27.592520 -1.292091 1.445124 0.052529 -0.013448 -99155.100000 0 0 1
7.844736 -27.637885 3.932906 28.997591 -1.294230 1.434748 0.048386 -0.008586 8361.440000 0 0 1
6.768936 -28.692205 3.596606 29.698429 -1.339117 1.449394 0.044747 -0.010342 550771.000000 0 0 1
5.493636 -28.617255 4.246706 29.447611 -1.381134 1.426079 0.030269 -0.007843 863995.000000 0 0 1
4.454036 -29.457705 3.769106 30.030001 -1.420732 1.444953 0.039014 -0.000143 396067.000000 0 0 1
4.585236 -30.938625 4.148106 31.550430 -1.423663 1.438939 0.043813 -0.007135 383714.000000 0 0 1
5.642036 -31.565085 3.355706 32.240470 -1.393921 1.466524 0.045601 -0.010446 821634.000000 0 0 1
5.825136 -32.919935 3.653106 33.630336 -1.395661 1.461956 0.041737 -0.008689 15284.700000 0 0 1
7.106236 -33.526325 3.039706 34.405709 -1.361928 1.482332 0.032376 -0.009292 -64955.700000 0 0 1
7.021336 -33.700095 1.615206 34.461637 -1.365387 1.523909 0.036135 -0.010151 -333580.000000 0 0 1
7.923136 33.812541 1.162506 34.747884 1.340624 1.537335 0.030361 -0.010637 -690694.000000 0 0 1
7.699736 33.367451 -0.335494 34.245953 1.344010 1.580593 0.040218 -0.006719 407645.000000 0 0 1
6.583036 32.477691 -0.450894 33.141215 1.370812 1.584402 0.031210 -0.001574 284030.000000 0 0 1
5.334036 33.116755 -0.566894 33.548365 1.411100 1.587695 0.040205 -0.004768 -479648.000000 0 0 1
4.051936 32.328138 -0.326194 32.582712 1.446109 1.580808 0.032829 -0.005222 -79716.800000 0 0 1
3.844236 31.401068 -1.360194 31.664734 1.448979 1.613766 0.032142 -0.002929 -237254.000000 0 0 1
2.733536 30.583608 -1.103794 30.725359 1.481654 1.606729 0.021291 -0.004402 14414.300000 0 0 1
2.626836 29.277958 -1.996694 29.463297 1.481315 1.638617 0.023410 -0.004654 20050.100000 0 0 1
2.372336 29.684548 -3.306794 29.962231 1.491048 1.681387 0.036481 -0.011462 9117.720000 0 0 1
2.068536 28.615438 -4.157094 28.989715 1.498634 1.714691 0.043169 -0.015894 -455313.000000 0 0 1
1.714336 29.099718 -5.587094 29.680771 1.511952 1.760166 0.050046 -0.017486 128306.000000 0 0 1
0.411736 29.643548 -5.730994 30.195261 1.556908 1.761753 0.058245 -0.020789 148310.000000 0 0 1
0.182336 30.563658 -6.804894 31.312570 1.564831 1.789866 0.059922 -0.018140 -247737.000000 0 0 1
0.476836 30.124278 -8.258894 31.239540 1.554969 1.838350 0.066799 -0.023399 -554081.000000 0 0 1
-0.421664 29.180388 -8.772694 30.473481 -1.556347 1.862808 0.082427 -0.022125 -200149.000000 0 0 1
-0.387264 28.921728 -10.146294 30.652302 -1.557407 1.908173 0.084699 -0.025435 -56265.900000 0 0 1
-0.783964 30.072198 -11.111794 32.069045 -1.544733 1.924629 0.075083 -0.025505 -385299.000000 0 0 1
0.214636 31.042028 -11.271694 33.025818 1.563882 1.919095 0.067309 -0.020899 -639280.000000 0 0 1
-0.244964 32.267148 -11.734994 34.335680 -1.563205 1.919599 0.066798 -0.027853 -327223.000000 0 0 1
-0.401864 33.299887 -10.602594 34.949378 -1.558729 1.879024 0.058863 -0.030385 -342475.000000 0 0 1
0.746336 33.720343 -9.930894 35.160222 1.548667 1.857140 0.056079 -0.030777 -656288.000000 0 0 1
0.434136 -33.853795 -8.836594 34.990760 -1.557973 1.826102 0.046338 -0.027505 -559843.000000 0 0 1
1.466836 -33.449535 -7.792094 34.376441 -1.526972 1.799453 0.045886 -0.024847 -216780.000000 0 0 1
2.549536 -32.628015 -8.245394 33.750170 -1.492815 1.817601 0.056483 -0.024513 -487158.000000 0 0 1
3.393536 -32.496885 -7.176494 33.452439 -1.466747 1.787005 0.056012 -0.024958 -1167360.000000 0 0 1
4.751536 -31.907825 -7.706194 33.167330 -1.422968 1.805282 0.040820 -0.019289 597098.000000 0 0 1
5.646136 -32.726405 -8.434094 34.264126 -1.399953 1.819502 0.051760 -0.020251 145096.000000 0 0 1
6.146136 -33.766135 -7.660694 35.165509 -1.390747 1.790404 0.052920 -0.011405 -1466700.000000 0 0 1
6.584536 33.516104 -8.525694 35.204727 1.376808 1.815403 0.047631 -0.004603 111138.000000 0 0 1
5.584036 32.524694 -8.793294 34.152002 1.400768 1.831205 0.034462 -0.006944 460098.000000 0 0 1
4.565236 32.957300 -9.723994 34.663830 1.433153 1.855135 0.047752 -0.011511 674529.000000 0 0 1
3.597536 31.817478 -10.083894 33.570510 1.458207 1.875887 0.050153 -0.023570 175520.000000 0 0 1
4.307136 30.844248 -10.819394 32.969355 1.432052 1.905157 0.024265 -0.012828 205962.000000 0 0 1
3.541136 29.665908 -10.898794 31.802350 1.451991 1.920590 0.025382 -0.020819 502595.000000 0 0 1
4.405636 28.611698 -11.674194 31.214191 1.418016 1.954118 0.013770 -0.014497 442803.000000 0 0 1
4.325736 28.805678 -13.081094 31.931084 1.421741 1.992885 0.025435 -0.015905 15875.200000 0 0 1
5.606536 28.651768 -13.660094 32.232829 1.377559 2.008427 0.012283 -0.021260 107068.000000 0 0 1
5.551536 29.259818 -15.078894 33.381575 1.383293 2.039481 0.018848 -0.022614 -4908.710000 0 0 1
4.641636 28.571278 -15.901394 33.026006 1.409745 2.073140 0.043715 -0.024842 -193876.000000 0 0 1
4.416736 29.128468 -17.169894 34.099567 1.420313 2.098467 0.063844 -0.021144 -501772.000000 0 0 1
3.272436 28.338288 -17.738094 33.591776 1.455828 2.127097 0.064084 -0.029518 -432055.000000 0 0 1
3.788836 27.158218 -18.354894 32.997367 1.432181 2.160667 0.072766 -0.019932 -162081.000000 0 0 1
2.808236 26.570678 -19.127894 32.859754 1.465498 2.192114 0.085461 -0.032255 -97353.800000 0 0 1
3.424636 25.310498 -19.820794 32.329759 1.436308 2.230752 0.096059 -0.032223 441204.000000 0 0 1
3.647636 24.285388 -18.884994 30.979482 1.421712 2.226348 0.093299 -0.041498 91942.900000 0 0 1
4.382736 23.183288 -19.428394 30.563634 1.383954 2.259673 0.090903 -0.033655 225294.000000 0 0 1
4.641236 21.935588 -18.547494 29.098465 1.362287 2.261921 0.090978 -0.027162 86692.900000 0 0 1
3.606136 21.014588 -18.326894 28.115693 1.400850 2.280803 0.095457 -0.028931 -507313.000000 0 0 1
4.180536 19.820088 -17.892894 27.027180 1.362919 2.294325 0.077522 -0.025070 -223352.000000 0 0 1
3.192436 18.678388 -17.739694 25.957091 1.401516 2.323239 0.067297 -0.031389 -481151.000000 0 0 1
2.198936 18.934488 -16.779194 25.394714 1.455180 2.292595 0.069444 -0.026645 -289000.000000 0 0 1
1.397336 17.779288 -16.537394 24.321617 1.492364 2.318486 0.036362 -0.016264 -7899.050000 0 1 0
2.042336 16.638488 -15.691194 22.961359 1.448660 2.323170 0.032920 -0.018478 494601.000000 0 1 0
3.182636 15.918988 -16.195794 22.931356 1.373471 2.355016 0.040853 -0.022239 197952.000000 0 1 0
2.951636 14.917588 -17.139294 22.912922 1.375457 2.415868 0.043609 -0.025039 -574720.000000 0 1 0
2.940736 15.366088 -18.609094 24.311787 1.381704 2.442513 0.037218 -0.022393 -33433.100000 0 1 0
4.108436 16.058788 -19.090594 25.282696 1.320331 2.426581 0.057240 -0.027006 441736.000000 0 0 1
3.824836 16.477588 -20.465094 26.551090 1.342712 2.450864 0.036029 -0.030609 -228434.000000 0 0 1
4.286736 15.548788 -21.626594 26.978704 1.301783 2.500792 0.049862 -0.034033 579374.000000 0 0 1
3.480736 14.371388 -21.930694 26.450098 1.333173 2.548354 0.052325 -0.027917 -144303.000000 0 0 1
2.210336 14.648788 -22.427694 26.878877 1.421037 2.557837 0.058385 -0.034999 -471362.000000 0 0 1
1.298236 13.432788 -22.719194 26.425121 1.474449 2.605591 0.066410 -0.029541 62284.300000 0 0 1
0.687236 12.758088 -21.634394 25.125448 1.516982 2.608137 0.062804 -0.024818 586443.000000 0 0 1
-0.067364 11.631588 -22.152794 25.020885 -1.565005 2.658090 0.045405 -0.017364 156612.000000 0 0 1
-0.542264 10.633088 -21.061294 23.599464 -1.519843 2.673539 0.034061 -0.013088 -768416.000000 0 1 0
-1.615964 11.265488 -20.389494 23.350675 -1.428324 2.632499 0.031436 -0.009842 -53521.100000 0 1 0
-2.218164 10.546488 -19.341394 22.141323 -1.363495 2.633230 0.025099 -0.004157 364661.000000 0 1 0
-3.205964 9.421788 -19.857794 22.212165 -1.242815 2.677003 0.022816 -0.008133 -55824.900000 0 1 0
-2.601564 8.305588 -20.516294 22.286078 -1.267246 2.740380 0.020839 -0.009409 -427943.000000 0 1 0
-3.587964 7.363188 -20.796794 22.351659 -1.117373 2.766398 0.019930 -0.003665 -211866.000000 0 1 0
-3.051564 6.140888 -21.574694 22.638241 -1.109611 2.833850 0.026131 -0.016395 -73312.400000 0 1 0
-2.287864 5.231088 -20.809194 21.578257 -1.158504 2.873808 0.029898 -0.017238 66161.800000 0 1 0
-2.110764 4.059188 -21.604494 22.083625 -1.091280 2.932906 0.031357 -0.019696 -787193.000000 0 1 0
-1.236264 3.026288 -20.964094 21.217446 -1.182977 2.986902 0.029752 -0.013611 -535425.000000 0 1 0
0.092336 3.465688 -20.765794 21.053212 1.544160 2.976165 0.028086 -0.012637 -352247.000000 0 1 0
0.765836 2.439388 -20.107494 20.269397 1.266595 3.015116 0.032482 -0.009003 -465357.000000 0 1 0
2.298936 2.434188 -20.109694 20.386519 0.813966 2.976610 0.025570 -0.015482 4434.190000 0 1 0
2.890636 2.252188 -21.424194 21.735322 0.661887 2.972190 0.040759 -0.010529 855591.000000 0 1 0
4.312636 2.092088 -21.275594 21.808864 0.451662 2.919997 0.061821 -0.012738 887873.000000 0 1 0
5.017036 1.661188 -22.560294 23.171039 0.319748 2.911485 0.066032 -0.003061 -259270.000000 0 1 0
6.420836 1.566588 -22.512094 23.462219 0.239310 2.856033 0.068861 -0.011254 -143596.000000 0 1 0
6.913836 1.103488 -23.735494 24.746565 0.158271 2.854754 0.062471 -0.009722 201377.000000 0 1 0
8.433936 0.773088 -23.686594 25.155192 0.091409 2.798202 0.062459 -0.024632 180489.000000 0 0 1
9.170136 1.930188 -23.540894 25.337536 0.207458 2.762746 0.066701 -0.027327 -1602740.000000 0 0 1
10.521036 1.741188 -23.607394 25.904304 0.164009 2.717302 0.051684 -0.024753 -1590770.000000 0 0 1
14.088936 -21.181215 22.337953 33.854484 -0.983836 0.850214 0.053137 -0.008281 -27769.000000 0 0 1
13.045336 -21.993215 22.911653 34.334037 -1.035427 0.840197 0.050725 -0.005724 -557944.000000 0 0 1
11.805836 -21.435515 22.845453 33.477959 -1.067369 0.819752 0.042496 -0.020150 -672379.000000 0 0 1
10.990136 -21.300415 21.521853 32.213055 -1.094463 0.839131 0.055545 -0.023498 -716011.000000 0 0 1
11.456536 -20.185215 20.798453 31.165217 -1.054563 0.840137 0.049244 -0.021736 43181.700000 0 0 1
10.990736 -20.266715 19.465053 30.173238 -1.073880 0.869629 0.071308 -0.028018 -48311.600000 0 0 1
11.245136 -18.909115 18.754153 28.908925 -1.034287 0.864879 0.071066 -0.024459 -35871.900000 0 0 1
10.566336 -17.776615 19.290853 28.280603 -1.034508 0.820134 0.074526 -0.020653 -133209.000000 0 0 1
10.794436 -16.575415 18.582353 27.139787 -0.993556 0.816617 0.081083 -0.016249 46200.300000 0 0 1
9.775536 -15.497115 19.013853 26.405459 -1.008039 0.766889 0.081856 -0.011356 476992.000000 0 0 1
8.434636 -15.833115 18.682953 25.901416 -1.081316 0.765104 0.068099 -0.008957 150800.000000 0 0 1
7.529336 -14.853815 19.192053 25.409872 -1.101647 0.714686 0.043855 -0.005944 443998.000000 0 0 1
6.086636 -14.987015 18.651553 24.688827 -1.185019 0.714432 0.026094 0.000846 26020.300000 0 1 0
5.938536 -14.816615 17.250153 23.502469 -1.189598 0.746645 0.026379 -0.000601 580183.000000 0 1 0
4.552236 -14.853915 16.863653 22.929117 -1.273417 0.744438 0.009788 -0.000793 1117460.000000 0 1 0
3.872536 -16.251015 16.691753 23.615813 -1.336864 0.785826 -0.005042 -0.001870 -139345.000000 0 1 0
2.581136 -16.246015 16.123553 23.033980 -1.413235 0.795413 0.001102 -0.005008 -168071.000000 0 1 0
2.064836 -17.594915 16.231453 24.027164 -1.453977 0.829091 0.007429 -0.009244 1061550.000000 0 1 0
0.543536 -17.710115 15.856653 23.777658 -1.540115 0.840793 0.021886 -0.004536 499874.000000 0 1 0
0.256536 -17.078515 14.598353 22.468943 -1.555776 0.863590 0.023145 -0.013814 -145764.000000 0 1 0
-1.106864 -17.236315 14.228153 22.377579 1.506667 0.881723 0.018227 -0.013521 95412.400000 0 1 0
-1.526164 -18.406615 13.336553 22.781490 1.488072 0.945408 0.016065 0.001686 -740392.000000 0 1 0
-2.913964 -18.310415 13.209653 22.765267 1.412977 0.951755 0.013583 -0.010469 -663708.000000 0 1 0
-3.412564 -19.424115 12.510753 23.355101 1.396884 1.005489 0.028796 -0.019749 -1125500.000000 0 1 0
-4.902064 -19.488315 12.309653 23.565912 1.324370 1.021192 0.034675 -0.024938 -1253550.000000 0 1 0
-5.673264 -19.814715 13.420253 24.594959 1.291941 0.993631 0.037275 -0.026429 -267264.000000 0 1 0
-6.050364 -21.136415 13.316453 25.703752 1.291999 1.026198 0.013826 -0.014335 -405059.000000 0 0 1
-6.741864 -21.963515 14.412053 27.121135 1.272969 1.010549 0.025831 -0.010743 -35466.000000 0 0 1
-8.103464 -21.647715 14.570453 27.323759 1.212610 1.008356 0.025500 -0.007057 -254784.000000 0 0 1
-8.709564 -22.562915 15.484853 28.717979 1.202406 1.001305 0.020848 -0.005591 -1046530.000000 0 0 1
-10.191364 -22.343615 15.538353 29.060995 1.142865 1.006666 0.035732 0.000825 -1124130.000000 0 0 1
-10.482064 -21.179915 16.294953 28.705190 1.111232 0.967129 0.024593 0.005364 68979.000000 0 0 1
-11.736564 -20.604215 15.928453 28.565647 1.053015 0.979294 0.024532 0.003801 154124.000000 0 0 1
-11.925264 -19.350115 16.806853 28.268519 1.018486 0.934099 0.029273 0.004784 -269981.000000 0 0 1
-12.074864 -19.675515 18.192053 29.391819 1.020364 0.903392 0.024100 0.005947 -27005.000000 0 0 1
-12.420264 -18.580915 18.977753 29.320103 0.981566 0.866811 0.014781 0.002790 -342788.000000 0 0 1
-12.864164 -19.017715 20.361653 30.688061 0.976064 0.845304 0.020696 -0.000769 -198590.000000 0 0 1
-14.068264 -19.765015 20.338553 31.657994 0.952211 0.873110 0.041231 -0.004733 207692.000000 0 0 1
-14.146464 -20.527315 21.478753 32.906381 0.967387 0.859623 0.030951 0.005328 -237756.000000 0 0 1
-15.556064 -21.107415 21.675453 34.019691 0.935670 0.880009 0.037786 -0.002406 -579449.000000 0 0 1
-15.783664 -22.192415 20.834753 34.288690 0.952581 0.917726 0.037969 -0.000796 284085.000000 0 0 1
-17.047864 -22.320715 20.200153 34.596100 0.918541 0.947290 0.054458 -0.003301 743920.000000 0 0 1
-18.193564 -22.884515 21.112853 36.061882 0.899102 0.945347 0.059980 -0.013717 -87597.600000 0 0 1
-18.728964 -22.059315 22.099553 36.411231 0.866867 0.918588 0.056993 -0.012111 -206617.000000 0 0 1
-19.714864 -22.731015 22.840353 37.776403 0.856338 0.921508 0.071477 -0.012703 48016.000000 0 0 1
-20.458364 -21.828615 23.850213 38.260498 0.817790 0.897759 0.064530 -0.008596 339538.000000 0 0 1
-21.498364 -21.010415 23.316153 38.042873 0.773920 0.911082 0.060514 -0.002433 397181.000000 0 0 1
-21.608564 -19.889415 24.123183 38.005879 0.743995 0.883147 0.063085 -0.006737 87820.400000 0 0 1
-22.629164 -18.817215 23.723243 37.801573 0.693683 0.892364 0.077466 -0.011710 68375.400000 0 0 1
-22.122464 -18.065915 22.603253 36.423725 0.684801 0.901335 0.079375 -0.005120 45856.200000 0 0 1
-23.016364 -17.115515 22.075853 36.194435 0.639408 0.914832 0.066599 -0.008555 -421933.000000 0 0 1
-22.501064 -16.579615 20.699853 34.780245 0.635023 0.933330 0.061053 -0.005285 -418509.000000 0 0 1
-21.450064 -15.671815 20.796653 33.737395 0.630981 0.906599 0.072630 -0.008570 -795128.000000 0 0 1
-20.961264 -15.463415 19.514153 32.546796 0.635591 0.927830 0.065454 -0.002440 -165771.000000 0 0 1
-19.894064 -14.367115 19.418553 31.293258 0.625458 0.901372 0.043260 -0.014302 -50340.700000 0 0 1
-19.375164 -14.306315 18.107553 30.132227 0.636025 0.926124 0.050339 -0.013315 121267.000000 0 0 1
-18.780464 -13.045715 17.778653 28.965100 0.607121 0.909937 0.041313 -0.017155 -232116.000000 0 0 1
-18.172164 -13.056815 16.373553 27.727265 0.623039 0.939091 0.031585 -0.021335 -52525.200000 0 0 1
-17.917264 -11.814215 15.745053 26.617865 0.582938 0.937851 0.030980 -0.014534 -258990.000000 0 0 1
-16.708664 -11.203215 16.088853 25.759322 0.590654 0.896198 0.018512 -0.020591 -739955.000000 0 0 1
-16.497464 -9.954115 15.160753 24.517324 0.542896 0.904131 0.036829 -0.025367 254422.000000 0 1 0
-17.319164 -8.818915 15.427053 24.813719 0.470980 0.899866 0.049378 -0.023149 353417.000000 0 1 0
-16.910964 -7.769115 14.566753 23.633242 0.430654 0.906675 0.053729 -0.020339 -522668.000000 0 1 0
-17.020864 -6.316615 15.225053 23.694128 0.355356 0.872953 0.052588 -0.021244 491045.000000 0 1 0
-16.231264 -6.032715 16.385553 23.839755 0.355850 0.813003 0.053619 -0.019295 11640.000000 0 1 0
-14.833164 -5.997915 16.255753 22.808929 0.384258 0.777467 0.060227 -0.020774 -408468.000000 0 1 0
-14.095764 -5.974415 17.617353 23.339994 0.400892 0.715426 0.061830 -0.016725 22651.600000 0 1 0
-14.172064 -7.187815 18.392553 24.306339 0.469377 0.712549 0.056532 -0.019894 44132.500000 0 1 0
-13.547864 -8.318015 17.814153 23.876307 0.550630 0.728608 0.061053 -0.020872 -232529.000000 0 1 0
-13.614164 -9.542115 18.725453 25.040767 0.611327 0.726056 0.040076 -0.019630 1058130.000000 0 0 1
-14.919764 -10.090215 18.996553 26.177869 0.594641 0.758785 0.043222 -0.018148 508829.000000 0 0 1
-15.533364 -9.746715 20.191353 27.275898 0.560373 0.737334 0.031007 -0.009801 -1357260.000000 0 0 1
-16.845864 -10.545615 20.395053 28.477207 0.559323 0.772471 0.022434 -0.010839 1046010.000000 0 0 1
-17.946464 -10.369115 19.469153 28.436632 0.523921 0.816672 0.025539 -0.018837 993133.000000 0 0 1
-18.239664 -9.000715 19.125753 27.919396 0.458409 0.816145 0.028404 -0.014016 -818572.000000 0 0 1
-19.387764 -8.821015 18.063353 27.928130 0.426986 0.867442 0.040845 -0.015892 -183887.000000 0 0 1
-20.653564 -9.116915 18.528153 29.205827 0.415697 0.883565 0.039226 -0.014203 -1311980.000000 0 0 1
-21.571664 -9.113915 17.475653 29.219832 0.399747 0.929699 0.055162 -0.007702 -941464.000000 0 0 1
-22.951364 -9.330115 18.052053 30.654409 0.386112 0.941112 0.064491 -0.004777 -995691.000000 0 0 1
-23.568564 -8.297115 18.744553 31.235838 0.338492 0.927173 0.067965 -0.005754 -860357.000000 0 0 1
-24.938664 -8.432015 18.797953 32.348089 0.326043 0.950698 0.092411 -0.009979 -947934.000000 0 0 1
-25.716684 -7.281815 19.461953 33.062672 0.275932 0.941423 0.084196 -0.012679 -153269.000000 0 0 1
-25.589604 -7.409015 20.873053 33.843843 0.281826 0.906194 0.079866 -0.011347 246651.000000 0 0 1
-26.209674 -6.271415 21.444953 34.440727 0.234863 0.898655 0.080082 -0.013387 -476288.000000 0 0 1
-26.332734 -6.286215 22.997453 35.521996 0.234337 0.866609 0.073783 -0.013799 814730.000000 0 0 1
-25.150054 -5.885015 23.691313 35.049065 0.229860 0.828547 0.068884 -0.017968 627620.000000 0 0 1
-24.072064 -6.804615 23.758423 34.499706 0.275489 0.811163 0.071606 -0.017204 355716.000000 0 0 1
-23.049064 -6.505115 24.906723 34.553158 0.275074 0.765807 0.070048 -0.019740 40988.000000 0 0 1
-22.474464 -5.246115 24.767163 33.853148 0.229319 0.750122 0.056957 -0.016932 -198393.000000 0 0 1
-21.630864 -5.029215 25.864773 34.090670 0.228443 0.709473 0.055283 -0.021840 -366020.000000 0 0 1
-20.905164 -3.712515 25.866273 33.464500 0.175756 0.687324 0.042009 -0.022608 -222096.000000 0 0 1
-19.958064 -3.507115 26.934383 33.705863 0.173948 0.644998 0.035717 -0.019969 50524.600000 0 0 1
-20.372964 -3.396515 28.309633 35.043249 0.165197 0.630304 0.038245 -0.018233 -575722.000000 0 0 1
-21.265364 -2.245615 28.751093 35.831325 0.105210 0.639489 0.046330 -0.024364 -364344.000000 0 0 1
-22.546264 -2.275215 28.206993 36.182110 0.100573 0.676795 0.053853 -0.024000 -1076560.000000 0 0 1
-23.449664 -1.433115 28.865563 37.217755 0.061039 0.683154 0.055270 -0.016660 222267.000000 0 0 1
-24.777864 -1.296115 28.092363 37.480706 0.052262 0.723467 0.067755 -0.018358 -364437.000000 0 0 1
-24.564464 -0.583415 26.857353 36.401520 0.023746 0.740978 0.069256 -0.021999 403445.000000 0 0 1
-25.782354 -0.240915 26.216823 36.771044 0.009344 0.777065 0.077046 -0.016348 523987.000000 0 0 1
-26.624094 -1.393715 25.531313 36.913856 0.052300 0.807031 0.072975 -0.018219 345466.000000 0 0 1
-27.487774 -2.090515 26.443563 38.199608 0.075906 0.806198 0.062853 -0.017288 155988.000000 0 0 1
-27.715004 -3.499215 26.212913 38.307738 0.125593 0.817191 0.048790 -0.007636 546901.000000 0 0 1
-26.474464 -4.469715 26.278003 37.568724 0.167254 0.796148 0.063667 -0.013633 510164.000000 0 0 1
-26.002124 -4.624115 27.588053 38.191538 0.175996 0.763587 0.072224 -0.014578 -673.482000 0 0 1
-25.115294 -5.748515 27.633293 37.781243 0.225009 0.750420 0.088652 -0.021353 16246.500000 0 0 1
-24.982464 -6.316215 29.021863 38.810909 0.247637 0.726090 0.076541 -0.022440 -1294960.000000 0 0 1
-26.184014 -6.640015 29.564303 40.046728 0.248355 0.740331 0.074714 -0.014660 -1346270.000000 0 0 1
-26.115974 -7.395615 30.804643 41.056854 0.275958 0.722292 0.077083 -0.009245 -884589.000000 0 0 1
-27.459664 -7.759515 31.412163 42.437804 0.275398 0.737439 0.041469 -0.011503 -357295.000000 0 0 1
-28.196884 -8.694815 30.609673 42.516070 0.299110 0.767058 0.047924 -0.014665 2044360.000000 0 0 1
-29.534324 -9.007815 31.171073 43.875424 0.296033 0.780666 0.054365 -0.006675 1716590.000000 0 0 1
-30.346384 -9.884315 30.227583 43.958042 0.314880 0.812554 0.039147 -0.014337 -452064.000000 0 0 1
-29.897044 -11.209415 30.047023 43.844131 0.358713 0.815761 0.056145 -0.018532 -389137.000000 0 0 1
-30.791434 -11.899915 29.263183 44.114105 0.368787 0.845507 0.031809 -0.010232 -448175.000000 0 0 1
-30.212354 -13.203415 28.659493 43.686188 0.412008 0.855248 0.045303 -0.020134 311746.000000 0 0 1
-29.143594 -12.885615 27.783393 42.276531 0.416300 0.853722 0.066931 -0.028818 -238673.000000 0 0 1
-28.274964 -13.914515 27.396373 41.757018 0.457319 0.855170 0.073510 -0.030505 182582.000000 0 0 1
-27.004654 -13.252315 26.755183 40.258105 0.456214 0.843850 0.093063 -0.032073 432621.000000 0 0 1
-26.102774 -12.510615 27.602923 39.997396 0.446937 0.809144 0.083635 -0.033683 293836.000000 0 0 1
-26.578184 -11.311615 28.175483 40.351089 0.402377 0.797835 0.085598 -0.036836 -883968.000000 0 0 1
-26.590834 -10.035115 27.296053 39.406224 0.360864 0.805593 0.095233 -0.031524 533208.000000 0 0 1
-25.336554 -9.559715 26.789703 38.092221 0.360794 0.790788 0.077695 -0.029574 417734.000000 0 0 1
-24.697764 -10.285915 25.742183 37.127343 0.394625 0.804671 0.071027 -0.033392 -154445.000000 0 0 1
-25.418854 -10.404115 24.388903 36.731218 0.388504 0.844663 0.078785 -0.024104 -215386.000000 0 0 1
-26.557154 -11.253115 24.380923 37.766976 0.400796 0.869037 0.090578 -0.029228 32805.000000 0 0 1
-27.218454 -11.106915 23.142853 37.413894 0.387440 0.903884 0.097747 -0.020844 -871037.000000 0 0 1
-28.457994 -11.985815 22.863053 38.421822 0.398627 0.933464 0.103104 -0.031916 1106570.000000 0 0 1
-29.686714 -11.517415 23.487303 39.567730 0.370089 0.935275 0.087995 -0.024727 833582.000000 0 0 1
-29.664964 -11.403915 24.891433 40.368835 0.367007 0.906379 0.094563 -0.024865 -1541650.000000 0 0 1
-30.980334 -11.093915 25.623963 41.706637 0.343868 0.909189 0.053194 -0.018409 -423442.000000 0 0 1
-31.457174 -9.805815 25.361753 41.580360 0.302174 0.914805 0.043422 -0.015869 2527830.000000 0 0 1
-32.935324 -9.595815 25.439043 42.707847 0.283505 0.932718 0.032482 -0.008218 2974900.000000 0 0 1
-33.566284 -9.587015 26.859823 44.046071 0.278207 0.914973 0.009683 0.001948 -470425.000000 0 0 1
-33.941014 -10.840215 27.432033 44.966867 0.309144 0.914673 0.012465 -0.007571 517166.000000 0 0 1
-34.746369 -10.598315 28.601453 46.235025 0.296055 0.903824 -0.002647 -0.003540 -173201.000000 0 0 1
-35.304237 -11.889715 29.222983 47.346987 0.324848 0.905606 0.001980 0.010218 140404.000000 0 0 1
36.234793 -12.453315 28.524523 47.767077 -0.331037 0.930842 0.002600 0.005281 342544.000000 0 0 1
35.048933 -12.141115 29.231083 47.225952 -0.333468 0.903376 -0.001982 0.015029 -25699.400000 0 0 1
33.730643 -12.559615 28.532423 45.930375 -0.356446 0.900510 0.010321 0.007075 99818.000000 0 0 1
33.553763 -11.844315 27.299853 44.848910 -0.339341 0.916366 0.018117 0.009672 -363757.000000 0 0 1
32.692513 -12.558615 26.485833 43.909208 -0.366763 0.923295 0.017935 0.009734 -408977.000000 0 0 1
32.913243 -12.114615 25.001813 43.071291 -0.352688 0.951484 0.014196 -0.000175 14494.900000 0 0 1
32.415303 -10.832515 24.724113 42.182662 -0.322511 0.944534 0.031414 -0.005911 95002.900000 0 0 1
32.481083 -10.521315 23.382853 41.382081 -0.313256 0.970305 0.031956 -0.009894 -410358.000000 0 0 1
32.261493 -9.069215 23.040953 40.668662 -0.274043 0.968480 0.056916 0.002295 935026.000000 0 0 1
30.871813 -8.718815 23.211453 39.596188 -0.275251 0.944431 0.069321 -0.013888 756458.000000 0 0 1
30.621343 -7.381315 22.797053 38.882593 -0.236539 0.944306 0.082411 -0.004757 1057450.000000 0 0 1
29.077433 -7.081815 23.019053 37.756138 -0.238899 0.915143 0.072080 0.001977 778993.000000 0 0 1
28.443363 -7.666315 21.954753 36.739739 -0.263273 0.930323 0.068025 0.002636 -845645.000000 0 0 1
27.094083 -7.835915 22.301853 35.956411 -0.281530 0.901739 0.068341 -0.006433 -497524.000000 0 0 1
15.047536 -17.669215 25.924293 34.795092 -0.865360 0.730177 0.056711 0.000244 126735.000000 0 0 1
14.151636 -18.750015 25.950033 35.003372 -0.924260 0.735705 0.048543 -0.003507 51758.200000 0 0 1
14.903636 -19.915615 25.959453 35.953348 -0.928359 0.764062 0.041954 -0.005643 -474803.000000 0 0 1
14.088736 -21.220315 26.197923 36.539368 -0.984693 0.771339 0.020449 -0.012930 349458.000000 0 0 1
13.390336 -21.473015 27.419463 37.312443 -1.013212 0.745334 0.024983 -0.012368 353258.000000 0 0 1
12.363636 -20.584215 27.771173 36.712497 -1.029909 0.712928 0.037224 -0.011686 -1018330.000000 0 0 1
11.504536 -21.130015 28.885373 37.592508 -1.072213 0.694489 0.029249 -0.010004 -452731.000000 0 0 1
11.857236 -20.684015 30.205733 38.481279 -1.050274 0.668187 0.031904 -0.005723 -290350.000000 0 0 1
11.162936 -19.661915 30.840533 38.240561 -1.054432 0.632609 0.044340 -0.005611 -322557.000000 0 0 1
11.115736 -18.273715 30.164463 36.978143 -1.024303 0.616793 0.043884 -0.003668 1925350.000000 0 0 1
12.399436 -17.559315 30.293483 37.145264 -0.955958 0.617133 0.036553 0.009794 1568920.000000 0 0 1
12.115136 -16.253415 29.717633 35.973431 -0.930252 0.598646 0.044218 0.006451 -139307.000000 0 0 1
13.249836 -15.243915 29.698643 35.915797 -0.855267 0.597230 0.042977 0.005366 -371672.000000 0 0 1
12.831136 -13.872315 29.381213 34.933291 -0.824369 0.571545 0.068099 0.000739 -435897.000000 0 0 1
13.609936 -12.935915 29.973553 35.369226 -0.760013 0.559638 0.067794 0.004592 -722471.000000 0 0 1
13.246236 -11.427015 29.685183 34.456487 -0.711799 0.532527 0.069917 -0.001124 -122412.000000 0 0 1
13.338836 -10.841515 28.401503 33.198017 -0.682484 0.544246 0.091659 -0.004244 115949.000000 0 0 1
14.655336 -10.697015 27.903563 33.283837 -0.630516 0.576544 0.083583 -0.009173 -178631.000000 0 0 1
14.933736 -9.579115 26.923833 32.243894 -0.570335 0.582653 0.081761 -0.002853 -151273.000000 0 0 1
15.029836 -8.227215 27.301313 32.232665 -0.500839 0.560466 0.084853 -0.003517 520185.000000 0 0 1
16.130336 -7.974615 28.174283 33.430113 -0.459146 0.568366 0.078857 -0.009781 -302807.000000 0 0 1
16.643536 -6.558215 28.084723 33.298185 -0.375358 0.567158 0.077943 -0.016214 335945.000000 0 0 1
18.032236 -6.409415 28.372393 34.223308 -0.341515 0.593413 0.064317 -0.023979 353214.000000 0 0 1
18.588036 -5.283515 27.732493 33.801210 -0.276939 0.608584 0.056595 -0.022492 1108300.000000 0 0 1
20.150636 -5.434415 27.551553 34.563985 -0.263422 0.648290 0.047482 -0.020863 64571.400000 0 0 1
20.563336 -6.362815 26.570573 34.195490 -0.300081 0.680879 0.044004 -0.009955 652720.000000 0 0 1
21.914136 -6.290915 26.104013 34.658685 -0.279554 0.717923 0.042656 -0.005903 809033.000000 0 0 1
23.052836 -6.460515 27.143163 36.192855 -0.273239 0.722796 0.044961 -0.012740 -1032390.000000 0 0 1
23.348136 -5.241715 27.784923 36.668965 -0.220841 0.710979 0.053004 -0.016473 518290.000000 0 0 1
24.340836 -5.372115 28.838243 38.117977 -0.217221 0.712772 0.067491 -0.033845 566526.000000 0 0 1
24.888636 -4.031215 29.391413 38.724024 -0.160576 0.709025 0.068242 -0.030939 -475963.000000 0 0 1
25.763336 -3.380315 28.532953 38.591520 -0.130461 0.738680 0.057011 -0.021146 -231240.000000 0 0 1
25.913736 -2.051015 28.921503 38.886781 -0.078983 0.732154 0.048091 -0.023675 -865977.000000 0 0 1
26.781736 -1.243915 27.976863 38.749369 -0.046413 0.764114 0.048223 -0.019231 -222014.000000 0 0 1
28.153936 -1.494615 28.197253 39.874341 -0.053037 0.785333 0.059049 -0.013067 -441762.000000 0 0 1
28.930736 -0.876415 27.224903 39.736015 -0.030284 0.815995 0.053572 -0.004514 1037400.000000 0 0 1
30.477936 -0.777915 27.533343 41.080344 -0.025518 0.836276 0.051085 -0.013447 1149520.000000 0 0 1
30.783736 0.184885 28.504613 41.954565 0.006006 0.823830 0.038096 -0.000994 332003.000000 0 0 1
32.174036 0.302185 28.790523 43.175851 0.009392 0.840863 0.052278 -0.005943 368265.000000 0 0 1
32.527936 1.542485 29.681753 44.061915 0.047385 0.831677 0.041844 -0.012248 -123663.000000 0 0 1
32.492436 2.752985 28.992583 43.633785 0.084525 0.844035 0.038109 -0.012453 10445.200000 0 0 1
32.845436 3.635085 30.011843 44.640197 0.110224 0.833478 0.034120 0.000018 -109592.000000 0 0 1
33.007336 5.061985 29.531663 44.578325 0.152174 0.846689 0.032699 0.002906 -47212.500000 0 0 1
33.048036 5.992585 30.615023 45.446269 0.179380 0.831656 0.037940 0.003171 -419749.000000 0 0 1
31.798036 6.377985 31.100663 44.933785 0.197951 0.806341 0.026599 0.004430 -759231.000000 0 0 1
31.865436 7.306185 32.363553 46.002021 0.225387 0.790451 0.022601 -0.003036 -308444.000000 0 0 1
32.376536 6.635585 33.492318 47.053230 0.202151 0.778744 0.026635 0.003774 88526.400000 0 0 1
32.506236 7.498185 -33.896134 47.558659 0.226704 2.364168 0.033704 0.000837 -594156.000000 0 0 1
33.287336 6.760485 -32.853394 47.255649 0.200370 2.339532 0.054088 0.000308 -359467.000000 0 0 1
32.588336 5.721285 -32.126104 46.117451 0.173791 2.341465 0.036864 0.001899 449412.000000 0 0 1
32.491636 4.456485 -32.769064 46.361387 0.136307 2.355786 0.052329 -0.003145 6086.770000 0 0 1
32.528536 3.365585 -31.701504 45.545781 0.103099 2.340658 0.054443 -0.005904 -67211.000000 0 0 1
32.337036 2.065185 -32.279614 45.737538 0.063778 2.354288 0.051753 -0.006516 269387.000000 0 0 1
32.698136 1.057585 -31.333794 45.300035 0.032333 2.334629 0.050144 -0.009693 19090.800000 0 0 1
32.685536 -0.365715 -31.906384 45.678171 -0.011188 2.344101 0.058196 -0.028393 -190637.000000 0 0 1
33.779136 -0.616215 -32.777434 47.071965 -0.018240 2.341062 0.047102 -0.029562 282942.000000 0 0 1
34.364036 -1.941315 -32.836214 47.569661 -0.056433 2.332667 0.048363 -0.030192 319053.000000 0 0 1
35.420936 -2.180315 -31.760584 47.624901 -0.061477 2.300824 0.050627 -0.030105 -810632.000000 0 0 1
34.884636 -1.982715 -30.498084 46.378897 -0.056775 2.288406 0.066228 -0.029630 478821.000000 0 0 1
35.824636 -1.516015 -29.462404 46.408362 -0.042292 2.258612 0.078297 -0.029785 455032.000000 0 0 1
35.064936 -1.336415 -28.146104 44.983763 -0.038094 2.246818 0.083533 -0.032606 286021.000000 0 0 1
34.192936 -0.194215 -28.149324 44.289717 -0.005680 2.259546 0.075703 -0.015117 256648.000000 0 0 1
33.442236 -0.159915 -26.985794 42.972570 -0.004782 2.249748 0.083236 -0.012458 -415540.000000 0 0 1
32.770036 1.207985 -26.884034 42.403841 0.036846 2.257511 0.058697 0.006015 -408144.000000 0 0 1
31.757036 1.482585 -27.807224 42.236821 0.046651 2.289440 0.070871 -0.006866 79425.800000 0 0 1
31.300636 2.798885 -27.540984 41.785995 0.089182 2.290412 0.051960 0.012739 -64820.200000 0 0 1
30.458436 3.334285 -28.700254 41.982596 0.109036 2.323511 0.057201 0.001898 8885.930000 0 0 1
29.568136 4.411385 -28.410264 41.241703 0.148101 2.330728 0.050289 0.003936 393561.000000 0 0 1
28.896536 4.886585 -29.541494 41.612358 0.167521 2.360183 0.050732 0.005591 507187.000000 0 0 1
27.630736 5.750185 -29.149704 40.573728 0.205180 2.372350 0.052770 -0.002288 565683.000000 0 0 1
26.589336 4.996085 -28.548374 39.331454 0.185732 2.383052 0.067847 -0.002128 344222.000000 0 0 1
25.651036 5.887885 -27.971604 38.406425 0.225629 2.386642 0.067926 -0.003700 -259024.000000 0 0 1
24.282336 5.258785 -27.651594 37.173879 0.213275 2.409601 0.070901 -0.003281 -188998.000000 0 0 1
23.441336 5.142685 -28.788024 37.479244 0.215964 2.446674 0.072956 -0.007919 367572.000000 0 0 1
22.210736 4.560885 -28.396624 36.338502 0.202531 2.467778 0.082156 -0.009528 238649.000000 0 0 1
21.254736 4.302585 -29.608744 36.700869 0.199731 2.509442 0.077158 -0.007656 98775.000000 0 0 1
21.600036 3.062085 -30.314814 37.348706 0.140825 2.517801 0.073254 -0.018366 1085590.000000 0 0 1
20.578536 2.623185 -31.258314 37.515856 0.126788 2.555671 0.052653 -0.023834 739416.000000 0 0 1
20.818636 3.190685 -32.638564 38.844201 0.152078 2.568527 0.059455 -0.015336 -14348.500000 0 0 1
21.966136 2.698985 -33.288284 39.973810 0.122258 2.554857 0.074442 -0.016379 -61235.000000 0 0 1
22.379936 3.474985 34.080710 40.919822 0.154042 0.586531 0.056726 -0.027008 627061.000000 0 0 1
23.841336 3.224085 33.554712 41.288288 0.134415 0.622037 0.065064 -0.017290 782062.000000 0 0 1
23.892736 1.904885 33.099878 40.866776 0.079558 0.626736 0.079451 -0.024295 601816.000000 0 0 1
25.284436 1.722885 32.811477 41.459185 0.068035 0.657674 0.075690 -0.026555 466551.000000 0 0 1
25.659136 0.175785 32.831225 41.669071 0.006851 0.663399 0.062786 -0.029590 -392580.000000 0 0 1
25.254236 -0.555915 31.674403 40.513618 -0.022009 0.673215 0.060239 -0.030556 -43363.500000 0 0 1
23.867736 -0.598815 31.442713 39.480015 -0.025084 0.649443 0.069037 -0.039155 121680.000000 0 0 1
22.969536 -1.554015 32.355123 39.709804 -0.067553 0.618431 0.069869 -0.040249 488.758000 0 0 1
23.023036 -2.938815 31.973293 39.509344 -0.126960 0.627907 0.074122 -0.049142 -129573.000000 0 0 1
22.131636 -3.717315 32.701198 39.661015 -0.166411 0.601447 0.076594 -0.044936 -528890.000000 0 0 1
22.080536 -5.179615 32.248873 39.425478 -0.230412 0.612922 0.072686 -0.045896 -133423.000000 0 0 1
23.301436 -5.840815 32.484054 40.401557 -0.245603 0.636754 0.080987 -0.035085 -110590.000000 0 0 1
23.189336 -7.228415 32.290383 40.406239 -0.302168 0.644927 0.086521 -0.036551 294756.000000 0 0 1
24.523536 -8.027015 32.054893 41.150370 -0.316328 0.677775 0.075844 -0.033634 561810.000000 0 0 1
25.153836 -7.668315 30.840153 40.529416 -0.295906 0.706047 0.084033 -0.035128 131988.000000 0 0 1
26.329636 -8.440215 30.607363 41.246789 -0.310210 0.734666 0.078269 -0.031772 148460.000000 0 0 1
26.968436 -8.290715 29.280353 40.661672 -0.298253 0.766854 0.069638 -0.020297 -61399.100000 0 0 1
26.138336 -8.867815 28.267803 39.508473 -0.327079 0.773475 0.056239 -0.017702 66069.200000 0 0 1
26.468036 -8.489015 26.942063 38.710400 -0.310362 0.800998 0.068840 -0.015767 -192435.000000 0 0 1
25.681036 -9.215115 25.874023 37.601848 -0.344519 0.811922 0.039368 -0.011218 -769296.000000 0 0 1
24.325836 -8.910815 25.770143 36.541062 -0.351131 0.788038 0.046256 -0.015712 -656624.000000 0 0 1
23.735336 -9.816115 24.844283 35.734586 -0.392146 0.802036 0.051615 -0.013649 351698.000000 0 0 1
22.258436 -9.527015 24.471193 34.424428 -0.404424 0.780066 0.018683 0.002608 218189.000000 0 0 1
21.336936 -9.698315 25.522543 34.651441 -0.426616 0.742840 0.017596 0.004497 91173.200000 0 0 1
20.041436 -9.328215 25.064843 33.420369 -0.435625 0.722754 0.030780 0.006440 81928.100000 0 0 1
19.043936 -9.171815 26.226863 33.684448 -0.448830 0.678357 0.046557 -0.012127 -350733.000000 0 0 1
18.362536 -10.355515 26.657533 33.985931 -0.513489 0.669117 0.051712 -0.005308 194812.000000 0 0 1
19.222936 -11.311815 27.263193 35.224425 -0.531887 0.685685 0.038709 -0.003654 -369551.000000 0 0 1
18.626136 -12.466815 28.058433 35.911420 -0.589836 0.674013 0.052345 -0.010268 -216050.000000 0 0 1
17.834436 -13.312115 27.232173 35.169173 -0.641211 0.685157 0.056155 -0.006560 680205.000000 0 0 1
16.942836 -14.183915 27.966103 35.641914 -0.696994 0.668680 0.050914 -0.002223 352366.000000 0 0 1
17.602536 -15.361515 28.732913 37.032495 -0.717519 0.682682 0.055137 0.003949 133313.000000 0 0 1
16.597036 -16.242515 29.261523 37.356627 -0.774603 0.670836 0.052787 0.006115 852023.000000 0 0 1
17.141436 -17.495515 29.713343 38.507202 -0.795620 0.689395 0.055863 0.002310 -57098.800000 0 0 1
17.689836 -18.554515 28.781593 38.543228 -0.809251 0.727656 0.048560 0.003347 -292061.000000 0 0 1
18.840536 -18.167015 28.076683 38.383673 -0.767201 0.750314 0.060791 -0.005469 57892.000000 0 0 1
19.134736 -19.151515 27.112673 38.314693 -0.785836 0.784656 0.051483 -0.000679 -131549.000000 0 0 1
20.255736 -18.614515 26.218013 38.002358 -0.743200 0.809439 0.060291 -0.011617 801713.000000 0 0 1
21.567236 -18.430315 26.796413 39.023966 -0.707131 0.813904 0.080970 -0.014806 583644.000000 0 0 1
22.433236 -17.944515 25.828063 38.630875 -0.674685 0.838491 0.061532 -0.013138 368083.000000 0 0 1
23.827436 -17.586915 26.456933 39.711655 -0.635838 0.841660 0.062267 -0.012564 338609.000000 0 0 1
24.677136 -18.660115 26.732063 40.887212 -0.647438 0.858201 0.060024 -0.013786 -372232.000000 0 0 1
25.991936 -18.221915 26.964583 41.649822 -0.611437 0.866613 0.047685 -0.016226 -429387.000000 0 0 1
26.873236 -19.441715 27.148703 42.862608 -0.626298 0.884871 0.041646 -0.004626 -376067.000000 0 0 1
26.442136 -20.197615 28.294383 43.677251 -0.652301 0.866096 0.048591 -0.009026 281863.000000 0 0 1
27.230836 -21.386115 28.397703 44.780731 -0.665753 0.883888 0.050425 0.002336 19939.700000 0 0 1
26.604136 -22.557315 29.126103 45.441637 -0.703266 0.875053 0.059629 0.000713 -160998.000000 0 0 1
26.572236 -22.430915 30.572653 46.302449 -0.701087 0.849603 0.065104 -0.004989 272107.000000 0 0 1
25.681436 -23.358315 31.218933 46.687994 -0.738061 0.838376 0.069047 -0.005231 -150828.000000 0 0 1
25.529736 -23.319315 32.692372 47.585177 -0.740179 0.813405 0.061267 -0.008227 44937.200000 0 0 1
24.903936 -24.506815 33.227456 48.216738 -0.777361 0.810513 0.055133 -0.008411 202324.000000 0 0 1
24.731536 -24.415015 -33.857364 48.518686 -0.778958 2.343147 0.053666 -0.005398 -300940.000000 0 0 1
24.616036 -25.793095 -33.159204 48.690510 -0.808744 2.319951 0.051793 -0.008228 450923.000000 0 0 1
23.447436 -26.595395 -33.357384 48.680718 -0.848221 2.325713 0.063417 -0.009311 208355.000000 0 0 1
23.113736 -26.955685 33.769528 49.002395 -0.861981 0.810494 0.051275 -0.008828 160441.000000 0 0 1
21.811036 -27.807875 33.733565 48.856449 -0.905673 0.808668 0.073283 -0.014406 414483.000000 0 0 1
21.999836 -29.168435 33.968750 49.886535 -0.924591 0.821778 0.075163 -0.020925 381002.000000 0 0 1
20.738836 -29.812765 34.180359 49.871808 -0.963005 0.815692 0.096143 -0.028156 119076.000000 0 0 1
20.620036 -31.316475 -34.100213 50.682660 -0.988510 2.308808 0.066238 -0.021910 -138478.000000 0 0 1
21.246536 -32.011985 -33.001884 50.648858 -0.984846 2.280464 0.055014 -0.022529 -332320.000000 0 0 1
22.603736 -32.243985 -33.181464 51.493815 -0.959385 2.271006 0.036756 -0.008952 -1131220.000000 0 0 1
23.210536 -32.993385 -31.950124 51.459720 -0.957732 2.240656 0.024459 -0.004977 -706572.000000 0 0 1
24.360836 -33.765995 -32.299424 52.695783 -0.945812 2.230574 0.017219 -0.001783 838648.000000 0 0 1
25.072236 -34.234005 -31.123924 52.623975 -0.938669 2.203640 0.018404 0.005721 465789.000000 0 0 1
25.851436 -33.118575 -30.351804 51.830191 -0.908014 2.196417 0.021560 -0.007141 -746572.000000 0 0 1
26.485036 -33.698945 -29.218984 51.873163 -0.904693 2.169143 0.032646 0.000440 -149675.000000 0 0 1
26.972136 -32.674755 -28.386204 50.999140 -0.880715 2.161086 0.036225 -0.000070 -279590.000000 0 0 1
27.470636 -33.083005 -27.010614 50.780846 -0.877818 2.131646 0.039188 0.001222 -366621.000000 0 0 1
28.673336 -33.761315 -27.052034 51.901822 -0.866711 2.119071 0.039490 0.005957 -451939.000000 0 0 1
29.618236 -33.479685 -26.024024 51.724066 -0.846520 2.098015 0.046114 0.001032 490266.000000 0 0 1
-26.955024 -30.169117 9.507106 41.558802 0.841604 1.339990 0.038037 -0.001904 -86325.300000 0 0 1
-26.866504 -31.533817 9.899806 42.593390 0.865148 1.336225 0.043502 -0.008392 84794.300000 0 0 1
-25.630384 -31.753517 10.556106 42.150134 0.891701 1.317661 0.021188 -0.010034 252322.000000 0 0 1
-25.748674 -32.996217 11.437806 43.388570 0.908151 1.304030 0.020754 -0.006211 192829.000000 0 0 1
-25.779464 -34.223717 10.695706 44.161541 0.925210 1.326169 0.020185 -0.003228 157833.000000 0 0 1
-26.591564 33.246885 11.315806 44.051267 -0.896164 1.311006 0.014015 -0.010647 336987.000000 0 0 1
-26.063914 31.804185 11.096606 42.590709 -0.884270 1.307214 0.026916 -0.007798 153537.000000 0 0 1
-26.131184 31.471585 9.743706 42.050437 -0.877845 1.336956 0.042404 -0.014708 -124796.000000 0 0 1
-25.857034 30.102385 9.453506 40.793487 -0.861118 1.336930 0.052734 -0.009426 -15611.000000 0 0 1
-25.445304 29.866185 7.968406 40.036834 -0.865156 1.370431 0.037049 -0.002880 611384.000000 0 0 1
-24.022564 29.914185 7.830906 39.156930 -0.894199 1.369451 0.017306 -0.002791 518720.000000 0 0 1
-23.607064 29.536285 6.544506 38.373379 -0.896509 1.399410 0.002260 0.000368 786724.000000 0 0 1
-22.302064 28.643685 6.482506 36.876357 -0.909239 1.394088 0.034475 0.003453 769715.000000 0 0 1
-22.441164 27.319685 6.963706 36.034210 -0.883125 1.376320 0.034440 -0.004808 287984.000000 0 0 1
-23.035564 26.427685 5.987006 35.565489 -0.853870 1.401653 0.019345 -0.004604 -182573.000000 0 0 1
-23.305564 24.966385 6.396306 34.747409 -0.819790 1.385660 0.034378 -0.001613 -205822.000000 0 0 1
-24.410864 24.797385 7.290906 35.552186 -0.793253 1.364255 0.039033 -0.008261 688574.000000 0 0 1
-24.852064 23.404185 7.486106 34.948859 -0.755403 1.354922 0.047806 -0.014308 332792.000000 0 0 1
-25.400964 22.707785 6.182706 34.627711 -0.729475 1.391286 0.029000 -0.019825 -189531.000000 0 0 1
-26.762904 22.950385 5.833306 35.735147 -0.708858 1.406825 0.029279 -0.023351 307630.000000 0 0 1
-27.115744 22.502285 4.531106 35.526713 -0.692685 1.442907 0.019833 -0.019793 51122.100000 0 0 1
-26.682144 23.375585 3.282406 35.624837 -0.719439 1.478527 0.007482 -0.020064 -513893.000000 0 0 1
-25.326874 23.707585 3.346506 34.852536 -0.752387 1.474629 0.014518 -0.019721 -499728.000000 0 0 1
-25.005964 24.319985 2.101506 34.945333 -0.771492 1.510623 0.012662 -0.016201 941753.000000 0 0 1
-23.570364 24.976385 2.000706 34.400359 -0.814352 1.512604 0.027331 -0.007656 841312.000000 0 0 1
-23.344164 25.725285 0.829406 34.748068 -0.833886 1.546925 0.023877 -0.011720 -414927.000000 0 0 1
-22.090164 26.356885 0.864606 34.400702 -0.873241 1.545660 0.035541 -0.017280 -733384.000000 0 0 1
-21.618564 26.967585 -0.493794 34.566701 -0.895050 1.585082 0.042963 -0.014495 117964.000000 0 0 1
-21.191964 26.058285 -1.533094 33.622670 -0.888027 1.616409 0.041655 -0.017297 297969.000000 0 0 1
-20.045864 25.307385 -1.164794 32.305683 -0.900894 1.606860 0.047971 -0.027138 -377440.000000 0 0 1
-19.649364 24.292285 -2.254094 31.325606 -0.890669 1.642815 0.058402 -0.029886 241672.000000 0 0 1
-20.718864 23.416385 -2.573794 31.372326 -0.846442 1.652929 0.032315 -0.020726 718998.000000 0 0 1
-20.161864 22.436585 -3.429294 30.358873 -0.838747 1.683996 0.036785 -0.021433 588747.000000 0 0 1
-21.274664 21.812085 -4.354794 30.778932 -0.797871 1.712759 0.033491 -0.013284 621212.000000 0 0 1
-21.680864 22.584485 -5.493394 31.785157 -0.805809 1.744497 0.020579 -0.006684 5343.150000 0 0 1
-23.016364 22.254285 -5.795894 32.536113 -0.768566 1.749889 0.028248 -0.000368 56183.200000 0 0 1
-23.383264 22.952485 -7.118494 33.530085 -0.776102 1.784726 0.029131 0.002770 112342.000000 0 0 1
-22.785564 22.302285 -8.235294 32.930137 -0.774680 1.823563 0.023235 -0.000385 147506.000000 0 0 1
-22.634064 23.119485 -9.369994 33.683947 -0.796007 1.852689 0.028223 -0.000238 -299602.000000 0 0 1
-21.876964 22.447985 -10.566294 33.078092 -0.798280 1.895929 0.024755 -0.003029 377277.000000 0 0 1
-22.655664 21.723185 -11.549194 33.444877 -0.764389 1.923376 0.007972 -0.000236 -3690.160000 0 0 1
-21.810964 21.404385 -12.589694 33.050965 -0.775990 1.961585 0.008997 0.002303 -337077.000000 0 0 1
-22.493764 20.899085 -13.863994 33.689042 -0.748665 1.994927 0.000771 -0.005499 163530.000000 0 0 1
-23.264164 19.688085 -13.797594 33.454681 -0.702333 1.995912 0.014660 0.006765 1082360.000000 0 0 1
-24.490964 19.773285 -14.549194 34.676638 -0.679219 2.003765 0.011073 -0.004224 973356.000000 0 0 1
-25.219514 18.403385 -14.702294 34.508926 -0.630400 2.010911 0.044217 -0.010937 -18564.400000 0 0 1
-24.610464 17.570785 -15.646794 34.047461 -0.620031 2.048294 0.038959 -0.009475 9101.280000 0 0 1
-25.388974 16.405485 -16.015294 34.208619 -0.573675 2.058010 0.076755 -0.020566 -115358.000000 0 0 1
-24.979064 15.521385 -17.189194 34.063697 -0.555989 2.099737 0.081178 -0.007361 419046.000000 0 0 1
-23.779364 14.830185 -16.810294 32.679941 -0.557634 2.111095 0.080760 -0.005916 633104.000000 0 0 1
-23.267664 14.091885 -17.907794 32.567691 -0.544558 2.152997 0.093610 -0.016832 342076.000000 0 0 1
-22.360464 12.860585 -17.533294 31.189765 -0.521946 2.167778 0.104623 -0.010896 1130490.000000 0 0 1
-21.188064 13.225285 -16.788494 30.094780 -0.558013 2.162594 0.085310 -0.014712 991988.000000 0 0 1
-20.249764 12.212985 -16.434794 28.797785 -0.542709 2.178150 0.079382 -0.022318 560915.000000 0 0 1
-18.985964 12.711885 -15.696094 27.720502 -0.589990 2.172717 0.070552 -0.013218 663475.000000 0 0 1
-18.146064 13.602985 -16.493794 28.042220 -0.643270 2.199599 0.056891 -0.001449 738030.000000 0 0 1
-17.109464 14.156085 -15.710494 27.201988 -0.691217 2.186520 0.060183 0.013287 -30615.700000 0 0 1
-16.299064 15.318385 -16.304094 27.679160 -0.754391 2.200665 0.030279 0.019557 374088.000000 0 0 1
-15.465464 14.818185 -17.367294 27.575027 -0.764028 2.252117 0.040998 0.010795 688839.000000 0 0 1
-14.446064 15.730785 -17.794394 27.799044 -0.827946 2.265435 0.048274 0.005539 1282750.000000 0 0 1
-13.514364 15.133285 -18.949994 27.762504 -0.841850 2.322077 0.038335 0.006912 1011820.000000 0 0 1
-12.711064 13.998785 -18.571294 26.503398 -0.833572 2.347194 0.037963 0.007925 654577.000000 0 0 1
-11.582964 13.892685 -19.452494 26.562592 -0.875815 2.392529 0.035978 0.005670 642611.000000 0 0 1
-10.987364 12.470185 -19.526094 25.641686 -0.848527 2.436418 0.034796 -0.008711 415803.000000 0 0 1
-11.824164 11.551085 -20.270994 26.156292 -0.773716 2.457503 0.035116 -0.000964 517853.000000 0 0 1
-11.447264 10.209885 -20.064894 25.256318 -0.728325 2.488899 0.020666 0.004907 -291087.000000 0 0 1
-12.014964 9.287985 -21.159594 26.045239 -0.658081 2.519082 0.028245 -0.000991 -149580.000000 0 0 1
-11.419664 9.492885 -22.388594 26.865829 -0.693523 2.555934 0.029581 0.004344 103582.000000 0 0 1
-11.973764 8.640485 -23.437694 27.701165 -0.625088 2.579404 0.028098 0.007934 237630.000000 0 0 1
-11.344464 8.993485 -24.785994 28.704096 -0.670313 2.612965 0.032466 -0.012597 205531.000000 0 0 1
-9.940664 8.791785 -24.965594 28.273542 -0.724144 2.653016 0.033013 -0.012431 314925.000000 0 0 1
-9.597164 8.168185 -26.218064 29.089718 -0.705135 2.693518 0.016336 -0.022003 -362525.000000 0 0 1
-9.409864 9.160685 -27.406734 30.390669 -0.771981 2.694746 0.052631 -0.023121 -1818.410000 0 0 1
-8.149364 9.808685 -27.516454 30.327837 -0.877536 2.707615 0.060168 -0.023665 294871.000000 0 0 1
-8.002464 10.984385 -26.791584 30.041390 -0.941178 2.672154 0.043318 -0.018051 -870682.000000 0 0 1
-6.612864 11.578385 -26.851094 29.979497 -1.051869 2.680684 0.049030 -0.011494 -746175.000000 0 0 1
-6.191764 11.967185 -28.144624 31.203707 -1.093330 2.695093 0.060991 -0.020905 -420078.000000 0 0 1
-4.804264 12.072385 -28.098744 30.957436 -1.192054 2.708465 0.071206 -0.020702 -927747.000000 0 0 1
-4.162264 12.412485 -29.447954 32.226949 -1.247251 2.723261 0.073408 -0.020283 1556260.000000 0 0 1
-2.718664 12.623385 -29.343554 32.059089 -1.358669 2.727038 0.078440 -0.027383 1512380.000000 0 0 1
-2.058664 12.658385 -30.597224 33.176241 -1.409575 2.744691 0.079501 -0.020706 141276.000000 0 0 1
-0.584564 12.247885 -30.422214 32.800359 -1.523105 2.758455 0.073602 -0.029504 -279251.000000 0 0 1
-0.233464 10.903685 -30.064464 31.981508 -1.549388 2.793596 0.055043 -0.016285 -686548.000000 0 0 1
1.095436 10.537185 -30.244814 32.046545 1.467209 2.804674 0.050171 -0.020406 -419685.000000 0 0 1
1.623836 10.187885 -31.666734 33.304833 1.412737 2.826653 0.059552 -0.018966 -405339.000000 0 0 1
1.857036 11.243885 -32.544164 34.481824 1.407114 2.804760 0.064996 -0.016716 193333.000000 0 0 1
1.797436 10.738285 -33.864164 35.571381 1.404948 2.830520 0.065994 -0.015722 21957.900000 0 0 1
2.148936 11.749485 33.492187 35.558332 1.389900 0.342571 0.068077 -0.016002 -448505.000000 0 0 1
3.468836 12.196385 33.440774 35.764089 1.293698 0.362431 0.067008 -0.014773 -622671.000000 0 0 1
3.664436 12.813985 32.162393 34.814449 1.292259 0.392846 0.062638 -0.008430 -234917.000000 0 0 1
5.136736 12.936485 31.786903 34.700806 1.192815 0.412733 0.059077 -0.009697 -433623.000000 0 0 1
5.824636 11.819185 31.299053 33.959538 1.112916 0.398466 0.075520 -0.013685 -405475.000000 0 0 1
7.203336 11.970185 31.176203 34.163270 1.029074 0.421283 0.064622 -0.000870 -820692.000000 0 0 1
7.919336 10.739185 30.647433 33.426204 0.935392 0.410633 0.026733 0.002085 -324977.000000 0 0 1
7.528736 10.363385 29.364313 32.036612 0.942522 0.411339 0.041697 -0.008804 128842.000000 0 0 1
8.295336 9.245185 28.873663 31.432061 0.839497 0.406259 0.041515 -0.003404 284165.000000 0 0 1
7.534636 8.390985 27.818943 30.017877 0.839118 0.385140 0.035870 0.001251 81081.200000 0 0 1
6.607036 7.486585 28.375563 30.081131 0.847725 0.338358 0.039992 -0.002142 -155472.000000 0 0 1
6.095636 6.641685 27.376763 28.822837 0.828242 0.318108 0.046558 0.001006 -236633.000000 0 0 1
5.335336 5.464485 27.953003 28.977522 0.797356 0.266706 0.068751 -0.013872 336916.000000 0 0 1
6.251136 4.502685 28.509243 29.531810 0.624220 0.263923 0.050391 -0.015642 585544.000000 0 0 1
5.656836 3.863485 29.610313 30.392383 0.599209 0.227348 0.058497 -0.022507 -64965.300000 0 0 1
6.459036 2.672185 30.194523 30.993047 0.392272 0.227491 0.083923 -0.019315 975.739000 0 0 1
6.364436 1.464385 29.439543 30.155218 0.226153 0.218300 0.081842 -0.012444 -358537.000000 0 0 1
7.442436 1.219185 28.589583 29.567559 0.162373 0.257914 0.076641 -0.013536 -609413.000000 0 0 1
7.384836 -0.197415 27.997923 28.956147 -0.026726 0.257978 0.065676 -0.010743 -95759.800000 0 0 1
7.665836 -1.143415 28.953343 29.972796 -0.148066 0.261561 0.043335 -0.020826 17363.700000 0 0 1
7.671936 -2.428915 28.332813 29.453464 -0.306613 0.276738 0.050736 -0.019309 -418350.000000 0 0 1
8.217636 -3.549415 29.252393 30.591345 -0.407723 0.296958 0.057024 -0.010413 859761.000000 0 0 1
9.612736 -3.451615 29.563813 31.278385 -0.344729 0.332640 0.068519 -0.017329 791771.000000 0 0 1
10.475536 -4.089915 28.613063 30.743644 -0.372225 0.374479 0.069079 -0.005537 -326.535000 0 0 1
11.849736 -4.447115 29.206433 31.830941 -0.359027 0.408926 0.059477 -0.017271 206757.000000 0 0 1
12.697136 -5.341415 28.502343 31.656461 -0.398205 0.450191 0.071240 -0.014883 222544.000000 0 0 1
12.582436 -6.673715 28.945983 32.260287 -0.487670 0.457264 0.079551 -0.013489 -475418.000000 0 0 1
11.415036 -7.560415 28.509723 31.627001 -0.584988 0.447721 0.086716 -0.003083 226921.000000 0 0 1
10.115336 -7.146815 28.908033 31.449505 -0.615097 0.404781 0.075840 -0.001320 195551.000000 0 0 1
9.180836 -8.158615 28.596253 31.122282 -0.726513 0.405677 0.053171 -0.001943 -288167.000000 0 0 1
7.701336 -7.822515 28.470883 30.513825 -0.793204 0.368000 0.057694 -0.007257 -198730.000000 0 0 1
7.126336 -7.557715 29.766443 31.526891 -0.814767 0.335759 0.056904 0.000352 -235671.000000 0 0 1
5.745036 -7.331315 29.698133 31.124471 -0.906117 0.303912 0.027403 -0.005633 -73621.300000 0 0 1
5.073036 -6.659515 30.940073 32.052659 -0.919803 0.264249 0.027323 -0.000162 166444.000000 0 0 1
4.822136 -7.568915 32.001223 33.235820 -1.003545 0.273419 0.027365 0.006479 -341485.000000 0 0 1
4.481336 -6.893715 33.214529 34.217110 -0.994378 0.242672 0.037726 0.002355 -457981.000000 0 0 1
5.457236 -5.962515 33.932741 34.882143 -0.829615 0.233845 0.039587 -0.000400 -362660.000000 0 0 1
5.738836 -4.865715 33.103903 33.948164 -0.703249 0.223485 0.045937 0.005280 -276742.000000 0 0 1
6.318436 -3.747315 33.732260 34.522896 -0.535313 0.214428 0.058363 0.001178 -50615.900000 0 0 1
6.424736 -2.590115 32.696750 33.422498 -0.383217 0.208775 0.059740 -0.002122 835117.000000 0 0 1
5.127036 -2.101815 32.305503 32.777273 -0.389052 0.169870 0.058829 -0.007842 531263.000000 0 0 1
5.259936 -1.038215 31.385483 31.840122 -0.194877 0.169192 0.062164 -0.011528 113004.000000 0 0 1
3.872836 -0.482515 30.987603 31.232407 -0.123951 0.125287 0.051931 -0.006053 478952.000000 0 0 1
3.138136 -0.035015 32.136243 32.289120 -0.011157 0.097348 0.043205 -0.007902 -75976.400000 0 0 1
1.879036 0.531585 31.836773 31.896606 0.275699 0.061261 0.053674 -0.014169 376185.000000 0 0 1
0.963836 0.677885 33.092618 33.113591 0.612951 0.035593 0.044568 -0.015104 155660.000000 0 0 1
1.354036 1.734785 33.948586 34.019838 0.908046 0.064733 0.041857 -0.010577 470289.000000 0 0 1
0.498136 1.700285 -33.379654 33.426642 1.285800 3.088564 0.031070 -0.018526 348805.000000 0 0 1
0.872436 2.854085 -32.401074 32.538232 1.274137 3.049742 0.029840 -0.013245 -1316690.000000 0 0 1
1.958136 2.552385 -31.679274 31.842195 0.916391 3.040391 0.015708 -0.007829 -1558500.000000 0 0 1
2.323536 3.669785 -30.876234 31.180250 1.006356 3.001835 0.016866 0.000053 196164.000000 0 0 1
3.612236 3.507085 -30.017834 30.437120 0.770630 2.975417 0.016747 0.001655 113371.000000 0 0 1
3.352536 2.750785 -28.829464 29.153804 0.687122 2.992289 0.026343 -0.010748 -237661.000000 0 0 1
4.435536 2.482485 -27.991234 28.449005 0.510246 2.961958 0.039012 -0.016791 -641883.000000 0 0 1
3.953936 1.802185 -26.730234 27.081117 0.427663 2.980442 0.036454 -0.017834 -87774.400000 0 0 1
3.573436 0.452185 -27.031114 27.270039 0.125872 3.009122 0.047787 -0.018074 38560.000000 0 0 1
3.238236 -0.199415 -25.809414 26.012531 -0.061504 3.016544 0.049243 -0.019614 -455241.000000 0 0 1
3.831436 -1.528215 -25.420844 25.753342 -0.379525 2.980728 0.054945 -0.029215 -1520660.000000 0 0 1
5.163336 -1.512115 -25.136644 25.705980 -0.284890 2.930736 0.049867 -0.030284 -1445870.000000 0 0 1
5.701236 -2.805515 -25.079634 25.872051 -0.457299 2.893456 0.058384 -0.027450 465480.000000 0 0 1
7.158136 -2.931015 -24.512394 25.703837 -0.388640 2.835928 0.063490 -0.028704 514291.000000 0 0 1
8.097336 -2.648215 -25.502204 26.887586 -0.316083 2.819184 0.061580 -0.023317 -365382.000000 0 0 1
9.405036 -2.966015 -25.038794 26.910837 -0.305492 2.766395 0.054414 -0.023817 318661.000000 0 0 1
-29.766584 -3.265315 17.547153 34.707555 0.109260 1.040752 0.107233 -0.030241 -371551.000000 0 0 1
-31.115624 -3.410115 17.897553 36.057362 0.109159 1.051392 0.093805 -0.013816 -531113.000000 0 0 1
-31.337174 -4.523715 18.712853 36.778436 0.143366 1.037007 0.084058 -0.020318 63995.300000 0 0 1
-32.824204 -4.612215 19.120153 38.265927 0.139599 1.047584 0.069093 -0.019702 260632.000000 0 0 1
-33.668214 -4.665815 17.973853 38.449680 0.137705 1.084376 0.059905 -0.021630 -1089680.000000 0 0 1
-34.975077 -4.827515 18.334153 39.783188 0.137161 1.091842 0.061789 -0.010303 -925813.000000 0 0 1
-36.102544 -4.602715 17.288353 40.292255 0.126806 1.127329 0.050921 -0.008003 1320730.000000 0 0 1
35.243483 -4.991415 17.756453 39.778247 -0.140691 1.108074 0.057631 -0.009297 1085170.000000 0 0 1
34.202693 -4.614015 16.845353 38.404156 -0.134093 1.116719 0.037960 -0.009985 2135980.000000 0 0 1
32.761283 -5.219615 17.206753 37.371358 -0.157995 1.092321 0.043421 -0.007799 1697830.000000 0 0 1
31.930433 -4.530015 18.119153 36.991584 -0.140931 1.058915 0.062658 -0.015219 1082760.000000 0 0 1
30.770123 -5.306515 18.500553 36.293663 -0.170777 1.035907 0.084466 -0.021915 692911.000000 0 0 1
30.205613 -4.973815 19.906853 36.515759 -0.163201 0.994219 0.091329 -0.017233 -58392.200000 0 0 1
29.316943 -3.898715 20.099253 35.758399 -0.132209 0.973892 0.084981 -0.024061 173894.000000 0 0 1
29.824253 -2.639815 19.624453 35.799076 -0.088282 0.990606 0.081134 -0.017346 -225424.000000 0 0 1
28.861013 -1.450115 19.821453 35.042130 -0.050203 0.969579 0.066187 -0.007147 -259994.000000 0 0 1
29.311153 -0.203815 19.506953 35.209465 -0.006953 0.983604 0.069609 -0.009704 -428874.000000 0 0 1
28.288073 0.706085 19.751353 34.508398 0.024955 0.961411 0.051896 -0.005571 -363385.000000 0 0 1
28.672423 2.110185 19.227253 34.586818 0.073464 0.981336 0.050424 -0.004496 -111940.000000 0 0 1
28.708663 2.175085 17.810553 33.854602 0.075620 1.016801 0.044484 -0.009678 142547.000000 0 0 1
28.309663 3.453785 17.385053 33.400684 0.121400 1.023360 0.038307 -0.005147 94098.800000 0 0 1
28.248093 3.425485 15.848653 32.570976 0.120675 1.062616 0.039427 -0.009808 -20589.800000 0 0 1
27.986433 4.708985 15.278253 32.231040 0.166698 1.076942 0.042526 -0.004593 129963.000000 0 0 1
27.482383 4.556285 14.001653 31.178316 0.164295 1.105058 0.040215 -0.006045 -357232.000000 0 0 1
27.337683 5.862085 13.293653 30.958588 0.211234 1.126967 0.041779 0.002065 147006.000000 0 0 1
26.320983 6.624785 13.935753 30.510443 0.246571 1.096454 0.056444 -0.000734 300330.000000 0 0 1
25.711183 7.565885 13.097853 29.830543 0.286186 1.116227 0.065362 -0.021043 -621584.000000 0 0 1
24.456983 8.204185 13.750053 29.232116 0.323658 1.081081 0.076175 -0.027034 -534029.000000 0 0 1
23.243983 7.557885 13.606853 27.974110 0.314372 1.062821 0.067382 -0.016274 -105995.000000 0 0 1
23.093783 6.331785 14.268153 27.874621 0.267601 1.033437 0.075555 -0.017551 -1189140.000000 0 0 1
21.685283 5.770385 14.054053 26.477637 0.260070 1.011264 0.077909 -0.010664 -444850.000000 0 0 1
21.426183 5.336385 12.668653 25.456887 0.244093 1.049907 0.092477 -0.017385 612771.000000 0 0 1
20.179083 4.708685 12.442753 24.170006 0.229243 1.030020 0.084850 -0.010469 -181357.000000 0 1 0
19.776683 4.572585 10.989153 23.082184 0.227218 1.074595 0.088025 -0.011718 -766458.000000 0 1 0
20.702883 3.848785 10.276953 23.431566 0.183807 1.116762 0.088696 -0.018145 237884.000000 0 1 0
20.358583 3.830185 8.884153 22.540417 0.185962 1.165661 0.097405 -0.018478 24492.600000 0 1 0
21.412983 3.016885 8.098253 23.091105 0.139969 1.212468 0.086029 -0.009733 -980561.000000 0 1 0
21.574583 1.644385 8.510253 23.250613 0.076072 1.196065 0.077821 -0.007541 575268.000000 0 1 0
22.412383 0.948985 7.624153 23.692682 0.042317 1.243173 0.064900 -0.000075 -83497.300000 0 1 0
23.946683 1.219685 7.667753 25.173909 0.050889 1.261287 0.065262 -0.002186 -266075.000000 0 0 1
24.745183 0.742585 8.694353 26.238660 0.030000 1.233055 0.063607 0.002252 420388.000000 0 0 1
24.585183 1.539285 9.834153 26.523785 0.062529 1.190961 0.063856 -0.000650 -881496.000000 0 0 1
25.221883 0.859785 11.029453 27.541449 0.034076 1.158769 0.055034 0.000904 -961739.000000 0 0 1
26.604783 0.918685 10.944553 28.782663 0.034517 1.180732 0.054607 -0.006945 -551264.000000 0 0 1
27.210783 0.154285 12.016353 29.746315 0.005670 1.154954 0.057155 -0.005566 -74850.600000 0 0 1
28.744883 0.121785 11.973153 31.139035 0.004237 1.176123 0.064154 -0.001906 -165672.000000 0 0 1
29.273823 1.338985 12.440353 31.835703 0.045708 1.169331 0.061131 -0.002614 373028.000000 0 0 1
30.682483 1.262285 12.638353 33.207470 0.041117 1.180365 0.047980 -0.002269 415386.000000 0 0 1
31.321553 2.621885 13.078853 34.043653 0.083514 1.176478 0.050984 -0.002028 -89749.500000 0 0 1
31.291083 3.594985 12.078553 33.733473 0.114387 1.204609 0.055962 -0.011189 290945.000000 0 0 1
31.834273 4.847485 12.488853 34.538247 0.151112 1.200818 0.056337 -0.010212 843776.000000 0 0 1
33.333733 5.169385 12.159453 35.856834 0.153854 1.224824 0.061091 -0.010367 728637.000000 0 0 1
34.289623 4.305185 12.707753 36.821187 0.124900 1.218429 0.050723 -0.007443 506001.000000 0 0 1
35.617453 4.642285 12.311653 37.970127 0.129607 1.240582 0.054566 -0.006304 259557.000000 0 0 1
-35.902321 3.769485 12.823753 38.309716 -0.104610 1.229468 0.082632 -0.002246 -780070.000000 0 0 1
-35.817320 2.416285 12.324653 37.955447 -0.067359 1.240087 0.070855 -0.003805 487856.000000 0 0 1
35.730143 1.531385 12.521953 37.891787 0.042834 1.233999 0.060016 0.005372 171296.000000 0 0 1
35.313383 1.106785 13.943753 37.982736 0.031332 1.194899 0.053825 0.002532 429374.000000 0 0 1
-36.325254 0.293385 14.577153 39.142095 -0.008076 1.189185 0.071239 -0.004207 658289.000000 0 0 1
36.006883 -0.012415 15.907353 39.364192 -0.000345 1.154794 0.072525 -0.015446 33156.600000 0 0 1
-35.671122 -0.979815 16.690153 39.394799 0.027461 1.133310 0.074798 -0.019232 611106.000000 0 0 1
-34.420342 -0.379915 17.018153 38.399503 0.011037 1.111646 0.075188 -0.017263 576494.000000 0 0 1
-33.555994 -1.105915 17.913653 38.054261 0.032945 1.080667 0.074679 -0.013625 278515.000000 0 0 1
-33.736174 -0.979215 19.431853 38.944643 0.029018 1.048397 0.072766 -0.019185 -232973.000000 0 0 1
-34.836919 -1.678515 19.977653 40.193718 0.048145 1.050619 0.062205 -0.024891 40310.300000 0 0 1
-34.785815 -1.508415 21.425253 40.882389 0.043336 1.019173 0.059785 -0.021783 182767.000000 0 0 1
-35.246754 -2.803315 22.159653 41.728198 0.079367 1.010960 0.040710 -0.018560 -238586.000000 0 0 1
-34.410140 -3.931915 21.969753 41.014482 0.113773 1.005509 0.049342 -0.020046 -136581.000000 0 0 1
-34.662189 -5.131215 22.700453 41.750536 0.146968 0.995937 0.045564 -0.014087 -212013.000000 0 0 1
-34.795393 -5.046715 24.248303 42.710291 0.144035 0.967039 0.039070 -0.017132 -162885.000000 0 0 1
-33.559694 -4.656115 24.764023 41.966526 0.137861 0.939626 0.046178 -0.015424 -706476.000000 0 0 1
-33.549734 -4.882815 26.149423 42.816105 0.144525 0.913804 0.032438 -0.012394 430724.000000 0 0 1
-32.369224 -4.146115 26.848503 42.258716 0.127394 0.882352 0.035701 -0.006949 265801.000000 0 0 1
-32.527194 -2.730815 26.787853 42.226352 0.083758 0.883581 0.038943 -0.005393 -99348.400000 0 0 1
-31.857984 -2.171615 25.647863 40.956806 0.068060 0.894104 0.049068 -0.015719 94034.300000 0 0 1
-31.769464 -0.632315 25.618033 40.816446 0.019901 0.892278 0.048252 -0.016399 93699.100000 0 0 1
-33.032704 -0.115615 25.259573 41.583878 0.003500 0.917967 0.057717 -0.023205 -169603.000000 0 0 1
-32.948544 1.272785 25.044443 41.405926 -0.038610 0.921217 0.061604 -0.016343 -15556.100000 0 0 1
-34.260497 1.983585 24.634793 42.244400 -0.057833 0.948196 0.072137 -0.022033 120893.000000 0 0 1
-34.663186 1.760485 23.283253 41.794086 -0.050745 0.979913 0.081716 -0.015067 -22552.700000 0 0 1
-35.837706 2.459285 22.880253 42.589849 -0.068515 1.003655 0.073289 -0.006812 388209.000000 0 0 1
-35.633926 3.772585 22.055153 42.076584 -0.105478 1.019060 0.076393 -0.001769 -507609.000000 0 0 1
-35.095694 3.655885 20.784953 40.952259 -0.103795 1.038468 0.082498 -0.010962 -19522.000000 0 0 1
-36.042484 3.263685 19.781553 41.243450 -0.090305 1.070565 0.082706 -0.016868 487916.000000 0 0 1
-35.345726 2.561385 18.555953 40.002556 -0.072340 1.088439 0.096663 -0.013640 201574.000000 0 0 1
-34.407276 3.373385 17.870753 38.917916 -0.097730 1.093712 0.099136 -0.011617 189343.000000 0 0 1
-34.047015 2.819185 16.646253 38.003221 -0.082614 1.117399 0.113361 -0.008775 -148442.000000 0 0 1
-33.075084 3.618885 15.722753 36.800306 -0.108981 1.129353 0.116298 -0.002657 389983.000000 0 0 1
-33.656964 4.835385 15.296653 37.284847 -0.142690 1.148052 0.111331 -0.009477 -11008.500000 0 0 1
-32.771134 5.415085 14.409053 36.206232 -0.163760 1.161492 0.112494 -0.009217 -171863.000000 0 0 1
-33.293444 6.826485 13.931053 36.730486 -0.202237 1.181781 0.117463 -0.023164 177597.000000 0 0 1
-32.497654 7.377885 12.904053 35.735771 -0.223244 1.201353 0.121649 -0.016699 29777.600000 0 0 1
-32.789964 8.744885 12.643753 36.214904 -0.260628 1.214153 0.102949 -0.019421 104170.000000 0 0 1
-31.904024 9.445785 11.535853 35.215984 -0.287846 1.237061 0.115055 -0.021846 250872.000000 0 0 1
-32.177614 10.758285 11.358753 35.779335 -0.322657 1.247739 0.096932 -0.010423 -17927.400000 0 0 1
-31.216184 11.441485 10.572553 34.887485 -0.351319 1.262908 0.084964 -0.022898 -143271.000000 0 0 1
-31.462884 12.925385 10.380653 35.563136 -0.389794 1.274590 0.085530 -0.016630 168852.000000 0 0 1
-30.522834 13.543885 9.506753 34.719715 -0.417627 1.293440 0.084028 -0.017660 242055.000000 0 0 1
-30.457304 14.940785 9.742753 35.295831 -0.456058 1.291134 0.069126 -0.011068 -231567.000000 0 0 1
-29.629474 15.680685 8.712253 34.636585 -0.486754 1.316532 0.075584 -0.013430 1473680.000000 0 0 1
-28.180014 15.607585 8.891953 33.418210 -0.505797 1.301471 0.094637 -0.011292 1655540.000000 0 0 1
-27.499804 16.481085 7.982153 33.039071 -0.539917 1.326785 0.063019 -0.029730 272135.000000 0 0 1
-26.059904 16.728285 8.523553 32.118610 -0.570672 1.302201 0.070229 -0.023481 -165903.000000 0 0 1
-25.901984 17.255485 9.818353 32.635328 -0.587668 1.265212 0.066998 -0.018264 -23822.000000 0 0 1
-26.248134 18.572585 10.011553 33.676946 -0.615793 1.268952 0.064753 -0.026040 -353281.000000 0 0 1
-26.508764 18.847885 11.516653 34.504937 -0.618074 1.230498 0.070981 -0.007801 -350964.000000 0 0 1
-25.324924 19.070685 12.215253 33.974332 -0.645444 1.203018 0.075277 -0.001480 -323974.000000 0 0 1
-25.517194 19.341785 13.576253 34.778535 -0.648595 1.169770 0.073501 -0.002697 116148.000000 0 0 1
-26.009244 18.222285 14.525053 34.921478 -0.611134 1.141826 0.057311 0.005768 525265.000000 0 0 1
-24.944264 17.327585 14.811853 33.791308 -0.607128 1.117053 0.070798 0.002028 608232.000000 0 0 1
-25.462544 16.321485 15.664653 34.060438 -0.570022 1.092905 0.065058 0.004871 266737.000000 0 0 1
-24.382364 15.267885 16.017853 32.926883 -0.559451 1.062754 0.069860 0.002352 -87109.300000 0 0 1
-23.344664 15.799485 16.812453 32.821573 -0.594980 1.033008 0.065889 0.001371 306353.000000 0 0 1
-22.248964 14.869885 16.921253 31.661628 -0.589161 1.006951 0.049424 -0.009407 597389.000000 0 0 1
-22.549864 13.640785 17.885853 31.850764 -0.544027 0.974536 0.062312 -0.012921 -422390.000000 0 0 1
-22.778964 14.124085 19.247653 32.997623 -0.555031 0.948006 0.070655 -0.011475 31727.800000 0 0 1
-23.003664 13.040185 20.047353 33.182998 -0.515706 0.922103 0.073237 -0.021665 -631995.000000 0 0 1
-22.778964 13.238585 21.598953 34.068404 -0.526463 0.884097 0.071005 -0.019545 -499880.000000 0 0 1
-21.460864 13.410985 22.025153 33.548928 -0.558530 0.854616 0.068050 -0.011088 -459274.000000 0 0 1
-20.969064 14.713585 21.746653 33.602205 -0.611853 0.866918 0.070054 0.008662 -934409.000000 0 0 1
-19.474364 14.858685 22.044253 32.954218 -0.651761 0.838020 0.077701 -0.004009 105841.000000 0 0 1
-18.570864 14.378885 21.036953 31.530664 -0.658855 0.840366 0.058815 -0.006032 214868.000000 0 0 1
-18.195864 15.418685 20.116953 31.201236 -0.702967 0.870102 0.068963 -0.005050 -749208.000000 0 0 1
-16.935464 15.021685 19.270353 29.728900 -0.725584 0.865575 0.046798 0.000744 1571210.000000 0 0 1
-15.750164 14.952785 20.106753 29.596199 -0.759433 0.823893 0.039133 0.002732 761592.000000 0 0 1
-15.201164 16.106285 20.725153 30.331828 -0.814301 0.818550 0.020657 -0.003506 -1337670.000000 0 0 1
-14.236664 15.732485 21.806753 30.425782 -0.835269 0.771710 -0.003242 0.006299 288656.000000 0 0 1
-12.958964 15.285085 21.282953 29.232391 -0.867571 0.755308 0.009611 0.013526 926643.000000 0 0 1
-12.124164 14.897785 22.376853 29.490048 -0.887683 0.709338 0.019914 0.016006 238621.000000 0 0 1
-10.761564 14.299885 21.952453 28.323280 -0.925657 0.683974 -0.000862 0.017818 -632392.000000 0 0 1
-10.287264 13.439385 22.922353 28.493493 -0.917476 0.636002 0.007363 0.010900 240526.000000 0 0 1
-9.161864 12.623585 22.599653 27.459770 -0.942981 0.604107 0.008485 0.028345 -163656.000000 0 0 1
-7.813364 13.306685 22.743453 27.484199 -1.039860 0.596138 0.001370 0.031285 -1100230.000000 0 0 1
-7.389964 14.010385 21.579053 26.768601 -1.085420 0.633209 -0.000092 0.023071 -2829.560000 0 0 1
-6.674564 15.233485 21.834153 27.447024 -1.157840 0.650961 0.009853 0.019567 -105384.000000 0 0 1
-7.413264 16.382285 22.549653 28.841335 -1.145851 0.673166 0.013831 0.006898 -283913.000000 0 0 1
-8.457864 16.938185 21.821553 28.889752 -1.107679 0.714625 -0.026247 0.004571 -633586.000000 0 0 1
-7.996164 17.971485 20.990653 28.766655 -1.152161 0.752932 0.002522 0.008677 -1143690.000000 0 0 1
-8.852164 18.082485 19.720953 28.182496 -1.115549 0.795736 0.003791 0.007445 638999.000000 0 0 1
-10.110564 18.716685 19.823753 29.077810 -1.075516 0.820646 -0.011954 0.006062 226592.000000 0 0 1
-11.076864 18.123785 20.714553 29.669197 -1.022198 0.797939 -0.003550 0.005299 -208809.000000 0 0 1
-12.403664 18.962085 20.746553 30.721833 -0.991523 0.829421 -0.000860 -0.002799 582300.000000 0 0 1
-13.079064 18.948085 19.479053 30.158338 -0.966639 0.868604 0.010796 -0.005437 -249126.000000 0 0 1
-14.160864 19.819085 19.412553 31.147607 -0.950401 0.897913 0.007219 -0.008946 -50930.700000 0 0 1
-14.928964 19.773285 18.054253 30.656367 -0.924099 0.941070 0.029980 -0.005664 258123.000000 0 0 1
-15.661364 18.598685 17.721453 30.087195 -0.870925 0.940972 0.049604 -0.003487 826778.000000 0 0 1
-16.516064 18.754485 16.543053 29.969713 -0.848777 0.986045 0.059911 -0.011076 -236288.000000 0 0 1
-17.284564 17.453885 16.114753 29.378216 -0.790272 0.990194 0.058555 -0.012539 657349.000000 0 0 1
-18.274064 16.987285 17.022053 30.203635 -0.748922 0.972088 0.062201 -0.015229 561872.000000 0 0 1
-19.379064 17.894385 17.227953 31.504913 -0.745587 0.992218 0.070744 -0.009486 -209285.000000 0 0 1
34.354443 -9.526315 11.799806 37.552814 -0.270499 1.251162 0.052458 -0.006955 668540.000000 0 0 1
33.046913 -10.079115 11.590706 36.442166 -0.296032 1.247116 0.057732 -0.002379 682900.000000 0 0 1
32.598973 -11.059315 12.473706 36.614134 -0.327069 1.223156 0.058786 -0.003922 -619117.000000 0 0 1
31.202423 -11.546315 12.090506 35.398996 -0.354420 1.222231 0.057247 -0.003855 -1042420.000000 0 0 1
30.230463 -10.525315 12.304406 34.293753 -0.335043 1.203820 0.058815 -0.005769 1158430.000000 0 0 1
28.870573 -10.968915 12.133006 33.181876 -0.363089 1.196464 0.051818 -0.003590 1065510.000000 0 0 1
28.286023 -11.964015 13.171306 33.417361 -0.400146 1.165658 0.038375 0.000593 -1050340.000000 0 0 1
28.254593 -11.394415 14.520506 33.749071 -0.383328 1.126028 0.045250 -0.003722 458062.000000 0 0 1
27.579283 -12.160615 15.549806 33.915982 -0.415288 1.094512 0.044433 -0.002954 1339370.000000 0 0 1
26.037783 -11.828115 15.666406 32.608384 -0.426397 1.069639 0.049581 -0.015205 909542.000000 0 0 1
25.804483 -10.544515 16.139206 32.210745 -0.387925 1.045984 0.049954 -0.012381 -470075.000000 0 0 1
24.893983 -9.854615 15.349606 30.861533 -0.376935 1.050232 0.077768 -0.028796 -575874.000000 0 0 1
24.779983 -8.420215 15.898606 30.622103 -0.327558 1.024897 0.098834 -0.036506 -444474.000000 0 0 1
25.956883 -7.712815 15.724506 31.313054 -0.288830 1.044689 0.083428 -0.027193 -562114.000000 0 0 1
25.858883 -6.426115 16.333006 31.252901 -0.243573 1.020890 0.087185 -0.026349 -93684.600000 0 0 1
27.182783 -5.655915 16.271106 32.181391 -0.205143 1.040712 0.088500 -0.026148 -267393.000000 0 0 1
27.390883 -5.074915 15.011106 31.644091 -0.183200 1.076545 0.099599 -0.021922 -159718.000000 0 0 1
28.651623 -4.467815 14.999906 32.647726 -0.154690 1.093424 0.087096 -0.022073 -315028.000000 0 0 1
28.883383 -3.706815 13.675506 32.171567 -0.127640 1.131746 0.087549 -0.014117 -111662.000000 0 0 1
29.322213 -4.433015 12.550606 32.201886 -0.150047 1.170439 0.066275 -0.010405 289884.000000 0 0 1
29.431463 -3.631515 11.439606 31.784642 -0.122768 1.202625 0.067443 -0.014227 27041.600000 0 0 1
29.954493 -4.312615 10.131306 31.914160 -0.142990 1.247752 0.067071 -0.014648 -519166.000000 0 0 1
31.267533 -4.789315 10.161806 33.224365 -0.151991 1.259961 0.080499 -0.017954 -299726.000000 0 0 1
31.607433 -5.537215 9.027306 33.334409 -0.173427 1.296561 0.069515 -0.022969 1346040.000000 0 0 1
33.064243 -6.181115 9.139606 34.856602 -0.184809 1.305489 0.067051 -0.021410 467956.000000 0 0 1
34.153143 -5.365115 9.036106 35.733357 -0.155817 1.315145 0.060518 -0.019256 -811201.000000 0 0 1
35.303553 -6.168415 8.820706 36.907926 -0.172979 1.329468 0.077704 -0.027889 1603360.000000 0 0 1
-35.997605 -5.375415 8.489306 37.373667 0.148232 1.341650 0.070431 -0.019344 1409320.000000 0 0 1
-36.064084 -4.650315 7.306506 37.089468 0.128238 1.372503 0.075011 -0.023764 179272.000000 0 0 1
-34.791950 -4.096515 7.013406 35.727428 0.117204 1.373210 0.071534 -0.005314 52725.700000 0 0 1
-34.776401 -3.294615 5.711206 35.395910 0.094455 1.408736 0.085767 -0.019242 -611089.000000 0 0 1
-34.478951 -4.028715 4.544606 35.009742 0.116318 1.440619 0.083872 -0.029816 107497.000000 0 0 1
-34.589967 -3.185615 3.392806 34.901649 0.091837 1.473432 0.078297 -0.028565 116551.000000 0 0 1
-33.775864 -3.741615 2.196206 34.053370 0.110328 1.506258 0.087180 -0.029539 118254.000000 0 0 1
-34.340202 -4.912715 1.644306 34.728778 0.142096 1.523432 0.083458 -0.019771 771328.000000 0 0 1
-35.346249 -4.719715 0.596606 35.664954 0.132743 1.554067 0.080153 -0.021080 526416.000000 0 0 1
-34.779559 -4.718815 -0.875694 35.109141 0.134854 1.595741 0.092257 -0.023351 -1337880.000000 0 0 1
-34.269353 -5.929215 -1.239094 34.800568 0.171322 1.606409 0.079515 -0.020256 -355883.000000 0 0 1
-33.430444 -5.839115 -2.343894 34.017403 0.172920 1.639754 0.075052 -0.015722 -309213.000000 0 0 1
-31.981454 -5.488115 -1.938994 32.506807 0.169948 1.630481 0.074130 -0.025322 -998671.000000 0 0 1
-31.354854 -6.569615 -1.314394 32.062663 0.206537 1.611802 0.085791 -0.016948 -469781.000000 0 0 1
-30.294554 -6.137915 -0.509794 30.914299 0.199902 1.587288 0.072879 -0.023107 -565948.000000 0 0 1
-29.832074 -7.265915 0.411706 30.706932 0.238909 1.557388 0.064597 -0.014276 -407746.000000 0 0 1
-29.300334 -8.339215 -0.301394 30.465438 0.277280 1.580689 0.070078 -0.001556 249973.000000 0 0 1
-29.212474 -9.382715 0.587806 30.687937 0.310781 1.551641 0.070993 -0.000033 -72246.500000 0 0 1
-28.667374 -10.709315 -0.013494 30.602417 0.357518 1.571237 0.072109 -0.000610 -1150130.000000 0 0 1
-27.441154 -10.636515 -0.613394 29.436859 0.369781 1.591635 0.087195 -0.005036 -663827.000000 0 0 1
-26.786424 -11.880115 -0.950794 29.318145 0.417446 1.603232 0.086317 -0.004292 222570.000000 0 0 1
-27.413244 -12.873015 -2.041194 30.354027 0.439026 1.638093 0.082918 -0.005679 1992.680000 0 0 1
-28.575354 -13.504015 -1.507794 31.641472 0.441468 1.618467 0.087317 -0.012366 458877.000000 0 0 1
-28.865784 -14.631315 -2.300594 32.443822 0.469132 1.641766 0.077625 -0.011603 -777628.000000 0 0 1
-29.881024 -15.582715 -1.729594 33.744453 0.480693 1.622074 0.079607 -0.014859 -604592.000000 0 0 1
-29.453334 -16.331315 -0.645494 33.684231 0.506277 1.589961 0.063253 -0.006883 -316895.000000 0 0 1
-30.534004 -16.919415 0.008006 34.908338 0.505999 1.570567 0.062532 -0.006498 -377674.000000 0 0 1
-30.619634 -18.429615 -0.076694 35.738195 0.541807 1.572942 0.057751 -0.003309 349625.000000 0 0 1
-29.486224 -19.168515 0.401206 35.171442 0.576434 1.559389 0.083370 -0.013060 553404.000000 0 0 1
-29.647314 -20.558115 0.176406 36.078116 0.606298 1.565907 0.075170 -0.009241 -217519.000000 0 0 1
-30.518294 -21.309315 1.164106 37.239875 0.609549 1.539532 0.064486 -0.009691 -636652.000000 0 0 1
-29.959884 -21.386415 2.418306 36.889315 0.619951 1.505194 0.078027 -0.014104 214620.000000 0 0 1
-30.905044 -21.928515 3.358106 38.042849 0.617103 1.482410 0.064931 -0.010287 532611.000000 0 0 1
-30.270514 -22.222415 4.750106 37.851067 0.633265 1.444970 0.069296 -0.013640 -715.152000 0 0 1
-29.863394 -21.018715 5.303006 36.901633 0.613291 1.426591 0.055385 -0.015152 -102450.000000 0 0 1
-28.932084 -21.111515 6.350006 36.374223 0.630377 1.395323 0.055504 -0.016718 49966.200000 0 0 1
-28.327964 -19.780215 6.904106 35.233466 0.609556 1.373567 0.053252 -0.012043 -31540.400000 0 0 1
-27.531084 -20.123315 8.001306 35.027550 0.631185 1.340333 0.048514 -0.014476 -527245.000000 0 0 1
-27.071364 -18.975515 8.650006 34.172379 0.611359 1.314884 0.052809 -0.016239 58742.500000 0 0 1
-25.944854 -19.216715 9.681506 33.706811 0.637507 1.279466 0.052690 -0.011414 -23296.700000 0 0 1
-26.380104 -19.841615 10.918306 34.767930 0.644871 1.251358 0.051551 -0.010691 -85215.900000 0 0 1
-25.451604 -19.821615 12.018206 34.425540 0.661677 1.214178 0.035390 -0.002920 56863.200000 0 0 1
-25.074614 -18.488615 12.701906 33.643774 0.635352 1.183657 0.039218 0.001057 -380593.000000 0 0 1
-24.377464 -17.537315 11.922706 32.310510 0.623632 1.192859 0.038069 0.002714 105767.000000 0 0 1
-24.094064 -16.228515 12.508206 31.628213 0.592752 1.164210 0.049036 0.002668 244020.000000 0 0 1
-23.177364 -16.211015 13.773506 31.459445 0.610345 1.117626 0.057573 0.003883 -270530.000000 0 0 1
-23.769164 -16.670915 14.981406 32.670095 0.611643 1.094415 0.049301 -0.015629 -192115.000000 0 0 1
-22.863864 -17.013615 16.005606 32.686370 0.639732 1.059083 0.061731 -0.014282 -146194.000000 0 0 1
-23.586164 -17.794715 17.129506 34.152291 0.646347 1.045392 0.043700 0.004375 567608.000000 0 0 1
-24.542064 -16.978915 17.817806 34.757311 0.605221 1.032546 0.061600 -0.007240 443402.000000 0 0 1
-25.406574 -17.723315 18.664806 36.166074 0.609105 1.028521 0.053901 -0.000477 -353555.000000 0 0 1
-26.360664 -16.832615 19.406106 36.807859 0.568284 1.015462 0.075880 -0.005033 -361156.000000 0 0 1
-25.737444 -16.357115 20.632706 36.819557 0.566141 0.975960 0.082923 -0.016018 371247.000000 0 0 1
-26.450344 -15.247015 21.177706 37.156256 0.522915 0.964335 0.075621 -0.018873 -43831.600000 0 0 1
-25.751064 -14.628215 22.395006 37.130018 0.516605 0.923351 0.077253 -0.020734 -265551.000000 0 0 1
-24.525864 -14.016715 22.076306 35.851772 0.519206 0.907438 0.082415 -0.019330 -299763.000000 0 0 1
-23.899564 -13.445915 23.201206 35.920436 0.512466 0.868588 0.085114 -0.020394 -186124.000000 0 0 1
-22.806564 -12.510515 22.642106 34.486480 0.501728 0.854560 0.080039 -0.015783 -316715.000000 0 0 1
-23.257164 -11.341715 21.975806 33.947993 0.453731 0.866710 0.080738 -0.014546 -173911.000000 0 0 1
-22.215764 -10.661515 21.346406 32.601796 0.447445 0.856929 0.060270 -0.012849 -683856.000000 0 0 1
-21.840964 -9.287415 21.943406 32.323318 0.402065 0.824571 0.055929 -0.014703 268073.000000 0 0 1
-21.093564 -9.227915 23.164806 32.660390 0.412390 0.782344 0.061110 -0.016637 330138.000000 0 0 1
-19.721264 -9.533215 23.041906 31.792135 0.450278 0.760099 0.047589 -0.012990 -336028.000000 0 0 1
-19.065864 -9.916715 24.409606 32.521951 0.479621 0.721890 0.043535 -0.017761 69960.400000 0 0 1
-19.388764 -11.185815 24.990506 33.549546 0.523278 0.730436 0.043026 -0.014908 112352.000000 0 0 1
-18.791064 -11.382415 26.282806 34.255647 0.544626 0.696247 0.049224 -0.013691 -534983.000000 0 0 1
-19.090964 -12.738515 26.969206 35.412889 0.588409 0.705072 0.050365 -0.026942 339324.000000 0 0 1
-20.334064 -12.630315 27.645306 36.568592 0.555819 0.713639 0.059783 -0.026664 1263960.000000 0 0 1
-21.545464 -12.963415 26.918406 36.835550 0.541652 0.751343 0.052082 -0.022150 1737890.000000 0 0 1
-22.864364 -13.210215 27.745306 38.302623 0.523909 0.760675 0.051119 -0.026862 785246.000000 0 0 1
-22.975464 -14.423215 28.483306 39.334461 0.560586 0.761023 0.053882 -0.024371 -732421.000000 0 0 1
-22.062464 -14.541315 29.508706 39.610174 0.582744 0.730295 0.052054 -0.023434 -430935.000000 0 0 1
-22.475664 -15.590515 30.611506 41.052210 0.606460 0.729253 0.041732 -0.023846 -659671.000000 0 0 1
-22.353964 -16.980015 30.263706 41.278475 0.649615 0.747840 0.037224 -0.019753 -140891.000000 0 0 1
-22.711364 -17.905015 31.246606 42.576355 0.667611 0.746757 0.047960 -0.023716 216815.000000 0 0 1
-24.131964 -17.819315 31.862906 43.762135 0.636043 0.755260 0.040033 -0.023155 -403224.000000 0 0 1
-24.371264 -16.904415 32.892606 44.290420 0.606432 0.733767 0.054453 -0.021737 -393072.000000 0 0 1
-25.681454 -17.163115 33.337206 45.447540 0.589138 0.747293 0.057635 -0.029473 -401715.000000 0 0 1
-26.341604 -16.097215 34.210306 46.079773 0.548537 0.734129 0.061431 -0.028794 -213237.000000 0 0 1
-25.883994 -16.017115 -32.974741 44.876081 0.554131 2.396161 0.064739 -0.028794 -148012.000000 0 0 1
-26.519244 -14.903815 -32.390741 44.435955 0.512010 2.387555 0.067124 -0.024860 -144377.000000 0 0 1
-25.908214 -14.427815 -31.071541 42.951578 0.508111 2.379523 0.065512 -0.018997 -173447.000000 0 0 1
-26.185194 -15.325615 -30.007741 42.673216 0.529524 2.350682 0.073365 -0.015152 467907.000000 0 0 1
-25.370424 -15.030915 -28.877841 41.273678 0.534856 2.345728 0.083855 -0.005981 86039.300000 0 0 1
-25.877964 -15.935915 -27.725641 41.137982 0.551964 2.310362 0.068964 -0.005293 1134860.000000 0 0 1
-27.099284 -15.460115 -27.076341 41.309982 0.518445 2.285565 0.062899 -0.014067 1088560.000000 0 0 1
-27.166864 -14.188515 -26.384741 40.441402 0.481307 2.281568 0.063382 -0.015383 -759844.000000 0 0 1
-26.365904 -13.999915 -25.099241 39.001672 0.488128 2.269914 0.057075 -0.017858 129457.000000 0 0 1
-24.973664 -13.872415 -25.390941 38.220776 0.507042 2.297384 0.041100 -0.018032 793449.000000 0 0 1
-24.096364 -14.187215 -24.297541 37.044329 0.532121 2.286177 0.038716 -0.018325 381106.000000 0 0 1
-23.558364 -15.645515 -24.391341 37.345899 0.586235 2.282493 0.034486 -0.005369 -108712.000000 0 0 1
-22.567964 -15.815315 -25.413841 37.487338 0.611253 2.315741 0.023691 0.005788 315893.000000 0 0 1
-22.297764 -17.218415 -25.556141 38.036567 0.657561 2.307545 0.032885 0.007429 -85533.100000 0 0 1
-21.422464 -17.685115 -26.761941 38.573135 0.690122 2.337545 0.022605 0.010244 218050.000000 0 0 1
-21.940964 -17.644215 -28.092741 39.773437 0.677277 2.355081 0.033213 0.003375 353525.000000 0 0 1
-23.023564 -18.532215 -28.383941 40.977745 0.677736 2.335977 0.039961 0.001822 268465.000000 0 0 1
-23.621864 -18.316115 -29.816141 42.219365 0.659553 2.354941 0.050352 -0.014864 -130838.000000 0 0 1
-22.908864 -18.891015 -30.876441 42.837380 0.689571 2.375727 0.040115 -0.017738 -49019.600000 0 0 1
-23.414764 -18.363115 -32.081241 43.756842 0.665065 2.393769 0.048593 -0.022199 -618852.000000 0 0 1
-22.595864 -18.672915 -33.334041 44.389291 0.690624 2.420293 0.045773 -0.022057 -281259.000000 0 0 1
-21.305364 -18.078515 -33.407041 43.552057 0.703648 2.445042 0.045175 -0.016313 74152.500000 0 0 1
-20.214764 -18.719115 -32.824641 42.854393 0.747002 2.443326 0.034051 -0.014946 -362111.000000 0 0 1
-19.746264 -19.871915 -33.796341 43.897615 0.788570 2.449465 0.038077 -0.019383 -1029590.000000 0 0 1
-19.298864 -19.494315 33.390306 43.213273 0.790436 0.687734 0.035133 -0.024222 -16754.300000 0 0 1
-19.215964 -20.517015 32.429206 42.916833 0.818131 0.714182 0.032367 -0.025426 -413798.000000 0 0 1
-20.481164 -21.224415 31.921906 43.462190 0.803218 0.745903 0.041105 -0.024150 -571295.000000 0 0 1
-21.213064 -21.910215 32.929606 44.882185 0.801563 0.747060 0.045243 -0.018664 163462.000000 0 0 1
-22.494164 -22.330115 32.460506 45.368556 0.781738 0.773479 0.058110 -0.013028 355463.000000 0 0 1
-22.637664 -23.397915 31.323206 45.178197 0.801911 0.804702 0.054263 -0.007560 -720283.000000 0 0 1
-22.177864 -24.586615 31.966606 46.024159 0.836861 0.802986 0.053531 -0.005579 10788.900000 0 0 1
-22.419464 -25.775445 31.263206 46.307602 0.854919 0.829668 0.058812 0.001999 -2739.630000 0 0 1
-21.708364 -27.037815 31.819406 47.061355 0.894296 0.828304 0.067215 -0.011365 -9524.190000 0 0 1
-22.279064 -27.426675 33.056706 48.387240 0.888592 0.818702 0.050727 -0.006489 -310158.000000 0 0 1
-21.816864 -28.610875 33.610706 49.236544 0.919319 0.819431 0.045259 -0.013134 -1100680.000000 0 0 1
-22.821764 -29.281405 -33.921841 50.288417 0.908747 2.311146 0.043835 -0.008449 -36808.800000 0 0 1
-23.874364 -29.954105 33.863806 51.127204 0.897868 0.846853 0.028116 -0.006822 1116520.000000 0 0 1
-24.920464 -29.181575 33.192506 50.737918 0.863997 0.857678 0.026801 0.000762 576957.000000 0 0 1
-25.920404 -28.548565 34.188406 51.533824 0.833611 0.845420 0.020648 0.007698 -28137.600000 0 0 1
-27.156514 -28.023055 33.732606 51.581552 0.801101 0.857981 0.016914 0.005061 854006.000000 0 0 1
-28.042484 -27.623795 -33.665841 51.796176 0.777877 2.278338 0.014109 0.014763 850151.000000 0 0 1
-29.166964 -26.668785 -34.161941 52.239584 0.740686 2.283587 0.000443 0.015023 154428.000000 0 0 1
-30.148974 -27.355925 33.588406 52.777725 0.736866 0.880958 0.000770 0.016313 -956159.000000 0 0 1
-31.133404 -26.515875 33.133206 52.632593 0.705472 0.889863 0.003141 0.014375 -501975.000000 0 0 1
