# x y z rho theta phi s1 s2 stress_xx np intf bulk
-0.756304 -10.805373 -14.269835 17.915253 1.500917 2.492312 0.004262 -0.002130 1209.120000 1 0 0
2.201096 -13.463973 -12.954335 18.813245 -1.408749 2.330319 0.001256 0.001370 -810854.000000 1 0 0
2.136796 -11.217773 -14.561235 18.504970 -1.382568 2.476537 0.004227 -0.002063 646105.000000 1 0 0
-5.569004 -6.298373 -16.224035 18.273002 0.846781 2.663489 0.012448 -0.010730 495200.000000 1 0 0
4.498996 -14.229773 -11.430335 18.798403 -1.264573 2.224396 0.003736 0.004991 153823.000000 1 0 0
13.992096 -10.805173 -7.963035 19.389184 -0.657580 1.994012 0.039020 -0.009002 86992.300000 1 0 0
7.127896 10.781627 -10.842435 16.870352 0.986647 2.268803 0.004344 -0.008297 -4767.590000 1 0 0
5.658896 -4.223573 -12.513835 14.368638 -0.641167 2.627854 0.003172 -0.000559 1421280.000000 1 0 0
13.692796 0.459527 -10.017335 16.972060 0.033547 2.202134 0.011987 0.000786 2343450.000000 1 0 0
14.265896 5.115527 -10.367235 18.362025 0.344302 2.170747 0.010510 -0.002678 -306031.000000 1 0 0
4.128396 4.215627 -13.497435 14.730781 0.795852 2.729474 0.004904 -0.001289 580603.000000 1 0 0
10.350496 -5.139773 -13.629535 17.869367 -0.460902 2.438323 0.023581 -0.002497 -985487.000000 1 0 0
2.484396 -7.582173 -12.010535 14.419242 -1.254158 2.555217 -0.001955 0.002149 2417260.000000 1 0 0
-5.509904 -2.139873 -15.228435 16.335340 0.370439 2.771347 0.012762 -0.005274 1826200.000000 1 0 0
10.729096 -0.006973 -9.695835 14.461078 -0.000650 2.305649 0.013043 -0.001046 442182.000000 1 0 0
-1.609904 -9.513073 -16.804735 19.377551 1.403154 2.620402 0.019592 -0.005410 279742.000000 1 0 0
8.576296 1.573727 -17.963735 19.968106 0.181478 2.689698 0.019540 -0.003336 58952.200000 1 0 0
16.481996 -6.068273 -8.864635 19.673889 -0.352774 2.038210 0.044789 -0.008321 377612.000000 1 0 0
10.101296 7.587227 -9.920235 16.062791 0.644214 2.236472 0.008772 -0.004446 1157820.000000 1 0 0
13.818796 -2.340273 -10.642935 17.598525 -0.167763 2.220264 0.019840 0.002123 -1941160.000000 1 0 0
7.241996 -1.882573 -13.626835 15.546100 -0.254323 2.639430 0.010853 -0.004917 679860.000000 1 0 0
-2.844704 6.599227 -13.845935 15.599745 -1.163799 2.662849 0.007254 -0.004485 987696.000000 1 0 0
11.314696 1.818527 -13.824035 17.956429 0.159360 2.449427 0.018287 -0.004578 1081340.000000 1 0 0
-2.204204 10.747527 -12.963835 16.983194 -1.368512 2.439254 0.011339 0.000144 -990781.000000 1 0 0
2.886296 -1.180073 -15.327835 15.641797 -0.388116 2.940896 0.009625 -0.005506 88733.200000 1 0 0
-9.129404 0.395727 -15.254835 17.782368 -0.043319 2.601893 0.016887 -0.003273 -660040.000000 1 0 0
2.364296 -1.995473 -18.096735 18.359293 -0.701002 2.972269 0.014772 -0.009442 1392950.000000 1 0 0
1.080296 7.743427 -13.201435 15.342933 1.432180 2.606898 0.004742 -0.004175 300974.000000 1 0 0
9.294296 -9.103073 -9.825235 16.302918 -0.775004 2.217636 0.019630 0.001057 -622651.000000 1 0 0
4.020596 7.192627 -13.573535 15.878915 1.061078 2.595991 -0.001656 -0.000179 -554686.000000 1 0 0
-2.722604 9.104327 -15.500135 18.181186 -1.280216 2.591617 0.004797 -0.003125 -188417.000000 1 0 0
5.476296 -7.635473 -15.324435 17.975778 -0.948608 2.591555 0.002053 -0.005051 -294201.000000 1 0 0
4.222496 7.319527 -16.409935 18.457814 1.047550 2.666064 0.006039 0.000710 936.483000 1 0 0
-0.276204 4.980727 -13.489435 14.382238 -1.515399 2.787390 0.012932 -0.006023 3300240.000000 1 0 0
8.852096 4.139327 -16.588335 19.252701 0.437401 2.609231 0.022242 -0.009205 -2053150.000000 1 0 0
5.327696 0.236427 -14.408135 15.363418 0.044348 2.787095 0.008203 -0.000897 3046.830000 1 0 0
6.298696 7.874427 -11.734835 15.472121 0.896121 2.431728 -0.002530 0.000180 -3027560.000000 1 0 0
2.723196 -8.384973 -14.999035 17.398121 -1.256772 2.610209 0.003029 -0.004271 202697.000000 1 0 0
4.174696 11.397227 -13.910635 18.461599 1.219683 2.424151 -0.007869 -0.006914 -1220840.000000 1 0 0
0.622496 -4.489273 -13.786835 14.512680 -1.433012 2.823986 0.002611 -0.000268 904351.000000 1 0 0
8.508396 -0.092273 -11.631035 14.411187 -0.010845 2.509993 0.007612 -0.000602 693240.000000 1 0 0
-0.961104 -5.126573 -16.292135 17.106699 1.385473 2.831756 0.007021 -0.008707 201935.000000 1 0 0
4.483096 0.841627 -11.763935 12.617316 0.185573 2.771695 0.003881 -0.003712 29085.400000 1 0 0
-2.904904 -7.174473 -15.440435 17.271901 1.186078 2.676907 0.003980 -0.004482 2466020.000000 1 0 0
11.387096 -3.857573 -11.330935 16.520803 -0.326633 2.326579 0.021781 -0.002978 -74646.700000 1 0 0
6.436896 -7.039173 -12.562835 15.773662 -0.830061 2.492188 0.002732 0.001301 -1033160.000000 1 0 0
3.455496 -4.090073 -14.635035 15.583754 -0.869300 2.790860 0.010132 -0.003009 2155950.000000 1 0 0
-0.578704 -1.674473 -18.349235 18.434565 1.238044 3.045339 0.021240 -0.016515 1112640.000000 1 0 0
14.891096 2.848527 -8.490535 17.376652 0.189007 2.081301 -0.003737 0.000275 -1333850.000000 1 0 0
6.938496 4.246527 -14.341835 16.488297 0.549214 2.625632 0.007508 -0.000365 2461940.000000 1 0 0
9.970096 -9.615573 -14.071835 19.745344 -0.767299 2.364088 0.023648 -0.007342 -1320240.000000 1 0 0
9.032596 -3.277173 -15.455935 18.199274 -0.348047 2.585380 0.022587 -0.011017 124735.000000 1 0 0
-5.246304 -2.182673 -18.189435 19.056319 0.394257 2.838806 0.009117 0.000211 -674954.000000 1 0 0
4.928596 -9.104073 -11.174635 15.233111 -1.074609 2.394364 -0.006466 0.003710 3029290.000000 1 0 0
-2.415204 3.839827 -17.264335 17.850343 -1.009335 2.884648 0.008371 -0.001579 124852.000000 1 0 0
9.409996 9.312427 -14.540035 19.664230 0.780187 2.402998 0.024844 -0.008796 -1471890.000000 1 0 0
9.837596 9.935127 -11.628035 18.185055 0.790331 2.264550 0.015859 -0.010001 -59156.200000 1 0 0
11.979396 -6.022373 -9.611935 16.497400 -0.465827 2.192761 0.023091 -0.001809 -112637.000000 1 0 0
8.132596 6.872627 -13.789535 17.421923 0.701626 2.484064 0.008350 0.002989 -508130.000000 1 0 0
4.054496 -4.318273 -17.530735 18.504407 -0.816892 2.815751 0.017830 -0.015055 -266968.000000 1 0 0
9.264796 -7.519173 -12.320135 17.151097 -0.681765 2.372194 0.018705 -0.004722 -1052100.000000 1 0 0
11.975196 -8.780473 -8.769935 17.245689 -0.632676 2.104272 0.029767 -0.003636 846366.000000 1 0 0
-2.889104 -2.471973 -13.862935 14.374927 0.707747 2.873897 0.006550 -0.006114 -2295080.000000 1 0 0
-0.477404 6.102527 -17.637035 18.669059 -1.492725 2.807536 0.015371 -0.003884 1614830.000000 1 0 0
1.071996 -8.644673 -17.470235 19.521492 -1.447420 2.679055 0.019745 -0.006760 -823678.000000 1 0 0
0.059096 8.439127 -15.999135 18.088523 1.563794 2.656198 0.006147 -0.003382 239518.000000 1 0 0
1.798196 3.331827 -14.978535 15.449631 1.075893 2.894010 0.015788 -0.003842 2009400.000000 1 0 0
-1.877804 -0.477873 -15.823235 15.941433 0.249196 3.019743 0.011433 -0.006841 1450540.000000 1 0 0
14.131496 -4.387973 -8.511335 17.070335 -0.301071 2.092784 0.023056 -0.000677 736227.000000 1 0 0
0.637296 0.614727 -14.666435 14.693140 0.767374 3.081293 0.008059 -0.004680 645794.000000 1 0 0
8.866296 2.802227 -12.516935 15.592862 0.306119 2.502664 0.010462 -0.000058 2040160.000000 1 0 0
5.898196 0.859227 -17.170835 18.175934 0.144659 2.807480 0.022047 0.000781 -567006.000000 1 0 0
15.336896 1.473727 -12.336535 19.737841 0.095796 2.245953 0.019944 -0.008982 -805709.000000 1 0 0
8.684596 -11.260273 -11.937535 18.566656 -0.913827 2.269147 0.016877 -0.003382 1197050.000000 1 0 0
-4.594304 0.622727 -15.149135 15.842718 -0.134722 2.844599 0.012632 -0.005678 307053.000000 1 0 0
2.321596 5.168827 -17.277835 18.183238 1.148647 2.824695 0.014686 -0.003134 2027270.000000 1 0 0
5.870496 -11.762473 -12.431935 18.093411 -1.107879 2.328283 0.004679 0.002815 -291200.000000 1 0 0
12.832096 7.127027 -8.682835 17.054291 0.506984 2.104969 0.014610 -0.007006 1039840.000000 1 0 0
-4.945904 3.544427 -15.736635 16.872066 -0.621806 2.772634 0.008756 -0.005340 2080100.000000 1 0 0
-0.712204 -4.572973 -19.121135 19.673259 1.416296 2.904119 0.022173 -0.015919 -706860.000000 1 0 0
9.696896 4.448427 -10.225735 14.777820 0.430104 2.335004 0.003158 0.001247 2056420.000000 1 0 0
13.458596 3.697927 -12.833735 18.960834 0.268146 2.314278 0.017930 -0.009052 932050.000000 1 0 0
-6.184504 5.699927 -17.205935 19.151539 -0.744647 2.686932 0.005547 0.001188 -970648.000000 1 0 0
-10.093904 3.177827 -15.502035 18.769618 -0.305003 2.542613 0.007917 0.000413 -1264430.000000 1 0 0
10.729996 13.457427 -8.411935 19.157135 0.897686 2.025395 0.041671 -0.009096 -1401970.000000 1 0 0
7.467196 13.374527 -12.384535 19.698063 1.061592 2.250700 0.021111 -0.011352 232553.000000 1 0 0
5.298296 15.172927 -11.272435 19.630523 1.234840 2.182460 0.010069 -0.012753 -948206.000000 1 0 0
14.116696 9.458227 -9.983635 19.708174 0.590309 2.102002 0.036851 -0.009892 -111377.000000 1 0 0
8.250096 -17.320673 -1.991635 19.288246 -1.126276 1.674237 0.024196 0.002999 572263.000000 1 0 0
0.693296 -15.981873 0.093865 15.997179 -1.527443 1.564929 0.007962 -0.008877 1800520.000000 1 0 0
-9.180404 -11.658173 7.540765 16.644998 0.903746 1.100630 0.007190 -0.010805 -504259.000000 1 0 0
1.959896 -15.869073 -2.545335 16.190967 -1.447914 1.728658 0.006692 -0.005183 2497900.000000 1 0 0
-1.284804 -11.062273 -9.363535 14.549928 1.455172 2.269917 0.001885 0.000992 1488000.000000 1 0 0
-4.796004 -12.607973 -12.885535 18.654749 1.207305 2.333305 0.021756 -0.002392 -353061.000000 1 0 0
-8.325404 -17.682773 -1.701035 19.618520 1.130764 1.657611 0.010421 -0.011763 -3370910.000000 1 0 0
-11.382904 -7.173073 -8.842435 16.100066 0.562303 2.152224 0.014723 -0.003234 2976850.000000 1 0 0
-13.676004 -11.528573 -4.603435 18.469778 0.700403 1.822693 0.020034 0.001002 -165810.000000 1 0 0
-5.764704 -13.314173 9.795965 17.505998 1.162190 0.976920 0.006257 -0.015399 592538.000000 1 0 0
0.049096 -13.940273 -3.632835 14.405940 -1.567274 1.825725 0.004773 -0.002884 126796.000000 1 0 0
-14.719204 -11.671073 1.941465 18.884867 0.670406 1.467809 0.000053 -0.002640 1091250.000000 1 0 0
-3.992904 -16.597573 -7.407635 18.609024 1.334711 1.980205 -0.002238 -0.002914 -311291.000000 1 0 0
0.470196 -15.313273 -9.242035 17.892251 -1.540101 2.113600 0.003427 0.005638 344459.000000 1 0 0
4.467596 -14.165573 -2.581535 15.076047 -1.265286 1.742879 0.004342 0.004238 1047600.000000 1 0 0
-3.553004 -18.159873 -2.373635 18.655803 1.377586 1.698375 -0.000278 -0.010145 845711.000000 1 0 0
-1.016404 -13.491573 0.649765 13.545398 1.495602 1.522808 0.007414 -0.005390 1547460.000000 1 0 0
-8.505704 -11.304673 -10.579735 17.665600 0.925757 2.212910 0.015600 -0.002167 2479220.000000 1 0 0
-3.746404 -14.200373 -0.407635 14.691913 1.312849 1.598545 -0.000445 -0.006067 4654950.000000 1 0 0
-1.635104 -14.979673 -7.203035 16.701733 1.462072 2.016701 -0.004480 -0.000489 357492.000000 1 0 0
-14.270504 -7.882173 -1.871135 16.409664 0.504638 1.685071 -0.001721 0.001592 1443500.000000 1 0 0
-10.702404 -7.331873 -11.638635 17.428587 0.600634 2.302032 0.018098 -0.006949 -1875330.000000 1 0 0
-9.407804 -14.670273 6.786465 18.702401 1.000573 1.199455 -0.003937 -0.006655 -204920.000000 1 0 0
-2.402604 -14.320773 -12.261435 19.005258 1.404574 2.272029 0.015455 -0.000691 685297.000000 1 0 0
2.244896 -17.812873 -4.722335 18.564441 -1.445431 1.827998 0.013769 -0.004691 351052.000000 1 0 0
-6.677304 -9.658973 -9.149835 14.886290 0.965929 2.232737 0.014081 -0.008124 667266.000000 1 0 0
-11.092404 -15.401673 0.517765 18.987392 0.946636 1.543524 0.012076 -0.004708 1261800.000000 1 0 0
-12.571604 -11.213873 4.116765 17.341970 0.728378 1.331121 0.009499 -0.005119 1865250.000000 1 0 0
-17.048204 -8.926973 -1.495935 19.302070 0.482373 1.648375 -0.000662 0.001243 -12142.600000 1 0 0
-1.384204 -19.233973 -3.923735 19.678858 1.498954 1.771530 0.008497 -0.008614 -194419.000000 1 0 0
3.152296 -14.259973 -8.700835 16.999657 -1.353236 2.108103 0.000326 0.003268 -367820.000000 1 0 0
-4.325904 -8.091973 -12.923735 15.849808 1.079860 2.524195 0.004098 -0.002356 1743420.000000 1 0 0
5.540896 -16.565473 1.386965 17.522560 -1.248010 1.491560 0.021263 -0.005578 2367740.000000 1 0 0
-2.892804 -13.852173 -3.204835 14.509376 1.364921 1.793513 -0.000502 -0.005812 -1572520.000000 1 0 0
-0.434804 -13.883073 3.655765 14.362917 1.539488 1.313437 0.008129 -0.003960 -2634740.000000 1 0 0
1.092696 -16.124873 7.061165 17.637051 -1.503135 1.158887 0.022617 -0.009059 1376160.000000 1 0 0
-5.471804 -10.349173 -14.614335 18.724978 1.084438 2.466218 0.014456 -0.001987 -654922.000000 1 0 0
-0.397004 -17.299373 -5.830735 18.259885 1.547851 1.895807 0.008380 -0.005093 251269.000000 1 0 0
-6.563404 -13.424273 -1.275235 14.997187 1.116051 1.655931 0.002666 -0.005589 3662430.000000 1 0 0
-1.749204 -17.733973 -0.097235 17.820297 1.472479 1.576253 0.006734 -0.010122 1633770.000000 1 0 0
-9.541704 -9.734673 -4.798935 14.451220 0.795409 1.909302 0.015397 -0.006160 2323700.000000 1 0 0
-0.862204 -16.597373 4.815665 17.303376 1.518895 1.288764 0.015840 -0.012117 3344230.000000 1 0 0
-6.835904 -9.864973 -6.294035 13.552201 0.964820 2.053786 0.014234 -0.005134 3299640.000000 1 0 0
-6.009604 -14.536673 -8.509935 17.884328 1.178783 2.066706 0.006323 -0.005232 48280.800000 1 0 0
-5.749004 -12.205173 -10.206535 16.917170 1.130592 2.218459 0.014119 -0.004734 297357.000000 1 0 0
-10.746704 -12.082873 -8.917135 18.466260 0.843859 2.074746 0.033017 -0.013268 -783429.000000 1 0 0
3.818196 -17.224473 6.618165 18.843068 -1.352651 1.211917 0.031336 -0.008141 -61440.600000 1 0 0
-6.747304 -14.373473 -4.061035 16.389474 1.131904 1.821188 0.006970 -0.010678 -1000650.000000 1 0 0
-2.896504 -12.246273 -7.070835 14.434599 1.338543 2.082718 0.004016 -0.001619 2577940.000000 1 0 0
-7.046004 -12.791773 4.392865 15.250341 1.067321 1.278606 -0.002644 -0.003124 1789870.000000 1 0 0
2.583096 -16.368273 2.379765 16.740849 -1.414276 1.428160 0.014717 -0.010318 2699140.000000 1 0 0
-6.259904 -11.999873 7.216165 15.338070 1.089968 1.080968 0.002155 -0.005275 2101550.000000 1 0 0
-11.250704 -12.919973 -0.952935 17.158442 0.854350 1.626362 0.016428 -0.003281 1024270.000000 1 0 0
-14.169504 -8.840373 4.528765 17.304241 0.557809 1.305998 0.006146 -0.007378 -195198.000000 1 0 0
-7.928304 -15.580573 4.408465 18.029055 1.100087 1.323772 -0.007703 0.002848 317751.000000 1 0 0
-16.395604 -9.218073 1.278365 18.852663 0.512183 1.502936 -0.013552 0.002448 -533184.000000 1 0 0
-6.643604 -17.011173 2.302565 18.407045 1.198469 1.445376 -0.004468 -0.002301 1822960.000000 1 0 0
-11.645104 -14.917173 -4.627835 19.481975 0.907966 1.810633 0.033332 -0.004914 -1256800.000000 1 0 0
-10.010704 -9.908973 -12.714635 18.975349 0.780291 2.305087 0.017481 -0.003667 -32516.000000 1 0 0
-4.418304 -16.131673 -4.466735 17.311962 1.303462 1.831763 -0.002682 -0.005939 360987.000000 1 0 0
-11.857004 -8.224573 0.047265 14.430328 0.606449 1.567521 0.001614 0.000639 1856620.000000 1 0 0
-9.603504 -11.150073 3.499265 15.126013 0.859781 1.337341 -0.001384 -0.001959 2163170.000000 1 0 0
-14.200904 -12.939773 -0.656835 19.223289 0.738965 1.604972 0.010064 -0.002106 -129505.000000 1 0 0
5.483396 -14.919973 -7.065435 17.395218 -1.218599 1.989056 0.004412 -0.001505 -2670.930000 1 0 0
-7.559104 -10.564873 -1.247935 13.050438 0.949747 1.666567 0.004410 -0.004034 1888450.000000 1 0 0
-11.790004 -8.276873 -6.056735 15.626735 0.612084 1.968810 0.012966 -0.002545 510469.000000 1 0 0
-14.430204 -6.580473 -9.325635 18.398393 0.427850 2.102349 0.016271 -0.005658 2945100.000000 1 0 0
-3.913204 -16.404173 1.442265 16.926021 1.336624 1.485483 -0.000691 -0.008255 -390988.000000 1 0 0
-8.059904 -15.497873 0.256965 17.470322 1.091226 1.556087 0.005540 -0.006437 1030090.000000 1 0 0
0.995796 -18.579273 3.693765 18.969051 -1.517250 1.374818 0.018725 -0.010979 985439.000000 1 0 0
-14.185404 -8.786273 -4.578835 17.302890 0.554554 1.838615 0.008876 0.000212 -898921.000000 1 0 0
-3.343004 -14.298973 11.259665 18.504496 1.341128 0.916649 0.007083 -0.017929 865381.000000 1 0 0
-10.847504 -12.130573 -3.778235 16.706113 0.841179 1.798929 0.025029 -0.008405 2660360.000000 1 0 0
-10.090904 -10.725073 0.531665 14.735542 0.815854 1.534708 0.003581 -0.001520 2710840.000000 1 0 0
-0.027404 -13.193673 -11.061035 17.216860 1.568719 2.268492 0.005644 -0.001247 734252.000000 1 0 0
-5.909204 -12.613373 -6.260335 15.271138 1.132675 1.993191 0.006903 -0.008369 971341.000000 1 0 0
1.632696 -15.782073 9.914465 18.709253 -1.467710 1.012286 0.020716 -0.007836 -166552.000000 1 0 0
-9.028904 -15.675473 -5.435635 18.888825 1.048219 1.862694 0.030815 -0.010618 566886.000000 1 0 0
-3.361304 -15.530173 5.904265 16.951253 1.357647 1.215030 -0.000402 -0.002407 -1401160.000000 1 0 0
-17.417404 -5.416173 -6.481135 19.357324 0.301484 1.912206 0.005203 -0.001853 337652.000000 1 0 0
18.786096 5.537527 -3.081235 19.826135 0.286649 1.726842 -0.007945 0.008507 -837685.000000 1 0 0
12.712996 -12.590873 -5.900935 18.840685 -0.780572 1.889359 0.033512 -0.006774 206884.000000 1 0 0
10.942996 -13.505873 -1.611835 17.457256 -0.889843 1.663258 0.030534 -0.005539 1406640.000000 1 0 0
18.741596 -2.903573 4.483265 19.487889 -0.153705 1.338663 0.035288 -0.007208 -1209690.000000 1 0 0
8.702296 -16.822773 5.038665 19.599077 -1.093411 1.310790 0.037701 -0.020970 721086.000000 1 0 0
18.021996 -1.032473 6.688265 19.250747 -0.057227 1.215969 0.035116 -0.007301 -331496.000000 1 0 0
17.922396 -4.240573 -5.018335 19.088699 -0.232335 1.836818 0.037054 -0.006206 269320.000000 1 0 0
5.475796 -11.724373 14.843265 19.691820 -1.133859 0.717003 0.007960 0.002027 631021.000000 1 0 0
15.902396 -9.006373 -0.779635 18.292315 -0.515312 1.613430 0.037428 -0.003730 284457.000000 1 0 0
13.845996 -12.749373 -1.331235 18.868766 -0.744188 1.641407 0.038613 -0.005731 1167820.000000 1 0 0
11.018796 -1.920473 13.799265 17.762933 -0.172557 0.681137 -0.003594 -0.001268 -588797.000000 1 0 0
16.830196 -6.224173 -1.508735 18.007557 -0.354223 1.654678 0.027196 -0.003541 -324067.000000 1 0 0
17.729196 3.633227 -1.088635 18.130358 0.202130 1.630877 -0.002485 0.005250 815691.000000 1 0 0
9.832296 -11.077573 9.439965 17.564157 -0.844882 1.003379 0.019035 -0.010362 -109411.000000 1 0 0
9.054896 -11.073173 4.225965 14.915264 -0.885336 1.283530 0.004523 -0.006693 -991837.000000 1 0 0
14.029496 -10.243073 6.867565 18.679153 -0.630649 1.194306 0.028435 -0.007523 181886.000000 1 0 0
16.286996 -0.569973 -4.721935 16.967256 -0.034981 1.852817 0.006087 0.000595 -742321.000000 1 0 0
15.841596 -0.490473 -1.703835 15.940508 -0.030951 1.677888 0.006173 0.001280 2558730.000000 1 0 0
12.865496 -5.135173 -0.224035 13.854284 -0.379767 1.586968 0.006084 -0.000673 645539.000000 1 0 0
14.233196 -7.583673 1.132765 16.167224 -0.489554 1.500673 0.023499 0.001803 2777070.000000 1 0 0
15.633896 2.494927 3.648865 16.246772 0.158250 1.344274 0.014175 -0.001782 1894520.000000 1 0 0
15.871496 -7.124073 5.040765 18.112596 -0.421905 1.288771 0.029435 -0.003751 -1151950.000000 1 0 0
13.626096 -12.166573 3.205965 18.546542 -0.728872 1.397063 0.030918 -0.007390 541437.000000 1 0 0
13.992796 -0.935173 9.231065 16.789445 -0.066733 0.988655 0.014800 -0.004182 873132.000000 1 0 0
14.224696 -2.829973 -1.599935 14.591454 -0.196384 1.680666 0.003781 0.004196 1155050.000000 1 0 0
15.101796 1.893127 9.094565 17.730180 0.124707 1.032187 0.028489 -0.002239 -274154.000000 1 0 0
14.292896 -10.268473 -2.941035 17.843153 -0.622990 1.736379 0.040863 -0.007899 62481.600000 1 0 0
7.302396 -12.605673 6.169765 15.820682 -1.045741 1.170185 0.008531 -0.010674 2173.610000 1 0 0
12.375896 -4.710273 6.948665 14.954378 -0.363672 1.087548 0.004865 0.000421 2711870.000000 1 0 0
15.046496 -9.262873 -5.688635 18.562285 -0.551823 1.882270 0.052204 -0.007006 -332082.000000 1 0 0
14.273996 -4.613273 4.640765 15.702419 -0.312598 1.270771 0.009967 -0.003320 238364.000000 1 0 0
17.128396 -4.298973 0.904065 17.682773 -0.245906 1.519647 0.020229 -0.005068 -735506.000000 1 0 0
10.109796 -14.491873 1.064565 17.701855 -0.961671 1.510621 0.025557 -0.008678 138784.000000 1 0 0
16.376596 -2.490573 8.562865 18.647212 -0.150925 1.093698 0.028543 -0.005694 1101830.000000 1 0 0
16.052396 -2.699873 3.186465 16.586811 -0.166632 1.377486 0.018039 -0.005199 2138900.000000 1 0 0
7.813396 -15.196973 2.778465 17.312337 -1.095900 1.409609 0.015786 -0.010029 1690770.000000 1 0 0
16.580696 -7.105873 7.921665 19.701921 -0.404885 1.157014 0.029845 0.001075 -120388.000000 1 0 0
10.282096 -8.602573 5.179765 14.372047 -0.696696 1.202094 0.006257 -0.004512 1926310.000000 1 0 0
10.900796 -11.829773 2.153365 16.229845 -0.826244 1.437725 0.018172 -0.007860 -1537270.000000 1 0 0
12.453296 -7.328873 12.050565 18.815236 -0.531927 0.875688 0.009435 -0.009268 234576.000000 1 0 0
15.091996 -9.948973 4.288165 18.577911 -0.582831 1.337875 0.027031 -0.007321 -383220.000000 1 0 0
7.431396 -10.284173 7.866365 14.928817 -0.945060 1.015818 0.004447 -0.002051 311169.000000 1 0 0
15.201596 -3.292773 -4.344835 16.149566 -0.213312 1.843190 0.015902 0.001212 258266.000000 1 0 0
11.934196 -8.923373 9.759765 17.813047 -0.642037 0.990945 0.016128 -0.007958 -446982.000000 1 0 0
16.930696 -6.770873 2.386865 18.389952 -0.380435 1.440637 0.031636 -0.002231 -396534.000000 1 0 0
17.612496 3.977827 1.923065 18.158230 0.222126 1.464691 0.008513 0.002822 535296.000000 1 0 0
14.774696 -4.929673 8.759265 17.869473 -0.322041 1.058500 0.021957 -0.002047 1078800.000000 1 0 0
12.781296 -12.655773 6.064065 18.981649 -0.780464 1.245626 0.027392 -0.014726 -711335.000000 1 0 0
18.265396 0.746427 -0.831335 18.299535 0.040843 1.616241 0.014979 -0.003206 307157.000000 1 0 0
11.725096 -2.192173 10.945265 16.188957 -0.184830 0.828347 0.001261 0.001538 -234843.000000 1 0 0
5.907496 -12.513673 10.696265 17.490015 -1.129730 0.912760 0.010372 -0.000831 -1483120.000000 1 0 0
10.824796 -5.069073 11.058065 16.283505 -0.437954 0.824266 0.001583 -0.000680 821746.000000 1 0 0
17.900696 1.212827 4.953865 18.613078 0.067650 1.301400 0.029443 -0.005267 80131.600000 1 0 0
12.353196 -7.816173 7.177865 16.285447 -0.564135 1.114359 0.019518 -0.006574 -1512590.000000 1 0 0
10.646296 -7.959173 14.248265 19.486024 -0.641963 0.750711 0.006546 -0.006421 -1203160.000000 1 0 0
14.218896 -0.279073 3.738965 14.704923 -0.019624 1.313707 0.007159 0.000355 1541330.000000 1 0 0
11.648696 -7.702173 2.625665 14.209494 -0.584212 1.384946 0.007646 -0.001590 1008630.000000 1 0 0
9.351196 6.116627 3.523265 11.716287 0.579253 1.265354 0.007225 -0.000855 1159830.000000 1 0 0
-3.933604 14.798827 -10.016635 18.297855 -1.310998 2.150076 0.003920 -0.001101 -150481.000000 1 0 0
8.835096 -6.428873 9.317465 14.359822 -0.629044 0.864716 0.000155 -0.003027 -356091.000000 1 0 0
5.781796 -10.529973 -8.505335 14.719043 -1.068660 2.186883 -0.001048 0.000773 -502872.000000 1 0 0
5.382496 1.084227 0.564965 5.519601 0.198776 1.468261 0.006229 -0.002303 4483480.000000 1 0 0
-0.577404 9.922127 10.985465 14.814265 -1.512668 0.735424 0.002319 0.000750 197516.000000 1 0 0
-6.291604 -5.106673 1.088065 8.175957 0.681813 1.437319 0.010766 -0.003226 3757770.000000 1 0 0
-1.089304 3.853227 -10.848735 11.564125 -1.295287 2.788007 0.009506 -0.004314 816241.000000 1 0 0
11.063496 5.795427 1.231265 12.550057 0.482532 1.472530 0.006308 0.001568 1040710.000000 1 0 0
-10.198804 -1.809373 -13.591235 17.088332 0.175583 2.490384 0.016072 -0.006886 -163843.000000 1 0 0
7.467096 10.933127 -6.098235 14.576668 0.971585 2.002431 0.002560 -0.004186 69054.700000 1 0 0
-12.462504 -2.942973 -9.593435 16.000284 0.231898 2.213771 0.007555 -0.003359 1106100.000000 1 0 0
-3.886304 -8.569273 2.383465 9.706529 1.145022 1.322706 0.007793 -0.000727 270710.000000 1 0 0
8.017896 -6.653973 -5.845335 11.946965 -0.692703 2.082053 0.006186 -0.000325 3106890.000000 1 0 0
14.415396 3.207727 -4.287835 15.377864 0.218954 1.853374 0.005271 0.000992 638178.000000 1 0 0
-2.482604 -4.886973 9.786965 11.217420 1.100766 0.510543 0.005545 -0.001007 1274510.000000 1 0 0
3.522496 -1.767373 -4.535635 6.008625 -0.465038 2.426228 0.006794 -0.002623 -502473.000000 1 0 0
-3.983504 8.422427 -3.534735 9.964935 -1.129011 1.933408 -0.000295 0.000139 223279.000000 1 0 0
5.868696 0.184427 11.777265 13.159771 0.031415 0.462490 -0.002190 -0.001227 2045800.000000 1 0 0
7.101696 4.735427 12.346865 15.010111 0.588096 0.604881 0.001399 0.002405 414347.000000 1 0 0
1.171696 -14.551573 12.500965 19.219659 -1.490449 0.862651 0.011899 -0.001891 -902119.000000 1 0 0
3.071796 8.680527 -9.211435 13.024516 1.230676 2.356380 0.003614 -0.001301 -163365.000000 1 0 0
-4.410104 -8.881473 -4.574735 10.920521 1.109912 2.003043 0.008906 -0.005063 882826.000000 1 0 0
5.707596 -6.494873 -3.988935 9.522166 -0.849827 2.003041 0.006316 -0.001902 2484250.000000 1 0 0
-3.184504 3.492727 8.624365 9.834626 -0.831526 0.501341 0.003807 -0.001989 1007620.000000 1 0 0
-3.789904 3.132727 -11.144135 12.180685 -0.690750 2.726062 0.005764 -0.005823 -670414.000000 1 0 0
3.004296 -6.016673 8.547465 10.875905 -1.107686 0.666633 -0.000585 0.003262 711187.000000 1 0 0
-5.104104 -8.639173 10.479465 14.508838 1.037162 0.763701 0.012528 -0.008336 2055090.000000 1 0 0
-13.249804 -2.512873 6.553465 14.993990 0.187428 1.118455 0.014352 -0.005733 1248300.000000 1 0 0
3.905896 -5.864273 -8.299035 10.886676 -0.983221 2.437673 0.001894 0.000182 4188860.000000 1 0 0
2.977696 -0.474073 12.402765 12.764012 -0.157883 0.238481 0.004161 -0.002253 1419020.000000 1 0 0
1.344196 -1.376773 -7.541935 7.783518 -0.797370 2.891794 0.010065 -0.006297 172628.000000 1 0 0
3.642996 -3.449573 3.505565 6.120455 -0.758134 0.960925 0.001491 0.000797 1424710.000000 1 0 0
1.530896 0.377127 -11.854935 11.959321 0.241535 3.009372 0.009036 -0.006795 -518948.000000 1 0 0
4.055896 3.496127 -10.624135 11.897287 0.711412 2.674737 0.001962 -0.000580 1644140.000000 1 0 0
2.828796 3.343027 3.298365 5.482438 0.868525 0.925264 0.000549 0.000379 -392116.000000 1 0 0
-5.279304 0.890727 2.613965 5.957957 -0.167146 1.116606 0.004594 -0.004842 592241.000000 1 0 0
-9.474004 -9.272573 5.714465 14.435805 0.774654 1.163799 0.002857 -0.004607 -1837210.000000 1 0 0
-3.138204 3.871727 -0.618535 5.022069 -0.889659 1.694273 0.001878 -0.006133 -84789.900000 1 0 0
-15.920404 -6.723373 5.103965 18.019807 0.399591 1.283624 0.031248 -0.009604 1567460.000000 1 0 0
1.032396 6.680427 -8.170435 10.604242 1.417469 2.450402 0.005311 -0.001972 1974660.000000 1 0 0
-1.568304 6.477127 -9.568335 11.660437 -1.333239 2.533224 0.003916 -0.000789 489738.000000 1 0 0
2.087596 -0.267273 5.243265 5.649896 -0.127336 0.381711 0.002365 -0.000739 2570760.000000 1 0 0
-3.526004 -0.651873 -6.293035 7.242923 0.182812 2.623677 0.009137 -0.009635 1187230.000000 1 0 0
1.982396 -1.066673 -2.419935 3.305113 -0.493640 2.392312 0.006766 -0.002103 1324680.000000 1 0 0
2.464796 -8.622873 -7.551435 11.724049 -1.292377 2.270640 -0.004455 0.002639 1638820.000000 1 0 0
-2.473104 14.017727 -5.659735 15.318143 -1.396167 1.949245 0.002250 0.000794 2021160.000000 1 0 0
6.867496 -5.117773 -8.115235 11.798777 -0.640433 2.329254 0.007621 -0.000205 3604540.000000 1 0 0
-14.217704 -4.990873 -2.201935 15.228277 0.337594 1.715900 -0.005190 -0.001261 -84486.500000 1 0 0
-2.762904 6.812127 -6.908635 10.088010 -1.185484 2.325175 0.001831 -0.000163 -1696010.000000 1 0 0
-5.812704 -1.205873 -8.080835 10.027041 0.204553 2.507998 0.004339 -0.009919 300500.000000 1 0 0
-5.739804 -10.556873 3.495665 12.514495 1.072801 1.287701 0.001332 -0.003022 -3147850.000000 1 0 0
8.054996 -7.562873 6.779565 12.963122 -0.753898 1.020443 0.001379 -0.003143 2184100.000000 1 0 0
8.867796 -5.953873 13.236365 17.008462 -0.591275 0.678966 0.002275 0.000625 1411680.000000 1 0 0
-4.692004 9.545527 -0.757535 10.663294 -1.113940 1.641898 -0.000634 0.002829 1078240.000000 1 0 0
2.763996 6.651127 12.124165 14.102218 1.176942 0.536046 0.003290 0.001203 380188.000000 1 0 0
6.065796 -2.753573 11.049665 12.902370 -0.426135 0.542529 -0.002148 -0.000599 -1967730.000000 1 0 0
-9.723404 -6.467073 -1.082235 11.727696 0.586920 1.663208 0.004039 -0.003066 940668.000000 1 0 0
0.877396 -13.368573 6.255265 14.785700 -1.505259 1.133975 0.010434 -0.002937 1987400.000000 1 0 0
-0.557304 -3.003973 8.741165 9.259720 1.387360 0.336249 0.002539 -0.000120 1345620.000000 1 0 0
4.230896 0.780027 3.422565 5.497534 0.182317 0.898782 -0.000133 -0.000032 1471120.000000 1 0 0
-10.211704 5.596827 8.270965 14.283285 -0.501368 0.953214 -0.001636 -0.006179 1095490.000000 1 0 0
9.486096 7.939727 -0.024035 12.370362 0.696890 1.572739 0.006152 0.000522 264690.000000 1 0 0
4.288396 2.960527 8.128465 9.655413 0.604225 0.570084 -0.000571 -0.000211 3342520.000000 1 0 0
1.319396 2.560327 -9.775935 10.191417 1.094965 2.855069 0.011391 -0.006703 2132400.000000 1 0 0
-1.442804 -10.202573 3.079465 10.754408 1.430312 1.280387 0.006984 -0.003317 -778316.000000 1 0 0
-9.893404 9.561927 9.012765 16.448094 -0.768362 0.990882 0.000058 -0.007672 1325620.000000 1 0 0
9.838796 -1.978473 -7.644135 12.615430 -0.198442 2.221737 0.012081 0.000902 2185030.000000 1 0 0
-5.251504 -1.815173 6.690465 8.696865 0.332793 0.693058 0.005249 -0.002994 1359910.000000 1 0 0
3.162196 -7.822373 -4.871235 9.742584 -1.186631 2.094388 -0.001490 0.000386 1696630.000000 1 0 0
-5.151304 4.863627 -13.129835 14.919228 -0.756681 2.646788 0.002090 -0.007139 3021750.000000 1 0 0
-5.718104 9.558027 5.424865 12.388775 -1.031663 1.117551 -0.000924 0.001544 1707880.000000 1 0 0
-0.565804 -1.767373 -9.380535 9.562331 1.260968 2.946286 0.009202 -0.008501 -107744.000000 1 0 0
-16.855104 0.047027 6.440365 18.043698 -0.002790 1.205815 0.018566 -0.009045 423463.000000 1 0 0
-5.987904 -2.886473 4.028965 7.772984 0.449185 1.025900 0.002933 -0.002803 1887400.000000 1 0 0
0.997096 -5.648673 -5.071135 7.656247 -1.396077 2.294751 0.003970 -0.001233 1698010.000000 1 0 0
-7.085704 1.330527 -8.435135 11.096351 -0.185615 2.434374 -0.001352 -0.002753 1354780.000000 1 0 0
8.011496 2.007727 4.789565 9.547511 0.245549 1.045284 0.000988 -0.001618 910143.000000 1 0 0
0.426896 -8.102573 -0.414935 8.124414 -1.518158 1.621891 0.002908 0.001375 1833160.000000 1 0 0
5.541196 5.537727 -3.446035 8.558413 0.785085 1.985205 0.006464 -0.001699 -617444.000000 1 0 0
-0.669104 -0.274773 -1.301935 1.489374 0.389661 2.634477 0.004839 -0.004327 265775.000000 1 0 0
9.095196 6.446527 -6.330635 12.820189 0.616597 2.087253 0.004321 -0.000924 1376090.000000 1 0 0
-14.916804 -7.106773 2.509065 16.712650 0.444612 1.420097 -0.005708 -0.003919 71421.100000 1 0 0
-6.466704 6.874527 8.740965 12.863975 -0.815957 0.823727 -0.000837 0.001466 -2753830.000000 1 0 0
-9.484404 -3.258973 -9.655935 13.921634 0.330974 2.337260 0.008234 -0.007018 689248.000000 1 0 0
14.831496 3.405927 -1.281735 15.271426 0.225728 1.654825 -0.007886 0.005314 544018.000000 1 0 0
12.114996 1.687927 -5.824435 13.547925 0.138434 2.015193 0.007748 0.001736 -487676.000000 1 0 0
1.780696 -9.430573 12.751465 15.959525 -1.384172 0.645186 0.003032 -0.001339 -399503.000000 1 0 0
-3.643704 6.373827 7.849465 10.747853 -1.051471 0.751993 0.001645 0.000638 1834190.000000 1 0 0
-3.873104 13.110527 -12.499535 18.523639 -1.283547 2.311474 0.011366 -0.001034 388131.000000 1 0 0
-10.303204 7.824127 6.495065 14.476147 -0.649482 1.105516 -0.000735 -0.006692 -1436.600000 1 0 0
8.020596 -9.319273 -7.082935 14.189672 -0.860154 2.093427 0.005122 0.000834 1154890.000000 1 0 0
5.880396 -3.807373 -0.294635 7.011559 -0.574594 1.612830 0.004199 0.000136 -611959.000000 1 0 0
-1.622304 -4.385573 4.230865 6.305977 1.216488 0.835335 0.003137 -0.000034 752102.000000 1 0 0
9.952096 -2.020373 -2.638635 10.492308 -0.200288 1.825008 0.005074 -0.000879 -1478200.000000 1 0 0
13.657196 7.082627 1.368065 15.445200 0.478417 1.482105 0.007810 0.003556 472395.000000 1 0 0
5.456096 -3.595973 -3.215235 7.282702 -0.582728 2.028054 0.007708 -0.003688 -2003930.000000 1 0 0
-12.275704 -5.884673 1.982065 13.756848 0.447012 1.426215 -0.006471 0.002099 798992.000000 1 0 0
3.729996 -5.668173 -0.205535 6.788469 -0.988776 1.601078 0.004232 -0.000553 -174629.000000 1 0 0
-5.272704 3.652227 -8.700735 10.809392 -0.605787 2.506343 0.001490 -0.004954 -405917.000000 1 0 0
-1.711104 -9.292573 7.263265 11.917836 1.388699 0.915436 0.005450 -0.005017 1786970.000000 1 0 0
-7.415504 -7.400873 2.631365 10.802162 0.784411 1.324724 0.007660 -0.001880 -2780970.000000 1 0 0
-5.706304 13.040527 -8.604535 16.632957 -1.158317 2.114511 0.010111 -0.008965 1500170.000000 1 0 0
9.089396 -13.942273 -4.066635 17.133057 -0.993065 1.810440 0.019386 -0.000586 982470.000000 1 0 0
-6.537804 -5.239673 -6.663235 10.704941 0.675620 2.242659 0.010742 -0.007946 1742530.000000 1 0 0
3.363896 0.444727 -6.221835 7.086947 0.131444 2.642315 0.010074 -0.007135 2952860.000000 1 0 0
-3.614004 5.740927 4.922365 8.381464 -1.008956 0.943088 0.002966 0.000309 -783782.000000 1 0 0
-2.714504 -10.809173 -2.830535 11.498638 1.324755 1.819515 0.008843 -0.002721 601863.000000 1 0 0
-12.606404 -0.400073 1.833165 12.745272 0.031725 1.426465 -0.001530 -0.002519 1436800.000000 1 0 0
8.314496 -11.974373 -6.053835 15.784973 -0.963867 1.964400 0.009452 -0.001227 380953.000000 1 0 0
6.090696 3.996327 0.960965 7.347834 0.580677 1.439639 0.005062 -0.001641 -335791.000000 1 0 0
3.417196 -4.823573 -10.903735 12.403045 -0.954431 2.644804 0.001565 -0.000663 -821568.000000 1 0 0
-7.673004 4.223327 8.603865 12.277539 -0.503161 0.794305 0.000017 -0.001112 1272960.000000 1 0 0
8.146696 8.763727 4.093665 12.646330 0.821870 1.241155 0.011297 0.000050 641496.000000 1 0 0
0.234796 10.527527 -6.387835 12.316184 1.548497 2.116072 0.001010 0.002394 1134170.000000 1 0 0
5.431296 8.067227 3.210265 10.241334 0.978247 1.251960 0.009317 0.000212 3258410.000000 1 0 0
8.105096 6.748327 -3.714535 11.181694 0.694307 1.909429 0.005145 -0.001270 159722.000000 1 0 0
10.508796 2.487827 -8.270935 13.602663 0.232458 2.224383 0.007424 0.000243 1037920.000000 1 0 0
3.294796 -12.448573 -0.268335 12.880010 -1.312057 1.591631 0.002550 -0.000967 -1048870.000000 1 0 0
0.615196 2.183327 5.183165 5.657789 1.296147 0.412525 0.002835 -0.000879 1163580.000000 1 0 0
-4.891504 13.495127 1.335465 14.416266 -1.223061 1.478027 -0.005621 0.009086 1458420.000000 1 0 0
8.146696 4.070327 -7.939835 12.082102 0.463351 2.287837 0.004525 0.002416 810576.000000 1 0 0
-13.879704 -0.533173 -3.540835 14.334154 0.038395 1.820401 -0.002722 -0.005171 -117781.000000 1 0 0
-8.599704 0.023727 -0.486135 8.613466 -0.002759 1.627265 0.002519 -0.004338 -244805.000000 1 0 0
1.798096 -3.779473 -1.078435 4.322105 -1.126734 1.822977 0.006059 -0.000425 -1773540.000000 1 0 0
8.177096 -5.608073 -0.190135 9.917235 -0.601150 1.589970 0.005437 0.000300 2897340.000000 1 0 0
-2.326004 -1.011573 7.416365 7.838115 0.410224 0.329536 0.005999 -0.002956 1891320.000000 1 0 0
-5.780004 8.796427 -11.817735 15.825436 -0.989456 2.413967 0.001941 -0.003713 -1205940.000000 1 0 0
-6.090604 9.184227 -8.876935 14.150811 -0.985226 2.248890 -0.000402 -0.001054 -994400.000000 1 0 0
-1.571604 13.947127 -8.459135 16.387472 -1.458587 2.113199 0.013598 -0.003108 -442100.000000 1 0 0
-1.487704 7.190127 9.723665 12.184451 -1.366766 0.646763 0.003620 -0.001676 50455.000000 1 0 0
10.102496 2.388527 -4.027035 11.134743 0.232166 1.940848 0.004271 -0.001534 -370923.000000 1 0 0
-2.994504 -7.504573 -6.983435 10.679608 1.191132 2.283529 0.007112 -0.004535 893370.000000 1 0 0
-5.532804 -5.001673 -1.601535 7.628471 0.735023 1.782312 0.013036 -0.003921 1487130.000000 1 0 0
5.705496 7.365927 -8.850135 12.850465 0.911749 2.330493 -0.003170 0.000883 -856922.000000 1 0 0
-9.545804 5.207127 -7.508235 13.214013 -0.499373 2.175116 -0.005660 -0.000533 290347.000000 1 0 0
-0.429004 6.099327 -5.416935 8.168783 -1.500576 2.295784 0.006744 -0.002164 -515622.000000 1 0 0
-8.194504 2.821627 -6.269935 10.696895 -0.331616 2.197089 -0.001571 -0.001953 -252938.000000 1 0 0
3.704896 1.458227 -2.023935 4.466430 0.374972 2.041085 0.006922 -0.004669 2038770.000000 1 0 0
-6.722604 12.449427 -3.573935 14.592965 -1.075668 1.818221 0.000626 0.001612 674293.000000 1 0 0
-6.563104 3.113027 -2.278835 7.613038 -0.442895 1.874790 0.001526 -0.003466 -2043570.000000 1 0 0
12.172196 4.101027 -0.803335 12.869582 0.324973 1.633258 0.001409 0.001986 -1421290.000000 1 0 0
2.267696 12.378827 -5.658335 13.798353 1.389614 1.993331 0.006664 -0.003505 329477.000000 1 0 0
-9.271104 -1.510273 -4.228435 10.301163 0.161483 1.993778 -0.000245 -0.001810 -800502.000000 1 0 0
-1.194104 5.704427 3.384465 6.739508 -1.364447 1.044675 0.003127 -0.000585 1000010.000000 1 0 0
11.542996 2.711727 12.065065 16.916265 0.230740 0.776711 0.012005 0.002349 521305.000000 1 0 0
-7.085904 -2.454273 -5.697935 9.418065 0.333428 2.220563 0.007276 -0.005968 -899839.000000 1 0 0
7.529796 -7.331573 10.915665 15.152608 -0.772061 0.766444 0.002109 -0.000737 -561279.000000 1 0 0
-5.530304 -1.956773 -10.865135 12.347647 0.340081 2.646523 0.010463 -0.006130 721373.000000 1 0 0
0.802296 -6.150573 4.528165 7.679682 -1.441086 0.940197 0.001813 0.000882 1667880.000000 1 0 0
-4.797304 -9.382473 7.414665 12.884960 1.098146 0.957641 0.004927 -0.004904 1768160.000000 1 0 0
-8.817604 9.332827 1.603465 12.939200 -0.813777 1.446554 0.003816 0.002071 1366490.000000 1 0 0
-8.052804 7.195027 -9.120135 14.134812 -0.729202 2.272114 -0.002553 -0.001170 -190630.000000 1 0 0
-1.352304 -10.616173 -0.046935 10.702059 1.444097 1.575182 0.005752 -0.001305 -1153020.000000 1 0 0
-4.057104 10.287527 7.713765 13.483155 -1.195152 0.961728 0.001477 0.000837 2793210.000000 1 0 0
-7.534404 12.083627 1.916665 14.368538 -1.013261 1.437004 -0.002901 0.004600 1669910.000000 1 0 0
-8.196504 -8.255573 -2.816835 11.969617 0.788989 1.808357 0.015797 -0.005402 -389193.000000 1 0 0
5.403296 4.539127 -8.035535 10.694349 0.698699 2.420949 0.003616 0.000997 73851.000000 1 0 0
-9.040304 -0.161273 -10.191835 13.624485 0.017837 2.415919 0.005199 -0.007361 -1672440.000000 1 0 0
-15.156504 -2.180273 -1.531435 15.388908 0.142871 1.670477 -0.005230 -0.002778 -250761.000000 1 0 0
-7.171704 -5.708473 8.762765 12.680933 0.672280 0.807899 0.007330 -0.003325 -178390.000000 1 0 0
8.127296 3.507527 -0.901935 8.897706 0.407425 1.672338 0.004614 0.000236 872323.000000 1 0 0
11.958296 7.363627 -5.848535 15.212798 0.551939 1.965407 0.005776 -0.001913 555081.000000 1 0 0
3.709496 13.330327 -9.649735 16.869362 1.299388 2.179772 -0.003413 -0.004517 992499.000000 1 0 0
-9.705704 5.451827 -0.499735 11.143286 -0.511792 1.615658 0.001505 -0.002580 1147800.000000 1 0 0
11.313396 -1.223773 -5.103235 12.471310 -0.107751 1.992371 0.008777 -0.001457 -377064.000000 1 0 0
10.631496 1.806927 -1.225335 10.853347 0.168351 1.683937 0.003664 -0.000018 646105.000000 1 0 0
14.686296 5.132327 4.855165 16.297261 0.336197 1.268291 0.013553 -0.002438 2378780.000000 1 0 0
0.925096 -0.740873 10.312765 10.380646 -0.675266 0.114423 0.004564 -0.002135 1787360.000000 1 0 0
-7.999904 1.304127 -12.587535 14.971481 -0.161596 2.569496 0.008190 -0.006058 -942990.000000 1 0 0
3.087696 -11.534873 -7.840235 14.284833 -1.309245 2.151785 -0.006451 0.004551 -796551.000000 1 0 0
2.914896 4.975627 -6.781835 8.902065 1.040857 2.436925 0.004036 -0.001205 -2968090.000000 1 0 0
6.589296 8.015027 0.450565 10.385687 0.882714 1.527399 0.012050 -0.002476 882295.000000 1 0 0
-9.093204 -5.436273 6.714165 12.542704 0.538829 1.005928 0.002606 -0.001443 -1064360.000000 1 0 0
-0.357904 -6.813073 -11.783435 13.615998 1.518313 2.616766 -0.002052 0.001484 1999560.000000 1 0 0
6.310096 -13.381873 -4.626235 15.501416 -1.130174 1.873854 0.006866 0.002044 1810480.000000 1 0 0
-3.308404 -0.275173 10.052765 10.586753 0.082983 0.318964 0.005197 -0.001069 -890430.000000 1 0 0
8.603796 8.503427 6.998465 13.975410 0.779531 1.046308 0.006228 0.000855 -177271.000000 1 0 0
-7.949504 5.645227 -2.692135 10.114879 -0.617496 1.840199 0.002393 -0.004200 -271648.000000 1 0 0
-5.386004 5.755727 -6.469935 10.197916 -0.818570 2.258076 -0.000198 -0.000086 -1550000.000000 1 0 0
3.330096 -13.613273 2.638365 14.260846 -1.330886 1.384717 0.009516 -0.007299 -2703890.000000 1 0 0
-11.338204 -7.048873 6.454965 14.829297 0.556217 1.120442 0.011098 -0.004459 -724761.000000 1 0 0
-12.867904 -3.746773 -6.792435 15.025260 0.283338 2.039878 0.003206 -0.004654 -932939.000000 1 0 0
5.973296 0.378427 -7.312935 9.450000 0.063269 2.455703 0.008620 -0.001054 -357789.000000 1 0 0
-1.528204 2.257327 -2.545635 3.729770 -0.975676 2.321998 0.006199 -0.007398 3596230.000000 1 0 0
7.579596 0.990127 -5.011835 9.140521 0.129895 2.151138 0.006630 -0.000434 -78842.900000 1 0 0
3.722596 -4.468673 10.921365 12.373479 -0.876230 0.489340 -0.001140 0.001602 -214715.000000 1 0 0
6.036696 -2.506573 2.112465 6.869288 -0.393560 1.258207 0.003960 -0.001410 -31693.100000 1 0 0
-6.318604 7.749027 1.121365 10.061294 -0.886732 1.459111 -0.000256 -0.000922 1289310.000000 1 0 0
6.026596 -3.344373 8.030965 10.583057 -0.506625 0.709249 0.002499 -0.004159 -967415.000000 1 0 0
6.776996 -2.255073 -7.783935 10.564217 -0.321229 2.399152 0.007449 -0.001396 900892.000000 1 0 0
12.211296 -8.208373 -5.788735 15.811471 -0.591820 1.945621 0.026345 -0.003970 1570960.000000 1 0 0
5.651596 -9.685573 10.108165 15.097214 -1.042593 0.837209 0.002933 0.001744 2516160.000000 1 0 0
-6.640404 7.515527 -4.508635 10.995722 -0.847140 1.993289 -0.001201 -0.001212 2289040.000000 1 0 0
-1.266804 -7.532373 9.672365 12.324613 1.404174 0.668422 0.007628 -0.003768 618136.000000 1 0 0
10.098696 -9.232873 0.742165 13.703300 -0.740640 1.516610 0.007027 -0.002172 2890480.000000 1 0 0
11.114496 6.101427 9.759065 15.999962 0.502045 0.914808 0.012741 -0.001321 1761020.000000 1 0 0
-15.292804 -4.206873 -5.006735 16.632349 0.268448 1.876563 0.002279 -0.003089 2116280.000000 1 0 0
-4.751104 -4.637473 7.826265 10.263019 0.773296 0.703521 0.005091 -0.003990 -518668.000000 1 0 0
3.025896 10.877527 -11.224535 15.920641 1.299477 2.353262 0.000184 0.000631 -2363900.000000 1 0 0
9.943296 -1.299873 1.563865 10.149113 -0.129991 1.416091 0.001335 -0.000341 -1279940.000000 1 0 0
-1.524704 -2.598973 0.601165 3.072586 1.040246 1.373872 0.004094 -0.001953 -72609.500000 1 0 0
1.545596 3.043927 0.821065 3.511197 1.100957 1.334769 0.003828 -0.003277 -1772710.000000 1 0 0
-8.987004 -2.283773 4.346965 10.240994 0.248852 1.132423 0.004166 -0.003182 5481730.000000 1 0 0
9.960996 4.939227 -2.664235 11.433090 0.460327 1.805987 0.004416 0.000804 1102090.000000 1 0 0
2.563596 8.514327 2.450565 9.223397 1.278338 1.301877 0.004731 0.001190 288418.000000 1 0 0
-8.174104 0.036927 2.521365 8.554216 -0.004517 1.271601 0.003768 -0.004659 1953120.000000 1 0 0
6.952196 2.111727 13.807965 15.602959 0.294893 0.484392 -0.003936 0.003125 -754960.000000 1 0 0
6.880796 4.387727 3.709765 8.964366 0.567664 1.144134 0.003602 -0.000326 -75920.400000 1 0 0
-0.383604 3.401927 7.769865 8.490645 -1.458510 0.415018 0.002657 -0.001111 652494.000000 1 0 0
2.763496 -10.241473 9.254165 14.077083 -1.307239 0.853443 0.002723 -0.001241 1456520.000000 1 0 0
1.345996 -4.488373 6.925165 8.361526 -1.279445 0.594876 -0.001305 0.001936 1570620.000000 1 0 0
-0.195504 10.844327 -2.072435 11.042311 -1.552770 1.759597 0.005097 -0.001172 3107200.000000 1 0 0
8.756696 5.559027 7.959965 13.074538 0.565638 0.916231 0.003409 0.000179 -793816.000000 1 0 0
2.620496 11.433527 -2.994535 12.106187 1.345494 1.820747 0.008455 -0.006722 962939.000000 1 0 0
1.428596 2.423827 -6.742835 7.306274 1.038210 2.746297 0.009331 -0.006367 758720.000000 1 0 0
-13.637504 -2.177873 3.648565 14.284140 0.158360 1.312506 0.001287 -0.003850 630671.000000 1 0 0
-1.007804 -10.690173 -5.316435 11.981651 1.476800 2.030536 0.002851 -0.001259 -401140.000000 1 0 0
-5.661404 2.846127 0.464965 6.353591 -0.465825 1.497549 0.005604 -0.005638 -409866.000000 1 0 0
3.789796 7.268727 -5.066035 9.636475 1.090188 2.124351 0.004712 -0.001616 -758722.000000 1 0 0
2.991596 9.695827 -6.561835 12.083724 1.271519 2.144839 0.005655 -0.001258 914263.000000 1 0 0
-12.200004 1.702427 -2.504435 12.570224 -0.138648 1.771374 0.000812 -0.004878 870749.000000 1 0 0
-2.461404 9.558027 -5.801435 11.448626 -1.318751 2.102191 0.000482 0.002014 685569.000000 1 0 0
-1.363504 3.359927 1.667865 3.991243 -1.185288 1.139685 0.001053 -0.003055 -1129240.000000 1 0 0
12.913596 3.763027 9.695865 16.581048 0.283549 0.946217 0.022839 -0.000072 1148720.000000 1 0 0
-2.486204 -9.534973 11.572865 15.199609 1.315730 0.705338 0.006473 -0.010800 2588940.000000 1 0 0
-0.410904 -8.919973 -7.445635 11.626360 1.524763 2.265828 0.002881 -0.000311 1676430.000000 1 0 0
2.338796 7.724327 -0.582235 8.091612 1.276788 1.642814 0.006071 -0.000360 774419.000000 1 0 0
-11.829404 -1.310373 -5.507435 13.114256 0.110323 2.004195 0.000335 0.000169 -1809560.000000 1 0 0
-6.210704 -7.149773 -10.900635 14.440081 0.855570 2.426279 0.008447 -0.008495 375993.000000 1 0 0
-4.687604 -2.231873 -1.370935 5.369762 0.444364 1.828961 0.007474 -0.004443 -851686.000000 1 0 0
-10.516104 3.682727 4.446265 11.996674 -0.336852 1.191115 0.001780 -0.007207 2793050.000000 1 0 0
6.857896 9.432227 -3.614235 12.209027 0.942132 1.871330 0.006173 -0.002107 351924.000000 1 0 0
1.220296 -2.714473 -11.483935 11.863315 -1.148315 2.888013 0.005979 -0.005386 -1563820.000000 1 0 0
1.224296 8.862627 7.611765 11.746660 1.433524 0.865849 0.000562 0.002904 -265092.000000 1 0 0
10.388896 0.406927 10.505365 14.780306 0.039149 0.780207 0.000432 0.000208 1701970.000000 1 0 0
-5.328104 -0.847073 -3.930035 6.674683 0.157663 2.200366 0.004951 -0.007882 -951441.000000 1 0 0
11.729996 5.671427 5.432065 14.116134 0.450359 1.175792 0.008807 -0.000231 2569720.000000 1 0 0
9.962296 -3.381473 3.710465 11.155683 -0.327225 1.231729 0.005120 -0.002085 -921694.000000 1 0 0
7.375296 -1.589973 -3.414635 8.281470 -0.212331 1.995798 0.007992 -0.000768 -2802560.000000 1 0 0
2.313696 9.308527 10.480065 14.206816 1.327177 0.741171 0.003163 0.002814 3535310.000000 1 0 0
2.413196 -10.870773 6.373165 12.830217 -1.352349 1.050968 0.001824 -0.000722 1293900.000000 1 0 0
5.897296 -7.488973 -1.158735 9.602369 -0.903746 1.691763 0.004081 -0.001955 2206970.000000 1 0 0
-0.270604 -5.618573 -2.300235 6.077226 1.522671 1.958972 0.005819 0.000673 1979200.000000 1 0 0
7.754896 -5.016473 2.668765 9.613830 -0.574177 1.289505 0.005311 -0.001262 2310310.000000 1 0 0
-2.804604 -12.513573 4.720265 13.665146 1.350315 1.218106 0.003993 -0.003991 -614743.000000 1 0 0
4.823796 -10.271673 -1.141935 11.405275 -1.131746 1.671088 0.004079 -0.002759 -156270.000000 1 0 0
0.994596 0.292627 1.046565 1.473143 0.286142 0.780687 0.000658 -0.000964 -2688420.000000 1 0 0
-1.620704 8.516527 2.378765 8.989796 -1.382744 1.303000 0.000679 0.003576 898020.000000 1 0 0
-7.614804 0.594327 -3.095735 8.241483 -0.077891 1.955871 0.002013 -0.002615 -807537.000000 1 0 0
4.462296 -6.341673 12.911065 15.060694 -0.957627 0.540855 0.002368 -0.000596 -1323360.000000 1 0 0
-5.180504 13.065427 8.478865 16.414449 -1.193307 1.027981 0.001617 -0.001406 2837890.000000 1 0 0
0.687896 6.109527 8.217865 10.263178 1.458674 0.642311 0.002933 0.003312 802153.000000 1 0 0
8.040596 -0.482173 -0.681535 8.083822 -0.059896 1.655205 0.006558 -0.002024 5144510.000000 1 0 0
2.395996 -9.202473 -2.340535 9.793080 -1.316087 1.812131 0.000402 0.000332 889106.000000 1 0 0
-7.139704 12.187027 4.816765 14.923144 -1.040850 1.242140 -0.006563 0.002475 269027.000000 1 0 0
-14.986304 0.264427 0.198765 14.989954 -0.017643 1.557536 -0.000359 -0.006168 -743270.000000 1 0 0
6.857996 -0.484173 3.969465 7.938715 -0.070483 1.047182 0.002190 0.000043 520118.000000 1 0 0
-4.230304 -4.974773 5.085965 8.277130 0.866098 0.909095 0.004310 -0.001518 80532.100000 1 0 0
2.956296 5.151727 6.790465 9.021662 1.049830 0.718666 -0.001430 0.001765 269753.000000 1 0 0
2.054096 -7.150973 1.880865 7.674202 -1.291080 1.323185 0.001483 -0.000516 2206040.000000 1 0 0
-2.443904 6.445127 -1.844935 7.135552 -1.208361 1.832323 0.001766 -0.000883 1142000.000000 1 0 0
2.631396 -3.771473 -6.497235 7.960045 -0.961609 2.525653 0.004057 -0.002627 -47684.600000 1 0 0
-5.197504 0.835927 -12.194635 13.282392 -0.159467 2.734070 0.007577 -0.002817 119976.000000 1 0 0
-7.461104 6.362727 -11.966235 15.470719 -0.706109 2.455104 0.001653 -0.005018 2001980.000000 1 0 0
-0.995504 11.165027 -9.102035 14.439387 -1.481869 2.252815 0.005296 0.001280 670871.000000 1 0 0
4.649296 5.985527 -0.697835 7.611141 0.910390 1.662611 0.007942 -0.003208 1353020.000000 1 0 0
-2.716304 13.368127 3.508465 14.085256 -1.370333 1.319058 -0.004555 0.008088 1663990.000000 1 0 0
1.571396 -7.855673 10.234265 12.996964 -1.373369 0.664160 -0.001820 0.001344 -234921.000000 1 0 0
13.011896 -0.209373 -1.053135 13.056124 -0.016090 1.651546 0.004444 0.001227 40277.300000 1 0 0
-1.051504 3.099227 -5.445835 6.353580 -1.243704 2.600465 0.008425 -0.008157 726571.000000 1 0 0
6.557396 1.125927 7.274565 9.858319 0.170045 0.740826 0.001011 -0.000728 900465.000000 1 0 0
5.486996 -6.109473 6.888165 10.718191 -0.839025 0.872830 0.001479 -0.000198 175052.000000 1 0 0
12.172396 -4.902073 2.615065 13.380438 -0.382849 1.374091 0.003974 -0.001065 -132865.000000 1 0 0
4.456696 -9.162373 13.901465 17.235485 -1.118077 0.632486 0.001233 0.000430 -134157.000000 1 0 0
-2.741004 -4.293773 -1.411435 5.285995 1.002642 1.841090 0.011672 -0.004034 2294010.000000 1 0 0
-9.315904 -5.259373 -7.528835 13.081683 0.513952 2.184042 0.011793 -0.005368 595110.000000 1 0 0
-10.617104 -3.142673 7.890565 13.596334 0.287784 0.951644 0.005167 -0.002558 -941365.000000 1 0 0
12.083696 -0.569373 1.669165 12.211716 -0.047084 1.433682 0.001152 -0.000367 1309410.000000 1 0 0
-7.590104 4.720627 4.365765 9.947557 -0.556399 1.116447 0.003072 -0.005865 1942700.000000 1 0 0
-1.136904 10.586627 6.924465 12.701080 -1.463816 0.994184 0.000176 0.004331 2639160.000000 1 0 0
7.360596 -9.982873 1.898865 12.547582 -0.935458 1.418880 0.002923 -0.002708 2434040.000000 1 0 0
-4.264704 -1.712273 1.668965 4.889276 0.381798 1.222441 0.005035 -0.001983 2439490.000000 1 0 0
6.652396 -14.973673 -0.889335 16.409028 -1.152715 1.625021 0.016654 0.000827 -1426180.000000 1 0 0
-10.482604 1.713827 2.352765 10.879232 -0.162059 1.352812 0.001475 -0.003459 229333.000000 1 0 0
-2.934104 8.334427 -11.474635 14.482364 -1.232300 2.485395 0.004952 -0.000694 -1135440.000000 1 0 0
-1.287804 -5.164273 -6.921335 8.731153 1.326413 2.486050 0.003076 -0.004755 1132770.000000 1 0 0
12.885096 -0.435473 6.483565 14.430938 -0.033784 1.104834 0.007279 -0.001757 1756040.000000 1 0 0
5.912196 -13.222373 3.780765 14.969282 -1.150327 1.315463 0.008145 -0.006687 2113730.000000 1 0 0
-5.571304 3.469727 -4.892735 8.186408 -0.557005 2.211383 0.000876 -0.002777 1573990.000000 1 0 0
-4.362704 7.978927 3.303765 9.675294 -1.070430 1.222322 0.001435 0.001369 -486622.000000 1 0 0
14.031896 6.181327 -4.029635 15.853734 0.414942 1.827792 0.011387 0.000109 2837310.000000 1 0 0
-6.673804 -8.458573 5.395565 12.049865 0.902800 1.106527 0.007807 -0.003992 676219.000000 1 0 0
1.645596 11.383827 2.687565 11.811964 1.427235 1.341257 0.003652 0.000681 961823.000000 1 0 0
-7.452604 7.246927 5.955565 11.980317 -0.771407 1.050529 -0.001176 -0.001294 -796255.000000 1 0 0
-17.357904 -4.160773 5.405265 18.650087 0.235266 1.276752 0.027986 -0.012868 10786.800000 1 0 0
7.379296 -13.120773 -8.502835 17.288924 -1.058473 2.084962 0.012895 0.000842 -1257310.000000 1 0 0
-2.342404 12.793527 -2.963535 13.339555 -1.389709 1.794827 -0.003613 0.004316 1785630.000000 1 0 0
-5.478404 13.942727 -5.842335 16.079347 -1.196407 1.942651 0.007617 0.000056 2320040.000000 1 0 0
-5.647504 2.412527 7.395665 9.613035 -0.403720 0.692993 0.004781 -0.003590 1373110.000000 1 0 0
-7.406604 5.111227 1.438565 9.113281 -0.604044 1.412280 0.004044 -0.003618 1027800.000000 1 0 0
10.799696 -5.681673 -4.992935 13.185001 -0.484306 1.959169 0.008678 0.000094 2814840.000000 1 0 0
-9.548304 -0.706673 6.933365 11.821211 0.073876 0.944042 0.000280 -0.001781 891770.000000 1 0 0
-11.328004 -4.564173 -2.537835 12.473811 0.383013 1.775680 -0.001093 -0.002850 1080600.000000 1 0 0
6.556796 -4.247373 13.561565 15.650808 -0.574814 0.522631 -0.000214 -0.000983 -712648.000000 1 0 0
0.310396 10.183827 -11.750235 15.552321 1.540326 2.427258 0.002607 -0.000081 -2130600.000000 1 0 0
-11.837904 -3.174573 1.492365 12.346701 0.262006 1.449628 -0.004059 -0.001982 3786190.000000 1 0 0
5.263296 5.993027 5.313065 9.583701 0.850136 0.983172 0.002352 0.002590 -4618860.000000 1 0 0
-7.129204 -0.022673 8.185265 10.854705 0.003180 0.716551 0.000226 -0.001402 465826.000000 1 0 0
1.789896 2.146027 9.644765 10.041447 0.875634 0.282019 0.003214 -0.002479 2265410.000000 1 0 0
10.568696 -4.939473 -2.022635 11.840050 -0.437203 1.742468 0.004484 0.001995 2466860.000000 1 0 0
-9.715904 -2.386673 -1.583235 10.129246 0.240877 1.727743 0.001625 -0.003638 -1465770.000000 1 0 0
-2.090704 -5.193573 -9.881535 11.357331 1.188089 2.626116 0.006658 -0.006577 -245676.000000 1 0 0
7.657196 -1.528773 6.608265 10.229319 -0.197061 0.868448 0.002762 -0.001959 4578380.000000 1 0 0
1.404096 -11.781673 -2.522935 12.130314 -1.452179 1.780312 0.000984 0.001964 -3826670.000000 1 0 0
-0.728904 -1.438873 4.868765 5.128989 1.101899 0.319909 0.003561 -0.001595 2090440.000000 1 0 0
7.627996 1.599927 9.861065 12.569276 0.206747 0.668847 -0.002056 -0.001894 2461760.000000 1 0 0
-3.793304 10.704627 -8.047235 13.918914 -1.230242 2.187257 0.002700 0.001891 2195530.000000 1 0 0
-9.556804 12.776427 6.354165 17.173963 -0.928575 1.191800 -0.004162 -0.000208 520068.000000 1 0 0
-2.573404 -2.378173 -11.025935 11.569328 0.745991 2.833889 0.011387 -0.009391 -2741920.000000 1 0 0
1.225196 -11.874173 11.139465 16.327424 -1.467979 0.819954 0.003095 -0.000577 1710060.000000 1 0 0
1.330296 3.480527 -1.951035 4.205983 1.205719 2.053157 0.006644 -0.004694 2752930.000000 1 0 0
-1.940404 -9.402973 -11.940835 15.322030 1.367292 2.464384 -0.000094 -0.000431 -284458.000000 1 0 0
1.369396 -2.572673 1.619865 3.334345 -1.081655 1.063504 0.006480 -0.001516 3552810.000000 1 0 0
-1.155604 -2.264673 -6.610235 7.082328 1.098963 2.774409 0.009706 -0.009613 -558135.000000 1 0 0
1.836196 5.890427 4.003665 7.355140 1.268617 0.995199 -0.001779 0.003379 -1126720.000000 1 0 0
-11.141204 8.588027 3.620965 14.525564 -0.656703 1.318857 -0.003887 -0.006450 3318220.000000 1 0 0
-16.395404 -1.622473 4.023065 16.959562 0.098638 1.331298 0.014954 -0.007056 -402675.000000 1 0 0
-12.305004 0.293327 6.824665 14.073919 -0.023833 1.064530 0.003345 -0.003469 -491262.000000 1 0 0
-5.133204 3.021327 4.662565 7.564239 -0.531984 0.906639 0.001683 -0.003517 1467900.000000 1 0 0
5.214796 -5.984973 3.958165 8.870235 -0.854057 1.108248 -0.000426 0.000054 1452460.000000 1 0 0
10.013896 3.430827 6.302765 12.319640 0.330073 1.033747 0.003864 0.002118 2571070.000000 1 0 0
-12.222404 5.836127 3.153665 13.906586 -0.445481 1.342031 -0.000806 -0.005060 1619580.000000 1 0 0
-4.916404 12.372127 -1.400135 13.386595 -1.192553 1.675580 -0.007541 0.005939 1871860.000000 1 0 0
-1.657204 -12.157773 10.310265 16.026832 1.435323 0.871979 0.015036 -0.011037 1092810.000000 1 0 0
5.165096 6.359127 13.879265 16.116783 0.888640 0.533233 0.001727 0.000748 -37647.600000 1 0 0
12.969296 -3.670373 -5.996135 14.752218 -0.275793 1.989369 0.004941 -0.000272 1246830.000000 1 0 0
3.572596 -2.480873 6.443365 7.774003 -0.606969 0.593774 -0.001830 0.001359 358541.000000 1 0 0
7.194396 -11.841273 -0.638535 13.870213 -1.024830 1.616849 0.007434 0.000960 -125826.000000 1 0 0
-6.138004 -6.582073 -4.038135 9.864345 0.820295 1.992556 0.013519 -0.007331 1020660.000000 1 0 0
0.276896 -8.939173 5.070465 10.280813 -1.539831 1.055035 0.004935 -0.002575 1970650.000000 1 0 0
-10.268904 2.527127 -0.370035 10.581762 -0.241300 1.605773 0.001039 -0.002870 -1177750.000000 1 0 0
-1.888904 8.959827 -0.419335 9.166368 -1.363020 1.616559 0.003103 0.001018 205528.000000 1 0 0
-3.591304 2.235127 -6.638335 7.871515 -0.556707 2.574258 0.007536 -0.008295 718871.000000 1 0 0
-12.700104 3.011027 6.354165 14.516691 -0.232789 1.117741 0.001909 -0.008428 640407.000000 1 0 0
11.407196 1.655127 7.984665 14.022070 0.144089 0.964977 0.007821 -0.003074 -2304180.000000 1 0 0
6.118696 2.674027 -3.202135 7.405574 0.412012 2.017944 0.006819 -0.001867 720795.000000 1 0 0
10.583996 -2.345173 6.446765 12.612755 -0.218054 1.034297 0.006339 -0.002943 3282270.000000 1 0 0
-1.022204 11.017127 4.032165 11.776262 -1.478278 1.221329 0.002139 0.006002 963588.000000 1 0 0
-1.644604 -12.287273 7.412765 14.444061 1.437741 1.031881 0.004140 -0.001924 -1028760.000000 1 0 0
8.035796 8.677327 -7.759535 14.144978 0.823764 2.151451 0.001554 -0.001597 246766.000000 1 0 0
-4.716104 -5.928573 -8.700935 11.536719 0.898813 2.425224 0.009913 -0.007853 444158.000000 1 0 0
-8.542204 -5.342873 -11.715835 15.452389 0.558936 2.431328 0.011377 -0.007102 1352170.000000 1 0 0
6.063796 -0.653573 -9.949635 11.670134 -0.107368 2.591684 0.006889 -0.001876 660464.000000 1 0 0
-11.240804 -5.489173 -5.350135 13.605537 0.454265 1.974941 0.000640 -0.004622 -698049.000000 1 0 0
3.976596 8.929127 -2.842035 10.179380 1.151815 1.853752 0.011130 -0.003650 396411.000000 1 0 0
11.645196 -10.457473 -4.038735 16.164180 -0.731713 1.823329 0.024106 -0.005930 893176.000000 1 0 0
3.867896 -11.238673 3.979665 12.534199 -1.239334 1.247700 0.004593 -0.002738 871830.000000 1 0 0
-1.063304 0.852127 3.166965 3.447666 -0.675591 0.406318 0.004339 -0.002437 630194.000000 1 0 0
-10.650404 -5.037473 4.525165 12.620791 0.441802 1.204084 0.004256 -0.001479 3551690.000000 1 0 0
4.605696 -8.644373 2.873665 10.207624 -1.081257 1.285417 0.002611 -0.000106 4230530.000000 1 0 0
-3.664604 -5.687473 2.561165 7.234379 0.998418 1.208923 0.006552 0.000745 2828590.000000 1 0 0
9.969096 5.110627 12.331965 16.660695 0.473714 0.737454 0.014197 0.001127 1391660.000000 1 0 0
1.559196 -12.270473 -5.227735 13.428508 -1.444405 1.970669 -0.002368 0.001230 646707.000000 1 0 0
9.856296 -10.696873 -1.773535 14.653160 -0.826273 1.692128 0.010434 -0.001646 1587460.000000 1 0 0
9.668496 -4.511873 -9.136835 14.047013 -0.436619 2.278969 0.017435 -0.000564 3197590.000000 1 0 0
-7.455904 -3.015073 -13.131535 15.398649 0.384283 2.592066 0.009802 -0.002921 2773700.000000 1 0 0
0.401096 6.275127 -2.623535 6.813298 1.506965 1.966070 0.005868 -0.003191 2506410.000000 1 0 0
-6.056304 -9.464973 1.002265 11.281359 1.001579 1.481836 0.002869 -0.001842 1194080.000000 1 0 0
-9.028504 -4.091773 0.630865 9.932496 0.425517 1.507238 0.002196 -0.003793 3176680.000000 1 0 0
1.882296 3.816727 12.150265 12.873981 1.112627 0.336898 0.005235 -0.003343 598769.000000 1 0 0
6.675896 4.383727 9.572965 12.467009 0.581036 0.695296 -0.001705 0.002319 1305420.000000 1 0 0
-8.320604 9.867227 -3.681035 13.421797 -0.870230 1.848614 -0.002506 -0.000420 2392920.000000 1 0 0
16.454696 2.120227 -6.040535 17.656173 0.128146 1.919969 0.003476 -0.001007 -1699350.000000 1 0 0
-10.920204 2.618027 -5.118735 12.341246 -0.235301 1.998482 -0.002207 -0.000176 1248560.000000 1 0 0
-13.888004 4.038127 1.473465 14.538026 -0.282962 1.469270 0.001035 -0.002872 -175240.000000 1 0 0
-17.460504 10.460027 3.461465 20.646140 -0.539734 1.402344 0.040400 -0.010877 -643497.000000 1 0 0
-14.419004 2.844327 -1.194935 14.745363 -0.194762 1.651923 0.003136 -0.004490 1013830.000000 1 0 0
-14.449704 5.104727 5.149765 16.167011 -0.339590 1.246612 0.001693 -0.008724 1231600.000000 1 0 0
-17.462604 7.593027 3.106865 19.293760 -0.410156 1.409063 0.024853 -0.003179 -2031120.000000 1 0 0
-14.941004 12.537027 -3.481035 19.812325 -0.698133 1.747414 0.034843 -0.006146 -107195.000000 1 0 0
-8.479804 12.426627 -9.570335 17.830295 -0.971987 2.137372 0.011407 -0.016689 332773.000000 1 0 0
-12.417704 8.757227 -9.846835 18.106588 -0.614221 2.145786 0.005130 -0.001728 -818041.000000 1 0 0
-13.908504 -3.485673 -12.272835 18.873761 0.245557 2.278722 0.012975 -0.000152 -1800020.000000 1 0 0
-14.670604 5.614927 -7.654335 17.474062 -0.365533 2.024213 0.014583 -0.000406 528085.000000 1 0 0
-10.803004 13.440027 -8.333335 19.151597 -0.893747 2.020973 0.014469 -0.018265 301526.000000 1 0 0
-10.925204 13.541527 3.871965 17.824846 -0.891927 1.351828 0.002241 -0.000509 -1325900.000000 1 0 0
-15.246704 3.289027 3.063065 15.895346 -0.212465 1.376881 0.001836 -0.003739 719736.000000 1 0 0
-11.066004 9.330127 -12.426035 19.076531 -0.700495 2.280196 0.008970 -0.006641 404366.000000 1 0 0
-13.042604 11.544527 -9.061935 19.634263 -0.724544 2.050523 0.018850 -0.014342 -1119750.000000 1 0 0
-8.884004 14.608227 -3.591235 17.470626 -1.024405 1.777831 0.007261 -0.006147 450615.000000 1 0 0
-16.674604 8.102527 -4.265635 19.023380 -0.452320 1.796950 0.024010 -0.002425 -1776140.000000 1 0 0
-16.944404 6.712527 0.329765 18.228537 -0.377183 1.552705 0.021704 0.003307 -239210.000000 1 0 0
-10.543504 2.741527 -12.647135 16.692258 -0.254387 2.430524 0.006088 -0.004515 -63044.500000 1 0 0
-16.875404 0.805827 2.365165 17.059385 -0.047715 1.431705 0.010522 -0.008176 -22937.200000 1 0 0
-12.649904 1.174927 -7.000035 14.505206 -0.092615 2.074403 0.001974 -0.005648 773941.000000 1 0 0
-12.376104 8.976027 -5.457135 16.233217 -0.627486 1.913645 0.012805 -0.003818 91974.500000 1 0 0
-9.670904 13.928927 1.157265 16.996489 -0.963904 1.502655 0.009880 -0.000768 -1036020.000000 1 0 0
-12.253304 11.080727 2.727065 16.744039 -0.735189 1.407200 0.004437 -0.001349 574043.000000 1 0 0
-12.544904 6.800827 -3.592535 14.715032 -0.496772 1.817430 0.003008 0.000493 147909.000000 1 0 0
-15.809104 3.511427 -9.163835 18.607357 -0.218566 2.085738 0.018192 -0.004824 -2291120.000000 1 0 0
-15.007204 5.705227 -4.695235 16.727552 -0.363292 1.855308 0.010031 0.000618 1190570.000000 1 0 0
-17.904804 5.201527 7.501165 20.097397 -0.282728 1.188297 0.011884 -0.010154 -1165300.000000 1 0 0
-15.737504 10.004727 -2.259735 18.784834 -0.566275 1.691384 0.025965 -0.000055 -1021970.000000 1 0 0
-8.718204 9.859427 -8.361935 15.592861 -0.846751 2.136804 0.000964 -0.005521 1167060.000000 1 0 0
-17.070304 4.216327 -1.243935 17.627253 -0.242151 1.641424 0.011807 -0.002244 -141197.000000 1 0 0
-10.205704 5.359927 -4.560335 12.396849 -0.483595 1.947506 -0.001142 -0.000884 -768075.000000 1 0 0
-18.160004 2.660827 6.182365 19.367172 -0.145486 1.245891 0.015039 -0.012695 -1273710.000000 1 0 0
-10.379904 10.026627 -5.804735 15.555404 -0.768088 1.953215 0.000995 -0.004766 634511.000000 1 0 0
-15.311604 0.453227 -5.875135 16.406335 -0.029592 1.937030 0.003915 -0.006298 1547730.000000 1 0 0
-16.450104 -4.089773 -8.902235 19.146330 0.243676 2.054383 0.008155 -0.008413 -344522.000000 1 0 0
-10.019204 9.604327 -1.114935 13.923743 -0.764260 1.650957 -0.001354 0.000905 1119140.000000 1 0 0
-17.275504 -3.018373 -3.260235 17.837677 0.172974 1.754602 0.003742 -0.007524 205307.000000 1 0 0
-11.979504 4.996827 -11.612635 17.416374 -0.395173 2.300656 0.003696 0.000490 -145133.000000 1 0 0
-16.418004 7.030627 5.857665 18.796085 -0.404600 1.253875 0.016348 -0.006470 -788939.000000 1 0 0
-12.035604 5.948127 -8.856435 16.083296 -0.459006 2.153952 0.001359 0.000150 1080460.000000 1 0 0
-14.557304 8.311727 -0.120635 16.763485 -0.518797 1.577993 0.017847 0.000025 -817003.000000 1 0 0
-14.911004 11.861727 3.919765 19.452587 -0.671992 1.367904 0.019207 -0.010802 1533730.000000 1 0 0
-17.349404 4.078327 -4.020835 18.270240 -0.230878 1.792688 0.018209 -0.006077 -302785.000000 1 0 0
-13.854304 13.400127 -0.921235 19.296471 -0.768735 1.618556 0.029192 -0.003486 281251.000000 1 0 0
-10.078104 6.773327 -13.108535 17.868403 -0.591743 2.394423 -0.004155 -0.006625 887818.000000 1 0 0
-15.839004 -1.109373 -8.307035 17.919586 0.069926 2.052820 0.005113 -0.007749 -387528.000000 1 0 0
-11.489904 11.895427 -0.096635 16.538694 -0.802737 1.576639 0.013110 -0.001978 550852.000000 1 0 0
-12.018804 7.357627 -0.895135 14.120467 -0.549325 1.634232 0.001909 0.002429 1034690.000000 1 0 0
-11.532104 0.183927 -11.690035 16.421941 -0.015948 2.362932 0.008995 -0.005650 -304532.000000 1 0 0
-19.134904 -1.269873 -4.706835 19.746175 0.066267 1.811480 0.024585 -0.014068 -786525.000000 1 0 0
-17.936304 1.376827 -4.987235 18.667596 -0.076612 1.841241 0.010432 -0.011456 -432625.000000 1 0 0
-13.373604 -0.124073 -9.503335 16.406768 0.009277 2.188583 0.008529 -0.006477 -1727450.000000 1 0 0
-6.081004 11.314527 -13.246235 18.451554 -1.077639 2.371567 0.003672 -0.002669 -963243.000000 1 0 0
16.479196 5.887027 7.074665 18.875166 0.343110 1.186601 0.029541 -0.002047 -497500.000000 1 0 0
14.925096 10.210227 -5.637935 18.941846 0.599973 1.873021 0.041294 -0.006326 1720160.000000 1 0 0
2.356796 16.912427 4.361265 17.623998 1.432335 1.320737 0.009847 -0.008888 1749310.000000 1 0 0
-3.853304 18.245427 -5.949435 19.573945 -1.362662 1.879629 0.016188 -0.008302 1455230.000000 1 0 0
5.409896 14.590327 5.639065 16.551244 1.215725 1.223131 0.006557 -0.007152 -736007.000000 1 0 0
9.809896 5.935427 15.061065 18.928789 0.544121 0.650684 0.023975 -0.006710 -2390420.000000 1 0 0
4.680196 12.737127 -1.219735 13.624478 1.218665 1.660442 0.009455 -0.008998 2047290.000000 1 0 0
3.638196 13.681527 13.003465 19.222662 1.310891 0.827844 0.016730 -0.004797 -368165.000000 1 0 0
-0.825304 12.393127 9.149965 15.427008 -1.504301 0.935876 0.003300 0.000157 1555010.000000 1 0 0
-7.783804 14.004827 8.309765 18.049237 -1.063515 1.092357 0.001303 -0.009130 -1103210.000000 1 0 0
11.460396 12.987227 -4.146635 17.810203 0.847770 1.805776 0.041258 -0.005324 1501710.000000 1 0 0
-5.771504 16.284827 0.740265 17.293173 -1.230198 1.527976 -0.004942 0.009233 764790.000000 1 0 0
3.205096 10.724827 6.770165 13.081655 1.280396 1.026833 0.001988 0.003744 2023400.000000 1 0 0
-1.264904 15.616627 2.477165 15.862388 -1.489976 1.413989 -0.001965 -0.000472 -1765390.000000 1 0 0
9.930496 8.870927 9.483265 16.347490 0.729102 0.951938 0.020570 -0.003142 1172720.000000 1 0 0
7.273696 12.311727 6.107865 15.549639 1.037173 1.167124 0.010633 -0.005845 497355.000000 1 0 0
11.798096 14.037727 -1.462435 18.395422 0.871869 1.650380 0.027457 -0.005685 -300827.000000 1 0 0
9.587296 15.911427 -1.142235 18.611675 1.028510 1.632207 0.023998 -0.009251 301500.000000 1 0 0
10.160596 13.733927 2.959065 17.338239 0.933844 1.399290 0.024543 -0.007774 3000190.000000 1 0 0
-6.044604 14.590027 6.179465 16.958535 -1.178026 1.197822 -0.007720 -0.002171 -5168.830000 1 0 0
-0.943604 18.205427 -6.308435 19.290524 -1.519012 1.903947 0.023802 -0.001961 738584.000000 1 0 0
-3.553604 15.731927 5.395765 17.006937 -1.348640 1.247949 -0.002421 -0.001468 1898370.000000 1 0 0
7.063696 12.326627 10.565765 17.705280 1.050433 0.931342 0.008002 -0.004657 1839870.000000 1 0 0
1.428496 14.662327 6.239765 15.998722 1.473677 1.170147 0.005015 -0.005348 974119.000000 1 0 0
17.525696 7.738427 -1.525735 19.218771 0.415803 1.650268 0.010330 0.008421 -182748.000000 1 0 0
2.093096 16.224327 -3.385735 16.705479 1.442495 1.774882 0.004564 -0.005949 329349.000000 1 0 0
6.717696 11.217027 0.504365 13.084476 1.031198 1.532240 0.013646 -0.006364 182681.000000 1 0 0
12.862496 9.339227 3.192765 16.212918 0.628017 1.372574 0.021742 0.002291 -1436640.000000 1 0 0
6.009396 14.218927 -3.506035 15.829814 1.170932 1.794131 0.005849 -0.007704 -209870.000000 1 0 0
3.114996 16.483327 1.514765 16.843330 1.384020 1.480742 0.011547 -0.013067 -1402890.000000 1 0 0
2.883496 18.852627 -2.563335 19.243357 1.419023 1.704400 0.008358 -0.011128 -333383.000000 1 0 0
3.991496 11.946527 10.650665 16.495097 1.248344 0.868874 0.008058 -0.003199 1080380.000000 1 0 0
8.049696 11.562727 3.232265 14.454819 0.962641 1.345278 0.012261 -0.002228 790713.000000 1 0 0
0.788696 12.574427 0.159065 12.600141 1.508156 1.558172 0.005681 -0.003271 -1551560.000000 1 0 0
12.093596 10.035927 -4.563835 16.364702 0.692682 1.853427 0.024956 -0.001121 356396.000000 1 0 0
-1.299504 16.490627 9.940665 19.298868 -1.492156 1.029683 0.010563 -0.003614 1483350.000000 1 0 0
8.214896 14.772427 -8.054535 18.723906 1.063284 2.015482 0.019524 -0.004030 2218910.000000 1 0 0
14.563996 7.605527 -1.397335 16.489590 0.481261 1.655639 0.013376 0.005138 1177230.000000 1 0 0
12.562696 8.395527 6.002865 16.258555 0.589126 1.192635 0.020907 -0.004348 -853110.000000 1 0 0
-3.094304 14.200227 10.233865 17.775071 -1.356245 0.957284 0.009113 -0.007496 2575620.000000 1 0 0
-4.516304 17.107227 -3.294235 17.997394 -1.312685 1.754874 0.005635 -0.005715 -339483.000000 1 0 0
-7.021204 16.504727 -1.973735 18.044360 -1.168582 1.680398 0.001231 0.000033 -71614.600000 1 0 0
8.441896 11.365027 -1.884535 14.282189 0.931922 1.703132 0.015888 -0.005996 -1127700.000000 1 0 0
8.579196 12.980427 -4.259235 16.131806 0.986773 1.837991 0.024363 -0.007310 1381200.000000 1 0 0
2.536196 14.808627 -7.453935 16.771668 1.401177 2.031341 0.001081 -0.003379 -69441.700000 1 0 0
11.307496 11.391127 9.726165 18.767406 0.789083 1.025996 0.028628 -0.007092 -381395.000000 1 0 0
8.535096 15.757827 1.530965 17.986129 1.074393 1.485574 0.014603 -0.007520 993835.000000 1 0 0
6.068696 10.026427 7.683965 14.014336 1.026511 0.990474 0.002424 0.004772 2392580.000000 1 0 0
14.553196 11.436727 2.514665 18.679341 0.666057 1.435764 0.034266 0.000346 2061550.000000 1 0 0
12.172796 12.678727 1.088165 17.609974 0.805753 1.508964 0.029797 -0.000922 2868260.000000 1 0 0
5.161496 15.786727 8.250565 18.545447 1.254800 1.109752 0.011304 -0.009164 -853107.000000 1 0 0
11.528696 15.017827 5.120265 19.612829 0.916084 1.306669 0.037398 -0.008809 -381886.000000 1 0 0
5.891796 16.722527 1.805265 17.821760 1.232050 1.469327 -0.000732 -0.015638 -1798350.000000 1 0 0
-0.659104 16.127527 -4.264935 16.694946 -1.529951 1.829123 0.006315 -0.004688 -600373.000000 1 0 0
16.130096 6.466027 2.582865 17.568742 0.381254 1.423247 0.003799 0.005685 -574115.000000 1 0 0
7.708696 16.648827 -3.170035 18.618715 1.137170 1.741891 0.009276 -0.012548 149772.000000 1 0 0
14.870496 8.241427 7.467065 18.569056 0.506072 1.156961 0.038173 -0.005364 -763206.000000 1 0 0
2.135796 12.936027 8.643765 15.704047 1.407168 0.987933 0.009398 -0.001331 1986830.000000 1 0 0
15.954696 7.489627 -5.937535 18.598418 0.438895 1.895734 0.008518 0.000872 -1049020.000000 1 0 0
-2.963004 17.055627 0.635165 17.322737 -1.398787 1.534122 -0.006557 -0.000745 700960.000000 1 0 0
-2.979404 18.583327 4.562065 19.365674 -1.411823 1.332986 -0.005222 -0.004632 847127.000000 1 0 0
-0.822204 19.102727 0.868765 19.140139 -1.527782 1.525391 -0.001382 -0.008319 822912.000000 1 0 0
7.041496 16.655227 -6.043135 19.065643 1.170808 1.893324 0.012832 -0.013431 1304770.000000 1 0 0
11.074296 10.092727 0.834065 15.006626 0.739059 1.515188 0.015523 -0.000190 255335.000000 1 0 0
9.128496 8.625527 14.324965 19.050821 0.757076 0.719805 0.026202 -0.004342 366052.000000 1 0 0
6.346596 12.417327 -8.466635 16.314202 1.098302 2.116446 0.012628 -0.007522 1484910.000000 1 0 0
6.381796 8.971727 13.333965 17.292016 0.952511 0.690221 0.009137 -0.003856 1011910.000000 1 0 0
16.785096 9.476827 2.864165 19.487256 0.513982 1.423286 0.022022 0.003528 -405182.000000 1 0 0
2.614496 14.716227 -0.855035 14.971106 1.394970 1.627940 0.005748 -0.008509 747441.000000 1 0 0
9.090996 12.919627 8.295365 17.843095 0.957620 1.087268 0.022310 -0.008632 15919.200000 1 0 0
7.191996 9.346127 10.519765 15.803175 0.914921 0.842400 0.003894 -0.001217 297490.000000 1 0 0
4.325896 15.747927 -5.305235 17.171374 1.302713 1.884894 0.011957 -0.010033 1677660.000000 1 0 0
0.209996 16.329827 -8.220335 18.283360 1.557937 2.037122 0.005692 0.000333 -392933.000000 1 0 0
-2.362404 15.601527 -2.029735 15.909381 -1.420517 1.698726 -0.009379 0.000313 -2000670.000000 1 0 0
13.321196 10.594627 7.714965 18.687458 0.671881 1.145224 0.041324 -0.007384 3884830.000000 1 0 0
-1.063004 15.988927 7.056865 17.509286 -1.504410 1.155965 0.005646 -0.001134 2699050.000000 1 0 0
13.388596 13.376527 6.709565 20.079946 0.784947 1.230101 0.042485 -0.011556 352164.000000 1 0 0
5.281096 17.401627 4.530465 18.741177 1.276147 1.326639 0.005555 -0.009718 -676016.000000 1 0 0
10.905496 9.575027 -1.872035 14.632686 0.720527 1.699083 0.011246 0.000536 1027260.000000 1 0 0
3.174996 12.795827 4.727965 14.005979 1.327581 1.226465 0.002597 0.000928 960898.000000 1 0 0
-0.217604 18.067127 3.624465 18.428379 -1.558753 1.372827 -0.005969 -0.006743 2783730.000000 1 0 0
-7.694604 15.905527 -5.966535 18.649189 -1.120217 1.896458 0.018980 -0.010340 -825869.000000 1 0 0
-12.395004 -9.125373 8.295165 17.484802 0.634619 1.076490 0.018805 -0.011049 -1009710.000000 1 0 0
-13.265204 -11.758473 6.917465 19.028364 0.725259 1.198737 0.020392 -0.007446 -1964560.000000 1 0 0
-6.687204 -12.177473 12.291465 18.549654 1.068609 0.846478 0.021412 -0.015722 -808453.000000 1 0 0
-1.721704 -10.626373 14.320765 17.915591 1.410170 0.644589 0.011173 -0.010644 -104802.000000 1 0 0
-8.859804 2.809427 10.937065 14.352992 -0.307068 0.704391 0.001712 0.000655 1234610.000000 1 0 0
0.468996 10.002327 15.171065 18.177671 1.523942 0.583392 -0.002403 -0.006490 -557801.000000 1 0 0
1.136996 -6.634373 16.523165 17.841599 -1.401066 0.386847 0.003142 -0.009997 1303390.000000 1 0 0
6.059996 2.380727 17.862465 19.012077 0.374336 0.349534 0.005583 0.005770 1549520.000000 1 0 0
-5.016704 -3.010773 17.655165 18.599380 0.540530 0.320004 0.017299 -0.012760 -191232.000000 1 0 0
-4.319404 8.088827 12.951765 15.869297 -1.080323 0.616076 -0.003506 -0.001358 -91288.800000 1 0 0
0.183096 -4.935173 18.692465 19.333849 -1.533713 0.258299 0.012315 -0.009123 1764360.000000 1 0 0
-11.690504 2.052227 11.145165 16.281714 -0.173776 0.816851 0.009756 -0.004768 1306480.000000 1 0 0
-3.294104 -6.166773 14.335365 15.949386 1.080188 0.453764 0.018579 -0.010538 700852.000000 1 0 0
-7.461204 -2.239373 14.670765 16.610710 0.291581 0.488130 0.008616 -0.005794 2141210.000000 1 0 0
-6.086804 -1.174873 10.605665 12.284528 0.190675 0.528954 0.004476 -0.003875 450972.000000 1 0 0
-4.085504 2.516027 11.127165 12.117571 -0.551987 0.407115 0.002464 -0.000984 2051630.000000 1 0 0
-6.458104 6.245127 13.529565 16.240623 -0.768634 0.586163 -0.002933 0.001958 1524720.000000 1 0 0
-8.971204 5.373427 12.448965 16.258319 -0.539657 0.698670 -0.003105 -0.002740 218029.000000 1 0 0
-12.088504 -2.092073 15.867165 20.056810 0.171366 0.658173 0.008814 -0.001309 633821.000000 1 0 0
-3.415504 -7.681473 16.943665 18.914505 1.152407 0.460562 0.026744 -0.008777 70634.500000 1 0 0
-0.511204 -5.303073 14.407565 15.361050 1.474696 0.354188 0.009596 -0.003237 375405.000000 1 0 0
-14.207704 -2.133073 13.793865 19.916816 0.149022 0.805745 0.024323 0.001689 -557438.000000 1 0 0
-6.555204 1.391127 12.137865 13.864837 -0.209115 0.504446 0.003798 -0.001881 1316160.000000 1 0 0
2.237396 -2.151873 14.624465 14.950300 -0.765916 0.209161 0.005748 0.000110 2581940.000000 1 0 0
-12.624904 3.982927 9.132265 16.082604 -0.305599 0.966923 0.003768 -0.005659 -1477440.000000 1 0 0
-9.089304 -2.964373 12.616465 15.829660 0.315261 0.648461 0.003804 0.001392 -78983.400000 1 0 0
-7.022604 -7.253973 15.257965 18.295972 0.801603 0.584565 0.019124 -0.008210 -745745.000000 1 0 0
-3.208304 5.935027 19.530065 20.662555 -1.075221 0.332617 0.022064 -0.005030 -33968.400000 1 0 0
0.633796 5.540227 16.229365 17.160656 1.456893 0.330959 0.005556 -0.005208 2357280.000000 1 0 0
3.430996 1.636027 16.780365 17.205492 0.444946 0.222761 -0.001409 0.001658 1544960.000000 1 0 0
-11.585804 11.511427 7.894165 18.140056 -0.782178 1.120560 -0.000563 -0.006718 -327901.000000 1 0 0
0.692396 -9.388273 15.487965 18.124463 -1.497178 0.546144 -0.002858 0.000778 1223230.000000 1 0 0
-2.501104 -3.655073 18.872165 19.384883 0.970697 0.230507 0.020259 -0.017943 2208660.000000 1 0 0
-12.973404 2.312327 13.777965 19.065371 -0.176384 0.763139 0.013245 -0.008650 -808127.000000 1 0 0
-5.391404 -0.555473 15.856265 16.756996 0.102667 0.329366 0.012196 -0.002581 1532000.000000 1 0 0
-4.442804 -5.955073 11.649965 13.817492 0.929826 0.567715 0.012671 -0.006010 552316.000000 1 0 0
2.489296 1.838627 13.957665 14.296627 0.636174 0.218190 0.005973 -0.001740 332398.000000 1 0 0
0.120396 3.324127 14.331865 14.712806 1.534593 0.228054 0.011329 -0.005618 917149.000000 1 0 0
-13.058404 7.090527 12.053765 19.133498 -0.497442 0.889266 0.011998 -0.009828 771621.000000 1 0 0
0.887396 1.592427 18.314565 18.405070 1.062396 0.099211 0.017435 -0.002390 1383800.000000 1 0 0
-2.012104 6.389027 12.416565 14.108129 -1.265698 0.494723 -0.000919 -0.001261 638612.000000 1 0 0
-13.428504 -2.690673 10.970265 17.547397 0.197752 0.895435 0.022778 -0.004299 -770209.000000 1 0 0
-2.543704 3.581127 13.481065 14.178646 -0.953186 0.314986 0.002772 -0.000481 90302.900000 1 0 0
3.548596 6.168527 16.410865 17.887419 1.048756 0.409166 0.000926 0.001916 1246580.000000 1 0 0
-3.759504 12.314527 12.270665 17.786249 -1.274493 0.809451 0.009921 -0.012192 -431984.000000 1 0 0
3.774296 -1.313773 17.128365 17.588411 -0.334967 0.229221 0.011325 0.000310 141835.000000 1 0 0
-15.924304 0.384127 9.227265 18.408515 -0.024117 1.045754 0.017892 -0.007168 379354.000000 1 0 0
-4.633204 4.523927 15.227765 16.547426 -0.773465 0.402078 0.003450 -0.000558 1942130.000000 1 0 0
-7.995404 -8.131673 10.406965 15.438767 0.793848 0.831078 0.011756 -0.012983 3552180.000000 1 0 0
-2.629804 -0.412473 14.707265 14.946225 0.155578 0.179057 0.008702 -0.002803 2882320.000000 1 0 0
-1.807704 0.991027 17.223765 17.346700 -0.501479 0.119125 0.013704 -0.007229 3197600.000000 1 0 0
-0.672204 -2.431873 14.391165 14.610664 1.301116 0.173557 0.010703 -0.003402 -585972.000000 1 0 0
5.228296 -8.232273 16.544865 19.205155 -1.004969 0.532618 0.008279 0.003281 465526.000000 1 0 0
-4.507104 9.931527 10.602165 15.210362 -1.144772 0.799541 -0.002654 -0.002457 -1351700.000000 1 0 0
-6.270904 2.118427 15.207865 16.585871 -0.325782 0.410511 0.004958 -0.001152 536688.000000 1 0 0
-4.815404 6.803627 17.234565 19.144390 -0.954875 0.450474 0.006514 0.000430 931274.000000 1 0 0
-4.046104 9.065427 15.673365 18.552824 -1.151005 0.564611 0.001008 -0.001509 -1213210.000000 1 0 0
-4.563704 -9.843173 18.475865 21.425990 1.136656 0.530981 0.036512 -0.011558 1053640.000000 1 0 0
-6.788704 -4.103673 11.147865 13.682161 0.543711 0.618458 0.007892 -0.000171 1139010.000000 1 0 0
-2.251404 -0.795373 19.580965 19.726014 0.339593 0.121344 0.019854 -0.011309 407894.000000 1 0 0
-5.643904 -4.531873 15.230565 16.863026 0.676548 0.443645 0.017853 -0.008380 2638340.000000 1 0 0
-13.006904 0.005727 9.774065 16.269970 -0.000440 0.926367 0.012784 -0.002941 1376980.000000 1 0 0
-14.488804 8.696027 10.200665 19.738285 -0.540559 1.027692 0.009194 -0.011329 -552934.000000 1 0 0
-8.356504 10.539227 12.692665 18.493518 -0.900403 0.814365 -0.003346 -0.013884 -1079570.000000 1 0 0
-10.502904 7.128327 10.729665 16.620762 -0.596288 0.869043 0.001146 -0.004027 -678774.000000 1 0 0
-9.785904 -6.564173 14.784365 18.905812 0.590844 0.672926 0.009365 -0.007919 734820.000000 1 0 0
-0.603704 -13.339173 14.548765 19.747520 1.525569 0.742562 0.005684 -0.009341 635589.000000 1 0 0
3.929996 -5.573273 16.960265 18.279957 -0.956622 0.382307 0.010124 -0.003298 510745.000000 1 0 0
-7.332104 9.316427 10.334365 15.727513 -0.904028 0.853847 -0.001065 -0.004930 112024.000000 1 0 0
-10.272404 -6.715373 11.809965 17.032140 0.578993 0.804609 0.012124 -0.009476 369500.000000 1 0 0
-10.884004 -3.895573 10.743665 15.781742 0.343711 0.821989 0.013505 -0.001122 -566484.000000 1 0 0
-10.092404 -10.178773 9.813265 17.371362 0.789659 0.970472 0.012273 -0.014856 2183350.000000 1 0 0
-9.826104 -3.666273 15.298465 18.548232 0.357118 0.600959 0.009903 -0.006254 845748.000000 1 0 0
5.667296 -3.214073 16.077765 17.347710 -0.515897 0.385010 0.002382 0.003905 129164.000000 1 0 0
-11.294604 0.612427 15.295465 19.023522 -0.054170 0.636756 0.011874 -0.007493 -434606.000000 1 0 0
-3.261904 3.089027 18.869165 19.396585 -0.758184 0.233733 0.023616 -0.007455 -734923.000000 1 0 0
0.470796 7.354027 13.912265 15.743395 1.506865 0.487111 0.003292 -0.005995 5251.090000 1 0 0
-13.102104 -7.410873 12.175865 19.360730 0.514760 0.890665 0.016293 -0.006901 -300013.000000 1 0 0
-1.474504 -1.024673 12.122165 12.254428 0.607314 0.147055 0.009122 -0.001437 1151970.000000 1 0 0
2.066596 -4.832073 13.196865 14.204823 -1.166655 0.378984 0.001103 -0.001235 745450.000000 1 0 0
-14.655304 -4.058673 8.676165 17.507901 0.270171 1.052320 0.025796 -0.012321 -889376.000000 1 0 0
8.174096 1.065927 16.198165 18.175054 0.129671 0.470745 0.005309 0.005264 1145890.000000 1 0 0
-1.327404 11.305127 13.381965 17.568292 -1.453915 0.704846 0.002525 -0.002536 1644220.000000 1 0 0
2.879496 -12.281473 -13.630635 18.572030 -1.340498 2.394891 0.003668 -0.000321 -1736660.000000 1 0 0
0.786396 -10.751073 -13.886735 17.579687 -1.497781 2.481492 0.001411 0.001343 -1961270.000000 1 0 0
3.252696 -14.477073 -12.384335 19.327117 -1.349787 2.266304 0.006118 0.002854 -1122060.000000 1 0 0
-5.012604 -10.176573 -16.123235 19.714146 1.113116 2.528463 0.016647 -0.007957 -706225.000000 1 0 0
-1.144804 -12.180473 -15.015535 19.368552 1.477085 2.457912 0.014518 -0.001604 -212076.000000 1 0 0
5.705996 -15.164473 -11.905735 20.106371 -1.210909 2.204505 0.010492 0.003943 -44239.400000 1 0 0
1.924696 -11.907373 -16.002735 20.039399 -1.410543 2.495701 0.007543 -0.002946 -610937.000000 1 0 0
1.310096 -14.307173 -14.027835 20.079634 -1.479482 2.344249 0.016413 0.005353 -93851.300000 1 0 0
-0.987604 -10.642273 -15.862535 19.127294 1.478261 2.548675 0.011324 -0.008153 -729763.000000 1 0 0
-5.767304 -5.465773 -14.897135 16.883753 0.758562 2.651598 0.011642 -0.010205 -258416.000000 1 0 0
-6.472904 -7.622973 -16.214335 19.050272 0.866807 2.588938 0.014462 -0.016623 120843.000000 1 0 0
4.913896 -12.676973 -11.508935 17.813130 -1.201004 2.273250 0.001602 0.006683 -516320.000000 1 0 0
-1.770704 -15.507973 -13.154435 20.412540 1.457108 2.271073 0.016866 0.000521 351888.000000 1 0 0
15.605896 -7.388073 -8.988135 19.465719 -0.442155 2.050754 0.026843 -0.002836 153568.000000 1 0 0
19.249596 -3.605873 -4.348135 20.061295 -0.185176 1.789273 0.025193 -0.005846 827168.000000 1 0 0
14.793596 -11.684873 -8.977035 20.879988 -0.668527 2.015217 0.040262 -0.011676 -156417.000000 1 0 0
17.828296 -3.626173 -6.505335 19.321404 -0.200657 1.914196 0.040710 -0.003504 426217.000000 1 0 0
9.392496 -8.947073 -15.417935 20.148991 -0.761115 2.442143 0.026163 -0.018905 -50023.800000 1 0 0
1.412896 1.825327 -15.316035 15.488997 0.912079 2.992009 0.014089 -0.005721 -209465.000000 1 0 0
4.822396 -4.381873 -13.871635 15.325749 -0.737574 2.702457 0.002457 -0.000145 -547114.000000 1 0 0
13.139196 -5.593073 -8.593835 16.666582 -0.402445 2.112542 0.022791 -0.000438 -1164020.000000 1 0 0
2.974196 0.832327 -12.230435 12.614363 0.272869 2.894241 0.004664 -0.003128 -3414950.000000 1 0 0
0.712096 6.179927 -13.071135 14.475951 1.456075 2.697394 0.012120 -0.004313 554414.000000 1 0 0
3.081896 -1.234573 -16.884835 17.208135 -0.381014 2.947445 0.013612 -0.004744 14924.500000 1 0 0
13.349296 4.609827 -11.563435 18.252869 0.332503 2.256882 0.013381 -0.000819 875015.000000 1 0 0
-3.805204 9.397727 -16.643335 19.488392 -1.186067 2.594446 0.004207 -0.001660 -264888.000000 1 0 0
-0.393804 -5.313873 -17.745235 18.527971 1.496823 2.849884 0.014093 -0.009589 331193.000000 1 0 0
-0.479504 -8.646773 -17.519435 19.542958 1.515398 2.682506 0.018996 -0.004530 -2841850.000000 1 0 0
5.445196 -10.238173 -12.167535 16.808309 -1.081993 2.380235 -0.002474 0.002335 420344.000000 1 0 0
1.661396 -9.969473 -18.127135 20.754365 -1.405665 2.632964 0.022321 -0.002943 -415973.000000 1 0 0
10.878396 8.752827 -14.722335 20.290358 0.677543 2.382677 0.032493 -0.011067 -1341230.000000 1 0 0
11.030396 -3.899973 -12.872435 17.394799 -0.339848 2.403891 0.022206 -0.005652 292174.000000 1 0 0
4.988396 7.354727 -12.353735 15.218110 0.974812 2.517988 -0.003604 0.000552 -2366590.000000 1 0 0
9.668096 -6.048273 -12.591235 16.988022 -0.559024 2.405627 0.021679 -0.003981 -1390910.000000 1 0 0
-3.222704 0.335327 -15.880735 16.207900 -0.103678 2.940328 0.009893 -0.004496 -2491550.000000 1 0 0
-0.623404 10.701927 -12.921635 16.789536 -1.512611 2.449049 0.002917 0.001730 -1776480.000000 1 0 0
6.614796 -5.490473 -12.343635 15.042146 -0.692785 2.533262 0.004100 -0.001307 378066.000000 1 0 0
17.879296 -6.331173 -8.078335 20.615831 -0.340328 1.973439 0.037213 -0.013810 990650.000000 1 0 0
13.300296 4.668827 -14.120235 19.951864 0.337594 2.357055 0.030083 -0.010008 395989.000000 1 0 0
14.203996 0.791827 -11.500735 18.293371 0.055689 2.250655 0.016798 -0.003631 -791554.000000 1 0 0
15.329096 6.143027 -11.024935 19.856162 0.381147 2.159448 0.025725 -0.010308 324497.000000 1 0 0
8.393996 1.510927 -11.693535 14.473453 0.178094 2.511427 0.004836 0.002367 622631.000000 1 0 0
9.931196 1.141727 -8.968435 13.430005 0.114461 2.302033 0.007151 0.001896 205286.000000 1 0 0
-0.169104 -5.715573 -13.008335 14.209615 1.541218 2.727446 0.000077 -0.001723 673139.000000 1 0 0
10.620496 -5.774973 -8.853435 14.984277 -0.498038 2.202906 0.020019 -0.001756 -1342030.000000 1 0 0
10.337296 8.483027 -11.255935 17.479059 0.687190 2.270468 0.016886 -0.010005 739978.000000 1 0 0
8.350696 8.140427 -14.719235 18.779152 0.772648 2.471569 0.019410 -0.001105 326360.000000 1 0 0
8.693996 10.547527 -10.693935 17.355003 0.881432 2.234689 0.016314 -0.008614 -1095900.000000 1 0 0
6.980796 1.753727 -17.932035 19.322654 0.246128 2.759890 0.023488 0.000361 -653707.000000 1 0 0
12.303696 2.598127 -12.836535 17.969636 0.208109 2.366485 0.019785 -0.006394 -665215.000000 1 0 0
2.591396 -1.138173 -19.421335 19.626488 -0.413847 2.996878 0.024729 -0.009568 -547832.000000 1 0 0
10.283296 -2.279473 -15.477235 18.721298 -0.218140 2.544045 0.023932 -0.007395 -242417.000000 1 0 0
8.322996 -0.851273 -13.047735 15.499688 -0.101925 2.571417 0.009886 -0.002474 460380.000000 1 0 0
0.474196 4.164927 -14.618135 15.207279 1.457430 2.862330 0.011888 -0.005580 97385.200000 1 0 0
3.959996 -7.729573 -15.744135 17.980702 -1.097343 2.637500 0.007345 -0.010201 -1951740.000000 1 0 0
11.443196 -5.921773 -14.494035 19.393071 -0.477544 2.414909 0.033599 -0.004887 -567774.000000 1 0 0
-5.747904 4.209427 -16.909935 18.349484 -0.632103 2.742846 0.007659 -0.007005 -393020.000000 1 0 0
11.404896 7.798927 -9.061035 16.522629 0.599786 2.151248 0.016761 -0.007368 -541443.000000 1 0 0
9.566196 6.205127 -13.586335 17.737086 0.575427 2.443368 0.013110 0.002797 -556313.000000 1 0 0
12.084096 0.640827 -10.125035 15.778225 0.052981 2.267521 0.011514 -0.000025 -1518240.000000 1 0 0
5.494196 -7.298573 -13.780735 16.533724 -0.925520 2.556195 0.001353 -0.001421 -962988.000000 1 0 0
8.556896 -10.267273 -10.702735 17.122672 -0.876010 2.246008 0.014850 0.001355 261006.000000 1 0 0
10.186696 4.655827 -15.934435 19.476954 0.428701 2.528926 0.033584 -0.006600 -851735.000000 1 0 0
9.955696 -0.449073 -11.045935 14.877172 -0.045077 2.407555 0.009887 -0.000883 -420142.000000 1 0 0
-1.784104 5.378227 -14.004035 15.106997 -1.250492 2.757103 0.009727 -0.008139 1922760.000000 1 0 0
1.412696 -0.769773 -14.929435 15.015868 -0.498917 3.034246 0.010116 -0.004238 -1123280.000000 1 0 0
11.319496 -10.455973 -14.210535 20.961815 -0.745763 2.315732 0.043754 -0.015279 -388867.000000 1 0 0
9.271896 -7.781373 -10.774235 16.204998 -0.698216 2.298118 0.020946 -0.001615 -103819.000000 1 0 0
13.953296 -1.074973 -9.690135 17.022008 -0.076889 2.176415 0.007531 0.002816 465183.000000 1 0 0
4.083696 11.070527 -12.380635 17.103019 1.217402 2.380215 -0.001477 -0.004391 -817674.000000 1 0 0
-1.191504 2.868027 -17.148135 17.427099 -1.177048 2.962426 0.009796 -0.002358 -656760.000000 1 0 0
6.157396 -0.689573 -17.591835 18.651051 -0.111526 2.802957 0.019988 -0.001436 -164618.000000 1 0 0
6.350196 -6.607073 -16.149535 18.568411 -0.805220 2.625455 0.011852 -0.005055 -325438.000000 1 0 0
-1.905804 -5.301673 -19.922135 20.703413 1.225708 2.865997 0.028076 -0.017100 -420426.000000 1 0 0
0.048296 -4.321773 -15.317435 15.915523 -1.559622 2.866578 0.003570 -0.005054 233276.000000 1 0 0
0.543596 0.731127 -13.042935 13.074716 0.931465 3.071855 0.010684 -0.006956 523262.000000 1 0 0
15.714496 0.507727 -13.554635 20.758885 0.032298 2.282277 0.018894 -0.007694 598361.000000 1 0 0
-0.218404 6.906527 -16.304735 17.708535 -1.539184 2.740737 0.010355 -0.004100 -450711.000000 1 0 0
-5.051604 -0.621173 -18.374235 19.066124 0.122351 2.871369 0.017603 -0.005796 -46602.300000 1 0 0
10.286596 -8.433573 -13.029435 18.620027 -0.686734 2.345849 0.016902 -0.013172 -431980.000000 1 0 0
4.215996 8.702427 -17.263135 19.786932 1.119656 2.630992 0.014567 -0.011124 -553747.000000 1 0 0
9.053896 0.470727 -16.910035 19.187077 0.051945 2.649454 0.014637 -0.003689 -818134.000000 1 0 0
3.286696 4.917227 -18.585835 19.504224 0.981592 2.833499 0.018175 -0.001157 55453.100000 1 0 0
1.449596 -8.352573 -15.947735 18.060926 -1.398957 2.653005 0.006757 -0.006103 -497395.000000 1 0 0
4.528696 7.763727 -14.948335 17.442398 1.042736 2.600238 0.001800 0.001250 444309.000000 1 0 0
-5.647604 -0.561873 -15.309235 16.327394 0.099162 2.786577 0.010502 -0.002671 -172915.000000 1 0 0
2.818696 3.398727 -13.750935 14.442458 0.878420 2.830889 0.008240 -0.002820 -1097800.000000 1 0 0
-2.434104 -10.246773 -17.928435 20.793028 1.337571 2.610458 0.031261 -0.007409 -446122.000000 1 0 0
6.174196 -9.077973 -15.369635 18.887985 -0.973531 2.521329 -0.001295 -0.005931 -87704.600000 1 0 0
-1.831704 5.286627 -17.524935 18.396383 -1.237262 2.832564 0.009502 -0.003023 -14801.900000 1 0 0
9.923296 -12.263173 -11.624235 19.595409 -0.890474 2.205839 0.028920 -0.006197 432940.000000 1 0 0
10.819796 3.674427 -9.303335 14.735041 0.327382 2.254121 0.003812 -0.001256 -518605.000000 1 0 0
4.933296 -0.531373 -11.069835 12.130994 -0.107298 2.720212 0.006903 -0.006137 430800.000000 1 0 0
6.341596 9.481427 -11.470135 16.176443 0.981288 2.358966 -0.001757 -0.003596 392843.000000 1 0 0
10.722896 -9.572773 -9.361835 17.154080 -0.728790 2.148080 0.029787 -0.005560 -1650100.000000 1 0 0
3.329796 -2.512173 -14.551435 15.137464 -0.646345 2.862429 0.008751 -0.004738 -149009.000000 1 0 0
9.207996 -4.581173 -14.550635 17.818398 -0.461663 2.526305 0.019285 -0.009669 -413072.000000 1 0 0
-3.990704 -6.572473 -16.438335 18.147782 1.025111 2.704070 0.001302 -0.007497 -169021.000000 1 0 0
5.781096 -7.744673 -11.335535 14.896154 -0.929564 2.435604 -0.001294 -0.000608 -92086.500000 1 0 0
5.419396 6.388727 -16.909435 18.871001 0.867305 2.681596 0.014914 -0.008502 -1110590.000000 1 0 0
9.000096 1.090227 -19.435135 21.445624 0.120548 2.705128 0.034397 -0.012212 493843.000000 1 0 0
13.181296 5.752927 -9.409735 17.186793 0.411526 2.150168 0.007975 -0.004646 607878.000000 1 0 0
-1.554504 -0.875573 -17.339835 17.431379 0.512959 3.039062 0.015389 -0.008414 707036.000000 1 0 0
-0.467204 -0.626673 -19.545435 19.561059 0.930162 3.101622 0.024261 -0.015401 -328600.000000 1 0 0
2.810196 6.561927 -16.553735 18.027263 1.166170 2.734463 0.009708 0.000510 -305561.000000 1 0 0
7.697596 3.639027 -15.658435 17.823639 0.441610 2.643553 0.014437 -0.002083 -191709.000000 1 0 0
3.104596 -9.948573 -14.758735 18.067454 -1.268308 2.526758 0.003959 -0.004066 537508.000000 1 0 0
8.867596 -10.529673 -13.382135 19.198693 -0.870876 2.342048 0.015484 -0.006271 -351265.000000 1 0 0
3.821196 0.004227 -14.809735 15.294764 0.001106 2.889081 0.011268 -0.004136 -2541320.000000 1 0 0
-1.149904 -2.999073 -18.987035 19.256797 1.204665 2.974013 0.023818 -0.010865 -52856.200000 1 0 0
9.249496 9.979527 -13.115535 18.898714 0.823345 2.337814 0.025535 -0.012407 62065.500000 1 0 0
4.606996 2.071927 -10.817735 11.939040 0.422633 2.704723 0.002282 -0.001686 10465.800000 1 0 0
-0.507704 7.112127 -18.875835 20.177642 -1.499532 2.780419 0.024315 -0.008467 88543.600000 1 0 0
0.830696 -2.027773 -17.671335 17.806684 -1.181991 3.018218 0.019524 -0.011937 -1505390.000000 1 0 0
-4.425204 -2.297073 -14.081535 14.938159 0.478802 2.801295 0.009982 -0.006808 -3313260.000000 1 0 0
9.992296 6.029727 -10.354835 15.602122 0.542943 2.296526 0.008137 -0.000818 288950.000000 1 0 0
8.282296 5.425427 -17.355735 19.981322 0.579926 2.623162 0.035582 -0.017891 -268840.000000 1 0 0
11.472396 0.237727 -13.589635 17.786247 0.020719 2.440368 0.014891 0.002273 542521.000000 1 0 0
6.872196 12.009827 -11.832835 18.206565 1.051058 2.278277 0.009011 -0.011567 -202974.000000 1 0 0
-0.812004 0.609127 -15.281935 15.315610 -0.643599 3.075267 0.010082 -0.006764 -807270.000000 1 0 0
-4.173404 -2.874973 -19.143235 19.802682 0.603224 2.882798 0.009947 -0.007048 -638950.000000 1 0 0
5.688396 -12.020473 -13.962835 19.282386 -1.128797 2.380559 0.001469 -0.004950 -563950.000000 1 0 0
2.177796 -4.765673 -13.949835 14.901421 -1.142157 2.782287 0.004045 -0.002289 -1279920.000000 1 0 0
11.917096 2.016927 -15.297535 19.496147 0.167658 2.472918 0.033907 -0.009166 768242.000000 1 0 0
9.776996 2.325527 -13.783635 17.058321 0.233518 2.511597 0.014890 -0.003438 1041330.000000 1 0 0
-2.221104 -4.160073 -16.338235 17.005218 1.080390 2.860590 0.002615 -0.010772 -1389510.000000 1 0 0
-2.806504 10.160127 -14.326735 17.786511 -1.301290 2.507287 0.006705 -0.003563 235266.000000 1 0 0
3.629396 5.700127 -13.808935 15.373700 1.003812 2.686495 -0.001024 0.001488 176688.000000 1 0 0
-5.003604 -2.620173 -16.684335 17.614437 0.482394 2.815173 0.008371 -0.004365 251097.000000 1 0 0
-4.361304 6.134627 -13.687135 15.620252 -0.952771 2.638805 0.001696 -0.005175 -175019.000000 1 0 0
5.915396 -1.204073 -14.139435 15.374177 -0.200806 2.738080 0.012326 -0.000408 -1728570.000000 1 0 0
6.734196 -3.054973 -12.659135 14.660694 -0.425886 2.612914 0.008478 -0.002429 925509.000000 1 0 0
3.001596 -3.444773 -18.292635 18.854616 -0.854038 2.896826 0.014260 -0.013370 -782604.000000 1 0 0
7.358996 -12.124873 -12.031835 18.599259 -1.025294 2.274307 0.013073 -0.000729 -1905260.000000 1 0 0
-6.140104 -5.493673 -17.454435 19.301260 0.729890 2.700571 0.034190 -0.010286 369823.000000 1 0 0
0.517196 8.607327 -11.965435 14.748736 1.510781 2.517144 0.002713 -0.001984 258789.000000 1 0 0
0.432696 8.487427 -14.461035 16.773347 1.519860 2.610282 0.005577 -0.000830 257684.000000 1 0 0
7.708696 -2.492773 -15.007035 17.054296 -0.312758 2.646566 0.012770 -0.011060 65505.900000 1 0 0
14.250096 1.433127 -8.877535 16.850214 0.100233 2.125687 0.000969 0.001221 166855.000000 1 0 0
2.997896 10.584027 -14.710835 18.368932 1.294779 2.499516 0.003843 -0.001419 572116.000000 1 0 0
6.111496 0.951127 -15.598035 16.779563 0.154391 2.764083 0.014265 -0.002616 385993.000000 1 0 0
16.928996 -5.522773 -10.288535 20.565648 -0.315345 2.094716 0.066955 -0.015648 645240.000000 1 0 0
4.789196 -4.122673 -11.181535 12.843658 -0.710747 2.627192 0.005040 -0.000157 -2130860.000000 1 0 0
8.886296 -3.811873 -16.954635 19.518102 -0.405221 2.623292 0.017805 -0.015252 288579.000000 1 0 0
13.312596 -9.641673 -8.852135 18.669424 -0.626818 2.064796 0.040910 -0.008194 116001.000000 1 0 0
2.364896 -7.710673 -13.613735 15.823432 -1.273200 2.606758 -0.000219 -0.000184 140702.000000 1 0 0
-6.701104 -2.564073 -18.750135 20.076026 0.365447 2.776124 0.010756 0.002466 -436884.000000 1 0 0
-1.455704 -6.485273 -15.565235 16.924963 1.349993 2.738014 0.002541 -0.008017 663904.000000 1 0 0
1.713796 -7.473373 -18.300035 19.841363 -1.345374 2.744832 0.020829 -0.009011 -287061.000000 1 0 0
5.556196 10.887827 -14.504335 18.968179 1.098933 2.441320 0.003409 -0.014556 -994840.000000 1 0 0
5.434896 -3.526573 -17.356735 18.526496 -0.575585 2.784337 0.013963 -0.013629 -697955.000000 1 0 0
4.121996 12.925327 -14.238535 19.666998 1.262084 2.380353 -0.004494 -0.006017 225430.000000 1 0 0
9.077596 10.448127 -15.663535 20.902450 0.855474 2.417897 0.030874 -0.017446 330504.000000 1 0 0
2.484396 3.952227 -16.320135 16.974661 1.009608 2.862991 0.013526 -0.003818 650161.000000 1 0 0
16.684996 1.728327 -11.473035 20.322567 0.103218 2.170680 0.013695 -0.003663 537165.000000 1 0 0
10.064496 -3.691273 -10.479235 14.991129 -0.351529 2.344835 0.019755 -0.003003 -654742.000000 1 0 0
14.797296 -2.233673 -11.902935 19.121431 -0.149820 2.242719 0.028632 -0.004466 -152066.000000 1 0 0
-2.551204 -8.676473 -15.848135 18.247006 1.284819 2.623032 0.007837 -0.002080 -502322.000000 1 0 0
13.941396 8.217927 -9.021935 18.528145 0.532635 2.079369 0.028647 -0.006110 456379.000000 1 0 0
-8.397004 -0.252273 -16.518735 18.532186 0.030034 2.671119 0.015397 -0.005779 -421551.000000 1 0 0
-3.350804 3.833827 -15.950035 16.743050 -0.852527 2.832586 0.008830 -0.006055 1183190.000000 1 0 0
15.064096 3.894827 -9.645035 18.306375 0.253010 2.125707 0.001771 -0.001119 641616.000000 1 0 0
5.412896 0.999427 -13.016335 14.132349 0.182582 2.741516 0.005500 0.000023 71090.900000 1 0 0
7.824796 -7.744973 -12.898635 16.958385 -0.780271 2.435041 0.011197 -0.001671 -3221430.000000 1 0 0
3.286596 -6.187573 -11.796435 13.720192 -1.082532 2.605648 0.000721 0.000106 -1317210.000000 1 0 0
-3.301804 3.481927 -18.532835 19.143973 -0.811944 2.888237 0.012659 -0.006330 -697755.000000 1 0 0
0.832796 5.177127 -17.858035 18.611975 1.411302 2.855989 0.018007 -0.006346 -131733.000000 1 0 0
6.338396 7.147927 -10.292335 14.042802 0.845352 2.393409 -0.004808 0.000928 396909.000000 1 0 0
9.715196 3.818327 -11.647235 15.640420 0.374480 2.410864 0.014227 -0.000117 43063.700000 1 0 0
4.439196 1.389427 -17.563435 18.168963 0.303332 2.882693 0.016027 0.000214 -387226.000000 1 0 0
2.666396 7.888327 -13.241735 15.642216 1.244836 2.580245 -0.002090 -0.003470 -1819050.000000 1 0 0
14.371196 -3.570273 -9.855635 17.787964 -0.243503 2.158032 0.025258 0.001560 323183.000000 1 0 0
-1.295804 9.272827 -16.159635 18.676141 -1.431953 2.616456 0.011304 -0.003406 -1569740.000000 1 0 0
-5.121104 1.969827 -15.812435 16.737354 -0.367203 2.807595 0.012010 -0.007348 374109.000000 1 0 0
4.473996 4.255827 -11.953935 13.454563 0.760412 2.664790 0.003889 -0.001915 649882.000000 1 0 0
9.239596 2.976627 -17.606735 20.105411 0.311661 2.637724 0.025336 -0.008241 804878.000000 1 0 0
-4.155904 14.329727 -13.501035 20.121892 -1.288521 2.306302 0.021135 -0.002327 -380871.000000 1 0 0
15.604696 -4.933173 -8.121035 18.270029 -0.306192 2.031413 0.033910 -0.003098 1072810.000000 1 0 0
1.230296 9.059727 -16.932935 19.243611 1.435824 2.646501 0.008635 -0.001672 -151243.000000 1 0 0
0.481296 -3.181473 -12.835535 13.232701 -1.420654 2.895970 0.004250 -0.002961 167501.000000 1 0 0
7.545896 3.593927 -12.993035 15.449136 0.444489 2.569962 0.005316 0.000303 450260.000000 1 0 0
-2.972904 7.541427 -15.133435 17.167764 -1.195292 2.649832 0.006195 -0.003820 405720.000000 1 0 0
12.105796 -5.260373 -10.964935 17.159593 -0.409918 2.263990 0.028181 -0.004337 -1141760.000000 1 0 0
0.613096 -4.625773 -20.017935 20.554595 -1.439025 2.912580 0.028758 -0.015982 -500097.000000 1 0 0
3.507596 -4.727473 -16.075535 17.119435 -0.932461 2.790573 0.010471 -0.011726 358344.000000 1 0 0
-5.636904 4.006227 -14.380835 15.957223 -0.617880 2.693354 0.007329 -0.004734 372310.000000 1 0 0
12.253196 -7.575173 -9.745735 17.392625 -0.553709 2.165589 0.024194 -0.001210 395455.000000 1 0 0
-1.932004 -1.784673 -14.919735 15.149792 0.745779 2.967099 0.008781 -0.004217 288371.000000 1 0 0
7.052796 5.865227 -14.366235 17.044985 0.693725 2.573339 0.010721 0.000296 -247659.000000 1 0 0
4.331996 -5.620573 -18.381035 19.703286 -0.914154 2.773157 0.020565 -0.015673 -27142.300000 1 0 0
7.589696 7.396627 -12.422235 16.328671 0.772516 2.435283 0.002738 -0.002602 -1899220.000000 1 0 0
12.346796 -2.602073 -11.141235 16.832744 -0.207709 2.294119 0.019967 0.002064 -1595330.000000 1 0 0
7.538296 -0.702773 -10.559835 12.993457 -0.092958 2.519574 0.007832 0.000851 -1197850.000000 1 0 0
5.392296 3.881827 -14.395335 15.854687 0.623947 2.709173 0.001713 -0.000396 -967009.000000 1 0 0
14.873196 2.906627 -12.923235 19.916587 0.192995 2.276892 0.022518 -0.012705 924012.000000 1 0 0
-6.453404 6.595727 -15.909135 18.391591 -0.796304 2.615991 0.004618 0.002156 368863.000000 1 0 0
-11.016704 3.935227 -16.574735 20.287326 -0.343079 2.526985 0.015445 -0.013175 2832.730000 1 0 0
-5.004404 6.303527 -18.113035 19.820710 -0.899783 2.723448 0.003507 0.009078 13706.200000 1 0 0
-9.997904 1.615527 -15.759435 18.733067 -0.160202 2.570411 0.019685 -0.005522 -80597.800000 1 0 0
-7.546204 5.679227 -18.035235 20.358500 -0.645159 2.659189 0.003945 -0.000253 -601456.000000 1 0 0
-8.644104 3.806627 -15.518235 18.166633 -0.414819 2.594838 0.003250 -0.002368 -1636820.000000 1 0 0
8.987596 13.497327 -11.862335 20.091533 0.983339 2.202369 0.036834 -0.021637 -469277.000000 1 0 0
13.679196 9.178127 -11.507635 20.094379 0.590966 2.180567 0.020350 -0.006903 219290.000000 1 0 0
8.436396 16.038327 -8.977935 20.223848 1.086554 2.030774 0.033591 -0.010889 -170325.000000 1 0 0
7.382296 13.455727 -14.030535 20.794489 1.069001 2.311387 0.020790 -0.011244 -126431.000000 1 0 0
4.583896 16.049527 -12.418035 20.804014 1.292594 2.210435 0.014080 -0.016173 444745.000000 1 0 0
11.067996 10.948327 -11.611935 19.421726 0.779963 2.211655 0.037000 -0.011259 -287070.000000 1 0 0
15.718696 9.822227 -9.959535 21.041528 0.558510 2.063861 0.046320 -0.002067 1919380.000000 1 0 0
13.239796 10.642327 -9.401335 19.414851 0.677062 2.076284 0.054668 -0.010864 -27657.500000 1 0 0
10.325596 11.916127 -8.553335 17.937992 0.856788 2.067839 0.029745 0.001052 195209.000000 1 0 0
5.539096 16.184227 -10.031035 19.830089 1.241040 2.101162 0.013456 -0.015334 -261979.000000 1 0 0
6.705596 14.668227 -11.781735 19.973262 1.142011 2.201701 0.016781 -0.001113 -692299.000000 1 0 0
10.920596 14.214927 -9.800735 20.429830 0.915718 2.071140 0.050652 -0.000637 -344959.000000 1 0 0
8.195096 -18.631273 -1.044135 20.380730 -1.156409 1.622050 0.035319 0.002349 12966.900000 1 0 0
7.231596 -17.505673 -3.251035 19.217539 -1.179048 1.740784 0.028010 0.002913 546928.000000 1 0 0
4.384396 -18.443073 5.699665 19.795355 -1.337403 1.278732 0.031411 0.002770 223247.000000 1 0 0
9.766796 -17.174673 -2.540135 19.920141 -1.053729 1.698660 0.033012 -0.002374 -3413.660000 1 0 0
-9.751804 -12.184573 -10.116635 18.598597 0.895848 2.145929 0.026621 -0.004307 -875401.000000 1 0 0
-5.070504 -6.996973 -12.005935 14.792232 0.943704 2.517747 0.004367 -0.007326 -232312.000000 1 0 0
-10.863004 -9.510573 -5.661635 15.508384 0.719114 1.944504 0.013639 -0.003978 -462980.000000 1 0 0
-4.663104 -11.521973 -13.960935 18.692461 1.186233 2.414147 0.022433 -0.002732 128230.000000 1 0 0
-2.924704 -15.454473 7.435165 17.397595 1.383762 1.129217 0.000636 -0.001796 -43447.300000 1 0 0
-4.838304 -11.880173 -11.478735 17.213630 1.184048 2.300756 0.015075 -0.003704 511869.000000 1 0 0
-14.495704 -12.793373 -4.140635 19.772220 0.723098 1.781775 0.025059 -0.006652 -101849.000000 1 0 0
-3.295204 -12.256373 -3.173435 13.082345 1.308151 1.815814 0.005911 -0.004596 670713.000000 1 0 0
-2.545504 -17.380673 -1.418935 17.623302 1.425374 1.651398 -0.001302 -0.007812 -1009840.000000 1 0 0
-5.787704 -12.143673 3.646965 13.937958 1.126041 1.306058 -0.000376 -0.003535 -64133.200000 1 0 0
-8.759204 -10.525873 -11.960235 18.181443 0.876751 2.288726 0.014851 -0.003019 54597.200000 1 0 0
-9.893204 -11.897173 -7.536435 17.210929 0.877106 2.024043 0.024745 -0.008718 320735.000000 1 0 0
-10.834304 -15.046673 6.134565 19.529910 0.946743 1.251276 0.011912 -0.013771 -282988.000000 1 0 0
-9.556404 -15.816973 0.732765 18.494281 1.027304 1.531165 0.008489 0.000596 -569222.000000 1 0 0
-14.944204 -7.653773 -8.276935 18.719432 0.473326 2.028799 0.012144 -0.001071 164454.000000 1 0 0
-2.482004 -16.529173 4.977665 17.439927 1.421751 1.281354 0.004162 -0.002386 922522.000000 1 0 0
4.304696 -15.844573 5.999265 17.480621 -1.305517 1.220480 0.024351 -0.005633 -550650.000000 1 0 0
4.068196 -14.671473 -9.967835 18.197804 -1.300306 2.150468 0.002117 0.002786 207376.000000 1 0 0
-7.652504 -14.021073 -0.222835 15.975011 1.071194 1.584746 0.003061 -0.002956 1263480.000000 1 0 0
2.908396 -14.836973 9.630865 17.926185 -1.377227 1.003622 0.019571 -0.007189 77219.700000 1 0 0
2.185796 -17.264373 10.348665 20.246757 -1.444859 1.034301 0.040371 -0.006058 -205288.000000 1 0 0
-8.332504 -17.086573 -5.870735 19.895907 1.117066 1.870328 0.023406 -0.007522 -120369.000000 1 0 0
-6.533104 -9.104573 -7.665735 13.577120 0.948380 2.170753 0.013533 -0.006829 372789.000000 1 0 0
-6.074304 -13.037473 -4.687535 15.127652 1.134790 1.885848 0.004655 -0.008930 496877.000000 1 0 0
2.182996 -19.376773 -4.852435 20.094052 -1.458609 1.814693 0.013695 -0.008302 175074.000000 1 0 0
-5.421604 -12.806773 8.328365 16.210148 1.170334 1.031217 0.004032 -0.008411 1534290.000000 1 0 0
2.164196 -17.456373 3.503265 17.935484 -1.447448 1.374207 0.014829 -0.010313 871623.000000 1 0 0
-17.693204 -10.116473 -2.379135 20.519570 0.519405 1.687002 0.016609 -0.005604 388060.000000 1 0 0
-3.598604 -15.374473 2.616165 16.005271 1.340872 1.406603 0.000792 -0.004466 -43001.300000 1 0 0
-10.028604 -10.326873 -14.235935 20.245470 0.800050 2.350637 0.017002 -0.009571 -181708.000000 1 0 0
6.038396 -14.644373 -5.593735 16.799100 -1.179701 1.910257 0.005346 -0.000224 248537.000000 1 0 0
-7.258204 -12.314673 -10.680035 17.843650 1.038211 2.212466 0.013468 -0.006152 -1401400.000000 1 0 0
-7.090904 -14.300573 4.056465 16.469433 1.110476 1.321933 -0.007930 -0.000126 361351.000000 1 0 0
3.160596 -14.954873 -3.097535 15.595907 -1.362519 1.770738 0.004297 -0.000738 -21535.800000 1 0 0
-7.633404 -11.412873 7.795965 15.789224 0.981290 1.054397 0.003454 -0.012025 -1437700.000000 1 0 0
-12.764104 -12.399073 -1.000835 17.823048 0.770893 1.626980 0.013103 0.000601 -1882400.000000 1 0 0
-1.944204 -13.650773 4.027165 14.364595 1.429323 1.286634 0.001625 -0.001518 -2503320.000000 1 0 0
-3.263704 -13.982873 5.295865 15.304205 1.341494 1.217449 -0.001336 -0.000964 331583.000000 1 0 0
-14.573904 -10.301773 -4.317935 18.362183 0.615318 1.808173 0.012303 0.002170 429888.000000 1 0 0
-6.362404 -8.664373 -10.410235 14.964108 0.937408 2.340163 0.012043 -0.007506 120999.000000 1 0 0
0.688296 -19.423473 2.332465 19.575123 -1.535375 1.451358 0.022283 -0.013473 238965.000000 1 0 0
6.357396 -14.233273 -8.151535 17.591193 -1.150726 2.052610 0.009829 0.002943 -2602540.000000 1 0 0
-4.092904 -16.877773 -5.857835 18.328266 1.332886 1.896111 -0.002181 -0.000845 192732.000000 1 0 0
-3.553704 -13.582773 -13.085235 19.192288 1.314899 2.321012 0.030265 -0.002873 -903580.000000 1 0 0
-8.238204 -14.736573 -4.410235 17.449492 1.061046 1.826310 0.014264 -0.010530 -1607270.000000 1 0 0
-4.525504 -14.228473 10.204365 18.084764 1.262854 0.971269 0.007561 -0.011120 -543016.000000 1 0 0
-0.222304 -12.167873 -9.886935 15.679861 1.552529 2.253058 0.005021 0.000137 989611.000000 1 0 0
2.240096 -17.212273 6.817965 18.648459 -1.441378 1.196514 0.020299 -0.010155 -1146860.000000 1 0 0
-2.846404 -19.240573 -3.306435 19.729019 1.423924 1.739183 0.003549 -0.009246 -909330.000000 1 0 0
0.531796 -15.330673 -3.018235 15.634004 -1.536122 1.765072 0.002654 -0.005802 48213.000000 1 0 0
5.965396 -17.967973 0.753865 18.947357 -1.250245 1.530998 0.022275 -0.004273 -288943.000000 1 0 0
-6.981004 -16.759673 3.873365 18.564052 1.176117 1.360603 -0.007109 0.003254 524890.000000 1 0 0
-5.209804 -13.503673 -9.481635 17.302966 1.202585 2.150741 0.008535 -0.004854 281805.000000 1 0 0
5.604396 -15.157973 -2.095035 16.296091 -1.216652 1.699714 0.014293 0.004414 -462464.000000 1 0 0
-9.007804 -10.297573 -0.578835 13.693633 0.852108 1.613079 0.003043 -0.002734 474383.000000 1 0 0
-7.497904 -17.813273 -3.075435 19.570119 1.172389 1.728600 0.011134 -0.020144 308387.000000 1 0 0
7.821396 -16.045273 -1.130335 17.885824 -1.117233 1.634036 0.018759 0.000472 -215792.000000 1 0 0
-8.132104 -10.238673 -9.458435 16.137643 0.899569 2.197046 0.016407 -0.004454 -1357300.000000 1 0 0
-9.225004 -14.930873 -6.867335 18.846537 1.017357 1.943765 0.030139 -0.012738 -275684.000000 1 0 0
-11.427904 -10.526373 -12.217935 19.765613 0.744357 2.237172 0.020452 0.008549 402388.000000 1 0 0
6.567596 -16.199473 2.582865 17.669959 -1.185626 1.424098 0.020313 -0.007191 267428.000000 1 0 0
-2.334804 -11.115573 -6.073735 12.880122 1.363758 2.061854 0.003537 -0.002309 -531185.000000 1 0 0
-12.534504 -15.322573 -3.379435 20.082719 0.885151 1.739877 0.031695 -0.010117 -502681.000000 1 0 0
-0.264804 -19.506173 -2.782235 19.705374 1.557222 1.712461 0.025121 -0.016888 226528.000000 1 0 0
-5.913604 -15.617773 -4.618835 17.326834 1.208833 1.840630 -0.000351 -0.009484 -2012880.000000 1 0 0
1.882396 -15.834773 -0.951835 15.974650 -1.452474 1.630416 0.007647 -0.009316 84997.700000 1 0 0
-13.153404 -12.146373 5.351165 18.686396 0.745615 1.280364 0.012396 -0.006823 530131.000000 1 0 0
1.946296 -15.195173 -8.724335 17.629390 -1.443403 2.088487 0.005676 0.002641 -3553550.000000 1 0 0
-11.947904 -16.752073 0.362665 20.579502 0.951253 1.553173 0.030950 -0.010735 -7131.080000 1 0 0
-7.629504 -16.575573 -0.853935 18.267133 1.139422 1.617560 0.008448 -0.005328 325322.000000 1 0 0
-2.985704 -14.511073 -1.743135 14.917245 1.367875 1.687918 -0.000388 -0.006760 46488.000000 1 0 0
-1.823904 -10.455173 -13.129135 16.882282 1.398084 2.461775 0.003806 -0.002641 -398.073000 1 0 0
1.423196 -19.535873 4.878765 20.186089 -1.498074 1.326690 0.025727 -0.007186 -211343.000000 1 0 0
-17.345504 -9.457673 2.586465 19.924956 0.499191 1.440619 0.016253 -0.006576 239373.000000 1 0 0
-2.693604 -15.880973 -7.930835 17.954358 1.402783 2.028314 -0.006469 0.000649 -1991880.000000 1 0 0
-10.542404 -12.204773 0.247765 16.129481 0.858349 1.555435 0.005840 -0.000714 139458.000000 1 0 0
-6.955004 -11.478473 -6.441435 14.886891 1.026037 2.018273 0.013697 -0.006924 -320657.000000 1 0 0
-2.282704 -13.675873 -6.664035 15.383420 1.405406 2.018832 -0.004661 -0.000905 126198.000000 1 0 0
-14.418104 -14.480073 -1.133435 20.465554 0.787543 1.626207 0.034666 -0.005354 231082.000000 1 0 0
-9.635604 -11.258073 -4.374035 15.450607 0.862896 1.857819 0.016577 -0.009031 1039010.000000 1 0 0
9.235596 -15.240973 -4.981535 18.504032 -1.025998 1.843373 0.022102 -0.003451 163125.000000 1 0 0
-5.662904 -10.910173 -9.231735 15.372875 1.092027 2.214949 0.014081 -0.005950 -330696.000000 1 0 0
-10.490704 -15.957773 -4.817635 19.695558 0.989234 1.817909 0.034956 -0.007999 -1038630.000000 1 0 0
2.112096 -17.342073 -3.172835 17.755994 -1.449603 1.750452 0.012929 -0.004956 499781.000000 1 0 0
-0.462504 -14.563673 -8.181635 16.710884 1.539050 2.082426 -0.001442 0.002789 -515366.000000 1 0 0
-0.746804 -18.338373 -7.033135 19.654990 1.530095 1.936739 0.004575 -0.001133 145803.000000 1 0 0
-1.700404 -10.051373 -10.503435 14.637063 1.403212 2.371135 -0.000387 -0.000869 225732.000000 1 0 0
-5.091804 -17.306373 1.960365 18.146075 1.284655 1.462553 -0.002083 -0.005294 -476742.000000 1 0 0
0.173996 -12.764673 -2.533535 13.014836 -1.557166 1.766712 0.003031 -0.001897 -1849300.000000 1 0 0
2.515196 -14.908873 3.034065 15.420968 -1.403665 1.372755 0.012486 -0.006703 -1297470.000000 1 0 0
-9.468204 -13.050973 6.769265 17.487073 0.943174 1.173311 -0.001279 -0.010679 -454574.000000 1 0 0
-1.054904 -17.804373 -4.479335 18.389480 1.511616 1.816853 0.004472 -0.009570 -150972.000000 1 0 0
-9.776904 -17.288573 -2.039635 19.966039 1.056121 1.673130 0.026000 -0.022308 -2689510.000000 1 0 0
1.259496 -16.316473 1.505065 16.434076 -1.493757 1.479086 0.009567 -0.011329 -17835.400000 1 0 0
-0.414404 -17.934273 4.067765 18.394472 1.547694 1.347812 0.017033 -0.014744 -7649.350000 1 0 0
-17.380904 -9.295373 0.028065 19.710418 0.491101 1.569372 -0.005963 0.002393 1024160.000000 1 0 0
-14.770904 -7.178973 -10.781135 19.645613 0.452402 2.151701 0.022759 -0.006610 373791.000000 1 0 0
2.800496 -12.715373 -8.877635 15.758677 -1.354012 2.169230 -0.006690 0.003968 409697.000000 1 0 0
-11.647804 -14.548173 1.765965 18.720024 0.895667 1.476320 0.007686 -0.009222 -143802.000000 1 0 0
-2.352804 -15.501373 10.722265 18.994610 1.420166 0.970981 0.014166 -0.001597 504854.000000 1 0 0
-7.097804 -15.753773 1.426565 17.337684 1.147488 1.488422 0.002350 -0.005163 -1615170.000000 1 0 0
-12.508004 -14.982273 -5.983835 20.413842 0.875162 1.868292 0.030246 -0.005688 189305.000000 1 0 0
0.902296 -13.694473 -5.039035 14.620007 -1.505004 1.922680 0.000404 0.000628 1030240.000000 1 0 0
5.807996 -16.452273 -7.343035 18.929614 -1.231433 1.969162 0.018367 -0.005925 225583.000000 1 0 0
-6.645004 -12.888173 5.935665 15.668223 1.094755 1.182260 0.002144 -0.003335 -332148.000000 1 0 0
-2.624904 -13.584873 0.586765 13.848581 1.379926 1.528414 0.005534 -0.007060 686938.000000 1 0 0
-4.304304 -15.566673 0.175365 16.151752 1.301029 1.559939 -0.001182 -0.006841 12192.800000 1 0 0
-17.776104 -7.560573 -1.860435 19.406529 0.402144 1.666810 0.001149 0.000753 340177.000000 1 0 0
1.297196 -12.743673 -11.842035 17.444705 -1.469354 2.316968 0.001581 0.001501 160299.000000 1 0 0
1.189596 -17.132073 -5.724035 18.102145 -1.501471 1.892526 0.014250 -0.001128 -608798.000000 1 0 0
-12.814604 -6.455673 -9.064835 16.972360 0.466663 2.134232 0.011906 -0.000880 2191910.000000 1 0 0
-11.619404 -13.432973 -8.886735 19.860246 0.857663 2.034723 0.039858 -0.012941 390017.000000 1 0 0
-4.367304 -9.710473 3.474965 11.200090 1.148149 1.255327 0.004350 -0.001134 -3287430.000000 1 0 0
-7.143404 -14.124773 9.662465 18.544559 1.102571 1.022727 0.005208 -0.016647 -734809.000000 1 0 0
-5.296904 -15.855673 -7.969035 18.519316 1.248383 2.015632 0.002873 -0.008267 -465950.000000 1 0 0
-0.373304 -13.332473 2.118565 13.504907 1.542804 1.413272 0.006034 -0.006128 753615.000000 1 0 0
-11.032504 -13.469573 -4.590935 18.006172 0.884536 1.828607 0.030486 -0.003314 -822127.000000 1 0 0
-9.797904 -10.515073 6.600365 15.815515 0.820689 1.140286 0.006943 -0.006498 -309663.000000 1 0 0
-15.632904 -8.265573 -4.932535 18.358575 0.486366 1.842816 0.014462 0.001354 -757798.000000 1 0 0
-14.596404 -7.608973 5.481465 17.349292 0.480535 1.249341 0.021536 -0.008004 659270.000000 1 0 0
-1.709204 -19.318473 0.131365 19.394382 1.482551 1.564023 0.015393 -0.011304 -589257.000000 1 0 0
-15.294904 -12.037273 -1.426235 19.515742 0.666771 1.643943 0.002101 -0.000679 644657.000000 1 0 0
-4.472004 -12.174773 -6.804435 14.646647 1.218778 2.053949 0.006170 -0.004266 -988818.000000 1 0 0
-7.522804 -18.242773 1.837765 19.818394 1.179670 1.477933 0.003183 -0.005775 -192566.000000 1 0 0
-2.535004 -11.758373 -8.562635 14.764969 1.358455 2.189438 0.001788 0.000689 1097700.000000 1 0 0
-1.179404 -20.390673 -5.001835 21.028288 1.513020 1.810961 0.008617 -0.001828 -81637.700000 1 0 0
-5.380404 -9.003673 -13.757535 17.299845 1.032159 2.490200 0.011484 -0.006260 494477.000000 1 0 0
-8.210304 -19.129373 -1.011635 20.841435 1.165375 1.619355 0.005009 0.003889 -25815.500000 1 0 0
-17.251004 -7.509573 5.612765 19.634000 0.410573 1.280882 0.050640 -0.014179 696662.000000 1 0 0
-3.632204 -14.718573 -4.274635 15.751248 1.328853 1.845627 -0.003013 -0.006493 -2310720.000000 1 0 0
-2.896604 -14.970973 -10.845635 18.712246 1.379677 2.189035 0.008022 -0.002648 -164160.000000 1 0 0
-0.188304 -16.608373 6.272865 17.754502 1.559459 1.209688 0.023401 -0.012129 -1337600.000000 1 0 0
-11.069504 -11.719273 3.830965 16.569598 0.813903 1.337481 0.005523 -0.005124 -186972.000000 1 0 0
-0.227104 -14.707173 -0.028035 14.708953 1.555356 1.572702 0.004190 -0.004732 431373.000000 1 0 0
-7.408704 -9.542373 -2.434435 12.323646 0.910612 1.769646 0.009944 -0.004476 -674687.000000 1 0 0
-11.155304 -14.492373 -0.761235 18.304348 0.914783 1.612396 0.014614 -0.008922 158418.000000 1 0 0
0.381296 -14.650073 -10.632635 18.105882 -1.544775 2.198450 0.005054 0.005542 -200964.000000 1 0 0
-1.488704 -13.941573 -3.850035 14.539824 1.464418 1.838785 0.000644 -0.005057 -4521450.000000 1 0 0
-11.497504 -8.163673 -7.601135 16.019220 0.617432 2.065193 0.013866 -0.002812 799087.000000 1 0 0
-0.274804 -17.189573 -0.304235 17.194461 1.554811 1.588491 0.009802 -0.013803 -458185.000000 1 0 0
-12.770404 -9.639573 4.578965 16.642461 0.646590 1.292064 0.009542 -0.006073 20566.000000 1 0 0
4.008996 -16.750973 1.740165 17.311711 -1.335886 1.470107 0.016045 -0.011443 -406790.000000 1 0 0
-3.983004 -17.997073 -8.187935 20.169314 1.352993 1.988825 0.003972 -0.001030 151583.000000 1 0 0
-13.317404 -11.361173 2.712365 17.714018 0.706295 1.417072 0.000018 -0.004716 741673.000000 1 0 0
-8.539804 -12.207673 4.114065 15.455778 0.960377 1.301365 0.001778 -0.002601 652879.000000 1 0 0
-8.303904 -9.446873 -5.818935 13.858508 0.849699 2.004111 0.014947 -0.007008 459098.000000 1 0 0
3.750996 -17.460373 -5.166835 18.591148 -1.359184 1.852424 0.004919 0.003330 -197819.000000 1 0 0
-2.460904 -13.019273 11.397165 17.477211 1.383980 0.860424 0.008378 -0.011936 245783.000000 1 0 0
0.007096 -16.832873 -9.440135 19.299270 -1.570375 2.081905 0.009108 0.004319 -142611.000000 1 0 0
-7.030304 -10.721273 -14.628035 19.451228 0.990401 2.421943 0.021779 0.001406 -911278.000000 1 0 0
-4.574904 -18.961773 -1.427135 19.557998 1.334051 1.643831 0.005016 -0.008746 -657830.000000 1 0 0
-2.539904 -17.108373 1.159165 17.334682 1.423413 1.503877 0.006393 -0.012638 -504260.000000 1 0 0
3.967296 -14.549473 -7.352335 16.777468 -1.304592 2.024421 0.004804 -0.001745 -721864.000000 1 0 0
-1.021404 -15.855273 -5.978235 16.975637 1.506465 1.930680 -0.000991 -0.002874 -55960.900000 1 0 0
-9.433304 -15.120573 8.305565 19.662181 1.013009 1.134690 0.006170 -0.013245 -570855.000000 1 0 0
-7.264904 -12.050673 -1.792335 14.184852 1.028274 1.697491 0.002700 -0.005375 1083680.000000 1 0 0
-7.355904 -15.044473 -9.246335 19.129564 1.116033 2.075277 0.017509 -0.008374 239055.000000 1 0 0
-5.080104 -13.227073 -0.582235 14.181041 1.204099 1.611865 0.001983 -0.005944 3577060.000000 1 0 0
-6.462704 -13.767873 -7.191735 16.823850 1.131923 2.012492 0.010337 -0.007816 443677.000000 1 0 0
5.704996 -15.403573 0.302565 16.428895 -1.216092 1.552379 0.013366 0.000257 152549.000000 1 0 0
-14.335004 -12.817973 0.901565 19.251119 0.729586 1.523947 -0.001368 -0.007759 908443.000000 1 0 0
0.740896 -15.315773 11.146665 18.957056 -1.522459 0.942218 0.022249 -0.004229 -8801.370000 1 0 0
-9.370904 -10.786273 1.957165 14.421790 0.855500 1.434667 0.001826 -0.001269 214894.000000 1 0 0
-9.529804 -8.809873 -3.496435 13.440836 0.746163 1.833959 0.009595 -0.007242 -344861.000000 1 0 0
-12.170304 -7.178273 -12.176635 18.652462 0.532900 2.282093 0.021992 -0.007823 -1645700.000000 1 0 0
-13.325604 -8.128273 -0.617335 15.621192 0.547721 1.610326 -0.001922 -0.000768 -226062.000000 1 0 0
-11.406404 -9.738373 0.533765 15.007560 0.706675 1.535222 0.005215 -0.001400 1770420.000000 1 0 0
-15.796304 -12.220373 2.962265 20.189991 0.658449 1.423545 0.024134 -0.004929 -429881.000000 1 0 0
-10.425804 -12.553373 -2.278135 16.476482 0.877722 1.709507 0.018819 -0.007818 869317.000000 1 0 0
-3.430804 -8.960673 -11.936535 15.314860 1.205141 2.464518 0.001024 -0.002170 -2284290.000000 1 0 0
-0.265604 -15.441973 3.878165 15.923732 1.553598 1.324776 0.013091 -0.009969 -797087.000000 1 0 0
-15.713604 -7.772873 1.326065 17.581051 0.459366 1.495299 -0.008494 -0.000471 121469.000000 1 0 0
-6.109104 -13.462373 -13.177635 19.804209 1.144794 2.298820 0.020506 -0.002459 -511393.000000 1 0 0
-15.254904 -10.342873 1.191165 18.469055 0.595810 1.506256 -0.005100 -0.002507 446935.000000 1 0 0
-9.924704 -8.342573 -12.544735 18.040750 0.699004 2.339711 0.021497 -0.005104 141390.000000 1 0 0
-13.435904 -11.752473 -6.169735 18.886762 0.718664 1.903574 0.030275 -0.000401 77304.300000 1 0 0
-12.280404 -11.354073 -3.823735 17.156464 0.746224 1.795558 0.017689 -0.001647 267563.000000 1 0 0
-11.720304 -10.840773 -9.124435 18.388670 0.746433 2.090011 0.021851 -0.010053 38151.100000 1 0 0
-13.323504 -8.620773 -5.878235 16.922976 0.574288 1.925542 0.011924 0.000892 -1618910.000000 1 0 0
-13.554304 -8.080073 -3.271435 16.115490 0.537566 1.775216 0.004506 -0.001799 74329.600000 1 0 0
-4.390404 -17.126273 -3.211435 17.969368 1.319846 1.750479 -0.003251 -0.007285 -163374.000000 1 0 0
-15.468604 -8.934273 -1.710035 17.945004 0.523767 1.666234 -0.001841 0.000675 -912493.000000 1 0 0
-9.299304 -15.461973 3.577365 18.394217 1.029326 1.375066 -0.003492 -0.004472 -986752.000000 1 0 0
4.549096 -17.327273 7.989565 19.615347 -1.314051 1.151287 0.039853 -0.018401 -46701.000000 1 0 0
-8.266004 -15.464773 5.981465 18.527384 1.079927 1.242063 -0.006013 0.001343 -127630.000000 1 0 0
0.797596 -15.892273 8.606065 18.090463 -1.520651 1.075010 0.021104 -0.008254 -458802.000000 1 0 0
-10.864704 -7.851073 -10.138735 16.806995 0.625748 2.218360 0.017843 -0.005318 984341.000000 1 0 0
-4.848004 -16.054173 5.865865 17.766485 1.277526 1.234318 -0.000176 -0.001569 -1745100.000000 1 0 0
-1.271904 -13.237473 -12.015835 17.922855 1.475007 2.305571 0.005578 -0.002441 -1341960.000000 1 0 0
-6.492104 -14.438573 -2.485535 16.024909 1.148245 1.726530 0.005233 -0.008495 590689.000000 1 0 0
-17.638504 -6.879073 -7.136135 20.232718 0.371859 1.931254 0.015007 -0.008797 317925.000000 1 0 0
-17.450804 -4.057873 -10.162335 20.597814 0.228472 2.086756 0.021488 -0.012503 780248.000000 1 0 0
-15.253704 -5.226373 -8.998235 18.465067 0.330094 2.079804 0.002479 -0.009890 1352410.000000 1 0 0
-16.039004 -5.479373 -5.655935 17.867926 0.329197 1.892877 0.000490 -0.000436 362609.000000 1 0 0
-15.294304 -4.251373 -12.356735 20.116630 0.271126 2.232237 0.021167 -0.008913 -992269.000000 1 0 0
-18.682904 -5.185673 -5.500235 20.154272 0.270747 1.847209 0.017858 -0.006955 215153.000000 1 0 0
-17.343004 -4.294873 -7.601535 19.416721 0.242759 1.973051 0.005099 -0.009815 532048.000000 1 0 0
12.284996 -7.752073 8.731065 16.948371 -0.562916 1.029606 0.018451 -0.004972 78691.500000 1 0 0
16.073796 -3.454173 1.769365 16.535685 -0.211675 1.463588 0.017670 -0.005414 182423.000000 1 0 0
11.844796 -2.321773 12.498665 17.375456 -0.193562 0.767961 -0.008556 0.000096 349501.000000 1 0 0
9.652796 -10.059873 5.279165 14.907955 -0.806046 1.208826 0.005839 -0.006986 181838.000000 1 0 0
16.699296 -1.750273 7.198765 18.268885 -0.104430 1.165768 0.016005 -0.007970 250807.000000 1 0 0
5.262096 -12.825773 9.262465 16.672833 -1.181464 0.981781 0.013584 -0.001325 -17685.600000 1 0 0
15.089496 -9.198673 -2.083135 17.794604 -0.547454 1.688131 0.032673 -0.001093 -271203.000000 1 0 0
11.209796 -8.619573 6.430465 15.534074 -0.655508 1.143998 0.015487 -0.006215 -2173420.000000 1 0 0
20.067196 -2.967573 3.639465 20.609332 -0.146818 1.393272 0.045523 -0.012309 -663459.000000 1 0 0
13.655496 -8.688673 6.958865 17.617929 -0.566667 1.164742 0.023172 -0.004472 -1709950.000000 1 0 0
8.400396 -11.084573 8.794265 16.455197 -0.922293 1.006955 0.010604 -0.005247 -2281570.000000 1 0 0
16.881496 0.005627 -0.600935 16.892190 0.000333 1.606379 0.007494 -0.000701 -900432.000000 1 0 0
12.315796 -12.410973 2.358865 17.642997 -0.789247 1.436695 0.025112 -0.009976 -3349370.000000 1 0 0
10.315696 -11.694373 3.572065 15.997863 -0.847955 1.345614 0.010320 -0.006533 -1347290.000000 1 0 0
16.399696 2.934327 2.282965 16.815833 0.177052 1.434613 0.006384 0.000584 729793.000000 1 0 0
18.377896 -3.372673 0.454065 18.690323 -0.181498 1.546500 0.028569 -0.008060 798089.000000 1 0 0
13.604496 -11.756373 -0.130635 17.980870 -0.712654 1.578062 0.037540 -0.003562 -316469.000000 1 0 0
16.853496 -7.674173 -0.848135 18.537870 -0.427291 1.616564 0.035006 -0.005299 677184.000000 1 0 0
10.187596 -5.706673 9.762265 15.220219 -0.510609 0.874473 0.004640 -0.004632 -367893.000000 1 0 0
11.272996 -13.225073 5.916465 18.357221 -0.864913 1.242642 0.028389 -0.021225 -151356.000000 1 0 0
13.101196 -1.646373 10.374965 16.792611 -0.125011 0.904817 0.006242 0.002162 -593753.000000 1 0 0
15.642896 -2.059273 -1.394035 15.839323 -0.130890 1.658921 0.004768 0.002446 752328.000000 1 0 0
10.663196 -12.312073 8.872965 18.547787 -0.857043 1.071983 0.031112 -0.021289 9732.780000 1 0 0
14.594096 1.271427 3.393265 15.037234 0.086900 1.343178 0.008352 -0.001158 1215680.000000 1 0 0
14.932896 -5.890773 5.272765 16.896587 -0.375741 1.253435 0.021130 -0.003840 -880297.000000 1 0 0
14.345396 -3.413573 -3.007335 15.049483 -0.233611 1.771981 0.005317 0.001572 914565.000000 1 0 0
14.120396 0.625527 9.643165 17.110450 0.044271 0.972079 0.020156 -0.001337 1636340.000000 1 0 0
15.363396 -3.512473 4.388465 16.359402 -0.224763 1.299217 0.015408 -0.003606 -720781.000000 1 0 0
18.259796 4.858127 -4.420435 19.405200 0.260032 1.800610 -0.024050 0.003398 235165.000000 1 0 0
18.029596 -5.856473 -5.107635 19.632946 -0.314074 1.833980 0.044198 -0.008155 473473.000000 1 0 0
17.280796 0.029327 5.800665 18.228398 0.001697 1.246944 0.029195 -0.007097 958921.000000 1 0 0
17.000896 -6.789873 3.976365 18.733508 -0.379975 1.356910 0.030714 -0.003901 180045.000000 1 0 0
9.804196 -6.636573 14.300565 18.565358 -0.595062 0.691513 0.003484 -0.000059 -799602.000000 1 0 0
8.564196 -12.220673 5.227165 15.811817 -0.959536 1.233872 0.010466 -0.009528 -950889.000000 1 0 0
16.765096 -10.333573 -0.428835 19.698606 -0.552372 1.592568 0.045735 -0.004115 161675.000000 1 0 0
14.859396 -8.859473 0.413965 17.305008 -0.537636 1.546872 0.035075 -0.006168 131614.000000 1 0 0
10.019596 -12.936173 1.476165 16.429119 -0.911773 1.480824 0.018874 -0.009496 -185742.000000 1 0 0
16.760696 -8.352673 8.926965 20.745573 -0.462326 1.125963 0.029306 -0.002136 545500.000000 1 0 0
19.231296 -0.195773 -1.745935 19.311379 -0.010180 1.661330 0.030339 -0.005572 -156115.000000 1 0 0
13.432196 -1.219073 7.766965 15.563926 -0.090510 1.048310 0.009381 -0.002300 -357710.000000 1 0 0
12.766296 -9.851173 -3.033235 16.408061 -0.657217 1.756728 0.024530 -0.003608 -1563120.000000 1 0 0
8.789196 -15.278073 1.529465 17.692054 -1.048750 1.484239 0.023054 -0.004460 -791777.000000 1 0 0
11.587196 -8.278573 11.132465 18.075665 -0.620364 0.907292 0.019629 -0.009083 57154.700000 1 0 0
13.936996 -3.982873 -0.577935 14.506452 -0.278358 1.610647 0.007537 -0.000875 -370302.000000 1 0 0
7.345696 -13.197973 10.789165 18.562107 -1.062917 0.950536 0.020970 -0.002735 -642460.000000 1 0 0
15.444096 -6.818473 1.891265 16.987895 -0.415758 1.459235 0.023856 -0.001994 -1328620.000000 1 0 0
15.764996 -6.311573 -2.681235 17.191861 -0.380811 1.727395 0.036573 -0.003489 -270207.000000 1 0 0
11.170896 -8.589573 3.842865 14.606071 -0.655503 1.304562 0.010621 -0.007454 446815.000000 1 0 0
10.525096 -14.618973 -0.493535 18.020422 -0.946799 1.598187 0.027049 -0.006907 799663.000000 1 0 0
13.480396 -12.875173 4.624065 19.206071 -0.762438 1.327647 0.029561 -0.011840 252416.000000 1 0 0
12.755996 -11.114273 6.447365 18.105552 -0.716729 1.206707 0.024401 -0.012992 -141027.000000 1 0 0
10.914896 -10.503773 1.351265 15.208226 -0.766206 1.481828 0.011310 -0.002927 692908.000000 1 0 0
14.058896 -7.462673 11.882665 19.863076 -0.487995 0.929507 0.019267 -0.010886 452064.000000 1 0 0
15.287196 -1.770873 -4.844635 16.133966 -0.115326 1.875778 0.007980 0.002929 -992676.000000 1 0 0
12.873096 -11.662073 -7.213735 18.808470 -0.736080 1.964419 0.040467 -0.004741 99006.600000 1 0 0
17.682096 -5.469073 1.864865 18.602285 -0.299967 1.470378 0.034995 -0.003031 874157.000000 1 0 0
10.589496 -9.655673 9.182765 17.020359 -0.739305 1.000934 0.009035 -0.007701 223855.000000 1 0 0
16.541796 1.755327 9.771765 19.292475 0.105719 1.039668 0.037542 -0.004658 52584.900000 1 0 0
18.081596 3.894927 0.430865 18.501357 0.212166 1.547506 -0.004308 0.004079 581745.000000 1 0 0
13.245096 -4.046873 5.737765 14.991054 -0.296529 1.178030 0.011764 -0.006038 -564949.000000 1 0 0
12.210796 -6.292873 6.642565 15.258685 -0.475855 1.120391 0.013646 -0.008460 -375272.000000 1 0 0
16.478796 -10.252773 3.521365 19.724860 -0.556569 1.391310 0.026237 -0.004542 115867.000000 1 0 0
16.416296 -8.466173 -5.579735 19.295189 -0.476142 1.864164 0.055064 -0.002671 -124405.000000 1 0 0
14.056696 -0.546873 5.357265 15.052909 -0.038885 1.206924 0.010139 0.000128 945551.000000 1 0 0
18.432596 -4.423473 4.911465 19.581885 -0.235527 1.317272 0.050811 -0.005151 424670.000000 1 0 0
13.379196 -13.517273 7.237365 20.349423 -0.790532 1.207182 0.025719 -0.012351 -385321.000000 1 0 0
15.043996 -13.735373 -0.918235 20.391799 -0.739959 1.615841 0.041661 -0.003779 543782.000000 1 0 0
17.780596 -6.070873 8.132765 20.473079 -0.329022 1.162287 0.035866 0.004706 -711505.000000 1 0 0
14.417196 3.311127 9.386465 17.519270 0.225750 1.005366 0.027160 -0.001366 245069.000000 1 0 0
18.912596 3.579827 2.729065 19.440917 0.187070 1.429954 0.029616 -0.005136 -567179.000000 1 0 0
14.801796 -10.812773 8.157865 20.063898 -0.630907 1.152073 0.023616 -0.009981 -147889.000000 1 0 0
14.858996 -4.754673 10.358165 18.726673 -0.309690 0.984687 0.017493 -0.007088 276783.000000 1 0 0
17.855696 -7.968673 1.868165 19.642191 -0.419758 1.475543 0.055827 -0.004940 290989.000000 1 0 0
18.346496 -5.997173 -2.074335 19.412956 -0.315935 1.677854 0.031635 -0.004701 941427.000000 1 0 0
14.160196 -13.136273 -5.376935 20.049545 -0.747905 1.842302 0.046449 -0.009869 293388.000000 1 0 0
15.431396 -1.595773 9.490065 18.186144 -0.103045 1.021802 0.023777 -0.004172 -325166.000000 1 0 0
13.031396 -10.055273 10.053765 19.287405 -0.657194 1.022469 0.012687 -0.019145 -1695690.000000 1 0 0
16.653896 2.228327 4.830465 17.482880 0.133012 1.290857 0.017544 -0.002629 -328551.000000 1 0 0
14.969596 2.323727 -0.086335 15.149125 0.154001 1.576495 -0.001621 0.000970 -1271510.000000 1 0 0
15.103796 -10.175073 -7.002535 19.511337 -0.592840 1.937881 0.052973 -0.006380 1057930.000000 1 0 0
16.339096 -0.072773 -3.206735 16.650961 -0.004454 1.764593 0.009336 0.001002 206689.000000 1 0 0
12.029396 2.688827 13.626965 18.374720 0.219907 0.735322 0.025195 -0.000106 -2200.770000 1 0 0
17.689296 -2.934373 9.410165 20.250258 -0.164387 1.087508 0.036999 -0.012374 514547.000000 1 0 0
8.008896 -18.125373 4.429565 20.304990 -1.154731 1.350876 0.049597 -0.018047 -426955.000000 1 0 0
6.834396 -11.160973 6.659765 14.684303 -1.021347 1.100075 0.006070 -0.006236 336213.000000 1 0 0
18.023196 2.123527 -1.562835 18.215033 0.117281 1.656701 0.002755 0.000396 438943.000000 1 0 0
17.524796 -2.297773 3.658265 18.049409 -0.130372 1.366702 0.019732 -0.005664 -1040780.000000 1 0 0
12.515496 -13.567273 -1.785735 18.544471 -0.825701 1.667241 0.035280 -0.003726 -555131.000000 1 0 0
14.965196 -8.349573 4.429865 17.700175 -0.508913 1.317835 0.026945 -0.002619 295173.000000 1 0 0
11.205196 -3.118373 14.887665 18.892412 -0.271429 0.663204 -0.009052 0.001614 277274.000000 1 0 0
11.853196 -13.859073 -6.344035 19.308520 -0.863253 1.905576 0.025764 -0.011465 -336398.000000 1 0 0
10.632396 -11.979273 -1.201835 16.062230 -0.844893 1.645690 0.024230 -0.007689 -635198.000000 1 0 0
13.152196 -8.037073 2.253565 15.577335 -0.548528 1.425617 0.017417 -0.001718 -970476.000000 1 0 0
8.805096 -7.847473 10.115365 15.538120 -0.727955 0.861891 0.006163 -0.002440 -1452280.000000 1 0 0
15.670296 -3.832873 8.054965 18.031405 -0.239885 1.107702 0.026672 -0.006327 -408765.000000 1 0 0
10.245096 -17.075873 5.507265 20.661012 -1.030395 1.300981 0.051285 -0.024259 739248.000000 1 0 0
15.173396 -6.416073 8.355465 18.471918 -0.400048 1.101416 0.022288 0.000425 439827.000000 1 0 0
16.499596 -5.103773 -0.382235 17.275164 -0.299992 1.592924 0.016813 -0.002548 -563989.000000 1 0 0
13.945896 -10.623273 3.375565 17.853190 -0.650978 1.380578 0.030061 -0.008865 372160.000000 1 0 0
14.964196 -10.229373 -4.421635 18.657923 -0.599627 1.810057 0.050028 -0.009694 661986.000000 1 0 0
13.568296 -6.589673 0.033865 15.083886 -0.452116 1.568551 0.016463 -0.001398 336133.000000 1 0 0
17.819296 -1.014473 -4.941135 18.519484 -0.056870 1.840875 0.014219 -0.001870 77591.600000 1 0 0
14.398696 0.235127 -1.641335 14.493851 0.016328 1.684283 0.000299 0.000866 -1071270.000000 1 0 0
4.975496 -13.088973 11.842765 18.339244 -1.207537 0.868777 0.009605 0.004359 -151073.000000 1 0 0
12.004696 -7.508473 13.589265 19.625443 -0.558931 0.805943 0.008172 -0.005254 -370792.000000 1 0 0
12.121696 -5.867473 11.561765 17.749287 -0.450804 0.861377 0.005907 -0.002744 813961.000000 1 0 0
13.271296 -4.589973 8.277365 16.300611 -0.332979 1.038173 0.012353 -0.006359 -66880.500000 1 0 0
15.329996 -1.240973 3.068765 15.683307 -0.080775 1.373855 0.014851 -0.001956 644515.000000 1 0 0
15.155996 -10.505373 5.750965 19.316850 -0.606114 1.268495 0.029821 -0.007574 403555.000000 1 0 0
13.816996 -8.237773 -5.742335 17.080536 -0.537625 1.913667 0.035182 -0.002235 -254307.000000 1 0 0
9.472096 -1.829473 13.385565 16.499725 -0.190794 0.624493 -0.008787 -0.006921 -443171.000000 1 0 0
9.895196 -9.141073 13.461065 19.044012 -0.745804 0.785776 0.015087 -0.008218 -247813.000000 1 0 0
20.315896 6.001627 -3.247235 21.431279 0.287245 1.722901 0.033475 -0.000191 -50076.700000 1 0 0
11.376796 -3.676573 10.508965 15.918135 -0.312571 0.849727 0.005555 0.000673 819834.000000 1 0 0
10.246696 -14.050173 -2.968835 17.641319 -0.940680 1.739890 0.025373 -0.004437 747772.000000 1 0 0
14.858496 -12.827473 2.405465 19.776381 -0.712170 1.448861 0.034529 -0.004006 474451.000000 1 0 0
11.624796 -0.556373 14.468265 18.568148 -0.047824 0.677411 0.025698 0.003508 27805.600000 1 0 0
18.915096 -1.965273 5.760465 19.870232 -0.103528 1.276670 0.041808 -0.008622 524329.000000 1 0 0
18.857496 -0.322773 7.891665 20.444748 -0.017115 1.174505 0.043866 -0.008311 418435.000000 1 0 0
18.914196 0.981927 0.646165 18.950687 0.051868 1.536693 0.022116 -0.004854 168410.000000 1 0 0
18.523496 0.610727 3.586065 18.877308 0.032958 1.379668 0.028715 -0.006660 345074.000000 1 0 0
16.632096 -3.926673 -4.133335 17.582089 -0.231845 1.808105 0.022604 -0.002760 -1340940.000000 1 0 0
11.040696 -8.430173 15.747465 20.998749 -0.652120 0.722849 0.019750 -0.002399 563065.000000 1 0 0
16.525196 -7.645573 6.391165 19.297251 -0.433333 1.233226 0.027828 -0.002580 411586.000000 1 0 0
19.022096 2.053827 5.727365 19.971506 0.107554 1.279936 0.040907 -0.008153 74944.500000 1 0 0
15.350996 1.915527 7.501365 17.192813 0.124140 1.119305 0.023983 -0.001511 379028.000000 1 0 0
8.625996 -15.572073 4.053265 18.257224 -1.064933 1.346922 0.024138 -0.019487 101386.000000 1 0 0
11.328996 -15.157773 1.887265 19.017519 -0.928958 1.471394 0.031639 -0.008998 292752.000000 1 0 0
7.790496 -16.208273 6.214665 19.026876 -1.122749 1.238065 0.029157 -0.016331 54727.400000 1 0 0
14.384396 -11.810173 -2.529335 18.782667 -0.687440 1.705870 0.036981 -0.004850 694023.000000 1 0 0
13.646996 -4.888773 3.202165 14.845689 -0.343988 1.353391 0.008445 -0.001002 -1599510.000000 1 0 0
-1.029204 10.181527 -5.537235 11.635451 -1.470053 2.066776 0.000410 0.003627 -1969020.000000 1 0 0
8.288296 -1.723373 -7.944035 11.609202 -0.205007 2.324423 0.007382 -0.000759 -1542220.000000 1 0 0
3.052496 -10.240373 7.671765 13.154427 -1.281098 0.948124 0.003554 -0.000239 804305.000000 1 0 0
-6.190304 1.274827 8.341265 10.465264 -0.203100 0.648413 0.001318 -0.002045 -4888.680000 1 0 0
7.244796 -6.286173 -7.169735 11.975314 -0.714670 2.212685 0.003935 -0.000697 -35536.900000 1 0 0
-11.304204 -4.481873 -4.116035 12.837989 0.377467 1.897174 0.000288 -0.003989 224762.000000 1 0 0
2.136496 -3.137173 2.967865 4.818163 -0.972918 0.907174 0.003127 0.000829 1561730.000000 1 0 0
-3.542304 -4.247673 8.792665 10.387570 0.875700 0.561495 0.004781 -0.002059 -1731660.000000 1 0 0
-4.885704 -1.083973 -2.442735 5.568847 0.218330 2.024884 0.004755 -0.004446 -251475.000000 1 0 0
4.957996 -5.072573 -3.675535 7.988885 -0.796820 2.048883 0.008490 -0.001603 937356.000000 1 0 0
2.678296 14.334527 -8.970835 17.120976 1.386084 2.122299 0.005473 -0.004968 -245576.000000 1 0 0
5.492696 -5.429573 13.721065 15.745399 -0.779619 0.512680 0.000835 -0.002841 -801820.000000 1 0 0
-4.716404 -0.910073 9.858965 10.966854 0.190616 0.453365 0.006589 -0.001303 -4052940.000000 1 0 0
-1.045804 11.834727 -2.909835 12.231991 -1.482658 1.810986 -0.003341 0.000891 188117.000000 1 0 0
3.231296 9.398627 -10.613235 14.540159 1.239651 2.389010 0.003123 -0.001660 -45367.600000 1 0 0
-10.663504 2.744627 1.147865 11.070722 -0.251917 1.466925 0.000136 -0.003232 261608.000000 1 0 0
5.590796 -8.966573 -0.742535 10.592818 -1.013265 1.640952 0.003354 -0.000867 495570.000000 1 0 0
-6.960704 5.451527 9.302465 12.833799 -0.664404 0.759993 0.000033 0.000332 332709.000000 1 0 0
-5.464504 -1.920373 5.148165 7.749338 0.337945 0.844191 0.005910 -0.004166 645410.000000 1 0 0
6.622796 -3.785973 -7.293835 10.554386 -0.519319 2.333767 0.007735 -0.001955 482194.000000 1 0 0
6.228396 4.732127 11.031165 13.523038 0.649722 0.616804 0.000837 0.003035 206213.000000 1 0 0
3.745796 -9.781773 3.469365 11.034064 -1.205086 1.250947 0.000133 -0.000036 618706.000000 1 0 0
-6.589504 6.597727 -5.855535 11.010851 -0.786022 2.131517 -0.002245 -0.001136 -362719.000000 1 0 0
-11.181104 8.467327 5.269765 14.982761 -0.648150 1.211386 -0.002027 -0.005904 673698.000000 1 0 0
-9.197504 -5.500473 5.105365 11.870722 0.538977 1.126214 0.001707 -0.001036 -304207.000000 1 0 0
3.305596 9.791827 -8.113035 13.138804 1.245222 2.236340 0.004469 -0.002328 964228.000000 1 0 0
-8.079604 -8.649573 6.122865 13.326087 0.819455 1.093404 0.001827 -0.001413 -1671460.000000 1 0 0
-7.812704 -5.811073 -7.449435 12.259731 0.639520 2.223875 0.010848 -0.007102 -362428.000000 1 0 0
9.311396 -1.475873 6.917865 11.693467 -0.157194 0.937753 0.003003 -0.005892 4161290.000000 1 0 0
-4.111104 -0.421473 -4.825935 6.353618 0.102164 2.433428 0.008000 -0.009831 -993899.000000 1 0 0
9.073996 1.266627 -4.614135 10.258265 0.138692 2.037334 0.002691 -0.000133 -2213480.000000 1 0 0
-1.915704 -10.599673 10.560265 15.084502 1.391994 0.795295 0.008274 -0.009718 383134.000000 1 0 0
-12.886204 0.256127 -2.594535 13.147299 -0.019873 1.769444 -0.003900 -0.003633 -425187.000000 1 0 0
-9.838104 -5.292573 -6.055235 12.706907 0.493558 2.067501 0.006472 -0.004323 -1188380.000000 1 0 0
-5.602404 8.345127 -0.171935 10.052742 -0.979566 1.587900 0.000186 0.002203 821988.000000 1 0 0
6.441496 9.636627 0.222365 11.593399 0.981568 1.551615 0.012328 -0.004926 401968.000000 1 0 0
-0.732004 -12.112173 -0.084735 12.134568 1.510434 1.577779 0.007684 -0.001840 -436201.000000 1 0 0
6.193996 4.722227 2.344565 8.134003 0.651382 1.278405 0.007104 -0.001530 182705.000000 1 0 0
3.488896 -7.442873 -8.149435 11.575062 -1.132454 2.351882 -0.001111 0.000428 1268250.000000 1 0 0
-6.525604 -9.825173 4.640765 12.674945 0.984523 1.195942 0.002659 -0.001610 -2546660.000000 1 0 0
-0.007404 6.437127 -9.360035 11.359882 -1.569646 2.539152 0.005729 -0.002234 -1701090.000000 1 0 0
-17.325604 -2.873573 4.444165 18.115865 0.164361 1.322948 0.028431 -0.010923 517655.000000 1 0 0
-8.444604 0.755927 -9.077735 12.421273 -0.089278 2.390321 -0.000673 -0.005017 739992.000000 1 0 0
-10.029204 -5.893973 -11.797135 16.567928 0.531312 2.363205 0.017248 -0.006367 -440639.000000 1 0 0
2.133896 9.556327 6.510165 11.758365 1.351104 0.984040 0.001605 0.004632 -275177.000000 1 0 0
-11.325904 1.723227 -1.190835 11.517973 -0.150991 1.674371 0.002793 -0.005029 -2262380.000000 1 0 0
-6.066004 -5.338573 -3.074735 8.645852 0.721700 1.934386 0.015541 -0.007092 555058.000000 1 0 0
-7.025404 -8.260573 1.369265 10.930153 0.866027 1.445192 0.006839 -0.000321 -173734.000000 1 0 0
-0.041604 10.990327 -7.881635 13.524392 -1.567011 2.192932 0.005073 0.001309 -3048.060000 1 0 0
-2.896304 9.255827 -4.284335 10.602567 -1.267532 1.986774 0.001185 0.000821 -538255.000000 1 0 0
3.472596 -4.706573 9.394865 11.066808 -0.935137 0.556853 -0.000448 -0.000345 -790131.000000 1 0 0
-8.965504 1.577827 -0.427835 9.113333 -0.174205 1.617760 0.000179 -0.003804 -1180370.000000 1 0 0
2.451496 3.476727 -10.455335 11.287670 0.956645 2.755166 0.007732 -0.003339 337629.000000 1 0 0
-13.755304 0.473827 1.181265 13.814061 -0.034433 1.485180 -0.003000 -0.004516 -907014.000000 1 0 0
9.358596 -12.735173 -5.059235 16.594090 -0.937054 1.880611 0.021273 -0.001435 -1263560.000000 1 0 0
-4.633104 9.407227 -8.341535 13.399357 -1.113163 2.242771 0.001060 0.000045 -1868410.000000 1 0 0
-2.388104 7.232227 8.391865 11.332764 -1.251866 0.736988 0.003195 0.000330 -67607.000000 1 0 0
-10.813904 -1.489873 -4.369235 11.757995 0.136912 1.951525 -0.000172 -0.004351 -4577700.000000 1 0 0
2.845096 -7.168073 9.596365 12.311217 -1.192955 0.676959 -0.000270 0.003649 -431972.000000 1 0 0
-16.025104 -6.533973 3.487365 17.653851 0.387155 1.371947 0.012032 -0.007414 -114951.000000 1 0 0
-10.809704 0.094627 6.347165 12.535755 -0.008754 1.039879 0.004921 -0.004468 -1161060.000000 1 0 0
-8.339604 9.917227 9.254465 15.923112 -0.871597 0.950597 -0.002567 -0.006044 179777.000000 1 0 0
0.179096 -6.079273 -3.758635 7.149614 -1.541345 2.124348 0.002109 0.000095 409935.000000 1 0 0
4.948496 1.591827 -2.949435 5.976679 0.311225 2.086895 0.005994 -0.002621 -329170.000000 1 0 0
0.338696 5.394427 3.710665 6.556187 1.508092 0.969176 0.002622 0.001629 -579625.000000 1 0 0
5.965296 -11.253573 -1.468735 12.821266 -1.083375 1.685603 0.002177 -0.001739 -3029820.000000 1 0 0
6.260196 -13.418573 5.333165 15.738196 -1.134280 1.225083 0.006547 -0.009554 -767062.000000 1 0 0
8.102196 -8.228373 -5.925735 12.979447 -0.793124 2.044907 0.003647 -0.000284 690865.000000 1 0 0
-13.096904 -1.356273 -4.637235 13.959667 0.103189 1.909419 -0.001911 -0.001597 -3739850.000000 1 0 0
-6.967104 -1.548673 -7.009835 10.003835 0.218727 2.347195 0.000532 -0.005570 449632.000000 1 0 0
-5.653104 12.827627 -4.660835 14.772575 -1.155705 1.891786 0.001061 0.001735 -373707.000000 1 0 0
-4.322804 6.828627 -6.846235 10.591870 -1.006435 2.273610 0.002367 0.000256 -3285700.000000 1 0 0
-9.367404 -3.804673 -8.122235 12.968982 0.385806 2.247571 0.007182 -0.003730 709291.000000 1 0 0
-2.050004 -6.284473 9.099465 11.247106 1.255478 0.628263 0.007841 -0.002422 -217845.000000 1 0 0
7.521596 -5.934373 10.106565 13.926014 -0.667984 0.758697 0.000107 -0.001437 73991.700000 1 0 0
9.778596 -5.000673 12.287065 16.480281 -0.472718 0.729419 0.005635 0.003150 415489.000000 1 0 0
-6.460304 2.671927 -9.102935 11.477724 -0.392168 2.486671 0.000570 -0.004485 -187904.000000 1 0 0
7.440796 5.578527 8.864465 12.847729 0.643323 0.809358 -0.000106 0.000106 -302289.000000 1 0 0
12.715096 3.409527 11.216965 17.295053 0.261985 0.865099 0.019560 0.000692 310490.000000 1 0 0
-7.542404 -7.334273 -3.907535 11.222667 0.771409 1.926428 0.015341 -0.008717 -834554.000000 1 0 0
2.169796 1.448227 -5.781335 6.342650 0.588543 2.717716 0.011404 -0.006034 411552.000000 1 0 0
12.905196 6.961027 -7.093035 16.288374 0.494666 2.021352 0.013298 -0.001583 151092.000000 1 0 0
0.799896 -7.703873 1.067765 7.818543 -1.467337 1.433800 0.003241 -0.000154 730117.000000 1 0 0
-10.166204 -6.162073 -8.549335 14.642881 0.544917 2.194267 0.010838 -0.003338 563512.000000 1 0 0
-6.664304 0.283727 3.130365 7.368353 -0.042548 1.132012 0.003605 -0.004905 1117680.000000 1 0 0
10.825596 -7.956773 1.239965 13.492268 -0.633829 1.478765 0.002828 -0.001859 -152864.000000 1 0 0
6.226996 1.159727 10.551365 12.306574 0.184132 0.540646 0.002706 -0.001318 563173.000000 1 0 0
-13.122404 5.397627 1.865065 14.311196 -0.390235 1.440102 -0.000257 -0.002270 516038.000000 1 0 0
2.065496 7.443827 3.574365 8.511928 1.300128 1.137434 0.000514 0.003235 75282.100000 1 0 0
10.088996 -9.387673 -0.860435 13.807846 -0.749405 1.633152 0.006772 -0.001046 816461.000000 1 0 0
6.686696 -11.756273 -9.012735 16.252731 -1.053651 2.158602 0.000973 0.001073 -217888.000000 1 0 0
10.210296 3.565927 11.954765 16.120868 0.336005 0.735388 0.006249 0.000238 -975766.000000 1 0 0
-11.052204 -3.152373 -1.894135 11.648022 0.277848 1.734136 -0.004695 -0.001280 -1135100.000000 1 0 0
12.415696 1.067627 6.890265 14.239561 0.085779 1.065711 0.007899 -0.000717 -86952.900000 1 0 0
-9.677904 9.103927 2.998365 13.621068 -0.754847 1.348852 -0.001709 -0.002658 2696050.000000 1 0 0
-6.521804 7.678127 -8.885835 13.433005 -0.866650 2.293604 0.000926 -0.002439 234931.000000 1 0 0
8.449696 5.528927 12.057465 15.727328 0.579416 0.697178 0.008270 0.002582 -1781110.000000 1 0 0
1.220896 4.872927 -2.741335 5.722842 1.325303 2.070330 0.007318 -0.004129 740170.000000 1 0 0
1.386696 0.587927 9.511265 9.629784 0.401003 0.157054 0.005205 -0.002094 781313.000000 1 0 0
2.546196 12.592627 -4.072635 13.477526 1.371289 1.877775 0.008322 -0.005636 461671.000000 1 0 0
2.102796 0.696327 12.954365 13.142382 0.319778 0.169354 0.006389 -0.004206 -537785.000000 1 0 0
-12.296904 -1.737573 0.906665 12.452110 0.140372 1.497920 -0.006297 -0.002521 -146574.000000 1 0 0
3.286896 8.748427 -1.401935 9.450084 1.211401 1.719698 0.009357 -0.002420 518048.000000 1 0 0
3.623596 -2.757473 -5.782535 7.360151 -0.650489 2.474550 0.006545 -0.002882 -758541.000000 1 0 0
-7.821004 -7.039873 9.250165 14.010477 0.732884 0.849669 0.006589 -0.008464 -265987.000000 1 0 0
-7.095804 10.918127 -3.592435 13.507831 -0.994484 1.839988 -0.000020 0.001977 690799.000000 1 0 0
0.370496 0.587727 2.431365 2.528681 1.008331 0.278331 0.001610 -0.000373 -707203.000000 1 0 0
-7.021204 4.627627 -1.937535 8.629384 -0.582741 1.797255 0.002389 -0.003446 -643731.000000 1 0 0
-7.000704 -4.037073 -5.834935 9.967662 0.523086 2.196153 0.005852 -0.005175 -358790.000000 1 0 0
3.056196 -6.014273 13.541265 15.128704 -1.100644 0.462206 -0.001834 0.000820 -1667720.000000 1 0 0
-5.564804 -0.401573 -11.258035 12.564699 0.072038 2.681486 0.010384 -0.004072 -881921.000000 1 0 0
11.878996 2.565227 -0.669135 12.171224 0.212681 1.625801 0.001378 0.001256 -2338820.000000 1 0 0
6.162096 -10.951473 10.964165 16.676904 -1.058276 0.853372 0.008659 -0.000667 780172.000000 1 0 0
-8.132404 6.439027 -10.522135 14.775398 -0.669705 2.363336 0.000244 -0.004817 737232.000000 1 0 0
2.831696 7.937327 11.163465 13.987230 1.228115 0.646631 0.002818 0.001216 1009890.000000 1 0 0
-6.309704 -10.083273 -0.390735 11.901153 1.011651 1.603634 0.007369 -0.001839 261778.000000 1 0 0
11.408696 4.275327 6.133365 13.640196 0.358545 1.104419 0.010352 -0.000528 1340810.000000 1 0 0
-7.917904 10.650227 1.413165 13.346069 -0.931501 1.464711 -0.002268 0.004220 926392.000000 1 0 0
4.356196 -2.535073 -3.489035 6.129960 -0.527039 2.176301 0.008524 -0.002276 -5042080.000000 1 0 0
6.474096 6.515127 6.100565 11.026228 0.788557 0.984502 0.004556 0.002493 -5265430.000000 1 0 0
-0.228004 10.310627 -10.256135 14.544735 -1.548686 2.353423 0.001699 0.000947 256476.000000 1 0 0
14.035296 6.559727 -2.499035 15.692824 0.437207 1.730724 0.006376 0.003876 786151.000000 1 0 0
1.420596 9.466327 -6.260235 11.437656 1.421840 2.149973 0.004162 -0.000334 157899.000000 1 0 0
0.691296 7.414527 7.222365 10.373796 1.477830 0.800689 0.002924 0.004453 181057.000000 1 0 0
12.327096 6.382627 1.908065 14.011993 0.477764 1.434198 0.006547 0.000002 -1767480.000000 1 0 0
-6.806204 6.642927 -3.204435 10.036000 -0.773258 1.895781 -0.002754 -0.002908 1014410.000000 1 0 0
1.020396 9.972127 11.198665 15.029791 1.468826 0.730115 0.003192 0.000728 560620.000000 1 0 0
-3.509504 13.720327 -11.115635 18.003370 -1.320377 2.236255 0.005037 0.002899 102427.000000 1 0 0
-10.056804 -5.511873 -2.316635 11.699865 0.501363 1.770119 0.003936 -0.003163 232286.000000 1 0 0
-3.976204 3.904027 -12.533535 13.716454 -0.776239 2.723239 0.006803 -0.007506 392228.000000 1 0 0
-3.223704 8.469427 2.344965 9.360679 -1.207100 1.317587 0.000306 0.003437 -2077820.000000 1 0 0
7.041896 8.926827 7.094665 13.401896 0.902893 1.012929 0.006942 0.002094 265834.000000 1 0 0
-1.461904 -2.240773 -8.176135 8.602756 0.992729 2.825344 0.009497 -0.009092 -1588950.000000 1 0 0
0.872796 -1.269273 4.866465 5.104440 -0.968418 0.306555 0.003000 -0.001594 -65388.500000 1 0 0
2.790496 -8.847073 -5.975935 11.034916 -1.265258 2.143074 -0.002902 0.001044 391150.000000 1 0 0
5.351496 3.977227 8.790365 11.033012 0.639134 0.648927 -0.000463 0.000870 81996.500000 1 0 0
6.079896 -7.341473 -2.703135 9.908043 -0.879120 1.847122 0.004308 -0.002445 774541.000000 1 0 0
1.793096 2.223327 -8.298135 8.775957 0.892109 2.810087 0.010082 -0.006679 114104.000000 1 0 0
-5.403904 10.989327 -0.785935 12.271315 -1.113778 1.634887 -0.003952 0.004386 626123.000000 1 0 0
-5.417904 3.255127 -3.302635 7.131404 -0.541014 2.052299 0.000279 -0.002657 -1186150.000000 1 0 0
2.005896 13.634627 -6.562935 15.264298 1.424726 2.015237 0.001290 -0.002809 679664.000000 1 0 0
-5.344304 -2.538273 2.605065 6.464579 0.443407 1.156031 0.001098 -0.002368 931761.000000 1 0 0
10.534696 -3.333473 -1.937235 11.218055 -0.306459 1.744355 0.000522 0.000266 83701.300000 1 0 0
2.385896 -3.272773 7.091465 8.166543 -0.940862 0.518919 -0.001591 0.001059 -1362390.000000 1 0 0
-2.800104 9.891627 -11.799135 15.649423 -1.294936 2.424875 0.005993 0.002424 -2367230.000000 1 0 0
0.531796 -1.973773 9.324465 9.545902 -1.307615 0.215811 0.003155 -0.001881 338166.000000 1 0 0
9.490796 2.570527 5.063965 11.060134 0.264498 1.095213 0.003173 -0.001027 253918.000000 1 0 0
13.498996 2.166027 -5.169535 14.616383 0.159102 1.932300 0.005620 -0.001656 -1611870.000000 1 0 0
-6.517304 3.729727 7.624665 10.701478 -0.519788 0.777760 0.001246 -0.003930 12058.100000 1 0 0
10.628096 0.135427 1.883265 10.794511 0.012742 1.395434 0.001091 0.001000 1815200.000000 1 0 0
15.446096 6.715727 -4.631635 17.468112 0.410129 1.839154 0.012885 0.000271 1073800.000000 1 0 0
8.082096 -4.877673 -9.111935 13.120188 -0.543001 2.338517 0.011181 0.001405 886580.000000 1 0 0
4.476896 5.670927 -2.242135 7.564997 0.902523 1.871699 0.008127 -0.004001 598368.000000 1 0 0
-1.743704 -10.526073 1.516365 10.776738 1.406631 1.429621 0.007583 -0.001646 -905676.000000 1 0 0
-2.657504 12.255427 -12.987235 18.053423 -1.357259 2.373703 0.011961 0.001113 -996483.000000 1 0 0
8.245096 4.182927 -9.548235 13.290872 0.469489 2.372304 0.004728 0.000177 -392551.000000 1 0 0
4.180996 7.632827 -9.086935 12.582256 1.069671 2.377777 0.002063 -0.002376 -3293810.000000 1 0 0
-1.741504 -4.982473 -2.462635 5.824298 1.234544 2.007352 0.009657 -0.001927 89585.200000 1 0 0
-3.280604 -9.059973 7.099365 11.968561 1.223384 0.935808 0.007491 -0.002840 -1359310.000000 1 0 0
1.105696 7.234827 -1.461935 7.463413 1.419140 1.767951 0.006307 -0.003483 427590.000000 1 0 0
0.517296 -0.423673 -2.309235 2.404092 -0.686228 2.859745 0.004569 -0.003933 -1441660.000000 1 0 0
4.093096 -6.516173 7.473465 10.726912 -1.009939 0.800006 0.002671 0.002101 -1206930.000000 1 0 0
-13.950804 3.863727 5.969865 15.658627 -0.270182 1.179647 -0.000309 -0.005234 -925205.000000 1 0 0
4.213396 6.347327 12.649865 14.766867 0.984776 0.542078 0.002167 0.003619 -2400390.000000 1 0 0
8.246996 10.143127 -7.190235 14.919633 0.888141 2.073654 0.006166 -0.006273 -383781.000000 1 0 0
12.495896 5.311427 9.447465 16.541260 0.401916 0.962896 0.028618 0.000707 816109.000000 1 0 0
7.534396 4.187427 0.343665 8.626690 0.507266 1.530948 0.006357 -0.000519 -1491600.000000 1 0 0
-10.898704 -7.611673 -1.028835 13.333335 0.609652 1.648036 0.002281 -0.000939 -749841.000000 1 0 0
10.561796 6.812327 0.164365 12.569262 0.572850 1.557719 0.005951 0.002122 -1078920.000000 1 0 0
14.735896 3.719427 4.100565 15.741519 0.247242 1.307263 0.012342 -0.001438 378378.000000 1 0 0
2.175496 5.540327 8.126465 10.073105 1.196629 0.632167 0.000101 0.003812 -439533.000000 1 0 0
4.259096 0.236727 11.743665 12.494383 0.055524 0.348413 0.003279 -0.001992 -415010.000000 1 0 0
-1.254504 -1.626073 -0.681135 2.163756 0.913681 1.891035 0.004264 -0.005380 -689210.000000 1 0 0
3.026696 -5.190373 -9.397835 11.154379 -1.042869 2.572749 0.000367 0.001059 71409.100000 1 0 0
-3.969104 -5.355273 -1.301135 6.791590 0.932978 1.763568 0.009867 -0.003993 762955.000000 1 0 0
-1.049204 -8.614773 8.517165 12.159657 1.449602 0.794776 0.006582 -0.001385 -370842.000000 1 0 0
3.947796 8.544027 -6.038535 11.182549 1.137964 2.141229 0.007375 -0.001176 94649.000000 1 0 0
-14.280504 -1.790873 -2.743035 14.651425 0.124756 1.759127 -0.005552 -0.003074 -1680010.000000 1 0 0
8.873896 -10.619173 -6.626735 15.343614 -0.874693 2.017382 0.006372 -0.001628 530734.000000 1 0 0
14.929196 6.140027 1.616465 16.223248 0.390189 1.470992 0.003342 0.005227 -544847.000000 1 0 0
-5.840004 0.318427 -8.428935 10.259336 -0.054471 2.534985 0.005738 -0.007400 195056.000000 1 0 0
-7.997604 -4.497973 -12.991935 15.905465 0.512325 2.526677 0.010514 -0.006857 818179.000000 1 0 0
0.904296 -10.572073 12.026765 16.038378 -1.485468 0.722924 0.004735 -0.003741 -111681.000000 1 0 0
0.219996 11.711627 3.329165 12.177600 1.552014 1.293887 0.002882 0.003816 -902864.000000 1 0 0
5.016896 -13.205673 -3.765235 14.619714 -1.207733 1.831277 0.003169 0.004404 -586575.000000 1 0 0
-7.478404 1.600527 -6.913335 10.309336 -0.210839 2.305800 -0.001858 -0.002649 355345.000000 1 0 0
1.476796 2.829527 3.997365 5.115279 1.089764 0.673800 0.000493 -0.000988 -837990.000000 1 0 0
17.359996 5.494327 2.399165 18.366085 0.306519 1.439792 0.003826 0.001021 -150419.000000 1 0 0
2.630396 -8.043973 -3.397135 9.119486 -1.254755 1.952513 -0.001264 0.001547 456296.000000 1 0 0
-0.279304 -9.528173 -0.435635 9.542215 1.541491 1.616466 0.007531 0.000857 -1325100.000000 1 0 0
0.779896 11.832927 -5.698635 13.156779 1.504983 2.018762 0.004919 0.000361 -964382.000000 1 0 0
5.997896 -4.939973 7.819365 11.023637 -0.688977 0.782253 0.002140 -0.001422 -953312.000000 1 0 0
-6.137604 -2.049973 -9.370835 11.387937 0.322352 2.537246 0.008851 -0.007621 -286381.000000 1 0 0
2.169296 -1.187473 11.188965 11.459009 -0.500845 0.217528 0.000938 -0.003090 -399580.000000 1 0 0
18.030796 2.119127 -5.924535 19.097131 0.116991 1.886233 0.001789 0.001718 -1664770.000000 1 0 0
-8.916704 4.765027 7.757365 12.743226 -0.490782 0.916320 0.000681 -0.005284 -35431.800000 1 0 0
11.547596 -7.079673 -4.846335 14.385956 -0.549986 1.914397 0.011270 -0.001187 234647.000000 1 0 0
10.951896 0.521427 8.992165 14.180090 0.047575 0.883900 0.004233 -0.001034 14412.800000 1 0 0
-8.468304 -7.377673 -1.482735 11.328757 0.716680 1.702055 0.010221 -0.004926 -455159.000000 1 0 0
10.221296 -10.410973 -3.293835 14.957025 -0.794591 1.792836 0.018408 -0.002454 444821.000000 1 0 0
7.550396 -13.791773 -3.676935 16.147487 -1.069908 1.800521 0.011345 -0.001435 -1035270.000000 1 0 0
1.703596 -1.216373 -11.590735 11.778240 -0.620062 2.962920 0.007567 -0.006346 55416.300000 1 0 0
-11.837004 -2.630573 -6.377235 13.700500 0.218679 2.054967 0.002341 -0.004059 -219020.000000 1 0 0
2.653896 -12.099673 -6.378835 13.933226 -1.354879 2.046332 -0.005032 0.003422 681945.000000 1 0 0
-5.404704 1.449527 1.157365 5.714144 -0.262031 1.366841 0.002361 -0.006093 662914.000000 1 0 0
0.060796 6.884727 -4.071535 7.998785 1.561966 2.104841 0.008961 -0.003037 1151440.000000 1 0 0
5.383396 -11.695373 3.737265 13.406337 -1.139409 1.288285 0.000706 -0.005810 -1954180.000000 1 0 0
-4.474904 -9.113973 0.980365 10.200509 1.114380 1.474538 0.006188 -0.000935 723340.000000 1 0 0
7.142796 -6.202573 -4.599935 10.519071 -0.715061 2.023385 0.007394 -0.001719 -383987.000000 1 0 0
-6.891404 -5.955873 2.252165 9.382756 0.712707 1.328397 0.007600 -0.001254 -44755.000000 1 0 0
-6.373904 -0.817973 7.081265 9.562429 0.127634 0.736938 0.002932 -0.003289 -2347600.000000 1 0 0
4.168096 -4.979673 3.270165 7.270774 -0.873885 1.104290 -0.002258 0.002467 -542598.000000 1 0 0
-2.432304 10.526227 -8.865335 13.975397 -1.343711 2.257968 0.001245 0.000333 -746254.000000 1 0 0
-2.267404 -4.832073 2.837665 6.045031 1.132058 1.082161 0.004378 0.000333 1457300.000000 1 0 0
15.223896 5.139327 6.398865 17.295236 0.325570 1.191810 0.024659 -0.004317 419086.000000 1 0 0
6.866296 0.377927 0.146165 6.878242 0.054985 1.549544 0.008003 -0.002453 5578810.000000 1 0 0
-9.707004 9.096127 0.331065 13.306955 -0.752922 1.545915 -0.001653 -0.000682 -1593290.000000 1 0 0
7.256196 10.591227 -2.600635 13.099228 0.970131 1.770658 0.007028 -0.004265 -221594.000000 1 0 0
1.607696 -4.185873 -5.304035 6.945431 -1.204092 2.439779 0.003891 -0.001524 -211965.000000 1 0 0
0.959996 -8.175273 -7.775835 11.323440 -1.453905 2.327739 -0.002566 0.001290 -1073010.000000 1 0 0
-10.504404 0.305727 -10.492435 14.850157 -0.029096 2.355413 0.004686 -0.005136 -4094260.000000 1 0 0
5.875196 -2.449773 0.550065 6.389201 -0.395048 1.484597 0.004088 0.000057 156470.000000 1 0 0
-3.346104 5.315727 -1.226335 6.399786 -1.008987 1.763610 0.002018 -0.004301 413226.000000 1 0 0
-0.386604 4.522527 -5.199935 6.902321 -1.485520 2.423954 0.007158 -0.004394 -1326150.000000 1 0 0
4.045696 -9.747973 10.068465 14.586454 -1.177401 0.808946 -0.000601 0.002468 -1219890.000000 1 0 0
7.237996 -13.455173 -0.732335 15.295967 -1.077264 1.618692 0.012767 0.000826 430379.000000 1 0 0
13.047196 0.005427 0.527265 13.057847 0.000416 1.530406 0.001483 -0.001784 631336.000000 1 0 0
9.315696 2.536027 -0.574335 9.671788 0.265791 1.630214 0.005017 -0.000494 236208.000000 1 0 0
-0.758104 -5.701573 4.588365 7.357700 1.438608 0.897439 0.000830 0.002498 779506.000000 1 0 0
11.482596 -3.655573 3.376465 12.514542 -0.308213 1.297608 0.004927 -0.001416 -1460530.000000 1 0 0
1.945896 -8.170673 11.763165 14.454012 -1.336995 0.620077 -0.006751 0.000956 199512.000000 1 0 0
9.498796 -5.981273 -5.865535 12.665199 -0.561963 2.052311 0.006485 -0.001733 292178.000000 1 0 0
3.212796 6.472727 -0.178835 7.228432 1.110066 1.595539 0.005621 -0.001297 -245502.000000 1 0 0
6.394896 -1.308673 11.583965 13.296450 -0.201856 0.513140 -0.002665 0.001027 467656.000000 1 0 0
-4.915804 -7.585873 -3.771735 9.794722 0.995814 1.966089 0.013518 -0.006393 337081.000000 1 0 0
-3.429504 -8.551173 -5.808935 10.891638 1.189380 2.133339 0.010386 -0.004458 -613449.000000 1 0 0
9.821096 5.423327 2.170865 11.427120 0.504540 1.379660 0.006209 -0.001040 459189.000000 1 0 0
8.919796 -1.466573 0.323965 9.045361 -0.162960 1.534973 0.004515 0.000014 1061930.000000 1 0 0
-3.934804 9.626727 9.180165 13.871985 -1.182780 0.847609 -0.001288 0.000288 -13556.400000 1 0 0
-14.324804 -3.571373 -6.170435 16.000905 0.244333 1.966687 0.000158 -0.005037 -181015.000000 1 0 0
10.671296 6.410227 -6.021035 13.828248 0.540933 2.021296 0.003878 -0.001973 -169828.000000 1 0 0
-1.852104 4.455727 2.700265 5.529486 -1.176856 1.060611 0.002420 -0.002827 277636.000000 1 0 0
6.976996 -3.627073 2.644765 8.296320 -0.479410 1.246346 0.002980 -0.002381 -1942090.000000 1 0 0
8.323096 -11.174073 -1.631235 14.028356 -0.930594 1.687341 0.010389 -0.001952 68731.600000 1 0 0
4.565696 0.509327 1.838365 4.948190 0.111096 1.190148 0.004375 -0.000903 -211952.000000 1 0 0
-10.823304 2.258727 3.774365 11.682961 -0.205738 1.241829 0.000376 -0.004773 151415.000000 1 0 0
-0.820604 -3.043873 4.559465 5.543219 1.307465 0.604951 0.002527 0.000120 359075.000000 1 0 0
8.539596 -8.663373 -8.486735 14.832512 -0.792593 2.179947 0.010271 0.000879 -444146.000000 1 0 0
12.038296 -4.760373 1.034665 12.986619 -0.376566 1.491040 0.001891 -0.000130 -286751.000000 1 0 0
2.947096 4.926127 3.455065 6.699968 1.031658 1.028991 0.000038 0.000039 -1352050.000000 1 0 0
6.126596 7.537127 1.869665 9.891365 0.888266 1.380632 0.008391 -0.001046 -105853.000000 1 0 0
-1.779004 -1.218673 -10.254935 10.479204 0.600609 2.934334 0.009235 -0.007959 1022000.000000 1 0 0
-1.017404 -8.681273 5.978365 10.589639 1.454133 0.970910 0.000473 -0.001126 -52518.900000 1 0 0
-4.241504 -0.258173 2.286765 4.825588 0.060793 1.077101 0.002960 -0.003444 156902.000000 1 0 0
-8.398104 6.173427 -8.011135 13.146012 -0.633895 2.226096 -0.005353 -0.002320 -627892.000000 1 0 0
6.449696 11.131927 -9.464435 15.971659 1.045671 2.205050 0.000669 -0.005520 116853.000000 1 0 0
-11.146604 -5.639073 3.150765 12.883060 0.468357 1.323724 -0.001867 0.000548 931265.000000 1 0 0
1.535896 -6.178573 3.106365 7.084014 -1.327151 1.116863 0.000785 -0.000039 429923.000000 1 0 0
10.118396 2.260427 7.348365 12.707869 0.219789 0.954210 0.005475 -0.001457 -1419770.000000 1 0 0
-4.051704 -2.465673 -10.563935 11.579835 0.546684 2.719589 0.010687 -0.010448 -2993160.000000 1 0 0
-8.306604 11.926027 5.851965 15.667651 -0.962416 1.188010 -0.004054 0.001642 -362596.000000 1 0 0
6.938096 5.989527 -2.934635 9.624120 0.712154 1.880656 0.007783 -0.001203 -4003800.000000 1 0 0
3.826996 -9.912073 -2.313135 10.874083 -1.202335 1.785154 0.000846 -0.002082 -1682800.000000 1 0 0
8.368996 -12.945373 -7.314435 17.062349 -0.996896 2.013837 0.011422 -0.000062 70252.900000 1 0 0
-1.158604 9.479827 3.570265 10.195895 -1.449182 1.213047 0.000828 0.004986 1550.300000 1 0 0
0.487096 -13.076373 4.707765 13.906540 -1.533563 1.225443 0.007159 -0.003337 -1016450.000000 1 0 0
-11.407804 -7.021173 -5.160135 14.354855 0.551718 1.938496 0.002877 -0.004397 129560.000000 1 0 0
3.643696 10.342627 -3.511035 11.514070 1.232075 1.880666 0.012216 -0.004566 -84683.000000 1 0 0
11.718396 -8.097473 -7.297735 16.004588 -0.604664 2.044267 0.029403 -0.003306 402383.000000 1 0 0
11.685496 -4.611973 -5.805635 13.839311 -0.375907 2.003694 0.009502 -0.004184 198628.000000 1 0 0
1.223296 -10.190073 -2.674935 10.606098 -1.451320 1.825757 -0.001628 0.002689 -1424030.000000 1 0 0
2.267496 -11.966873 -3.851835 12.774358 -1.383535 1.877092 -0.000044 0.003206 -1908260.000000 1 0 0
-7.646504 -5.597173 7.248265 11.930411 0.631875 0.917830 0.004015 0.000197 -2923980.000000 1 0 0
-7.231004 -0.900573 9.555765 12.017117 0.123905 0.651493 0.001662 -0.001361 -311039.000000 1 0 0
16.132996 2.590627 -7.541835 17.996227 0.159220 2.003227 -0.002754 0.002057 -703733.000000 1 0 0
-2.012904 6.313127 -5.633235 8.697165 -1.262142 2.275370 0.002775 -0.000280 9985.800000 1 0 0
7.639796 1.138927 8.379565 11.396524 0.147988 0.744726 -0.000032 -0.003086 -905190.000000 1 0 0
7.990096 8.358127 -3.731335 12.150012 0.807906 1.882946 0.007052 -0.000278 -673562.000000 1 0 0
8.024796 0.574727 4.074665 9.018346 0.071497 1.101992 0.001107 -0.001230 38469.500000 1 0 0
-7.033304 5.823027 5.381765 10.598981 -0.691536 1.038211 0.001712 -0.006768 152530.000000 1 0 0
-6.046304 -2.129473 -4.505435 7.835266 0.338628 2.183425 0.007598 -0.006247 -297988.000000 1 0 0
-15.169704 -2.265273 3.229365 15.674188 0.148233 1.363279 0.007124 -0.004348 -1407160.000000 1 0 0
1.015096 1.211627 -10.584435 10.701809 0.873430 2.993351 0.010946 -0.008477 720941.000000 1 0 0
1.576396 -9.182373 9.356765 13.204168 -1.400777 0.783253 0.002287 -0.000765 -750855.000000 1 0 0
-0.302304 -6.870773 -1.234835 6.987398 1.526826 1.748453 0.005297 0.001513 765888.000000 1 0 0
-0.420704 -10.250973 -8.356235 13.232011 1.529779 2.254304 -0.000898 0.000611 -632619.000000 1 0 0
-4.329704 6.445627 3.680765 8.593048 -0.979298 1.128139 0.001416 0.001212 -539552.000000 1 0 0
10.867196 -1.130373 -8.587035 13.896434 -0.103644 2.236905 0.013270 0.001186 925812.000000 1 0 0
3.148996 -0.958973 6.209965 7.028476 -0.295610 0.487421 -0.001094 0.000042 555427.000000 1 0 0
1.912096 -12.311273 6.759365 14.174363 -1.416715 1.073703 0.004949 -0.002401 -446987.000000 1 0 0
2.930796 -4.862273 -1.305835 5.825502 -1.028348 1.796876 0.007788 -0.000347 -1540760.000000 1 0 0
-1.111904 9.521927 -1.688635 9.734213 -1.454550 1.745153 0.004553 -0.000370 793851.000000 1 0 0
4.543996 -2.510973 2.700665 5.852049 -0.504831 1.091122 0.003275 0.000800 -1350650.000000 1 0 0
17.899196 6.801927 -2.707335 19.338487 0.363158 1.711255 0.008374 0.008573 52211.400000 1 0 0
-7.131004 3.511527 -5.366335 9.590599 -0.457574 2.164628 -0.001630 -0.003449 -933840.000000 1 0 0
-13.836504 -5.976673 2.286965 15.244660 0.407742 1.420210 -0.003846 -0.001803 -214140.000000 1 0 0
6.660896 -6.068873 3.230365 9.572566 -0.738925 1.226578 0.002752 -0.002203 921915.000000 1 0 0
-4.607604 1.999627 3.567765 6.160963 -0.409456 0.953182 0.003510 -0.004925 510574.000000 1 0 0
6.840996 -12.040473 -5.398635 14.863293 -1.054113 1.942517 0.007559 0.001882 272045.000000 1 0 0
2.818896 -12.302373 3.340165 13.055699 -1.345550 1.312080 0.005322 -0.005258 -144796.000000 1 0 0
3.299896 11.235627 -6.219235 13.259242 1.285130 2.059010 0.005254 -0.001721 131983.000000 1 0 0
-5.600304 -8.301473 6.559965 11.971257 0.977311 0.990853 0.008130 -0.002953 -600943.000000 1 0 0
-3.934804 6.562127 6.310965 9.918290 -1.030654 0.881109 0.004273 -0.000550 669176.000000 1 0 0
4.239696 4.213927 -7.002235 9.206709 0.782350 2.434968 0.005686 -0.001839 -2839580.000000 1 0 0
-0.258004 -2.703073 1.581365 3.142274 1.475636 1.043435 0.003630 -0.000628 518246.000000 1 0 0
-13.231204 -0.909273 6.511865 14.774841 0.068614 1.114373 0.007368 -0.004905 -643927.000000 1 0 0
-0.567504 -9.272973 -5.887335 10.998673 1.509673 2.135632 0.001489 0.000692 135314.000000 1 0 0
2.035796 -1.616573 -3.898335 4.685594 -0.671117 2.553469 0.009534 -0.002422 461460.000000 1 0 0
11.352896 -1.941573 1.139065 11.573912 -0.169381 1.472220 0.001191 0.000278 352087.000000 1 0 0
0.537196 -4.286073 -1.878835 4.710523 -1.446111 1.981069 0.005906 -0.001180 -1413880.000000 1 0 0
1.067196 -7.297073 -11.248535 13.450492 -1.425576 2.561281 -0.002286 0.002196 160214.000000 1 0 0
-4.621904 4.017527 -10.066835 11.783195 -0.715556 2.595073 0.003773 -0.004334 379401.000000 1 0 0
-1.052904 5.731727 -2.232535 6.240634 -1.389124 1.936645 0.005221 -0.002429 -1009600.000000 1 0 0
-11.340004 1.727927 -3.855735 12.101575 -0.151211 1.895064 0.000172 -0.002936 113111.000000 1 0 0
-1.895604 -11.292673 4.209865 12.200031 1.404485 1.218483 0.006126 -0.003580 -178944.000000 1 0 0
-3.627504 -5.360373 -9.660135 11.628009 0.975862 2.551276 0.004610 -0.004582 -2618070.000000 1 0 0
-12.806504 -3.808273 -8.335935 15.747930 0.289042 2.128613 0.004499 -0.003973 121246.000000 1 0 0
11.473296 4.423227 0.567565 12.309492 0.367965 1.524672 0.005893 0.002472 115366.000000 1 0 0
-8.875404 -2.318873 -2.924935 9.628354 0.255557 1.879458 0.005343 -0.005386 -60704.900000 1 0 0
-2.529004 -6.080273 -6.414335 9.192893 1.176628 2.343047 0.005569 -0.004741 392677.000000 1 0 0
-0.100004 2.745427 -1.925835 3.355027 -1.534387 2.182197 0.004868 -0.005510 608084.000000 1 0 0
8.129296 6.105327 -5.173735 11.407366 0.644159 2.041533 0.005837 -0.001209 -1137420.000000 1 0 0
-9.825704 -0.930173 -0.896835 9.910297 0.094386 1.661416 0.002048 -0.003414 -301344.000000 1 0 0
6.153896 0.549427 -8.914735 10.846419 0.089045 2.535545 0.007668 0.000534 566162.000000 1 0 0
-4.122204 2.502427 7.827665 9.193859 -0.545595 0.552145 0.002181 -0.002047 -1135540.000000 1 0 0
-10.188904 -3.340873 1.494965 10.826362 0.316847 1.432268 0.000113 -0.002456 2456920.000000 1 0 0
-1.739004 -8.103773 -7.801435 11.382340 1.359410 2.325947 0.001897 -0.003660 132853.000000 1 0 0
-9.388604 -9.716673 4.195665 14.147905 0.802568 1.269711 -0.001769 -0.004339 -280007.000000 1 0 0
-1.222104 -10.802673 7.217465 13.049256 1.458146 0.984723 0.007102 -0.002259 -60849.800000 1 0 0
9.547696 3.825027 -3.778535 10.957493 0.381043 1.922860 0.003043 -0.000453 -503817.000000 1 0 0
12.840296 -0.718873 3.084865 13.225218 -0.055927 1.335371 0.003216 -0.001150 -847680.000000 1 0 0
6.528796 11.918827 -6.957035 15.267087 1.069665 2.043942 0.007492 -0.004192 450055.000000 1 0 0
-11.818604 -0.070773 -6.516235 13.496137 0.005988 2.074671 0.001238 -0.002061 269077.000000 1 0 0
-7.545004 -6.600973 -11.517635 15.269442 0.718762 2.425373 0.012615 -0.007665 -1501820.000000 1 0 0
4.171296 6.136727 6.476765 9.849244 0.973807 0.853181 0.000282 0.003315 -1861110.000000 1 0 0
-4.440904 -1.509873 -7.339835 8.710598 0.327732 2.572950 0.007075 -0.010030 -881621.000000 1 0 0
9.665396 9.269127 0.828265 13.417251 0.764473 1.509026 0.013596 -0.001519 -184566.000000 1 0 0
-8.966504 3.976427 4.776665 10.909935 -0.417415 1.117616 0.003484 -0.008543 858211.000000 1 0 0
-6.837504 7.740527 -12.313335 16.071261 -0.847263 2.443658 -0.000556 -0.003030 -769577.000000 1 0 0
11.128496 -3.672573 7.218465 13.763628 -0.318761 1.018716 0.006452 -0.003278 565723.000000 1 0 0
11.872596 6.989127 6.365065 15.176313 0.532052 1.138003 0.016837 -0.002287 253659.000000 1 0 0
-10.117104 -0.701473 -14.718235 17.873844 0.069225 2.538263 0.019915 -0.004183 -199792.000000 1 0 0
1.688496 -13.066373 12.106865 17.892940 -1.442284 0.827623 0.009093 0.000908 277931.000000 1 0 0
2.975896 3.129027 13.113165 13.805863 0.810476 0.318118 0.003276 -0.001772 -716236.000000 1 0 0
-2.566004 -1.310773 11.001965 11.373027 0.472268 0.256146 0.009092 -0.002098 -212610.000000 1 0 0
2.527096 -10.096673 -8.207035 13.254601 -1.325545 2.238499 -0.008847 0.004881 -1214550.000000 1 0 0
13.890896 3.701427 -7.532935 16.229685 0.260413 2.053466 0.003853 -0.000409 -1380180.000000 1 0 0
7.304696 -1.549173 5.044265 9.011278 -0.208983 0.976685 0.001791 -0.000210 483179.000000 1 0 0
-1.196204 8.663627 10.179465 13.420538 -1.433592 0.709790 0.003787 0.000259 228348.000000 1 0 0
-12.243004 -4.615073 0.928365 13.116856 0.360484 1.499961 -0.006558 0.000702 -218412.000000 1 0 0
-4.897804 4.816227 -5.263935 8.654105 -0.777001 2.224661 0.001683 -0.000893 -321426.000000 1 0 0
-11.192304 0.337027 2.008365 11.376062 -0.030103 1.393323 -0.002498 -0.003243 -1999240.000000 1 0 0
-1.305804 2.205527 -4.105035 4.839502 -1.036236 2.583440 0.007366 -0.008185 884303.000000 1 0 0
3.221696 -9.866073 13.220165 16.807483 -1.255170 0.665571 0.002101 0.002040 -2596340.000000 1 0 0
8.978396 4.705327 -1.473835 10.243236 0.482719 1.715181 0.006955 -0.001285 -1292580.000000 1 0 0
4.007196 2.341827 3.679965 5.923168 0.528874 0.900417 -0.000397 -0.000355 -49534.800000 1 0 0
-5.452704 -3.225173 7.452965 9.781636 0.534132 0.704502 0.006051 -0.003511 -154155.000000 1 0 0
1.609096 -5.707773 7.869565 9.853828 -1.296014 0.645781 -0.002259 0.001616 -587813.000000 1 0 0
-5.966604 -6.226573 -9.629935 12.926957 0.806716 2.411256 0.009411 -0.008710 -390147.000000 1 0 0
-11.792704 -5.799473 5.469865 14.234506 0.457054 1.176382 0.006877 -0.002672 -4039.970000 1 0 0
10.580496 6.153027 4.461765 13.027432 0.526739 1.221230 0.008231 -0.000024 -1988430.000000 1 0 0
1.482096 -3.675573 0.492765 3.993653 -1.187510 1.447094 0.009194 -0.001214 -1106840.000000 1 0 0
8.837996 4.406127 6.862865 12.025932 0.462482 0.963472 0.003042 0.001341 556220.000000 1 0 0
-7.905004 12.125727 3.436665 14.877264 -0.993073 1.337690 -0.005376 0.003740 -20584.500000 1 0 0
-6.089304 13.234627 -7.112935 16.211996 -1.139572 2.024998 0.007810 -0.007035 344201.000000 1 0 0
4.460496 -6.891773 -0.852335 8.253426 -0.996378 1.674251 0.006274 -0.001504 -613244.000000 1 0 0
-1.855604 -8.137073 11.053265 13.850267 1.346587 0.646737 0.005035 -0.007399 -97157.500000 1 0 0
11.615096 8.911327 -5.667435 15.698472 0.654431 1.940156 0.018322 -0.003434 797845.000000 1 0 0
-3.327304 -2.917573 -1.914435 4.821643 0.719881 1.979097 0.011385 -0.005305 -1992280.000000 1 0 0
-2.067704 5.922127 4.677265 7.824563 -1.234880 0.930084 0.002152 -0.000535 -1440450.000000 1 0 0
0.273196 -11.520173 -5.668935 12.842346 -1.547086 2.027983 -0.003941 -0.001803 -1680990.000000 1 0 0
-8.850604 6.258527 -1.603735 10.957842 -0.615495 1.717679 0.002974 -0.000921 -696003.000000 1 0 0
2.883096 0.037627 3.907365 4.856044 0.013050 0.635728 0.000082 -0.000358 56174.900000 1 0 0
-10.048204 3.933727 -1.003735 10.837347 -0.373145 1.663547 0.005975 -0.004269 69946.100000 1 0 0
6.408996 5.435027 13.590565 15.978680 0.703350 0.553778 0.007008 0.004303 -893522.000000 1 0 0
-8.769404 -1.489073 5.758865 10.596429 0.168199 0.996228 0.002910 -0.004897 -154349.000000 1 0 0
13.004096 -1.805473 -1.367635 13.199874 -0.137957 1.674592 0.003177 0.002451 -1145880.000000 1 0 0
5.284796 -5.505273 5.462165 9.384687 -0.805829 0.949574 -0.001584 -0.000732 291711.000000 1 0 0
-9.058804 -1.110073 3.224165 9.679330 0.121933 1.231209 0.001173 -0.003558 176236.000000 1 0 0
2.023296 5.524527 5.557765 8.093385 1.219729 0.813850 0.000865 0.001587 -1112270.000000 1 0 0
9.244596 3.043827 -7.397235 12.224832 0.318075 2.220687 0.007499 0.000724 121789.000000 1 0 0
2.241996 -2.298073 -1.450835 3.523153 -0.797749 1.995225 0.007856 -0.001581 121262.000000 1 0 0
-6.322604 0.327127 -3.985335 7.480991 -0.051693 2.132617 -0.000825 -0.002076 -2395070.000000 1 0 0
-4.059404 4.194027 5.057165 7.722923 -0.801708 0.856845 0.003219 -0.003117 852701.000000 1 0 0
-6.508404 1.737227 -12.453135 14.158314 -0.260839 2.645740 0.007186 -0.005093 -2132120.000000 1 0 0
-0.180404 3.171427 6.185065 6.953094 -1.513973 0.474456 0.003048 -0.001253 1707950.000000 1 0 0
-8.812204 9.468327 -2.171835 13.115678 -0.821275 1.737153 -0.002052 0.000693 588960.000000 1 0 0
-1.327904 -3.752873 -6.188635 7.358437 1.230708 2.569973 0.004630 -0.005055 294678.000000 1 0 0
-3.277804 7.114327 -2.989935 8.384352 -1.139053 1.935432 0.000340 0.001190 323100.000000 1 0 0
7.057396 -0.342973 -4.314235 8.278713 -0.048560 2.118964 0.008779 0.000034 -98539.900000 1 0 0
-5.184104 -10.856273 6.870465 13.854129 1.125293 1.051909 0.002727 -0.005440 718724.000000 1 0 0
9.850096 8.437627 -1.525735 13.059319 0.708315 1.687895 0.009353 0.000858 305807.000000 1 0 0
13.723096 4.663427 -4.343735 15.130729 0.327580 1.861974 0.003315 -0.001645 885760.000000 1 0 0
4.670396 1.124427 -6.838235 8.356937 0.236260 2.529192 0.007492 -0.003404 -1099460.000000 1 0 0
8.959396 -4.644473 3.647665 10.730674 -0.478252 1.223955 0.003692 -0.003280 385003.000000 1 0 0
-8.801104 -3.292173 -0.687035 9.421775 0.357950 1.643781 0.004627 -0.003850 302130.000000 1 0 0
-8.596504 -4.340673 -10.480735 14.233310 0.467588 2.398460 0.008354 -0.009692 546039.000000 1 0 0
10.528796 -1.168073 10.687065 15.047701 -0.110489 0.780996 0.001760 0.001458 270442.000000 1 0 0
2.272296 -11.592273 9.915865 15.422986 -1.377232 0.872482 0.003595 -0.003900 599931.000000 1 0 0
-6.445904 -10.518273 2.104865 12.514560 1.020997 1.401800 0.005264 -0.001505 -952222.000000 1 0 0
-3.758204 -1.218573 6.779265 7.846493 0.313548 0.527662 0.007405 -0.001139 -336558.000000 1 0 0
4.660696 -7.505973 3.942665 9.675037 -1.015128 1.151072 -0.000396 0.001035 466080.000000 1 0 0
11.576296 -9.592073 -5.347835 15.956749 -0.691936 1.912556 0.024075 -0.002878 502207.000000 1 0 0
11.319396 1.237227 11.540865 16.212681 0.108869 0.778679 -0.000907 0.001844 431769.000000 1 0 0
-10.277804 -3.391773 4.462465 11.706877 0.318756 1.179721 0.004468 -0.000699 2227750.000000 1 0 0
1.920896 8.803127 9.013465 12.744702 1.355958 0.785221 0.002422 0.001799 -594633.000000 1 0 0
6.549296 8.773627 4.126765 11.700427 0.929555 1.210339 0.008985 0.001513 -406315.000000 1 0 0
-4.311404 3.596027 0.380065 5.627083 -0.695175 1.503203 0.003942 -0.006767 -3064670.000000 1 0 0
4.874496 6.864127 4.099065 9.363722 0.953297 1.117690 0.006557 0.000562 -1718590.000000 1 0 0
-8.319004 13.153627 1.052065 15.599056 -1.006858 1.503301 0.000208 0.004560 -1205320.000000 1 0 0
8.840296 8.195627 -9.093735 15.100171 0.747574 2.217084 0.000892 -0.004886 -219346.000000 1 0 0
6.977496 2.020627 6.031565 9.441831 0.281881 0.877842 -0.001888 0.000081 -82289.300000 1 0 0
11.459096 -6.204773 3.124065 13.400369 -0.496272 1.335498 0.005268 -0.001457 -9436.470000 1 0 0
11.469096 4.821227 -2.103035 12.617732 0.397940 1.738251 0.002640 0.003475 490925.000000 1 0 0
-3.968804 14.431727 -6.054835 16.145810 -1.302425 1.955204 0.002145 0.001550 -616333.000000 1 0 0
7.226896 -2.948273 7.128865 10.570765 -0.387348 0.830652 0.002793 -0.004619 -1240320.000000 1 0 0
-8.087104 -0.426973 0.957465 8.154771 0.052748 1.453113 0.002290 -0.003905 235993.000000 1 0 0
-3.382704 1.132227 10.837265 11.409248 -0.322990 0.317987 0.004999 -0.001074 -544127.000000 1 0 0
7.182796 -1.181773 -1.855635 7.512159 -0.163067 1.820398 0.007535 -0.001446 -1571830.000000 1 0 0
-7.758004 5.423727 2.950765 9.915162 -0.610131 1.268617 0.004665 -0.004296 999538.000000 1 0 0
9.514296 -2.110873 2.826665 10.147298 -0.218327 1.288498 0.003513 -0.002040 -1502920.000000 1 0 0
0.174996 3.456827 1.479265 3.764107 1.520216 1.166913 0.003181 -0.001249 -4253320.000000 1 0 0
-7.581604 -3.059873 4.023365 9.112135 0.383599 1.113483 0.004582 -0.002967 1032930.000000 1 0 0
-2.313804 8.316627 -6.833835 11.010053 -1.299444 2.240419 -0.000862 0.000364 -547201.000000 1 0 0
4.514396 9.936327 7.300965 13.130668 1.144345 0.981202 0.000079 0.007272 637782.000000 1 0 0
-11.869404 -3.268173 6.952865 14.138813 0.268686 1.056689 0.013198 -0.005998 -1209700.000000 1 0 0
-4.815004 2.297827 -5.634135 7.759365 -0.445260 2.383440 0.002714 -0.006912 -976367.000000 1 0 0
-2.853004 2.944127 -1.929435 4.531030 -0.801116 2.010672 0.002136 -0.005177 747275.000000 1 0 0
2.349196 5.225727 11.488265 12.837725 1.148321 0.462627 0.004241 -0.001989 436694.000000 1 0 0
-0.698504 1.703227 4.457765 4.822920 -1.181608 0.391631 0.004376 -0.003289 51330.800000 1 0 0
5.079696 1.654727 7.625865 9.311029 0.314913 0.611105 -0.000637 0.000801 523764.000000 1 0 0
3.417796 -8.042773 1.962365 8.956473 -1.168966 1.349904 0.003277 -0.000170 2672720.000000 1 0 0
5.169096 6.491727 -4.705935 9.539806 0.898341 2.086670 0.007769 -0.002263 -1291700.000000 1 0 0
-4.061304 2.930127 -7.995435 9.434342 -0.624993 2.582020 0.005491 -0.009853 -26858.300000 1 0 0
-8.781804 -2.085273 -12.932835 15.771070 0.233136 2.532269 0.011762 -0.004924 135758.000000 1 0 0
-7.826304 8.140827 1.372765 11.375789 -0.805094 1.449827 0.001689 0.000345 -1816970.000000 1 0 0
7.255096 0.993927 -6.577335 9.843051 0.136150 2.302612 0.006076 0.000616 147066.000000 1 0 0
8.832496 8.989227 5.521465 13.758843 0.794192 1.157857 0.010756 0.001599 435117.000000 1 0 0
9.464796 -1.064773 -1.386035 9.624822 -0.112027 1.715305 0.005298 -0.001337 1237070.000000 1 0 0
5.434096 0.199527 4.291565 6.927246 0.036701 0.902666 0.000587 -0.000059 -1059510.000000 1 0 0
-4.128204 -7.253273 -8.009835 11.567605 1.053369 2.335657 0.014858 -0.009265 -1280000.000000 1 0 0
-2.228404 7.433427 -0.639535 7.786567 -1.279540 1.653022 0.001907 -0.000992 -131595.000000 1 0 0
13.465496 -3.404773 -7.467235 15.769327 -0.247661 2.064090 0.014496 0.000589 958920.000000 1 0 0
-4.770904 -4.938273 1.650265 7.061971 0.802635 1.334932 0.009391 -0.001631 1072920.000000 1 0 0
-8.923104 1.413527 2.456765 9.362453 -0.157107 1.305281 0.002487 -0.004541 -1276120.000000 1 0 0
-1.100104 11.185627 10.135965 15.134935 -1.472762 0.836983 0.001861 -0.001183 374491.000000 1 0 0
-8.580804 0.347527 7.639065 11.493750 -0.040478 0.843801 -0.002351 -0.002297 -373434.000000 1 0 0
-6.190204 12.928427 -2.169535 14.497232 -1.124248 1.721012 -0.000520 0.004554 155318.000000 1 0 0
-13.031904 -0.759173 3.360265 13.479549 0.058189 1.318853 0.000797 -0.003912 418057.000000 1 0 0
-6.796904 12.789427 8.614965 16.851853 -1.082309 1.034195 0.003472 -0.006119 1269470.000000 1 0 0
-8.057404 0.780127 -14.091635 16.251293 -0.096520 2.620164 0.008173 -0.004503 490416.000000 1 0 0
7.399296 2.928727 3.681965 8.768346 0.376890 1.137444 0.003931 -0.001697 -194291.000000 1 0 0
-1.687804 0.732427 -1.992835 2.712291 -0.409429 2.396083 0.005962 -0.005948 440482.000000 1 0 0
-6.174604 9.580027 -10.422535 15.444477 -0.998277 2.311543 0.001664 -0.003201 -151528.000000 1 0 0
-10.111204 13.806227 5.252365 17.900717 -0.938677 1.272998 -0.008300 0.002971 1046760.000000 1 0 0
-5.655704 8.268927 2.478165 10.320050 -0.970909 1.328295 0.000772 0.000846 -1725020.000000 1 0 0
-2.465004 -10.590973 -1.227935 10.943161 1.342122 1.683243 0.007384 -0.000388 172319.000000 1 0 0
-2.263304 -12.538573 8.852565 15.514711 1.392212 0.963570 0.006791 -0.006072 552482.000000 1 0 0
-14.843904 -6.375173 -1.771635 16.251861 0.405660 1.680025 0.002080 0.001543 242965.000000 1 0 0
-2.784404 -9.343573 3.276265 10.285387 1.281174 1.246612 0.005656 -0.001122 710557.000000 1 0 0
4.743996 -2.544773 7.506765 9.237580 -0.492357 0.622140 0.000238 0.001761 -1980210.000000 1 0 0
-14.941804 -1.257973 -0.275935 14.997204 0.083993 1.589196 -0.005475 -0.006570 -266032.000000 1 0 0
5.554196 8.880927 -2.895735 10.867623 1.011904 1.840510 0.008507 -0.001065 -1773560.000000 1 0 0
-5.588004 -5.716873 8.606565 11.746548 0.796797 0.748532 0.007210 -0.002089 -2449850.000000 1 0 0
3.512896 3.646527 6.883365 8.545075 0.804061 0.634217 -0.001180 0.000908 382771.000000 1 0 0
3.340096 2.460627 9.378065 10.254708 0.634930 0.416493 0.005822 -0.002205 396620.000000 1 0 0
9.891796 -3.070673 5.208165 11.593173 -0.300995 1.104877 0.005126 -0.001997 -360151.000000 1 0 0
6.523696 10.069427 -5.056735 13.020082 0.995919 1.969669 0.007855 -0.002589 1163170.000000 1 0 0
-4.447504 12.029527 -8.662735 15.476847 -1.216667 2.164847 0.002208 -0.001586 -13143.500000 1 0 0
-3.240204 -7.129773 2.091865 8.106077 1.144239 1.309781 0.008902 -0.000791 1173150.000000 1 0 0
-7.477104 -3.961273 1.154965 8.540065 0.487192 1.435140 0.008372 -0.003047 3617710.000000 1 0 0
-2.067804 -3.939073 -10.870835 11.745942 1.087391 2.753142 0.008998 -0.006873 -812614.000000 1 0 0
-5.215704 8.263927 -4.525435 10.769197 -1.007793 2.004484 0.000391 -0.001441 -271772.000000 1 0 0
-10.999804 -3.283773 -10.162535 15.331535 0.290108 2.295417 0.012223 -0.004201 -484192.000000 1 0 0
4.631096 -11.336973 -7.815635 14.527841 -1.182988 2.138831 -0.002503 0.003407 -3889200.000000 1 0 0
-9.467504 -4.006673 7.267265 12.589686 0.400347 0.955452 0.003052 -0.003514 -1225000.000000 1 0 0
-5.686304 -9.625873 -5.161335 12.313848 1.037220 2.003304 0.013243 -0.007358 275847.000000 1 0 0
4.921296 4.230527 -9.500035 11.505094 0.710062 2.542281 0.000634 0.003994 461691.000000 1 0 0
-3.439004 -7.224673 -13.935035 16.068847 1.126526 2.620364 0.000794 -0.001346 -566619.000000 1 0 0
0.526096 -0.807473 -8.775635 8.828395 -0.993343 3.032211 0.010047 -0.011159 -246125.000000 1 0 0
-7.742004 2.194127 -2.873035 8.544422 -0.276164 1.913725 0.002381 -0.003870 -384076.000000 1 0 0
-2.327804 7.540527 -12.707235 14.958343 -1.271372 2.585849 0.004405 -0.002211 -160426.000000 1 0 0
-9.917504 8.951427 7.550865 15.346025 -0.734243 1.056364 -0.000340 -0.006568 -569684.000000 1 0 0
-10.797604 -3.070173 -14.362735 18.229162 0.277027 2.478186 0.023963 0.003710 -467928.000000 1 0 0
-3.405004 4.856027 7.934565 9.906178 -0.959271 0.641880 0.003460 -0.001652 -61627.900000 1 0 0
8.790096 -2.238973 -3.680135 9.788881 -0.249412 1.956219 0.007742 0.000741 -4539060.000000 1 0 0
1.870996 -8.364673 -1.094335 8.640946 -1.350740 1.697783 0.002079 0.000849 168132.000000 1 0 0
-13.560304 -2.851573 5.061765 14.752450 0.207268 1.220567 0.013053 -0.008089 178820.000000 1 0 0
7.109396 2.798727 -1.948535 7.884997 0.375034 1.820503 0.005065 -0.002355 298809.000000 1 0 0
-11.178804 4.460727 8.821565 14.922592 -0.379674 0.938306 -0.000383 -0.003727 -2729070.000000 1 0 0
-1.794204 -2.333173 8.005965 8.529850 0.915247 0.352298 0.004951 -0.001756 -584053.000000 1 0 0
3.071796 11.945327 -10.039935 15.903681 1.319095 2.254020 -0.001412 -0.001980 550112.000000 1 0 0
3.596296 -4.957373 -7.013935 9.311508 -0.943197 2.423793 0.003218 -0.001171 248805.000000 1 0 0
8.290196 -13.823373 -9.611635 18.766900 -1.030580 2.108493 0.014083 0.005110 255739.000000 1 0 0
-6.309704 -5.707973 -0.375235 8.516697 0.735370 1.614869 0.013352 -0.004043 -147768.000000 1 0 0
-1.264204 -3.882673 9.934365 10.740809 1.256021 0.389977 0.003302 -0.001019 407025.000000 1 0 0
2.714996 3.408927 1.718965 4.684744 0.898232 1.195092 0.000817 -0.000345 -1532530.000000 1 0 0
-9.126904 13.491727 7.734665 18.031974 -0.976030 1.127475 -0.003129 -0.007733 -1730940.000000 1 0 0
4.061096 -11.088873 0.033165 11.809179 -1.219735 1.567988 0.001187 -0.001154 -353930.000000 1 0 0
-12.547604 -1.413473 -9.105835 15.567803 0.112176 2.195571 0.007412 -0.003379 -98433.000000 1 0 0
-4.363004 0.668527 -13.568535 14.268422 -0.152044 2.827084 0.008389 -0.005806 568893.000000 1 0 0
3.954596 -3.044773 4.996965 7.062516 -0.656137 0.784795 0.000004 0.002799 -45501.600000 1 0 0
1.729796 -1.111273 1.140565 2.351173 -0.571035 1.064313 0.004225 -0.001248 130726.000000 1 0 0
8.212696 -8.953473 7.469665 14.262151 -0.828525 1.019560 0.004170 -0.004007 -791080.000000 1 0 0
-0.120304 2.244927 -6.398635 6.782087 -1.517258 2.803717 0.009158 -0.008305 -747819.000000 1 0 0
-3.771604 -9.754073 -3.384035 10.991753 1.201834 1.883750 0.010953 -0.002966 19058.300000 1 0 0
-9.373504 2.314627 -5.340535 11.033648 -0.242090 2.076042 -0.003080 0.000055 -1275700.000000 1 0 0
8.985396 -7.615573 5.464065 12.984233 -0.703070 1.136444 0.002222 -0.003046 2592290.000000 1 0 0
-5.564104 -4.281573 4.620865 8.404970 0.655864 0.988698 0.004620 -0.001979 -1034670.000000 1 0 0
-0.087804 -12.339273 10.371865 16.119583 1.563681 0.871822 0.015113 -0.006796 -1843110.000000 1 0 0
-14.046504 -8.279673 3.070965 16.591808 0.532624 1.384634 -0.007892 -0.007857 -1104100.000000 1 0 0
11.025796 -1.231073 -3.521735 11.639860 -0.111193 1.878172 0.009614 0.000536 -532594.000000 1 0 0
-13.674704 3.038427 2.751465 14.275858 -0.218641 1.376847 0.001878 -0.005247 -672049.000000 1 0 0
-6.283804 6.132827 1.008665 8.838278 -0.773240 1.456423 0.003450 -0.001926 117933.000000 1 0 0
7.147796 -6.849273 -0.327135 9.905077 -0.764074 1.603829 0.005167 -0.001620 1155570.000000 1 0 0
-6.972404 7.809527 9.917665 14.420929 -0.841969 0.812443 -0.001886 -0.001534 379885.000000 1 0 0
-12.657904 -5.158073 -1.924835 13.803378 0.386954 1.710699 -0.005130 -0.003649 -2163580.000000 1 0 0
-9.437304 -5.607073 0.228965 10.979727 0.536099 1.549941 0.004216 -0.002007 -936078.000000 1 0 0
-1.793004 1.866027 2.116365 3.343040 -0.805352 0.885289 0.004216 -0.003536 -120189.000000 1 0 0
-7.256204 7.363627 7.508565 12.777090 -0.792746 0.942635 -0.000928 -0.001873 -1030770.000000 1 0 0
5.729696 7.153227 -0.522835 9.179947 0.895449 1.627781 0.011560 -0.003390 -1255660.000000 1 0 0
-0.065204 -3.912473 7.477465 8.439442 1.554132 0.482120 0.000574 0.000949 359974.000000 1 0 0
6.280696 0.786727 13.169665 14.611850 0.124612 0.448034 -0.005353 0.000033 522311.000000 1 0 0
5.694796 6.090727 -7.926335 11.504540 0.818980 2.330870 -0.002775 -0.000250 -495489.000000 1 0 0
9.943996 5.371827 8.996565 14.445683 0.495294 0.898498 0.004679 -0.000031 -1918430.000000 1 0 0
-1.279804 -4.983173 -8.536635 9.967149 1.319404 2.599202 0.007798 -0.005094 408573.000000 1 0 0
10.072396 -3.521673 -7.893135 13.272412 -0.336351 2.207692 0.015543 -0.002642 649321.000000 1 0 0
8.522696 -5.390973 1.331665 10.172132 -0.564005 1.439506 0.006235 -0.001820 1057870.000000 1 0 0
15.832496 3.175627 -4.982535 16.899059 0.197950 1.870085 0.003473 0.001270 -1177830.000000 1 0 0
-6.913704 3.610727 1.115365 7.879130 -0.481294 1.428760 0.005271 -0.005159 748343.000000 1 0 0
-1.819504 3.960227 0.295765 4.368234 -1.140116 1.503036 0.002864 -0.003956 -297976.000000 1 0 0
-2.683804 10.088927 6.868765 12.496767 -1.310803 0.988859 -0.000143 0.003509 1426990.000000 1 0 0
5.487596 -5.683473 -8.761035 11.797089 -0.802931 2.407806 0.002943 -0.001204 1962080.000000 1 0 0
-1.175204 -0.818373 6.318965 6.479210 0.608284 0.222867 0.003648 -0.002234 598943.000000 1 0 0
-5.753804 4.916127 -7.801435 10.869082 -0.707051 2.371382 0.000921 -0.002886 -198636.000000 1 0 0
6.792796 -1.171273 2.535165 7.344455 -0.170750 1.218365 0.001551 0.000532 -1292350.000000 1 0 0
8.761696 7.539627 3.290565 12.018366 0.710571 1.293460 0.009878 -0.000911 -78913.000000 1 0 0
-5.222804 -4.884773 -7.573235 10.415977 0.751967 2.384854 0.011247 -0.009541 1878190.000000 1 0 0
-2.143204 7.839427 -10.151535 13.003984 -1.303930 2.466498 0.002331 -0.000476 501008.000000 1 0 0
-2.719504 -2.115273 1.579465 3.790091 0.661067 1.140945 0.002709 -0.001335 371766.000000 1 0 0
6.155596 -2.078373 -9.234735 11.291206 -0.325621 2.528495 0.004855 -0.000564 862092.000000 1 0 0
1.075696 -7.551773 5.231465 9.249574 -1.429305 0.969648 0.001624 0.001026 642805.000000 1 0 0
1.702696 11.817127 1.167365 11.996099 1.427694 1.473330 0.005241 -0.001734 -275660.000000 1 0 0
-1.098904 6.993327 2.474665 7.499212 -1.414935 1.234503 0.002505 0.001838 717803.000000 1 0 0
8.682496 7.909227 -6.585735 13.465271 0.738826 2.081843 0.006421 -0.003375 -36297.700000 1 0 0
3.693296 -11.225673 5.514165 13.040790 -1.252947 1.134220 0.006468 -0.003263 203598.000000 1 0 0
8.008696 -7.084773 12.422365 16.390497 -0.724261 0.710708 0.003033 -0.002430 550177.000000 1 0 0
-8.720804 -0.050573 -4.000235 9.594626 0.005799 2.000855 -0.000226 -0.002740 -1252060.000000 1 0 0
-3.310804 -4.949673 11.169465 12.657711 0.981254 0.489807 0.009071 -0.005458 203248.000000 1 0 0
-8.262904 0.127127 -11.557535 14.208038 -0.015384 2.520856 0.007982 -0.006286 -2209870.000000 1 0 0
1.495196 -5.017573 5.427765 7.541372 -1.281183 0.767380 0.000027 0.002954 -248035.000000 1 0 0
6.646096 3.735127 -7.543735 10.725190 0.512012 2.350918 0.003956 -0.001328 -1769650.000000 1 0 0
16.227996 4.199927 -1.352535 16.817152 0.253251 1.651309 -0.009052 0.007513 415076.000000 1 0 0
8.034296 7.386327 0.175865 10.915066 0.743403 1.554683 0.009956 -0.003294 -2007680.000000 1 0 0
5.538896 -10.366773 13.995865 18.276586 -1.080092 0.698541 0.007334 -0.001665 425941.000000 1 0 0
-5.186804 -9.274173 9.022265 13.939673 1.060861 0.866843 0.005014 -0.006878 798283.000000 1 0 0
-12.646904 -3.153173 2.876265 13.347643 0.244342 1.353604 -0.004150 -0.001182 -272239.000000 1 0 0
-2.227304 -1.467373 -5.849535 6.428929 0.582545 2.713784 0.008627 -0.010195 -1352240.000000 1 0 0
-2.608704 12.932627 -4.498335 13.938909 -1.371752 1.899396 0.000879 0.004799 262635.000000 1 0 0
3.979296 -0.345773 -4.975635 6.380541 -0.086675 2.465165 0.008241 -0.003034 -245646.000000 1 0 0
-8.738704 3.797827 -7.421035 12.077259 -0.409972 2.232502 0.000976 -0.003129 570318.000000 1 0 0
-4.468404 7.997927 -11.473835 14.682723 -1.061302 2.467785 0.006056 -0.001032 -3201730.000000 1 0 0
-10.177004 -6.441873 7.361065 14.115751 0.564320 1.022213 0.001967 -0.002200 -617316.000000 1 0 0
8.152496 5.263627 4.111165 10.539006 0.573308 1.170067 0.004552 -0.000074 -1224270.000000 1 0 0
-6.724404 -7.467973 4.101865 10.854194 0.837742 1.183263 0.007866 -0.000844 -388032.000000 1 0 0
-4.298604 11.832327 8.024765 14.929126 -1.222328 1.003298 0.003371 0.000917 66077.600000 1 0 0
-7.152904 9.848227 -7.924935 14.524331 -0.942627 2.147939 0.000451 -0.004031 -257763.000000 1 0 0
13.129796 5.487927 4.675665 14.979010 0.395905 1.253343 0.008620 0.000325 73522.300000 1 0 0
5.474196 3.998927 -3.784035 7.763837 0.630907 2.079897 0.005819 -0.002198 616819.000000 1 0 0
-2.892504 -4.091973 5.121865 7.165495 0.955473 0.774464 0.005027 -0.000337 -1173040.000000 1 0 0
12.479196 -2.292573 -5.381035 13.781936 -0.181686 1.971907 0.006021 -0.003713 -1097200.000000 1 0 0
-5.349704 9.708827 6.931665 13.073967 -1.067175 1.011974 -0.002653 0.002182 99436.500000 1 0 0
1.694396 3.894327 -0.475435 4.273499 1.160408 1.682279 0.006349 -0.003927 596092.000000 1 0 0
-0.126304 9.676227 7.711265 12.373719 -1.557744 0.897972 0.002375 0.002808 -1081890.000000 1 0 0
-5.580704 2.047127 5.882265 8.362776 -0.351582 0.790645 0.003680 -0.004605 898220.000000 1 0 0
8.869996 0.920127 10.619965 13.867484 0.103365 0.698484 -0.000626 0.002003 -231636.000000 1 0 0
0.358796 -2.862773 -10.143735 10.546069 -1.446115 2.864482 0.006622 -0.004972 -1745580.000000 1 0 0
1.243796 10.667427 -2.747135 11.085476 1.454723 1.821219 0.008134 -0.001655 -623405.000000 1 0 0
2.364396 -4.310373 11.705865 12.696337 -1.069078 0.397614 -0.001560 -0.000382 -897911.000000 1 0 0
6.430096 -2.944173 9.546965 11.881028 -0.429383 0.637566 0.001940 -0.001459 262901.000000 1 0 0
-10.601104 -8.183073 5.627665 14.526414 0.657375 1.172977 0.003044 -0.003251 -1216310.000000 1 0 0
-3.045204 0.749827 -6.894135 7.573942 -0.241429 2.714669 0.010805 -0.010202 735730.000000 1 0 0
11.222596 2.696627 -5.056235 12.600951 0.235815 1.983686 0.003812 -0.000325 -2681860.000000 1 0 0
-2.001704 -4.060873 0.028565 4.527508 1.112825 1.564487 0.007081 -0.001626 1254850.000000 1 0 0
-1.365304 -6.447273 -10.587635 12.471143 1.362115 2.584831 0.002473 -0.003173 1116750.000000 1 0 0
0.362396 6.779427 -6.651735 9.504606 1.517392 2.345974 0.007078 -0.000171 -1970270.000000 1 0 0
1.960496 3.835827 -6.271435 7.608417 1.098307 2.539718 0.006912 -0.004008 -2228920.000000 1 0 0
1.603496 -14.785273 6.421665 16.199176 -1.462766 1.163183 0.014777 -0.005998 -278876.000000 1 0 0
-1.674004 5.337027 -10.597235 11.982802 -1.266856 2.655940 0.007335 -0.003052 -48508.900000 1 0 0
13.702696 4.351627 -0.762335 14.397281 0.307501 1.623771 0.000498 0.005323 -3063700.000000 1 0 0
-2.487604 3.288127 -6.110835 7.371720 -0.923122 2.548036 0.005899 -0.007123 -718748.000000 1 0 0
5.765996 7.761727 14.233665 17.207218 0.931871 0.596705 0.005940 -0.001000 586078.000000 1 0 0
15.914896 0.625127 -5.755835 16.935299 0.039259 1.917577 -0.000144 -0.002692 99092.800000 1 0 0
6.200096 -8.207273 10.559265 14.741052 -0.923823 0.772287 0.001066 0.002185 1224480.000000 1 0 0
0.083996 -5.832173 -6.375735 8.641256 -1.556395 2.400639 0.003309 -0.001603 -2209.240000 1 0 0
8.630596 5.530527 -7.571435 12.743647 0.569884 2.206985 0.004158 0.002122 -328991.000000 1 0 0
-16.033004 -0.844973 5.389765 16.935783 0.052653 1.246916 0.010432 -0.010101 -242276.000000 1 0 0
-0.456104 3.892627 -12.316235 12.924791 -1.454157 2.833506 0.009215 -0.004599 598689.000000 1 0 0
-11.319504 3.705627 5.828665 13.260323 -0.316371 1.115691 0.002742 -0.007690 616142.000000 1 0 0
5.266996 -9.492773 -9.637035 14.516420 -1.064243 2.296780 -0.003319 0.002389 511754.000000 1 0 0
1.640096 10.981527 -11.884735 16.264402 1.422542 2.390173 0.006060 0.000549 -4351670.000000 1 0 0
5.898896 2.421827 1.174465 6.483949 0.389573 1.388657 0.005690 -0.001982 -304553.000000 1 0 0
5.818896 4.565427 4.873665 8.857499 0.665271 0.988156 0.002315 0.000931 -224757.000000 1 0 0
0.257996 -1.526973 -6.359235 6.545081 -1.403418 2.902720 0.009997 -0.006930 55599.800000 1 0 0
12.646396 6.856727 -4.550335 15.088127 0.496826 1.877150 0.004308 -0.003392 1167660.000000 1 0 0
7.334796 3.199827 12.717265 15.025544 0.411363 0.561652 -0.000289 0.000203 -523925.000000 1 0 0
-2.461604 -0.080073 8.714665 9.056009 0.032517 0.275433 0.004520 -0.002160 719439.000000 1 0 0
2.293496 -15.268773 13.338365 20.403616 -1.421703 0.858299 0.019244 -0.001135 -400902.000000 1 0 0
18.788996 4.473427 -1.875035 19.404991 0.233736 1.667574 -0.009082 0.007545 283200.000000 1 0 0
-0.447204 -13.288273 7.217365 15.128402 1.537155 1.073474 0.005370 -0.002905 -597985.000000 1 0 0
4.425696 1.686027 -0.628535 4.777503 0.363988 1.702740 0.006937 -0.003585 642063.000000 1 0 0
2.656996 -0.471373 -7.361935 7.840913 -0.175581 2.790255 0.008294 -0.005618 920797.000000 1 0 0
7.168496 -11.274073 0.904665 13.390687 -1.004441 1.503186 0.002308 -0.000043 373862.000000 1 0 0
-11.720904 -7.202373 1.229465 13.811783 0.551006 1.481663 -0.002156 0.000526 -142079.000000 1 0 0
0.230496 -7.034573 10.025965 12.249830 -1.538042 0.612075 -0.000346 -0.001641 -522698.000000 1 0 0
-4.571404 -7.128473 10.572565 13.545922 1.000570 0.675334 0.012114 -0.005654 -1019140.000000 1 0 0
11.838296 0.760627 -1.586035 11.968263 0.064163 1.703707 0.002537 0.000833 737719.000000 1 0 0
6.499296 -9.741073 -7.347535 13.824458 -0.982421 2.131153 -0.002341 0.001342 -828243.000000 1 0 0
-11.051104 4.806827 3.457465 12.537406 -0.410279 1.291404 0.000881 -0.006965 271406.000000 1 0 0
6.039996 -9.030573 2.162765 11.077471 -0.981292 1.374294 0.002448 -0.001208 3074940.000000 1 0 0
11.674796 -1.262173 5.912065 13.147109 -0.107693 1.104383 0.005100 -0.002907 -1064060.000000 1 0 0
-6.498004 3.611227 4.131965 8.505183 -0.507243 1.063498 0.001884 -0.005673 -1467230.000000 1 0 0
9.551396 6.353527 -3.202435 11.910166 0.586982 1.843029 0.007668 0.001037 -386137.000000 1 0 0
-2.356404 6.557827 10.873065 12.914382 -1.225837 0.569938 -0.002192 -0.000598 -58213.300000 1 0 0
1.977096 9.855127 2.953565 10.476449 1.372809 1.284997 0.001947 0.002434 -39723.200000 1 0 0
2.921496 6.102527 -5.674235 8.830227 1.124305 2.268673 0.004401 -0.002076 -1745640.000000 1 0 0
12.081396 0.155927 -5.464935 13.260843 0.012906 1.995566 0.007974 0.001268 971319.000000 1 0 0
-2.744504 -12.558373 6.297565 14.314481 1.355639 1.115260 0.000330 -0.002632 -105472.000000 1 0 0
10.914696 1.871227 -2.772835 11.415809 0.169790 1.816145 0.004548 0.000462 735156.000000 1 0 0
-8.825704 5.429527 0.785465 10.391812 -0.551517 1.495139 0.002299 -0.004415 -521183.000000 1 0 0
1.180196 -10.146973 5.621965 11.660207 -1.455006 1.067690 0.002491 -0.000920 216845.000000 1 0 0
9.430396 -5.784673 -1.169635 11.124876 -0.550219 1.676128 0.005011 -0.000128 1122200.000000 1 0 0
-7.857504 8.561227 -4.551135 12.479896 -0.828233 1.944083 -0.003431 -0.001271 91.669700 1 0 0
-7.520904 -0.080773 -1.665235 7.703475 0.010739 1.788683 0.001820 -0.004015 -1596030.000000 1 0 0
4.116596 8.832927 2.677665 10.106278 1.134675 1.302644 0.009311 -0.000769 12486.900000 1 0 0
-1.400804 -10.587073 -3.740935 11.315607 1.439248 1.907735 0.006320 -0.000743 -617009.000000 1 0 0
3.234496 7.850427 -3.708135 9.265065 1.179975 1.982562 0.009278 -0.003727 -188271.000000 1 0 0
-4.349504 1.652927 -11.214035 12.141043 -0.363170 2.748286 0.006099 -0.007317 -958962.000000 1 0 0
1.346796 2.764327 11.047265 11.467233 1.117436 0.271474 0.005522 -0.001317 338678.000000 1 0 0
2.188696 5.546427 -8.089435 10.049488 1.194942 2.506404 0.003723 -0.000614 553025.000000 1 0 0
15.485796 6.223127 4.017765 17.166235 0.382109 1.334555 0.007328 -0.002311 94418.100000 1 0 0
-4.474304 9.003927 4.542465 11.032864 -1.109609 1.146454 0.001088 0.003815 754593.000000 1 0 0
-0.950304 -8.199473 -12.301735 14.814423 1.455413 2.550602 -0.002776 -0.000708 -11471.200000 1 0 0
14.285696 -4.230073 -5.281735 15.807320 -0.287880 1.911481 0.017324 -0.001070 834248.000000 1 0 0
-6.042104 -6.243673 -5.607735 10.341043 0.801803 2.143944 0.012591 -0.007325 408329.000000 1 0 0
-9.015304 2.503927 -12.318135 15.468736 -0.270913 2.491991 0.003638 -0.005294 -1174760.000000 1 0 0
10.565596 5.423827 13.779865 18.191603 0.474269 0.711344 0.025697 -0.000787 535126.000000 1 0 0
-0.508204 10.838827 5.494565 12.162593 -1.523943 1.102060 0.000690 0.006597 568111.000000 1 0 0
0.266296 11.400927 -0.694035 11.425136 1.547443 1.631580 0.005651 -0.000943 302316.000000 1 0 0
-1.492804 -0.614873 3.728465 4.063002 0.390716 0.408639 0.004220 -0.001341 275260.000000 1 0 0
-4.940704 6.890127 8.620865 12.091473 -0.948706 0.777071 0.000800 0.003142 -3320620.000000 1 0 0
3.330496 -8.790073 -11.406935 14.780926 -1.208617 2.452359 -0.007941 0.003680 1694400.000000 1 0 0
6.771196 -3.773673 12.052265 14.329927 -0.508440 0.571565 0.002461 0.001012 -171568.000000 1 0 0
-2.558704 -1.808473 -12.494435 12.881322 0.615270 2.895884 0.008052 -0.009318 908850.000000 1 0 0
-16.128504 -5.190673 5.523565 17.820816 0.311364 1.255656 0.031405 -0.009617 619815.000000 1 0 0
-9.005904 7.311027 5.787165 12.963360 -0.681897 1.108030 -0.005546 -0.004098 -3852940.000000 1 0 0
-12.868204 1.479127 5.955765 14.256564 -0.114442 1.139822 0.002124 -0.006997 312529.000000 1 0 0
-3.631704 3.655227 10.145165 11.378679 -0.788626 0.469943 0.004045 -0.001106 322305.000000 1 0 0
1.917396 -12.227073 -1.065835 12.422308 -1.415247 1.656702 0.003179 -0.000871 -1628630.000000 1 0 0
10.273096 -5.211673 -3.551135 12.054402 -0.469481 1.869825 0.008788 0.002584 695007.000000 1 0 0
3.177896 -13.389873 1.048365 13.801696 -1.337772 1.494764 0.006638 -0.002162 540137.000000 1 0 0
10.112096 -1.652473 -6.083235 11.915994 -0.161984 2.106574 0.010378 0.000846 54512.500000 1 0 0
12.008996 -5.439873 -1.547735 13.274174 -0.425332 1.687660 0.005978 0.002043 -905611.000000 1 0 0
1.485396 1.042027 5.902465 6.175056 0.611742 0.298237 0.002530 -0.001434 516239.000000 1 0 0
-10.734304 11.746827 6.575665 17.217798 -0.830407 1.178933 -0.004364 -0.003745 -713904.000000 1 0 0
4.716696 -14.080773 3.178065 15.186030 -1.247570 1.359962 0.008206 -0.006173 -3973870.000000 1 0 0
5.345196 -3.320773 -1.692335 6.516338 -0.555908 1.833515 0.006506 -0.001595 -1065730.000000 1 0 0
1.938896 -2.862773 -7.663035 8.406955 -0.975483 2.717740 0.005302 -0.003835 38739.600000 1 0 0
-2.820504 14.812427 -8.947835 17.533596 -1.382634 2.106359 0.010410 -0.003780 -2279680.000000 1 0 0
-2.303804 6.011527 -8.219635 10.440707 -1.204829 2.477162 0.005567 -0.002192 91636.400000 1 0 0
2.509096 -3.584473 -11.350035 12.164181 -0.960077 2.773652 0.003673 -0.001803 -2134720.000000 1 0 0
14.472496 2.735927 -2.715535 14.977068 0.186838 1.753118 -0.004438 0.002142 450789.000000 1 0 0
-3.539204 13.194027 2.115665 13.823326 -1.308723 1.417142 -0.007802 0.007333 -366286.000000 1 0 0
7.892396 -4.954073 14.015665 16.830675 -0.560540 0.586749 -0.002739 -0.000951 -1113410.000000 1 0 0
-11.457604 7.197827 2.932665 13.845068 -0.560907 1.357359 -0.003059 -0.002488 812042.000000 1 0 0
-2.349504 11.893227 4.069665 12.787931 -1.375758 1.246921 -0.001892 0.006447 -127390.000000 1 0 0
1.867096 1.515327 0.665565 2.495043 0.681771 1.300772 -0.001348 -0.001314 -1494080.000000 1 0 0
-6.958404 8.588427 5.235865 12.230893 -0.889863 1.128423 -0.001381 -0.000193 -821710.000000 1 0 0
-1.119304 9.100427 0.986465 9.221915 -1.448416 1.463622 0.002753 0.002602 393805.000000 1 0 0
4.874296 12.993027 -8.582835 16.316941 1.211897 2.124696 0.005461 -0.011214 -1016470.000000 1 0 0
8.885096 6.919227 7.167665 13.349010 0.661646 1.003986 0.000353 0.001516 -1396020.000000 1 0 0
7.195396 -13.716573 2.883565 15.755414 -1.087681 1.386738 0.012949 -0.008956 1092820.000000 1 0 0
4.137996 -13.371473 -1.225835 14.050693 -1.270679 1.658151 0.000141 0.005047 -2861970.000000 1 0 0
12.007196 -11.873373 -4.651435 17.515296 -0.779794 1.839585 0.025035 -0.005092 -1054230.000000 1 0 0
3.099996 0.009627 -1.950335 3.662496 0.003105 2.132366 0.007884 -0.002991 778798.000000 1 0 0
-13.582804 -3.250673 -10.729535 17.611995 0.234904 2.225870 0.008089 -0.005103 589115.000000 1 0 0
-6.440404 13.645627 4.922165 15.871661 -1.129818 1.255474 -0.007772 -0.000513 331442.000000 1 0 0
7.352396 -4.303673 -0.602835 8.540653 -0.529573 1.641439 0.004560 0.001454 -911753.000000 1 0 0
11.707896 1.997427 -7.361235 13.973272 0.168978 2.125637 0.011502 -0.001379 -1247210.000000 1 0 0
-7.456804 -4.455273 9.761565 13.066810 0.538563 0.727183 0.007550 -0.001541 288213.000000 1 0 0
0.944496 2.884227 8.506865 9.032031 1.254332 0.342687 0.004996 -0.000877 -293505.000000 1 0 0
1.657696 7.990527 -8.908335 12.081180 1.366240 2.399969 0.005821 -0.002014 142076.000000 1 0 0
-8.612504 -2.250773 -5.465235 10.445573 0.255621 2.121410 0.005076 -0.004635 -1780310.000000 1 0 0
6.598896 -0.402373 7.102165 9.702994 -0.060900 0.749608 0.001239 -0.000861 687708.000000 1 0 0
-10.945304 6.588927 7.254565 14.691574 -0.541879 1.054353 0.000804 -0.004995 376316.000000 1 0 0
-6.061404 11.009027 4.816065 13.458595 -1.067504 1.204839 -0.007562 0.003060 217928.000000 1 0 0
5.994496 -1.188673 -6.917135 9.230043 -0.195755 2.417975 0.008411 -0.001821 -831986.000000 1 0 0
4.574896 -5.753273 11.451365 13.607483 -0.899000 0.570652 0.000543 -0.000291 -636605.000000 1 0 0
-9.007504 -7.321573 2.723965 11.923110 0.682516 1.340300 0.004013 -0.001298 -1533660.000000 1 0 0
-1.188004 12.681327 -9.391735 15.825046 -1.477388 2.206163 0.012727 -0.000840 859170.000000 1 0 0
-4.588604 9.264327 -2.330835 10.597916 -1.110917 1.792542 -0.001898 0.000390 445963.000000 1 0 0
-3.215704 9.829527 -0.230635 10.344735 -1.254623 1.593093 0.000298 0.002392 -1459490.000000 1 0 0
-3.424104 10.643827 -6.469435 12.917783 -1.259553 2.095338 0.002186 0.002798 539176.000000 1 0 0
4.886396 -4.842473 0.413365 6.891828 -0.780883 1.510781 0.001487 0.000002 -1615880.000000 1 0 0
-2.298404 2.872827 -10.834435 11.442062 -0.896025 2.814235 0.009270 -0.004739 -3400530.000000 1 0 0
-3.603004 12.060027 -2.316735 12.798169 -1.280481 1.752821 -0.004922 0.005513 275845.000000 1 0 0
-0.144604 0.434827 -0.000235 0.458241 -1.249747 1.571309 0.000940 -0.002371 -1759530.000000 1 0 0
-4.693604 -1.571973 0.117565 4.951246 0.323176 1.547050 0.006930 -0.003280 211609.000000 1 0 0
2.533496 2.526027 -2.439935 4.330438 0.783922 2.169338 0.004211 -0.004953 1764950.000000 1 0 0
6.108596 -9.840373 8.582865 14.415737 -1.015245 0.933056 0.004535 0.000915 -696971.000000 1 0 0
-4.330004 -5.474773 6.522565 9.553320 0.901628 0.819271 0.003469 -0.002605 205851.000000 1 0 0
-6.313604 5.276127 -12.093835 14.627370 -0.696119 2.544182 0.003584 -0.005392 -8439.600000 1 0 0
-13.012904 3.063727 7.887165 15.521902 -0.231227 1.037783 0.004314 -0.009551 799590.000000 1 0 0
4.699896 -7.375073 -4.879535 10.014519 -1.003424 2.079730 0.002190 -0.000438 212951.000000 1 0 0
-6.031304 2.389527 -0.987035 6.562065 -0.377215 1.721785 0.003327 -0.004590 -618142.000000 1 0 0
-6.880604 -2.764773 -14.617235 16.390553 0.382075 2.672123 0.009938 -0.002389 818617.000000 1 0 0
2.723596 -6.049473 1.003565 6.709787 -1.147759 1.420666 0.002927 0.000228 472573.000000 1 0 0
4.886196 -7.867373 13.053565 16.005188 -1.015027 0.617060 0.001695 -0.001508 -118088.000000 1 0 0
-10.049204 -1.675873 8.073665 12.999197 0.165246 0.900664 0.006919 -0.002532 -47972.200000 1 0 0
-4.454804 13.284627 -0.179235 14.012805 -1.247245 1.583587 -0.005782 0.009087 740595.000000 1 0 0
6.874696 2.266227 -4.468135 8.506554 0.318430 2.123815 0.005933 -0.000452 -1880370.000000 1 0 0
5.001196 4.600527 0.009665 6.795359 0.743693 1.569374 0.004434 -0.002800 -899465.000000 1 0 0
-5.954604 12.377327 1.760765 13.847592 -1.122391 1.443298 -0.003587 0.007984 176559.000000 1 0 0
6.465096 -7.337373 6.677065 11.841356 -0.848511 0.971724 0.001825 -0.000889 -222832.000000 1 0 0
-0.330204 4.993827 7.707065 9.189461 -1.504770 0.575932 0.003517 -0.000325 -138884.000000 1 0 0
-5.764604 -3.412673 -1.497235 6.864307 0.534520 1.790683 0.010116 -0.005117 -730524.000000 1 0 0
2.248296 -6.611173 -5.232735 8.726051 -1.242990 2.213883 0.000408 0.000638 -908642.000000 1 0 0
-14.396704 -4.799873 -3.785435 15.640760 0.321811 1.815247 -0.001746 -0.003576 -28495.800000 1 0 0
-12.447504 -5.149773 -6.302635 14.872247 0.392277 2.008416 0.005506 -0.005438 -1369020.000000 1 0 0
-14.749904 -3.726373 -1.275735 15.266729 0.247459 1.654457 -0.006604 -0.003636 387995.000000 1 0 0
11.927196 2.938127 8.758365 15.086403 0.241530 0.951396 0.012412 -0.001474 -1043810.000000 1 0 0
8.742696 -6.500073 7.720865 13.352807 -0.639319 0.954251 0.004984 -0.006216 231440.000000 1 0 0
-8.930404 -1.744973 -9.779735 13.358153 0.192966 2.392221 0.005930 -0.006185 -197054.000000 1 0 0
-8.863504 5.045527 -3.786235 10.879091 -0.517500 1.926264 0.000033 -0.004994 -1758310.000000 1 0 0
-4.080204 -6.178973 4.066465 8.447716 0.987189 1.068581 0.008990 -0.000457 -1135130.000000 1 0 0
-0.198504 -9.309273 3.572865 9.973331 1.549476 1.204412 0.003222 -0.003274 737901.000000 1 0 0
7.909096 -10.415573 3.315665 13.491909 -0.921336 1.322501 0.000772 -0.003072 -83305.400000 1 0 0
-0.078904 6.445427 9.593265 11.557702 -1.558555 0.591631 0.001640 0.000240 386149.000000 1 0 0
-0.023304 3.441127 -9.721035 10.312149 -1.564024 2.801363 0.011273 -0.005736 89564.900000 1 0 0
4.551896 -3.098773 11.164265 12.448412 -0.597700 0.458217 0.001879 -0.001091 -2678030.000000 1 0 0
8.543196 -9.141773 1.275765 12.577194 -0.819232 1.469187 0.001993 -0.001441 1122370.000000 1 0 0
-0.170404 -0.380073 11.447865 11.455440 1.149320 0.036368 0.009218 -0.001543 -883680.000000 1 0 0
10.790596 6.057327 11.315965 16.768400 0.511517 0.830050 0.024840 0.000260 404445.000000 1 0 0
-6.385604 -2.803573 -11.939235 13.826832 0.413707 2.612931 0.008405 -0.005960 393333.000000 1 0 0
-1.712204 2.963527 8.475165 9.140162 -1.046891 0.383810 0.004615 -0.003967 -2194880.000000 1 0 0
-1.711504 13.464327 -6.919635 15.234785 -1.444360 2.042270 0.006343 -0.001767 330376.000000 1 0 0
7.712296 3.172627 9.697765 12.790298 0.390272 0.710229 0.000804 -0.001086 250692.000000 1 0 0
6.512096 8.423327 -8.005735 13.321097 0.912673 2.215525 0.002093 0.000079 -1687750.000000 1 0 0
6.686496 -2.908673 -3.868535 8.254403 -0.410316 2.058573 0.009749 -0.001848 -2769000.000000 1 0 0
2.012996 8.341127 0.936465 8.631542 1.333991 1.462089 0.006027 0.001744 736232.000000 1 0 0
-17.692904 6.176427 6.267265 19.760205 -0.335864 1.248057 0.023158 -0.009970 -89050.300000 1 0 0
-14.590904 2.952927 -10.010635 17.939539 -0.199684 2.162795 0.015210 -0.005335 -843643.000000 1 0 0
-18.254304 0.037227 -4.217635 18.735246 -0.002039 1.797860 0.022690 -0.013294 974286.000000 1 0 0
-13.093504 7.889227 0.114965 15.287019 -0.542278 1.563276 0.003304 0.001890 -3021810.000000 1 0 0
-12.863704 -4.374173 -13.085735 18.863847 0.327774 2.337401 0.026689 0.005252 -1008270.000000 1 0 0
-17.349904 -0.660473 -8.623835 19.386230 0.038049 2.031796 0.010481 -0.013347 -37658.700000 1 0 0
-16.636104 -2.068673 -2.136735 16.899852 0.123713 1.697571 0.006215 -0.007200 -413087.000000 1 0 0
-15.471104 4.081827 1.714465 16.092102 -0.257957 1.464053 0.003351 -0.002635 -1131020.000000 1 0 0
-13.234704 5.837627 4.410365 15.122387 -0.415415 1.274850 -0.001389 -0.006226 384735.000000 1 0 0
-10.055404 14.172827 2.691565 17.584786 -0.953733 1.417130 0.009611 -0.001735 28075.000000 1 0 0
-11.779604 2.399827 -6.433135 13.634642 -0.200977 2.062153 -0.000266 -0.000818 291520.000000 1 0 0
-15.926504 10.623627 3.861465 19.530127 -0.588262 1.371767 0.019830 -0.008351 -370278.000000 1 0 0
-12.826404 1.079227 -8.589835 15.474709 -0.083943 2.159266 0.004015 -0.003247 387931.000000 1 0 0
-12.256204 14.400127 3.869765 19.301639 -0.865654 1.368939 0.015159 -0.008233 -841072.000000 1 0 0
-10.423204 11.137027 -1.035035 15.288814 -0.818494 1.638547 0.003653 0.001347 203295.000000 1 0 0
-17.050104 5.634827 8.802965 19.998737 -0.319186 1.115002 0.009738 -0.009371 345948.000000 1 0 0
-11.814204 12.496727 -9.159935 19.484558 -0.813466 2.060215 0.018869 -0.012818 -1123470.000000 1 0 0
-17.145704 -0.509573 3.199965 17.449200 0.029711 1.386365 0.012764 -0.008591 294092.000000 1 0 0
-13.146504 14.806127 -0.668635 19.811588 -0.844701 1.604552 0.035036 -0.008340 -254950.000000 1 0 0
-16.577504 4.517727 -10.158335 19.960342 -0.266061 2.104733 0.034865 -0.006413 119382.000000 1 0 0
-11.860104 7.516127 -9.004035 16.680134 -0.564854 2.141003 0.000114 -0.000552 -12948.200000 1 0 0
-14.906604 13.322427 -2.092635 20.101567 -0.729338 1.675088 0.047860 -0.014692 397957.000000 1 0 0
-11.899104 10.519827 -5.550435 16.824469 -0.723953 1.906997 0.014299 -0.006721 985045.000000 1 0 0
-17.651304 2.799027 -0.760735 17.888035 -0.157264 1.613337 0.007954 -0.004991 -853434.000000 1 0 0
-9.435904 15.396227 0.574065 18.066810 -1.020966 1.539016 0.017817 -0.004876 173107.000000 1 0 0
-8.082904 13.232827 -3.817235 15.969105 -1.022457 1.812172 -0.000214 -0.003247 -307197.000000 1 0 0
-17.952404 11.628027 2.475565 21.532028 -0.574767 1.455570 0.063938 0.009570 11091.400000 1 0 0
-8.059504 15.653227 -7.497435 19.136108 -1.095317 1.973378 0.028820 -0.020067 -12292.600000 1 0 0
-6.272304 15.357527 -5.526335 17.485302 -1.183053 1.892366 0.007975 -0.003880 -847676.000000 1 0 0
-17.429204 5.273927 -0.121135 18.210055 -0.293833 1.577448 0.025236 0.002974 680303.000000 1 0 0
-5.202504 12.222327 -12.276735 18.087828 -1.168370 2.316827 -0.000840 -0.005775 -58219.000000 1 0 0
-11.168504 3.652427 -11.478335 16.426438 -0.316066 2.344476 0.004180 -0.006019 85633.100000 1 0 0
-11.761104 11.032327 1.188965 16.169398 -0.753436 1.497198 0.004800 0.001667 11264.700000 1 0 0
-12.992004 0.274627 -11.027035 17.042977 -0.021135 2.274457 0.011137 -0.005410 586633.000000 1 0 0
-14.100604 -2.075473 -13.038735 19.316915 0.146141 2.311748 0.013796 -0.004951 247539.000000 1 0 0
-18.735204 -2.410173 -3.649535 19.238916 0.127941 1.761648 0.015262 -0.008210 1711170.000000 1 0 0
-18.234604 4.779727 -5.153735 19.542455 -0.256357 1.837673 0.025225 -0.006475 -394396.000000 1 0 0
-8.128104 15.463127 -2.468535 17.642790 -1.086844 1.711174 0.011880 -0.002004 149752.000000 1 0 0
-16.215604 8.990727 -5.520635 19.345707 -0.506253 1.860186 0.026402 -0.002583 31152.100000 1 0 0
-18.267504 1.577227 2.185065 18.465206 -0.086127 1.452184 0.025290 -0.010726 -218960.000000 1 0 0
-15.763204 -2.641873 -8.745835 18.219432 0.166054 2.071483 0.007595 -0.004808 215367.000000 1 0 0
-9.722804 10.373027 -7.219235 15.945217 -0.817743 2.040646 0.003633 -0.011032 320926.000000 1 0 0
-13.772404 12.012127 -7.691235 19.827390 -0.717235 1.969159 0.020253 -0.014348 -41686.300000 1 0 0
-10.989004 6.554527 -3.879035 13.370375 -0.537814 1.865150 0.000555 -0.000035 -785181.000000 1 0 0
-13.228604 4.807927 -12.622235 18.905897 -0.348606 2.301824 0.019202 -0.005225 442324.000000 1 0 0
-17.674704 9.108827 2.638665 20.058126 -0.475860 1.438863 0.030070 -0.004585 1005430.000000 1 0 0
-13.491004 8.738127 -6.582935 17.369429 -0.574757 1.959507 0.009924 -0.003630 -917217.000000 1 0 0
-15.642604 6.957227 -3.889235 17.556201 -0.418489 1.794180 0.004346 0.001605 -1513650.000000 1 0 0
-14.916404 -0.300373 -9.330335 17.596718 0.020134 2.129670 0.011617 -0.010011 -1893700.000000 1 0 0
-9.883104 5.785127 -6.047135 12.950339 -0.529582 2.056633 -0.002126 0.000556 263658.000000 1 0 0
-12.750704 12.194727 -1.001635 17.671872 -0.763114 1.627506 0.018752 -0.004639 -256605.000000 1 0 0
-10.633104 3.491627 -14.066835 17.975823 -0.317280 2.469535 0.003122 -0.001178 26342.600000 1 0 0
-11.066004 6.226427 -12.010935 17.478197 -0.512513 2.328418 0.000215 -0.001601 -959506.000000 1 0 0
-5.699804 11.702127 -14.764135 19.682663 -1.117543 2.419023 0.007678 -0.004024 -267992.000000 1 0 0
-15.612004 13.245727 3.529165 20.775922 -0.703583 1.400101 0.026726 -0.014278 69168.900000 1 0 0
-14.922004 10.949227 -3.288835 18.798090 -0.633029 1.746657 0.025492 -0.001390 854389.000000 1 0 0
-18.101604 7.534627 -4.638235 20.148248 -0.394428 1.803085 0.025483 -0.003732 -899232.000000 1 0 0
-4.091604 16.242127 -10.660335 19.854235 -1.324018 2.137590 0.020929 -0.003935 168316.000000 1 0 0
-15.801804 4.357527 -4.364735 16.962781 -0.269074 1.831036 0.013791 -0.003600 253941.000000 1 0 0
-18.706504 -1.759073 -6.176835 19.778294 0.093760 1.888413 0.021661 -0.011968 208029.000000 1 0 0
-10.878104 8.505827 -5.929935 15.028185 -0.663620 1.976415 0.002543 -0.002391 1478100.000000 1 0 0
-11.280204 13.522127 -6.786535 18.871883 -0.875545 1.938647 0.015991 -0.011441 348089.000000 1 0 0
-9.562604 10.433527 -4.482635 14.845736 -0.828925 1.877531 -0.007892 -0.002118 -843768.000000 1 0 0
-11.063904 6.251127 -0.255635 12.710307 -0.514288 1.590910 0.001820 0.000794 -572205.000000 1 0 0
-14.703004 9.065427 -1.507135 17.338735 -0.552514 1.657829 0.023063 0.000413 -53638.100000 1 0 0
-18.482504 3.496627 4.835265 19.421872 -0.186976 1.319190 0.014984 -0.008006 272120.000000 1 0 0
-14.749904 13.127627 0.407065 19.749935 -0.727271 1.550184 0.022452 -0.004097 383743.000000 1 0 0
-16.783204 2.358427 -8.655435 19.030361 -0.139609 2.042969 0.017435 -0.013875 -27939.500000 1 0 0
-9.052704 8.377027 -8.933435 15.229323 -0.746652 2.197644 0.001712 -0.000579 -2338710.000000 1 0 0
-17.808704 4.635127 -2.600735 18.584890 -0.254624 1.711195 0.022407 -0.003214 1151290.000000 1 0 0
-13.460304 5.733927 -4.375435 15.270957 -0.402707 1.861389 0.004850 0.000906 -1594900.000000 1 0 0
-12.334404 9.595727 3.276465 15.967176 -0.661159 1.364128 -0.002204 -0.003753 772030.000000 1 0 0
-17.536704 2.499927 -3.910135 18.140418 -0.141600 1.788050 0.014827 -0.009108 918037.000000 1 0 0
-11.357204 1.391227 -12.731035 17.117267 -0.121890 2.409465 0.011551 0.001365 -188875.000000 1 0 0
-11.210804 12.024227 3.560865 16.820937 -0.820392 1.357490 0.000874 -0.001631 707441.000000 1 0 0
-16.221204 12.891027 -4.368635 21.175245 -0.671502 1.778597 0.033041 -0.008197 159506.000000 1 0 0
-11.075804 4.076827 -4.531135 12.642196 -0.352694 1.937364 -0.002244 -0.003249 -730041.000000 1 0 0
-11.097704 14.913727 -8.966635 20.639254 -0.931065 2.020219 0.023643 -0.017816 486184.000000 1 0 0
-15.528704 7.055727 -0.278535 17.058766 -0.426479 1.587125 0.016614 0.004274 -1030850.000000 1 0 0
-12.825704 8.315527 -4.058735 15.815182 -0.575213 1.830336 0.006881 -0.002204 517125.000000 1 0 0
-19.213004 1.909527 -5.813735 20.163961 -0.099062 1.863271 0.031596 -0.016209 277721.000000 1 0 0
-12.570304 10.046727 -8.909235 18.393578 -0.674279 2.076435 0.011353 -0.009775 371570.000000 1 0 0
-16.595204 10.863927 -1.201135 19.871296 -0.579632 1.631279 0.024546 0.000430 436987.000000 1 0 0
-10.714904 6.491327 -14.556535 19.205187 -0.544690 2.430958 0.010050 -0.014305 95141.900000 1 0 0
-13.578304 12.996827 -4.260935 19.272867 -0.763521 1.793723 0.021418 -0.004886 1226710.000000 1 0 0
-18.074804 7.782227 -0.191235 19.679892 -0.406568 1.580514 0.039210 0.004288 826290.000000 1 0 0
-12.664604 6.516427 -2.074235 14.393000 -0.475211 1.715414 0.000047 0.001642 98383.400000 1 0 0
-13.806404 8.329327 -10.566235 19.277961 -0.542838 2.150886 0.013961 -0.005510 162308.000000 1 0 0
-15.050904 1.384127 -0.960135 15.144879 -0.091705 1.634236 0.002168 -0.003779 -840419.000000 1 0 0
-13.391404 2.739027 -2.399535 13.877670 -0.201753 1.744576 0.000836 -0.002820 -515017.000000 1 0 0
-11.269904 9.165527 -10.847535 18.129717 -0.682783 2.212210 0.008251 -0.006173 -364212.000000 1 0 0
-15.196504 4.145727 -7.884135 17.614777 -0.266327 2.034861 0.007042 -0.000293 585195.000000 1 0 0
-18.405404 10.447527 4.744065 21.689072 -0.516281 1.350283 0.050501 -0.017437 373173.000000 1 0 0
-15.278304 5.984927 -6.210935 17.544846 -0.373354 1.932645 0.013496 -0.002040 909567.000000 1 0 0
-7.646004 11.469727 -13.038735 18.974315 -0.982823 2.328394 0.001551 0.004915 -1038420.000000 1 0 0
-16.775904 9.124627 -3.058935 19.340291 -0.498158 1.729627 0.024562 0.004605 371197.000000 1 0 0
-20.704504 -1.072073 -4.616135 21.239927 0.051734 1.789878 0.035416 -0.018058 -484302.000000 1 0 0
-15.523604 4.370827 4.191065 16.662876 -0.274455 1.316545 0.009371 -0.006151 190589.000000 1 0 0
-6.912704 12.434527 -9.424235 17.065144 -1.063413 2.155858 0.010622 -0.013211 -1874810.000000 1 0 0
-17.226404 1.439827 5.742365 18.215291 -0.083389 1.250077 0.015080 -0.010988 211990.000000 1 0 0
-10.392604 14.302927 -3.215735 17.969999 -0.942436 1.750716 0.022563 -0.009720 -564633.000000 1 0 0
-9.932304 8.375327 -12.914935 18.319178 -0.700557 2.353213 -0.008675 -0.007220 -755728.000000 1 0 0
-13.746604 11.607127 2.854165 18.216497 -0.701213 1.413468 0.015658 -0.006613 -393770.000000 1 0 0
-16.795504 6.779127 1.916065 18.213094 -0.383630 1.465399 0.014937 0.001211 819873.000000 1 0 0
-9.241004 13.174427 -8.394535 18.150203 -0.959108 2.051613 0.018881 -0.018041 -780903.000000 1 0 0
-5.646304 9.789927 -13.039035 17.255140 -1.047651 2.427459 0.006707 -0.001425 143989.000000 1 0 0
-15.863604 1.796027 3.131065 16.269087 -0.112737 1.377133 0.003203 -0.006007 -242390.000000 1 0 0
-18.759504 -4.839373 4.902865 19.984409 0.252465 1.322932 0.045849 -0.010099 1611430.000000 1 0 0
-5.297004 14.425727 -9.265935 17.944843 -1.218889 2.113387 0.011844 -0.004419 91978.500000 1 0 0
-15.378804 -0.888673 -6.782535 16.831522 0.057721 1.985552 0.005514 -0.007720 550223.000000 1 0 0
-8.891204 10.863527 -9.575835 16.993126 -0.884909 2.169428 0.003177 -0.011480 456688.000000 1 0 0
-16.741004 1.167127 -6.014235 17.826789 -0.069604 1.914919 0.011359 -0.011024 -252672.000000 1 0 0
-11.186204 8.606227 -1.525735 14.195991 -0.655777 1.678481 0.001743 -0.002454 -896638.000000 1 0 0
-10.794704 10.866127 -12.699435 19.896582 -0.788695 2.263048 0.012041 -0.006986 -287099.000000 1 0 0
-14.042604 11.711527 -10.278735 20.976343 -0.695131 2.082904 0.029154 -0.009597 -293499.000000 1 0 0
-13.075104 5.772327 -7.675635 16.223238 -0.415742 2.063632 0.003947 0.001280 -509666.000000 1 0 0
-8.818004 15.392327 -4.955335 18.418367 -1.050554 1.843196 0.014081 -0.011116 460298.000000 1 0 0
-8.701904 5.990627 -12.926435 16.694414 -0.602917 2.456400 0.001565 -0.007639 -80473.200000 1 0 0
-16.477204 7.492627 4.346665 18.615348 -0.426778 1.335122 0.025593 -0.000866 29947.300000 1 0 0
-12.623204 5.279627 -10.206535 17.070240 -0.396138 2.211692 0.003973 0.001092 375946.000000 1 0 0
-12.468304 9.035427 -13.246235 20.311580 -0.627093 2.281216 0.026293 -0.010622 618150.000000 1 0 0
-10.732804 5.104027 -8.511335 14.618036 -0.443900 2.192288 -0.003295 0.000069 -1934370.000000 1 0 0
-17.558804 -4.441973 -2.547535 18.290234 0.247779 1.710535 -0.005776 -0.007103 43450.000000 1 0 0
-8.935804 13.033627 -10.958135 19.230308 -0.969803 2.177103 0.022472 -0.015476 -105042.000000 1 0 0
-15.133804 6.163027 6.124165 17.450510 -0.386729 1.212216 0.005919 -0.009628 -1317580.000000 1 0 0
-16.326304 -3.095673 -4.528735 17.223264 0.187388 1.836867 0.001879 -0.006917 -1022150.000000 1 0 0
-11.120604 -1.188673 -12.463135 16.745462 0.106485 2.410237 0.012556 -0.006030 -371557.000000 1 0 0
-15.405204 6.700727 -8.611835 18.878129 -0.410281 2.044495 0.014542 -0.001444 567293.000000 1 0 0
-14.775804 9.312227 1.141365 17.502704 -0.562355 1.505539 0.014788 -0.001588 57519.000000 1 0 0
-19.459904 5.137127 7.887265 21.616819 -0.258097 1.197306 0.031436 -0.015881 -442981.000000 1 0 0
-16.341504 0.395727 0.911565 16.371692 -0.024211 1.515088 0.010060 -0.006574 -1683770.000000 1 0 0
-17.460904 3.695227 7.143965 19.224310 -0.208552 1.190053 0.008039 -0.009105 627943.000000 1 0 0
-15.497704 4.007327 -1.424735 16.070699 -0.253033 1.659567 0.002697 -0.004344 -1171760.000000 1 0 0
-10.861504 13.306227 0.337665 17.179696 -0.886212 1.551140 0.013013 -0.004121 -1091040.000000 1 0 0
-13.565504 3.342727 0.091265 13.971580 -0.241601 1.564264 0.002468 -0.003090 103.973000 1 0 0
-15.087104 0.160927 -4.292735 15.686751 -0.010666 1.847986 0.003215 -0.005600 -747160.000000 1 0 0
-18.861204 6.876727 3.423965 20.365606 -0.349619 1.401869 0.031851 -0.001342 201744.000000 1 0 0
-14.093504 1.377927 -6.389635 15.535539 -0.097461 1.994667 0.005066 -0.004082 -562507.000000 1 0 0
-14.217204 11.988027 5.407265 19.366987 -0.700536 1.287835 0.014290 -0.011864 700050.000000 1 0 0
17.750896 5.560527 6.164865 19.596411 0.303571 1.250770 0.022602 -0.006163 -481186.000000 1 0 0
18.612296 7.714727 -0.334135 20.150589 0.392940 1.587379 0.016290 0.011368 523379.000000 1 0 0
16.719196 5.278827 8.519765 19.493177 0.305829 1.118465 0.036075 -0.001080 451886.000000 1 0 0
11.458496 12.415227 10.933565 20.124061 0.825451 0.996424 0.028722 -0.012810 449372.000000 1 0 0
-2.311904 16.166827 -0.530835 16.339920 -1.428756 1.603289 -0.007903 -0.002678 -164610.000000 1 0 0
15.279096 12.660327 3.296865 20.114770 0.691941 1.406151 0.037131 -0.003840 604699.000000 1 0 0
13.665396 11.827627 6.751765 19.293059 0.713434 1.213270 0.046367 -0.003161 843749.000000 1 0 0
-0.682104 15.979227 8.583565 18.151544 -1.528135 1.078236 0.006296 0.001154 331332.000000 1 0 0
0.691996 12.870027 9.382465 15.941992 1.517080 0.941547 0.004248 -0.002031 823604.000000 1 0 0
0.773296 15.547127 -3.990935 16.069807 1.521098 1.821773 0.003809 -0.003573 -874676.000000 1 0 0
5.393496 10.199227 13.655265 17.876809 1.084364 0.701533 0.011260 -0.004876 410388.000000 1 0 0
-1.332104 16.403127 -2.839035 16.700215 -1.489764 1.741626 -0.002029 -0.002438 -1535740.000000 1 0 0
8.525496 10.067727 3.256165 13.588444 0.868155 1.328814 0.013055 -0.003229 499374.000000 1 0 0
12.643196 13.816327 -4.866935 19.350151 0.829706 1.825046 0.055144 -0.012094 378812.000000 1 0 0
2.464396 11.627127 7.837565 14.236950 1.361935 0.987823 0.007315 0.001702 235456.000000 1 0 0
-0.382804 14.961527 -8.704335 17.313557 -1.545216 2.097570 0.012712 -0.001735 -1540120.000000 1 0 0
2.387096 15.944127 0.174865 16.122778 1.422184 1.559950 0.008088 -0.009143 24633.900000 1 0 0
1.886996 13.458227 5.345365 14.603340 1.431493 1.196049 0.005701 -0.000232 -517617.000000 1 0 0
17.634596 9.257427 -2.033135 20.020304 0.483414 1.672525 0.011034 0.007035 427910.000000 1 0 0
-7.190804 15.036727 7.169265 18.144122 -1.124727 1.164588 -0.001879 -0.007838 -1213860.000000 1 0 0
8.421996 15.801327 -0.036535 17.905677 1.081104 1.572837 0.011843 -0.013072 -72078.800000 1 0 0
15.709796 10.400527 2.032765 18.949955 0.584793 1.463319 0.022621 0.001165 968532.000000 1 0 0
14.232396 7.459027 8.727365 18.285652 0.482732 1.073240 0.039487 -0.004822 -1019460.000000 1 0 0
4.145096 18.257727 -1.795435 18.808243 1.347548 1.666402 0.008424 -0.016373 -840699.000000 1 0 0
-0.418404 17.527827 -4.961435 18.221295 -1.546930 1.846566 0.013328 -0.003415 601811.000000 1 0 0
1.380696 13.667927 -0.813835 13.761572 1.470121 1.629969 0.004722 -0.005954 -105971.000000 1 0 0
10.239796 14.633827 4.303365 18.371752 0.960248 1.334361 0.023933 -0.015284 -431777.000000 1 0 0
-1.630104 15.266527 -5.139435 16.190672 -1.464423 1.893816 0.005388 -0.004789 -199401.000000 1 0 0
15.127896 8.808827 -6.367835 18.627882 0.527296 1.919675 0.022980 -0.004101 449478.000000 1 0 0
-2.313304 18.488927 0.812365 18.650783 -1.446325 1.527226 -0.002215 -0.005906 -150104.000000 1 0 0
-3.879604 19.354827 3.450165 20.039069 -1.372972 1.397762 0.010024 -0.011086 558445.000000 1 0 0
1.813596 17.660427 -2.802635 17.973162 1.468462 1.727370 0.004188 -0.007211 302798.000000 1 0 0
2.811696 12.260227 3.292865 13.002375 1.345360 1.314757 0.005323 -0.000174 -17593.700000 1 0 0
-2.624304 16.220627 1.921665 16.543533 -1.410398 1.454375 -0.006237 0.000110 -1109280.000000 1 0 0
11.786696 12.853127 -2.567835 17.627333 0.828652 1.716990 0.023317 -0.003406 154755.000000 1 0 0
7.229796 11.757627 4.593065 14.546752 1.019491 1.249555 0.009258 -0.002284 -75561.800000 1 0 0
7.034696 15.684627 2.123965 17.320672 1.149183 1.447861 0.005424 -0.011287 -235445.000000 1 0 0
5.493496 12.233727 10.202365 16.850247 1.148737 0.920437 0.005749 0.001464 -413539.000000 1 0 0
-1.394004 14.195727 3.182465 14.614718 -1.472911 1.351280 -0.004047 0.004747 -661864.000000 1 0 0
4.604796 15.974827 1.509365 16.693634 1.290151 1.480257 0.002502 -0.012537 -4225070.000000 1 0 0
7.307896 13.242827 11.860865 19.221288 1.066543 0.905784 0.017728 -0.007488 295865.000000 1 0 0
0.829196 17.142927 -9.483135 19.608604 1.522464 2.075583 0.014717 -0.003208 704750.000000 1 0 0
9.731696 9.369727 15.624365 20.654745 0.766451 0.712922 0.030437 -0.008156 -549561.000000 1 0 0
13.607496 7.559127 -0.129335 15.566666 0.507065 1.579105 0.003544 0.004573 139513.000000 1 0 0
12.546996 13.568327 -0.139735 18.480967 0.824487 1.578357 0.034046 -0.004513 565596.000000 1 0 0
9.428596 12.377527 3.325165 15.910950 0.919817 1.360258 0.016715 -0.002593 518492.000000 1 0 0
-0.605504 13.034827 0.796665 13.073179 -1.524377 1.509820 0.001941 -0.001004 -282202.000000 1 0 0
16.100796 7.324927 -0.991535 17.716471 0.426956 1.626792 0.010141 0.006706 -845296.000000 1 0 0
-4.073504 18.416927 -2.462035 19.022046 -1.353118 1.700591 0.001559 -0.006435 103581.000000 1 0 0
11.765196 9.328027 -3.168435 15.345061 0.670365 1.778772 0.019188 -0.001673 201484.000000 1 0 0
14.779796 9.783527 7.905865 19.407794 0.584732 1.151240 0.042054 -0.008622 2537010.000000 1 0 0
4.384296 13.854027 4.648665 15.256677 1.264305 1.261176 0.006966 -0.001107 218909.000000 1 0 0
2.087996 15.994627 5.618665 17.080902 1.440987 1.235611 0.006076 -0.002195 384646.000000 1 0 0
6.071396 18.423027 5.473465 20.155113 1.252450 1.295775 0.015648 -0.018786 25857.300000 1 0 0
10.616796 17.090127 -0.833835 20.136635 1.014917 1.612217 0.033096 -0.011975 -866190.000000 1 0 0
9.996196 13.686427 -4.445835 17.521634 0.939975 1.827335 0.039040 -0.009074 1447840.000000 1 0 0
16.660596 7.969427 2.318265 18.613479 0.446170 1.445924 0.007686 0.004910 110523.000000 1 0 0
4.022796 14.028227 -0.567835 14.604673 1.291526 1.609686 0.007522 -0.009372 122517.000000 1 0 0
5.554596 13.117727 -2.484935 14.460401 1.170246 1.743498 0.007293 -0.010017 -526560.000000 1 0 0
-6.077104 16.903227 -3.173835 18.240710 -1.225663 1.745684 0.006444 -0.004314 -2120630.000000 1 0 0
18.293696 9.965927 2.591865 20.992779 0.498822 1.447016 0.024346 0.000659 294454.000000 1 0 0
7.873996 12.807227 9.304965 17.680703 1.019559 1.016579 0.018773 -0.006772 -451823.000000 1 0 0
-2.649804 15.860627 6.754965 17.441631 -1.405257 1.173106 -0.000387 0.001734 1034580.000000 1 0 0
11.077596 16.089327 6.184465 20.489685 0.967826 1.264181 0.034962 -0.010650 82333.800000 1 0 0
13.627296 11.959127 1.339365 18.180149 0.720293 1.497058 0.034456 -0.000261 1049780.000000 1 0 0
17.490996 7.866327 -5.611235 19.982492 0.422634 1.855432 0.008435 0.009161 210970.000000 1 0 0
9.546896 9.247427 8.014865 15.520831 0.769465 1.028162 0.018026 -0.000444 -511595.000000 1 0 0
-1.965204 14.079827 -2.093335 14.369607 -1.432116 1.716995 -0.006384 0.002158 642117.000000 1 0 0
11.016796 11.659927 0.751765 16.058918 0.813751 1.523966 0.020864 0.000843 -423367.000000 1 0 0
11.855396 9.823827 -0.597535 15.408278 0.691961 1.609586 0.012932 0.003159 -320230.000000 1 0 0
-0.189904 16.112827 11.041865 19.534125 -1.559011 0.970048 0.012611 -0.010161 69280.500000 1 0 0
2.213296 20.026427 -1.671535 20.217578 1.460724 1.653568 0.017819 -0.012543 -201626.000000 1 0 0
9.272396 14.368727 1.821265 17.197519 0.997720 1.464695 0.020268 -0.008834 -292557.000000 1 0 0
8.534096 11.780027 -5.324035 15.490164 0.943846 1.921655 0.016498 -0.005737 -597236.000000 1 0 0
10.557596 10.106827 10.271765 17.863929 0.763588 0.958192 0.020077 -0.005680 32325.400000 1 0 0
-5.136204 15.835227 5.707065 17.598454 -1.257150 1.240532 -0.010782 0.001463 769529.000000 1 0 0
14.556496 9.148827 -1.899135 17.297379 0.561116 1.680811 0.027013 0.006742 -551941.000000 1 0 0
12.244196 9.663527 6.948865 17.076030 0.668141 1.151698 0.025537 -0.004875 -1273730.000000 1 0 0
3.223096 12.981727 9.763765 16.560335 1.327438 0.940248 0.010122 -0.001136 -1613950.000000 1 0 0
8.611296 12.701527 -2.690635 15.579561 0.975007 1.744369 0.018047 -0.007837 -938511.000000 1 0 0
9.391996 16.942427 2.085365 19.483433 1.064621 1.463558 0.019190 -0.009509 -503073.000000 1 0 0
9.675396 14.282127 -7.546635 18.829342 0.975367 1.983177 0.038386 -0.016177 481820.000000 1 0 0
6.441796 11.516127 7.180265 15.022454 1.060786 1.072455 0.006408 0.001661 -1194870.000000 1 0 0
5.480096 16.785927 -5.632635 18.534437 1.255236 1.879581 0.018641 -0.009788 -372950.000000 1 0 0
-4.028704 17.173327 -4.781835 18.276202 -1.340372 1.835520 0.006556 -0.006258 -112782.000000 1 0 0
0.014796 18.426127 -0.330035 18.429088 1.569993 1.588706 0.002911 -0.010833 -39205.100000 1 0 0
6.569296 15.523627 -2.787135 17.085279 1.170468 1.734659 0.010908 -0.009756 945173.000000 1 0 0
-0.737004 20.693627 0.787565 20.721719 -1.535196 1.532780 0.004360 -0.007937 -127606.000000 1 0 0
-1.408204 18.871027 4.363265 19.420010 -1.496312 1.344183 -0.001267 -0.004682 228429.000000 1 0 0
7.199796 13.721927 -4.428135 16.116349 1.087590 1.849137 0.013419 -0.006549 -973206.000000 1 0 0
-1.057004 11.983527 7.613265 14.236712 -1.482819 1.006569 0.000877 0.003564 868216.000000 1 0 0
7.587296 10.852127 10.872565 17.133254 0.960639 0.883320 0.011089 -0.005470 393711.000000 1 0 0
1.472696 16.008627 -7.319135 17.663938 1.479061 1.998030 0.004314 -0.004447 -29439.300000 1 0 0
8.886596 7.129327 14.756065 18.642434 0.676115 0.657486 0.024527 -0.002375 -784617.000000 1 0 0
11.468196 11.487427 -4.728535 16.906790 0.786236 1.854260 0.035225 -0.002948 -112201.000000 1 0 0
-3.384504 17.006127 4.485365 17.910380 -1.374346 1.317668 -0.005661 -0.002289 -466480.000000 1 0 0
3.922996 15.297927 -6.787135 17.189580 1.319766 1.976690 0.015581 -0.011996 365610.000000 1 0 0
-4.540604 14.005627 9.575965 17.563421 -1.257289 0.994142 0.010243 -0.004502 -408229.000000 1 0 0
6.231996 17.624327 0.465365 18.699498 1.230916 1.545907 -0.000274 -0.020339 -691665.000000 1 0 0
9.866296 10.765027 -2.114435 14.754675 0.828932 1.714598 0.017445 -0.003106 -1283840.000000 1 0 0
7.339396 18.129327 -2.668535 19.739815 1.186128 1.706397 0.013668 -0.010677 86095.800000 1 0 0
3.542796 10.413127 10.459665 15.178577 1.242857 0.810540 0.004206 0.001577 1658220.000000 1 0 0
0.012196 18.609627 2.136965 18.731924 1.570141 1.456466 -0.004001 -0.008338 642955.000000 1 0 0
-0.898804 17.221127 -7.539735 18.820804 -1.518652 1.982975 0.021863 0.001435 -328596.000000 1 0 0
10.184796 8.710927 13.100765 18.741408 0.707556 0.796759 0.032548 -0.002959 139426.000000 1 0 0
3.664696 11.479727 5.464465 13.231572 1.261790 1.145065 0.001511 0.002213 735586.000000 1 0 0
13.125396 13.951427 8.211765 20.841099 0.815896 1.165797 0.042495 -0.010162 178862.000000 1 0 0
-0.549404 17.461427 6.762065 18.733093 -1.539343 1.201490 0.001405 -0.001840 -478988.000000 1 0 0
12.172496 13.694427 5.716965 19.193506 0.844167 1.268347 0.035480 -0.009317 -157966.000000 1 0 0
4.791596 14.515227 -4.446035 15.919121 1.251951 1.853850 0.004308 -0.005799 -1287720.000000 1 0 0
3.743696 17.624427 4.734365 18.629275 1.361492 1.313842 0.008338 -0.008346 -1922080.000000 1 0 0
7.068796 11.744427 1.967265 13.848089 1.028992 1.428254 0.011223 -0.003701 839313.000000 1 0 0
6.473796 8.681827 11.736865 15.969914 0.930071 0.745224 0.003607 -0.000393 162475.000000 1 0 0
-5.431104 14.979727 1.627065 16.016755 -1.222973 1.469036 -0.005531 0.010380 8936.120000 1 0 0
6.729296 13.797827 5.977365 16.473990 1.117031 1.199486 0.009395 -0.005306 -564759.000000 1 0 0
5.872996 15.962227 5.034665 17.737887 1.218238 1.283003 0.005234 -0.012240 1105600.000000 1 0 0
1.217996 18.074527 4.353165 18.631212 1.503511 1.334967 0.008125 -0.005820 808725.000000 1 0 0
7.333396 17.963427 -6.894335 20.591145 1.183206 1.912211 0.012547 -0.011123 279347.000000 1 0 0
-2.376304 18.881427 -6.045335 19.967503 -1.445601 1.878382 0.025907 -0.004828 -366017.000000 1 0 0
13.673396 10.152827 -4.643735 17.652363 0.638699 1.836995 0.032320 -0.000201 -1083190.000000 1 0 0
-1.613104 18.058827 9.856865 20.636887 -1.481708 1.072837 0.018880 -0.008416 -119537.000000 1 0 0
3.425796 11.812327 -1.711235 12.417547 1.288522 1.709044 0.010534 -0.008004 503089.000000 1 0 0
4.354596 13.979027 -10.938535 18.276412 1.268814 2.212431 -0.003820 -0.014266 -378616.000000 1 0 0
11.625996 13.527827 2.269065 17.980949 0.860863 1.444266 0.031444 -0.004057 833303.000000 1 0 0
15.923296 6.368027 -7.111735 18.565557 0.380436 1.963904 -0.001491 -0.001336 70791.700000 1 0 0
2.481196 16.144627 2.958665 16.599970 1.418304 1.391606 0.007299 -0.007264 -78251.900000 1 0 0
13.596896 10.672127 3.578165 17.651435 0.665462 1.366669 0.032912 0.001804 -500174.000000 1 0 0
-4.968904 19.419527 -5.949035 20.909305 -1.320299 1.859298 0.015281 -0.012191 366593.000000 1 0 0
5.492896 11.982127 -0.043835 13.181244 1.140959 1.574122 0.012743 -0.008134 -1145820.000000 1 0 0
4.605096 15.268727 9.671165 18.651337 1.277869 1.025673 0.009473 -0.007419 -270163.000000 1 0 0
7.805896 9.382527 13.911065 18.506257 0.876868 0.720168 0.013884 -0.005943 -1766110.000000 1 0 0
-4.988704 13.764927 7.092965 16.268698 -1.223099 1.119660 -0.005937 0.004434 -1060050.000000 1 0 0
-4.529404 17.205027 0.427665 17.796386 -1.313377 1.546763 -0.003634 0.001409 -2217480.000000 1 0 0
-0.689604 16.562427 3.593965 16.961902 -1.529184 1.357293 -0.001120 -0.005016 -1714810.000000 1 0 0
7.960996 16.691427 -4.757335 19.094853 1.125757 1.822591 0.017595 -0.014744 567423.000000 1 0 0
3.088196 16.430127 -4.573135 17.332039 1.385005 1.837812 0.003218 -0.006493 -640580.000000 1 0 0
9.535496 14.438027 8.166865 19.133217 0.987115 1.129798 0.028326 -0.008863 425018.000000 1 0 0
12.712996 10.936927 9.190965 19.123558 0.710441 1.069447 0.037186 -0.008811 -624896.000000 1 0 0
3.871296 12.277127 12.225265 17.753081 1.265339 0.811201 0.014200 -0.002114 798841.000000 1 0 0
-3.397704 19.244627 5.940965 20.425355 -1.396044 1.275668 0.009560 -0.009321 -81773.900000 1 0 0
-2.731504 15.751427 10.255565 18.993293 -1.399091 1.000410 0.013988 -0.005652 1479770.000000 1 0 0
2.070196 14.252027 7.668365 16.315937 1.426549 1.081514 0.009004 -0.002442 -169497.000000 1 0 0
4.375296 17.136027 7.952565 19.391491 1.320810 1.148226 0.014686 -0.014268 248060.000000 1 0 0
-1.950804 13.479827 9.359065 16.525842 -1.427074 0.968751 0.007677 -0.002255 -384008.000000 1 0 0
5.704096 17.718327 3.025665 18.858167 1.259342 1.409657 -0.006682 -0.012328 191852.000000 1 0 0
7.303196 15.309127 -6.842235 18.289949 1.125678 1.954220 0.013721 -0.011809 171587.000000 1 0 0
10.957196 7.661427 9.381365 16.333022 0.610198 0.958950 0.019788 -0.003805 -109879.000000 1 0 0
9.082796 16.129227 -2.595935 18.691924 1.057931 1.710127 0.026957 -0.021242 -1065610.000000 1 0 0
14.606396 11.256427 -6.854635 19.673332 0.656587 1.926684 0.051906 -0.005721 572560.000000 1 0 0
10.847996 6.441627 16.167465 20.507572 0.535854 0.662648 0.029109 -0.012577 -449610.000000 1 0 0
8.543096 8.547427 10.233565 15.835683 0.785652 0.868156 0.007540 0.000919 -300685.000000 1 0 0
16.468096 9.493627 4.447465 19.521964 0.522950 1.340960 0.026028 -0.003967 146974.000000 1 0 0
-3.384904 14.322227 4.607865 15.421290 -1.338716 1.267362 -0.007125 0.005577 -1510970.000000 1 0 0
4.772296 14.779627 12.662265 20.038591 1.258468 0.886802 0.014154 -0.000296 -377381.000000 1 0 0
16.307196 10.713527 -4.891535 20.115452 0.581268 1.816432 0.048361 -0.005030 1818210.000000 1 0 0
14.791496 14.025427 6.228965 21.314337 0.758820 1.274225 0.037030 -0.005777 437537.000000 1 0 0
6.236096 9.527427 9.222365 14.653081 0.991235 0.890040 0.001671 0.001750 732380.000000 1 0 0
10.394096 12.060427 8.581965 18.087047 0.859472 1.076422 0.025776 -0.010230 101757.000000 1 0 0
7.997496 11.597327 -0.390835 14.092930 0.967086 1.598533 0.013103 -0.005607 286656.000000 1 0 0
7.431796 13.560327 -8.812735 17.798268 1.069448 2.088799 0.017144 -0.005998 104271.000000 1 0 0
2.764796 15.237427 -2.325535 15.659865 1.391301 1.719851 0.002535 -0.006416 579780.000000 1 0 0
12.137796 13.446227 -7.722435 19.691702 0.836496 1.973782 0.042141 -0.022207 -1181540.000000 1 0 0
-8.109204 14.755727 9.660965 19.411978 -1.068289 1.049874 0.007119 -0.019631 284818.000000 1 0 0
11.634896 9.764527 2.255465 15.355908 0.698217 1.423384 0.020939 0.001829 -1179010.000000 1 0 0
12.185896 8.738927 4.489765 15.653207 0.622133 1.279883 0.017366 -0.000410 580034.000000 1 0 0
14.109296 8.078727 6.115465 17.370578 0.520015 1.211026 0.025597 -0.002677 -2719300.000000 1 0 0
16.257996 7.465427 7.260965 19.307425 0.430466 1.185244 0.037063 -0.006061 12773.400000 1 0 0
13.689396 8.312227 2.352065 16.187183 0.545698 1.424976 0.013330 0.003044 -2297010.000000 1 0 0
-4.120704 17.459227 -7.329735 19.378592 -1.339019 1.958689 0.017054 -0.007728 -61316.200000 1 0 0
3.375696 19.441827 -4.009135 20.135866 1.398880 1.771240 0.019301 -0.012006 650938.000000 1 0 0
-0.167004 14.852527 6.355965 16.156229 -1.559553 1.166462 0.004682 -0.001791 401465.000000 1 0 0
6.742096 16.107727 8.355565 19.357949 1.174391 1.124492 0.019011 -0.008503 69520.200000 1 0 0
12.635696 15.247327 -2.127035 19.916477 0.878790 1.677798 0.041088 -0.012939 -330895.000000 1 0 0
12.558496 15.768027 4.134265 20.577625 0.898222 1.368509 0.037991 -0.009089 -40696.100000 1 0 0
3.037896 18.092927 1.309265 18.392852 1.404443 1.499553 0.011688 -0.009701 -847651.000000 1 0 0
10.324396 14.525327 -1.160535 17.858475 0.952868 1.635827 0.028382 -0.003063 -1682770.000000 1 0 0
-6.345104 15.830927 -0.679735 17.068703 -1.189597 1.610630 -0.002153 0.004365 -232610.000000 1 0 0
-3.787304 15.894327 -2.602135 16.545223 -1.336878 1.728726 -0.004451 0.000544 -2036730.000000 1 0 0
-6.821804 17.216927 1.548165 18.583767 -1.193547 1.487392 0.000901 0.003624 392870.000000 1 0 0
0.090296 19.357927 -6.595535 20.450882 1.566132 1.899172 0.023240 -0.006711 -251242.000000 1 0 0
4.769796 14.786127 7.088865 17.077251 1.258749 1.142737 0.013671 -0.007167 -603673.000000 1 0 0
8.723096 12.446127 6.808565 16.653980 0.959488 1.149630 0.022352 -0.006704 259615.000000 1 0 0
-7.648104 17.497527 -5.700935 19.928813 -1.158725 1.860914 0.028266 -0.013873 435359.000000 1 0 0
-7.757304 17.843527 -1.545935 19.518123 -1.160704 1.650084 0.026387 -0.005494 -122812.000000 1 0 0
-13.750104 -9.128573 9.175765 18.883614 0.586079 1.063391 0.030543 -0.017268 428290.000000 1 0 0
-12.575204 -13.006473 7.750665 19.681893 0.802255 1.166038 0.019855 -0.010049 457449.000000 1 0 0
-3.986004 -14.828373 12.656965 19.898936 1.308195 0.881412 0.009190 -0.013464 411398.000000 1 0 0
-1.893704 -13.962673 15.292965 20.794642 1.435993 0.744498 0.020791 -0.005931 -342440.000000 1 0 0
-7.062004 -13.641173 12.799665 19.994622 1.093091 0.876096 0.019509 -0.016808 957.512000 1 0 0
-9.949304 -11.516773 8.932865 17.647118 0.858290 1.040030 0.011177 -0.013145 573823.000000 1 0 0
-10.737104 -10.570873 11.233565 18.794194 0.777597 0.930149 0.027670 -0.019094 467917.000000 1 0 0
-5.955004 -12.157173 10.864465 17.357867 1.115314 0.894498 0.013218 -0.013789 994747.000000 1 0 0
-12.541204 -10.378373 7.291565 17.837022 0.691311 1.149670 0.015593 -0.011244 -504937.000000 1 0 0
-7.998804 -11.276573 12.381565 18.559233 0.953836 0.840436 0.026786 -0.015628 -559767.000000 1 0 0
-14.781704 -11.450273 7.209865 20.039702 0.659076 1.202765 0.038289 -0.012459 -1346680.000000 1 0 0
-11.111404 -9.087173 9.198665 17.048620 0.685515 1.000888 0.015621 -0.012385 -538053.000000 1 0 0
-5.608904 -11.524773 13.324065 18.488129 1.117859 0.766010 0.030694 -0.024346 219566.000000 1 0 0
3.983396 -12.356873 14.854965 19.728906 -1.258952 0.718256 0.007170 -0.005464 110604.000000 1 0 0
6.600896 -12.762373 14.313965 20.281509 -1.093471 0.787295 0.015877 0.002559 240071.000000 1 0 0
6.772496 -8.473573 16.089865 19.404945 -0.896513 0.593187 0.009224 0.002150 417294.000000 1 0 0
0.691496 -1.658273 14.498465 14.609364 -1.175723 0.123293 0.009489 -0.002028 -937066.000000 1 0 0
-0.008304 -6.288873 15.492865 16.720612 1.569476 0.385600 0.009393 -0.005713 -302610.000000 1 0 0
-1.353204 -4.613073 18.258965 18.881245 1.285460 0.257450 0.016785 -0.022140 460074.000000 1 0 0
-5.220004 12.735527 12.753265 18.764004 -1.181804 0.823488 0.011172 -0.010121 -697312.000000 1 0 0
-4.061704 8.769527 11.559065 15.066984 -1.137052 0.696366 -0.003772 0.001398 -332468.000000 1 0 0
-0.599904 -3.891673 15.111165 15.615771 1.417850 0.254910 0.008923 -0.003730 81081.800000 1 0 0
-4.367704 9.148827 14.117065 17.380144 -1.125387 0.622793 -0.002854 -0.004946 535156.000000 1 0 0
-13.229904 -2.184473 16.931165 21.597838 0.163640 0.669828 0.020684 0.000770 -1076070.000000 1 0 0
-0.166704 0.984627 17.291565 17.320378 -1.403080 0.057689 0.012575 -0.004633 893454.000000 1 0 0
-3.216104 -7.352773 15.408865 17.373535 1.158470 0.480171 0.020295 -0.012572 317588.000000 1 0 0
-7.385804 5.493427 12.494165 15.518763 -0.639510 0.634951 -0.002584 0.001035 -1145160.000000 1 0 0
-9.833504 10.346027 13.313865 19.519146 -0.810791 0.820176 0.001227 -0.005635 196678.000000 1 0 0
-5.684404 2.212327 11.095465 12.661603 -0.371155 0.502652 0.007248 -0.002841 -633674.000000 1 0 0
-7.078304 -7.470973 16.864565 19.756806 0.812381 0.547924 0.015089 -0.008717 -181339.000000 1 0 0
-4.832204 3.011727 18.596465 19.448630 -0.557348 0.297119 0.011588 -0.009345 -962630.000000 1 0 0
1.097396 -8.233473 16.553865 18.520929 -1.438293 0.465065 0.005611 -0.003688 925944.000000 1 0 0
-14.894804 -3.536473 14.036365 20.769722 0.233114 0.828735 0.028743 -0.005659 -245618.000000 1 0 0
-14.327004 2.114127 13.010565 19.468112 -0.146505 0.838873 0.013799 -0.008838 -1663540.000000 1 0 0
-5.544804 1.003327 16.095965 17.053786 -0.179012 0.336745 0.008944 -0.003576 688465.000000 1 0 0
4.530996 5.731027 15.170065 16.837621 0.901808 0.448814 0.000770 0.000839 720272.000000 1 0 0
-0.940804 -11.929573 13.857465 18.309265 1.492096 0.712308 0.008783 -0.010111 -152111.000000 1 0 0
-5.737204 -4.115273 16.796965 18.220566 0.622240 0.397921 0.013665 -0.011154 -152248.000000 1 0 0
-12.928904 -1.572773 9.921965 16.373013 0.121053 0.919780 0.014018 -0.002577 -661143.000000 1 0 0
-14.722804 10.275227 10.108665 20.604037 -0.609323 1.058000 0.012855 -0.003293 442037.000000 1 0 0
-3.454104 -3.243373 17.672565 18.296717 0.753944 0.261949 0.015993 -0.016726 -2165480.000000 1 0 0
-8.056504 9.338727 11.741165 17.028624 -0.858976 0.810004 0.000602 -0.007469 -240955.000000 1 0 0
-4.130204 10.506327 16.312365 19.837710 -1.196239 0.605372 -0.003472 -0.005847 362594.000000 1 0 0
-12.324804 12.838527 8.296665 19.635763 -0.805811 1.134563 0.001520 -0.010595 -322584.000000 1 0 0
-12.666604 3.166327 10.451865 16.724532 -0.244955 0.895739 0.006934 -0.003792 1007840.000000 1 0 0
-10.064804 -3.455873 13.736765 17.376480 0.330749 0.659110 0.008981 -0.001425 -2291820.000000 1 0 0
-4.136304 -6.426673 17.701765 19.281173 0.998923 0.407573 0.027921 -0.009515 -459709.000000 1 0 0
1.066296 -3.715873 18.131365 18.538908 -1.291348 0.210067 0.015897 -0.006323 -729305.000000 1 0 0
-6.112404 1.882327 13.613465 15.040979 -0.298736 0.439201 0.002914 -0.000844 -687214.000000 1 0 0
-10.550404 8.643627 10.172365 17.014709 -0.686381 0.929971 0.001667 -0.010193 -91500.800000 1 0 0
4.582596 2.632527 17.289065 18.078776 0.521430 0.296660 0.001009 0.004483 -202504.000000 1 0 0
0.555396 -5.309373 13.256165 14.290690 -1.466569 0.382837 0.003873 -0.001811 -1298020.000000 1 0 0
-4.172804 5.705227 20.790865 21.959553 -0.939306 0.327716 0.037163 -0.007464 -412243.000000 1 0 0
-10.669504 10.933727 9.113765 17.788912 -0.797628 1.032902 0.000774 -0.006947 352395.000000 1 0 0
0.666996 4.194927 13.099465 13.770921 1.413116 0.313562 0.010888 -0.003128 -2757520.000000 1 0 0
-3.196204 7.026427 13.247165 15.332116 -1.143889 0.527607 -0.003731 0.000012 -1567610.000000 1 0 0
0.833396 8.877127 14.070965 16.658031 1.477189 0.564800 0.002116 -0.003464 591912.000000 1 0 0
-4.021304 -6.671573 13.048965 15.197245 1.028356 0.538186 0.018726 -0.006869 -220273.000000 1 0 0
-5.073604 8.112427 16.403765 18.990430 -1.011901 0.528050 0.005539 -0.000359 -17874.100000 1 0 0
1.665296 -10.660273 15.825365 19.153507 -1.415834 0.598399 -0.000996 -0.002564 259296.000000 1 0 0
-15.017704 -0.845173 14.304865 20.757526 0.056219 0.810493 0.024440 -0.004392 195777.000000 1 0 0
-13.585704 -5.223373 8.358765 16.784634 0.367052 1.049504 0.029260 -0.008575 -428394.000000 1 0 0
-14.018304 -1.967173 12.247865 18.718782 0.139419 0.857528 0.019730 -0.000691 376716.000000 1 0 0
9.442296 1.715227 16.990265 19.513279 0.179694 0.514167 0.014811 0.002059 186035.000000 1 0 0
5.056596 -6.670373 16.872965 18.835074 -0.922152 0.460508 0.008777 -0.000544 -125782.000000 1 0 0
-6.023404 -2.680973 11.215165 13.009571 0.418766 0.531456 0.005209 -0.002077 238194.000000 1 0 0
0.547396 -6.305173 17.942665 19.026142 -1.484196 0.339104 0.010189 -0.012325 -27399.600000 1 0 0
-8.304004 12.013727 11.938965 18.863324 -0.965994 0.885478 -0.006332 -0.009443 270728.000000 1 0 0
-6.587204 -5.783773 14.779465 17.183593 0.720544 0.535347 0.017153 -0.009375 -283196.000000 1 0 0
-4.359904 -8.958373 17.177865 19.858002 1.117858 0.525576 0.033011 -0.009343 191688.000000 1 0 0
2.611296 -6.074673 16.239865 17.534359 -1.164811 0.386660 0.005769 -0.005931 -732554.000000 1 0 0
2.227896 5.317927 16.234865 17.228311 1.174069 0.341252 0.004897 0.000176 -1180560.000000 1 0 0
1.031396 -8.850973 14.034165 16.624118 -1.454790 0.565716 0.002126 -0.003342 -308399.000000 1 0 0
-9.945404 -2.693073 11.316665 15.304594 0.264444 0.738574 0.002505 -0.000311 79715.900000 1 0 0
-1.308104 10.089327 12.349065 16.000158 -1.441863 0.689115 -0.001258 -0.001935 -751626.000000 1 0 0
-12.324504 -3.742773 11.428565 17.219577 0.294835 0.845047 0.016979 -0.001417 -1399610.000000 1 0 0
-1.818604 6.523627 20.050765 21.163606 -1.298927 0.325730 0.012619 -0.002856 -567651.000000 1 0 0
0.522496 -13.257973 15.685765 20.544831 -1.531407 0.702097 0.002009 -0.010479 -676443.000000 1 0 0
4.219796 -8.665373 15.405365 18.171974 -1.117625 0.559060 0.005891 -0.000625 -408299.000000 1 0 0
4.473396 -4.295073 16.187165 17.334452 -0.765064 0.365865 0.003648 0.001686 -318697.000000 1 0 0
8.188796 1.730627 14.698565 16.914469 0.208276 0.517632 0.001781 0.004415 -302156.000000 1 0 0
-6.234004 -0.160973 11.870665 13.409005 0.025816 0.483710 0.006283 -0.003894 26292.500000 1 0 0
-3.563904 -11.106473 18.517365 21.884880 1.260291 0.562122 0.038406 -0.007266 -342584.000000 1 0 0
3.330596 -1.405773 13.665965 14.136042 -0.399394 0.258611 0.005684 -0.000738 1355130.000000 1 0 0
-2.525204 8.619927 15.859865 18.226769 -1.285820 0.515307 0.003554 -0.002891 -1676040.000000 1 0 0
-3.170304 3.949527 14.899265 15.736508 -0.894408 0.327666 0.002945 -0.000154 70126.600000 1 0 0
-4.438304 -9.027873 19.862265 22.264559 1.113873 0.468819 0.038249 -0.012687 -300361.000000 1 0 0
-5.748304 -2.942473 19.074065 20.137554 0.473111 0.326444 0.017067 -0.018056 -730886.000000 1 0 0
-6.605004 -8.621273 11.068865 15.507166 0.917053 0.775901 0.014823 -0.013094 59726.600000 1 0 0
-11.781304 2.441827 12.696465 17.491765 -0.204369 0.758521 0.011109 -0.007345 166536.000000 1 0 0
-11.622704 -7.448073 11.595265 18.028067 0.569895 0.872154 0.017707 -0.008271 -2219730.000000 1 0 0
-11.039904 -7.268873 15.497065 20.368481 0.582270 0.706197 0.026260 -0.019069 13872.200000 1 0 0
0.153196 5.756027 17.759465 18.669599 1.544188 0.313531 0.004023 -0.003179 16651.100000 1 0 0
-2.210304 -0.111773 13.210765 13.394859 0.050526 0.165983 0.006911 -0.000896 50023.100000 1 0 0
-6.062404 -10.520273 18.589065 22.203203 1.048016 0.578608 0.041138 -0.004632 1174610.000000 1 0 0
0.200596 2.792427 19.158565 19.362038 1.499084 0.145102 0.011884 -0.007171 -430555.000000 1 0 0
-0.878504 10.773727 14.806165 18.332143 -1.489435 0.630621 0.005064 -0.006693 -291895.000000 1 0 0
-12.718504 -2.250473 14.389865 19.336318 0.175132 0.731477 0.016045 -0.000808 1876.410000 1 0 0
-13.686004 8.474227 11.538065 19.805205 -0.554410 0.948900 0.010943 -0.012590 -123271.000000 1 0 0
-18.227304 -0.668373 6.953165 19.519934 0.036652 1.206589 0.048190 -0.016323 548350.000000 1 0 0
-1.986504 -7.811273 17.690265 19.439847 1.321763 0.427512 0.024462 -0.013491 -1091100.000000 1 0 0
5.769096 2.804627 14.596765 15.944088 0.452504 0.414055 -0.001229 0.002038 -1749640.000000 1 0 0
-14.148404 -6.795473 11.112565 19.231352 0.447763 0.954722 0.030697 -0.010056 742184.000000 1 0 0
3.173096 7.757927 16.232665 18.268918 1.182544 0.476643 0.003643 -0.008665 -63894.100000 1 0 0
1.090596 2.129427 14.596565 14.791334 1.097472 0.162461 0.013906 -0.005693 -2888890.000000 1 0 0
-14.501804 0.588327 9.865265 17.549128 -0.040547 0.973812 0.012492 -0.003157 -1554040.000000 1 0 0
-9.480204 -5.193573 15.546065 18.934825 0.501178 0.607583 0.008019 -0.003067 -77415.400000 1 0 0
-2.376204 -0.211673 18.084465 18.241136 0.088846 0.131158 0.016278 -0.009857 56315.300000 1 0 0
6.935396 3.754727 17.777265 19.448107 0.496206 0.417545 0.021277 0.008439 86737.000000 1 0 0
-4.201604 -0.780773 14.823565 15.427286 0.183732 0.280682 0.012457 -0.000777 233052.000000 1 0 0
4.856696 -8.960073 17.909265 20.606120 -1.074087 0.517369 0.005727 0.004762 -165724.000000 1 0 0
1.851396 6.857627 13.406265 15.171772 1.307107 0.487232 0.003191 -0.001106 -2185120.000000 1 0 0
-3.677504 -0.897373 20.361965 20.710841 0.239340 0.183807 0.025927 -0.016653 -116094.000000 1 0 0
-10.755204 1.709827 16.361965 19.654817 -0.157657 0.587253 0.015349 -0.008063 -12711.900000 1 0 0
-3.792804 6.986027 18.447565 20.087374 -1.073411 0.406864 0.012542 -0.002039 -29619.500000 1 0 0
-12.730904 1.100927 14.777665 19.536308 -0.086262 0.712973 0.022291 -0.005526 -126309.000000 1 0 0
-16.061604 -4.815773 8.570865 18.831530 0.291302 1.098274 0.038219 -0.013573 -1062640.000000 1 0 0
-2.267204 0.812427 15.674965 15.858902 -0.344084 0.152452 0.010490 -0.003534 308578.000000 1 0 0
-13.438204 -8.927873 12.539165 20.433377 0.586408 0.910107 0.014813 -0.015745 406401.000000 1 0 0
6.278596 -3.097573 14.590065 16.182884 -0.458317 0.447403 0.004000 0.002349 640965.000000 1 0 0
-15.823204 0.271027 7.616565 17.563009 -0.017127 1.122234 0.015786 -0.009679 354148.000000 1 0 0
-14.208404 5.957927 12.233265 19.673037 -0.397053 0.899720 0.018091 -0.011558 194804.000000 1 0 0
0.402696 9.362127 16.667565 19.121174 1.527809 0.512174 0.000340 -0.010760 -496484.000000 1 0 0
-10.314404 -5.392673 10.902865 15.948050 0.481744 0.818046 0.008861 -0.006641 30080.200000 1 0 0
-3.152604 -10.973673 14.888765 18.762615 1.291042 0.654202 0.022729 -0.015999 -1658390.000000 1 0 0
-3.633504 2.779527 12.636865 13.439437 -0.653014 0.347338 0.005973 -0.001417 -983160.000000 1 0 0
-12.403504 -7.835273 7.389365 16.426842 0.563402 1.104216 0.020570 -0.006111 425844.000000 1 0 0
-8.235204 -1.827173 13.313665 15.761054 0.218337 0.564756 0.006879 -0.003014 -279642.000000 1 0 0
-9.794304 6.400527 9.543965 15.099086 -0.578828 0.886550 -0.002216 -0.003904 -979553.000000 1 0 0
-17.729604 -3.500373 6.779665 19.301692 0.194924 1.211893 0.033212 -0.020525 105576.000000 1 0 0
-1.247604 0.048727 20.511165 20.549131 -0.039036 0.060797 0.015754 -0.010235 -1021460.000000 1 0 0
-3.039604 2.454127 20.334865 20.706730 -0.679227 0.189803 0.035433 -0.005838 -396144.000000 1 0 0
-3.816204 11.242227 11.109465 16.259498 -1.243549 0.818578 0.001546 -0.006545 -940530.000000 1 0 0
-4.107804 -4.885573 14.840665 16.155130 0.871666 0.406185 0.017636 -0.010692 774703.000000 1 0 0
-0.113604 -14.337373 13.397065 19.622806 1.562873 0.819305 0.014661 -0.010610 -638440.000000 1 0 0
-12.332204 0.429527 8.388665 14.921040 -0.034816 0.973748 0.008848 -0.004989 -192835.000000 1 0 0
-7.825404 2.267827 15.602465 17.601616 -0.282076 0.481239 0.003119 0.004552 -345366.000000 1 0 0
3.714596 -2.087573 18.521565 19.005382 -0.512003 0.226122 0.014223 0.001038 -241726.000000 1 0 0
-2.060704 4.832727 12.618465 13.668482 -1.167735 0.394524 0.001176 0.000167 -436122.000000 1 0 0
-10.194104 -6.221973 13.296565 17.872642 0.547995 0.731816 0.001955 -0.009014 46184.400000 1 0 0
2.400796 -3.703073 14.306765 14.971977 -0.995599 0.299210 0.002678 -0.000001 -281786.000000 1 0 0
6.843696 1.313827 17.036265 18.406429 0.189669 0.388283 0.000270 0.003933 -1036510.000000 1 0 0
-1.872604 -5.717173 13.817665 15.070520 1.254269 0.410636 0.010089 -0.006791 -3366490.000000 1 0 0
-12.990004 3.725527 14.511365 19.829258 -0.279303 0.749814 0.011477 -0.000963 -18412.100000 1 0 0
-13.238804 -6.504573 13.486465 19.986499 0.456685 0.830131 0.016802 -0.006362 -207965.000000 1 0 0
-9.572004 6.767627 11.971765 16.755512 -0.615424 0.774891 -0.000297 -0.001895 -296521.000000 1 0 0
-1.002504 -2.419873 12.823265 13.088045 1.178041 0.201491 0.007709 -0.001390 660794.000000 1 0 0
0.098396 6.735527 15.323565 16.738836 1.556189 0.414172 0.005643 -0.003680 309625.000000 1 0 0
-16.615604 -0.932173 9.884865 19.356079 0.056044 1.034815 0.034595 -0.003033 206623.000000 1 0 0
-1.249504 2.753527 13.723765 14.052932 -1.144801 0.216866 0.008027 -0.001152 -1743670.000000 1 0 0
-11.116304 -3.341873 16.241165 19.962860 0.292033 0.620532 0.010589 -0.006860 1055830.000000 1 0 0
-5.186704 -1.478173 17.189565 18.015772 0.277633 0.304023 0.021816 -0.006367 260029.000000 1 0 0
-11.967504 6.607327 11.031865 17.566444 -0.504458 0.891806 0.007127 -0.003402 -2237430.000000 1 0 0
-2.771904 4.576927 18.833065 19.578459 -1.026251 0.276826 0.015469 -0.001393 311541.000000 1 0 0
5.147696 -1.707073 16.401965 17.275339 -0.320207 0.319337 0.001314 0.003880 -238150.000000 1 0 0
-8.040504 -4.070973 12.142965 15.121975 0.468681 0.638482 0.008155 -0.002102 -1635320.000000 1 0 0
-11.252904 -0.765073 16.092765 19.651724 0.067884 0.611307 0.004825 -0.008977 164362.000000 1 0 0
2.067696 2.188927 17.389065 17.647843 0.813871 0.171461 0.007183 -0.005342 -832770.000000 1 0 0
-8.966104 -7.604073 11.563565 16.490269 0.703385 0.793667 0.013931 -0.010928 262278.000000 1 0 0
-7.327804 6.890827 14.727565 17.834836 -0.754675 0.599221 -0.000501 -0.001655 -230950.000000 1 0 0
-5.586104 3.428427 15.850065 17.151770 -0.550463 0.392105 0.001202 0.000310 -155512.000000 1 0 0
-9.346604 4.189327 11.481765 15.386370 -0.421372 0.728416 -0.001953 -0.002101 -220268.000000 1 0 0
-10.232904 0.475027 14.147065 17.466465 -0.046388 0.626720 0.006334 -0.006098 -962035.000000 1 0 0
8.418096 -0.500173 15.982465 18.070797 -0.059347 0.485512 0.004713 0.006504 213514.000000 1 0 0
-8.479204 -7.505973 14.710965 18.564725 0.724590 0.656038 0.015372 -0.006169 -1420120.000000 1 0 0
-0.084504 4.183927 15.694665 16.242995 -1.550602 0.260575 0.009699 -0.008564 304676.000000 1 0 0
-8.093904 3.031427 9.541065 12.873723 -0.358360 0.736049 -0.000810 0.000258 -499301.000000 1 0 0
-1.894904 -9.651473 13.048665 16.340418 1.376929 0.645911 0.004684 -0.006609 408428.000000 1 0 0
-6.055404 10.199927 10.410765 15.782600 -1.035043 0.850462 0.001626 -0.007307 -3142350.000000 1 0 0
-8.553204 -2.853973 15.708165 18.112120 0.322056 0.521097 0.012162 -0.008135 -822447.000000 1 0 0
4.272396 5.864727 17.801365 19.223345 0.941204 0.387045 0.006598 0.004594 150647.000000 1 0 0
-6.846204 -1.005573 15.405265 16.887980 0.145838 0.422168 0.007926 -0.001654 -287152.000000 1 0 0
-0.857504 -9.887173 15.466465 18.376699 1.484284 0.570493 0.004558 -0.006050 898620.000000 1 0 0
-4.246204 5.655227 16.244165 17.716792 -0.926754 0.410605 0.006009 -0.001618 416260.000000 1 0 0
3.702096 0.226927 17.480665 17.869825 0.061220 0.209079 0.002078 0.001230 -925210.000000 1 0 0
1.427196 0.414427 19.268265 19.325493 0.282606 0.076977 0.014850 -0.005087 -448689.000000 1 0 0
-6.296504 6.382227 17.734065 19.871483 -0.792159 0.468076 0.003619 -0.003632 185735.000000 1 0 0
-12.160104 0.537727 10.963265 16.381406 -0.044192 0.837597 0.014081 -0.003022 -644267.000000 1 0 0
-5.332304 5.197627 13.971965 15.832391 -0.772609 0.489661 -0.001630 0.003670 -862842.000000 1 0 0
-8.609204 -9.539073 9.897565 16.219559 0.836591 0.914453 0.014477 -0.012238 809330.000000 1 0 0
6.794696 -3.576473 17.162865 18.802207 -0.484514 0.420681 -0.000811 0.009832 -473710.000000 1 0 0
-16.854804 1.640727 9.593165 19.462919 -0.097039 1.055383 0.025913 -0.009884 337172.000000 1 0 0
-4.122404 -9.473873 11.425265 15.404063 1.160374 0.735188 0.012550 -0.011000 1736150.000000 1 0 0
-10.988404 -3.882473 9.221665 14.861283 0.339634 0.901396 0.012359 -0.003369 -16712.200000 1 0 0
3.666996 -5.277173 18.489865 19.574742 -0.963516 0.334490 0.004218 -0.003730 -258955.000000 1 0 0
2.600496 -1.778273 16.156865 16.461140 -0.599785 0.192570 0.009777 -0.000847 -404907.000000 1 0 0
-3.100804 -4.372873 20.175965 20.875981 0.953989 0.259697 0.022706 -0.018234 -1178860.000000 1 0 0
-6.225404 -3.282973 14.419765 16.045659 0.485288 0.454067 0.013456 -0.004461 1045360.000000 1 0 0
-9.598804 4.994827 13.884365 17.602867 -0.479802 0.662014 0.002339 -0.002297 337658.000000 1 0 0
-5.886404 -5.264573 11.778065 14.180560 0.729691 0.590651 0.012823 -0.004036 -6774.480000 1 0 0
6.004796 1.839927 19.361265 20.354397 0.297327 0.313669 0.011166 -0.002221 230249.000000 1 0 0
-2.827304 11.920527 13.505265 18.234165 -1.337920 0.736748 0.012165 -0.011247 358415.000000 1 0 0
3.468996 1.419627 15.182965 15.638788 0.388440 0.242032 0.007055 0.001127 -324911.000000 1 0 0
-5.756204 7.445427 12.797965 15.885722 -0.912662 0.634063 -0.006781 -0.002576 -1087650.000000 1 0 0
-1.788904 -1.676473 15.215065 15.411325 0.752966 0.159762 0.010919 -0.005064 -267274.000000 1 0 0
-7.348304 10.585327 13.943965 18.986334 -0.963976 0.745983 0.011733 -0.013590 208015.000000 1 0 0
-10.192104 2.017827 10.591265 14.836627 -0.195452 0.775802 0.001594 0.001635 -1023080.000000 1 0 0
-13.670004 5.172927 9.167965 17.253398 -0.361761 1.010578 0.000730 -0.004206 -488572.000000 1 0 0
0.308596 -5.086473 20.285965 20.916209 -1.510201 0.246107 0.008500 -0.009930 -157567.000000 1 0 0
-14.437704 -2.929073 7.560765 16.558742 0.200160 1.096624 0.023229 -0.009252 631535.000000 1 0 0
-2.362104 2.389227 17.761465 18.076437 -0.791107 0.186951 0.011907 -0.004678 -402940.000000 1 0 0
-6.142704 -8.385673 14.479065 17.824019 0.938574 0.622652 0.018538 -0.010547 195826.000000 1 0 0
-8.079504 1.841127 11.964465 14.553919 -0.224050 0.605744 0.000613 -0.000917 -329454.000000 1 0 0
-14.478904 -3.566473 10.198065 18.065407 0.241514 0.970959 0.019050 -0.007852 -370773.000000 1 0 0
-0.607504 7.007527 12.813765 14.617355 -1.484320 0.502018 0.007741 -0.002166 -1265260.000000 1 0 0
-1.785904 -2.307173 19.378265 19.596675 0.912070 0.149439 0.016493 -0.012182 102428.000000 1 0 0
-12.709904 10.428527 7.475265 18.060327 -0.687119 1.144056 -0.000769 -0.009752 -177252.000000 1 0 0
-19.566104 2.150227 6.755365 20.810835 -0.109456 1.240199 0.038486 -0.016663 322658.000000 1 0 0
-16.244704 8.348627 6.742165 19.469123 -0.474729 1.217172 0.021580 -0.004798 328547.000000 1 0 0
-12.371504 7.236827 13.485365 19.679452 -0.529287 0.815848 0.016400 -0.009175 -134110.000000 1 0 0
-15.921204 7.918227 10.294165 20.546359 -0.461516 1.046018 0.008503 -0.012409 44781.800000 1 0 0
1.740996 10.961427 15.073765 18.719037 1.413283 0.634676 -0.003148 -0.008996 -293030.000000 1 0 0
2.219496 14.308327 12.587465 19.185897 1.416904 0.855185 0.010197 -0.009331 -658787.000000 1 0 0
-3.107604 13.634127 11.694865 18.229550 -1.346696 0.874301 -0.000880 -0.008796 157411.000000 1 0 0
8.931396 4.750027 15.678165 18.658442 0.488790 0.573012 0.017725 -0.003619 56792.000000 1 0 0
-0.385404 12.533027 12.910665 17.997516 -1.540055 0.770793 0.005367 -0.004067 -66829.900000 1 0 0
3.699296 13.455727 14.618665 20.210065 1.302501 0.762175 0.014962 -0.001236 159074.000000 1 0 0
-2.752904 -4.057373 -13.722335 14.572002 0.974650 2.798420 0.002413 -0.006484 -298494.000000 1 0 0
5.781196 -11.505673 16.392065 20.844725 -1.105179 0.665855 0.005542 0.001377 80744.900000 1 0 0
7.847696 -13.525773 7.357665 17.282017 -1.045061 1.131016 0.010285 -0.013685 -193104.000000 1 0 0
-0.150604 15.626927 1.336665 15.684712 -1.561159 1.485472 -0.002283 -0.004693 -1969640.000000 1 0 0
-13.770904 8.092327 8.910865 18.290081 -0.531281 1.061920 0.002306 -0.006957 239601.000000 1 0 0
-15.317604 -9.924073 4.739765 18.856871 0.574888 1.316717 0.017361 -0.011077 -1953540.000000 1 0 0
9.670396 -11.170373 10.997365 18.418356 -0.857247 0.930931 0.020522 -0.007425 134411.000000 1 0 0
-5.782204 -10.054573 -16.666635 20.305296 1.048900 2.533611 0.024853 -0.003729 192063.000000 1 0 0
-1.962804 -12.535373 -14.687735 19.409218 1.415476 2.429108 0.021250 0.000060 -70157.600000 1 0 0
5.505896 -16.034673 -12.230335 20.904706 -1.240036 2.195740 0.017547 0.000670 124840.000000 1 0 0
2.730396 -11.968473 -16.502435 20.567688 -1.346502 2.502014 0.017618 -0.006897 239772.000000 1 0 0
0.558396 -14.819073 -13.753235 20.225435 -1.533133 2.318555 0.025145 0.014466 224558.000000 1 0 0
-6.384204 -5.823273 -14.269335 16.681801 0.739481 2.597087 0.009908 -0.012583 -127240.000000 1 0 0
-6.388304 -8.132273 -17.011835 19.908461 0.904929 2.595389 0.014506 -0.010624 125025.000000 1 0 0
-2.387304 -16.223073 -13.050235 20.957003 1.424690 2.243004 0.020228 -0.001775 322005.000000 1 0 0
16.147796 -8.037873 -9.420035 20.349344 -0.461861 2.052078 0.039804 -0.005880 323897.000000 1 0 0
19.053696 -2.928173 -3.711835 19.631486 -0.152487 1.761017 0.016248 -0.007131 128727.000000 1 0 0
15.605196 -11.310973 -9.299435 21.399527 -0.627191 2.020349 0.041547 -0.018821 204749.000000 1 0 0
18.181596 -2.744373 -6.502035 19.503294 -0.149811 1.910684 0.106684 -0.001569 -212083.000000 1 0 0
9.370896 -9.566073 -16.138335 20.970677 -0.795704 2.448959 0.047383 -0.002627 230025.000000 1 0 0
-4.654404 9.364327 -16.218635 19.297622 -1.109523 2.568905 0.008401 -0.008413 369802.000000 1 0 0
2.535096 -9.845373 -18.478835 21.090885 -1.318780 2.638618 0.019543 0.001861 169537.000000 1 0 0
10.917196 7.841127 -14.986635 20.131261 0.622861 2.410501 0.033663 -0.033486 361071.000000 1 0 0
18.337396 -5.521073 -7.887435 20.711204 -0.292450 1.961489 0.032287 -0.019303 260394.000000 1 0 0
12.754096 5.403027 -13.865135 19.598511 0.400710 2.356692 0.037114 -0.009514 40184.700000 1 0 0
15.953996 6.452527 -10.379835 20.097415 0.384333 2.113527 0.008365 -0.017409 132530.000000 1 0 0
3.151196 -0.384573 -19.275235 19.534908 -0.121440 2.978361 0.027844 -0.006482 125068.000000 1 0 0
10.125696 -1.404473 -15.142635 18.270240 -0.137825 2.547781 0.016469 0.003571 109696.000000 1 0 0
12.349396 -5.796873 -14.237435 19.718415 -0.438874 2.377539 0.038662 0.000475 294570.000000 1 0 0
9.827196 6.001527 -12.695835 17.139905 0.548254 2.404935 0.008833 -0.005680 433547.000000 1 0 0
10.567096 5.332227 -16.482535 20.292120 0.467326 2.518817 0.031596 -0.011581 252537.000000 1 0 0
11.784096 -10.281573 -15.020635 21.683984 -0.717410 2.336031 0.047165 -0.017535 355878.000000 1 0 0
-1.361404 2.209927 -17.811835 17.999963 -1.018666 2.996887 0.007817 -0.003294 310466.000000 1 0 0
6.119396 -1.310873 -16.874235 17.997367 -0.211027 2.786444 0.013057 -0.001913 90075.900000 1 0 0
7.166796 -6.395673 -15.712535 18.416063 -0.728602 2.592881 0.010288 -0.005485 285847.000000 1 0 0
-2.168904 -4.696273 -20.605335 21.244739 1.138144 2.895628 0.031664 -0.019085 400634.000000 1 0 0
16.117796 -0.299573 -13.257935 20.872133 -0.018584 2.259061 0.017966 -0.001718 -26315.300000 1 0 0
-4.161504 -0.322073 -18.518635 18.983195 0.077240 2.919905 0.016214 -0.013283 208331.000000 1 0 0
3.596096 8.743327 -17.981835 20.315611 1.180590 2.657557 0.018997 -0.015646 157323.000000 1 0 0
9.372496 0.808727 -16.081335 18.630809 0.086074 2.612288 0.025783 -0.043381 20517.100000 1 0 0
4.215896 4.829827 -18.408835 19.493235 0.853164 2.806471 0.021039 -0.000999 461897.000000 1 0 0
-2.262504 -11.172173 -17.799035 21.136273 1.370986 2.571977 0.038455 -0.017039 203243.000000 1 0 0
5.666596 -9.786873 -15.746935 19.387088 -1.045961 2.518775 0.001021 -0.011614 34175.200000 1 0 0
9.926996 -12.454873 -10.693735 19.183980 -0.897865 2.162084 0.012217 0.000373 -10747.300000 1 0 0
6.211196 6.882327 -17.088535 19.441281 0.836610 2.644519 0.027429 -0.012643 352863.000000 1 0 0
8.318996 1.344327 -20.046835 21.746000 0.160212 2.743657 0.036614 -0.014845 189228.000000 1 0 0
-1.198804 -0.540673 -20.145235 20.188114 0.423694 3.076405 0.027935 -0.015465 178045.000000 1 0 0
-0.725704 6.734827 -19.719935 20.850908 -1.463457 2.810719 0.024313 -0.010780 118893.000000 1 0 0
8.824496 5.920227 -17.958835 20.867213 0.590918 2.607291 0.049343 -0.024824 38810.300000 1 0 0
12.344896 -0.098673 -13.757235 18.484256 -0.007993 2.410234 0.022369 0.010193 5089.450000 1 0 0
-4.226604 -2.563773 -20.039235 20.639962 0.545244 2.899736 0.009683 -0.012895 450882.000000 1 0 0
6.371896 -11.767073 -14.572035 19.784066 -1.074501 2.398758 0.005642 -0.001986 37936.400000 1 0 0
11.891796 2.920827 -15.588835 19.823164 0.240849 2.475747 0.051723 -0.008147 -112861.000000 1 0 0
-2.882304 -4.310873 -17.003435 17.776617 0.981448 2.845575 0.004267 -0.009786 310205.000000 1 0 0
-6.725204 -4.782373 -17.221535 19.096616 0.618145 2.694738 0.024679 -0.018066 60347.200000 1 0 0
3.273396 10.120927 -15.493235 18.793313 1.257986 2.539940 -0.001585 -0.008099 236485.000000 1 0 0
17.361796 -6.176673 -10.824835 21.371952 -0.341799 2.101914 0.072365 -0.017216 -100592.000000 1 0 0
9.683496 -3.717273 -17.462635 20.310880 -0.366531 2.605611 0.018082 -0.018973 146610.000000 1 0 0
-7.032004 -1.951373 -19.396435 20.723866 0.270688 2.781734 0.002749 0.015539 465145.000000 1 0 0
1.742896 -7.779473 -19.198835 20.788294 -1.350398 2.748009 0.025413 -0.012724 283696.000000 1 0 0
6.144996 10.483727 -13.877835 18.446241 1.040626 2.422402 0.013037 -0.010041 456176.000000 1 0 0
6.144596 -3.944273 -17.830535 19.267624 -0.570666 2.752924 0.018604 -0.021280 501116.000000 1 0 0
4.551696 13.033627 -15.078835 20.444183 1.234810 2.400248 0.004568 -0.007397 115655.000000 1 0 0
9.389796 11.322927 -15.464135 21.342831 0.878459 2.381190 0.046583 -0.018466 -8134.370000 1 0 0
17.373196 1.156527 -11.792435 21.029195 0.066472 2.166106 0.032089 0.007597 131188.000000 1 0 0
14.849296 -3.033873 -12.412335 19.590101 -0.201537 2.256997 0.021193 0.000362 156941.000000 1 0 0
-8.488304 0.255327 -17.316535 19.286754 -0.030071 2.685649 0.011840 -0.014136 414273.000000 1 0 0
-3.488104 4.218627 -19.103135 19.871926 -0.879906 2.862525 0.017699 -0.007170 64173.200000 1 0 0
4.490096 2.335827 -17.498235 18.215523 0.479690 2.860029 0.019583 0.006332 541551.000000 1 0 0
-5.050404 14.590827 -13.685935 20.632586 -1.237568 2.296038 0.021002 -0.007615 96535.600000 1 0 0
0.966096 9.365527 -17.792735 20.130272 1.468005 2.654889 0.012627 -0.006664 273140.000000 1 0 0
1.001096 -5.491773 -20.063635 20.825734 -1.390486 2.870228 0.022473 0.001990 534225.000000 1 0 0
3.877896 -6.369173 -18.012335 19.494837 -1.023892 2.749089 0.019389 -0.020022 96047.700000 1 0 0
-7.287004 7.047327 -15.969335 18.915203 -0.768679 2.575978 0.007954 -0.002382 103581.000000 1 0 0
-11.758904 3.419627 -16.867835 20.844412 -0.283006 2.513629 0.033185 -0.018547 180447.000000 1 0 0
-4.542604 7.007127 -17.672235 19.545919 -0.995629 2.700157 0.002668 0.019162 328465.000000 1 0 0
-8.200704 5.160227 -17.582735 20.075658 -0.561644 2.637936 0.011756 -0.010594 466618.000000 1 0 0
-8.539704 4.566327 -14.957435 17.818607 -0.491034 2.567026 -0.005491 -0.017662 527804.000000 1 0 0
9.377796 14.348727 -12.021235 20.936550 0.991920 2.182392 0.036456 -0.021167 420923.000000 1 0 0
14.032896 9.786327 -12.145935 20.981375 0.608969 2.188165 0.042704 -0.013169 137283.000000 1 0 0
8.759096 15.816127 -9.843335 20.585502 1.065034 2.069364 0.027658 -0.009855 -6773.570000 1 0 0
8.209096 13.717727 -14.418135 21.527840 1.031532 2.304660 0.028746 -0.021160 -239681.000000 1 0 0
4.378096 15.520027 -13.179435 20.826341 1.295848 2.255993 0.001806 -0.010863 133329.000000 1 0 0
10.767296 11.839527 -11.478335 19.694193 0.832792 2.193001 0.034255 -0.011493 161038.000000 1 0 0
15.789696 10.418827 -9.223635 21.046185 0.583268 2.024455 0.044495 -0.036616 303254.000000 1 0 0
13.163996 11.340427 -10.041235 20.067947 0.711117 2.094813 0.054462 -0.014390 166161.000000 1 0 0
10.386196 11.329927 -7.808135 17.239701 0.828828 2.040830 0.024521 -0.009120 -43324.200000 1 0 0
6.354796 16.669027 -9.985735 20.443943 1.206572 2.081103 0.048820 -0.013104 -162265.000000 1 0 0
11.797396 14.207727 -10.166335 21.080617 0.877821 2.074029 0.064572 -0.018046 91150.100000 1 0 0
8.080896 -19.445273 -1.520335 21.112341 -1.176939 1.642870 0.026780 -0.000668 142399.000000 1 0 0
7.569796 -17.093773 -4.037435 19.125893 -1.153913 1.783494 0.030171 -0.000308 314789.000000 1 0 0
3.927196 -18.631373 4.888465 19.658281 -1.363053 1.319487 0.037131 -0.024850 -11941.200000 1 0 0
10.235896 -17.975873 -2.338735 20.817667 -1.053163 1.683378 0.032735 -0.004185 490910.000000 1 0 0
-3.359504 -14.747873 7.897965 17.063525 1.346822 1.089581 0.022010 -0.029699 69522.900000 1 0 0
-15.414904 -12.840773 -4.375835 20.534182 0.694548 1.785543 0.021515 -0.003131 137816.000000 1 0 0
-9.201104 -12.539673 -7.432635 17.237975 0.937770 2.016594 0.018452 -0.007001 138050.000000 1 0 0
-11.248604 -15.768173 6.593065 20.460569 0.951151 1.242709 0.001757 -0.006405 318629.000000 1 0 0
-14.922304 -7.264373 -7.410635 18.175912 0.453043 1.990749 0.037893 -0.017949 -7666.020000 1 0 0
4.958396 -15.393273 6.520265 17.437099 -1.259176 1.187553 0.027778 -0.014208 236726.000000 1 0 0
2.603996 -14.062273 9.172965 16.990339 -1.387694 1.000486 0.011070 -0.003754 494411.000000 1 0 0
2.941796 -17.500273 9.823965 20.283590 -1.404253 1.065198 0.023855 -0.002597 128803.000000 1 0 0
-7.413304 -17.116473 -5.632635 19.484797 1.162077 1.864060 -0.026558 -0.006549 -201138.000000 1 0 0
1.818196 -19.771073 -4.068835 20.267131 -1.479092 1.772930 0.020116 -0.011794 -108607.000000 1 0 0
-18.562104 -10.311573 -2.048135 21.332489 0.507069 1.666955 0.031735 -0.009730 -160233.000000 1 0 0
-4.185704 -14.627773 2.628065 15.440162 1.292096 1.399754 -0.001023 -0.002876 152800.000000 1 0 0
-10.626104 -9.825173 -14.777935 20.684184 0.746255 2.366642 0.018094 -0.002266 248192.000000 1 0 0
0.890996 -20.350673 2.374965 20.508150 -1.527042 1.454730 0.031256 -0.010811 242815.000000 1 0 0
5.344296 -18.251473 0.093265 19.018057 -1.285945 1.565892 0.008038 -0.007959 218815.000000 1 0 0
-7.546804 -18.727973 -3.327235 20.463668 1.187733 1.734114 -0.001189 -0.016626 125359.000000 1 0 0
-9.292504 -15.485373 -7.635735 19.607444 1.030316 1.970809 0.037949 -0.011619 27348.600000 1 0 0
-11.995704 -10.790673 -12.932335 20.678028 0.732564 2.246459 0.034154 0.010985 166927.000000 1 0 0
-13.446304 -15.099873 -3.526235 20.524220 0.843260 1.743461 0.028680 -0.008573 180352.000000 1 0 0
-0.415204 -20.416073 -2.554135 20.579408 1.550462 1.695228 0.030161 -0.013787 456592.000000 1 0 0
-12.158504 -17.063073 -0.509835 20.957996 0.951689 1.595125 0.029779 -0.005493 256886.000000 1 0 0
0.718896 -20.055473 5.248165 20.743241 -1.534966 1.315010 0.029016 -0.012522 160332.000000 1 0 0
-18.263804 -9.345773 2.370565 20.652593 0.472972 1.455760 0.041240 0.001255 -36485.600000 1 0 0
-15.257004 -14.856473 -0.894835 21.314119 0.772098 1.612792 0.036575 -0.007813 -85112.100000 1 0 0
10.103096 -15.628273 -4.988735 19.266628 -0.996912 1.832712 0.027437 -0.001229 -67544.800000 1 0 0
-0.061404 -18.996173 -7.040035 20.258837 1.567564 1.925705 0.011615 -0.005749 220978.000000 1 0 0
-9.958004 -16.487173 -2.516535 19.424769 1.027452 1.700714 0.022226 -0.018922 534666.000000 1 0 0
-14.860104 -6.510973 -11.450735 19.857865 0.412957 2.185400 0.032210 -0.005556 19725.000000 1 0 0
-12.489304 -14.889073 2.045465 19.541012 0.872827 1.465929 0.017695 -0.018141 293522.000000 1 0 0
-2.691004 -16.132873 10.098365 19.222073 1.405515 1.017667 0.010098 -0.013911 267659.000000 1 0 0
-12.248904 -14.295273 -6.586735 19.944311 0.862339 1.907371 0.022461 -0.003883 167611.000000 1 0 0
5.083996 -17.066873 -7.317635 19.252869 -1.281279 1.960679 0.016633 -0.002704 28071.400000 1 0 0
-17.832704 -7.373773 -2.790235 19.497776 0.392087 1.714395 0.006247 -0.000373 17983.500000 1 0 0
-11.984204 -13.542073 -9.757135 20.547763 0.846353 2.065592 0.028836 -0.011778 67821.200000 1 0 0
-7.953904 -13.637573 9.753065 18.557216 1.042796 1.017415 0.018693 -0.013846 531334.000000 1 0 0
-15.893104 -8.542373 -5.803235 18.953639 0.493187 1.881975 0.023445 0.008349 173754.000000 1 0 0
-0.831304 -19.660973 0.251565 19.680148 1.528540 1.558013 0.014497 -0.010844 137036.000000 1 0 0
-14.835304 -11.294773 -1.800335 18.732308 0.650722 1.667053 -0.005900 -0.002479 146923.000000 1 0 0
-7.121004 -18.860573 1.238265 20.198099 1.209783 1.509452 0.002977 -0.007343 153396.000000 1 0 0
-2.005904 -20.825373 -5.176635 21.552665 1.474772 1.813353 0.007677 -0.002397 252721.000000 1 0 0
-8.941304 -19.709873 -1.188135 21.675739 1.144915 1.625638 0.002860 0.007251 -145982.000000 1 0 0
-17.871604 -7.630973 4.903865 20.041803 0.403554 1.323605 0.049725 -0.012505 125246.000000 1 0 0
-3.082104 -15.901173 -10.792835 19.463606 1.379342 2.158575 0.013003 0.005719 126837.000000 1 0 0
-3.192704 -18.194573 -8.676735 20.408860 1.397089 2.009919 0.000346 0.005211 226236.000000 1 0 0
4.464796 -18.045973 -4.943235 19.236089 -1.328255 1.830689 0.013212 0.015387 719411.000000 1 0 0
0.548996 -17.421873 -8.928435 19.584178 -1.539295 2.044180 0.012202 0.003352 12086.700000 1 0 0
-7.408404 -11.218273 -13.912035 19.346287 0.987154 2.373312 0.011993 -0.036835 276195.000000 1 0 0
-5.351004 -19.230373 -1.904735 20.051646 1.299404 1.665931 0.007304 -0.011214 339243.000000 1 0 0
-10.297204 -15.356873 8.622365 20.401253 0.980126 1.134441 0.013628 -0.028191 279650.000000 1 0 0
-7.450104 -14.906873 -10.181635 19.529071 1.107328 2.119238 0.025319 -0.011685 262161.000000 1 0 0
-12.575204 -7.969173 -12.512835 19.447738 0.564846 2.269738 0.019771 -0.005272 345433.000000 1 0 0
-15.755504 -13.151973 3.144165 20.762853 0.695576 1.418779 0.028475 -0.004735 105463.000000 1 0 0
-5.951604 -14.324073 -13.545235 20.593058 1.177003 2.288634 -0.006887 0.011566 338741.000000 1 0 0
-14.107104 -12.288173 -6.575735 19.830529 0.716596 1.908792 0.027892 0.006666 148672.000000 1 0 0
-12.171604 -10.500773 -8.360735 18.119494 0.711837 2.050394 0.039848 -0.001819 396806.000000 1 0 0
-9.682704 -14.593573 3.613365 17.882493 0.984996 1.367334 -0.004022 -0.008044 518325.000000 1 0 0
4.772596 -18.231773 8.175165 20.542847 -1.314768 1.161508 0.044361 -0.018980 203695.000000 1 0 0
-4.914204 -16.930273 5.504465 18.468424 1.288298 1.268150 -0.002496 0.016382 434440.000000 1 0 0
-18.264804 -7.408273 -6.656335 20.803662 0.385328 1.896483 0.012283 -0.017411 100187.000000 1 0 0
-17.144104 -4.702073 -10.789635 20.795336 0.267685 2.116300 0.028942 -0.002236 -194697.000000 1 0 0
-15.632804 -4.353273 -13.238535 20.942644 0.271590 2.255099 0.010823 -0.007374 330763.000000 1 0 0
-19.381804 -4.739673 -5.963935 20.825161 0.239836 1.861244 0.028559 -0.007551 25037.600000 1 0 0
5.787496 -13.441673 8.765365 17.058878 -1.164223 1.031153 0.037978 -0.006881 189443.000000 1 0 0
19.884096 -3.203673 2.737665 20.325738 -0.159745 1.435696 0.035930 -0.008473 69755.100000 1 0 0
18.095596 -2.509073 0.176465 18.269570 -0.137778 1.561137 0.021889 -0.011998 335154.000000 1 0 0
14.420496 -11.481973 0.270965 18.435288 -0.672435 1.556098 0.045587 -0.001436 57629.900000 1 0 0
11.149996 -13.822173 5.187965 18.501078 -0.891999 1.286571 0.030362 -0.010108 438331.000000 1 0 0
10.273996 -12.515873 8.030565 18.074625 -0.883454 1.110403 0.038307 -0.038573 1943.780000 1 0 0
18.372496 5.417827 -5.179735 19.842659 0.286760 1.834896 0.014821 0.015546 7510.120000 1 0 0
18.797296 -6.269873 -4.730435 20.372203 -0.321947 1.805136 0.041844 -0.009666 -35336.200000 1 0 0
17.534696 -10.133273 0.090865 20.252335 -0.524010 1.566310 0.052421 -0.003673 235772.000000 1 0 0
17.588096 -8.818673 8.953565 21.616578 -0.464767 1.143734 0.063448 -0.005219 -30203.100000 1 0 0
20.068796 0.235627 -1.868235 20.156944 0.011740 1.663614 0.042753 -0.006191 -27005.400000 1 0 0
7.626896 -13.352773 11.683265 19.312296 -1.051834 0.921074 0.021777 -0.000935 342824.000000 1 0 0
16.219196 -6.450473 -3.503935 17.803047 -0.378527 1.768906 0.045264 -0.002865 251499.000000 1 0 0
14.568296 -6.670673 12.008765 20.023576 -0.429396 0.927631 0.019755 -0.020195 374851.000000 1 0 0
16.456596 1.548327 10.694965 19.687538 0.093809 0.996511 0.039536 -0.006545 300034.000000 1 0 0
16.699496 -9.995173 2.633965 19.639614 -0.539339 1.436276 0.039390 -0.007660 247903.000000 1 0 0
16.547896 -7.939473 -6.359335 19.424450 -0.447347 1.904334 0.057437 0.007029 256691.000000 1 0 0
18.078596 -4.572573 5.780365 19.523235 -0.247732 1.270214 0.070805 -0.008045 -36168.700000 1 0 0
13.057396 -13.300973 8.104665 20.324790 -0.794639 1.160635 0.029853 -0.024223 175838.000000 1 0 0
15.050996 -14.522073 -1.450635 20.964910 -0.767515 1.640045 0.035985 -0.002042 209969.000000 1 0 0
18.617396 -6.455773 7.899865 21.229515 -0.333786 1.189507 0.049566 -0.006420 288499.000000 1 0 0
19.646296 3.282227 2.204065 20.040157 0.165537 1.460591 0.028310 -0.009016 346569.000000 1 0 0
15.743396 -10.706073 8.225665 20.739723 -0.597201 1.162971 0.043049 -0.024875 372981.000000 1 0 0
14.139296 -4.228773 10.686765 18.221119 -0.290612 0.944060 0.010250 -0.006305 -131298.000000 1 0 0
18.765896 -7.736873 2.010565 20.397560 -0.391051 1.472067 0.058547 -0.006023 -4494.600000 1 0 0
18.891396 -5.706473 -1.352535 19.780749 -0.293352 1.639226 0.034909 -0.012117 149906.000000 1 0 0
14.406996 -13.805373 -6.004535 20.837570 -0.764077 1.863100 0.052812 -0.012766 423765.000000 1 0 0
13.860296 -9.605673 10.168465 19.691990 -0.606036 1.028183 0.012324 -0.012273 302485.000000 1 0 0
14.215196 2.186527 0.474365 14.390196 0.152620 1.537826 -0.006756 0.000598 -169170.000000 1 0 0
12.970496 2.782327 13.717065 19.082269 0.211310 0.768667 0.022923 -0.004132 48562.000000 1 0 0
18.232296 -3.650573 9.102465 20.702613 -0.197613 1.115557 0.036718 -0.005295 246275.000000 1 0 0
7.065196 -18.065573 4.520665 19.917790 -1.197998 1.341835 0.035135 -0.026905 301582.000000 1 0 0
11.971296 -3.007273 15.438365 19.766101 -0.246114 0.674447 -0.010504 0.021213 192992.000000 1 0 0
12.047396 -14.157273 -7.224835 19.944081 -0.865740 1.941482 0.045863 0.000836 286356.000000 1 0 0
10.640396 -17.474073 4.740765 21.000860 -1.023840 1.343092 0.046508 -0.020891 453298.000000 1 0 0
18.307196 -0.334373 -5.390535 19.087250 -0.018263 1.857107 0.019146 -0.005175 42220.700000 1 0 0
4.550096 -13.886773 11.550965 18.627148 -1.254163 0.901908 0.019347 -0.004721 251950.000000 1 0 0
9.109796 -2.476573 12.791765 15.898146 -0.265443 0.635782 -0.005936 -0.018256 305354.000000 1 0 0
9.063896 -9.407973 13.835465 19.028512 -0.804023 0.756721 0.009414 -0.009723 356278.000000 1 0 0
20.881996 5.246427 -3.355135 21.790817 0.246147 1.725381 0.034703 0.001157 419745.000000 1 0 0
14.563496 -13.589273 1.920565 20.011305 -0.750807 1.474674 0.029353 -0.005271 242416.000000 1 0 0
10.997196 -0.091573 15.009265 18.607116 -0.008327 0.632349 0.007477 -0.004530 64698.800000 1 0 0
19.067896 0.572027 7.651665 20.553828 0.029990 1.189338 0.035995 -0.010695 155115.000000 1 0 0
19.838296 1.198027 0.689565 19.886397 0.060316 1.536114 0.030527 -0.005848 241678.000000 1 0 0
17.994796 0.263127 2.877465 18.225305 0.014621 1.412250 0.022707 -0.004733 -82978.000000 1 0 0
10.301896 -8.397173 16.343765 21.065618 -0.683886 0.682735 0.017720 0.004281 110247.000000 1 0 0
19.017996 2.943527 5.394165 19.986134 0.153557 1.297512 0.030293 -0.005121 132923.000000 1 0 0
15.011896 2.664627 7.025565 16.787371 0.175671 1.139000 0.016716 -0.003500 -13547.300000 1 0 0
11.315796 -16.107473 1.866765 19.773284 -0.958382 1.476247 0.015913 -0.001479 227523.000000 1 0 0
8.111396 -16.389273 7.090265 19.613130 -1.111220 1.200914 0.027508 -0.010355 496218.000000 1 0 0
6.231196 6.535427 7.018765 11.436900 0.809224 0.910065 0.004024 0.003347 -1429780.000000 1 0 0
18.546096 2.817527 -6.311135 19.792084 0.150767 1.895335 0.004349 0.001453 449757.000000 1 0 0
14.354496 4.391127 -7.072735 16.593889 0.296866 2.011112 0.011081 -0.006649 240270.000000 1 0 0
-10.742504 -3.881273 -13.871335 17.968851 0.346707 2.452724 0.025342 -0.001812 -404779.000000 1 0 0
7.725996 -14.179673 -10.287835 19.146637 -1.071905 2.138050 0.007598 0.006331 144327.000000 1 0 0
1.881696 -15.573373 14.138565 21.117996 -1.450551 0.837257 0.015391 -0.007320 253204.000000 1 0 0
-9.514604 -7.820373 2.094165 12.492856 0.687973 1.402372 0.002889 0.001899 230656.000000 1 0 0
-13.705804 3.040227 -9.676835 17.050899 -0.218286 2.174295 0.009238 -0.003001 438146.000000 1 0 0
-13.111404 -5.276073 -13.252535 19.374611 0.382577 2.324050 0.033410 0.000901 -54409.800000 1 0 0
-17.965904 -1.374173 -8.740835 20.026588 0.076339 2.022458 0.043481 -0.024645 343631.000000 1 0 0
-12.428204 14.790027 4.718865 19.886499 -0.871955 1.331221 0.021057 -0.021720 85083.600000 1 0 0
-17.371504 6.372527 9.307965 20.712712 -0.351596 1.104720 0.017366 -0.007566 57654.500000 1 0 0
-13.087304 14.987327 0.262065 19.898898 -0.852973 1.557626 0.033451 -0.031253 111909.000000 1 0 0
-16.199104 5.340827 -10.444135 20.000384 -0.318476 2.120221 0.039716 -0.006221 -257422.000000 1 0 0
-18.421104 2.868127 -0.208435 18.644212 -0.154458 1.581976 0.043973 -0.006013 -106802.000000 1 0 0
-9.203804 15.355527 -0.346335 17.905925 -1.030832 1.590139 0.005905 -0.008724 -135673.000000 1 0 0
-18.611904 12.186527 2.870165 22.431055 -0.579722 1.442490 0.080442 -0.013231 48295.000000 1 0 0
-8.636704 16.241527 -7.969935 20.047436 -1.082059 1.979646 0.043825 -0.025156 -22026.000000 1 0 0
-15.011504 -1.824773 -12.938835 19.901972 0.120965 2.278550 0.015237 -0.017799 147160.000000 1 0 0
-19.124704 4.865727 -4.833235 20.317228 -0.249135 1.810988 0.050612 -0.009087 -81991.100000 1 0 0
-16.953704 9.445427 -5.909235 20.287021 -0.508301 1.866363 0.036717 0.005809 -58906.000000 1 0 0
-18.914704 1.176027 2.753065 19.150155 -0.062095 1.426534 0.026526 -0.017704 324623.000000 1 0 0
-13.191304 11.947527 -6.942435 19.103698 -0.735962 1.942720 0.013930 -0.006572 -360246.000000 1 0 0
-13.780604 4.069327 -12.393635 18.975422 -0.287134 2.282522 0.046818 -0.028027 125107.000000 1 0 0
-14.068204 9.492627 -6.576035 18.200784 -0.593583 1.940463 0.014784 -0.005802 84315.100000 1 0 0
-6.342604 11.351427 -15.369335 20.132063 -1.061260 2.439397 0.008396 -0.024509 225120.000000 1 0 0
-15.119504 13.767827 2.906665 20.654325 -0.738641 1.429599 0.038155 -0.021942 25375.400000 1 0 0
-18.785604 8.104227 -4.970035 21.054184 -0.407284 1.809105 0.052051 -0.006315 316498.000000 1 0 0
-3.841204 16.889827 -10.012035 20.006547 -1.347173 2.094901 0.016838 -0.004908 49373.500000 1 0 0
-19.393504 -2.133373 -6.715835 20.633994 0.109564 1.902310 0.025221 -0.014956 -392078.000000 1 0 0
-10.591704 13.328527 -6.161235 18.105100 -0.899317 1.918036 0.016900 -0.030023 41829.000000 1 0 0
-19.187304 3.060827 4.370765 19.915443 -0.158191 1.349529 0.027218 -0.008314 -6783.480000 1 0 0
-15.334104 12.387927 0.288065 19.714930 -0.679520 1.556184 0.026669 -0.004232 47195.300000 1 0 0
-17.391304 2.685727 -8.003135 19.331858 -0.153219 1.997626 0.009717 -0.014021 151819.000000 1 0 0
-16.378604 12.308227 -5.102235 21.113595 -0.644449 1.814869 0.018114 -0.006591 292336.000000 1 0 0
-10.672104 15.708427 -8.667035 20.875008 -0.974039 1.998945 0.030796 -0.015376 -41946.500000 1 0 0
-19.178304 1.737527 -6.747335 20.404726 -0.090352 1.907815 0.037048 -0.018911 203944.000000 1 0 0
-17.008804 10.326527 -0.535835 19.905368 -0.545644 1.597719 0.025041 0.001420 -27780.400000 1 0 0
-11.660404 6.546127 -14.630935 19.821227 -0.511552 2.401113 0.015901 -0.017565 455425.000000 1 0 0
-13.706504 13.223827 -5.174535 19.736100 -0.767477 1.836083 0.036044 -0.000188 276974.000000 1 0 0
-18.887804 7.557227 0.245665 20.345052 -0.380602 1.558721 0.043140 -0.003171 18705.600000 1 0 0
-14.116204 9.026527 -11.132235 20.116462 -0.568919 2.157224 0.008322 0.016803 374902.000000 1 0 0
-18.421004 11.278527 5.204365 22.217650 -0.549389 1.334355 0.040865 -0.024247 104330.000000 1 0 0
-8.016204 12.244427 -13.445335 19.873664 -0.991137 2.313851 -0.006421 0.005480 503405.000000 1 0 0
-21.188304 -1.607673 -5.233835 21.884283 0.075730 1.812296 0.033688 -0.023555 308872.000000 1 0 0
-10.900604 13.650427 -3.683435 17.852871 -0.896938 1.778611 0.017681 0.005074 562741.000000 1 0 0
-18.631504 -4.989873 3.973665 19.693191 0.261678 1.367623 0.027504 -0.011137 102964.000000 1 0 0
-11.523004 11.456227 -12.545035 20.528094 -0.782492 2.228265 0.024609 -0.010434 137589.000000 1 0 0
-14.936504 11.433827 -10.116435 21.358225 -0.653345 2.064233 0.026654 -0.001752 290165.000000 1 0 0
-12.707904 9.627227 -13.949635 21.184113 -0.648333 2.289614 0.037760 -0.011061 272188.000000 1 0 0
-17.927004 -5.151673 -3.060635 18.901976 0.279829 1.733434 -0.028614 -0.003687 -184036.000000 1 0 0
-9.520304 12.504027 -11.487535 19.466647 -0.920052 2.201996 0.024798 -0.011089 -36284.800000 1 0 0
-15.015804 7.556227 -8.474235 18.825079 -0.466219 2.037737 -0.012237 0.001767 -84150.900000 1 0 0
-14.593804 8.984527 2.014265 17.255668 -0.551840 1.453799 0.018816 0.000312 -151501.000000 1 0 0
-19.867304 5.979427 7.722865 22.138337 -0.292345 1.214457 0.045512 -0.015004 172847.000000 1 0 0
-18.814804 5.952327 3.209965 19.993272 -0.306401 1.409546 0.018640 -0.001475 158574.000000 1 0 0
-14.633804 12.661227 5.932365 20.239759 -0.713255 1.273324 0.024866 -0.015792 39327.300000 1 0 0
18.206196 6.335327 5.856665 20.147021 0.334871 1.275842 0.021972 -0.003529 174534.000000 1 0 0
18.196196 7.615927 0.514165 19.732417 0.396391 1.544737 0.010950 0.006642 -141933.000000 1 0 0
17.060896 4.392427 8.504965 19.562771 0.251983 1.121033 0.036466 -0.002701 -22507.500000 1 0 0
11.558596 13.332427 10.707265 20.639774 0.856542 1.025386 0.028712 -0.015646 48930.400000 1 0 0
15.467296 12.309527 4.159465 20.200566 0.672201 1.363404 0.036665 -0.010649 208441.000000 1 0 0
5.184896 10.252327 14.580665 18.563112 1.102576 0.667350 0.015195 -0.002892 281290.000000 1 0 0
13.136196 13.261627 -5.459935 19.448426 0.790150 1.855360 0.052257 -0.008738 204287.000000 1 0 0
17.784296 9.329327 -2.968535 20.300979 0.483119 1.717549 0.013220 0.002084 -78502.900000 1 0 0
14.690096 7.467927 9.559765 19.051456 0.470317 1.045133 0.044929 -0.002492 20986.700000 1 0 0
4.566496 18.972327 -1.332435 19.559587 1.334597 1.638971 0.001707 -0.015251 440484.000000 1 0 0
-4.324604 20.126427 3.780465 20.930054 -1.359143 1.389176 -0.007660 0.026944 277545.000000 1 0 0
6.993296 12.825527 12.654265 19.326944 1.071597 0.856948 0.028493 -0.003445 3462.550000 1 0 0
0.572596 16.936227 -10.374235 19.869283 1.537000 2.120136 0.010249 0.005774 -113873.000000 1 0 0
10.646596 9.127127 15.706165 21.055595 0.708706 0.728854 0.045929 -0.018791 45578.400000 1 0 0
-1.248604 12.385227 1.055465 12.492672 -1.470322 1.486209 -0.000796 0.002187 498029.000000 1 0 0
-4.819404 19.001727 -2.397735 19.749466 -1.322404 1.692504 0.012106 -0.004073 163789.000000 1 0 0
5.775396 18.332727 6.371665 20.249498 1.265606 1.250700 0.018912 -0.021626 193500.000000 1 0 0
10.854696 17.552427 -1.628935 20.701825 1.016946 1.649563 0.028917 -0.005111 303656.000000 1 0 0
18.563996 10.667927 3.172165 21.644613 0.521576 1.423710 0.021568 -0.000262 208641.000000 1 0 0
11.444796 15.852527 7.028065 20.776902 0.945488 1.225725 0.043793 -0.011947 -34029.300000 1 0 0
18.074796 7.769827 -6.354435 20.674799 0.405989 1.883205 0.009957 0.011548 441367.000000 1 0 0
0.579996 15.634827 10.756665 18.986575 1.533717 0.968495 0.006284 -0.005807 471936.000000 1 0 0
1.307596 20.195527 -1.902735 20.327063 1.506140 1.664540 0.012630 -0.007588 272814.000000 1 0 0
14.555796 9.765227 -1.176235 17.567424 0.590915 1.637802 0.028613 0.000765 49495.800000 1 0 0
10.328296 16.813227 2.181165 19.852349 1.019931 1.460705 0.044248 -0.026778 268695.000000 1 0 0
-0.064104 17.479527 -0.314335 17.482470 -1.567129 1.588777 -0.006232 -0.008800 -130343.000000 1 0 0
-0.012604 21.094027 1.253865 21.131264 -1.570199 1.511424 0.013341 -0.001993 248713.000000 1 0 0
6.135296 17.069127 -0.299435 18.140744 1.225738 1.587303 0.002283 -0.028922 -87962.200000 1 0 0
6.473896 18.430727 -2.918635 19.751492 1.233003 1.719107 -0.004877 -0.020109 52821.000000 1 0 0
10.050796 9.497427 12.584965 18.697619 0.757098 0.832433 0.028191 -0.008794 139324.000000 1 0 0
13.381496 14.852427 8.370365 21.673072 0.837449 1.174277 0.047056 -0.009288 -770.121000 1 0 0
0.388996 17.513327 6.900265 18.827681 1.548589 1.195556 0.000868 -0.008379 149799.000000 1 0 0
6.823596 17.944027 -7.695735 20.682696 1.207412 1.952051 0.009164 -0.014024 146612.000000 1 0 0
-1.009704 18.537027 9.300365 20.763854 -1.516381 1.106369 0.031472 -0.015186 92002.400000 1 0 0
16.389496 6.601427 -7.905935 19.357124 0.382904 1.991524 0.039383 -0.000391 -337606.000000 1 0 0
-5.063004 19.810227 -6.809935 21.551202 -1.320577 1.892295 0.013730 -0.012199 329363.000000 1 0 0
3.682896 15.476827 9.764265 18.666461 1.337179 1.020322 0.015908 -0.010892 90760.300000 1 0 0
8.839596 15.010927 7.866865 19.114234 1.038595 1.146619 0.022715 -0.001223 -153939.000000 1 0 0
-2.883004 19.034827 6.711365 20.388201 -1.420479 1.235362 0.016925 -0.011449 -29892.900000 1 0 0
4.674596 17.768627 8.595065 20.284257 1.313544 1.133236 0.015512 -0.017154 91846.800000 1 0 0
13.680496 11.413927 -6.997035 19.141374 0.695321 1.945015 -0.040167 -0.024091 -45098.900000 1 0 0
11.657696 6.727127 15.760765 20.725777 0.523377 0.706802 0.044569 -0.014159 154253.000000 1 0 0
17.161696 9.090227 4.956165 20.042944 0.487110 1.320927 0.022118 -0.006366 130920.000000 1 0 0
5.241896 14.718827 11.838665 19.602942 1.228666 0.922383 0.010520 -0.027343 263608.000000 1 0 0
16.473996 11.640427 -5.016535 20.785998 0.615138 1.814545 0.069683 0.037154 86601.300000 1 0 0
15.242896 14.324327 7.009565 22.060513 0.754341 1.247449 0.036353 0.016639 100488.000000 1 0 0
12.882696 13.710227 -8.249635 20.542411 0.816507 1.984049 0.082739 -0.034435 381226.000000 1 0 0
-8.672704 15.470127 9.387665 20.066611 -1.059844 1.083968 0.016362 -0.018287 164944.000000 1 0 0
-4.972104 17.042427 -7.268235 19.183153 -1.286927 1.959389 0.014187 0.008853 9598.600000 1 0 0
3.005096 18.952127 -4.734035 19.764230 1.413543 1.812673 0.025094 -0.030739 108829.000000 1 0 0
7.049696 16.432027 9.193765 20.105597 1.165524 1.095869 0.016884 -0.013698 540136.000000 1 0 0
13.080896 15.815427 -1.509335 20.579496 0.879750 1.644204 0.040649 -0.012575 142708.000000 1 0 0
12.627996 16.712627 4.208065 21.365533 0.923723 1.372544 0.042060 -0.014468 267906.000000 1 0 0
2.253596 18.381127 0.857265 18.538593 1.448801 1.524538 -0.000059 -0.012957 -281312.000000 1 0 0
-6.389704 18.053727 1.673065 19.224061 -1.230627 1.483656 -0.034621 0.026565 273003.000000 1 0 0
0.300896 20.008827 -5.936235 20.873011 1.555759 1.859174 0.021932 0.001317 204047.000000 1 0 0
-7.159704 18.050227 -6.299635 20.414638 -1.193177 1.884501 0.025804 -0.018782 -73215.800000 1 0 0
-7.302904 18.595927 -1.185435 20.013649 -1.196586 1.630062 0.024774 -0.009360 -56906.100000 1 0 0
-14.526104 -8.882773 8.685965 19.114323 0.548836 1.099073 0.042209 -0.019622 361874.000000 1 0 0
-12.833004 -13.882173 7.487465 20.333786 0.824650 1.193694 0.013249 -0.008757 8822.680000 1 0 0
-3.528804 -15.594873 12.982265 20.595915 1.348264 0.888816 0.015863 -0.006959 182292.000000 1 0 0
-2.756104 -13.713073 14.982165 20.496579 1.372455 0.751070 0.030037 -0.043547 496758.000000 1 0 0
-7.520704 -13.584873 13.629765 20.661081 1.065187 0.850399 0.008112 -0.012276 104742.000000 1 0 0
-10.406004 -11.400473 11.557265 19.282792 0.830971 0.928099 0.043768 -0.007424 -150650.000000 1 0 0
-7.960504 -10.612673 13.059965 18.616153 0.927235 0.793241 0.033199 -0.008796 423784.000000 1 0 0
-15.215804 -12.123573 7.720465 20.931013 0.672771 1.193022 0.036495 -0.002971 352398.000000 1 0 0
-4.737104 -11.599173 12.954065 18.021897 1.183070 0.768728 0.029992 -0.038632 39694.400000 1 0 0
3.732796 -12.666173 13.992365 19.239335 -1.284204 0.756447 0.007183 0.003387 525025.000000 1 0 0
6.806696 -13.370773 15.013965 21.225641 -1.099917 0.785054 0.025499 0.004746 226756.000000 1 0 0
7.157896 -9.262973 16.451465 20.191306 -0.912898 0.618447 0.008942 0.000198 535316.000000 1 0 0
-5.140704 13.448527 13.375965 19.652128 -1.205684 0.822165 0.002030 -0.004968 488213.000000 1 0 0
-13.129804 -1.513973 17.596765 22.007499 0.114801 0.644200 0.026861 -0.015948 362283.000000 1 0 0
-10.097704 11.134927 13.772465 20.387030 -0.834210 0.829085 -0.003069 0.042685 309039.000000 1 0 0
-7.529604 -8.300173 16.969965 20.336360 0.834038 0.583636 0.020376 -0.012511 126490.000000 1 0 0
-5.155004 2.186227 18.254565 19.094051 -0.401106 0.297630 0.014281 -0.007427 593243.000000 1 0 0
-15.583104 -3.462173 14.686965 21.691628 0.218624 0.827009 0.045713 -0.007723 53856.900000 1 0 0
-14.624004 2.881827 12.536265 19.476251 -0.194568 0.871513 0.014118 -0.005275 242033.000000 1 0 0
-13.897804 10.746327 10.100065 20.264348 -0.658209 1.049026 -0.041152 0.022861 -6942.870000 1 0 0
-4.478904 11.164527 15.722765 19.796782 -1.189279 0.653093 0.009241 -0.008318 195858.000000 1 0 0
-12.832904 13.112027 7.541965 19.836580 -0.796156 1.180778 0.002197 -0.027344 23554.300000 1 0 0
-3.880004 -6.324673 18.610865 20.035474 1.020531 0.379377 0.031409 -0.009476 265363.000000 1 0 0
0.573696 -3.053873 17.660665 17.931937 -1.385102 0.174162 0.010072 -0.019526 199838.000000 1 0 0
-4.396004 6.453827 21.331465 22.715812 -0.972836 0.350917 0.028313 0.000236 199170.000000 1 0 0
2.213296 -10.521973 16.588965 19.768772 -1.363469 0.575078 0.001261 -0.008781 259205.000000 1 0 0
-15.381504 -0.309073 13.610065 20.540693 0.020091 0.846524 0.031581 -0.009864 43928.700000 1 0 0
-13.910404 -5.959673 7.853965 17.049980 0.404775 1.092076 0.027313 -0.006551 -23648.800000 1 0 0
10.131496 1.092527 17.189465 19.982956 0.107420 0.535122 0.020767 0.022050 341455.000000 1 0 0
-7.466504 12.455727 12.014665 18.847970 -1.030786 0.879610 -0.000949 -0.002838 -239695.000000 1 0 0
-1.575504 7.431727 19.914065 21.313910 -1.361892 0.364443 0.015202 -0.011243 474367.000000 1 0 0
1.200896 -13.919073 15.613465 20.951445 -1.484732 0.729930 0.003303 -0.000401 514115.000000 1 0 0
-3.401704 -11.398573 17.628065 21.266117 1.280778 0.593609 0.028969 -0.024282 414593.000000 1 0 0
-2.059304 9.091227 16.540565 18.986348 -1.348040 0.513192 0.004877 -0.007752 151247.000000 1 0 0
-4.651004 -9.470273 20.675665 23.212088 1.114281 0.471851 0.053232 -0.017568 237600.000000 1 0 0
-6.639204 -2.665273 18.895465 20.204487 0.381751 0.361941 0.014595 -0.025817 225733.000000 1 0 0
-10.873404 -8.176973 15.721265 20.790670 0.644790 0.713357 0.051774 -0.015517 358364.000000 1 0 0
0.032096 6.659327 18.027465 19.218147 1.565977 0.353855 0.005927 0.002434 235758.000000 1 0 0
-6.098704 -11.148873 19.300365 23.108346 1.070241 0.582278 0.047448 -0.005097 465559.000000 1 0 0
-0.168104 3.457227 18.588965 18.908472 -1.522211 0.184094 0.012642 -0.013759 -29825.800000 1 0 0
-18.927304 -0.133273 7.308065 20.289613 0.007041 1.202327 0.056453 -0.017031 386859.000000 1 0 0
-1.465804 -8.446473 17.212965 19.229604 1.398967 0.462077 0.021473 -0.019306 -23360.500000 1 0 0
6.197396 3.544727 15.010665 16.622060 0.519554 0.443962 0.000622 0.000534 615566.000000 1 0 0
-13.845204 -6.789473 10.212265 18.495323 0.455926 0.985851 0.028377 -0.009679 161137.000000 1 0 0
3.564596 8.374927 16.839865 19.142278 1.168395 0.495521 0.014247 0.001282 71420.200000 1 0 0
6.387096 4.517827 17.637265 19.294530 0.615633 0.417496 0.024164 -0.016765 271935.000000 1 0 0
5.633096 -9.194373 18.404065 21.330211 -1.021114 0.529981 0.019184 0.012092 293009.000000 1 0 0
-4.472704 -0.785873 19.854265 20.366996 0.173929 0.224860 0.019309 -0.014891 779931.000000 1 0 0
-11.410804 1.944527 17.008065 20.573330 -0.168790 0.597571 0.037460 -0.014218 92629.800000 1 0 0
-16.803604 -4.263573 8.787965 19.436241 0.248486 1.101630 0.044502 -0.017376 303546.000000 1 0 0
-13.159804 -9.424173 11.778465 20.018185 0.621472 0.941732 0.034225 -0.028029 10020.600000 1 0 0
-14.534904 5.922027 13.124665 20.459488 -0.386899 0.874350 0.008257 -0.008733 383251.000000 1 0 0
1.254096 9.463527 17.076465 19.563659 1.439045 0.509750 0.006511 -0.009117 200331.000000 1 0 0
-3.826804 -10.304773 14.910265 18.524275 1.215219 0.635283 0.026337 -0.014741 819823.000000 1 0 0
-18.593604 -3.135473 6.930665 20.089485 0.167060 1.218569 0.097047 -0.017721 -269452.000000 1 0 0
-0.536904 -0.428073 20.923565 20.934829 0.673092 0.032806 0.020078 -0.015406 419094.000000 1 0 0
-2.107904 2.404327 20.514165 20.761864 -0.850997 0.154624 0.013355 -0.005205 75539.000000 1 0 0
-8.014204 2.147827 16.525765 18.491661 -0.261849 0.465299 -0.000655 0.014306 631662.000000 1 0 0
2.806696 -2.113673 18.799965 19.125476 -0.645471 0.184761 0.012493 -0.004179 37853.500000 1 0 0
-12.217504 4.271527 14.424465 19.379849 -0.336339 0.731307 -0.008102 0.000078 139258.000000 1 0 0
-13.492304 -5.608973 13.296065 19.755713 0.393981 0.832507 0.031961 -0.002014 26802.100000 1 0 0
-17.491504 -1.107873 9.561865 19.965203 0.063253 1.071365 0.042991 -0.019460 40796.800000 1 0 0
-7.284904 7.839127 14.763465 18.234079 -0.822027 0.627218 0.000133 -0.001031 22954.900000 1 0 0
-9.390304 0.898127 14.262865 17.100110 -0.095354 0.584333 0.005978 -0.003276 99450.600000 1 0 0
7.996296 -0.859273 15.210665 17.205913 -0.107048 0.486366 0.006077 0.004944 104980.000000 1 0 0
4.115396 6.492927 18.496465 20.030322 1.005874 0.393890 0.007078 0.007640 81571.100000 1 0 0
1.523396 0.517327 20.207765 20.271708 0.327369 0.079447 0.008899 0.003097 81148.500000 1 0 0
-7.016204 6.965527 17.523465 20.120077 -0.781774 0.513676 0.007446 -0.007441 724786.000000 1 0 0
7.644896 -3.712173 16.761365 18.792765 -0.452041 0.469256 -0.003753 0.014449 323063.000000 1 0 0
-16.411304 2.465027 9.430665 19.087815 -0.149088 1.054035 0.020859 -0.007954 223575.000000 1 0 0
4.060696 -5.918673 19.069565 20.375678 -0.969472 0.359995 0.011698 -0.002666 69895.500000 1 0 0
-3.860704 -3.946273 20.554365 21.282858 0.796358 0.262397 0.023398 -0.020183 362110.000000 1 0 0
-9.588704 5.700227 14.520665 18.310804 -0.536346 0.655061 -0.001709 -0.001407 -102451.000000 1 0 0
6.426196 2.432027 19.973065 21.121886 0.361796 0.331332 0.021688 -0.002951 -66699.900000 1 0 0
-7.363004 11.345527 14.513465 19.838737 -0.995139 0.750171 0.011036 -0.014157 42163.500000 1 0 0
-14.421704 4.981327 8.619465 17.524107 -0.332575 1.056568 0.002969 -0.015336 173700.000000 1 0 0
0.694696 -5.927873 20.499365 21.350556 -1.454137 0.283320 0.004321 -0.003761 139425.000000 1 0 0
-5.995804 -8.217173 13.555665 16.947792 0.940436 0.643754 0.016901 -0.011928 213996.000000 1 0 0
-12.788604 10.238227 6.547865 17.642115 -0.675091 1.190550 -0.011639 -0.014503 99040.100000 1 0 0
-19.669904 2.317727 7.684765 21.244589 -0.117290 1.200675 0.019993 -0.012592 125043.000000 1 0 0
-15.577604 8.966527 6.466965 19.101884 -0.522288 1.225420 0.003080 -0.011241 96830.000000 1 0 0
-12.812704 7.930827 13.961065 20.542023 -0.554260 0.823532 0.012620 -0.008643 340084.000000 1 0 0
-16.639504 8.531527 10.192065 21.296437 -0.473777 1.071759 0.017906 -0.025238 241856.000000 1 0 0
2.065096 10.991827 14.181165 18.060740 1.385086 0.667789 -0.007690 -0.044529 325061.000000 1 0 0
1.505496 14.160827 13.196565 19.415068 1.464880 0.823433 0.015013 -0.026538 593907.000000 1 0 0
8.865496 4.699527 16.624465 19.417915 0.487430 0.543042 0.020923 -0.007028 48176.200000 1 0 0
-0.815804 13.356027 13.110365 18.733143 -1.509791 0.795611 0.008280 0.000069 71406.300000 1 0 0
4.501896 13.040627 14.911965 20.314815 1.238385 0.746539 0.030769 0.008618 86752.900000 1 0 0
-3.565604 -4.461073 -13.441135 14.604068 0.896500 2.739820 -0.000046 -0.010157 172249.000000 1 0 0
5.071296 -11.710973 16.989165 21.248451 -1.162137 0.644253 -0.043088 0.021911 235442.000000 1 0 0
8.590896 -14.032573 7.052365 17.901186 -1.021446 1.165859 0.016717 -0.012647 258882.000000 1 0 0
-0.396504 15.375727 0.454065 15.387539 -1.545014 1.541283 -0.002928 -0.003444 -569668.000000 1 0 0
-14.374304 7.585027 8.380665 18.286300 -0.485545 1.094711 0.012533 -0.006650 14138.900000 1 0 0
-15.967104 -9.842973 5.428265 19.526868 0.552430 1.289096 0.024331 -0.009453 203890.000000 1 0 0
9.210696 -10.422873 11.360965 17.959531 -0.847060 0.885907 0.008778 -0.002503 85703.500000 1 0 0
-24.858504 6.163527 31.661865 40.723555 -0.243043 0.680143 0.044539 -0.012936 -430938.000000 0 0 1
-24.050304 5.103327 31.281645 39.786962 -0.209092 0.666115 0.029600 -0.006627 574301.000000 0 0 1
-22.781004 5.197927 31.954675 39.586536 -0.224329 0.631385 0.019634 0.000924 703739.000000 0 0 1
-21.625404 4.375127 31.366185 38.348890 -0.199620 0.613016 0.036337 -0.006360 -21030.400000 0 0 1
-21.739104 3.015127 31.661695 38.524571 -0.137817 0.606133 0.010276 -0.010297 719898.000000 0 0 1
-20.465604 2.408127 31.395255 37.553988 -0.117128 0.580838 0.022506 -0.009722 735251.000000 0 0 1
-20.176804 1.088227 32.094745 37.925721 -0.053882 0.561884 0.018475 -0.007257 -162614.000000 0 0 1
-20.884004 0.001027 31.569765 37.852235 -0.000049 0.584430 0.023237 0.008293 65554.300000 0 0 1
-20.963604 -0.914973 32.634503 38.798462 0.043618 0.571429 0.020227 0.004148 26311.900000 0 0 1
-21.673204 -2.227473 32.314565 38.973331 0.102416 0.593219 0.028796 -0.021734 -173322.000000 0 0 1
-20.698004 -3.059973 31.713475 37.993622 0.146776 0.583199 0.046268 -0.025819 296626.000000 0 0 1
-20.839104 -4.434873 31.933375 38.388498 0.209687 0.588368 0.055663 -0.035204 -72716.400000 0 0 1
-22.213704 -5.083773 31.538485 38.909760 0.224983 0.625698 0.053588 -0.027978 1641110.000000 0 0 1
-23.352504 -4.737873 32.395455 40.215077 0.200168 0.634185 0.053988 -0.024975 1145160.000000 0 0 1
-23.316504 -5.291873 33.706337 41.325300 0.223178 0.616971 0.048348 -0.019450 -155785.000000 0 0 1
-24.464404 -4.665673 -33.918035 42.079789 0.188450 2.508229 0.047392 -0.013896 442383.000000 0 0 1
-24.569204 -4.974273 -32.544595 41.079677 0.199760 2.485253 0.045071 -0.016159 661028.000000 0 0 1
-25.843804 -4.562373 -32.027435 41.406208 0.174736 2.455131 0.030039 -0.010581 452270.000000 0 0 1
-25.946484 -5.014073 -30.550545 40.394266 0.190894 2.428449 0.018633 0.001195 -695321.000000 0 0 1
-26.157804 -6.416273 -30.427195 40.635126 0.240542 2.417032 0.027467 -0.001833 512087.000000 0 0 1
-26.038254 -6.902073 -29.106575 39.658820 0.259115 2.394878 0.002343 0.005409 -137856.000000 0 0 1
-26.121094 -8.420973 -29.073065 39.980838 0.311862 2.384994 0.008458 0.002622 1538.670000 0 0 1
-27.447424 -8.898773 -28.947765 40.872024 0.313519 2.357818 0.028457 0.000174 -200862.000000 0 0 1
-27.574144 -10.301073 -28.722595 41.127035 0.357523 2.343938 0.032722 0.000357 -154214.000000 0 0 1
-29.020484 -10.649273 -28.378375 41.963409 0.351701 2.313477 0.063367 -0.007267 -69488.300000 0 0 1
-29.113054 -11.468473 -27.242015 41.487627 0.375262 2.287138 0.074177 -0.012523 150806.000000 0 0 1
-30.467674 -11.771573 -26.907025 42.318283 0.368695 2.259873 0.067309 -0.014402 518476.000000 0 0 1
-30.491604 -12.307173 -25.409185 41.555157 0.383627 2.228697 0.054328 -0.007000 -169506.000000 0 0 1
-30.406504 -11.302873 -24.389935 40.585457 0.355897 2.215489 0.053714 -0.004922 158166.000000 0 0 1
-30.311644 -12.005173 -23.202235 40.015792 0.377104 2.189313 0.040209 -0.006091 -284638.000000 0 0 1
-30.072434 -11.226473 -21.841635 38.825790 0.357292 2.168269 0.033866 -0.006729 233619.000000 0 0 1
-29.578804 -12.030073 -20.773535 38.094200 0.386280 2.147567 0.026793 -0.002837 -679475.000000 0 0 1
-28.294904 -12.516473 -20.825935 37.295888 0.416481 2.163249 0.022343 -0.011658 -1506380.000000 0 0 1
-27.745194 -13.130373 -19.502735 36.367006 0.442018 2.136815 0.016342 -0.014459 -157405.000000 0 0 1
-27.390504 -12.083173 -18.624035 35.257587 0.415465 2.127308 0.006900 -0.015229 163274.000000 0 0 1
-27.114844 -12.530373 -17.305735 34.521203 0.432889 2.095905 0.011327 -0.008012 -79943.300000 0 0 1
-26.900014 -11.346973 -16.335035 33.454415 0.399174 2.080911 0.008077 -0.015018 -582756.000000 0 0 1
-25.720414 -10.617273 -16.451035 32.324955 0.391488 2.104734 0.025905 -0.016531 -158059.000000 0 0 1
-25.766254 -9.435273 -15.659735 31.593536 0.351022 2.089394 0.043264 -0.024220 82179.200000 0 0 1
-24.387204 -8.719173 -15.746035 30.310020 0.343368 2.117061 0.048713 -0.020054 641763.000000 0 0 1
-23.342204 -9.349673 -15.014735 29.286808 0.380979 2.109099 0.031487 -0.019817 -184269.000000 0 0 1
-22.187104 -8.576773 -15.070835 28.159522 0.368872 2.135535 0.057580 -0.049638 -540731.000000 0 0 1
-21.023504 -9.070273 -14.208535 26.946986 0.407308 2.126189 0.046914 -0.021294 -265210.000000 0 0 1
-20.189504 -10.092673 -14.733935 26.954906 0.463565 2.149112 0.048976 -0.008126 279457.000000 0 0 1
-19.144404 -10.306773 -13.799635 25.752043 0.493870 2.136329 0.051949 -0.004610 51630.100000 0 0 1
-18.108404 -11.357873 -14.244435 25.686952 0.560191 2.158606 0.060951 0.001253 -23279.000000 0 0 1
-17.289904 -11.058973 -15.362235 25.636691 0.569044 2.213333 0.063118 -0.018886 -4979.140000 0 0 1
-17.925704 -11.228573 -16.623935 26.902917 0.559602 2.236895 0.058816 -0.026566 -335165.000000 0 0 1
-17.108504 -10.835373 -17.876635 27.012595 0.564569 2.293999 0.055418 -0.024200 -349452.000000 0 0 1
-17.839404 -10.989673 -19.045635 28.315251 0.552126 2.308551 0.046303 -0.016879 379277.000000 0 0 1
-17.115804 -10.538273 -20.193535 28.491837 0.551887 2.358518 0.046551 -0.020148 136144.000000 0 0 1
-17.901204 -10.971073 -21.426535 29.998566 0.549828 2.366351 0.055782 -0.020556 961116.000000 0 0 1
-19.099404 -10.208173 -21.671835 30.637599 0.490847 2.356554 0.049636 -0.022935 1781200.000000 0 0 1
-20.147604 -10.882773 -22.468135 32.080801 0.495251 2.346699 0.057125 -0.016393 1392050.000000 0 0 1
-21.394904 -9.994973 -22.584635 32.675788 0.437037 2.333908 0.035540 -0.010393 -163549.000000 0 0 1
-21.044204 -8.886873 -23.446935 32.735207 0.399578 2.369225 0.026390 -0.014638 685273.000000 0 0 1
-22.113904 -8.440773 -24.293235 33.918028 0.364628 2.369187 0.018777 -0.011412 305840.000000 0 0 1
-21.573304 -7.615473 -25.474235 34.239444 0.339349 2.409837 0.018105 -0.019429 -72543.000000 0 0 1
-20.660304 -8.344073 -26.255505 34.435784 0.383838 2.437885 0.031936 -0.027286 -132898.000000 0 0 1
-20.300004 -7.610973 -27.373655 34.918964 0.358705 2.471750 0.018725 -0.038883 -191701.000000 0 0 1
-19.096304 -8.184473 -28.146965 34.984369 0.404907 2.505728 0.041853 -0.041697 -314825.000000 0 0 1
-19.349404 -9.388873 -28.784185 35.931597 0.451760 2.499898 0.045658 -0.030781 -208727.000000 0 0 1
-18.201304 -10.081973 -29.190265 35.846969 0.505844 2.522322 0.025873 -0.020438 -389244.000000 0 0 1
-18.460604 -11.287373 -30.132235 37.096499 0.548782 2.518823 0.037889 -0.019353 -348435.000000 0 0 1
-19.023404 -10.861373 -31.335715 38.233315 0.518784 2.531495 0.039362 -0.012669 264136.000000 0 0 1
-19.291004 -11.998473 -32.195295 39.403594 0.556419 2.527098 0.025103 -0.011950 255335.000000 0 0 1
-20.089204 -11.704173 -33.509065 40.785061 0.527535 2.535011 0.028334 -0.014303 -142404.000000 0 0 1
-19.316004 -10.988673 34.044739 40.655912 0.517230 0.578311 0.030185 -0.012545 -189499.000000 0 0 1
-19.739604 -11.075273 32.718682 39.784743 0.511301 0.605192 0.038837 -0.020711 -220590.000000 0 0 1
-19.170204 -12.291273 31.887945 39.184348 0.570140 0.620147 0.043323 -0.015792 -506844.000000 0 0 1
-17.825804 -12.105773 31.527385 38.187498 0.596571 0.599542 0.049918 -0.011937 -65643.800000 0 0 1
-17.373804 -12.947373 30.439305 37.363549 0.640437 0.618621 0.046641 -0.015137 66479.600000 0 0 1
-17.307904 -14.486573 30.587365 38.013303 0.696893 0.635712 0.043081 -0.011601 40842.800000 0 0 1
-18.606404 -15.112273 30.612445 38.880597 0.682141 0.664306 0.038770 -0.015680 654525.000000 0 0 1
-18.545104 -16.416873 31.037275 39.708274 0.724600 0.673518 0.049897 -0.017739 -77568.900000 0 0 1
-18.794804 -16.575773 32.594335 41.114372 0.722744 0.655452 0.018299 -0.019631 -797448.000000 0 0 1
-17.664904 -16.217173 33.282821 41.021844 0.742696 0.624349 0.039765 -0.016266 -729831.000000 0 0 1
-17.942504 -15.998073 -33.838965 41.508401 0.728171 2.523926 0.030936 -0.011966 -193695.000000 0 0 1
-16.677004 -15.488273 -33.158545 40.218132 0.748458 2.540057 0.035033 -0.007559 -280708.000000 0 0 1
-16.272004 -14.200373 -33.522565 39.877200 0.717519 2.569269 0.030274 -0.010240 42060.200000 0 0 1
-15.196404 -13.640873 -32.747545 38.592821 0.731509 2.584016 0.043736 -0.006576 399457.000000 0 0 1
-15.383004 -13.399373 -31.235235 37.307103 0.716589 2.563024 0.056888 -0.013757 -297731.000000 0 0 1
-15.563304 -14.601973 -30.491725 37.217997 0.753540 2.530939 0.053531 -0.015229 -113250.000000 0 0 1
-15.812804 -14.377273 -29.144295 36.140568 0.737884 2.508861 0.050249 -0.012318 -196681.000000 0 0 1
-15.815304 -15.695473 -28.317025 36.032286 0.781595 2.474913 0.063013 -0.011676 236914.000000 0 0 1
-14.583404 -16.202573 -27.824555 35.346922 0.837944 2.477027 0.059794 -0.017841 185700.000000 0 0 1
-13.849404 -16.999773 -28.738995 36.148694 0.887167 2.489840 0.058319 -0.016795 167916.000000 0 0 1
-12.386804 -17.295173 -28.316785 35.417457 0.949280 2.497284 0.048061 -0.018714 493987.000000 0 0 1
-11.460704 -16.233273 -28.441085 34.695276 0.956054 2.531752 0.047834 -0.018526 -720213.000000 0 0 1
-10.156504 -16.614073 -28.155245 34.233022 1.022095 2.536516 0.061557 -0.025085 -329097.000000 0 0 1
-9.114404 -15.520873 -28.360065 33.589629 1.039816 2.576073 0.056769 -0.022694 -71492.800000 0 0 1
-9.343204 -14.463973 -27.448695 32.402667 0.997264 2.581324 0.051195 -0.019358 991750.000000 0 0 1
-8.126404 -13.694173 -27.172235 31.494431 1.035229 2.611506 0.052189 -0.018253 1242720.000000 0 0 1
-8.103604 -12.251673 -27.714335 31.366483 0.986429 2.654218 0.038077 -0.024112 -138350.000000 0 0 1
-7.920704 -12.260073 -29.086245 32.543150 0.997198 2.676488 0.056819 -0.019992 152501.000000 0 0 1
-7.986204 -10.931173 -29.541625 32.495809 0.939834 2.711892 0.045738 -0.025176 474331.000000 0 0 1
-6.905204 -10.711573 -30.676755 33.218714 0.998192 2.747846 0.045800 -0.010202 1350300.000000 0 0 1
-5.530904 -10.747073 -30.214995 32.542839 1.095503 2.761064 0.055485 -0.011228 1178910.000000 0 0 1
-4.544204 -10.574073 -31.196085 33.251414 1.164910 2.788154 0.060477 -0.013812 20423.000000 0 0 1
-4.398304 -9.130273 -31.693275 33.274174 1.121873 2.832102 0.045444 -0.013551 -870120.000000 0 0 1
-3.106604 -8.881773 -32.210405 33.556625 1.234324 2.857378 0.033681 -0.024325 122858.000000 0 0 1
-2.912104 -7.526873 -32.480775 33.468417 1.201639 2.898052 0.019671 -0.023475 271595.000000 0 0 1
-1.510504 -7.071273 -32.977185 33.760617 1.360348 2.925742 0.035670 -0.024246 347944.000000 0 0 1
-1.318604 -7.283373 34.161607 34.954279 1.391693 0.213371 0.041258 -0.025977 715897.000000 0 0 1
0.000096 -6.846573 33.773449 34.460433 -1.570782 0.200010 0.036558 -0.017951 1137320.000000 0 0 1
0.596196 -7.469773 32.467442 33.320981 -1.491151 0.226829 0.025962 -0.012988 -90574.400000 0 0 1
-0.123904 -7.053273 31.321155 32.105744 1.553231 0.221530 0.019105 -0.011209 243671.000000 0 0 1
0.401996 -7.559773 30.084675 31.022563 -1.517671 0.246520 0.010672 -0.011699 -65992.000000 0 0 1
-0.013804 -6.884273 28.747595 29.560406 1.568791 0.235047 0.020522 -0.009012 -136868.000000 0 0 1
0.699496 -5.719273 28.441165 29.018946 -1.449096 0.199885 0.011958 -0.002441 -69486.500000 0 0 1
0.476496 -5.398373 27.085395 27.622239 -1.482758 0.197477 0.011052 0.003203 -388175.000000 0 0 1
-0.708404 -4.488573 26.743635 27.126945 1.414264 0.168307 0.011834 0.008702 104366.000000 0 0 1
-1.966004 -5.086873 26.990105 27.535563 1.201994 0.199374 0.004244 0.005066 -145404.000000 0 0 1
-3.008104 -4.131673 26.765845 27.249401 0.941486 0.188671 0.011539 -0.007079 792397.000000 0 0 1
-4.408804 -4.733573 27.108785 27.869885 0.820907 0.234240 0.015268 -0.005168 492506.000000 0 0 1
-4.834004 -5.833873 26.348915 27.416546 0.878852 0.279988 0.018320 -0.002609 384370.000000 0 0 1
-6.207504 -6.163773 26.606115 28.007330 0.781863 0.317657 0.012797 -0.010445 1061490.000000 0 0 1
-6.515204 -7.624573 26.411785 28.251803 0.863695 0.362901 0.021002 -0.014914 -172934.000000 0 0 1
-5.954804 -8.320873 27.460125 29.304523 0.949646 0.356681 0.023138 -0.015089 -332266.000000 0 0 1
-6.183704 -9.728273 27.463015 29.784135 1.004581 0.397405 0.032450 -0.020726 -151936.000000 0 0 1
-5.457104 -10.438773 28.591935 30.923239 1.089097 0.390786 0.035358 -0.022560 -60242.200000 0 0 1
-5.865004 -11.785173 28.658465 31.537219 1.109023 0.430592 0.052990 -0.025804 174179.000000 0 0 1
-5.112904 -12.440673 29.666675 32.573359 1.180858 0.425663 0.059017 -0.026729 135706.000000 0 0 1
-5.007604 -14.010673 29.597405 33.126748 1.227532 0.465807 0.066282 -0.033126 393893.000000 0 0 1
-6.377404 -14.402973 29.652135 33.576272 1.153960 0.488308 0.074129 -0.033862 181691.000000 0 0 1
-6.510304 -15.808573 29.591515 34.175325 1.180141 0.523902 0.072653 -0.032420 68683.000000 0 0 1
-6.614904 -16.462273 30.966805 35.689024 1.188720 0.520271 0.074875 -0.025129 -198236.000000 0 0 1
-7.893004 -16.317473 31.527045 36.366386 1.120262 0.521790 0.086710 -0.030356 -432305.000000 0 0 1
-7.874604 -16.662773 32.895000 37.705947 1.129319 0.510687 0.083467 -0.023825 -22041.800000 0 0 1
-9.205304 -17.108073 33.565657 38.782433 1.077160 0.524676 0.079950 -0.014325 438175.000000 0 0 1
-9.714804 -18.415073 33.197135 39.185994 1.085355 0.560163 0.074706 -0.021805 356703.000000 0 0 1
-10.430504 -18.442973 31.967945 38.352160 1.056090 0.585317 0.065082 -0.024836 -505564.000000 0 0 1
-10.974904 -19.769173 31.550415 38.816200 1.064006 0.621827 0.060440 -0.029582 47656.700000 0 0 1
-12.172404 -20.122573 32.232465 39.900090 1.026772 0.630336 0.065612 -0.022747 218700.000000 0 0 1
-12.555704 -21.457573 32.097115 40.599236 1.041374 0.659034 0.050071 -0.021219 -156406.000000 0 0 1
-11.820304 -22.544073 32.955204 41.641329 1.087883 0.657690 0.048926 -0.022370 715229.000000 0 0 1
-10.486404 -22.865973 32.491137 41.091257 1.140811 0.658834 0.040448 -0.019081 847209.000000 0 0 1
-9.613304 -23.299673 33.523677 41.941952 1.179480 0.644688 0.046227 -0.024153 290640.000000 0 0 1
-9.877204 -24.715773 34.081319 43.243091 1.190608 0.663026 0.041418 -0.019145 -311074.000000 0 0 1
-9.382104 -25.668853 33.188607 42.992994 1.220376 0.688887 0.048042 -0.014737 -165087.000000 0 0 1
-9.405104 -27.019273 33.604126 44.133144 1.235825 0.705286 0.042010 -0.013143 -1155050.000000 0 0 1
-8.776904 -27.984263 32.574489 43.832070 1.266876 0.733007 0.038680 -0.016714 818560.000000 0 0 1
-7.403104 -27.597643 32.372045 43.178527 1.308715 0.723149 0.037621 -0.023788 332081.000000 0 0 1
-6.551904 -28.206523 33.321425 44.145812 1.342560 0.715441 0.040189 -0.026927 -775512.000000 0 0 1
-5.140304 -27.586603 33.286568 43.536640 1.386576 0.700431 0.049572 -0.031682 -83481.600000 0 0 1
-5.077604 -26.247133 33.887357 43.163029 1.379703 0.667936 0.043429 -0.029112 13692.700000 0 0 1
-5.191804 -25.114293 33.019850 41.809007 1.366941 0.660349 0.052044 -0.026740 4125.200000 0 0 1
-4.912004 -23.831673 33.776630 41.628562 1.367530 0.624285 0.057838 -0.025653 560730.000000 0 0 1
-3.537104 -23.645373 34.110842 41.655304 1.422308 0.611333 0.046981 -0.020897 350722.000000 0 0 1
-3.355204 -22.423173 -33.726195 40.638803 1.422267 2.549727 0.040520 -0.023674 63541.000000 0 0 1
34.720364 -14.567773 2.065165 37.709264 -0.397266 1.516003 0.102247 -0.037072 501025.000000 0 0 1
35.535554 -15.487373 2.840165 38.867736 -0.411006 1.497659 0.070406 -0.036867 666419.000000 0 0 1
34.741714 -16.225573 3.736165 38.525509 -0.436929 1.473665 0.081037 -0.030268 -70001.000000 0 0 1
35.427024 -16.424373 5.098865 39.380611 -0.434115 1.440955 0.072029 -0.021862 318191.000000 0 0 1
-35.789520 -17.426473 5.106865 40.132926 0.453125 1.443202 0.084717 -0.027682 682420.000000 0 0 1
-35.006265 -17.264873 6.304765 39.538140 0.458188 1.410652 0.074888 -0.016331 -262054.000000 0 0 1
-33.785934 -18.138073 6.479165 38.890341 0.492693 1.403415 0.056284 -0.013998 -713371.000000 0 0 1
-34.022337 -19.511873 6.533565 39.760786 0.520708 1.405726 0.067263 -0.019030 138569.000000 0 0 1
-32.909444 -20.099673 7.179365 39.224630 0.548292 1.386727 0.043544 -0.009213 56754.600000 0 0 1
-32.998464 -21.611273 7.384065 40.130664 0.579824 1.385741 0.044404 -0.006237 -284154.000000 0 0 1
-32.775544 -22.471373 6.279965 40.232286 0.601006 1.414063 0.063968 -0.007408 178016.000000 0 0 1
-33.075654 -23.771373 6.660865 41.272802 0.623164 1.408701 0.078696 -0.015117 -125065.000000 0 0 1
-32.658934 -24.815273 5.616965 41.399928 0.649763 1.434701 0.068321 -0.009857 203101.000000 0 0 1
-33.385234 -24.634973 4.420065 41.725205 0.635712 1.464664 0.072358 -0.007950 233900.000000 0 0 1
-32.788484 -25.481333 3.447265 41.668533 0.660647 1.487971 0.057194 -0.005891 112551.000000 0 0 1
-33.139294 -25.157553 1.949665 41.652328 0.649329 1.523971 0.063041 -0.010700 -338070.000000 0 0 1
-34.340038 -25.763663 1.550765 42.958229 0.643662 1.534689 0.071110 -0.010001 -316171.000000 0 0 1
-34.660336 -25.285673 0.251565 42.904166 0.630270 1.564933 0.062927 -0.006051 586721.000000 0 0 1
-35.676103 -24.076273 0.106065 43.040243 0.593652 1.568332 0.074625 -0.013227 109895.000000 0 0 1
35.189334 -24.363273 -0.023635 42.800221 -0.605572 1.571349 0.054003 -0.005770 -267815.000000 0 0 1
34.479004 -23.260173 0.497065 41.594284 -0.593488 1.558846 0.069387 -0.014199 -421333.000000 0 0 1
32.968784 -23.423273 0.335465 40.443825 -0.617717 1.562502 0.042206 -0.009871 -428957.000000 0 0 1
32.558744 -23.142073 -0.962135 39.956890 -0.617924 1.594878 0.039206 -0.018451 545925.000000 0 0 1
31.127834 -23.195973 -1.068135 38.834729 -0.640412 1.598304 0.035900 -0.011854 876050.000000 0 0 1
30.713674 -22.873673 -2.507735 38.377382 -0.640126 1.636187 0.031536 -0.004674 -152407.000000 0 0 1
30.950344 -21.564373 -2.919235 37.834745 -0.608535 1.648031 0.058244 -0.020927 17712.300000 0 0 1
30.995834 -21.372473 -4.311535 37.896091 -0.603663 1.684816 0.057422 -0.034762 9656.030000 0 0 1
31.091014 -19.890173 -4.651735 37.200925 -0.569129 1.696168 0.071988 -0.041713 793291.000000 0 0 1
29.947824 -19.237773 -4.068435 35.826195 -0.570997 1.684602 0.076888 -0.047711 652306.000000 0 0 1
30.076284 -17.841073 -4.068435 35.205666 -0.535400 1.686617 0.086655 -0.045621 -461216.000000 0 0 1
29.200374 -17.348873 -2.946335 34.092905 -0.536094 1.657325 0.092511 -0.040903 -625712.000000 0 0 1
29.635864 -17.337773 -1.590135 34.371665 -0.529337 1.617076 0.099891 -0.038958 -126806.000000 0 0 1
30.100324 -18.493973 -0.915435 35.339703 -0.550949 1.596703 0.088274 -0.034903 88648.800000 0 0 1
29.053074 -19.656473 -0.811635 35.087274 -0.594828 1.593930 0.075033 -0.026143 814455.000000 0 0 1
27.967354 -19.354073 0.080065 34.011167 -0.605353 1.568442 0.064880 -0.012773 891508.000000 0 0 1
27.135694 -20.499973 0.377965 34.010846 -0.646987 1.559683 0.048293 -0.011852 -48249.200000 0 0 1
25.949694 -20.172173 1.282465 32.892977 -0.660781 1.531797 0.046110 -0.003515 -1211520.000000 0 0 1
25.319094 -21.305573 1.827765 33.140982 -0.699528 1.515617 0.043286 0.003269 -429196.000000 0 0 1
24.407394 -21.115373 2.840765 32.398300 -0.713208 1.483001 0.036966 0.001966 -75576.200000 0 0 1
23.013994 -20.621873 2.351065 30.990855 -0.730633 1.494860 0.026228 0.006312 -629114.000000 0 0 1
22.864594 -19.221373 2.015565 29.938493 -0.699047 1.503422 0.046363 -0.010183 254563.000000 0 0 1
23.104194 -18.244373 3.072665 29.599024 -0.668402 1.466799 0.052797 0.003602 -190694.000000 0 0 1
22.997894 -16.847273 2.472465 28.615500 -0.632244 1.484285 0.050708 -0.000565 -590676.000000 0 0 1
21.672994 -16.621473 2.123165 27.395253 -0.654243 1.493217 0.052730 -0.004203 -813234.000000 0 0 1
21.487494 -15.366373 1.455865 26.456708 -0.620809 1.515740 0.058354 -0.010691 -248400.000000 0 0 1
20.076494 -15.146373 0.900665 25.165243 -0.646332 1.534999 0.043155 -0.001726 -914096.000000 0 0 1
19.099294 -15.139573 1.884065 24.444619 -0.670260 1.493645 0.041893 -0.003197 -435369.000000 0 1 0
18.220594 -14.011273 1.694065 23.047249 -0.655538 1.497226 0.050780 -0.008448 -118239.000000 0 1 0
18.676294 -12.608173 2.101365 22.631521 -0.593811 1.477811 0.065506 -0.008982 -585841.000000 0 1 0
19.582194 -11.968773 1.236665 22.983542 -0.548619 1.516964 0.061160 -0.012853 122769.000000 0 1 0
19.999494 -10.778073 1.801565 22.790179 -0.494295 1.491664 0.061236 -0.010089 -316476.000000 0 1 0
20.977394 -10.027573 0.835765 23.265893 -0.445908 1.534866 0.072954 -0.015903 55083.800000 0 1 0
20.404694 -9.528773 -0.364435 22.522919 -0.436892 1.586978 0.083464 -0.012513 941831.000000 0 1 0
21.372594 -8.787773 -1.162635 23.137944 -0.390099 1.621065 0.091044 -0.008745 565652.000000 0 1 0
20.785594 -8.259173 -2.578135 22.514476 -0.378221 1.685558 0.113248 -0.009473 559471.000000 0 1 0
21.647594 -7.566073 -3.552335 23.205234 -0.336239 1.724484 0.103274 -0.012776 1125730.000000 0 1 0
22.729594 -8.289873 -4.147735 24.547101 -0.349725 1.740581 0.098192 -0.014148 -46751.000000 0 1 0
22.321694 -9.448673 -5.108335 24.771567 -0.400426 1.778504 0.095348 -0.018227 -175780.000000 0 1 0
21.613894 -9.130073 -6.321935 24.299908 -0.399681 1.833987 0.084065 -0.023758 1017840.000000 0 1 0
20.213994 -8.957573 -6.037235 22.919247 -0.417132 1.837355 0.087491 -0.017414 453057.000000 0 1 0
19.359494 -9.028873 -7.355735 22.592419 -0.436391 1.902426 0.073564 -0.014780 -248122.000000 0 1 0
19.274194 -10.339473 -7.950335 23.272454 -0.492374 1.919436 0.071563 -0.015896 904788.000000 0 1 0
20.402494 -10.645173 -8.786135 24.632857 -0.480902 1.935512 0.059165 -0.010899 301680.000000 0 1 0
20.367594 -12.074273 -9.445935 25.492208 -0.535122 1.950389 0.051784 -0.015311 -45563.200000 0 0 1
19.253294 -12.225373 -10.306435 25.027419 -0.565741 1.995231 0.067831 -0.022211 389221.000000 0 0 1
19.201494 -13.516473 -10.809835 25.850434 -0.613357 2.002224 0.071888 -0.013838 -99804.700000 0 0 1
17.985094 -13.734873 -11.733635 25.490950 -0.652200 2.049136 0.071914 -0.015716 149443.000000 0 0 1
17.964794 -15.091373 -12.166535 26.429301 -0.698691 2.049177 0.073920 -0.015323 16270.500000 0 0 1
16.803294 -15.347473 -12.905635 26.162015 -0.740148 2.086672 0.071082 -0.017074 -485806.000000 0 0 1
16.711494 -16.848173 -13.291035 27.199018 -0.789471 2.081348 0.063366 -0.016155 -61121.200000 0 0 1
15.996394 -17.725273 -12.368435 26.889554 -0.836622 2.048760 0.060222 -0.011655 523556.000000 0 0 1
16.057694 -19.113573 -12.771535 28.040869 -0.872066 2.043687 0.065243 -0.010267 -587953.000000 0 0 1
15.021694 -19.970673 -12.065635 27.749930 -0.925897 2.020611 0.064985 -0.014337 -156511.000000 0 0 1
13.708294 -19.785573 -12.560335 27.150474 -0.964890 2.051744 0.056511 -0.016516 -122625.000000 0 0 1
12.781894 -20.158573 -11.558535 26.520645 -1.005703 2.021758 0.057681 -0.010497 -532576.000000 0 0 1
11.384494 -20.413273 -12.098935 26.319055 -1.062060 2.048456 0.045671 -0.018000 -569694.000000 0 0 1
10.572894 -21.013173 -11.115235 26.017071 -1.104627 2.012222 0.060928 -0.025077 -849301.000000 0 0 1
9.239794 -21.002973 -11.497935 25.665175 -1.156350 2.035321 0.048717 -0.017598 -534113.000000 0 0 1
8.278894 -21.647173 -10.474535 25.433366 -1.205513 1.995271 0.047367 -0.010785 -236542.000000 0 0 1
8.368494 -23.046973 -10.456635 26.655879 -1.222494 1.973908 0.062394 -0.018903 -35881.700000 0 0 1
7.545794 -23.651373 -9.462035 26.567961 -1.261962 1.934935 0.059045 -0.026602 328289.000000 0 0 1
7.499194 -25.192143 -9.643735 27.997922 -1.281469 1.922444 0.064696 -0.021790 1012270.000000 0 0 1
8.787094 -25.709743 -9.271135 28.708150 -1.241463 1.899635 0.063699 -0.023248 405222.000000 0 0 1
8.837494 -27.057133 -9.553835 30.024416 -1.255097 1.894629 0.048629 -0.015184 -986800.000000 0 0 1
10.269494 -27.494103 -9.526835 30.856909 -1.213327 1.884667 0.050844 -0.007049 -880430.000000 0 0 1
10.734794 -27.374363 -8.160235 30.515259 -1.197077 1.841506 0.057402 -0.013061 930803.000000 0 0 1
12.134394 -27.737183 -8.037435 31.324036 -1.158405 1.830289 0.059709 -0.002466 1042140.000000 0 0 1
12.598494 -27.937663 -6.575335 31.344379 -1.147153 1.782143 0.052382 -0.006870 -9820.740000 0 0 1
12.079694 -29.087053 -5.932935 32.049577 -1.177175 1.756988 0.058485 -0.013675 -82924.800000 0 0 1
10.722094 -29.052773 -5.559235 31.463185 -1.217247 1.748419 0.051779 -0.011473 -187752.000000 0 0 1
10.173394 -30.199893 -4.668535 32.207557 -1.245867 1.716260 0.052195 -0.013414 140719.000000 0 0 1
10.238694 -31.515153 -5.166935 33.537039 -1.256671 1.725479 0.066021 -0.020983 -670388.000000 0 0 1
9.257294 -31.860203 -6.078535 33.730085 -1.288023 1.751997 0.076258 -0.023037 -247869.000000 0 0 1
9.457094 -33.362073 -6.469735 35.274949 -1.294574 1.755249 0.068908 -0.019577 55388.100000 0 0 1
9.210094 -34.200875 -5.332835 35.818498 -1.307743 1.720237 0.054052 -0.016148 95797.400000 0 0 1
9.809494 33.120036 -5.443335 34.968455 1.282848 1.727096 0.057473 -0.013615 167859.000000 0 0 1
9.317594 32.154043 -4.322435 33.754755 1.288742 1.699203 0.048175 -0.000740 464761.000000 0 0 1
8.015094 31.641003 -4.560735 32.957474 1.322701 1.709624 0.053400 -0.006243 -101511.000000 0 0 1
7.692094 30.568223 -3.675435 31.734735 1.324278 1.686874 0.027139 0.000896 814287.000000 0 0 1
6.261494 29.914833 -3.829335 30.802067 1.364464 1.695440 0.028468 -0.005357 982809.000000 0 0 1
5.963494 29.211873 -5.027635 30.235309 1.369417 1.737856 0.039326 -0.016066 21841.700000 0 0 1
5.490594 30.034203 -6.089235 31.133242 1.389982 1.767652 0.046176 -0.019843 -359004.000000 0 0 1
5.579994 29.424643 -7.518435 30.878355 1.383385 1.816754 0.062340 -0.024367 -105101.000000 0 0 1
4.822594 28.247373 -7.771535 29.691215 1.401700 1.835626 0.060813 -0.026860 -6132.150000 0 0 1
5.224494 27.039523 -7.114935 28.443865 1.379931 1.823621 0.052736 -0.024095 -791100.000000 0 0 1
4.326494 25.886373 -7.453335 27.283238 1.405193 1.847497 0.053943 -0.027971 234603.000000 0 0 1
3.010894 26.023903 -6.855635 27.079674 1.455611 1.826747 0.053104 -0.027209 547681.000000 0 0 1
1.984194 26.511983 -7.673035 27.671244 1.496094 1.851772 0.052739 -0.029493 -113014.000000 0 0 1
1.541594 25.711693 -8.947535 27.267674 1.510911 1.905127 0.050830 -0.023659 -827440.000000 0 0 1
2.520494 25.657333 -9.954635 27.635962 1.472874 1.939285 0.044559 -0.023740 -262567.000000 0 0 1
2.147494 25.042423 -11.164735 27.502472 1.485251 1.988819 0.039009 -0.017673 -362353.000000 0 0 1
2.072994 23.493773 -11.261335 26.135653 1.482788 2.016264 0.046540 -0.016519 166868.000000 0 0 1
0.894294 23.048573 -10.606135 25.387528 1.532015 2.001785 0.049054 -0.018350 127793.000000 0 0 1
0.990894 21.687173 -10.258035 24.011302 1.525138 2.012209 0.034718 -0.014677 173127.000000 0 1 0
-0.189206 20.969373 -9.510935 23.026252 -1.561774 1.996594 0.053607 -0.010998 553970.000000 0 1 0
-1.425906 20.834573 -10.180235 23.232516 -1.502463 2.024379 0.058764 -0.021268 209950.000000 0 1 0
-2.410206 20.261873 -9.299935 22.424125 -1.452400 1.998441 0.053737 -0.015902 600396.000000 0 1 0
-3.716506 20.073873 -10.121535 22.786361 -1.387728 2.031069 0.043351 -0.024164 517964.000000 0 1 0
-4.820506 19.584573 -9.361335 22.235723 -1.329456 2.005349 0.040920 -0.024795 229953.000000 0 1 0
-5.885406 19.194773 -10.195535 22.517243 -1.273282 2.040686 0.044478 -0.022279 -538625.000000 0 1 0
-6.721306 18.035873 -9.572935 21.496738 -1.214076 2.032328 0.042268 -0.023389 639890.000000 0 1 0
-7.847306 18.355773 -8.741335 21.792786 -1.166800 1.983526 0.056770 -0.022103 243088.000000 0 1 0
-9.007206 18.810673 -9.361135 22.860490 -1.124224 1.992691 0.057716 -0.020981 -723169.000000 0 1 0
-10.122606 19.040173 -8.328535 23.116224 -1.082155 1.939375 0.064422 -0.026140 -82837.400000 0 1 0
-10.429406 17.834173 -7.677335 22.040229 -1.041629 1.926588 0.054880 -0.025884 -576511.000000 0 1 0
-11.395906 18.086773 -6.705135 22.404394 -1.008561 1.874732 0.062475 -0.024380 -483506.000000 0 1 0
-11.964006 16.857673 -5.932035 21.505990 -0.953585 1.850251 0.057531 -0.028126 -232198.000000 0 1 0
-12.749406 17.292473 -4.877835 22.031120 -0.935485 1.794053 0.065513 -0.024533 -342849.000000 0 1 0
-13.164706 16.295773 -4.005135 21.328450 -0.891281 1.759702 0.059175 -0.022237 148617.000000 0 1 0
-14.295306 16.729873 -3.013235 22.210898 -0.863708 1.706881 0.046933 -0.018183 -100193.000000 0 1 0
-15.502806 16.922473 -3.664535 23.240824 -0.829153 1.729134 0.078290 -0.029009 -872434.000000 0 1 0
-16.602506 17.178573 -2.851335 24.059856 -0.802449 1.689586 0.073682 -0.024215 -358605.000000 0 1 0
-17.935306 17.224273 -3.603935 25.126463 -0.765178 1.714725 0.073024 -0.035969 -287661.000000 0 0 1
-17.843406 18.202973 -4.612835 25.903930 -0.795373 1.749826 0.070285 -0.034974 495676.000000 0 0 1
-19.109606 18.411573 -5.251535 27.050724 -0.766797 1.766174 0.045062 -0.030979 620340.000000 0 0 1
-19.177806 19.300073 -6.502635 27.974369 -0.788576 1.805392 0.040465 -0.013806 -139657.000000 0 0 1
-18.852406 20.634373 -6.332035 28.658074 -0.830496 1.793586 0.049505 -0.025191 140682.000000 0 0 1
-18.639206 21.448373 -7.512335 29.391969 -0.855360 1.829256 0.039467 -0.012724 -38488.100000 0 0 1
-18.665806 22.885173 -7.036535 30.358792 -0.886598 1.804703 0.044156 -0.011278 77794.700000 0 0 1
-17.436606 23.176773 -6.395935 29.700269 -0.925805 1.787846 0.051041 -0.014390 168407.000000 0 0 1
-17.383106 24.423093 -5.826135 30.538561 -0.952229 1.762753 0.054376 -0.012670 590508.000000 0 0 1
-15.956106 24.774933 -5.287035 29.939061 -0.998621 1.748321 0.059714 -0.009395 598316.000000 0 0 1
-15.981606 25.966443 -4.480835 30.817945 -1.019078 1.716710 0.059491 -0.005142 5145.190000 0 0 1
-14.658106 26.424743 -4.302135 30.522704 -1.064343 1.712216 0.071816 -0.016778 353502.000000 0 0 1
-14.292006 27.688443 -5.148435 31.581920 -1.094295 1.734546 0.084970 -0.009817 218799.000000 0 0 1
-14.989706 28.770663 -4.547935 32.758602 -1.090485 1.710078 0.091604 -0.009653 72698.200000 0 0 1
-14.659806 29.951063 -5.209535 33.750783 -1.115617 1.725769 0.071438 -0.018858 -78030.000000 0 0 1
-15.325806 31.182833 -4.581935 35.046305 -1.113986 1.701911 0.080266 -0.027289 811106.000000 0 0 1
-16.756906 31.144213 -4.728935 35.680789 -1.077180 1.703722 0.093651 -0.019530 684656.000000 0 0 1
-17.249606 32.346943 -4.177535 36.896144 -1.080889 1.684264 0.108873 -0.030389 -43901.900000 0 0 1
12.819396 -8.511773 18.575345 24.121166 -0.586138 0.691822 0.043397 -0.000644 -331433.000000 0 1 0
13.062996 -9.705973 19.259545 25.214636 -0.639014 0.701579 0.052699 0.003327 44232.200000 0 0 1
13.484796 -10.712973 18.386645 25.192782 -0.671347 0.752712 0.053288 -0.001250 -207787.000000 0 0 1
13.912096 -12.049573 18.995445 26.449302 -0.713780 0.769608 0.083305 -0.010531 -355842.000000 0 0 1
15.201996 -12.208273 19.540345 27.603763 -0.676610 0.784294 0.080422 -0.012949 140305.000000 0 0 1
15.364996 -13.420473 20.214845 28.719892 -0.717948 0.789976 0.084764 -0.021196 -171298.000000 0 0 1
15.744396 -14.633073 19.310345 28.894676 -0.748831 0.838874 0.085206 -0.020995 -326288.000000 0 0 1
14.770996 -15.023973 18.348345 27.938573 -0.793889 0.854310 0.087349 -0.021460 134343.000000 0 0 1
15.078096 -16.231773 17.727545 28.374025 -0.822229 0.895946 0.088974 -0.022977 -187237.000000 0 0 1
14.227796 -16.575173 16.484845 27.366342 -0.861457 0.924321 0.074183 -0.023576 -1049960.000000 0 0 1
12.871196 -16.709073 16.704845 26.905625 -0.914422 0.900947 0.075035 -0.022549 -873778.000000 0 0 1
12.124096 -16.842873 15.470545 25.884626 -0.946882 0.930201 0.069493 -0.021867 389502.000000 0 0 1
11.968296 -18.283873 14.878645 26.436986 -0.991207 0.973031 0.068727 -0.015394 -250251.000000 0 0 1
13.186596 -18.783973 14.375345 27.080888 -0.958721 1.011217 0.062572 -0.019127 60058.500000 0 0 1
12.979696 -19.984773 13.710545 27.492594 -0.994787 1.048698 0.063554 -0.021976 221248.000000 0 0 1
14.261696 -20.457673 12.929745 28.090758 -0.961998 1.092481 0.062277 -0.020101 521406.000000 0 0 1
15.196796 -21.080773 13.820045 29.433574 -0.946191 1.082034 0.059305 -0.014759 31105.600000 0 0 1
15.270496 -22.437173 13.579345 30.348203 -0.973217 1.106883 0.028112 -0.013030 -315299.000000 0 0 1
16.089996 -23.247373 14.634245 31.835349 -0.965378 1.093155 0.025197 -0.014748 -343093.000000 0 0 1
17.397896 -22.750473 14.576345 32.136283 -0.917937 1.100019 0.018430 -0.018683 -884603.000000 0 0 1
18.183196 -23.517373 15.448145 33.501353 -0.912623 1.091539 0.010276 -0.022257 523463.000000 0 0 1
19.608996 -22.917673 15.709645 34.007726 -0.863044 1.090611 -0.013279 -0.019303 1030510.000000 0 0 1
20.535496 -23.126873 14.646245 34.220920 -0.844679 1.128528 -0.013429 -0.014695 -211124.000000 0 0 1
21.803796 -22.588273 14.945645 34.770791 -0.803068 1.126488 -0.012556 -0.012281 452770.000000 0 0 1
22.910696 -23.451173 14.233145 35.741292 -0.797055 1.161213 -0.011910 -0.012950 159105.000000 0 0 1
23.145796 -24.691773 14.804245 36.940184 -0.817704 1.158447 -0.010532 -0.014283 -738827.000000 0 0 1
24.285696 -25.323573 14.383445 37.920468 -0.806316 1.181751 0.001459 -0.018048 -1007020.000000 0 0 1
24.604696 -26.539663 15.298545 39.291097 -0.823214 1.170855 0.003767 -0.013503 -451658.000000 0 0 1
25.002696 -26.125163 16.583345 39.782739 -0.807349 1.140822 0.004875 -0.002965 284106.000000 0 0 1
25.477796 -27.291313 17.250345 41.127950 -0.819752 1.137978 0.037138 0.007727 41048.100000 0 0 1
25.891096 -27.145883 18.719345 41.924476 -0.809052 1.107945 0.024635 0.015672 633241.000000 0 0 1
24.736696 -26.963403 19.542545 41.483013 -0.828441 1.080262 0.028102 0.013836 815107.000000 0 0 1
25.207496 -26.514013 20.822445 42.094952 -0.810653 1.053359 0.037833 0.011203 385488.000000 0 0 1
24.039896 -26.252983 21.804445 41.744096 -0.829374 1.021208 0.029293 0.007748 435462.000000 0 0 1
23.310496 -27.400163 22.264645 42.306768 -0.865871 1.016592 0.040462 0.016787 -39768.100000 0 0 1
22.383596 -27.106813 23.249645 42.146776 -0.880547 0.986473 0.043979 0.013924 -176624.000000 0 0 1
21.510196 -28.330603 23.645315 42.713143 -0.921397 0.984135 0.053440 0.011403 -29311.500000 0 0 1
22.233796 -29.279813 24.412475 44.131826 -0.921334 0.984630 0.063130 0.007864 390301.000000 0 0 1
22.269296 -30.569733 23.859545 44.718095 -0.941214 1.007998 0.063316 0.005471 151432.000000 0 0 1
23.382896 -31.387883 24.607705 46.233086 -0.930525 1.009537 0.050148 0.004503 126846.000000 0 0 1
23.300996 -31.462883 25.996915 46.996692 -0.933347 0.984638 0.059569 -0.001679 423298.000000 0 0 1
24.379896 -32.231343 26.568095 48.364269 -0.923210 0.989230 0.060756 -0.003209 -138619.000000 0 0 1
24.172196 -32.780253 28.043405 49.449698 -0.935407 0.967804 0.059135 -0.010487 94652.400000 0 0 1
23.478696 -33.999813 28.100995 49.969014 -0.966438 0.973549 0.053282 -0.011169 491662.000000 0 0 1
22.147596 -34.097948 27.593475 49.138437 -0.994752 0.974544 0.057011 -0.011799 -352958.000000 0 0 1
21.466196 33.250264 28.035495 48.501202 0.997524 0.954475 0.073504 -0.024449 -414928.000000 0 0 1
20.881296 33.387498 29.330795 49.102435 1.011893 0.930617 0.056512 -0.023284 254017.000000 0 0 1
20.373196 32.112463 29.748765 48.283190 1.005443 0.906975 0.059412 -0.033099 329263.000000 0 0 1
19.969196 32.098083 31.243795 49.043149 1.014263 0.880109 0.056889 -0.033425 231408.000000 0 0 1
21.206196 32.216153 31.932875 50.072865 0.988645 0.879251 0.051878 -0.018912 462415.000000 0 0 1
21.077296 32.455193 33.340154 51.079916 0.994824 0.859646 0.043293 -0.019526 16054.200000 0 0 1
22.449796 32.329143 34.041757 52.038525 0.963829 0.857719 0.031857 -0.000899 137998.000000 0 0 1
22.832296 30.992993 34.118524 51.438828 0.935867 0.845599 0.025260 0.001803 -634151.000000 0 0 1
24.027696 30.786793 -33.704345 51.586235 0.908087 2.282810 0.021460 0.018513 -625876.000000 0 0 1
24.141296 29.255343 -33.539505 50.631765 0.880882 2.294841 0.025118 0.009651 -118285.000000 0 0 1
24.494996 28.645283 33.697581 50.557730 0.863341 0.841270 0.030568 0.008083 272483.000000 0 0 1
23.789896 27.458633 33.417624 49.362671 0.856863 0.827142 0.038055 -0.006498 -509230.000000 0 0 1
24.318496 26.758513 32.246275 48.448215 0.833133 0.842523 0.069131 -0.019076 -449866.000000 0 0 1
25.636496 26.282213 32.321745 48.915027 0.797835 0.848948 0.060418 -0.025268 140912.000000 0 0 1
25.850996 25.314033 31.285875 47.831791 0.774904 0.857829 0.079960 -0.035022 -508759.000000 0 0 1
27.177696 24.561003 31.349365 48.214653 0.734866 0.862943 0.064485 -0.026414 -529478.000000 0 0 1
27.276896 23.641773 32.421596 48.519299 0.714128 0.838982 0.074627 -0.036193 232484.000000 0 0 1
28.087196 24.102333 33.470493 49.900771 0.709192 0.835589 0.068658 -0.032159 -895827.000000 0 0 1
27.774496 23.313873 -33.674675 49.486797 0.698307 2.319211 0.050456 -0.031325 -253133.000000 0 0 1
26.650696 23.734763 -32.918745 48.551440 0.727590 2.315859 0.044098 -0.022470 1089650.000000 0 0 1
25.338596 23.551473 -33.457315 48.125962 0.748861 2.339499 0.052708 -0.017497 184118.000000 0 0 1
24.813396 22.134673 -33.490305 47.193738 0.728403 2.359776 0.048609 -0.022603 -987775.000000 0 0 1
24.699296 21.575773 -32.192325 45.955576 0.718001 2.346908 0.033069 -0.022089 327311.000000 0 0 1
24.501596 20.188773 -32.252265 45.256197 0.689192 2.364079 0.043032 -0.011711 -144027.000000 0 0 1
24.568296 19.523973 -30.853625 44.008327 0.671490 2.347716 0.046934 -0.018083 159320.000000 0 0 1
23.372596 19.694073 -30.095975 42.894084 0.700190 2.348485 0.039622 -0.009949 630977.000000 0 0 1
23.547196 19.175473 -28.824865 41.869345 0.683425 2.330143 0.045594 -0.008874 537560.000000 0 0 1
22.178496 19.248773 -28.062765 40.619204 0.714796 2.333494 0.058804 -0.012745 483911.000000 0 0 1
22.169896 18.675273 -26.746975 39.441993 0.700048 2.316018 0.066185 -0.009224 64525.800000 0 0 1
22.859096 19.425773 -25.763355 39.543007 0.704381 2.280392 0.055211 -0.012251 541.546000 0 0 1
22.946796 18.540673 -24.457935 38.321046 0.679591 2.263003 0.072613 0.003264 -397367.000000 0 0 1
23.873296 17.520473 -24.554835 38.468704 0.633113 2.263093 0.071811 -0.008653 -199044.000000 0 0 1
23.939396 16.720573 -23.381135 37.407883 0.609688 2.245969 0.075667 -0.011333 -516222.000000 0 0 1
24.750696 15.444973 -23.491435 37.456530 0.557896 2.248705 0.084066 -0.014408 1019410.000000 0 0 1
26.150096 15.745673 -23.184035 38.330839 0.541982 2.220362 0.103676 -0.019816 1334810.000000 0 0 1
27.007196 14.622773 -23.225435 38.504999 0.496247 2.218278 0.101825 -0.026648 -19538.200000 0 0 1
26.947096 13.641273 -22.022235 37.379261 0.468615 2.200811 0.097053 -0.023573 -402809.000000 0 0 1
25.672096 13.059573 -21.844035 36.149285 0.470589 2.219649 0.084387 -0.021045 -106908.000000 0 0 1
25.421996 12.459573 -20.578435 34.999869 0.455704 2.199328 0.062722 -0.027387 -377440.000000 0 0 1
24.006196 11.893773 -20.641835 33.820772 0.459998 2.227274 0.061315 -0.018643 75353.600000 0 0 1
22.990596 12.891573 -20.646735 33.482052 0.511046 2.235278 0.077532 -0.019543 200289.000000 0 0 1
21.707196 12.451673 -21.040535 32.694811 0.520796 2.269915 0.072175 -0.017941 125330.000000 0 0 1
20.617196 13.533073 -20.921835 32.340934 0.580859 2.274328 0.075290 -0.017439 -440461.000000 0 0 1
20.897096 14.676173 -21.759335 33.549178 0.612272 2.276514 0.066327 -0.008469 135396.000000 0 0 1
20.000396 15.762273 -21.645535 33.421464 0.667441 2.275297 0.056885 -0.007533 -30172.100000 0 0 1
18.695296 15.676873 -22.467035 33.166943 0.697807 2.315008 0.061090 -0.000661 -282268.000000 0 0 1
17.748896 14.820273 -21.895135 31.844320 0.695719 2.328931 0.050777 -0.003205 -125782.000000 0 0 1
16.716296 14.504673 -22.812135 31.783858 0.714679 2.371329 0.055062 -0.015030 -606146.000000 0 0 1
15.502396 13.889073 -22.164835 30.405765 0.730562 2.387610 0.034300 -0.016164 -127036.000000 0 0 1
14.385696 13.939973 -23.054735 30.541642 0.769664 2.426241 0.035097 -0.015418 1259010.000000 0 0 1
13.153596 13.384573 -22.526535 29.319084 0.794102 2.447014 0.053574 -0.014327 1962220.000000 0 0 1
11.812196 13.736773 -23.286435 29.503982 0.860585 2.480406 0.053146 -0.013371 837862.000000 0 0 1
11.447796 15.117173 -23.110835 29.894676 0.922658 2.454471 0.029622 -0.011143 30007.900000 0 0 1
10.695996 15.602473 -24.208635 30.722948 0.969846 2.478295 0.039282 -0.022557 -803240.000000 0 0 1
10.791896 17.157373 -24.362635 31.691930 1.009330 2.447654 0.032430 -0.020215 -155318.000000 0 0 1
12.026096 17.856073 -24.346635 32.499615 0.978077 2.417553 0.034994 -0.023852 -304461.000000 0 0 1
13.087796 17.449573 -25.163795 33.301570 0.927273 2.427418 0.038502 -0.030831 -361818.000000 0 0 1
12.855496 17.327173 -26.678745 34.311079 0.932482 2.461564 0.049319 -0.032769 -734398.000000 0 0 1
14.043496 17.115673 -27.422445 35.244241 0.883677 2.462382 0.044215 -0.032955 -22669.600000 0 0 1
13.760896 17.096073 -28.801185 36.209753 0.893065 2.490461 0.049994 -0.035079 -641974.000000 0 0 1
14.931696 17.281973 -29.759155 37.513057 0.858228 2.487009 0.049946 -0.018133 -413361.000000 0 0 1
15.911796 16.272873 -29.791135 37.490044 0.796617 2.489213 0.026907 -0.019750 -55571.700000 0 0 1
16.761196 16.499573 -30.916135 38.845605 0.777532 2.491243 0.027048 -0.007103 -170341.000000 0 0 1
18.009696 15.630373 -30.940135 39.063406 0.714787 2.484955 0.034151 -0.004455 -603457.000000 0 0 1
19.075996 15.988273 -30.090055 39.050351 0.697566 2.450492 0.042507 -0.004935 -122852.000000 0 0 1
20.199396 15.175273 -30.263975 39.423504 0.644316 2.445983 0.055147 -0.005193 -1009060.000000 0 0 1
21.381196 15.811373 -30.910305 40.775017 0.636747 2.431145 0.053101 -0.006597 -1367610.000000 0 0 1
21.171596 16.355773 -32.190545 41.856648 0.657767 2.448176 0.046459 -0.003912 -200860.000000 0 0 1
22.292996 17.043273 -32.662945 43.061802 0.652725 2.431825 0.045819 0.001453 -332066.000000 0 0 1
22.325196 17.066973 -34.212571 44.274100 0.652699 2.453950 0.027014 0.014805 -686968.000000 0 0 1
23.271896 17.980673 33.916096 44.890838 0.657831 0.714343 0.046692 0.003353 -448545.000000 0 0 1
23.102996 18.381973 32.582571 43.968958 0.672085 0.736185 0.067436 -0.000896 60387.100000 0 0 1
24.023196 19.599473 32.254415 44.739251 0.684335 0.765635 0.083694 -0.006771 1470220.000000 0 0 1
25.434596 19.334973 32.076235 45.273002 0.649987 0.783416 0.064539 -0.015049 1177090.000000 0 0 1
26.127496 20.578273 31.843995 46.045102 0.667140 0.807118 0.070853 -0.028727 533606.000000 0 0 1
27.659096 20.376873 31.661575 46.719352 0.634944 0.826170 0.063130 -0.031163 93183.700000 0 0 1
28.244896 19.937073 32.855348 47.694181 0.614651 0.810860 0.048594 -0.027381 153521.000000 0 0 1
29.626196 19.695173 32.593847 48.249044 0.586702 0.829108 0.036602 -0.021919 438487.000000 0 0 1
30.343996 18.907073 33.719798 49.145298 0.557225 0.814648 0.022443 -0.022883 -211751.000000 0 0 1
30.483896 19.692773 -33.606925 49.462093 0.573562 2.317807 0.016721 -0.024048 -290360.000000 0 0 1
29.385396 19.762473 -32.736465 48.225854 0.592049 2.316945 0.016058 -0.024937 -468791.000000 0 0 1
29.744996 20.260473 -31.332615 47.717757 0.597955 2.287130 0.029477 -0.021051 -225030.000000 0 0 1
30.523996 19.257873 -30.711865 47.389858 0.562837 2.275842 0.033502 -0.025232 -148622.000000 0 0 1
31.015496 19.751873 -29.457335 47.115094 0.567067 2.246211 0.025145 -0.019654 -347088.000000 0 0 1
32.406496 19.233073 -29.046355 47.579227 0.535622 2.227468 0.034827 -0.012634 -481470.000000 0 0 1
33.332496 19.926973 -29.826745 48.967073 0.538818 2.225745 0.000181 -0.007488 -708972.000000 0 0 1
34.576196 19.956673 -29.173245 49.445529 0.523471 2.201865 0.015253 -0.004463 -70950.500000 0 0 1
35.705396 20.801773 -29.805985 50.950818 0.527523 2.195670 0.010453 -0.006021 122413.000000 0 0 1
-35.922901 20.150673 -30.902935 51.492678 -0.511205 2.214475 -0.007264 -0.007143 -183974.000000 0 0 1
-34.950901 20.920973 -31.544655 51.520073 -0.539376 2.229736 0.001357 -0.008597 -391629.000000 0 0 1
-34.024501 20.194373 -32.484605 51.193056 -0.535644 2.258224 -0.002805 -0.015173 -1046550.000000 0 0 1
-33.036801 19.380473 -31.981705 49.898521 -0.530533 2.266512 0.013209 -0.010375 -103515.000000 0 0 1
-32.245501 18.905873 -33.096785 49.925961 -0.530293 2.295505 0.013913 -0.004786 229052.000000 0 0 1
-31.463801 17.609873 -32.700235 48.676317 -0.510250 2.307418 0.011533 0.003761 180588.000000 0 0 1
-32.329301 16.529273 -32.444565 48.693433 -0.472630 2.300036 0.011644 0.002125 411519.000000 0 0 1
-31.615101 15.330773 -32.696345 47.995815 -0.451510 2.320242 0.013096 0.004672 137582.000000 0 0 1
-32.608101 14.215473 -33.073235 48.571667 -0.411108 2.319809 0.017175 0.000784 -247994.000000 0 0 1
-32.007601 13.021673 -33.445885 48.090308 -0.386381 2.339885 0.041734 -0.010253 -334169.000000 0 0 1
-32.950101 12.020773 -33.709355 48.646981 -0.349814 2.336353 0.049099 -0.012502 -360167.000000 0 0 1
-32.465701 10.502873 -33.657475 47.928673 -0.312881 2.349337 0.059468 -0.008028 -366216.000000 0 0 1
-31.676501 10.122273 33.751824 47.381925 -0.309296 0.777976 0.041689 -0.009291 -120574.000000 0 0 1
-31.796501 8.737473 33.351174 46.900552 -0.268174 0.779729 0.068655 -0.013354 181696.000000 0 0 1
-30.751201 8.210473 32.305315 45.350652 -0.260911 0.777962 0.084627 -0.009842 850808.000000 0 0 1
-29.525501 7.768673 32.890013 44.876057 -0.257286 0.748210 0.059929 -0.000231 394607.000000 0 0 1
-28.615801 7.227873 31.953825 43.498887 -0.247408 0.745735 0.062593 -0.006438 -135851.000000 0 0 1
20.811096 -4.124173 -31.768405 38.201336 -0.195637 2.552787 0.067895 -0.033060 -343563.000000 0 0 1
21.739996 -3.973573 -32.786405 39.539412 -0.180782 2.548486 0.059061 -0.046513 297549.000000 0 0 1
22.938496 -3.245473 -32.427905 39.853190 -0.140553 2.521258 0.058810 -0.037128 734073.000000 0 0 1
22.858596 -1.675073 -32.624805 39.871032 -0.073149 2.529171 0.055524 -0.028546 -613869.000000 0 0 1
23.830996 -0.916273 -31.971515 39.886510 -0.038430 2.500700 0.065403 -0.030744 -96997.600000 0 0 1
23.647096 0.456427 -32.324425 40.053239 0.019299 2.509912 0.044157 -0.033087 -719689.000000 0 0 1
24.717096 1.362727 -31.738175 40.250511 0.055077 2.479189 0.044537 -0.028828 57568.900000 0 0 1
25.988696 1.212627 -32.356835 41.519243 0.046626 2.464378 0.046263 -0.031195 -206480.000000 0 0 1
26.947296 1.964427 -31.636295 41.603737 0.072770 2.434755 0.058697 -0.026242 -970663.000000 0 0 1
28.375596 1.827227 -32.077615 42.865914 0.064306 2.416329 0.064547 -0.025640 -883309.000000 0 0 1
28.680396 2.478127 -33.328105 44.039401 0.086191 2.429168 0.070231 -0.030394 -43274.100000 0 0 1
28.519196 1.520727 34.120700 44.495835 0.053272 0.696910 0.052143 -0.028686 -459042.000000 0 0 1
29.082696 1.805727 32.722529 43.815839 0.062010 0.727529 0.037212 -0.029982 11773.300000 0 0 1
28.363396 2.820927 31.965415 42.827884 0.099131 0.728206 0.033962 -0.022050 474927.000000 0 0 1
28.841796 4.130327 32.160305 43.395784 0.142239 0.736100 0.043554 -0.020607 489373.000000 0 0 1
27.726796 5.133227 31.669555 42.403844 0.183063 0.727475 0.037047 -0.019627 520861.000000 0 0 1
28.100696 6.424327 31.963415 43.041619 0.224755 0.733828 0.036229 -0.015907 -102086.000000 0 0 1
27.405996 7.403427 31.215795 42.193900 0.263841 0.737997 0.029131 -0.012581 -260499.000000 0 0 1
27.874396 8.841927 31.606845 43.059892 0.307166 0.746573 0.028801 -0.006244 -134179.000000 0 0 1
29.167396 9.237227 31.258495 43.739649 0.306704 0.774674 0.025825 -0.003449 -504503.000000 0 0 1
29.386696 10.594327 31.531715 44.385434 0.346011 0.780720 0.029213 0.002454 -176467.000000 0 0 1
30.748696 10.982727 30.932905 44.977186 0.343054 0.812416 0.023910 0.007032 -1051640.000000 0 0 1
31.817296 10.427727 31.633585 46.062583 0.316706 0.813785 0.031553 -0.005867 276710.000000 0 0 1
33.101796 10.866727 31.171735 46.749243 0.317198 0.840909 0.039135 -0.008751 581899.000000 0 0 1
33.551196 12.308827 31.382425 47.560978 0.351621 0.850196 0.041836 -0.009847 -742093.000000 0 0 1
34.116296 12.570227 32.715327 48.910376 0.353018 0.838091 0.039672 -0.010356 560812.000000 0 0 1
34.597996 13.874027 33.009108 49.790674 0.381374 0.846034 0.033439 -0.005470 677674.000000 0 0 1
33.579296 15.115127 32.851320 49.348206 0.422964 0.842359 0.042726 -0.013923 194975.000000 0 0 1
33.089696 15.283527 31.526345 48.191541 0.432691 0.857687 0.038930 -0.020632 -101233.000000 0 0 1
32.128596 16.290727 31.490555 47.846521 0.469270 0.852427 0.037973 -0.022558 -805401.000000 0 0 1
30.721496 15.724527 31.410515 46.665743 0.473076 0.832409 0.030595 -0.016298 -1037420.000000 0 0 1
30.188596 15.135627 30.261865 45.345551 0.464742 0.840136 0.036792 -0.006638 -91368.100000 0 0 1
28.823796 14.847927 30.444915 44.476567 0.475676 0.816857 0.031410 -0.013302 245555.000000 0 0 1
28.084496 14.134727 29.214925 42.919008 0.466278 0.822080 0.027292 0.002624 195968.000000 0 0 1
28.042496 12.698027 29.027895 42.311230 0.425191 0.814741 0.022513 0.005310 634810.000000 0 0 1
27.082596 12.269927 28.026145 40.859307 0.425392 0.814931 0.013496 0.003373 324598.000000 0 0 1
26.903296 10.723027 27.959585 40.255547 0.379279 0.802999 0.012149 0.012734 -106773.000000 0 0 1
27.951196 9.986427 27.351805 40.362350 0.343146 0.826225 0.012657 0.008692 190992.000000 0 0 1
27.606396 8.603827 27.442415 39.865086 0.302120 0.811540 0.015608 0.003439 477452.000000 0 0 1
28.781496 7.733927 26.905835 40.151116 0.262511 0.836434 0.023283 -0.004810 309442.000000 0 0 1
28.864196 7.819227 25.498235 39.299391 0.264548 0.864763 0.022543 -0.002734 265434.000000 0 0 1
29.823096 6.908327 24.953675 39.494657 0.227629 0.886892 0.016845 0.007974 302768.000000 0 0 1
30.355696 7.278727 23.535565 39.094386 0.235338 0.924769 0.030520 0.011028 169087.000000 0 0 1
31.248596 8.388427 23.396645 39.927979 0.262259 0.944718 0.031236 0.003270 372664.000000 0 0 1
30.657096 9.621627 23.008245 39.519775 0.304111 0.949370 0.033229 0.001917 -272181.000000 0 0 1
30.315496 9.767227 21.462645 38.406681 0.311685 0.977827 0.033707 0.008829 14604.500000 0 0 1
31.417996 9.645027 20.598045 38.786550 0.297858 1.010943 0.032886 -0.001394 110641.000000 0 0 1
30.943896 9.807127 19.252445 37.740709 0.306918 1.035467 0.042971 -0.014504 -514294.000000 0 0 1
31.804296 10.688627 18.284845 38.211197 0.324216 1.071827 0.052158 -0.030596 646078.000000 0 0 1
33.049196 10.088527 17.922445 38.926107 0.296274 1.092326 0.057914 -0.024236 124255.000000 0 0 1
34.084696 10.316627 18.822245 40.279973 0.293910 1.084578 0.060526 -0.007550 -728055.000000 0 0 1
35.420096 9.650527 18.382445 41.056427 0.266002 1.106564 0.072018 -0.017668 -41629.400000 0 0 1
35.483096 8.280527 18.389845 40.814258 0.229262 1.103388 0.068123 -0.016189 492773.000000 0 0 1
-35.755301 7.857827 17.451345 40.555351 -0.216328 1.125961 0.074708 -0.011509 -125190.000000 0 0 1
-35.682901 6.374527 17.065345 40.064074 -0.176779 1.130783 0.067300 -0.008314 329867.000000 0 0 1
35.385496 5.954327 16.327045 39.422833 0.166709 1.143785 0.053323 -0.004562 711240.000000 0 0 1
35.411796 4.635027 15.815945 39.059223 0.130149 1.153903 0.056192 -0.003084 -262493.000000 0 0 1
34.125396 3.781527 15.893145 37.834306 0.110362 1.137271 0.036567 0.002670 -107577.000000 0 0 1
33.972196 3.073727 17.097945 38.156227 0.090232 1.106153 0.030865 0.005948 -360391.000000 0 0 1
32.766596 2.399927 17.269845 37.116803 0.073113 1.086841 0.029036 0.005833 -430749.000000 0 0 1
32.715396 1.688327 18.643845 37.692712 0.051561 1.053390 0.029538 -0.011077 -104163.000000 0 0 1
33.651396 0.640427 18.717645 38.512035 0.019029 1.063266 0.028798 -0.008753 -54701.900000 0 0 1
33.315296 -0.218873 19.778445 38.744597 -0.006570 1.035050 0.026764 -0.010674 325276.000000 0 0 1
33.998196 -1.623173 19.816745 39.385472 -0.047707 1.043558 0.032404 -0.006127 150113.000000 0 0 1
33.339196 -2.466573 20.777445 39.360999 -0.073850 1.014707 0.039297 -0.003179 222787.000000 0 0 1
33.757796 -3.815373 20.768045 39.817805 -0.112544 1.022098 0.036907 -0.005135 -408095.000000 0 0 1
33.142096 -4.577173 21.942745 40.010413 -0.137239 0.990316 0.030962 0.001614 242130.000000 0 0 1
33.835996 -4.261873 23.166945 41.227971 -0.125297 0.974088 0.034550 -0.003646 674833.000000 0 0 1
33.117196 -4.772673 24.298985 41.351757 -0.143129 0.942686 0.036238 -0.007149 215728.000000 0 0 1
33.762996 -4.473973 25.651265 42.637352 -0.131744 0.925275 0.022717 0.000323 162970.000000 0 0 1
32.854296 -4.701173 26.719305 42.607829 -0.142127 0.892974 0.029592 -0.004908 122228.000000 0 0 1
33.362996 -4.171173 27.954375 43.725682 -0.124379 0.877192 0.037157 -0.004002 280689.000000 0 0 1
32.428296 -4.451973 29.169195 43.843545 -0.136434 0.842898 0.038788 -0.006293 267647.000000 0 0 1
32.410096 -5.792873 29.586685 44.264474 -0.176869 0.838731 0.030249 -0.014649 613408.000000 0 0 1
31.317496 -6.061273 30.493085 44.128821 -0.191179 0.807923 0.037749 -0.025424 568078.000000 0 0 1
31.336496 -7.553473 30.912845 44.661336 -0.236532 0.806317 0.040249 -0.020033 103158.000000 0 0 1
32.325696 -7.876673 31.879795 46.079431 -0.239008 0.806756 0.035690 -0.017534 161666.000000 0 0 1
33.061096 -9.039573 31.416885 46.494845 -0.266897 0.828873 0.031522 -0.010709 657473.000000 0 0 1
34.386096 -9.240673 32.219945 48.019980 -0.262530 0.835281 0.026024 -0.004740 401815.000000 0 0 1
34.241496 -9.704873 33.564973 48.921080 -0.276181 0.814676 0.026291 -0.010648 -177647.000000 0 0 1
35.480796 -10.044473 34.124716 50.242160 -0.275877 0.824118 0.029220 -0.018413 -126987.000000 0 0 1
35.312196 -10.174973 -32.825535 49.274710 -0.280544 2.299863 0.046689 -0.017311 -12732.900000 0 0 1
34.958296 -9.015473 -32.116005 48.319758 -0.252393 2.297829 0.039382 -0.010834 262426.000000 0 0 1
36.007596 -8.073473 -32.052675 48.878440 -0.220568 2.285989 0.045143 -0.005259 -69550.600000 0 0 1
35.644596 -6.776973 -31.336305 47.941930 -0.187884 2.283168 0.043593 -0.006187 -217112.000000 0 0 1
35.603996 -7.011973 -29.959585 47.057295 -0.194455 2.260958 0.052414 -0.006721 89264.400000 0 0 1
35.162996 -5.889573 -29.208995 46.090007 -0.165953 2.257172 0.052680 -0.007604 -119388.000000 0 0 1
35.515596 -5.836273 -27.722575 45.430836 -0.162874 2.227128 0.045798 -0.012891 -1074670.000000 0 0 1
-35.392801 -5.569073 -27.507955 45.170262 0.156071 2.225575 0.044369 -0.009151 -1357420.000000 0 0 1
-35.049801 -5.612673 -26.148015 44.087519 0.158786 2.205692 0.044521 -0.009755 -255979.000000 0 0 1
-33.705501 -4.961273 -25.838575 42.758707 0.146145 2.219668 0.054474 -0.013997 -1061610.000000 0 0 1
-33.571701 -4.584873 -24.465335 41.792736 0.135730 2.196166 0.061650 -0.005627 380535.000000 0 0 1
-32.257101 -4.307073 -24.001735 40.437047 0.132738 2.206269 0.071576 -0.006223 156698.000000 0 0 1
-31.384001 -3.252073 -24.664035 40.048048 0.103253 2.234275 0.072804 0.005025 -773877.000000 0 0 1
-30.883801 -3.731573 -25.880465 40.466434 0.120243 2.264714 0.068172 0.006813 -310588.000000 0 0 1
-30.131201 -2.760973 -26.561475 40.261945 0.091377 2.291238 0.065076 0.003540 -95302.300000 0 0 1
-29.379101 -3.373173 -27.792055 40.582117 0.114315 2.325174 0.059585 0.013273 -106320.000000 0 0 1
-30.105701 -3.598973 -28.959785 41.928213 0.118980 2.333252 0.057411 0.017552 -290055.000000 0 0 1
-29.416301 -4.458073 -29.842665 42.139979 0.150407 2.357713 0.050513 0.007911 -769213.000000 0 0 1
-30.287001 -4.971773 -31.043595 43.654619 0.162704 2.361884 0.030484 0.005893 105189.000000 0 0 1
-31.381501 -5.857373 -30.715205 44.300466 0.184527 2.336908 0.025318 0.002913 1123400.000000 0 0 1
-32.564901 -5.205373 -30.260955 44.758174 0.158505 2.313252 0.040946 0.003308 314613.000000 0 0 1
-33.385401 -4.313773 -31.284135 45.955313 0.128499 2.319584 0.060310 0.003970 -288227.000000 0 0 1
-32.709601 -3.092273 -31.634345 45.609341 0.094257 2.337262 0.072490 0.012282 261091.000000 0 0 1
-32.748001 -2.069273 -30.620815 44.881486 0.063104 2.321645 0.056089 0.021710 51747.800000 0 0 1
-32.261001 -0.649573 -31.119235 44.828573 0.020132 2.338081 0.062323 0.023220 232527.000000 0 0 1
-33.197801 -0.188473 -32.068805 46.157749 0.005677 2.338890 0.070201 0.016106 35781.100000 0 0 1
-33.006901 1.181827 -32.385275 46.256441 -0.035790 2.346368 0.067486 0.018082 -61431.900000 0 0 1
-34.325101 1.947727 -32.547515 47.342866 -0.056683 2.328817 0.077002 0.014317 362916.000000 0 0 1
-35.037601 1.750627 -33.810585 48.722211 -0.049923 2.337751 0.073540 0.014595 351452.000000 0 0 1
36.000896 2.494027 -33.893055 49.507816 0.069166 2.324851 0.067371 0.013764 -113811.000000 0 0 1
35.002596 2.044127 33.531628 48.515258 0.058333 0.807708 0.053270 0.011915 -328767.000000 0 0 1
35.267196 2.252127 32.155245 47.778730 0.063772 0.832534 0.048784 0.009103 153640.000000 0 0 1
-35.954201 1.409327 31.620945 47.901722 -0.039178 0.849816 0.037416 0.007343 41078.800000 0 0 1
-35.686501 1.549127 30.120345 46.724312 -0.043382 0.870244 0.043097 0.001007 -163470.000000 0 0 1
-35.286801 2.895427 29.765235 46.254849 -0.081871 0.871728 0.050939 -0.000559 323685.000000 0 0 1
-34.900601 3.029527 28.390405 45.091519 -0.086587 0.889736 0.040068 -0.006526 160183.000000 0 0 1
-34.483101 4.454527 28.012815 44.650251 -0.128469 0.892608 0.050917 -0.006706 3632.140000 0 0 1
-33.884301 4.568327 26.742155 43.406893 -0.134013 0.907039 0.055450 -0.003363 112186.000000 0 0 1
-33.368001 5.834727 26.497805 43.006990 -0.173110 0.906979 0.063416 -0.005704 -362640.000000 0 0 1
-32.545701 5.917127 25.211695 41.591641 -0.179845 0.919557 0.066972 -0.012046 365126.000000 0 0 1
-31.213801 5.380027 25.299095 40.537517 -0.170683 0.896829 0.072839 -0.007568 781283.000000 0 0 1
-30.389701 5.529627 24.170915 39.221727 -0.179988 0.906807 0.067523 -0.009834 18166.600000 0 0 1
-30.920901 5.136927 22.750245 38.730657 -0.164628 0.942958 0.070031 -0.012420 -379101.000000 0 0 1
-31.100701 3.744227 22.782845 38.734105 -0.119814 0.941983 0.058166 -0.006951 -54509.700000 0 0 1
-32.010801 3.387427 21.763145 38.856152 -0.105429 0.976296 0.056514 -0.008025 -302961.000000 0 0 1
-31.963301 1.849227 21.361845 38.488969 -0.057790 0.982419 0.054457 -0.005037 -483422.000000 0 0 1
-30.814501 1.469427 20.671045 37.134685 -0.047650 0.980448 0.081900 -0.002302 -501413.000000 0 0 1
-30.645901 1.939927 19.341845 36.291067 -0.063217 1.008696 0.081339 -0.005654 433848.000000 0 0 1
-29.380601 1.314627 18.643045 34.821130 -0.044715 1.005821 0.073076 -0.008102 505654.000000 0 0 1
-29.551201 -0.083473 18.430145 34.827442 0.002825 1.013157 0.082192 -0.007744 611823.000000 0 0 1
-28.499101 -0.782173 17.727945 33.572170 0.027439 1.014488 0.099013 -0.009677 410061.000000 0 0 1
-28.328301 -0.577073 16.202445 32.639622 0.020368 1.051345 0.082459 -0.001966 70631.200000 0 0 1
-27.746801 0.680427 15.860445 31.967197 -0.024518 1.051640 0.098909 -0.002077 235837.000000 0 0 1
-27.518001 0.766427 14.473345 31.101536 -0.027845 1.086757 0.105713 -0.006713 138224.000000 0 0 1
-26.941801 2.129327 13.954445 30.415806 -0.078870 1.094164 0.106044 -0.004628 -339174.000000 0 0 1
-25.571201 2.313327 14.137545 29.310544 -0.090221 1.067476 0.094252 -0.013395 -395072.000000 0 0 1
-25.197901 3.596327 13.607945 28.862501 -0.141766 1.079834 0.089703 -0.011269 799094.000000 0 0 1
-23.656101 3.765627 13.380845 27.437895 -0.157858 1.061369 0.075284 -0.011122 991067.000000 0 0 1
-22.878101 4.131927 14.531645 27.416219 -0.178680 1.012151 0.072335 -0.007157 896747.000000 0 0 1
-21.523901 4.424727 14.186645 26.155639 -0.202748 0.997513 0.053921 -0.009018 729675.000000 0 0 1
-20.755901 5.108727 15.394445 26.341896 -0.241336 0.946645 0.044337 -0.008973 -16117.000000 0 0 1
-21.051101 6.512027 15.583245 26.988755 -0.300007 0.955259 0.041467 -0.001775 576809.000000 0 0 1
-20.458501 6.941027 16.821645 27.380575 -0.327087 0.909216 0.033333 -0.002170 43971.600000 0 0 1
-20.662101 8.410527 17.194245 28.165608 -0.386570 0.914143 0.033398 -0.004947 -74546.200000 0 0 1
-19.784001 9.169027 16.347145 27.252650 -0.433988 0.927499 0.028561 0.000806 740247.000000 0 0 1
-19.908601 10.596327 16.357045 27.860141 -0.489112 0.943309 0.040908 -0.002902 -297089.000000 0 0 1
-19.493201 11.348427 17.626345 28.626207 -0.527209 0.907470 0.056895 -0.004832 -121435.000000 0 0 1
-20.266601 11.031027 18.790945 29.757660 -0.498453 0.887354 0.064509 -0.007680 644844.000000 0 0 1
-19.542701 11.335727 19.968445 30.152192 -0.525621 0.846972 0.070851 -0.012798 -131480.000000 0 0 1
-12.193404 -33.679119 -20.653335 41.346371 1.223430 2.093841 0.103459 -0.024823 -598182.000000 0 0 1
-12.977204 -33.956419 -19.537935 41.269567 1.205752 2.063968 0.119935 -0.020493 384047.000000 0 0 1
-14.275404 -33.346919 -19.703035 41.279702 1.166313 2.068382 0.102886 -0.042319 491331.000000 0 0 1
-15.318604 -33.983819 -18.802435 41.750343 1.147309 2.037958 0.088604 -0.036596 -1379640.000000 0 0 1
-15.728304 33.426827 -19.271635 41.666872 -1.131002 2.051628 0.078848 -0.044540 731996.000000 0 0 1
-16.802504 32.725927 -18.588735 41.217126 -1.096462 2.038677 0.070377 -0.041156 1381670.000000 0 0 1
-18.207204 33.393627 -18.482535 42.287595 -1.071623 2.023132 0.071474 -0.033714 -521479.000000 0 0 1
-18.294504 -34.256319 -17.491835 42.592823 1.080283 1.993991 0.072844 -0.035463 514946.000000 0 0 1
-19.641604 -34.108219 -17.032135 42.886558 1.048315 1.979199 0.050755 -0.030774 354375.000000 0 0 1
-19.964604 33.720227 -15.721335 42.223210 -1.036231 1.952324 0.063201 -0.033611 -273840.000000 0 0 1
-19.833604 32.337827 -15.770735 41.083122 -1.020636 1.964784 0.064477 -0.036656 -83724.200000 0 0 1
-20.203504 31.796527 -14.510135 40.370096 -1.004754 1.938451 0.069829 -0.032754 -3047.560000 0 0 1
-20.087204 30.266327 -14.339635 39.053443 -0.984863 1.946772 0.067534 -0.031763 4893.560000 0 0 1
-18.826604 29.743927 -13.971335 37.872687 -1.006496 1.948624 0.056285 -0.038126 48477.100000 0 0 1
-18.922504 28.313527 -14.022635 36.828674 -0.981650 1.961407 0.055910 -0.037750 1142380.000000 0 0 1
-17.586504 27.666627 -13.450635 35.435109 -1.004570 1.960144 0.066116 -0.033991 1970760.000000 0 0 1
-16.345304 28.124127 -14.030035 35.425659 -1.044327 1.977998 0.083599 -0.041489 544561.000000 0 0 1
-15.303604 27.169827 -13.829735 34.112481 -1.057832 1.988230 0.095630 -0.046705 161434.000000 0 0 1
-14.024004 27.706127 -14.484435 34.265157 -1.102225 2.007237 0.096879 -0.044725 -449479.000000 0 0 1
-14.185304 27.695727 -15.927935 34.956762 -1.097449 2.043895 0.074270 -0.041554 -663169.000000 0 0 1
-13.135404 28.296227 -16.602035 35.338971 -1.136188 2.059854 0.092158 -0.040440 -570362.000000 0 0 1
-13.213504 28.267427 -18.146135 36.096071 -1.133529 2.097536 0.106043 -0.051154 -20802.600000 0 0 1
-13.059704 26.967627 -18.679735 35.309223 -1.119809 2.128257 0.090154 -0.049124 121691.000000 0 0 1
-13.288904 27.076827 -20.026235 36.204966 -1.114548 2.156919 0.083875 -0.046574 200709.000000 0 0 1
-12.551404 25.966127 -20.929935 35.634810 -1.120536 2.198571 0.055965 -0.032964 -1019920.000000 0 0 1
-11.225404 26.274627 -21.071135 35.501527 -1.167035 2.206231 0.046034 -0.031245 -1245390.000000 0 0 1
-10.499204 25.188527 -21.675135 34.849772 -1.175870 2.242039 0.048953 -0.024174 498967.000000 0 0 1
-9.386104 25.690927 -22.645035 35.509439 -1.220515 2.262329 0.069181 -0.033090 145191.000000 0 0 1
-9.827104 26.377027 -23.766635 36.839821 -1.214164 2.271995 0.063636 -0.032247 522508.000000 0 0 1
-8.676104 26.678327 -24.582835 37.300451 -1.256373 2.290350 0.051168 -0.033270 261690.000000 0 0 1
-8.920404 27.375027 -25.938435 38.752653 -1.255788 2.304107 0.062461 -0.029557 -359660.000000 0 0 1
-9.697604 26.500227 -26.704115 38.851194 -1.219989 2.328622 0.050348 -0.027576 -323600.000000 0 0 1
-10.180904 27.001927 -27.908575 40.145279 -1.210235 2.339480 0.069505 -0.027319 868157.000000 0 0 1
-11.676104 26.596427 -28.212665 40.492663 -1.157119 2.341632 0.047193 -0.018473 838923.000000 0 0 1
-12.075904 26.903227 -29.527925 41.731396 -1.148887 2.356851 0.058555 -0.018530 316201.000000 0 0 1
-13.281904 26.314827 -30.017635 42.070625 -1.103371 2.365286 0.043055 -0.016378 304197.000000 0 0 1
-13.609804 26.617527 -31.486345 43.417847 -1.098142 2.382112 0.045304 -0.017523 242536.000000 0 0 1
-12.729104 26.031727 -32.481125 43.528202 -1.116000 2.413145 0.043806 -0.011114 483182.000000 0 0 1
-12.536704 24.588127 -32.562805 42.685843 -1.099285 2.438503 0.033451 -0.017867 -248256.000000 0 0 1
-11.693404 24.143727 -33.733425 43.099875 -1.119767 2.469757 0.023915 -0.008721 38190.400000 0 0 1
-12.327204 24.458627 33.540665 43.303124 -1.103952 0.684785 0.018349 -0.003603 546029.000000 0 0 1
-11.502504 23.810227 32.534289 41.925105 -1.120767 0.682482 0.013109 -0.004960 230222.000000 0 0 1
-12.132404 23.734427 31.101895 40.961520 -1.098250 0.708567 0.006764 0.008869 202997.000000 0 0 1
-13.306904 22.919327 31.080755 40.845839 -1.044766 0.706054 0.026975 -0.006544 215919.000000 0 0 1
-13.844704 22.927427 29.778755 40.051429 -1.027551 0.732488 0.032247 -0.004571 -183015.000000 0 0 1
-15.083704 22.034027 29.679085 39.923233 -0.970505 0.732651 0.033408 -0.009787 -316645.000000 0 0 1
-14.766704 20.659327 29.815025 39.163746 -0.950225 0.705494 0.009032 -0.012170 -1173970.000000 0 0 1
-15.813604 19.815627 29.986865 39.267559 -0.897253 0.701841 0.019204 -0.012104 -989591.000000 0 0 1
-15.351304 18.325727 30.038535 38.390212 -0.873492 0.672201 -0.000038 -0.022347 -219298.000000 0 0 1
-15.030804 17.782827 28.795465 37.031511 -0.869071 0.679967 0.011673 -0.019414 79273.900000 0 0 1
-14.366204 16.528527 28.905805 36.264660 -0.855274 0.648353 -0.000276 -0.031680 90751.200000 0 0 1
-13.948904 15.922427 27.524145 34.722819 -0.851370 0.655601 0.018607 -0.027789 197918.000000 0 0 1
-13.075004 16.788827 26.804675 34.224422 -0.909122 0.670995 -0.023152 -0.014315 -2539.250000 0 0 1
-12.559404 16.184227 25.655545 32.831004 -0.910845 0.673822 -0.032550 -0.006432 41463.800000 0 0 1
-11.479004 16.916827 24.823335 32.158117 -0.974608 0.688948 -0.025517 -0.000246 -84581.000000 0 0 1
-11.901504 17.924927 23.937625 32.186312 -0.984667 0.732177 -0.028617 -0.003387 -182069.000000 0 0 1
-12.477004 19.088227 24.515835 33.482267 -0.991860 0.749245 -0.025348 -0.011781 814858.000000 0 0 1
-11.423204 19.994027 25.341735 34.241119 -1.051724 0.737582 -0.030748 -0.009062 1075230.000000 0 0 1
-11.074404 19.530327 26.656705 34.851915 -1.054968 0.699978 -0.028539 -0.003205 -235529.000000 0 0 1
-12.125504 19.775427 27.536265 36.004739 -1.020756 0.700072 -0.013317 0.001373 -420119.000000 0 0 1
-11.797704 19.420327 28.976155 36.823260 -1.024886 0.665030 -0.012839 -0.005578 -298431.000000 0 0 1
-10.677404 20.057827 29.546495 37.273566 -1.081620 0.655582 -0.026118 -0.003910 -134317.000000 0 0 1
-10.608504 19.798527 30.904235 38.204630 -1.078903 0.628495 -0.015830 -0.013017 60350.800000 0 0 1
-9.491804 20.546227 31.654895 38.913676 -1.138030 0.620712 -0.023715 -0.006846 827049.000000 0 0 1
-8.149004 20.049627 31.571965 38.277706 -1.184749 0.600924 -0.021312 -0.004898 900214.000000 0 0 1
-7.288904 20.942227 32.280825 39.163205 -1.235861 0.601895 -0.002288 -0.005357 672434.000000 0 0 1
-5.953604 20.344027 32.835793 39.083425 -1.286100 0.573244 -0.002218 0.000909 148132.000000 0 0 1
-6.045204 19.445127 33.944824 39.584195 -1.269383 0.540338 0.000089 -0.003539 -112477.000000 0 0 1
-4.803404 19.011427 -34.037555 39.281830 -1.323317 2.618936 0.001825 0.001781 146490.000000 0 0 1
-4.123704 17.868527 33.647340 38.320134 -1.343987 0.499005 -0.012362 -0.000234 -123585.000000 0 0 1
-4.770004 16.608027 33.731119 37.899444 -1.291114 0.473416 -0.004509 0.003368 92082.400000 0 0 1
-4.855704 15.953527 32.512978 36.540205 -1.275339 0.473919 -0.006106 0.005735 -245276.000000 0 0 1
-5.420004 14.520827 32.637836 36.131139 -1.213554 0.443359 0.001813 -0.003757 47070.900000 0 0 1
-4.552904 13.534427 33.253115 36.189492 -1.246293 0.405612 0.016782 -0.000811 229080.000000 0 0 1
-5.144504 12.221827 33.264783 35.810400 -1.172380 0.379327 0.013435 -0.003218 -69477.200000 0 0 1
-4.252804 11.179327 33.935280 35.981480 -1.207285 0.338867 0.017635 -0.015930 -433247.000000 0 0 1
-4.145504 11.110627 -33.154825 35.211840 -1.213682 2.798093 0.040563 -0.019272 -433452.000000 0 0 1
-3.351504 10.002127 -32.833395 34.486330 -1.247475 2.830729 0.056618 -0.022618 -109676.000000 0 0 1
-3.545004 9.425827 -31.467885 33.039992 -1.211066 2.831870 0.055549 -0.020686 826104.000000 0 0 1
-4.840304 8.808827 -31.316585 32.890006 -1.068350 2.831028 0.049872 -0.018434 654833.000000 0 0 1
-5.025004 8.499427 -29.969785 31.554380 -1.036860 2.823335 0.058969 -0.015207 404037.000000 0 0 1
-6.348004 7.734927 -29.655855 31.298498 -0.883564 2.816174 0.044304 -0.013429 128013.000000 0 0 1
-6.248704 7.235127 -28.313475 29.883879 -0.858424 2.815964 0.042001 -0.001962 -166295.000000 0 0 1
-7.034204 6.121427 -28.102335 29.609004 -0.716126 2.821208 0.045955 -0.012766 -727147.000000 0 0 1
-6.599404 5.322627 -26.807075 28.115863 -0.678711 2.835274 0.035795 -0.010677 -77103.900000 0 0 1
-6.664304 5.879727 -25.491655 26.996455 -0.722934 2.806134 0.018134 -0.006834 67157.400000 0 0 1
-5.982004 7.106127 -25.246215 26.900795 -0.871077 2.789037 0.028636 -0.003615 -407902.000000 0 0 1
-6.550004 7.803127 -24.006035 26.078364 -0.872484 2.740243 0.006618 -0.002374 190224.000000 0 0 1
-6.401404 7.299827 -22.715335 24.703277 -0.850877 2.737672 0.001099 -0.003159 -216806.000000 0 1 0
-7.595104 7.568927 -22.020035 24.491962 -0.783672 2.688441 -0.001220 -0.002151 906.615000 0 1 0
-7.419004 7.700527 -20.484135 23.107131 -0.804016 2.660490 0.001307 -0.005344 -318473.000000 0 1 0
-6.866804 8.960027 -20.139235 23.087309 -0.916893 2.630698 -0.010010 -0.003613 -14920.100000 0 1 0
-6.752004 9.143927 -18.760535 21.935328 -0.934752 2.596860 -0.000184 -0.007710 -1419560.000000 0 1 0
-8.036404 9.338527 -18.019735 21.828942 -0.860201 2.541879 -0.004072 -0.003525 -1464280.000000 0 1 0
-7.895604 9.430027 -16.569335 20.635136 -0.873731 2.503053 0.000568 -0.003352 -130158.000000 0 1 0
-9.040904 9.751527 -15.801035 20.651947 -0.823194 2.442010 0.005005 -0.010297 23132.600000 0 1 0
-9.620504 11.172427 -15.984435 21.745790 -0.859897 2.396550 0.010954 -0.012068 -671621.000000 0 1 0
-8.659804 12.175327 -15.757335 21.714612 -0.952554 2.382783 0.001318 -0.010975 -345926.000000 0 1 0
-8.928504 13.545227 -16.071335 22.835918 -0.988007 2.351493 0.012434 -0.015394 -257117.000000 0 1 0
-7.717404 14.439327 -15.755635 22.722071 -1.079954 2.337003 0.021683 -0.014395 -21025.800000 0 1 0
-7.245604 14.604127 -14.396935 21.749736 -1.110246 2.294195 0.026780 -0.012174 226758.000000 0 1 0
-8.193504 15.252527 -13.564635 21.994827 -1.077841 2.235365 0.022450 -0.019912 -623898.000000 0 1 0
-7.513704 16.094427 -12.491335 21.714506 -1.134018 2.183710 0.026208 -0.017523 73794.600000 0 1 0
-7.168604 17.396527 -12.978335 22.857498 -1.179927 2.174619 0.042755 -0.014396 -299791.000000 0 1 0
-6.091404 17.499027 -13.868635 23.144333 -1.235816 2.213328 0.055010 -0.013910 -562429.000000 0 1 0
-5.868404 18.908727 -14.495635 24.537757 -1.269867 2.202782 0.067629 -0.009007 344530.000000 0 1 0
-5.181604 19.847227 -13.641935 24.634606 -1.315422 2.157683 0.055336 -0.016942 44791.500000 0 1 0
-5.132804 21.133527 -14.163735 25.953478 -1.332535 2.148063 0.055387 -0.018041 28241.000000 0 0 1
-4.627404 22.037627 -13.028035 26.015371 -1.363826 2.095299 0.051682 -0.020645 -820462.000000 0 0 1
-4.568804 23.434027 -13.344635 27.351542 -1.378247 2.080471 0.036350 -0.017648 -132311.000000 0 0 1
-5.799804 24.113627 -13.446835 28.212091 -1.334760 2.067618 0.043165 -0.023100 107763.000000 0 0 1
-6.718804 24.120727 -12.212035 27.858313 -1.299134 2.024572 0.047531 -0.030981 -263318.000000 0 0 1
-7.407904 22.884227 -11.945435 26.856252 -1.257730 2.031738 0.052967 -0.029575 203821.000000 0 0 1
-8.400304 22.886227 -10.924635 26.715017 -1.219017 1.992080 0.052426 -0.024385 177661.000000 0 0 1
-7.929404 22.955327 -9.463335 26.064865 -1.238201 1.942355 0.049072 -0.024469 -146823.000000 0 0 1
-7.327704 24.236927 -9.312135 26.978505 -1.277197 1.923215 0.040314 -0.023310 -21639.100000 0 0 1
-6.932604 24.505127 -7.952435 26.679645 -1.295097 1.873468 0.038066 -0.028777 7472.930000 0 0 1
-6.717904 26.008627 -7.715635 27.948344 -1.318026 1.850497 0.032489 -0.025999 526409.000000 0 0 1
-5.620004 26.749627 -8.280335 28.560303 -1.363712 1.864944 0.020509 -0.025876 258082.000000 0 0 1
-5.511604 26.867627 -9.675335 29.083659 -1.368464 1.909932 0.019482 -0.025290 -388160.000000 0 0 1
-4.955104 28.245727 -10.094935 30.402004 -1.397135 1.909271 0.011193 -0.024683 22881.300000 0 0 1
-5.922304 29.257827 -10.068535 31.503484 -1.371077 1.896104 0.011350 -0.020734 114624.000000 0 0 1
-6.833404 29.283327 -11.180135 32.081210 -1.341544 1.926761 0.018079 -0.021825 226846.000000 0 0 1
-7.877204 30.423927 -11.053335 33.314289 -1.317445 1.908996 0.021085 -0.015761 219021.000000 0 0 1
-8.963204 30.098627 -10.183635 33.014736 -1.281364 1.884367 0.046649 -0.019207 280082.000000 0 0 1
-9.962604 31.108327 -10.253635 34.236216 -1.260862 1.874961 0.043436 -0.020513 -268149.000000 0 0 1
-11.195604 30.799527 -9.449335 34.106338 -1.222146 1.851524 0.060701 -0.023009 -359527.000000 0 0 1
-12.071604 29.773527 -9.878035 33.611934 -1.185603 1.869085 0.072381 -0.033353 739946.000000 0 0 1
-13.300504 29.778527 -9.115235 33.863720 -1.150734 1.843332 0.082496 -0.027255 921998.000000 0 0 1
-14.290104 28.696527 -9.570135 33.455720 -1.108771 1.860902 0.086216 -0.027329 -233105.000000 0 0 1
-13.952604 27.377627 -9.354835 32.120438 -1.099470 1.866322 0.073731 -0.022355 -313336.000000 0 0 1
-15.002404 26.520127 -9.727335 31.984532 -1.055980 1.879817 0.076116 -0.021915 -154104.000000 0 0 1
-14.978204 25.110927 -9.036435 30.603307 -1.032968 1.870541 0.071551 -0.015424 334466.000000 0 0 1
-13.912404 24.193627 -9.339435 29.429774 -1.048929 1.893726 0.063190 -0.010858 681521.000000 0 0 1
-14.364804 22.872727 -9.065335 28.490165 -1.010020 1.894618 0.067232 -0.012071 -41221.700000 0 0 1
-13.388904 21.736127 -9.431235 27.215256 -1.018713 1.924679 0.066118 -0.010995 -321413.000000 0 0 1
-13.249604 21.545027 -10.857435 27.524972 -1.019440 1.976274 0.064801 -0.007284 396063.000000 0 0 1
-12.521104 20.358027 -11.155335 26.375534 -1.019388 2.007486 0.065650 -0.009185 -99104.000000 0 0 1
-12.543704 19.991127 -12.678935 26.790764 -1.010427 2.063781 0.060138 -0.004810 770927.000000 0 0 1
-13.858104 19.665827 -13.171435 27.427695 -0.956937 2.071706 0.057373 0.001802 497432.000000 0 0 1
-13.916604 19.347327 -14.566135 27.931402 -0.947232 2.119400 0.052719 0.006137 476438.000000 0 0 1
-15.375004 19.014027 -14.987835 28.680292 -0.890825 2.120674 0.050604 0.000743 478725.000000 0 0 1
-16.258404 20.110427 -15.003135 29.897475 -0.890920 2.096497 0.028581 -0.002036 -332285.000000 0 0 1
-17.548004 19.641627 -15.336735 30.478540 -0.841635 2.098092 0.021375 0.003703 -286205.000000 0 0 1
-18.466304 20.715927 -15.899235 31.983428 -0.842750 2.091060 0.020880 0.000849 -185844.000000 0 0 1
-18.952004 21.654327 -14.954035 32.430101 -0.851849 2.050049 0.028502 -0.015489 208068.000000 0 0 1
-18.886704 22.879427 -15.609835 33.523763 -0.880706 2.055148 0.036701 -0.018853 -96757.300000 0 0 1
-19.492904 24.000927 -14.768035 34.265327 -0.888677 2.016387 0.033292 -0.013497 1545220.000000 0 0 1
-20.931904 23.910527 -14.523435 34.939777 -0.851725 1.999476 0.050407 -0.011420 1810210.000000 0 0 1
-21.389604 24.947827 -13.642035 35.581095 -0.862037 1.964279 0.050880 -0.027854 26006.800000 0 0 1
-26.012064 -0.670273 3.441365 26.247280 0.025762 1.439305 0.106969 -0.035006 35335.800000 0 0 1
-26.279374 0.101127 4.578165 26.675369 -0.003848 1.398317 0.099285 -0.032782 164464.000000 0 0 1
-27.360574 -0.355373 5.360365 27.882984 0.012988 1.377347 0.094750 -0.028708 -140385.000000 0 0 1
-27.707254 0.516327 6.559565 28.477823 -0.018633 1.338370 0.092313 -0.017018 -657123.000000 0 0 1
-28.408794 1.660827 6.267065 29.139218 -0.058395 1.354030 0.116340 -0.012278 -168531.000000 0 0 1
-28.667854 2.545027 7.361565 29.707165 -0.088544 1.320383 0.126761 -0.010101 301381.000000 0 0 1
-27.468284 3.166927 8.183265 28.835774 -0.114787 1.283053 0.130789 -0.013523 560051.000000 0 0 1
-26.859864 2.138327 8.982365 28.402598 -0.079443 1.249021 0.118741 -0.016875 462587.000000 0 0 1
-25.666134 2.488827 9.664365 27.538058 -0.096667 1.212215 0.107577 -0.024657 54209.300000 0 0 1
-25.005504 1.264427 10.280065 27.065730 -0.050523 1.181196 0.088990 -0.023431 -634299.000000 0 0 1
-24.077904 0.513827 9.542565 25.905019 -0.021337 1.193544 0.085407 -0.031339 32324.000000 0 0 1
-24.530204 -0.400873 8.532165 25.974785 0.016341 1.236104 0.070513 -0.022559 -582348.000000 0 0 1
-23.407204 -1.217573 7.878065 24.727385 0.051970 1.246548 0.064926 -0.032389 -297364.000000 0 1 0
-22.719604 -1.949673 8.842565 24.457567 0.085605 1.200870 0.078307 -0.038763 100699.000000 0 1 0
-21.611304 -2.655773 8.324165 23.310798 0.122275 1.205641 0.090360 -0.032618 739102.000000 0 1 0
-20.357304 -2.780273 9.288265 22.548206 0.135734 1.146226 0.069632 -0.019896 604367.000000 0 1 0
-19.769304 -1.510973 9.473665 21.974047 0.076282 1.125052 0.061266 -0.025262 111125.000000 0 1 0
-20.193604 -0.936873 10.694165 22.869729 0.046361 1.084209 0.061775 -0.023991 -397111.000000 0 1 0
-19.832304 0.570627 10.870365 22.623234 -0.028765 1.069577 0.039596 -0.013631 -374566.000000 0 1 0
-20.431804 1.475027 9.970965 22.782766 -0.072068 1.117809 0.045956 -0.012367 276213.000000 0 1 0
-20.630904 2.724727 10.581365 23.345741 -0.131310 1.100393 0.042095 -0.008541 -443650.000000 0 1 0
-21.447004 3.779627 9.854165 23.903224 -0.174440 1.145871 0.037474 -0.010382 -692730.000000 0 1 0
-21.530104 5.018327 10.583465 24.509971 -0.228996 1.124306 0.025635 -0.002368 305239.000000 0 1 0
-22.196104 5.982627 9.844065 25.007288 -0.263278 1.166200 0.032866 -0.006211 -509483.000000 0 0 1
-22.475604 7.138427 10.754165 25.918371 -0.307531 1.142937 0.041842 -0.002551 38170.200000 0 0 1
-23.323804 6.841427 11.872165 27.050938 -0.285321 1.116442 0.043054 -0.001563 492378.000000 0 0 1
-23.358804 7.953527 12.753965 27.776895 -0.328181 1.093750 0.052130 0.000020 -150452.000000 0 0 1
-24.067904 7.555027 14.070965 28.884849 -0.304164 1.061984 0.072393 -0.002347 26926.300000 0 0 1
-25.457694 7.447227 13.849165 29.922479 -0.284593 1.089606 0.085336 -0.006077 -272319.000000 0 0 1
-26.118644 6.874627 14.953865 30.871704 -0.257370 1.065134 0.083096 -0.009314 -129975.000000 0 0 1
-27.599204 6.702427 14.564565 31.918100 -0.238237 1.096952 0.077629 -0.002502 -357222.000000 0 0 1
-27.854174 5.671927 13.624365 31.522200 -0.200883 1.123849 0.094113 0.007686 -121255.000000 0 0 1
-29.130914 5.848927 13.058665 32.455336 -0.198146 1.156705 0.106368 0.001683 -262831.000000 0 0 1
-29.563704 4.704927 12.065165 32.275643 -0.157822 1.187676 0.126436 0.000636 -144914.000000 0 0 1
-30.194894 3.624027 12.699865 32.956816 -0.119450 1.175211 0.101805 -0.003627 168549.000000 0 0 1
-30.351284 2.561727 11.782065 32.658535 -0.084203 1.201708 0.102991 -0.000867 -460416.000000 0 0 1
-31.486584 1.633727 12.218065 33.813535 -0.051840 1.201095 0.097451 0.005850 -358618.000000 0 0 1
-31.173774 0.573527 13.106165 33.821660 -0.018396 1.172869 0.078232 0.003031 -584463.000000 0 0 1
-32.316154 0.158227 13.793865 35.137296 -0.004896 1.167372 0.078145 0.006437 -232722.000000 0 0 1
-32.230894 -1.094773 14.761865 35.467474 0.033954 1.141525 0.058639 -0.002901 -155137.000000 0 0 1
-32.044644 -2.355273 14.143465 35.106183 0.073368 1.156139 0.056103 -0.005258 132821.000000 0 0 1
-32.449964 -3.383073 15.043565 35.927067 0.103880 1.138755 0.055167 -0.005289 -162737.000000 0 0 1
-32.290204 -4.842673 14.591265 35.763302 0.148864 1.150539 0.053119 -0.006035 -124452.000000 0 0 1
-33.324074 -5.274573 13.736065 36.427936 0.156979 1.184160 0.034736 -0.010798 -29983.300000 0 0 1
-33.262434 -6.641373 13.428965 36.480604 0.197074 1.193818 0.042061 -0.011639 -681636.000000 0 0 1
-34.223260 -7.057173 12.278665 37.037829 0.203359 1.232885 0.048519 -0.010009 -276159.000000 0 0 1
-35.590431 -6.979873 12.484165 38.356900 0.193659 1.239284 0.038575 -0.004898 -678704.000000 0 0 1
36.093224 -5.696073 12.704465 38.685521 -0.156525 1.236183 0.046426 -0.009549 -942706.000000 0 0 1
34.576004 -5.639673 12.452165 37.180134 -0.161686 1.229282 0.057077 -0.013481 -199864.000000 0 0 1
33.751194 -6.403873 13.254865 36.821789 -0.187509 1.202557 0.050470 -0.008910 -1075870.000000 0 0 1
32.415484 -6.134673 13.036665 35.473264 -0.187039 1.194470 0.061621 -0.011220 -471444.000000 0 0 1
31.339554 -7.168873 13.440165 34.845350 -0.224879 1.174820 0.041079 -0.013470 158653.000000 0 0 1
31.058044 -7.184573 14.791765 35.142802 -0.227329 1.136354 0.047875 -0.008347 -147165.000000 0 0 1
29.984054 -8.076973 14.969665 34.472770 -0.263130 1.121595 0.053101 -0.008268 -59284.200000 0 0 1
29.385104 -8.113473 16.389365 34.611040 -0.269396 1.077502 0.035851 -0.002426 446179.000000 0 0 1
30.309044 -8.604973 17.384965 35.985007 -0.276629 1.066585 0.017773 0.008069 226080.000000 0 0 1
29.666004 -8.746173 18.610365 36.095887 -0.286699 1.029110 0.014470 0.008785 -1005410.000000 0 0 1
30.527234 -9.235473 19.756465 37.516981 -0.293778 1.016199 0.014711 0.008586 -388992.000000 0 0 1
31.512474 -8.317773 20.147965 38.316600 -0.258066 1.017107 0.018216 0.004562 290470.000000 0 0 1
32.759144 -8.633473 19.521465 39.099693 -0.257685 1.048036 0.014328 0.019012 -481994.000000 0 0 1
34.050174 -8.068373 20.075265 40.342648 -0.232664 1.049945 0.028033 0.006276 -358662.000000 0 0 1
34.425704 -8.580473 21.326365 41.395259 -0.244269 1.029569 0.032768 0.004224 -731609.000000 0 0 1
35.607054 -7.997073 21.748265 42.482967 -0.220926 1.033367 0.018054 0.007876 -732081.000000 0 0 1
36.116224 -8.727673 23.021365 43.709692 -0.237109 1.016097 0.027332 0.001933 144390.000000 0 0 1
35.388484 -8.341573 24.193865 43.672300 -0.231489 0.983651 0.032920 -0.000639 526608.000000 0 0 1
35.838254 -9.199773 25.259265 44.800075 -0.251277 0.971790 0.024375 -0.003082 11745.400000 0 0 1
35.247404 -8.847573 26.622465 45.049025 -0.245932 0.938540 0.039507 -0.005284 -78897.600000 0 0 1
36.114504 -7.919273 27.201865 45.901130 -0.215866 0.936490 0.016471 -0.011088 -80317.200000 0 0 1
35.555424 -7.369473 28.389465 46.091854 -0.204373 0.907227 0.015060 -0.009437 13738.500000 0 0 1
-35.673421 -6.869273 29.424365 46.750114 0.190232 0.890020 0.023037 -0.014382 105001.000000 0 0 1
-34.948902 -7.851473 30.125365 46.803942 0.220987 0.871538 0.016300 -0.011600 467684.000000 0 0 1
-33.613224 -7.467473 30.461065 45.972692 0.218609 0.846524 0.022961 -0.015506 689093.000000 0 0 1
-33.182034 -8.069973 31.787365 46.654136 0.238571 0.821204 0.011949 -0.013519 -303607.000000 0 0 1
-33.102274 -9.465473 31.711565 46.807895 0.278514 0.826461 0.014156 -0.014233 246463.000000 0 0 1
-32.684884 -10.075973 32.923665 47.474146 0.299032 0.804450 0.008769 -0.013149 -171000.000000 0 0 1
-32.899164 -11.664173 32.996465 48.033058 0.340716 0.813508 0.026473 -0.017406 -265976.000000 0 0 1
-34.267361 -11.984173 32.953465 49.028596 0.336430 0.833718 0.022195 -0.018776 -286230.000000 0 0 1
-34.571859 -13.354273 33.091965 49.685291 0.368619 0.841921 0.027322 -0.027584 -396507.000000 0 0 1
-36.076664 -13.589473 33.111565 50.819044 0.360246 0.861160 0.029991 -0.020356 -455040.000000 0 0 1
35.943224 -14.916173 33.540065 51.374542 -0.393364 0.859451 0.025849 -0.023191 1209900.000000 0 0 1
34.584964 -15.170473 33.994365 50.812202 -0.413370 0.837907 0.010281 -0.017590 892884.000000 0 0 1
34.310704 -16.631473 -34.134815 51.176322 -0.451358 2.300977 0.000858 -0.008236 -404659.000000 0 0 1
34.780344 -17.102373 -32.901815 50.839875 -0.457006 2.274657 0.011992 -0.020658 -2778.970000 0 0 1
34.925264 -18.506773 -32.929015 51.445065 -0.487278 2.265400 0.000651 -0.020715 -518818.000000 0 0 1
35.374824 -19.096473 -31.611715 51.140532 -0.495003 2.237163 0.010188 -0.024001 -492576.000000 0 0 1
34.359984 -19.247973 -30.670415 49.917606 -0.510630 2.232448 0.012092 -0.018378 -561546.000000 0 0 1
34.743894 -20.049373 -29.577515 49.839191 -0.523382 2.206146 0.008546 -0.010814 -730483.000000 0 0 1
33.797714 -19.946173 -28.349015 48.412828 -0.533155 2.196377 0.012628 -0.003883 852704.000000 0 0 1
32.477454 -20.456973 -28.528515 47.824146 -0.562102 2.209966 0.022763 -0.002194 898487.000000 0 0 1
31.612034 -19.714173 -29.382015 47.447572 -0.557613 2.238586 0.006840 0.000975 -2066280.000000 0 0 1
30.281544 -20.298873 -29.657415 46.995515 -0.590540 2.253727 -0.000733 0.004048 -961603.000000 0 0 1
29.499354 -19.578273 -30.649315 46.828423 -0.585935 2.284321 -0.013175 0.006174 1069300.000000 0 0 1
28.225484 -20.242073 -30.748415 46.388409 -0.622147 2.295411 -0.003055 0.000684 589780.000000 0 0 1
27.320014 -19.809773 -31.911615 46.445252 -0.627374 2.328259 0.001308 0.005934 -56875.100000 0 0 1
27.789424 -20.074073 -33.197015 47.720670 -0.625578 2.340124 -0.014444 0.004173 -437141.000000 0 0 1
26.772394 -19.939373 -34.140215 47.748235 -0.640148 2.367427 0.016339 -0.005326 -349752.000000 0 0 1
27.325934 -19.841473 32.924765 47.163873 -0.628032 0.798066 0.021992 -0.002548 -455914.000000 0 0 1
28.106614 -18.728473 32.636865 46.967036 -0.587774 0.802531 -0.002828 -0.006207 54799.800000 0 0 1
28.314104 -18.606773 31.204465 46.061037 -0.581389 0.826494 0.003495 -0.003594 585965.000000 0 0 1
27.082294 -17.972373 30.428165 44.523366 -0.585891 0.818359 -0.000460 -0.001601 480439.000000 0 0 1
26.737494 -16.743873 30.849265 44.124007 -0.559485 0.796589 0.004238 -0.005894 357519.000000 0 0 1
25.842394 -16.016073 30.017565 42.724678 -0.554822 0.791778 0.007091 -0.004467 71509.700000 0 0 1
25.729794 -14.491073 30.355765 42.349569 -0.512923 0.771608 0.022512 -0.013148 39691.400000 0 0 1
26.913294 -13.749473 30.075365 42.636850 -0.472314 0.787831 0.020607 -0.008919 558735.000000 0 0 1
26.731294 -12.477873 30.713565 42.586177 -0.436728 0.765249 0.034995 -0.016718 9161.130000 0 0 1
28.049824 -11.698473 30.903665 43.343782 -0.395127 0.777044 0.027229 -0.016459 21136.600000 0 0 1
28.530754 -11.237073 29.670165 42.668424 -0.375201 0.801867 0.027449 -0.019565 -382563.000000 0 0 1
29.930404 -11.219473 29.588165 43.556460 -0.358641 0.823980 0.033893 -0.012535 -133335.000000 0 0 1
30.531784 -10.467273 28.342365 42.953967 -0.330275 0.850202 0.045713 -0.018520 -341070.000000 0 0 1
30.459084 -9.057773 28.394565 42.615143 -0.289047 0.841557 0.050748 -0.017111 -64013.300000 0 0 1
30.901704 -8.560273 27.162365 42.023656 -0.270240 0.867993 0.040090 -0.009298 -17328.700000 0 0 1
30.680034 -7.012773 26.884165 41.390842 -0.224717 0.863844 0.037182 -0.011978 -321053.000000 0 0 1
29.373104 -6.519673 26.755865 40.263652 -0.218420 0.843950 0.047801 -0.011556 -602668.000000 0 0 1
29.255374 -5.111473 26.735565 39.959911 -0.172973 0.837853 0.049719 -0.004947 -207980.000000 0 0 1
27.816544 -4.642473 26.508465 38.704152 -0.165372 0.816330 0.053943 -0.005726 -384297.000000 0 0 1
27.386934 -4.811773 25.160565 37.500018 -0.173921 0.835310 0.058070 -0.005021 -602861.000000 0 0 1
26.087394 -4.299973 25.137065 36.481693 -0.163361 0.810643 0.076144 -0.008646 -492337.000000 0 0 1
25.312494 -4.684073 23.865465 35.103039 -0.182980 0.823212 0.076239 0.002018 -176970.000000 0 0 1
25.707694 -3.824973 22.837165 34.598440 -0.147704 0.849893 0.076204 0.006724 76286.000000 0 0 1
25.296294 -4.323173 21.555165 33.514437 -0.169266 0.872178 0.081410 0.002710 101061.000000 0 0 1
25.578594 -3.280373 20.456465 32.916444 -0.127551 0.900183 0.088181 -0.000198 266506.000000 0 0 1
24.571694 -2.276173 20.290465 31.947646 -0.092370 0.882637 0.089157 0.007197 122782.000000 0 0 1
24.871794 -1.244173 19.390965 31.562060 -0.049982 0.909202 0.097923 -0.007410 -345797.000000 0 0 1
23.615394 -0.458473 18.990865 30.307590 -0.019412 0.893608 0.075249 -0.012905 -465088.000000 0 0 1
22.735594 -1.237173 18.248965 29.179831 -0.054362 0.895157 0.090751 -0.015393 -383546.000000 0 0 1
21.602394 -0.532773 17.775665 27.980735 -0.024658 0.882422 0.092912 -0.014914 607642.000000 0 0 1
20.502994 -1.491473 17.215965 26.813928 -0.072616 0.873623 0.070293 -0.020252 18684.100000 0 0 1
20.773194 -1.925273 15.916865 26.240786 -0.092417 0.919058 0.090220 -0.030677 232905.000000 0 0 1
19.708894 -2.694773 15.375865 25.141988 -0.135886 0.912764 0.080366 -0.031501 53825.600000 0 0 1
19.987494 -3.239373 13.942365 24.584202 -0.160673 0.967783 0.082638 -0.038047 -439669.000000 0 1 0
19.025894 -4.162673 13.534765 23.717132 -0.215396 0.963469 0.065531 -0.029392 363286.000000 0 1 0
19.222894 -4.600173 12.189165 23.221908 -0.234890 1.018199 0.056714 -0.025462 -118642.000000 0 1 0
18.208194 -5.724873 11.877865 22.481018 -0.304626 1.014139 0.024172 -0.015447 234062.000000 0 1 0
18.553794 -6.875873 12.581865 23.448331 -0.354900 1.004419 0.058417 -0.019601 408469.000000 0 1 0
17.436894 -7.688773 12.452465 22.764586 -0.415301 0.992008 0.038307 -0.000595 -466196.000000 0 1 0
17.834994 -9.145673 12.773765 23.767613 -0.473830 1.003393 0.058815 -0.019763 -262179.000000 0 1 0
18.527094 -9.807073 11.733065 24.022837 -0.486841 1.060526 0.048617 -0.029538 402796.000000 0 1 0
18.338594 -11.196573 11.750265 24.489508 -0.548139 1.070360 0.059806 -0.024846 -217592.000000 0 1 0
19.003894 -11.757973 10.479665 24.682409 -0.554066 1.132298 0.066720 -0.029261 148393.000000 0 1 0
18.397694 -11.451773 9.213765 23.548073 -0.556769 1.168780 0.060585 -0.020298 540273.000000 0 1 0
19.321494 -11.812573 8.204165 24.086622 -0.548738 1.223230 0.080706 -0.027381 -141967.000000 0 1 0
19.071394 -11.134273 6.851565 23.122155 -0.528438 1.269959 0.080579 -0.022205 -330811.000000 0 1 0
19.407794 -9.770973 6.801065 22.768155 -0.466409 1.267456 0.088371 -0.015754 598992.000000 0 1 0
19.492594 -9.464773 5.426365 22.338053 -0.452027 1.325421 0.048711 -0.017826 -214856.000000 0 1 0
20.015094 -8.041973 5.210865 22.190774 -0.382053 1.333762 0.068631 -0.015206 -441557.000000 0 1 0
20.393094 -7.795073 3.921665 22.181544 -0.365104 1.393064 0.056477 -0.017172 591783.000000 0 1 0
20.950394 -6.519873 3.742365 22.258326 -0.301705 1.401861 0.076866 -0.017846 -339225.000000 0 1 0
21.647494 -6.231573 2.361565 22.650022 -0.280288 1.466343 0.081078 -0.015199 501786.000000 0 1 0
20.792294 -5.869873 1.277865 21.642732 -0.275150 1.511718 0.067881 -0.025542 1121800.000000 0 1 0
21.663894 -5.448573 0.222065 22.339664 -0.246394 1.560856 0.097886 -0.014860 673197.000000 0 1 0
-25.615044 -15.772873 -0.562635 30.087050 0.551932 1.589498 0.048502 0.010192 -941408.000000 0 0 1
-24.724904 -14.959673 -1.204335 28.923401 0.544121 1.612447 0.046672 0.015748 164845.000000 0 0 1
-23.345904 -15.233573 -0.901335 27.890955 0.578142 1.603118 0.048995 0.012368 1023310.000000 0 0 1
-22.806704 -14.695373 0.463065 27.135109 0.572389 1.553730 0.061585 -0.003562 -268570.000000 0 0 1
-23.309304 -15.303173 1.686965 27.934864 0.580950 1.510370 0.061970 0.008147 571502.000000 0 0 1
-22.486104 -14.778473 2.743565 27.047279 0.581439 1.469186 0.073577 0.011896 673887.000000 0 0 1
-22.847904 -15.466273 4.028865 27.883043 0.595070 1.425797 0.075831 0.012909 -23377.000000 0 0 1
-22.435804 -16.811373 4.136765 28.339026 0.643059 1.424299 0.079282 0.003200 240898.000000 0 0 1
-23.126404 -17.481773 5.198365 29.452775 0.647281 1.393369 0.080047 -0.005743 -27786.800000 0 0 1
-22.984004 -19.003273 5.300765 30.290047 0.690873 1.394890 0.053588 -0.000210 57760.800000 0 0 1
-23.647604 -19.574473 6.424065 31.363000 0.691438 1.364507 0.049997 -0.004142 37329.400000 0 0 1
-23.886604 -20.921973 6.120965 32.338290 0.719332 1.380368 0.049808 -0.008274 -127381.000000 0 0 1
-24.500204 -21.736773 7.264865 33.548853 0.725702 1.352521 0.040445 -0.005319 114951.000000 0 0 1
-23.545404 -21.926873 8.299065 33.227222 0.749819 1.318357 0.039338 -0.003277 145487.000000 0 0 1
-23.949304 -23.057173 9.068765 34.459322 0.766422 1.304487 0.032737 -0.001704 421646.000000 0 0 1
-22.921504 -23.372673 10.192265 34.286432 0.795144 1.268966 0.040471 -0.003806 365330.000000 0 0 1
-23.140604 -22.473873 11.281565 34.173619 0.770783 1.234360 0.044205 -0.000193 197778.000000 0 0 1
-22.224604 -22.668473 12.343965 34.061212 0.795285 1.199949 0.043874 -0.001237 -429533.000000 0 0 1
-22.608704 -21.871273 13.624065 34.280041 0.768821 1.162077 0.038559 0.004246 -399500.000000 0 0 1
-23.784904 -22.485573 14.066865 35.625824 0.757324 1.164891 0.051850 -0.002675 -184971.000000 0 0 1
-24.321404 -21.843173 15.248165 36.071615 0.731767 1.134353 0.056635 0.004886 1364510.000000 0 0 1
-25.736094 -22.446073 15.697565 37.584389 0.717221 1.139926 0.033944 0.007091 1385220.000000 0 0 1
-26.831744 -22.156173 14.835765 37.827747 0.690243 1.167782 0.040428 0.003269 269125.000000 0 0 1
-27.060494 -23.173273 13.837865 38.219856 0.708169 1.200320 0.030974 0.000183 -332153.000000 0 0 1
-28.174534 -24.151173 14.243065 39.748565 0.708658 1.204319 0.030979 0.000291 -527057.000000 0 0 1
-27.963304 -24.693573 15.537365 40.411986 0.723383 1.176158 0.039355 0.002963 -830.862000 0 0 1
-28.914354 -25.662583 15.962265 41.825852 0.725887 1.179230 0.017073 -0.000020 -77182.400000 0 0 1
-28.723674 -27.055653 15.334865 42.334571 0.755503 1.200137 0.030331 0.004865 -183824.000000 0 0 1
-29.206654 -27.121423 14.025265 42.252909 0.748396 1.232441 0.034181 -0.003031 -283349.000000 0 0 1
-30.459884 -27.760493 14.091065 43.554651 0.739066 1.241343 0.040367 -0.011722 -402550.000000 0 0 1
-30.946414 -28.240443 12.714965 43.782114 0.739711 1.276136 0.060081 -0.023315 -345709.000000 0 0 1
-30.104504 -29.152423 12.098065 43.617750 0.769333 1.289745 0.056060 -0.020234 -79106.500000 0 0 1
-30.727924 -29.580363 10.883665 44.018829 0.766372 1.320955 0.056031 -0.017701 474922.000000 0 0 1
-30.015494 -30.775793 10.155765 44.172603 0.797904 1.338810 0.044903 -0.026102 48981.000000 0 0 1
-30.104604 -32.008323 10.834965 45.257225 0.816038 1.329040 0.043053 -0.014395 129098.000000 0 0 1
-29.486544 -33.011723 10.009165 45.380762 0.841743 1.348408 0.044736 -0.015678 -123896.000000 0 0 1
-29.385954 34.242957 10.736365 46.383013 -0.861584 1.337206 0.052561 -0.015159 -558246.000000 0 0 1
-30.662024 33.722887 10.896465 46.862840 -0.832902 1.336130 0.069590 -0.022798 -879885.000000 0 0 1
-30.601344 32.457333 11.582065 46.087579 -0.814822 1.316767 0.060717 -0.022286 463356.000000 0 0 1
-31.981784 32.160633 12.298065 46.993438 -0.788186 1.306016 0.063711 -0.026306 1459360.000000 0 0 1
-33.128364 32.001523 11.470165 47.467364 -0.768098 1.326737 0.064528 -0.033169 306980.000000 0 0 1
-33.622294 33.197739 10.911465 48.493387 -0.779045 1.343844 0.074967 -0.027768 -330080.000000 0 0 1
-35.114043 33.114848 10.430565 49.380014 -0.756105 1.357963 0.080102 -0.010785 772498.000000 0 0 1
-35.396876 32.478793 9.189565 48.910724 -0.742433 1.381789 0.060559 -0.013310 292745.000000 0 0 1
35.450664 32.677084 8.940965 49.035520 0.744709 1.387434 0.046777 -0.007228 519076.000000 0 0 1
34.954564 32.077973 7.563065 48.041834 0.742511 1.412712 0.048268 -0.011195 95736.100000 0 0 1
34.938064 30.640413 7.449065 47.063699 0.719957 1.411852 0.063752 -0.017918 -98748.400000 0 0 1
34.459054 30.352183 6.174265 46.333605 0.722116 1.437142 0.071003 -0.012038 84959.400000 0 0 1
34.817404 28.948523 5.614565 45.626658 0.693619 1.447429 0.068448 -0.008947 69239.500000 0 0 1
34.027064 27.885553 6.103365 44.415045 0.686525 1.432944 0.064496 -0.009489 -50608.000000 0 0 1
34.414764 27.418773 7.429065 44.624613 0.672735 1.403538 0.061729 -0.015620 104733.000000 0 0 1
33.548244 26.249193 7.954165 43.333285 0.663936 1.386192 0.046839 -0.008926 -84012.500000 0 0 1
33.532744 25.070933 7.140765 42.473370 0.641999 1.401871 0.054053 -0.012441 101428.000000 0 0 1
32.395414 24.248643 7.391165 41.135008 0.642554 1.390135 0.051062 -0.005305 -486255.000000 0 0 1
32.420434 22.868973 6.699765 40.236318 0.614333 1.403507 0.054868 -0.004091 -108569.000000 0 0 1
33.306984 21.870173 7.148965 40.481692 0.581018 1.393268 0.061336 -0.005979 430693.000000 0 0 1
34.684694 22.256473 6.964465 41.795722 0.570504 1.403384 0.071514 -0.012300 275956.000000 0 0 1
35.690334 21.093373 6.943565 42.035026 0.533784 1.404851 0.053323 -0.008828 -106032.000000 0 0 1
35.473344 20.119673 5.924065 41.209877 0.515935 1.426543 0.065403 -0.016328 -75921.300000 0 0 1
-36.063054 18.925473 6.187965 41.194760 -0.483281 1.420013 0.064757 -0.018711 -87229.100000 0 0 1
35.882164 17.766173 5.212865 40.377476 0.459740 1.441332 0.063080 -0.020379 -448235.000000 0 0 1
-35.621447 17.679773 4.023165 39.970585 -0.460702 1.469972 0.063302 -0.020189 -496342.000000 0 0 1
36.105704 16.810473 3.059365 39.944631 0.435743 1.494131 0.062517 -0.015801 -1339910.000000 0 0 1
-35.275329 16.282273 1.893665 38.897907 -0.432439 1.522094 0.067944 -0.000603 -104687.000000 0 0 1
-34.297472 15.277773 2.157965 37.608293 -0.419063 1.513385 0.069168 -0.012645 571067.000000 0 0 1
-33.099374 15.896273 2.603565 36.810849 -0.447730 1.500009 0.076830 -0.012200 -519707.000000 0 0 1
-31.831134 15.048973 2.759465 35.317238 -0.441632 1.492583 0.065273 -0.016480 -40930.400000 0 0 1
-31.814504 14.237573 3.968565 35.080203 -0.420788 1.457425 0.072736 -0.024738 960286.000000 0 0 1
-30.452034 13.846373 4.206965 33.715678 -0.426751 1.445693 0.068522 -0.022064 732018.000000 0 0 1
-30.228184 13.098573 5.521865 33.403693 -0.408899 1.404727 0.074992 -0.020515 -160171.000000 0 0 1
-30.548424 11.703973 5.477465 33.169139 -0.365878 1.404899 0.080614 -0.012610 366154.000000 0 0 1
-30.138024 11.032773 6.679665 32.781709 -0.350923 1.365597 0.075454 -0.005389 32869.100000 0 0 1
-30.414224 9.481673 6.655865 32.545778 -0.302203 1.364835 0.082063 -0.013567 543062.000000 0 0 1
-31.790694 9.169373 6.852165 33.788723 -0.280808 1.366586 0.075446 -0.005774 303763.000000 0 0 1
-31.937804 7.779573 6.589965 33.525702 -0.238932 1.372943 0.088701 -0.009773 58971.800000 0 0 1
-33.427514 7.358873 6.550265 34.849070 -0.216688 1.381711 0.091615 -0.011137 -65419.500000 0 0 1
-33.954034 7.124773 7.832065 35.566558 -0.206835 1.348768 0.089531 -0.011044 569883.000000 0 0 1
-35.328952 6.785973 7.604265 36.769676 -0.189768 1.362485 0.055052 -0.009349 948419.000000 0 0 1
36.052544 6.237973 8.805365 37.632867 0.171328 1.334626 0.047227 -0.009262 143405.000000 0 0 1
35.629594 7.118473 9.849065 37.644983 0.197195 1.306085 0.047879 -0.007183 679200.000000 0 0 1
-35.583758 7.756773 10.644965 37.943202 -0.214629 1.286429 0.066372 -0.011132 122627.000000 0 0 1
36.039764 8.728673 11.617365 38.858944 0.237620 1.267191 0.054660 -0.021006 -346216.000000 0 0 1
35.318344 8.169173 12.698165 38.410470 0.227304 1.233866 0.044938 -0.018336 465653.000000 0 0 1
35.092854 9.051373 13.764965 38.767383 0.252425 1.207812 0.063778 -0.032570 -84554.700000 0 0 1
34.203284 8.445573 14.884365 38.245741 0.242080 1.171058 0.055666 -0.031946 -539326.000000 0 0 1
32.818664 8.296673 14.715065 36.911145 0.247615 1.160739 0.067192 -0.032769 30056.200000 0 0 1
32.304534 7.577473 15.817365 36.758537 0.230399 1.125966 0.059032 -0.023665 -186254.000000 0 0 1
30.786074 7.372373 15.749365 35.357838 0.235045 1.109144 0.059549 -0.018739 -17957.400000 0 0 1
29.993714 8.542273 16.045565 35.072118 0.277456 1.095612 0.038356 -0.022504 1516820.000000 0 0 1
28.556634 8.408673 16.019465 33.805479 0.286363 1.077114 0.042900 -0.018350 1432260.000000 0 0 1
27.870034 7.674973 17.232765 33.654304 0.268724 1.033224 0.037880 -0.018297 -261620.000000 0 0 1
27.876914 8.438073 18.418465 34.461040 0.293923 1.006913 0.045201 -0.026659 -116311.000000 0 0 1
27.084294 7.900873 19.442265 34.263456 0.283838 0.967410 0.041800 -0.017811 -512300.000000 0 0 1
27.648824 6.867173 20.409165 35.044965 0.243445 0.949154 0.042239 -0.009779 -359757.000000 0 0 1
26.750094 6.463673 21.419865 34.873446 0.237087 0.909403 0.029722 -0.005268 -36868.100000 0 0 1
27.272124 5.415473 22.250065 35.611255 0.196022 0.895915 0.032321 -0.002300 -713086.000000 0 0 1
26.597794 5.351173 23.640065 35.985141 0.198538 0.854044 0.039010 0.007449 739515.000000 0 0 1
25.212594 5.012173 23.680565 34.950908 0.196238 0.826386 0.021098 0.002553 947828.000000 0 0 1
24.334194 6.131773 23.325265 34.261051 0.246843 0.821928 0.024548 0.001192 1258600.000000 0 0 1
22.780994 5.862273 23.474565 33.232441 0.251867 0.786433 0.033282 -0.005202 1087480.000000 0 0 1
22.252294 4.943773 22.606365 32.103788 0.218618 0.789550 0.041194 -0.001222 550951.000000 0 0 1
20.828194 5.038973 22.576565 31.127258 0.237369 0.759328 0.031161 -0.010045 235907.000000 0 0 1
20.053694 3.762473 21.977665 29.988741 0.185464 0.748275 0.042518 -0.013521 757635.000000 0 0 1
18.840394 4.065973 21.292965 28.720776 0.212552 0.735674 0.041088 -0.017620 737225.000000 0 0 1
17.686394 4.314473 22.088365 28.623750 0.239270 0.689319 0.057290 -0.017658 -369106.000000 0 0 1
16.428394 4.127773 21.232865 27.161834 0.246163 0.673382 0.075031 -0.022395 -457040.000000 0 0 1
16.101194 2.741873 21.006665 26.609139 0.168672 0.660879 0.068903 -0.017165 224174.000000 0 0 1
14.961594 2.597573 20.178365 25.253972 0.171903 0.645137 0.071264 -0.024622 -747519.000000 0 0 1
13.994494 1.547173 20.704365 25.038178 0.110109 0.597203 0.065533 -0.024512 -965482.000000 0 0 1
14.529794 0.302173 20.840065 25.406978 0.020794 0.608949 0.047845 -0.018929 -99125.800000 0 0 1
13.706994 -0.485127 21.642365 25.622432 -0.035378 0.564858 0.042639 -0.012190 -255526.000000 0 0 1
14.173394 -1.961527 21.659265 25.958745 -0.137521 0.583803 0.024892 -0.005515 -49571.300000 0 0 1
13.886194 -2.521127 20.401665 24.807467 -0.179600 0.605179 0.027482 0.001048 180818.000000 0 1 0
14.126394 -3.922227 20.352365 25.083015 -0.270830 0.624252 0.023034 0.002675 -380561.000000 0 0 1
13.574694 -4.630027 19.092765 23.879764 -0.328704 0.644272 0.013335 0.003481 -1336820.000000 0 1 0
12.204494 -4.580527 19.021265 23.059476 -0.359047 0.600809 0.012645 0.007510 -1427790.000000 0 1 0
11.950094 -5.083627 17.745765 21.990002 -0.402213 0.631755 0.017133 0.006967 -656174.000000 0 1 0
10.474494 -5.338827 17.506765 21.088028 -0.471376 0.591374 0.016366 0.004159 -773926.000000 0 1 0
10.011094 -6.496227 18.115465 21.693157 -0.575604 0.582523 0.023589 0.006097 -2079840.000000 0 1 0
8.659794 -6.414527 18.151465 21.109568 -0.637539 0.535783 0.021310 0.004371 -1759330.000000 0 1 0
8.080594 -7.464327 19.119265 22.058071 -0.745775 0.522108 0.035647 0.000818 -280400.000000 0 1 0
7.979094 -8.853127 18.749365 22.216717 -0.837278 0.566228 0.026635 0.000863 886131.000000 0 1 0
9.234694 -9.528827 18.989665 23.166474 -0.801073 0.609901 0.048925 -0.009846 869528.000000 0 1 0
9.302794 -10.911827 18.276465 23.230134 -0.864828 0.665259 0.048598 -0.013828 119091.000000 0 1 0
9.454594 -10.818127 16.875065 22.162785 -0.852557 0.705304 0.042388 -0.024323 -94269.200000 0 1 0
9.882394 -12.038027 16.442665 22.648113 -0.883422 0.758300 0.045513 -0.022751 132935.000000 0 1 0
9.811894 -12.308827 14.891165 21.668578 -0.897800 0.813136 0.035945 -0.011933 -127822.000000 0 1 0
10.559894 -13.436427 14.507965 22.417181 -0.904703 0.866916 0.036679 -0.007633 -157792.000000 0 1 0
10.242194 -13.852227 13.213965 21.711647 -0.934120 0.916486 0.026628 0.000179 -215310.000000 0 1 0
11.331294 -14.733827 12.569565 22.438312 -0.915204 0.976189 0.061076 -0.010427 858121.000000 0 1 0
12.672794 -14.258127 12.447865 22.778131 -0.844197 0.992637 0.061866 -0.018079 625246.000000 0 1 0
12.787694 -13.321427 11.352265 21.676242 -0.805838 1.019585 0.043159 -0.018921 -114159.000000 0 1 0
14.250694 -13.210127 10.832665 22.247166 -0.747523 1.062232 0.046560 -0.027767 443081.000000 0 1 0
14.743594 -14.430127 10.263765 23.042287 -0.774654 1.109140 0.055486 -0.027259 -246909.000000 0 1 0
16.043894 -14.190027 9.783565 23.547432 -0.724157 1.142322 0.050648 -0.027632 -325702.000000 0 1 0
16.684194 -15.502827 9.359965 24.623341 -0.748711 1.180864 0.054757 -0.028728 -313902.000000 0 1 0
17.034794 -16.324427 10.425565 25.794642 -0.764107 1.154719 0.050421 -0.026268 642087.000000 0 0 1
15.939494 -17.084827 10.992465 25.822337 -0.820066 1.131065 0.062588 -0.028390 755871.000000 0 0 1
16.402294 -17.770227 12.288565 27.126095 -0.825407 1.100650 0.046171 -0.025574 -160802.000000 0 0 1
17.520694 -18.614527 12.177665 28.315559 -0.815659 1.126226 0.063340 -0.028987 -107055.000000 0 0 1
17.691694 -19.243527 13.442965 29.394263 -0.827388 1.095803 0.029234 -0.028922 -561317.000000 0 0 1
19.024094 -20.026027 13.342065 30.675212 -0.811050 1.120818 0.008792 -0.027712 625503.000000 0 0 1
20.102294 -19.080627 13.322965 30.751812 -0.759330 1.122710 0.007737 -0.027744 -207570.000000 0 0 1
21.369894 -19.648427 13.105565 31.851042 -0.743455 1.146736 -0.014339 -0.024723 652748.000000 0 0 1
22.305594 -18.831827 12.121765 31.608771 -0.701155 1.177220 0.000549 -0.016810 -74590.100000 0 0 1
21.995394 -18.811027 10.745665 30.872665 -0.707520 1.215291 0.002629 -0.010756 124919.000000 0 0 1
20.701594 -18.413727 10.299765 29.558527 -0.726974 1.214876 0.010374 -0.009992 531534.000000 0 0 1
20.410894 -16.876727 10.367565 28.441430 -0.690899 1.197675 0.048427 -0.020378 -123598.000000 0 0 1
21.177794 -16.161127 9.433465 28.260772 -0.651843 1.230464 0.041542 -0.007964 11288.100000 0 0 1
20.732694 -14.827027 9.368265 27.156026 -0.620823 1.218580 0.047358 -0.022460 99431.600000 0 0 1
-34.244849 25.562927 8.014165 43.478727 -0.641241 1.385412 0.065841 -0.012775 -116569.000000 0 0 1
-33.432774 24.669927 8.761365 42.463127 -0.635710 1.362975 0.075658 -0.016573 21256.700000 0 0 1
-32.466274 25.331827 9.533565 42.268774 -0.662582 1.343293 0.081430 -0.020698 -358652.000000 0 0 1
-31.508144 24.290627 10.162965 41.061947 -0.656763 1.320694 0.080374 -0.035372 -131820.000000 0 0 1
-30.848814 23.545327 9.164865 39.875136 -0.651927 1.338884 0.080270 -0.035447 -139194.000000 0 0 1
-30.059254 22.499827 9.648965 38.767299 -0.642551 1.319258 0.074270 -0.033881 60667.600000 0 0 1
-29.265664 21.734727 8.561665 37.445688 -0.638793 1.340114 0.075842 -0.039293 -127335.000000 0 0 1
-30.107764 21.003827 7.709365 37.510965 -0.609128 1.363798 0.076709 -0.039619 -139245.000000 0 0 1
-29.450714 20.235027 6.701965 36.355428 -0.602003 1.385390 0.063191 -0.038489 -66533.500000 0 0 1
-30.364594 19.423627 5.707765 36.494718 -0.569086 1.413752 0.062246 -0.025302 -108147.000000 0 0 1
-30.976964 18.357927 6.426565 36.577131 -0.534984 1.394181 0.062313 -0.024166 18326.400000 0 0 1
-32.003134 17.809727 5.653565 37.058734 -0.507820 1.417641 0.044930 -0.019714 -31390.100000 0 0 1
-32.612534 16.467727 6.173265 37.052295 -0.467600 1.403406 0.056775 -0.013788 -133823.000000 0 0 1
-33.325454 16.449327 7.371865 37.888133 -0.458512 1.374978 0.059795 -0.013761 -64385.600000 0 0 1
-34.196476 15.333227 7.406265 38.201565 -0.421511 1.375687 0.060169 -0.010202 -289275.000000 0 0 1
-35.141287 15.496927 8.582065 39.353737 -0.415335 1.350955 0.053567 -0.014562 -696648.000000 0 0 1
36.084944 16.419427 8.392165 40.523440 0.427022 1.362193 0.057375 -0.020319 -179067.000000 0 0 1
35.193724 16.600127 9.497765 40.054587 0.440735 1.331396 0.065838 -0.019162 254793.000000 0 0 1
34.434194 17.927927 9.450265 39.955372 0.480025 1.332013 0.043330 -0.007415 -212674.000000 0 0 1
33.338554 17.823727 8.575465 38.764456 0.490965 1.347731 0.046511 -0.013972 152300.000000 0 0 1
32.503774 18.998527 8.667165 38.633652 0.528946 1.344528 0.038992 -0.007193 37940.200000 0 0 1
31.125634 18.937427 8.015565 37.305234 0.546587 1.354243 0.038037 -0.009267 -1037530.000000 0 0 1
30.429744 20.125327 8.302565 37.415648 0.584327 1.347033 0.029416 -0.007026 427170.000000 0 0 1
29.054544 20.183627 7.908865 36.250455 0.607147 1.350855 0.018227 -0.005461 785776.000000 0 0 1
28.742754 20.006027 6.407365 35.601142 0.608061 1.389834 0.007756 0.003742 -1297110.000000 0 0 1
28.851514 18.687827 5.933465 34.883388 0.574774 1.399871 0.025277 0.004013 194741.000000 0 0 1
28.369214 18.334327 4.610465 34.091293 0.573752 1.435142 0.032587 0.002656 704453.000000 0 0 1
26.938494 18.840527 4.208265 33.141476 0.610317 1.443474 0.048304 0.001447 -110068.000000 0 0 1
25.915394 18.228127 4.971165 32.071557 0.612985 1.415167 0.062098 -0.003848 1964110.000000 0 0 1
24.527694 18.608427 4.665265 31.139140 0.649027 1.420410 0.061266 -0.007554 1814110.000000 0 0 1
24.105594 20.032827 5.061065 31.749145 0.693386 1.410705 0.069259 -0.007556 -874156.000000 0 0 1
24.637794 21.008627 4.246565 32.656035 0.706059 1.440388 0.059048 -0.011086 -56345.500000 0 0 1
24.175294 22.262727 4.655565 33.192592 0.744236 1.430073 0.051141 -0.007485 -368686.000000 0 0 1
24.989894 23.457627 4.152165 34.525288 0.753781 1.450240 0.025168 0.003828 -1230360.000000 0 0 1
26.213894 23.506827 4.774765 35.532204 0.731006 1.436010 0.024433 -0.000197 -1165060.000000 0 0 1
26.932694 24.621127 4.342065 36.748108 0.740590 1.452362 0.032377 -0.002554 -325338.000000 0 0 1
28.253004 24.779027 5.157865 37.931992 0.719984 1.434397 0.015578 -0.002671 -439324.000000 0 0 1
29.262364 23.823427 5.045065 38.069598 0.683299 1.437883 0.007708 -0.002838 120679.000000 0 0 1
29.982974 23.761327 3.808765 38.445885 0.670147 1.471565 0.015245 -0.002575 -379656.000000 0 0 1
30.924754 24.934727 3.474565 39.876730 0.678573 1.483553 0.029109 -0.012729 -881068.000000 0 0 1
30.316904 26.215827 3.454565 40.228327 0.712982 1.484816 0.022346 -0.004198 -163581.000000 0 0 1
31.161304 27.153327 2.773665 41.424911 0.716776 1.503790 0.047264 -0.007473 -285410.000000 0 0 1
30.568004 28.561827 2.568465 41.913934 0.751483 1.509478 0.044378 -0.000853 1493550.000000 0 0 1
29.329274 28.695727 1.796765 41.071638 0.774480 1.527035 0.066450 -0.004323 2170490.000000 0 0 1
28.140054 28.329327 2.544965 40.011127 0.788750 1.507147 0.054356 -0.001783 673826.000000 0 0 1
26.811594 28.891527 1.972865 39.464846 0.822720 1.520785 0.033590 -0.001399 254559.000000 0 0 1
26.592294 30.191227 2.519465 40.311388 0.848693 1.508255 0.038948 -0.001339 -81207.400000 0 0 1
25.220294 30.501727 2.496765 39.656682 0.879898 1.507795 0.040350 0.003420 -104709.000000 0 0 1
24.981494 31.944227 3.074265 40.668904 0.907106 1.495132 0.056126 -0.002606 -178701.000000 0 0 1
25.019994 31.977427 4.479065 40.848720 0.906863 1.460925 0.049130 -0.020047 648131.000000 0 0 1
26.305094 31.865827 5.113065 41.635710 0.880702 1.447681 0.051327 -0.020405 434527.000000 0 0 1
26.200394 31.658627 6.679965 41.633535 0.879457 1.409653 0.069324 -0.029840 31841.100000 0 0 1
25.591894 30.473327 7.166565 40.434247 0.872246 1.392615 0.067133 -0.034202 579607.000000 0 0 1
26.388994 29.261927 6.955665 40.012756 0.836977 1.396072 0.055125 -0.035192 482793.000000 0 0 1
25.677994 27.966327 7.436365 38.688168 0.828030 1.377380 0.059957 -0.031106 -367283.000000 0 0 1
24.534294 27.693627 6.696765 37.599404 0.845816 1.391733 0.047698 -0.036538 -512541.000000 0 0 1
24.105394 26.358527 6.868765 36.373368 0.830017 1.380815 0.061188 -0.032647 -324388.000000 0 0 1
22.842794 25.904527 6.111565 35.074050 0.848124 1.395655 0.070288 -0.021267 -190840.000000 0 0 1
22.818894 25.854227 4.684365 34.800664 0.847679 1.435781 0.046597 -0.021224 4905.960000 0 0 1
23.059994 27.086027 4.006465 35.797597 0.865513 1.458641 0.047189 -0.017620 -226787.000000 0 0 1
23.230694 27.006327 2.458465 35.707855 0.860414 1.501892 0.047252 -0.005217 807314.000000 0 0 1
24.425694 26.233327 2.191465 35.911064 0.821065 1.509734 0.024168 0.014741 713571.000000 0 0 1
24.472294 25.935627 0.814565 35.668101 0.814420 1.547957 0.027004 0.009778 128009.000000 0 0 1
25.791794 25.252527 0.385765 36.097861 0.774834 1.560109 0.037761 0.008030 -390856.000000 0 0 1
26.952394 26.070327 0.193965 37.498415 0.768764 1.565624 0.058090 0.005704 596539.000000 0 0 1
27.988524 25.555527 -0.585835 37.904955 0.739990 1.586252 0.048561 0.012691 -174997.000000 0 0 1
28.679924 24.280627 -0.111635 37.577910 0.702521 1.573767 0.038795 0.007703 -1373860.000000 0 0 1
27.957754 23.095927 -0.331135 36.265238 0.690455 1.579927 0.034292 0.009443 105739.000000 0 0 1
28.389454 22.093327 0.595665 35.978202 0.661321 1.554239 0.030187 0.009516 -119983.000000 0 0 1
27.271934 21.288827 1.292165 34.621413 0.662807 1.533465 0.038943 0.003593 -96523.800000 0 0 1
26.852294 20.150127 0.563865 33.576647 0.643761 1.554002 0.053668 -0.004509 385511.000000 0 0 1
25.495494 19.833827 0.801665 32.311663 0.661141 1.545983 0.060181 -0.002984 -113576.000000 0 0 1
24.925994 18.569127 0.146265 31.082777 0.640274 1.566091 0.067782 -0.007427 -630610.000000 0 0 1
23.547694 18.357527 0.281665 29.859203 0.662171 1.561363 0.059227 -0.004736 -350806.000000 0 0 1
23.166094 17.169227 -0.332835 28.836800 0.637804 1.582339 0.058533 -0.018936 86552.400000 0 0 1
21.650294 16.878527 -0.213835 27.452971 0.662176 1.578586 0.058547 -0.005194 -524902.000000 0 0 1
21.203094 15.721427 -0.859335 26.409713 0.638019 1.603341 0.063039 -0.012978 685072.000000 0 0 1
19.849694 15.335527 -0.649435 25.092041 0.657798 1.596681 0.075599 -0.016640 1793680.000000 0 0 1
18.631794 16.274727 -1.159735 24.766014 0.717975 1.617641 0.077405 -0.021949 696460.000000 0 1 0
18.531294 17.498127 -0.464735 25.491357 0.756730 1.589028 0.060306 -0.009743 -257503.000000 0 0 1
17.468094 18.314227 -0.873035 25.324048 0.809040 1.605278 0.039666 -0.017309 -101772.000000 0 0 1
17.598894 19.809827 -0.387935 26.500959 0.844432 1.585435 0.041981 -0.008629 -78005.500000 0 0 1
17.371094 20.054027 1.011965 26.550762 0.856964 1.532673 0.048240 -0.007850 61665.600000 0 0 1
17.543094 21.396627 1.455865 27.707315 0.884038 1.518228 0.059821 -0.016086 -120365.000000 0 0 1
16.526894 22.415627 0.880165 27.863475 0.935477 1.539203 0.050438 -0.021040 -208520.000000 0 0 1
15.397794 22.620527 1.684165 27.415629 0.973141 1.509327 0.038835 -0.010224 -418822.000000 0 0 1
14.549394 23.611727 1.159365 27.758650 1.018555 1.529018 0.020094 -0.005113 703995.000000 0 0 1
13.042194 23.363327 1.521265 26.800338 1.061654 1.514003 0.013716 -0.003087 647515.000000 0 0 1
12.777994 23.596027 2.874865 26.987302 1.074478 1.464067 0.010449 0.002672 -421507.000000 0 0 1
11.502194 23.237027 3.330365 26.140987 1.111161 1.443049 0.001901 -0.003971 40691.200000 0 0 1
11.182094 23.698327 4.823365 26.644226 1.129920 1.388764 0.010138 -0.008920 447677.000000 0 0 1
11.920994 22.847527 5.718565 26.397378 1.089890 1.352431 0.022963 -0.025863 577729.000000 0 0 1
11.185994 22.652127 6.965665 26.206217 1.112108 1.301761 0.015949 -0.014949 127421.000000 0 0 1
11.830794 21.622427 8.005365 25.914916 1.070141 1.256750 0.025361 -0.011987 1251670.000000 0 0 1
13.114294 21.933127 8.576665 26.955629 1.031906 1.246990 0.038773 -0.009133 297986.000000 0 0 1
14.186994 21.783127 7.712065 27.115519 0.993519 1.282400 0.034116 -0.010366 -1660720.000000 0 0 1
15.532094 22.020827 8.346665 28.210452 0.956498 1.270429 0.045006 -0.011016 -848940.000000 0 0 1
15.964894 20.987127 9.215665 27.933239 0.920483 1.234580 0.051091 -0.005634 1113570.000000 0 0 1
17.188494 21.272627 9.941965 29.100028 0.891190 1.222127 0.045543 -0.012929 662327.000000 0 0 1
16.973494 22.008127 11.295465 30.000745 0.913841 1.184774 0.034303 0.002297 -391381.000000 0 0 1
16.401494 21.247727 12.313565 29.531319 0.913415 1.140691 0.037039 0.002009 88682.600000 0 0 1
16.553194 21.795227 13.569165 30.547707 0.921251 1.110520 0.040716 0.010947 381435.000000 0 0 1
17.739294 21.180927 14.393365 31.152579 0.873597 1.090516 0.049213 0.003752 909650.000000 0 0 1
19.047094 21.642827 14.100665 32.094119 0.849105 1.115917 0.064038 0.004059 562520.000000 0 0 1
20.073794 20.973827 14.878365 32.622452 0.807321 1.097214 0.055252 -0.001964 365083.000000 0 0 1
21.439694 21.550627 14.507065 33.683007 0.787979 1.125535 0.062063 -0.001745 -479045.000000 0 0 1
21.931594 20.965427 13.284565 33.121347 0.762879 1.158092 0.062704 -0.004843 -580245.000000 0 0 1
23.218994 21.496027 13.162665 34.270346 0.746885 1.176582 0.072773 -0.002028 -246297.000000 0 0 1
23.960094 20.968827 11.890665 33.987729 0.718919 1.213384 0.063642 0.001315 175442.000000 0 0 1
23.572094 21.680927 10.716465 33.772012 0.743632 1.247896 0.066789 -0.000031 -56557.300000 0 0 1
24.282194 21.249527 9.628265 33.672998 0.718891 1.280815 0.076090 -0.006081 -876452.000000 0 0 1
24.221194 22.163527 8.405965 33.890241 0.741066 1.320145 0.074985 -0.011889 100382.000000 0 0 1
24.844994 23.439927 8.590965 35.220854 0.756307 1.324394 0.066678 -0.010354 1374170.000000 0 0 1
26.291494 23.403027 8.536565 36.219018 0.727339 1.332865 0.052499 -0.013320 477982.000000 0 0 1
26.746294 24.688527 9.186565 37.540386 0.745412 1.323574 0.057506 -0.012000 69211.100000 0 0 1
28.084124 25.059127 8.871965 38.670268 0.728538 1.339308 0.042522 -0.004495 512069.000000 0 0 1
28.586464 26.034127 9.744165 39.873681 0.738704 1.323920 0.045169 -0.000871 151035.000000 0 0 1
29.772304 26.902127 9.275165 41.184259 0.734798 1.343636 0.044539 -0.008000 3292.560000 0 0 1
29.467454 27.821727 8.217665 41.351050 0.756679 1.370735 0.055523 -0.014935 -134621.000000 0 0 1
30.595024 28.197527 7.461665 42.270941 0.744642 1.393347 0.058184 -0.012161 -446466.000000 0 0 1
30.342594 29.115427 6.242065 42.512874 0.764762 1.423436 0.078076 -0.006720 -87745.500000 0 0 1
30.289194 30.483627 6.540765 43.468016 0.788597 1.419750 0.076036 -0.011591 110132.000000 0 0 1
30.366694 31.312827 5.432165 43.956088 0.800736 1.446898 0.073821 -0.006530 -28315.500000 0 0 1
30.333874 32.819427 5.789165 45.064100 0.824735 1.441975 0.055736 -0.006736 618284.000000 0 0 1
29.082764 33.256027 6.319565 44.628549 0.852243 1.428715 0.068468 -0.017594 514708.000000 0 0 1
29.270194 -33.953119 6.568865 45.306827 -0.859333 1.425297 0.054557 -0.015316 453500.000000 0 0 1
27.916694 -33.361719 7.060665 44.070388 -0.874023 1.409890 0.079440 -0.025738 63900.200000 0 0 1
26.943894 -33.542019 6.080865 43.451322 -0.894054 1.430389 0.070777 -0.024931 -611649.000000 0 0 1
25.725594 -32.941919 6.504365 42.299917 -0.907787 1.416416 0.058605 -0.029044 826444.000000 0 0 1
24.597194 -33.088119 5.410465 41.582674 -0.931543 1.440313 0.076890 -0.024157 448403.000000 0 0 1
24.894094 -32.205019 4.349165 40.936468 -0.912744 1.464354 0.057603 -0.008084 128722.000000 0 0 1
23.881194 -32.205819 3.349965 40.233674 -0.932746 1.487437 0.066377 -0.017274 128339.000000 0 0 1
24.304994 -31.605619 2.014965 39.921273 -0.915240 1.520301 0.063250 0.005520 -86221.100000 0 0 1
24.564094 -30.196019 2.039865 38.978909 -0.887885 1.518440 0.077118 0.006376 178434.000000 0 0 1
25.256194 -29.729819 0.864565 39.019034 -0.866579 1.548637 0.058691 0.008829 -149396.000000 0 0 1
25.446394 -28.190719 0.808465 37.985382 -0.836518 1.549511 0.046013 0.006174 -982039.000000 0 0 1
24.341094 -27.374819 0.937165 36.643524 -0.843992 1.545218 0.050120 0.006373 -1048250.000000 0 0 1
23.788594 -27.255619 -0.338435 36.178454 -0.853216 1.580151 0.056235 0.004143 -795954.000000 0 0 1
22.722394 -26.173419 -0.441535 34.663382 -0.855860 1.583534 0.050267 0.003140 -506981.000000 0 0 1
23.116594 -24.843319 -0.205735 33.935376 -0.821386 1.576859 0.045983 -0.009651 -175745.000000 0 0 1
23.116794 -24.405419 1.177865 33.636261 -0.812508 1.535771 0.038904 0.000861 353642.000000 0 0 1
21.761194 -24.279519 1.942665 32.662189 -0.840042 1.511284 0.029576 -0.000936 428794.000000 0 0 1
21.941594 -23.641619 3.214665 32.414407 -0.822676 1.471459 0.018315 0.003241 -491061.000000 0 0 1
20.696294 -23.562319 3.840465 31.595390 -0.850064 1.448944 0.023988 0.003240 -468583.000000 0 0 1
20.733094 -22.936819 5.271165 31.364694 -0.835819 1.401935 0.013952 0.006441 -50599.000000 0 0 1
20.858094 -21.529419 5.402065 30.459125 -0.801235 1.392499 0.024154 0.014403 219880.000000 0 0 1
19.712094 -20.787019 4.982465 29.077341 -0.811934 1.398594 0.020488 0.004506 -154940.000000 0 0 1
19.646594 -19.272919 5.399465 28.046182 -0.775797 1.377066 0.021334 0.002070 60231.200000 0 0 1
19.280994 -19.113719 6.781765 27.983626 -0.781041 1.326011 0.036045 0.002483 3096.970000 0 0 1
18.007194 -18.525519 6.938465 26.750630 -0.799585 1.308421 0.036018 0.000161 251888.000000 0 0 1
19.151296 -26.196113 -11.974335 34.588917 -0.939518 1.924303 0.076578 -0.020522 51146.900000 0 0 1
19.340196 -24.900073 -12.356835 33.863671 -0.910417 1.944321 0.082329 -0.022851 358288.000000 0 0 1
18.104796 -24.424973 -12.913735 33.032219 -0.932924 1.972453 0.077756 -0.021490 593408.000000 0 0 1
18.171396 -22.951273 -13.293335 32.150791 -0.901114 1.997056 0.066802 -0.021227 -138554.000000 0 0 1
18.306996 -21.951973 -12.258135 31.101401 -0.875690 1.975922 0.078860 -0.020532 -183616.000000 0 0 1
19.488196 -21.854473 -11.485235 31.453433 -0.842571 1.944591 0.071466 -0.028510 -842470.000000 0 0 1
19.489996 -22.555973 -10.107535 31.476883 -0.858189 1.897697 0.071233 -0.023093 234386.000000 0 0 1
18.564396 -22.133873 -9.104535 30.289234 -0.872880 1.876104 0.075642 -0.026069 417796.000000 0 0 1
17.195796 -22.248173 -9.449935 29.664421 -0.912794 1.895008 0.075768 -0.013503 -550619.000000 0 0 1
16.210696 -21.833773 -8.366435 28.451671 -0.932139 1.869266 0.070529 -0.020213 -869546.000000 0 0 1
16.196296 -20.441873 -8.146135 27.323062 -0.900762 1.873541 0.066714 -0.026471 20493.900000 0 0 1
15.381796 -20.023773 -7.087735 26.225696 -0.915763 1.844459 0.061330 -0.027168 -900661.000000 0 0 1
13.928896 -19.811673 -7.474035 25.345172 -0.958016 1.870137 0.051368 -0.014212 -809481.000000 0 0 1
13.256996 -21.053573 -7.610035 26.017562 -1.008839 1.867632 0.043764 -0.016654 -332528.000000 0 0 1
11.925196 -21.027773 -8.060835 25.482437 -1.054907 1.892654 0.044363 -0.019720 -269329.000000 0 0 1
11.170196 -22.325573 -7.903435 26.185278 -1.106883 1.877405 0.051423 -0.017459 -285128.000000 0 0 1
11.220296 -22.627173 -6.533035 26.087632 -1.110453 1.823917 0.048910 -0.016797 -132051.000000 0 0 1
10.393296 -23.674773 -6.200135 26.588666 -1.157125 1.806150 0.039225 -0.016732 -441093.000000 0 0 1
10.853296 -24.280673 -4.932835 27.049547 -1.150446 1.754185 0.049675 -0.015823 189773.000000 0 0 1
9.936696 -25.200103 -4.353335 27.436010 -1.195203 1.730142 0.045567 -0.015547 -130966.000000 0 0 1
10.552996 -25.728853 -3.179135 27.990115 -1.181560 1.684623 0.042971 -0.013470 -156663.000000 0 0 1
9.759496 -26.660083 -2.294935 28.482881 -1.219876 1.651456 0.047021 -0.007361 25168.400000 0 0 1
8.794296 -26.097073 -1.425235 27.575862 -1.245764 1.622504 0.031299 -0.000815 -116820.000000 0 0 1
8.262496 -26.987523 -0.468935 28.227915 -1.273698 1.587410 0.033023 -0.002243 168269.000000 0 0 1
7.495296 -26.272593 0.646665 27.328498 -1.292889 1.547131 0.037832 -0.000997 -381169.000000 0 0 1
6.263296 -25.718603 0.310565 26.472096 -1.331915 1.559064 0.040338 -0.007233 -701577.000000 0 0 1
5.597996 -25.399013 1.522665 26.053137 -1.353863 1.512318 0.043291 -0.006443 -730417.000000 0 0 1
4.199696 -24.865873 1.300165 25.251525 -1.403481 1.519285 0.041739 -0.015226 -705571.000000 0 0 1
3.260696 -25.763933 0.778465 25.981116 -1.444905 1.540829 0.046186 -0.020688 -645287.000000 0 0 1
1.997096 -25.164023 0.735065 25.253847 -1.491599 1.541685 0.050020 -0.018647 540929.000000 0 0 1
0.822096 -26.078633 0.163465 26.092100 -1.539283 1.564531 0.054009 -0.016424 883287.000000 0 0 1
0.495296 -27.201203 0.968365 27.222941 -1.552590 1.535217 0.054109 -0.012629 -161330.000000 0 0 1
1.212396 -28.408343 0.773165 28.444712 -1.528145 1.543612 0.039704 -0.018093 -294715.000000 0 0 1
0.686196 -29.526363 1.694265 29.582892 -1.547560 1.513493 0.048115 -0.010688 230371.000000 0 0 1
0.894796 -29.292353 3.062965 29.465647 -1.540259 1.466658 0.039430 -0.009010 76465.700000 0 0 1
0.265796 -30.346313 3.797365 30.584136 -1.562038 1.446314 0.042687 -0.004993 110724.000000 0 0 1
0.582096 -30.348563 5.288565 30.811411 -1.551618 1.398299 0.050359 -0.006661 450177.000000 0 0 1
1.949196 -30.531053 5.682365 31.116456 -1.507040 1.387150 0.018769 0.004914 578377.000000 0 0 1
2.142496 -30.358983 7.111665 31.254343 -1.500341 1.341244 0.034077 0.002365 -251874.000000 0 0 1
3.531396 -30.852713 7.482065 31.942792 -1.456832 1.334366 0.024312 -0.002929 -368630.000000 0 0 1
3.566896 -32.276253 7.402165 33.305725 -1.460731 1.346676 0.023588 -0.004616 -868156.000000 0 0 1
4.819996 -32.822053 7.631065 34.040457 -1.424986 1.344699 0.004926 -0.006894 -537965.000000 0 0 1
4.911196 34.300993 7.396765 35.431484 1.428583 1.360487 0.003462 0.004547 30345.300000 0 0 1
4.785596 33.977198 6.039065 34.839951 1.430869 1.396579 -0.001085 0.003695 -81208.400000 0 0 1
4.498096 32.596722 5.988665 33.446125 1.433670 1.390771 0.000516 0.006521 -329093.000000 0 0 1
4.812796 32.189853 4.523365 32.860470 1.422383 1.432704 -0.000995 0.001527 134204.000000 0 0 1
6.158396 32.244373 4.089865 33.080998 1.382078 1.446847 0.005953 -0.001193 11808.500000 0 0 1
6.881096 31.057803 4.365265 32.109066 1.352761 1.434423 -0.005254 -0.003508 364116.000000 0 0 1
8.363196 30.993103 3.906565 32.338471 1.307233 1.449698 -0.012705 0.004123 100624.000000 0 0 1
9.345296 31.525053 4.725365 33.218859 1.282608 1.428063 -0.011964 -0.005793 -674342.000000 0 0 1
10.540696 31.648583 3.989365 33.595448 1.249297 1.451768 -0.011022 -0.004417 284246.000000 0 0 1
11.797596 32.076763 4.794865 34.512211 1.218359 1.431413 0.004924 -0.014878 215319.000000 0 0 1
12.225196 31.067833 5.711565 33.871635 1.195906 1.401363 0.018262 -0.016044 -866898.000000 0 0 1
13.400796 31.543303 6.280965 34.842672 1.169063 1.389539 0.040354 -0.020470 -631764.000000 0 0 1
14.064896 30.545363 7.268365 34.404500 1.139279 1.357930 0.046488 -0.030214 54408.900000 0 0 1
13.457696 30.386733 8.572965 34.321405 1.153879 1.318338 0.033338 -0.024855 325796.000000 0 0 1
14.028396 29.222253 9.131165 33.676611 1.123229 1.296216 0.038417 -0.021171 230905.000000 0 0 1
13.664596 29.128533 10.626465 33.883837 1.132162 1.251799 0.023613 -0.012043 -73196.100000 0 0 1
14.367596 30.130143 11.296865 35.240211 1.125839 1.244468 0.045781 -0.015329 31603.800000 0 0 1
14.073296 30.164843 12.676965 35.618547 1.134268 1.206910 0.042831 -0.010181 -270749.000000 0 0 1
14.783096 31.172663 13.573465 37.074436 1.127974 1.195967 0.046243 -0.010681 129711.000000 0 0 1
16.106496 30.824023 13.925565 37.462794 1.089287 1.189938 0.050233 -0.010347 97224.900000 0 0 1
16.775696 31.769153 14.701465 38.817987 1.084961 1.182375 0.047973 -0.009505 -145189.000000 0 0 1
17.817596 31.174893 15.677765 39.180773 1.051569 1.159128 0.048601 -0.008472 -257960.000000 0 0 1
19.080396 30.944663 15.126465 39.375673 1.018262 1.176501 0.035106 0.001441 -272448.000000 0 0 1
19.310096 29.545273 15.133565 38.403486 0.991911 1.165743 0.031789 0.005566 -1073920.000000 0 0 1
20.671096 29.156553 14.611865 38.612244 0.954076 1.182701 0.051678 -0.003949 -898148.000000 0 0 1
21.662496 29.263623 15.594865 39.608373 0.933562 1.166114 0.059329 0.002387 -429765.000000 0 0 1
22.915196 28.869883 15.123365 39.840840 0.899884 1.181438 0.066778 -0.003034 -801440.000000 0 0 1
24.133496 29.021923 15.994265 40.994075 0.877105 1.169991 0.073016 -0.012003 -574523.000000 0 0 1
24.323596 27.912203 16.887465 40.692934 0.853991 1.142856 0.067887 -0.010683 -394925.000000 0 0 1
25.432496 28.181583 17.690265 41.880293 0.836629 1.134704 0.065813 -0.011182 -861609.000000 0 0 1
26.299896 26.988353 18.029365 41.774559 0.798317 1.124545 0.053290 -0.014570 -807666.000000 0 0 1
25.747596 25.852443 18.605265 40.956604 0.787430 1.099246 0.057652 -0.009819 -387569.000000 0 0 1
25.371996 26.028073 19.961465 41.468770 0.798162 1.068589 0.073699 -0.014759 238356.000000 0 0 1
24.742796 24.675763 20.443165 40.484840 0.784042 1.041462 0.069284 -0.017037 189755.000000 0 0 1
25.776296 23.692773 20.552765 40.597797 0.743305 1.039962 0.069668 -0.016375 323053.000000 0 0 1
25.262696 22.369573 20.586265 39.527154 0.724734 1.022993 0.074603 -0.023768 277342.000000 0 0 1
26.336396 21.217973 20.514865 39.555882 0.678178 1.025549 0.054929 -0.020317 579926.000000 0 0 1
25.748096 19.898273 20.500765 38.460201 0.657938 1.008609 0.043984 -0.010684 327941.000000 0 0 1
26.724296 18.867373 20.600565 38.659398 0.614742 1.008804 0.040858 -0.012957 359778.000000 0 0 1
27.364696 18.594173 22.007265 39.735244 0.596831 0.983818 0.045977 -0.002301 324327.000000 0 0 1
26.412896 18.077473 22.935965 39.376320 0.600192 0.949019 0.043781 0.001345 -4039.300000 0 0 1
26.956796 17.893773 24.195265 40.401322 0.586012 0.928703 0.047611 0.006167 -254988.000000 0 0 1
26.070696 17.060673 25.171365 40.054280 0.579462 0.891261 0.027833 0.005511 195099.000000 0 0 1
25.745296 15.767673 24.588665 38.936387 0.549523 0.887299 0.027302 -0.000080 66849.000000 0 0 1
24.853496 15.040473 25.367265 38.566958 0.544209 0.852974 0.027583 0.000049 -349016.000000 0 0 1
24.309796 13.771273 24.635965 37.249764 0.515416 0.848149 0.030743 0.003287 -420018.000000 0 0 1
23.146696 13.386373 25.322365 36.826440 0.524331 0.812599 0.020192 0.001624 11796.700000 0 0 1
22.528296 12.351873 24.583965 35.559306 0.501524 0.807439 0.030555 0.002531 -143944.000000 0 0 1
21.216296 11.819873 25.186165 34.988334 0.508288 0.767218 0.030553 -0.007837 -315694.000000 0 0 1
20.099796 12.669473 25.105665 34.566049 0.562422 0.757858 0.045422 -0.013192 -85119.500000 0 0 1
18.962496 11.832573 25.173765 33.664588 0.557879 0.726082 0.056153 -0.012511 -387007.000000 0 0 1
17.586696 12.481873 25.256165 33.210885 0.617229 0.706747 0.047804 -0.022911 -458295.000000 0 0 1
17.385296 13.123673 26.510665 34.311728 0.646612 0.687805 0.068058 -0.020909 -156874.000000 0 0 1
16.128596 13.725873 26.616665 34.014380 0.705090 0.672106 0.084877 -0.028583 -541119.000000 0 0 1
15.757096 14.104773 28.059665 35.136527 0.730122 0.645848 0.064849 -0.021014 -240735.000000 0 0 1
15.409196 12.986773 28.843265 35.185701 0.700296 0.609833 0.063964 -0.016199 17481.200000 0 0 1
15.570496 13.102173 30.282365 36.484640 0.699524 0.591683 0.053308 -0.013516 -15010.600000 0 0 1
17.014496 12.938073 30.816365 37.503802 0.650133 0.606433 0.050692 -0.003372 351329.000000 0 0 1
17.904996 13.921673 30.295965 37.845044 0.660889 0.642623 0.067993 -0.010637 749799.000000 0 0 1
19.287096 13.577973 30.355765 38.442501 0.613401 0.660573 0.059617 0.001817 403062.000000 0 0 1
20.263196 14.732373 30.095465 39.158357 0.628651 0.694212 0.045524 0.006362 -382390.000000 0 0 1
20.136496 15.434473 28.838565 38.410471 0.653973 0.721525 0.066907 -0.005387 96138.800000 0 0 1
20.207996 14.697973 27.632965 37.255527 0.628837 0.735173 0.058297 -0.005423 -373797.000000 0 0 1
19.886496 15.590673 26.391965 36.538714 0.664898 0.763672 0.054112 -0.009077 -207651.000000 0 0 1
20.841396 16.559173 25.980665 37.196303 0.671398 0.797533 0.045983 -0.005601 230545.000000 0 0 1
20.788696 16.659273 24.628665 36.280469 0.675571 0.824613 0.045116 -0.008395 -335359.000000 0 0 1
22.021796 17.424473 24.152765 37.039544 0.669375 0.860471 0.044846 -0.010510 -674418.000000 0 0 1
22.117396 17.737473 22.824265 36.397036 0.675941 0.892983 0.058878 -0.011507 726762.000000 0 0 1
23.308596 18.448073 22.410665 37.227140 0.669519 0.924795 0.053197 -0.017456 413305.000000 0 0 1
23.540496 19.897973 22.983365 38.448919 0.701739 0.930088 0.068572 -0.021954 -572941.000000 0 0 1
22.556896 20.844273 22.638765 38.155091 0.745958 0.935600 0.069845 -0.022357 31527.200000 0 0 1
22.824696 22.085373 23.260965 39.367537 0.768937 0.938664 0.081132 -0.022289 -174734.000000 0 0 1
21.728496 23.128873 23.006765 39.196729 0.816606 0.943502 0.060781 -0.021848 -123884.000000 0 0 1
21.918296 23.931183 21.846165 39.119920 0.829272 0.978291 0.066246 -0.019790 -797289.000000 0 0 1
21.068196 24.996873 21.798365 39.292255 0.870478 0.982704 0.064607 -0.012585 -781930.000000 0 0 1
21.264896 26.057763 20.667765 39.476060 0.886335 1.019782 0.060573 -0.013119 -97371.200000 0 0 1
20.987696 25.520793 19.323765 38.277959 0.882559 1.041614 0.048542 -0.014392 -4536.030000 0 0 1
21.343396 26.554873 18.471765 38.754457 0.893775 1.073972 0.047739 -0.004471 -228865.000000 0 0 1
21.562296 25.980223 17.098565 37.845284 0.878058 1.102012 0.049638 0.009819 -927520.000000 0 0 1
20.405396 25.583513 16.450865 36.626866 0.897521 1.104985 0.040960 0.012060 -814864.000000 0 0 1
20.556196 25.328653 15.107265 35.948954 0.889035 1.137084 0.047867 0.008841 -507054.000000 0 0 1
19.299396 24.801093 14.365365 34.553214 0.909511 1.142033 0.048516 0.011747 1167600.000000 0 0 1
18.206196 25.652433 13.954865 34.412950 0.953573 1.153257 0.042625 0.018380 593185.000000 0 0 1
17.526396 26.316123 14.990165 34.991684 0.983259 1.128084 0.037907 0.017173 -1033180.000000 0 0 1
16.131696 26.801723 14.527465 34.490741 1.028988 1.136029 0.030829 0.016043 141061.000000 0 0 1
15.125796 25.865183 14.148665 33.135813 1.041633 1.129635 0.036758 0.013757 671838.000000 0 0 1
14.593196 25.011563 15.179565 32.694936 1.042629 1.087976 0.051429 -0.000052 -206079.000000 0 0 1
13.626396 25.619803 16.216065 33.241747 1.081979 1.061203 0.057986 -0.009555 -613329.000000 0 0 1
14.273696 26.401423 17.184465 34.584380 1.075167 1.050791 0.058262 -0.003204 430240.000000 0 0 1
13.445496 26.871083 18.265265 35.163282 1.106852 1.024599 0.058418 -0.014113 -285468.000000 0 0 1
14.135096 27.989263 18.930965 36.627602 1.103142 1.027629 0.071768 -0.012682 -605071.000000 0 0 1
13.965896 29.174683 18.136265 37.082779 1.124334 1.059767 0.063521 -0.020082 336909.000000 0 0 1
14.683996 30.244013 18.703065 38.472389 1.118802 1.063126 0.047361 -0.020658 -251058.000000 0 0 1
14.408396 31.494683 17.826165 38.952395 1.141734 1.095457 0.046895 -0.019380 -184706.000000 0 0 1
13.045496 31.835843 17.813965 38.743299 1.181893 1.093032 0.040806 -0.020033 -248249.000000 0 0 1
12.815996 33.066331 17.135465 39.385989 1.201039 1.120686 0.028583 -0.014211 -922491.000000 0 0 1
11.464296 33.724530 17.203465 39.556709 1.243112 1.120862 0.037477 -0.018816 -1029660.000000 0 0 1
11.402296 -33.550053 16.728465 39.184946 -1.243184 1.129723 0.034776 -0.014078 -673071.000000 0 0 1
12.116996 -32.550053 17.345765 38.822714 -1.214432 1.107618 0.029107 -0.013635 -539916.000000 0 0 1
12.109296 -32.340253 18.856365 39.345769 -1.212522 1.070999 0.042693 -0.021951 -339557.000000 0 0 1
12.925896 -33.260703 19.546565 40.686870 -1.200135 1.069669 0.049466 -0.022437 310962.000000 0 0 1
12.541396 -33.264023 20.900665 41.238570 -1.210251 1.039301 0.040927 -0.015630 119150.000000 0 0 1
13.696096 -33.795413 21.781765 42.475385 -1.185759 1.032343 0.049548 -0.016491 1561730.000000 0 0 1
14.958396 -33.054093 21.700665 42.275827 -1.145830 1.031757 0.052063 -0.011408 1369480.000000 0 0 1
15.930196 -33.534173 22.638165 43.483312 -1.127312 1.023223 0.050570 -0.008748 -430796.000000 0 0 1
17.237596 -32.845063 22.328265 43.295315 -1.087494 1.028948 0.060809 -0.002802 -888266.000000 0 0 1
17.366496 -31.497823 22.726965 42.546716 -1.066913 1.007277 0.064462 -0.005259 974569.000000 0 0 1
18.551796 -30.808263 22.232165 42.279870 -1.028783 1.017102 0.060980 -0.001656 766846.000000 0 0 1
-4.771904 13.230727 18.083845 22.909575 -1.224649 0.661035 0.005480 0.006605 -99135.500000 0 1 0
-4.652804 14.558827 17.558745 23.279123 -1.261469 0.716255 0.008224 0.000317 -373116.000000 0 1 0
-5.904804 15.185327 17.421245 23.852896 -1.199939 0.751945 0.006764 -0.001025 -229507.000000 0 1 0
-5.856204 16.664627 17.229145 24.674852 -1.232861 0.797850 0.022534 -0.008049 -57571.400000 0 1 0
-5.403304 17.215727 18.450645 25.807039 -1.266674 0.774249 0.032506 -0.000563 86197.100000 0 0 1
-4.885504 18.521527 18.289345 26.484245 -1.312896 0.808513 0.039123 -0.003470 -289431.000000 0 0 1
-4.179904 19.162327 19.517645 27.669565 -1.356029 0.787833 0.026963 -0.004699 234190.000000 0 0 1
-5.096204 19.502727 20.559545 28.792751 -1.315204 0.775526 0.013349 -0.001623 535784.000000 0 0 1
-4.342304 20.011327 21.643745 29.795310 -1.357117 0.757706 0.009590 0.000808 162451.000000 0 0 1
-5.315104 20.288127 22.791545 30.972777 -1.314574 0.743864 -0.004923 -0.003334 -36259.200000 0 0 1
-5.706604 19.167327 23.522205 30.874680 -1.281427 0.704615 -0.005193 -0.005827 74488.900000 0 0 1
-6.611804 19.540727 24.568795 32.080861 -1.244528 0.698450 -0.017333 -0.008766 498519.000000 0 0 1
-5.987404 20.256927 25.863035 33.392943 -1.283406 0.684863 -0.019919 -0.008248 -118680.000000 0 0 1
-5.414704 21.523827 25.524165 33.824209 -1.324343 0.715733 -0.021596 -0.011332 159158.000000 0 0 1
-4.424204 22.001727 26.415435 34.661575 -1.372358 0.704253 -0.013702 0.001564 1225750.000000 0 0 1
-2.966604 21.451227 26.138495 33.943730 -1.433373 0.691871 0.003147 0.005931 489322.000000 0 0 1
-2.580404 20.226527 26.718445 33.610209 -1.443907 0.651871 0.013495 0.007776 538285.000000 0 0 1
-1.225504 19.922527 26.392935 33.090723 -1.509360 0.647502 0.016803 0.014350 530834.000000 0 0 1
-0.610904 18.644527 26.960405 32.784982 -1.538042 0.605285 0.019032 0.017556 -244119.000000 0 0 1
-0.914804 17.539827 26.114655 31.471536 -1.518688 0.592071 0.032811 0.006631 -167855.000000 0 0 1
-0.452504 16.302527 26.648995 31.243336 -1.543047 0.549186 0.031972 0.003753 -257477.000000 0 0 1
1.058596 16.041727 26.474725 30.973677 1.504902 0.545729 0.032172 0.007833 -130056.000000 0 0 1
1.427896 15.759127 25.087725 29.661135 1.480435 0.562712 0.029217 0.014205 -115159.000000 0 0 1
1.027496 14.499527 24.564395 28.542977 1.500050 0.534328 0.033665 0.014141 -222701.000000 0 0 1
1.174396 14.378327 23.050845 27.192958 1.489299 0.559205 0.030218 0.005837 340559.000000 0 0 1
2.539496 14.362427 22.658145 26.946612 1.395790 0.571939 0.024047 0.002409 68738.300000 0 0 1
2.774896 13.668327 21.435245 25.573286 1.370502 0.576842 0.020379 -0.002218 945286.000000 0 0 1
4.286896 13.648427 20.996045 25.406514 1.266459 0.598105 0.020783 -0.005474 1022440.000000 0 0 1
4.598196 14.820627 20.257745 25.518045 1.269957 0.653666 0.018772 -0.005037 31784.300000 0 0 1
5.976296 15.117727 20.130345 25.874554 1.194333 0.679324 0.032080 -0.009258 129096.000000 0 0 1
6.331396 16.079227 18.976445 25.665806 1.195679 0.738667 0.042537 -0.012662 -25242.100000 0 0 1
5.966396 15.609927 17.700345 24.342759 1.205713 0.756665 0.040416 -0.023049 376460.000000 0 1 0
6.583896 16.443127 16.702545 24.345413 1.189942 0.814729 0.042881 -0.015346 93858.100000 0 1 0
6.550296 15.642727 15.360445 22.881096 1.174237 0.834813 0.034956 -0.017849 -95946.700000 0 1 0
7.586696 14.752427 15.017745 22.376879 1.095800 0.835067 0.029335 -0.020218 -100539.000000 0 1 0
7.903096 13.699227 15.921045 22.441199 1.047535 0.782070 0.035624 -0.014567 -255707.000000 0 1 0
8.966096 12.839727 15.199345 21.823601 0.961206 0.800339 0.038477 -0.017538 355593.000000 0 1 0
10.193596 13.544327 15.082845 22.690315 0.925627 0.843669 0.039642 -0.027515 252720.000000 0 1 0
11.194496 12.846127 14.352345 22.278454 0.853992 0.870786 0.049578 -0.018744 903858.000000 0 1 0
12.635496 13.438527 14.419045 23.412788 0.816187 0.907317 0.058560 -0.011796 -349789.000000 0 1 0
13.319696 13.256327 15.642745 24.450766 0.783014 0.876604 0.059655 -0.014729 917147.000000 0 1 0
14.670096 13.710627 15.774345 25.534741 0.751604 0.904905 0.052434 -0.017561 1244890.000000 0 0 1
15.718596 13.188227 14.728645 25.257406 0.698085 0.948206 0.053459 -0.019019 -1543780.000000 0 0 1
17.019096 13.584627 14.914845 26.394021 0.673642 0.970261 0.055286 -0.025639 -298306.000000 0 0 1
17.962996 13.053427 13.997645 26.248719 0.628411 1.008335 0.053397 -0.027141 5756.260000 0 0 1
19.372996 13.655327 14.080845 27.569025 0.613983 1.034741 0.043620 -0.026483 79193.200000 0 0 1
20.113296 13.190427 15.218645 28.462944 0.580446 1.006664 0.027245 -0.025122 -399807.000000 0 0 1
21.406896 13.691727 15.165045 29.592181 0.569025 1.032740 0.029659 -0.028351 -205312.000000 0 0 1
22.330996 13.369527 16.420445 30.774156 0.539462 1.007970 0.042235 -0.027596 428496.000000 0 0 1
22.645496 11.983127 16.410745 30.425752 0.486704 1.001107 0.032646 -0.025721 226820.000000 0 0 1
23.512596 11.713827 17.486545 31.556856 0.462202 0.983481 0.028061 -0.026681 -328349.000000 0 0 1
23.789996 10.182027 17.646945 31.321754 0.404406 0.972291 0.026749 -0.019617 -89706.100000 0 0 1
22.687196 9.474427 18.188845 30.582801 0.395596 0.933853 0.014778 -0.016882 414213.000000 0 0 1
22.557996 8.152227 17.775845 29.854693 0.346785 0.933018 0.004438 -0.010023 333693.000000 0 0 1
21.262496 7.606527 18.455145 29.164111 0.343557 0.885628 0.037206 -0.010063 155006.000000 0 0 1
21.195696 6.272827 18.206945 28.637366 0.287735 0.881783 0.046165 -0.015165 1472800.000000 0 0 1
20.033596 5.607127 18.807345 28.044627 0.272903 0.835749 0.046777 -0.013854 813523.000000 0 0 1
19.887496 4.161227 18.348745 27.377085 0.206263 0.836287 0.066074 -0.010261 -531305.000000 0 0 1
19.400696 4.192127 16.999945 26.133486 0.212809 0.862548 0.068531 -0.015875 559460.000000 0 0 1
19.125596 2.914527 16.414645 25.371706 0.151225 0.867197 0.056365 -0.015960 -34847.600000 0 0 1
18.008996 2.025527 16.987345 24.839416 0.112002 0.817720 0.061402 -0.012803 -232568.000000 0 1 0
18.495696 1.217227 18.028445 25.857248 0.065717 0.799270 0.069233 -0.021680 34932.700000 0 0 1
17.416496 0.671627 18.752745 25.601775 0.038544 0.748841 0.055575 -0.010232 -604588.000000 0 0 1
17.653296 -0.431773 19.841845 26.561704 -0.024454 0.727244 0.065555 -0.015721 -333022.000000 0 0 1
18.090296 -1.621773 19.279845 26.487759 -0.089410 0.755575 0.074821 -0.016070 -70763.200000 0 0 1
17.727096 -2.734973 20.064545 26.913119 -0.153075 0.729466 0.052996 -0.015305 -125260.000000 0 0 1
17.840796 -4.111173 19.345545 26.635425 -0.226483 0.757860 0.043255 -0.010793 -516029.000000 0 0 1
16.859296 -4.233573 18.369845 25.290516 -0.246025 0.757795 0.016679 -0.006704 -129654.000000 0 0 1
16.987296 -5.308773 17.489145 24.952385 -0.302898 0.794137 0.039387 -0.012887 -429889.000000 0 1 0
16.607296 -4.943373 16.024245 23.601179 -0.289311 0.824452 0.020213 -0.010342 632713.000000 0 1 0
15.210196 -4.701073 15.785545 22.419491 -0.299760 0.789643 0.000308 -0.006365 956070.000000 0 1 0
14.789996 -4.505073 14.426545 21.146273 -0.295674 0.819993 0.000179 -0.011210 312604.000000 0 1 0
15.480096 -3.396473 13.557145 20.855829 -0.215987 0.863158 0.007050 -0.005466 -98890.700000 0 1 0
14.946996 -2.099973 13.852645 20.487029 -0.139581 0.828249 0.004176 0.005257 462223.000000 0 1 0
15.422196 -0.997373 13.059945 20.233661 -0.064581 0.869176 0.009168 -0.002357 61193.200000 0 1 0
14.470296 0.203927 13.279945 19.641487 0.014092 0.828317 0.009668 0.003924 -501969.000000 0 1 0
14.909096 1.452827 12.811845 19.711297 0.097139 0.863245 0.023341 0.002592 391815.000000 0 1 0
15.862896 2.150727 13.620345 21.018347 0.134760 0.865812 0.041099 -0.004594 -62156.800000 0 1 0
16.153996 3.535627 13.132445 21.116661 0.215472 0.899630 0.045022 -0.004477 -216961.000000 0 1 0
15.109996 4.499427 13.243645 20.590070 0.289417 0.872119 0.048149 -0.003858 179610.000000 0 1 0
15.329796 5.719227 12.665145 20.691015 0.357086 0.912072 0.053139 -0.004513 -528467.000000 0 1 0
14.173496 6.705727 12.799045 20.240314 0.441911 0.886208 0.058876 -0.008515 -316060.000000 0 1 0
14.373296 7.912227 12.044545 20.353527 0.503212 0.937547 0.049087 -0.019022 -259088.000000 0 1 0
13.339496 8.831927 12.143745 20.085209 0.584826 0.921519 0.041199 -0.014023 -861945.000000 0 1 0
13.453196 9.907427 13.252745 21.325591 0.634764 0.900207 0.043662 -0.021197 -206684.000000 0 1 0
13.129996 9.464827 14.591345 21.791904 0.624586 0.837158 0.057156 -0.014730 319292.000000 0 1 0
13.957296 9.967427 15.574545 23.167265 0.620151 0.833532 0.085147 -0.026696 -164081.000000 0 1 0
13.384196 9.275727 16.839345 23.425186 0.606037 0.768641 0.071104 -0.026124 608209.000000 0 1 0
12.168896 9.818827 17.349645 23.355975 0.678921 0.733501 0.068391 -0.030806 67013.900000 0 1 0
11.556096 9.012627 18.344545 23.479632 0.662366 0.674057 0.070423 -0.020246 -244697.000000 0 1 0
11.985696 9.041327 19.839745 24.880072 0.646275 0.647797 0.075996 -0.021123 635239.000000 0 1 0
13.227596 8.285927 19.953745 25.333334 0.559614 0.663814 0.087254 -0.027345 856498.000000 0 0 1
13.755096 8.476927 21.234245 26.682468 0.552301 0.650448 0.078657 -0.021971 -62502.600000 0 0 1
15.278196 8.189927 21.242845 27.418181 0.492073 0.684442 0.073065 -0.015653 258735.000000 0 0 1
16.061396 9.259827 20.714845 27.799598 0.522981 0.730038 0.069733 -0.011652 317201.000000 0 0 1
17.344996 8.814427 20.314945 28.128989 0.470172 0.763809 0.064092 -0.015169 48410.400000 0 0 1
18.141196 9.715927 19.368445 28.260200 0.491699 0.815697 0.063878 -0.015218 -126552.000000 0 0 1
18.816596 10.747027 20.060645 29.529517 0.518933 0.823931 0.053537 -0.016389 351676.000000 0 0 1
19.625096 11.585827 19.239545 29.825088 0.533299 0.869669 0.051919 -0.018685 218945.000000 0 0 1
20.601496 12.478027 20.024445 31.322535 0.544590 0.877211 0.041038 -0.014474 -515007.000000 0 0 1
19.900096 13.464427 20.797045 31.777692 0.594849 0.857336 0.053470 -0.017485 540282.000000 0 0 1
20.629196 14.380027 21.663045 33.190909 0.608758 0.859680 0.050928 -0.013135 59922.400000 0 0 1
21.871596 15.117027 21.095845 33.940034 0.604776 0.900061 0.030385 -0.008220 353654.000000 0 0 1
23.014496 14.266027 20.997545 34.264901 0.554903 0.911197 0.004048 0.000694 886483.000000 0 0 1
24.218196 15.010127 20.768745 35.258555 0.554842 0.940924 0.009329 -0.007244 790235.000000 0 0 1
25.561596 14.246727 20.758445 35.878649 0.508468 0.953817 -0.000771 -0.002781 153876.000000 0 0 1
25.817496 13.406027 19.656445 35.108980 0.478938 0.976568 0.003518 -0.011780 221523.000000 0 0 1
26.996296 12.646727 19.852745 35.817191 0.438100 0.983299 0.012502 -0.010032 103252.000000 0 0 1
27.277296 11.811427 18.608845 35.069215 0.408638 1.011450 0.035907 -0.016317 -230639.000000 0 0 1
27.688596 12.565227 17.470745 35.068080 0.426014 1.049280 0.038800 -0.026604 263919.000000 0 0 1
28.017996 11.875227 16.280845 34.512245 0.400890 1.079532 0.063478 -0.038156 -269749.000000 0 0 1
26.810396 11.568327 15.383445 33.004150 0.407352 1.085912 0.062456 -0.050659 -292833.000000 0 0 1
26.402996 12.667327 14.600645 32.722442 0.447332 1.108285 0.070485 -0.046631 419549.000000 0 0 1
25.392696 12.185327 13.702545 31.321414 0.447419 1.118000 0.066690 -0.043573 427704.000000 0 0 1
24.781596 13.227927 12.733045 30.842114 0.490305 1.145220 0.063736 -0.043478 149931.000000 0 0 1
24.237996 14.397927 13.357645 31.196273 0.536013 1.128318 0.050476 -0.033945 402878.000000 0 0 1
23.773196 15.301627 12.380145 30.863775 0.571899 1.158055 0.039426 -0.029037 29881.900000 0 0 1
22.928496 16.511727 12.875645 31.050528 0.624115 1.143219 0.043655 -0.015690 -112483.000000 0 0 1
21.588996 16.169427 13.191145 30.025680 0.642839 1.115945 0.047495 -0.017492 33706.300000 0 0 1
20.852496 17.309127 13.510745 30.281557 0.692812 1.108314 0.044425 -0.016418 -652106.000000 0 0 1
20.327296 18.262727 12.309645 29.970878 0.731949 1.147553 0.054695 -0.008425 -29458.700000 0 0 1
19.199696 17.765227 11.594645 28.612365 0.746611 1.153564 0.042682 -0.008552 857238.000000 0 0 1
17.976896 17.948027 12.337745 28.240404 0.784595 1.118666 0.038840 -0.010542 881236.000000 0 0 1
16.771496 17.219527 11.574045 26.678713 0.798578 1.122056 0.036879 -0.004616 611325.000000 0 0 1
16.840396 15.795627 11.639345 25.856820 0.753396 1.103867 0.047007 -0.005668 -177701.000000 0 0 1
15.699496 15.211727 11.120245 24.526122 0.769620 1.100215 0.050591 -0.013433 -612809.000000 0 1 0
16.026796 13.936827 10.366245 23.633713 0.715761 1.116733 0.062912 -0.016019 -245164.000000 0 1 0
16.237196 12.787927 11.180645 23.498605 0.667116 1.074923 0.085127 -0.012314 486981.000000 0 1 0
16.654296 11.730627 10.341945 22.845766 0.613646 1.101022 0.073468 -0.009379 -122624.000000 0 1 0
16.847196 10.413327 11.005645 22.658103 0.553625 1.063602 0.063256 -0.016855 32097.200000 0 1 0
17.764696 9.547827 10.303845 22.647619 0.493165 1.098465 0.074536 -0.012547 806716.000000 0 1 0
18.234296 8.411527 11.021745 22.906816 0.432213 1.068824 0.083422 -0.010078 1043390.000000 0 1 0
19.457696 8.661727 12.007445 24.450076 0.418819 1.057444 0.055060 -0.015951 148174.000000 0 1 0
19.085696 9.498127 13.117345 25.030840 0.461771 1.019200 0.045345 -0.016928 -340858.000000 0 0 1
20.024296 9.760127 14.104345 26.365983 0.453528 1.006354 0.034000 -0.017202 -1325870.000000 0 0 1
19.412696 9.974727 15.540545 26.792844 0.474646 0.952036 0.023966 -0.015166 195517.000000 0 0 1
18.901396 8.907427 16.391545 26.557255 0.440390 0.905598 0.047195 -0.016959 733503.000000 0 0 1
17.899296 8.149627 15.723545 25.179974 0.427256 0.896374 0.070001 -0.029463 -392123.000000 0 0 1
17.457596 6.825827 16.391845 24.900847 0.372719 0.852259 0.069791 -0.016548 -326807.000000 0 1 0
16.623596 7.024527 17.529745 25.159092 0.399805 0.799931 0.087957 -0.016040 294016.000000 0 0 1
16.024196 5.817127 17.953745 24.757843 0.348228 0.759509 0.086364 -0.002158 -92754.700000 0 1 0
14.582296 5.645927 17.444945 23.427462 0.369403 0.730806 0.086430 -0.020501 -577217.000000 0 1 0
13.964496 4.436827 17.699445 22.977444 0.307635 0.691490 0.075684 -0.013916 63678.000000 0 1 0
13.488296 3.854327 16.520045 21.672606 0.278336 0.704007 0.067552 -0.015431 -114451.000000 0 1 0
13.117496 2.347427 16.774045 21.423065 0.177079 0.671338 0.036157 -0.008026 -118138.000000 0 1 0
14.232396 1.514927 17.035945 22.250383 0.106043 0.698749 0.024995 -0.001493 212207.000000 0 1 0
14.068396 0.119927 16.791145 21.906088 0.008524 0.697414 0.022265 -0.001336 56344.100000 0 1 0
13.142096 -0.665173 17.795345 22.132136 -0.050571 0.636720 0.017331 -0.004928 667844.000000 0 1 0
11.801096 -0.208473 17.876045 21.421072 -0.017664 0.583558 0.013331 0.008296 189560.000000 0 1 0
11.048296 -1.138873 18.688745 21.740080 -0.102719 0.536222 0.010186 0.001925 377560.000000 0 1 0
-25.516514 13.940227 28.844455 40.956379 -0.500015 0.789398 0.070105 -0.016775 -374941.000000 0 0 1
-24.543804 14.096927 29.854785 41.139152 -0.521352 0.758741 0.067347 -0.016468 373495.000000 0 0 1
-23.762904 12.920727 29.961275 40.364573 -0.498021 0.734350 0.055769 -0.015119 -467772.000000 0 0 1
-22.620904 13.054627 30.960785 40.505540 -0.523414 0.700749 0.071330 -0.027420 -579374.000000 0 0 1
-23.051104 13.211127 32.301265 41.824143 -0.520423 0.688324 0.067504 -0.025164 -147978.000000 0 0 1
-21.955404 13.385127 33.133010 41.940407 -0.547485 0.659984 0.055117 -0.019271 -382986.000000 0 0 1
-22.447904 13.442827 -33.894285 42.818694 -0.539570 2.484181 0.064302 -0.020964 286469.000000 0 0 1
-23.069804 12.252927 -33.430005 42.425409 -0.488236 2.478303 0.036361 -0.014592 134458.000000 0 0 1
-23.770304 12.494327 -32.237925 41.957351 -0.483939 2.447055 0.039550 -0.018632 26165.100000 0 0 1
-24.577404 11.331127 -31.618645 41.619490 -0.431995 2.433660 0.030446 -0.023522 204911.000000 0 0 1
-23.792404 10.323927 -30.963705 40.390753 -0.409399 2.444332 0.027532 -0.022233 243862.000000 0 0 1
-23.369904 9.264027 -31.762515 40.507184 -0.377406 2.472074 0.010680 -0.017851 -269118.000000 0 0 1
-22.565704 8.294427 -30.940325 39.183060 -0.352239 2.481011 0.011977 -0.010534 -143385.000000 0 0 1
-23.399404 7.500327 -30.077295 38.838520 -0.310188 2.456593 0.013140 -0.012449 955746.000000 0 0 1
-22.611304 6.813627 -29.086115 37.465967 -0.292683 2.459626 0.012303 -0.000944 139403.000000 0 0 1
-23.503704 6.116627 -28.021305 37.081407 -0.254594 2.427473 0.015450 -0.006658 47292.100000 0 0 1
-24.093404 4.933527 -28.532565 37.668807 -0.201975 2.430208 0.015707 -0.012186 36412.300000 0 0 1
-24.350504 3.986227 -27.586855 37.011777 -0.162263 2.411861 0.043700 -0.002724 -461372.000000 0 0 1
-25.184744 2.773827 -28.113445 37.846152 -0.109697 2.408091 0.055299 -0.000037 545836.000000 0 0 1
-26.554594 2.902527 -28.455925 39.029614 -0.108872 2.387781 0.050139 -0.002785 493103.000000 0 0 1
-26.875594 3.844727 -29.446215 40.051954 -0.142092 2.396759 0.042421 -0.003730 -963539.000000 0 0 1
-28.180124 3.584027 -30.213625 41.470806 -0.126504 2.387002 0.049789 -0.002124 -625078.000000 0 0 1
-29.393944 3.751127 -29.500715 41.813479 -0.126930 2.353969 0.044662 -0.006572 414332.000000 0 0 1
-30.474054 4.007527 -30.393475 43.226052 -0.130756 2.350584 0.041455 0.001415 215221.000000 0 0 1
-30.596734 5.460827 -30.871745 43.806910 -0.176618 2.352829 0.046910 -0.017977 -1010950.000000 0 0 1
-29.528314 5.868827 -31.702475 43.719691 -0.196196 2.382020 0.056812 -0.018521 216777.000000 0 0 1
-29.773744 7.084527 -32.341725 44.526997 -0.233601 2.383778 0.054430 -0.021323 -682171.000000 0 0 1
-29.482314 8.391427 -31.503795 43.955796 -0.277293 2.369877 0.043888 -0.029799 679254.000000 0 0 1
-28.088164 8.685727 -31.288925 42.934644 -0.299904 2.387301 0.014741 -0.041200 1099210.000000 0 0 1
-27.455264 7.959527 -30.241795 41.613841 -0.282173 2.384338 0.009951 -0.039383 -397454.000000 0 0 1
-27.547214 8.557127 -28.790515 40.754965 -0.301185 2.355237 0.006294 -0.029164 1193220.000000 0 0 1
-28.901954 8.561327 -28.259565 41.318546 -0.287985 2.323951 0.004326 -0.027587 1415690.000000 0 0 1
-29.490584 7.467027 -27.624295 41.092003 -0.247989 2.308047 0.011465 -0.025924 -940724.000000 0 0 1
-30.895054 7.715327 -27.112865 41.822698 -0.244722 2.276121 0.012490 -0.029264 -713523.000000 0 0 1
-30.915534 8.520827 -25.906145 41.225030 -0.268939 2.250301 -0.009120 -0.022655 -83212.400000 0 0 1
-30.483504 7.953827 -24.684135 40.022667 -0.255232 2.235408 -0.000447 -0.019001 -532512.000000 0 0 1
-30.070394 8.917027 -23.577735 39.238394 -0.288278 2.215403 -0.003375 -0.013491 -529977.000000 0 0 1
-30.860244 10.030227 -23.201435 39.890684 -0.314251 2.191522 0.001757 -0.010942 -371636.000000 0 0 1
-30.197354 10.811827 -22.245835 39.033997 -0.343818 2.177192 0.001795 -0.015594 -368368.000000 0 0 1
-31.083414 11.852027 -21.534135 39.627870 -0.364280 2.145289 -0.002244 -0.014153 296564.000000 0 0 1
-31.967314 11.275527 -20.536235 39.633112 -0.339096 2.115493 0.003105 -0.011967 973784.000000 0 0 1
-32.592034 12.115427 -19.515435 39.873255 -0.355900 2.082240 -0.001063 -0.012279 64784.800000 0 0 1
-31.663504 12.908827 -18.566835 38.909416 -0.387116 2.068241 0.007205 -0.014114 -209002.000000 0 0 1
-30.966204 12.120327 -17.568135 37.609141 -0.373075 2.056832 0.029547 -0.008555 581774.000000 0 0 1
-31.681364 11.784127 -16.358535 37.552312 -0.356101 2.021523 0.028888 -0.009779 -147132.000000 0 0 1
-32.209104 12.987327 -15.548535 38.050676 -0.383278 1.991746 0.031031 -0.008817 -452801.000000 0 0 1
-33.172424 13.727827 -16.237135 39.401871 -0.392374 1.995544 0.020111 -0.011428 -429691.000000 0 0 1
-33.735074 14.807327 -15.539435 39.984824 -0.413610 1.969944 0.019106 -0.006387 68107.500000 0 0 1
-34.264176 15.893427 -16.534035 41.231166 -0.434311 1.983413 0.024676 -0.017948 94368.200000 0 0 1
-35.310734 15.467427 -17.385335 42.288758 -0.412862 1.994468 0.019899 -0.024936 253328.000000 0 0 1
36.075304 16.595427 -17.576835 43.425579 0.431157 1.987510 0.014581 -0.023117 -405362.000000 0 0 1
35.256664 16.547227 -18.839935 43.264145 0.438817 2.021349 0.021246 -0.021601 -552010.000000 0 0 1
34.260494 15.575827 -18.916335 42.121438 0.426697 2.036543 0.040707 -0.025531 -458948.000000 0 0 1
32.987064 16.154227 -18.923635 41.318391 0.455385 2.046535 0.069059 -0.031050 -543734.000000 0 0 1
31.853724 15.111827 -19.106935 40.101147 0.442969 2.067430 0.086157 -0.033188 -86752.800000 0 0 1
31.672864 14.757327 -20.476335 40.499745 0.436022 2.100864 0.080982 -0.031563 243605.000000 0 0 1
31.002834 13.519127 -20.714935 39.661708 0.411202 2.120331 0.062180 -0.029438 -180435.000000 0 0 1
31.729794 12.242727 -20.284035 39.599322 0.368243 2.108578 0.055897 -0.009630 -162303.000000 0 0 1
31.765154 12.035627 -18.877935 38.862035 0.362180 2.078038 0.067716 -0.015863 105614.000000 0 0 1
32.466374 10.849327 -18.527535 38.923552 0.322504 2.066895 0.050442 -0.013229 -48882.900000 0 0 1
32.391684 10.597327 -16.992935 38.082599 0.316186 2.033325 0.037622 -0.007987 -252625.000000 0 0 1
31.122444 10.147027 -16.590235 36.698836 0.315168 2.039875 0.052797 -0.011035 -169318.000000 0 0 1
31.199044 9.734427 -15.240735 36.061329 0.302439 2.007146 0.040148 -0.010253 -161053.000000 0 0 1
30.780294 10.798827 -14.205735 35.578703 0.337419 1.981524 0.054688 -0.017804 -732632.000000 0 0 1
29.408194 11.053227 -14.338635 34.534217 0.359520 1.998960 0.058050 -0.016292 -214307.000000 0 0 1
29.100994 12.116227 -13.431435 34.264767 0.394522 1.973590 0.061132 -0.015488 -616618.000000 0 0 1
27.613194 12.449427 -13.474235 33.151647 0.423561 1.989353 0.076930 -0.016908 -881513.000000 0 0 1
26.871094 11.505727 -12.742435 31.887413 0.404563 1.981884 0.070424 -0.015576 539543.000000 0 0 1
25.501894 11.410727 -13.152035 30.879238 0.420728 2.010773 0.072623 -0.015777 425422.000000 0 0 1
25.257194 10.381727 -14.342135 30.844820 0.389988 2.054405 0.071468 -0.021365 -576608.000000 0 0 1
25.608594 9.020527 -14.243735 30.660300 0.338674 2.053941 0.067135 -0.020524 632711.000000 0 0 1
26.960394 8.809827 -14.642735 31.919987 0.315831 2.047365 0.066766 -0.027267 -94685.200000 0 0 1
27.515274 7.607827 -13.829035 31.720838 0.269755 2.021902 0.065055 -0.020629 -317414.000000 0 0 1
26.983694 6.303227 -14.082535 31.083246 0.229479 2.040990 0.063607 -0.021288 -142057.000000 0 0 1
25.857394 5.986627 -13.347135 29.708425 0.227516 2.036746 0.083178 -0.021988 -951041.000000 0 0 1
25.597094 4.491327 -13.309335 29.197973 0.173694 2.044102 0.071692 -0.018119 -455304.000000 0 0 1
24.779694 4.032427 -12.273735 27.945273 0.161317 2.025511 0.073485 -0.018165 -18186.300000 0 0 1
24.378694 2.706227 -12.418935 27.493169 0.110555 2.039477 0.055734 -0.017339 -103025.000000 0 0 1
23.487094 2.154627 -11.276835 26.142934 0.091481 2.016788 0.035414 -0.011276 43376.500000 0 0 1
24.212794 1.843227 -10.090635 26.295965 0.075980 1.964632 0.038937 -0.011592 762547.000000 0 0 1
23.395294 1.960927 -8.917335 25.113819 0.083622 1.933793 0.036167 -0.006348 -430497.000000 0 0 1
24.086394 1.559327 -7.599135 25.304797 0.064649 1.875808 0.034295 0.000929 -196808.000000 0 0 1
24.263494 0.162927 -7.477935 25.390219 0.006715 1.869750 0.021982 -0.006915 391823.000000 0 0 1
25.311994 -0.413673 -8.225835 26.618274 -0.016342 1.884969 0.030210 -0.006984 -680329.000000 0 0 1
25.517294 -1.918573 -7.944935 26.794313 -0.075046 1.871839 0.039687 -0.018486 -605321.000000 0 0 1
26.022994 -2.276273 -6.686935 26.964657 -0.087250 1.821400 0.056724 -0.013321 619757.000000 0 0 1
25.853794 -3.703973 -6.536835 26.923378 -0.142298 1.816041 0.058589 -0.015019 4864.740000 0 0 1
27.051394 -4.245173 -5.658235 27.960956 -0.155660 1.774566 0.048839 -0.017020 927565.000000 0 0 1
28.215054 -4.150773 -6.506635 29.251573 -0.146064 1.795110 0.054205 -0.017425 668406.000000 0 0 1
29.386564 -4.506073 -5.789335 30.288467 -0.152153 1.763120 0.080163 -0.015437 249479.000000 0 0 1
30.677164 -4.508173 -6.644735 31.710637 -0.145911 1.781904 0.088365 -0.019377 -47015.000000 0 0 1
30.738384 -5.665273 -7.509935 32.145648 -0.182261 1.806598 0.072302 -0.014660 -220761.000000 0 0 1
31.738204 -5.562973 -8.468035 33.316181 -0.173514 1.827788 0.069540 -0.028314 -729861.000000 0 0 1
31.447274 -6.462873 -9.725035 33.545135 -0.202692 1.864928 0.058632 -0.021579 599199.000000 0 0 1
30.244694 -6.242673 -10.462735 32.606461 -0.203547 1.897454 0.061088 -0.018126 344387.000000 0 0 1
29.071154 -6.850173 -10.006535 31.499010 -0.231413 1.894076 0.055882 -0.022405 -450043.000000 0 0 1
27.930874 -5.950073 -9.527935 30.105127 -0.209891 1.892822 0.046174 -0.013505 -1051870.000000 0 0 1
27.248944 -5.391473 -10.609735 29.734482 -0.195337 1.935653 0.028430 -0.010906 589903.000000 0 0 1
25.944194 -4.853273 -10.436935 28.382831 -0.184929 1.947352 0.032474 -0.009012 1228610.000000 0 0 1
24.758194 -5.837473 -10.128735 27.379473 -0.231550 1.949740 0.049443 -0.004412 -523817.000000 0 0 1
24.884494 -6.566073 -8.881135 27.225465 -0.257982 1.903085 0.046137 -0.006068 1320690.000000 0 0 1
23.663394 -7.154073 -8.340635 26.090289 -0.293590 1.896192 0.054840 -0.010298 1031830.000000 0 0 1
22.685794 -6.160573 -7.659335 24.723740 -0.265166 1.885776 0.077286 -0.010168 -378242.000000 0 1 0
22.001994 -5.263573 -8.466035 24.155055 -0.234818 1.928887 0.060579 -0.009692 286949.000000 0 1 0
21.857494 -3.968273 -7.899735 23.577596 -0.179596 1.912457 0.058604 -0.010588 -165667.000000 0 1 0
21.729494 -3.062873 -9.128735 23.767329 -0.140032 1.965016 0.053245 -0.003863 -599892.000000 0 1 0
22.873594 -2.915373 -9.902835 25.095156 -0.126772 1.976441 0.031415 -0.004349 72720.100000 0 0 1
22.628894 -1.981773 -10.926135 25.206640 -0.087354 2.019128 0.032686 -0.006154 218806.000000 0 0 1
23.856694 -1.877473 -11.871735 26.713383 -0.078536 2.031314 0.025086 -0.010431 2502.630000 0 0 1
24.967294 -1.141373 -11.413935 27.476288 -0.045683 1.999190 0.030503 -0.013111 228694.000000 0 0 1
26.011394 -1.289673 -12.357335 28.826370 -0.049541 2.013829 0.024595 -0.009099 -972636.000000 0 0 1
27.146294 -0.388673 -11.962435 29.667696 -0.014317 1.985823 0.022543 -0.008359 -223256.000000 0 0 1
28.387154 -0.654573 -12.661435 31.089724 -0.023055 1.990242 0.040137 -0.014733 1081480.000000 0 0 1
29.342554 0.361927 -12.390435 31.853404 0.012334 1.970324 0.056703 -0.019088 -79171.300000 0 0 1
29.307304 1.615627 -13.367635 32.252473 0.055071 1.998155 0.065881 -0.025747 -584202.000000 0 0 1
29.742434 1.298327 -14.605635 33.160558 0.043625 2.026898 0.054745 -0.018340 228978.000000 0 0 1
29.659464 2.446027 -15.422135 33.518787 0.082284 2.048909 0.052058 -0.016509 -68845.700000 0 0 1
29.906544 2.094027 -16.925835 34.427754 0.069905 2.084761 0.051635 -0.019771 -354462.000000 0 0 1
28.809794 1.468427 -17.527435 33.754577 0.050926 2.116782 0.045171 -0.007589 -158040.000000 0 0 1
29.004644 1.320627 -18.951335 34.672273 0.045500 2.149077 0.029820 -0.006988 -463709.000000 0 0 1
27.970204 0.440227 -19.623435 34.170240 0.015738 2.182526 0.011000 -0.005656 -772279.000000 0 0 1
28.058934 -0.939173 -19.310135 34.074435 -0.033459 2.173297 0.026250 -0.003016 189685.000000 0 0 1
27.773724 -1.755873 -20.464535 34.543596 -0.063137 2.204864 0.013310 -0.005496 -168501.000000 0 0 1
27.500824 -3.241473 -20.124635 34.231614 -0.117327 2.199252 0.027395 -0.022587 -147539.000000 0 0 1
26.181194 -3.562773 -19.724635 32.972860 -0.135251 2.212060 0.027765 -0.011381 269909.000000 0 0 1
25.872094 -4.911873 -19.526335 32.783678 -0.187619 2.208823 0.035582 -0.011450 -568094.000000 0 0 1
26.594094 -5.722673 -18.427435 32.856737 -0.211954 2.166199 0.037138 -0.012563 640938.000000 0 0 1
27.943274 -6.025673 -18.843735 34.237723 -0.212387 2.153615 0.039150 -0.011301 1217570.000000 0 0 1
28.893484 -5.743473 -17.798935 34.418353 -0.196223 2.114297 0.034689 -0.018794 847843.000000 0 0 1
30.348414 -5.545773 -18.323935 35.882425 -0.180743 2.106756 0.060692 -0.023756 291104.000000 0 0 1
31.000874 -6.636873 -18.881035 36.899807 -0.210903 2.107940 0.055792 -0.023678 1370780.000000 0 0 1
32.351744 -6.282473 -19.320935 38.202138 -0.191805 2.101054 0.066260 -0.021861 1400710.000000 0 0 1
33.245674 -7.386273 -19.913035 39.450739 -0.218622 2.099897 0.065201 -0.017537 -72744.500000 0 0 1
33.859074 -8.105773 -18.861735 39.596787 -0.234975 2.067290 0.080327 -0.017711 -65696.700000 0 0 1
34.298754 -9.345373 -19.325935 40.462727 -0.266012 2.068744 0.068756 -0.007598 -252369.000000 0 0 1
35.159714 -10.122573 -18.328135 40.921785 -0.280322 2.035191 0.062034 -0.012689 -166302.000000 0 0 1
34.355774 -10.617773 -17.241135 39.878729 -0.299742 2.017882 0.064084 -0.009287 464946.000000 0 0 1
34.944364 -11.525273 -16.339935 40.260824 -0.318583 1.988707 0.071143 -0.015324 -72033.100000 0 0 1
36.056724 -10.911073 -15.396735 40.696417 -0.293848 1.958789 0.069429 -0.009872 685319.000000 0 0 1
-35.516684 -11.783473 -14.454035 40.114887 0.320346 1.939403 0.059828 -0.007060 803091.000000 0 0 1
-34.841770 -12.970073 -14.929735 40.063309 0.356363 1.952663 0.047871 -0.014789 -112727.000000 0 0 1
-33.386794 -12.845173 -15.416835 38.953245 0.367281 1.977711 0.038936 -0.013352 -229074.000000 0 0 1
-33.227814 -12.250473 -16.713835 39.160107 0.353220 2.011756 0.047385 -0.008032 422329.000000 0 0 1
-31.838924 -12.037873 -16.975135 38.036596 0.361474 2.033405 0.035157 -0.008423 480303.000000 0 0 1
-31.642514 -11.030173 -18.099135 38.085326 0.335416 2.066017 0.056603 -0.007284 -3679.840000 0 0 1
-31.966284 -9.687973 -17.736635 37.819153 0.294270 2.058938 0.072523 -0.011425 -97018.300000 0 0 1
-33.028804 -9.207573 -18.507035 38.963979 0.271872 2.065735 0.079322 -0.020240 -512173.000000 0 0 1
-33.712164 -8.027273 -17.879135 38.995007 0.233759 2.047101 0.085974 -0.023528 -490283.000000 0 0 1
-34.723545 -7.429973 -18.641635 40.105356 0.210796 2.054224 0.083998 -0.022691 -75519.300000 0 0 1
-35.491998 -6.586373 -17.766535 40.233220 0.183486 2.028165 0.092418 -0.027532 175798.000000 0 0 1
24.764896 27.543327 -27.693785 46.248034 0.838465 2.212811 0.039339 0.018420 -9581.500000 0 0 1
25.181796 26.648127 -26.716845 45.365574 0.813682 2.200522 0.040077 0.011516 -487230.000000 0 0 1
26.452896 26.112927 -26.934215 45.903078 0.778931 2.197852 0.033421 0.006616 -624969.000000 0 0 1
26.992196 25.208427 -25.802775 45.053597 0.751240 2.180608 0.032274 -0.004268 -828024.000000 0 0 1
27.306996 25.945327 -24.646035 45.013987 0.759834 2.150193 0.043606 -0.002678 239316.000000 0 0 1
27.562296 25.076227 -23.529635 44.069729 0.738204 2.134024 0.049993 -0.007019 -283120.000000 0 0 1
28.214796 25.847627 -22.377635 44.327566 0.741640 2.099975 0.047813 -0.006815 -476526.000000 0 0 1
27.402596 26.758827 -21.744835 44.042876 0.773513 2.087158 0.049047 -0.008546 -379488.000000 0 0 1
28.018296 27.233627 -20.583235 44.162936 0.771197 2.055645 0.026699 -0.013200 80342.000000 0 0 1
27.032196 28.060927 -19.729235 43.673767 0.804069 2.039512 0.035661 -0.007561 -74846.400000 0 0 1
26.247396 27.401527 -18.742135 42.320646 0.806907 2.029583 0.053157 -0.009036 -52574.500000 0 0 1
25.340596 28.420627 -18.368335 42.276158 0.842627 2.020262 0.049591 -0.010436 -131875.000000 0 0 1
24.326996 27.993027 -17.271135 40.910933 0.855353 2.006628 0.048682 -0.007718 299194.000000 0 0 1
23.344896 27.152227 -17.863735 40.016754 0.860653 2.033542 0.058019 -0.008688 249577.000000 0 0 1
22.225996 26.928027 -17.028135 38.846762 0.880767 2.024549 0.038056 0.005502 506014.000000 0 0 1
21.164896 25.897227 -17.482935 37.739531 0.885616 2.052458 0.033754 0.001699 55253.900000 0 0 1
20.471696 26.235427 -18.651235 38.147825 0.908179 2.081648 0.035121 -0.001057 -75830.800000 0 0 1
19.607696 25.219127 -19.128635 37.234000 0.909931 2.110336 0.035203 0.005202 -259.613000 0 0 1
18.863496 25.578827 -20.410635 37.771708 0.935366 2.141671 0.019124 0.011372 63525.600000 0 0 1
17.844896 26.520827 -20.146935 37.784832 0.978516 2.133177 0.003590 0.012721 204386.000000 0 0 1
16.889896 26.694627 -21.222335 38.056001 1.006674 2.162361 -0.002018 0.012874 640630.000000 0 0 1
15.895896 27.823827 -20.856535 38.234015 1.051743 2.147778 0.000532 0.015791 203482.000000 0 0 1
15.161696 27.536127 -19.656535 37.074178 1.067484 2.129627 0.004738 0.017227 -159021.000000 0 0 1
14.437496 28.622827 -19.176335 37.355580 1.103631 2.109875 -0.000774 0.009157 -187274.000000 0 0 1
13.941196 28.404327 -17.754235 36.281891 1.114526 2.082131 0.006303 0.004692 405604.000000 0 0 1
12.834996 27.484827 -17.761235 35.151306 1.133908 2.100502 0.006837 0.004005 289703.000000 0 0 1
12.175596 27.425927 -16.503735 34.246166 1.152989 2.073635 0.014847 0.004507 369033.000000 0 0 1
11.315696 26.152427 -16.361735 32.858801 1.162437 2.092019 0.038238 0.001958 43275.400000 0 0 1
12.135396 25.067627 -15.977735 32.108282 1.119944 2.091650 0.026308 0.006959 10325.700000 0 0 1
11.392096 23.878427 -15.834235 30.833133 1.125646 2.110109 0.048048 0.008842 25473.900000 0 0 1
12.319296 22.678327 -15.972435 30.351116 1.073174 2.124987 0.040821 0.001412 -93169.000000 0 0 1
12.789196 22.601227 -17.293235 31.199919 1.055856 2.158284 0.041508 0.002906 -664522.000000 0 0 1
13.756596 21.599127 -17.383035 30.950543 1.003682 2.167162 0.050040 0.000711 -746815.000000 0 0 1
13.213996 20.235327 -17.836135 30.036742 0.992304 2.206583 0.065143 -0.003702 251553.000000 0 0 1
12.395196 19.678627 -16.795035 28.687322 1.008695 2.196233 0.059121 -0.007387 154849.000000 0 0 1
11.897996 18.349627 -16.983335 27.689435 0.995543 2.231092 0.055540 -0.013572 110300.000000 0 0 1
12.931796 17.186727 -16.911935 27.361076 0.925742 2.237122 0.052178 -0.014173 -373804.000000 0 0 1
13.709396 17.169027 -15.764635 27.041574 0.896973 2.193185 0.058138 -0.019745 -107973.000000 0 0 1
14.793496 16.275227 -15.989035 27.191539 0.833054 2.199399 0.059426 -0.019995 -714184.000000 0 0 1
15.215396 15.660127 -14.648535 26.293106 0.799801 2.161715 0.076525 -0.011477 -1069040.000000 0 0 1
16.123996 16.365927 -13.826035 26.813915 0.792844 2.112538 0.071073 -0.008450 1292290.000000 0 0 1
17.486696 16.585327 -14.253235 28.000220 0.758950 2.104866 0.056990 -0.008693 633396.000000 0 0 1
18.252996 15.278327 -14.732935 27.993901 0.696917 2.125029 0.048556 -0.010906 -1191480.000000 0 0 1
18.749896 14.346727 -13.767735 27.330161 0.653135 2.098738 0.064065 -0.017154 399865.000000 0 0 1
19.877996 14.852727 -13.089035 28.054609 0.641703 2.056189 0.063237 -0.015974 -729679.000000 0 0 1
20.395696 13.745627 -12.135735 27.426315 0.593026 2.029164 0.066930 -0.017380 -209751.000000 0 0 1
19.449396 13.278127 -11.178435 26.068085 0.599021 2.013979 0.095384 -0.017908 663361.000000 0 0 1
19.933596 12.156727 -10.401635 25.560287 0.547639 1.989904 0.094093 -0.012404 13709.600000 0 0 1
20.154596 10.857627 -11.223535 25.496344 0.494140 2.026620 0.082063 -0.012837 -152527.000000 0 0 1
21.307996 10.851527 -12.057135 26.779859 0.471036 2.037821 0.079419 -0.010382 605267.000000 0 0 1
21.240796 9.806827 -13.025835 26.777185 0.432539 2.078821 0.071018 -0.009405 29938.500000 0 0 1
21.964396 8.486727 -12.588835 26.700899 0.368715 2.061760 0.065643 0.000301 -360085.000000 0 0 1
21.299396 7.809927 -11.565935 25.464291 0.351451 2.042273 0.064757 -0.012178 493061.000000 0 0 1
22.034696 6.736327 -10.963735 25.516846 0.296691 2.014920 0.065927 0.000327 -1055620.000000 0 0 1
22.061196 5.349327 -11.700935 25.538668 0.237886 2.046726 0.055892 -0.005941 -91836.600000 0 0 1
20.888196 4.518327 -11.808735 24.416762 0.213028 2.075596 0.033480 -0.011047 709016.000000 0 1 0
19.873296 5.086427 -12.616735 24.083223 0.250564 2.122197 -0.004885 -0.015413 -253089.000000 0 1 0
18.966596 3.962527 -13.178835 23.433205 0.205959 2.168082 -0.005538 -0.023656 127701.000000 0 1 0
19.736796 3.042427 -13.959535 24.365264 0.152946 2.180870 0.002343 -0.021293 601061.000000 0 1 0
19.001596 1.914927 -14.302535 23.859801 0.100438 2.213598 0.004369 -0.009390 -441867.000000 0 1 0
19.950996 0.923727 -14.943835 24.944212 0.046267 2.213161 0.029175 -0.006749 -414526.000000 0 1 0
20.961196 0.377227 -14.161635 25.299525 0.017994 2.164891 0.041403 -0.004114 315563.000000 0 0 1
22.148796 0.018327 -14.857535 26.670505 0.000827 2.161659 0.034732 -0.015787 100689.000000 0 0 1
22.105396 -1.424573 -15.467435 27.017022 -0.064356 2.180357 0.033079 -0.009681 -1516180.000000 0 0 1
21.153496 -1.719773 -16.408135 26.826385 -0.081121 2.228930 0.024106 -0.007294 -634436.000000 0 0 1
21.457896 -2.773273 -17.273535 27.685869 -0.128530 2.244534 0.030490 -0.012830 -776714.000000 0 0 1
20.235996 -3.402173 -17.926835 27.247784 -0.166567 2.288848 0.023709 -0.015851 -757650.000000 0 0 1
19.522696 -4.196673 -17.003935 26.227496 -0.211742 2.276178 0.033360 -0.016622 430920.000000 0 0 1
18.622896 -5.009773 -17.799535 26.243733 -0.262790 2.316160 0.035606 -0.017778 391469.000000 0 0 1
18.070796 -6.288673 -17.044835 25.624744 -0.334894 2.298519 0.047386 -0.021052 353018.000000 0 0 1
19.159496 -7.134973 -16.685735 26.389541 -0.356488 2.255297 0.045870 -0.016497 728541.000000 0 0 1
18.707896 -8.126373 -15.785635 25.791658 -0.409790 2.229439 0.055087 -0.013166 -241894.000000 0 0 1
19.807796 -9.062373 -15.291835 26.614200 -0.429086 2.182880 0.079671 -0.014333 -338203.000000 0 0 1
20.299796 -9.874773 -16.321835 27.856690 -0.452746 2.196813 0.071737 -0.017246 871832.000000 0 0 1
21.318596 -10.764773 -15.810535 28.641507 -0.467598 2.155575 0.063783 -0.020607 189949.000000 0 0 1
21.936596 -11.776673 -16.794235 30.032493 -0.492692 2.164219 0.061714 -0.016641 -84012.200000 0 0 1
22.790896 -11.106873 -17.707435 30.924761 -0.453467 2.180467 0.061190 -0.017144 105510.000000 0 0 1
23.015596 -11.844573 -18.915935 32.059697 -0.475285 2.201883 0.052639 -0.016016 -472305.000000 0 0 1
21.958996 -11.600273 -20.020335 31.899493 -0.486007 2.249272 0.046228 -0.008260 155398.000000 0 0 1
20.678096 -12.120973 -19.741335 31.051924 -0.530192 2.259779 0.048202 -0.010720 4669.210000 0 0 1
20.472496 -13.546573 -19.866035 31.579932 -0.584554 2.251155 0.037993 -0.003522 -213771.000000 0 0 1
18.951596 -13.867973 -19.819435 30.729362 -0.631723 2.271777 0.045841 0.000198 453429.000000 0 0 1
18.385996 -13.530973 -21.103435 31.088375 -0.634441 2.316952 0.051456 -0.000537 -43651.800000 0 0 1
17.004396 -13.827973 -21.109935 30.430112 -0.682738 2.337436 0.043734 0.003782 -93637.100000 0 0 1
16.397596 -13.249473 -22.409935 30.767432 -0.679608 2.386730 0.051689 0.001168 -276186.000000 0 0 1
16.804696 -13.938873 -23.537635 32.104677 -0.692450 2.393743 0.043290 0.005998 263720.000000 0 0 1
16.211496 -13.422973 -24.715235 32.462774 -0.691577 2.436175 0.058829 -0.004722 -81181.700000 0 0 1
16.111196 -14.356273 -25.955305 33.754275 -0.727862 2.447991 0.060596 -0.006365 -451861.000000 0 0 1
15.214096 -15.403173 -25.713695 33.614291 -0.791574 2.441780 0.059568 -0.008343 -54604.500000 0 0 1
15.143796 -16.297973 -26.786855 34.820886 -0.822090 2.448503 0.072397 -0.005423 -89415.500000 0 0 1
16.147896 -17.481473 -26.725465 35.785569 -0.825033 2.414067 0.068475 -0.012931 -285189.000000 0 0 1
17.454696 -17.075573 -27.001335 36.404858 -0.774419 2.406392 0.066776 -0.005595 -594899.000000 0 0 1
18.392696 -18.131073 -27.012165 37.372238 -0.778235 2.378623 0.068209 -0.013373 -396945.000000 0 0 1
19.840496 -17.691873 -27.099395 37.960834 -0.728213 2.365817 0.055143 -0.009138 -609208.000000 0 0 1
20.295496 -16.918173 -26.015435 37.080111 -0.694891 2.348438 0.047431 -0.007489 -25406.200000 0 0 1
21.712896 -16.906773 -26.039135 37.885689 -0.661587 2.328573 0.046971 -0.006582 140880.000000 0 0 1
22.301796 -16.400173 -24.699335 37.099770 -0.634075 2.299301 0.046326 -0.007846 -93459.300000 0 0 1
22.177596 -15.033173 -24.422635 36.253375 -0.595708 2.309953 0.054137 -0.016300 -931585.000000 0 0 1
20.897296 -14.698073 -23.975335 35.036367 -0.612969 2.324438 0.061311 -0.011376 -470114.000000 0 0 1
20.824096 -13.252873 -23.399835 34.012261 -0.566769 2.329502 0.059460 -0.003723 -116938.000000 0 0 1
20.870196 -12.199773 -24.385335 34.337212 -0.528985 2.360539 0.073186 -0.009661 114469.000000 0 0 1
20.561196 -10.996373 -23.718635 33.260437 -0.491108 2.364733 0.081452 -0.009422 40154.300000 0 0 1
20.505196 -9.833673 -24.707135 33.579856 -0.447170 2.397603 0.093788 -0.014093 -207256.000000 0 0 1
20.101596 -8.654373 -24.047735 32.515626 -0.406547 2.403235 0.096987 -0.017461 171861.000000 0 0 1
19.978096 -7.541573 -24.911535 32.811343 -0.360954 2.432934 0.085512 -0.019492 -253321.000000 0 0 1
19.577996 -6.254273 -24.230335 31.772992 -0.309208 2.438132 0.075903 -0.024075 -999776.000000 0 0 1
18.283896 -6.315873 -23.764635 30.642275 -0.332601 2.458383 0.078773 -0.024500 -989896.000000 0 0 1
17.932796 -5.409273 -22.736835 29.458600 -0.292962 2.452500 0.070652 -0.019536 -14315.200000 0 0 1
18.566796 -5.651473 -21.310735 28.823818 -0.295476 2.402893 0.054707 -0.019567 -281508.000000 0 0 1
18.086296 -6.706473 -20.477335 28.132048 -0.355087 2.386052 0.063180 -0.021506 309778.000000 0 0 1
18.014696 -8.037673 -20.987235 28.802734 -0.419667 2.387151 0.080172 -0.020041 -250853.000000 0 0 1
17.733796 -9.064573 -19.891035 28.147954 -0.472525 2.355563 0.064465 -0.017011 -742384.000000 0 0 1
16.392896 -9.111373 -19.556135 27.095878 -0.507295 2.377107 0.054743 -0.016591 -984928.000000 0 0 1
16.183996 -10.174473 -18.676035 26.725193 -0.561238 2.344539 0.059080 -0.007272 -446379.000000 0 0 1
14.688596 -10.579973 -18.492035 25.877520 -0.624211 2.366846 0.048005 -0.010478 621174.000000 0 0 1
13.888496 -9.800373 -17.571035 24.447473 -0.614506 2.372765 0.052407 -0.011780 550477.000000 0 1 0
13.832296 -8.453973 -17.948835 24.186003 -0.548597 2.407019 0.046556 -0.023414 -1972180.000000 0 1 0
12.790996 -7.659673 -17.214835 22.773465 -0.539561 2.427849 0.053003 -0.012961 607481.000000 0 1 0
11.463296 -7.952773 -17.733635 22.564033 -0.606526 2.474987 0.035063 -0.022511 1143070.000000 0 1 0
10.614196 -6.818373 -17.545635 21.610199 -0.571002 2.518221 0.018307 -0.017370 835060.000000 0 1 0
9.181396 -6.909873 -18.183635 21.510206 -0.645160 2.578015 0.014318 -0.012470 814892.000000 0 1 0
9.098496 -6.523973 -19.529335 22.510882 -0.622070 2.621053 0.019721 -0.016575 781703.000000 0 1 0
7.737396 -6.155873 -19.824935 22.153784 -0.672052 2.678954 0.018904 -0.014451 861634.000000 0 1 0
7.405796 -5.944373 -21.316935 23.336519 -0.676364 2.722499 0.025998 -0.015057 -97012.800000 0 1 0
7.220896 -7.173073 -22.036635 24.273599 -0.782076 2.708909 0.024169 -0.018940 93860.000000 0 1 0
6.634796 -6.882273 -23.281635 25.167851 -0.803705 2.751975 0.026339 -0.015494 -352561.000000 0 0 1
6.640196 -8.012473 -24.334735 26.466418 -0.878779 2.737494 0.026142 -0.013993 -237601.000000 0 0 1
5.949796 -9.154773 -23.920835 26.294796 -0.994483 2.713399 0.025753 -0.011866 102228.000000 0 0 1
5.906996 -10.008273 -25.049335 27.613897 -1.037605 2.707205 0.026283 0.005126 -162393.000000 0 0 1
5.113596 -11.289573 -24.741535 27.672132 -1.145493 2.677204 0.035665 -0.003346 -131118.000000 0 0 1
5.822796 -12.194073 -23.933035 27.484369 -1.125302 2.627597 0.029331 -0.009258 111411.000000 0 0 1
5.059996 -13.335473 -23.528335 27.514014 -1.208140 2.596617 0.031706 -0.011397 -428653.000000 0 0 1
5.728896 -14.228773 -22.447535 27.187682 -1.188027 2.542151 0.036497 -0.015336 -111170.000000 0 0 1
6.807596 -15.061173 -22.889435 28.233111 -1.146283 2.516195 0.042152 -0.013374 1298090.000000 0 0 1
8.102096 -14.432473 -23.069435 28.392588 -1.059258 2.519252 0.050472 -0.012275 865754.000000 0 0 1
8.796996 -13.867473 -21.816935 27.307007 -1.005493 2.496344 0.049359 -0.010059 -771090.000000 0 0 1
9.366296 -14.850573 -20.931935 27.320559 -1.008107 2.443642 0.054920 -0.009502 -66986.300000 0 0 1
8.471696 -15.355473 -19.990735 26.593038 -1.066645 2.421475 0.055002 -0.015178 -256880.000000 0 0 1
9.137696 -15.669573 -18.632335 26.003787 -1.042859 2.369603 0.048095 -0.017192 252777.000000 0 0 1
9.910796 -16.856673 -18.607535 26.992808 -1.039288 2.331390 0.053624 -0.009905 -267393.000000 0 0 1
10.226196 -17.272273 -17.290535 26.492813 -1.036237 2.281873 0.044803 -0.011036 132982.000000 0 0 1
9.039796 -18.057273 -16.592335 26.135964 -1.106654 2.258607 0.037847 -0.016069 375522.000000 0 0 1
8.767396 -19.353373 -17.095535 27.270453 -1.145437 2.248349 0.063389 -0.021628 24740.300000 0 0 1
8.129696 -19.524773 -18.367535 28.012052 -1.176251 2.285907 0.062151 -0.017915 -18999.700000 0 0 1
6.599696 -19.308973 -18.282335 27.397741 -1.241450 2.301365 0.057726 -0.019544 -41710.600000 0 0 1
6.074296 -18.001173 -18.057035 26.210605 -1.245355 2.330796 0.052955 -0.019291 1116900.000000 0 0 1
4.713096 -17.902973 -17.563035 25.518423 -1.313379 2.329869 0.047863 -0.019767 1313730.000000 0 0 1
4.408296 -16.429073 -17.351635 24.298699 -1.308648 2.366130 0.030275 -0.010563 159414.000000 0 1 0
5.090496 -15.890573 -16.226335 23.274824 -1.260779 2.342228 0.027373 -0.010082 229766.000000 0 1 0
4.746596 -14.494373 -16.137135 22.204147 -1.254324 2.384393 0.015989 -0.002609 233947.000000 0 1 0
10.797796 30.143027 -18.084135 36.772686 1.226819 2.084931 0.044431 -0.016278 -907538.000000 0 0 1
9.789596 29.648427 -18.886635 36.490689 1.251878 2.114810 0.063451 -0.020081 -1238050.000000 0 0 1
8.877696 28.923827 -18.148635 35.281358 1.272991 2.111101 0.059558 -0.020381 -671508.000000 0 0 1
7.794796 28.327327 -19.043735 35.012285 1.302273 2.145893 0.060426 -0.018497 -286246.000000 0 0 1
6.933496 29.308427 -19.578135 35.921590 1.338497 2.147214 0.067111 -0.031289 -61653.300000 0 0 1
5.985196 28.661427 -20.423535 35.699030 1.364931 2.179864 0.052134 -0.034081 80975.200000 0 0 1
5.058896 29.561627 -21.230435 36.745252 1.401308 2.186795 0.061154 -0.031474 -62428.800000 0 0 1
3.971996 30.049727 -20.467435 36.574291 1.439377 2.164715 0.055723 -0.026082 -588171.000000 0 0 1
3.068596 30.715827 -21.288235 37.497563 1.471224 2.174534 0.051005 -0.027004 -506597.000000 0 0 1
1.602996 30.518527 -20.793535 36.963782 1.518319 2.168249 0.045760 -0.018897 233973.000000 0 0 1
1.019296 29.270727 -21.111535 36.104173 1.535987 2.195355 0.049909 -0.025474 122088.000000 0 0 1
0.775196 28.985627 -22.488135 36.694464 1.544059 2.230456 0.074902 -0.037908 -624193.000000 0 0 1
0.057996 27.675027 -22.850535 35.889517 1.568701 2.260996 0.070891 -0.027905 834946.000000 0 0 1
-1.082604 27.417227 -21.993935 35.165459 -1.531331 2.246493 0.056827 -0.029745 709213.000000 0 0 1
-1.406304 26.072127 -22.025035 34.158976 -1.516910 2.271532 0.070522 -0.046071 159257.000000 0 0 1
-2.615504 25.667827 -21.125335 33.346034 -1.469249 2.256889 0.046101 -0.034514 1346000.000000 0 0 1
-3.846404 26.362127 -21.474535 34.218594 -1.425912 2.249223 0.046419 -0.032783 1264760.000000 0 0 1
-4.958604 25.874527 -20.744535 33.532292 -1.381452 2.237811 0.046894 -0.037077 420498.000000 0 0 1
-5.912004 26.939227 -20.107035 34.131607 -1.354764 2.200745 0.069804 -0.041846 131124.000000 0 0 1
-7.133104 26.374727 -19.712535 33.691118 -1.306663 2.195795 0.070422 -0.035905 -623131.000000 0 0 1
-7.817504 27.264427 -18.854635 34.058179 -1.291559 2.157478 0.071871 -0.042851 -838233.000000 0 0 1
-9.095404 26.690227 -18.343235 33.638800 -1.242362 2.147543 0.086937 -0.036506 -885278.000000 0 0 1
-8.963504 25.665527 -17.328335 32.238717 -1.234796 2.138267 0.081404 -0.042247 -149095.000000 0 0 1
-10.258404 25.293927 -16.897435 32.102039 -1.185499 2.125118 0.070831 -0.045180 226578.000000 0 0 1
-10.216604 24.450127 -15.615335 30.757542 -1.174993 2.103299 0.078838 -0.040502 121295.000000 0 0 1
-9.623404 23.132627 -15.632935 29.531627 -1.176565 2.128645 0.072665 -0.032160 -10322.100000 0 0 1
-9.716304 22.602927 -14.335835 28.474814 -1.164809 2.098391 0.078168 -0.025592 110094.000000 0 0 1
-9.072704 21.153727 -14.303835 27.099701 -1.165632 2.126831 0.078406 -0.016967 143271.000000 0 0 1
-9.788404 20.017127 -14.819835 26.760525 -1.115986 2.157711 0.061874 -0.010800 -406021.000000 0 0 1
-10.044204 20.143327 -16.233435 27.751830 -1.108240 2.195615 0.064736 -0.012015 -307163.000000 0 0 1
-8.898204 20.062727 -17.253535 27.917298 -1.153345 2.237022 0.048298 -0.016092 -356121.000000 0 0 1
-8.445104 18.756927 -17.333135 26.899436 -1.147743 2.270993 0.044300 -0.009918 195822.000000 0 0 1
-7.499104 18.581627 -18.415435 27.214732 -1.187211 2.314029 0.047612 -0.014947 674163.000000 0 0 1
-6.993604 17.132427 -18.607735 26.242682 -1.183234 2.358966 0.053151 -0.017451 -147322.000000 0 0 1
-8.001704 16.256427 -19.062535 26.299789 -1.113394 2.381565 0.033344 -0.014002 -485279.000000 0 0 1
-7.705304 15.349227 -20.107935 26.444272 -1.105550 2.434708 0.038961 -0.012633 -308492.000000 0 0 1
-6.471804 14.423427 -19.943235 25.449010 -1.149023 2.471324 0.034408 -0.011852 -109618.000000 0 0 1
-6.612204 13.243927 -19.148035 24.202687 -1.107738 2.483489 0.018718 -0.010327 211580.000000 0 1 0
-5.383204 12.683927 -18.689335 23.219649 -1.169424 2.506292 0.020969 -0.005374 659023.000000 0 1 0
-4.674804 13.330827 -17.455635 22.455822 -1.233519 2.461210 0.035929 0.003327 -255341.000000 0 1 0
-3.991104 14.505627 -17.685035 23.218583 -1.302298 2.436692 0.038792 -0.003585 -485380.000000 0 1 0
-3.600004 15.034827 -16.455435 22.578472 -1.335777 2.387380 0.040164 0.003798 -121429.000000 0 1 0
-2.768904 16.302327 -16.453835 23.327267 -1.402555 2.353710 0.048563 -0.002948 6951.910000 0 1 0
-3.451904 17.454327 -16.888135 24.531169 -1.375548 2.330127 0.040226 -0.004519 -13261.900000 0 1 0
-2.556104 18.554427 -16.814335 25.169868 -1.433896 2.302360 0.044835 -0.011176 305441.000000 0 0 1
-3.049304 19.847427 -17.481435 26.623658 -1.418351 2.287115 0.054212 -0.016516 293707.000000 0 0 1
-3.417304 19.569527 -18.854935 27.388920 -1.397916 2.330097 0.070165 -0.023580 219921.000000 0 0 1
-3.957604 20.680027 -19.642035 28.794716 -1.381709 2.321482 0.078852 -0.021956 290275.000000 0 0 1
-2.974604 21.876227 -19.893835 29.718382 -1.435651 2.304213 0.053556 -0.021795 601025.000000 0 0 1
-1.995604 21.676827 -20.928635 30.197268 -1.478993 2.336527 0.073781 -0.028803 865292.000000 0 0 1
-0.744404 22.336727 -20.880235 30.585417 -1.537482 2.322229 0.057008 -0.022304 749002.000000 0 0 1
0.298496 21.955927 -19.809235 29.572920 1.557202 2.304795 0.049671 -0.019727 -262773.000000 0 0 1
-0.087304 22.338527 -18.476335 28.989521 -1.566888 2.261845 0.038599 -0.014164 -189441.000000 0 0 1
0.952896 22.068627 -17.548135 28.211156 1.527644 2.242127 0.036425 -0.012020 -327294.000000 0 0 1
0.640396 22.133427 -16.031735 27.337067 1.541871 2.197461 0.036439 -0.012394 -456783.000000 0 0 1
-0.346004 21.219827 -15.543435 26.305876 -1.554492 2.202937 0.042217 -0.004407 271057.000000 0 0 1
-0.233504 21.156027 -14.120235 25.436451 -1.559760 2.159301 0.050081 -0.007319 95973.100000 0 0 1
-1.203004 20.153927 -13.479735 24.276145 -1.511176 2.159480 0.052059 -0.008066 144760.000000 0 1 0
-0.745504 18.786327 -13.661635 23.240527 -1.531134 2.199178 0.036938 -0.005407 241188.000000 0 1 0
-1.515004 17.902327 -12.881735 22.107185 -1.486371 2.192837 0.029717 -0.002917 132230.000000 0 1 0
-1.088204 16.414127 -13.061935 21.005282 -1.504596 2.241887 0.022089 0.006350 -811636.000000 0 1 0
-0.001704 15.994327 -12.314135 20.185550 -1.570690 2.226916 0.023565 0.001751 -454207.000000 0 1 0
0.196996 14.600027 -12.117735 18.974696 1.557304 2.263508 0.023342 -0.000442 -32368.700000 0 1 0
0.788496 13.787227 -13.269535 19.151760 1.513668 2.336248 0.013723 -0.005617 -150241.000000 0 1 0
-0.085204 13.673727 -14.366535 19.833693 -1.564565 2.380887 0.019340 -0.008272 -102322.000000 0 1 0
0.521296 12.790027 -15.234135 19.898126 1.530061 2.442780 0.018470 -0.010788 -188168.000000 0 1 0
-0.109204 12.718827 -16.644935 20.948373 -1.562211 2.489094 0.023625 -0.006442 46602.500000 0 1 0
-0.013704 13.926427 -17.445835 22.322695 -1.569812 2.467909 0.029115 -0.008876 -21600.000000 0 1 0
-0.363004 13.695427 -18.797635 23.260429 -1.544297 2.511780 0.045087 -0.014935 -249903.000000 0 1 0
-0.976904 14.926327 -19.414535 24.508646 -1.505441 2.485121 0.055574 -0.014212 -373649.000000 0 1 0
-0.056804 15.926427 -19.719535 25.347867 -1.567230 2.462203 0.048308 -0.016819 275371.000000 0 0 1
-0.768404 17.153427 -20.043035 26.392305 -1.526030 2.433229 0.075704 -0.021626 -444863.000000 0 0 1
0.224896 18.195827 -20.251335 27.226003 1.558437 2.409569 0.077939 -0.023963 -821478.000000 0 0 1
0.942896 18.001927 -21.418635 27.994934 1.518467 2.441977 0.094170 -0.037701 45043.200000 0 0 1
1.840696 19.052927 -21.787435 29.001629 1.474486 2.420748 0.098357 -0.038804 350038.000000 0 0 1
2.188296 18.938127 -23.293935 30.100643 1.455757 2.455723 0.108926 -0.040769 57173.200000 0 0 1
3.142996 17.952127 -23.587435 29.808126 1.397476 2.483743 0.082280 -0.035729 -309794.000000 0 0 1
3.547496 18.030227 -24.916735 30.959934 1.376525 2.506145 0.082775 -0.046422 -183226.000000 0 0 1
4.481596 16.885827 -25.295245 30.741914 1.311371 2.537162 0.060815 -0.031141 -335478.000000 0 0 1
5.688096 16.936827 -24.510135 30.330797 1.246790 2.511706 0.043656 -0.024816 522571.000000 0 0 1
6.588896 15.890927 -24.820935 30.199568 1.177740 2.535530 0.037593 -0.027845 400121.000000 0 0 1
7.250196 15.866027 -26.248725 31.516531 1.142167 2.555044 0.035628 -0.034442 -774801.000000 0 0 1
8.208996 16.892027 -26.521235 32.497755 1.118437 2.525417 0.017656 -0.030273 454340.000000 0 0 1
8.666796 17.100127 -27.862835 33.821077 1.101702 2.538932 0.033168 -0.039691 -42070.700000 0 0 1
9.442996 15.964627 -28.564535 34.058364 1.036654 2.565676 0.023893 -0.035804 -442641.000000 0 0 1
10.599196 15.634927 -27.831265 33.635892 0.975045 2.545308 0.032318 -0.026814 -524637.000000 0 0 1
11.095896 14.347827 -28.098465 33.444025 0.912518 2.568382 0.030186 -0.022489 -160400.000000 0 0 1
10.491096 13.249427 -27.186165 32.010904 0.901066 2.585413 0.027712 -0.023242 323014.000000 0 0 1
9.111996 13.050027 -27.494615 31.769254 0.961255 2.616839 0.039662 -0.030691 64016.200000 0 0 1
8.529196 12.276527 -26.477895 30.406237 0.963598 2.627633 0.046001 -0.024717 -923191.000000 0 0 1
7.132196 11.777927 -26.717505 30.056827 1.026301 2.665734 0.052741 -0.033892 -1001910.000000 0 0 1
6.209896 12.825527 -26.858835 30.404835 1.119883 2.653809 0.060429 -0.039705 -667715.000000 0 0 1
4.931796 12.297127 -26.609795 29.725799 1.189383 2.679620 0.080521 -0.041298 -826336.000000 0 0 1
3.768696 13.150127 -27.016925 30.282720 1.291687 2.672893 0.098837 -0.043086 -748736.000000 0 0 1
3.486796 13.081527 -28.409775 31.470612 1.310309 2.696893 0.105523 -0.049516 302288.000000 0 0 1
3.897496 14.296727 -29.072655 32.631367 1.304649 2.670212 0.103986 -0.057691 83273.800000 0 0 1
3.923596 14.147527 -30.582265 33.923768 1.300261 2.694019 0.130346 -0.056019 273698.000000 0 0 1
5.124596 13.511927 -31.003985 34.206443 1.208292 2.705428 0.120769 -0.051483 266838.000000 0 0 1
5.146696 13.252727 -32.354105 35.339940 1.200373 2.727573 0.111826 -0.047501 725806.000000 0 0 1
6.394696 12.322427 -32.718955 35.542430 1.092106 2.740309 0.104764 -0.043288 1890370.000000 0 0 1
7.729996 12.794127 -32.446105 35.723833 1.027307 2.709874 0.101891 -0.035583 1130260.000000 0 0 1
8.165996 12.847827 -31.072135 34.600979 1.004615 2.686029 0.081551 -0.031964 -449613.000000 0 0 1
8.253396 11.527027 -30.350725 33.498618 0.949410 2.704602 0.095571 -0.033215 -477480.000000 0 0 1
9.334296 10.679027 -30.622345 33.747573 0.852489 2.707838 0.064093 -0.027179 -263294.000000 0 0 1
9.135596 9.448427 -29.885285 32.647544 0.802230 2.727276 0.068316 -0.028186 -332713.000000 0 0 1
10.233696 8.449227 -30.190225 32.978291 0.690174 2.727440 0.044146 -0.025520 -229703.000000 0 0 1
11.455096 8.753027 -29.514445 32.847179 0.652475 2.687224 0.036964 -0.027744 -46737.800000 0 0 1
12.147096 7.525727 -29.548245 32.822055 0.554670 2.691153 0.013382 -0.019045 -928378.000000 0 0 1
13.472396 7.536627 -28.772815 32.652428 0.510041 2.649158 0.027249 -0.015499 -33528.900000 0 0 1
13.992396 6.202527 -28.526365 32.373013 0.417250 2.649143 0.038340 -0.013793 379989.000000 0 0 1
14.735496 5.677927 -29.642585 33.586553 0.367790 2.652103 0.027858 -0.011802 -538549.000000 0 0 1
15.656596 4.516527 -29.212235 33.449704 0.280850 2.632769 0.041532 -0.012206 5256.660000 0 0 1
16.621296 4.937427 -28.254975 33.151007 0.288752 2.591185 0.017512 -0.007472 252794.000000 0 0 1
17.460396 3.841727 -27.940765 33.170931 0.216574 2.572382 0.026113 -0.003006 -221270.000000 0 0 1
18.057696 4.109127 -26.522525 32.348256 0.223745 2.532043 0.012809 0.003382 -408402.000000 0 0 1
19.046196 5.085427 -26.504675 33.032060 0.260918 2.502090 0.037111 -0.007396 32129.000000 0 0 1
19.527896 5.474027 -25.216385 32.360003 0.273304 2.464257 0.040820 -0.004327 -511541.000000 0 0 1
20.603396 6.522027 -25.230455 33.220666 0.306571 2.433311 0.038008 -0.000052 -768317.000000 0 0 1
20.155696 7.809727 -25.626005 33.525156 0.369658 2.440878 0.050980 -0.002587 250239.000000 0 0 1
21.188696 8.533227 -26.252705 34.799157 0.382854 2.425546 0.066028 -0.010770 -355062.000000 0 0 1
21.415696 8.074927 -27.672635 35.911157 0.360572 2.450556 0.059653 -0.008431 276036.000000 0 0 1
20.404996 8.344427 -28.675595 36.170196 0.388190 2.486180 0.057489 -0.015009 824371.000000 0 0 1
19.400496 7.326027 -28.696665 35.405487 0.361066 2.515827 0.051101 -0.008299 1267370.000000 0 0 1
17.943796 7.753827 -29.167875 35.112200 0.407884 2.551169 0.045772 -0.006365 972240.000000 0 0 1
17.738096 7.793327 -30.583085 36.203606 0.413967 2.576899 0.042085 -0.013740 460083.000000 0 0 1
16.713496 8.725227 -30.913285 36.209139 0.481129 2.593928 0.013623 -0.012029 -189132.000000 0 0 1
16.330096 8.657627 -32.391075 37.293542 0.487486 2.623053 0.005892 -0.005713 173572.000000 0 0 1
15.578396 7.462227 -32.698765 36.980812 0.446716 2.655594 0.016095 -0.004372 -468601.000000 0 0 1
14.285596 7.782527 -33.072445 36.856921 0.498828 2.684456 0.005469 -0.006727 -717496.000000 0 0 1
13.397796 6.576427 -33.503275 36.677238 0.456308 2.722509 0.002855 -0.007135 296403.000000 0 0 1
12.952296 5.818527 -32.381215 35.357606 0.422211 2.728342 0.026265 -0.011456 357241.000000 0 0 1
11.957996 4.845627 -32.711555 35.164181 0.384999 2.765896 0.021148 -0.012769 337380.000000 0 0 1
11.733096 3.739027 -31.696445 34.004566 0.308499 2.771029 0.031725 -0.014237 -170015.000000 0 0 1
12.770496 2.771827 -31.582845 34.179595 0.213734 2.749277 0.041313 -0.024447 227202.000000 0 0 1
12.570096 1.790227 -30.610015 33.138878 0.141468 2.748396 0.031662 -0.020321 -317076.000000 0 0 1
11.969396 0.423127 -31.079635 33.307495 0.035336 2.773770 0.032033 -0.014398 -140286.000000 0 0 1
12.770496 -0.583273 -31.690055 34.171412 -0.045642 2.758158 0.035016 -0.011883 -198648.000000 0 0 1
13.429096 -1.341673 -30.694325 33.530319 -0.099577 2.727347 0.028892 -0.018167 282678.000000 0 0 1
14.081296 -2.545373 -31.428195 34.532496 -0.178832 2.714334 0.044977 -0.021029 40085.500000 0 0 1
13.077396 -3.483073 -31.717855 34.484379 -0.260300 2.738302 0.043478 -0.021349 134561.000000 0 0 1
13.546096 -4.553473 -32.508855 35.511357 -0.324280 2.727420 0.066865 -0.028305 -164728.000000 0 0 1
12.642896 -5.798073 -32.500845 35.352021 -0.429985 2.737219 0.055331 -0.021374 -279920.000000 0 0 1
12.715596 -6.558073 -31.290995 34.406701 -0.476168 2.712743 0.064654 -0.023804 276200.000000 0 0 1
12.051196 -7.798473 -31.376605 34.504186 -0.574342 2.712531 0.089046 -0.025034 -185659.000000 0 0 1
12.223496 -8.455673 -29.971935 33.454882 -0.605171 2.681229 0.076738 -0.021232 -857907.000000 0 0 1
13.541196 -8.765773 -29.683035 33.782915 -0.574504 2.643804 0.068702 -0.018653 -593318.000000 0 0 1
13.733896 -9.308073 -28.321735 32.823480 -0.595633 2.611677 0.076681 -0.015794 -101059.000000 0 0 1
13.691796 -10.833273 -28.258835 33.217267 -0.669367 2.588164 0.071169 -0.014301 1123030.000000 0 0 1
12.364496 -11.315773 -28.619085 33.165939 -0.741140 2.611788 0.052128 -0.015056 1279720.000000 0 0 1
12.328196 -12.743673 -28.787895 33.810184 -0.801968 2.589552 0.047100 -0.019562 77811.200000 0 0 1
-10.145704 -2.910373 -17.729135 20.633172 0.279356 2.604606 0.024970 -0.002680 1230.780000 0 1 0
-10.745404 -2.693373 -18.981635 21.977726 0.245594 2.613314 0.021647 -0.003808 -868198.000000 0 1 0
-11.871504 -3.484973 -18.996535 22.670377 0.285536 2.564304 0.027181 -0.015172 -950779.000000 0 1 0
-12.776104 -3.279373 -20.239435 24.158184 0.251256 2.564015 0.029981 -0.020724 -605679.000000 0 1 0
-13.527404 -2.116473 -20.209435 24.410886 0.155200 2.546125 0.020857 -0.012011 -396579.000000 0 1 0
-14.220204 -1.927673 -21.435635 25.795669 0.134737 2.551660 0.022121 -0.015140 276327.000000 0 0 1
-15.217104 -0.776173 -21.415435 26.282761 0.050962 2.523196 0.020567 -0.015328 67584.200000 0 0 1
-14.459004 0.423827 -21.390035 25.822006 -0.029304 2.546978 0.029045 -0.020047 319127.000000 0 0 1
-15.235104 1.525127 -20.911635 25.917771 -0.099774 2.509589 0.026441 -0.019261 -56622.900000 0 0 1
-14.834104 2.905227 -21.570035 26.339275 -0.193400 2.530341 0.045994 -0.020039 370132.000000 0 0 1
-13.583504 3.380927 -21.081235 25.305349 -0.243943 2.555439 0.050384 -0.019880 281449.000000 0 0 1
-13.332204 4.653327 -21.652235 25.849959 -0.335810 2.563693 0.054680 -0.021817 -333252.000000 0 0 1
-12.089204 5.388327 -21.145735 24.946443 -0.419284 2.582328 0.034906 -0.016169 -315543.000000 0 1 0
-12.199304 5.870527 -19.797935 23.984252 -0.448510 2.541805 0.038248 -0.021261 -37468.700000 0 1 0
-10.993504 6.432927 -19.365835 23.179198 -0.529434 2.559808 0.022602 -0.009626 -591430.000000 0 1 0
-10.988604 7.054127 -17.912135 22.166522 -0.570695 2.511667 0.019788 -0.009620 -286839.000000 0 1 0
-11.585604 8.321227 -17.853635 22.852162 -0.622862 2.467489 0.016673 -0.013065 -154635.000000 0 1 0
-12.895404 8.218927 -17.339035 23.118917 -0.567433 2.418848 0.048163 -0.004710 -192708.000000 0 1 0
-13.577004 9.643127 -17.445835 24.118086 -0.617575 2.379439 0.050596 -0.002566 -354145.000000 0 1 0
-13.034904 10.543027 -16.533535 23.546165 -0.680102 2.349244 0.039133 0.001899 41454.900000 0 1 0
-13.512504 11.824927 -16.748735 24.554771 -0.718892 2.321423 0.034854 -0.001312 -559077.000000 0 1 0
-12.887504 12.913627 -15.939735 24.226528 -0.786411 2.288884 0.033193 -0.003837 -603797.000000 0 1 0
-13.057704 12.802427 -14.518135 23.349133 -0.775527 2.241816 0.049001 -0.003939 134578.000000 0 1 0
-12.586804 13.958527 -13.863435 23.355148 -0.837027 2.206312 0.042726 -0.012751 -661670.000000 0 1 0
-12.965404 14.175727 -12.389435 22.859375 -0.829962 2.143593 0.037812 -0.012850 2067810.000000 0 1 0
-14.338704 14.638027 -12.138035 23.816006 -0.795728 2.105584 0.036973 -0.011760 2042690.000000 0 1 0
-15.435304 13.785227 -12.372635 24.111474 -0.728988 2.109639 0.037347 -0.006075 -807961.000000 0 1 0
-16.775204 14.213227 -11.798735 24.952624 -0.702910 2.063314 0.020282 0.003018 -354317.000000 0 1 0
-17.803504 13.437327 -12.383235 25.512174 -0.646539 2.077600 0.017968 0.003284 -148100.000000 0 0 1
-19.068704 13.994927 -12.128235 26.581338 -0.633131 2.044594 0.042865 -0.002528 -264789.000000 0 0 1
-20.223804 13.291127 -12.848535 27.399656 -0.581422 2.058876 0.032696 -0.007134 -239909.000000 0 0 1
-20.518904 11.966527 -12.402735 26.796474 -0.527971 2.052003 0.047314 -0.007227 71501.200000 0 0 1
-21.602004 11.398827 -13.089635 27.711340 -0.485541 2.062759 0.060294 -0.007148 -366597.000000 0 0 1
-22.164504 10.172827 -12.352835 27.337596 -0.430288 2.039648 0.058448 -0.008358 -282592.000000 0 0 1
-21.312504 9.050727 -12.413835 26.272453 -0.401589 2.062926 0.068421 -0.014148 289725.000000 0 0 1
-21.667904 7.962027 -11.549235 25.812337 -0.352141 2.034687 0.059310 -0.008603 -172108.000000 0 0 1
-20.639004 6.820227 -11.634635 24.654588 -0.319156 2.062247 0.063664 -0.006975 -49832.600000 0 1 0
-20.698604 6.024527 -12.755335 25.048467 -0.283235 2.105082 0.081839 -0.007126 278631.000000 0 0 1
-19.643004 5.111827 -12.589235 23.884455 -0.254590 2.125968 0.084322 -0.012452 -109592.000000 0 1 0
-19.637404 3.978027 -13.658735 24.248987 -0.199869 2.169135 0.088531 -0.027231 -771490.000000 0 1 0
-20.616604 3.058727 -13.395935 24.776021 -0.147288 2.142043 0.077718 -0.026810 -641716.000000 0 1 0
-20.379604 1.927927 -14.166935 24.894722 -0.094320 2.176175 0.060405 -0.033795 -296792.000000 0 1 0
-21.250204 0.661127 -14.054435 25.485984 -0.031102 2.154907 0.074308 -0.026139 89713.300000 0 0 1
-22.543004 0.813127 -14.624035 26.883277 -0.036054 2.145972 0.059343 -0.024652 242615.000000 0 0 1
-23.123804 -0.425573 -14.756435 27.434354 0.018402 2.138719 0.056899 -0.035556 -116102.000000 0 0 1
-24.514304 -0.479873 -15.454635 28.983221 0.019573 2.133207 0.067863 -0.033883 41404.400000 0 0 1
-25.547074 0.083827 -14.690835 29.469995 -0.003281 2.092666 0.091537 -0.041213 -171924.000000 0 0 1
-26.769074 -0.353573 -15.244435 30.807485 0.013208 2.088434 0.091715 -0.032902 406921.000000 0 0 1
-28.064454 0.117027 -14.488235 31.583797 -0.004170 2.047355 0.096824 -0.030583 58888.400000 0 0 1
-28.188484 -0.571273 -13.298335 31.173108 0.020263 2.011523 0.101196 -0.034092 1264420.000000 0 0 1
-29.464284 -0.220273 -12.688035 32.080816 0.007476 1.977411 0.112207 -0.034509 1244430.000000 0 0 1
-29.491104 -0.805073 -11.225035 31.565404 0.027292 1.934365 0.114521 -0.040572 -339856.000000 0 0 1
-29.577074 -2.178473 -10.946935 31.613042 0.073521 1.924398 0.117195 -0.035680 298091.000000 0 0 1
-28.692554 -3.065273 -11.590535 31.096608 0.106428 1.952742 0.119680 -0.037466 -331003.000000 0 0 1
-28.902974 -4.494873 -11.110435 31.289416 0.154280 1.933802 0.114779 -0.033487 247688.000000 0 0 1
-30.143584 -5.072673 -11.536935 32.672137 0.166722 1.931692 0.112432 -0.031345 738655.000000 0 0 1
-30.422444 -6.365373 -11.018835 32.976625 0.206257 1.911490 0.108638 -0.028292 118091.000000 0 0 1
-29.604264 -7.540873 -11.651535 32.696108 0.249418 1.935164 0.093903 -0.030403 -320505.000000 0 0 1
-28.241844 -7.542873 -11.369235 31.364888 0.260990 1.941727 0.076422 -0.029933 -436944.000000 0 0 1
-27.520234 -8.588773 -12.041135 31.242907 0.302511 1.966442 0.069314 -0.032087 -557856.000000 0 0 1
-26.035534 -8.540973 -11.711535 29.798612 0.316989 1.974713 0.067076 -0.039170 -1502350.000000 0 0 1
-25.527894 -7.310973 -12.184935 29.216371 0.278926 2.001003 0.051827 -0.031264 102981.000000 0 0 1
-24.165004 -7.101873 -11.898035 27.855830 0.285843 2.012112 0.058364 -0.042641 -353868.000000 0 0 1
-23.759604 -6.972573 -10.408535 26.860252 0.285449 1.968722 0.059589 -0.040112 -844504.000000 0 0 1
-24.199804 -5.778173 -9.742835 26.719667 0.234381 1.944033 0.061319 -0.029353 769059.000000 0 0 1
-25.568544 -5.627873 -9.404635 27.818529 0.216655 1.915663 0.078883 -0.032842 -148042.000000 0 0 1
-25.899104 -4.220573 -8.737235 27.657116 0.161542 1.892215 0.084536 -0.034956 -277487.000000 0 0 1
-25.748734 -4.271473 -7.341735 27.113536 0.164394 1.844997 0.079355 -0.034197 441043.000000 0 0 1
-25.942704 -3.015673 -6.779935 26.983063 0.115724 1.824785 0.091045 -0.032299 -62638.700000 0 0 1
-25.726394 -2.920573 -5.250135 26.418573 0.113040 1.770857 0.091133 -0.027719 176212.000000 0 0 1
-24.353904 -2.998473 -4.900935 25.022443 0.122504 1.767932 0.062612 -0.026535 391379.000000 0 0 1
-24.181404 -2.694073 -3.552935 24.589056 0.110953 1.715796 0.050516 -0.019433 -847607.000000 0 1 0
-22.842304 -3.131073 -3.024035 23.253371 0.136224 1.701213 0.037006 -0.013212 -918782.000000 0 1 0
-22.687704 -4.498673 -2.850135 23.304361 0.195748 1.693404 0.048075 -0.013489 1385310.000000 0 1 0
-21.291504 -4.872573 -2.805635 22.021392 0.224976 1.698549 0.027268 -0.012545 999370.000000 0 1 0
-21.236704 -6.373073 -2.850135 22.354796 0.291546 1.698640 0.036858 -0.010501 -92657.000000 0 1 0
-21.817804 -6.980673 -1.723135 22.972060 0.309660 1.645877 0.047182 -0.011710 521836.000000 0 1 0
-22.382804 -8.233173 -2.045035 23.936525 0.352474 1.656336 0.049575 -0.012423 45305.100000 0 1 0
-22.817104 -9.076973 -0.782635 24.568764 0.378621 1.602657 0.059313 -0.015865 -355619.000000 0 1 0
-21.739904 -9.699273 -0.145435 23.805891 0.419648 1.576906 0.039314 -0.004308 -33081.200000 0 1 0
-22.009704 -10.403373 1.033565 24.366483 0.441547 1.528366 0.019796 -0.001422 263073.000000 0 1 0
-20.659504 -10.903273 1.663365 23.419292 0.485609 1.499711 0.029559 -0.003882 261957.000000 0 1 0
-20.198004 -11.910173 0.802165 23.461778 0.532790 1.536599 0.039621 0.005816 164698.000000 0 1 0
-19.089904 -12.456373 1.504265 22.844003 0.578138 1.504899 0.023521 -0.002156 -465193.000000 0 1 0
-18.419204 -13.557373 0.779165 22.883980 0.634510 1.536741 0.027566 -0.001933 -597250.000000 0 1 0
-19.177404 -14.768673 0.723265 24.215896 0.656247 1.540925 0.036551 0.000920 351076.000000 0 1 0
-18.620504 -15.910073 0.056365 24.491973 0.707065 1.568495 0.034396 -0.005975 474504.000000 0 1 0
-17.473004 -16.707773 0.799565 24.188734 0.763014 1.537735 0.034999 -0.003566 323093.000000 0 1 0
-16.270304 -15.978273 0.870965 22.820749 0.776343 1.532622 0.036923 -0.009100 819847.000000 0 1 0
-15.156804 -16.746673 1.426765 22.632177 0.835191 1.507713 0.041706 -0.009584 1073690.000000 0 1 0
-15.031904 -16.568773 2.974965 22.568403 0.833994 1.438592 0.041820 -0.016228 -186411.000000 0 1 0
-14.729104 -15.232573 3.371265 21.455610 0.802200 1.413015 0.021918 -0.016286 33286.100000 0 1 0
-13.988904 -15.073073 4.574165 21.066797 0.822686 1.351926 0.005493 -0.015030 62829.700000 0 1 0
-14.602704 -15.508273 5.978065 22.124257 0.815464 1.297191 0.048294 -0.017108 -34647.400000 0 1 0
-15.601004 -14.647273 6.555065 22.380858 0.753879 1.273551 0.047780 -0.016782 447085.000000 0 1 0
-15.846004 -14.918473 7.951765 23.170827 0.755258 1.220496 0.054501 -0.019820 -189383.000000 0 1 0
-16.738404 -16.107273 8.359465 24.688035 0.766186 1.225364 0.040163 -0.008001 -358856.000000 0 1 0
-16.272604 -17.386073 7.956965 25.107498 0.818467 1.248320 0.040253 -0.004082 -173382.000000 0 0 1
-17.007404 -18.452973 8.508865 26.498392 0.826141 1.243896 0.045533 -0.005295 -63883.200000 0 0 1
-16.744604 -18.792673 10.014765 27.089515 0.842966 1.192119 0.042914 -0.014542 74721.000000 0 0 1
-15.439504 -19.280873 10.243865 26.740739 0.895587 1.177667 0.043685 -0.013298 -13372.500000 0 0 1
-15.190904 -19.425373 11.613365 27.257640 0.907119 1.130664 0.046554 -0.015425 -737376.000000 0 0 1
-13.898204 -20.135673 11.874965 27.195959 0.966659 1.118931 0.045686 -0.015720 -630182.000000 0 0 1
-12.695604 -19.419873 11.929365 26.088687 0.991794 1.095882 0.039847 -0.020432 -237384.000000 0 0 1
-11.551604 -20.180873 12.271065 26.292323 1.050916 1.085222 0.030674 -0.020749 727266.000000 0 0 1
-10.359504 -19.248873 12.611465 25.236630 1.077067 1.047511 0.035119 -0.020919 381112.000000 0 0 1
-9.696504 -18.567173 11.544065 23.917097 1.089516 1.067096 0.027927 -0.019172 659632.000000 0 1 0
-8.575904 -17.856973 12.146965 23.237177 1.123069 1.020736 0.023510 -0.013833 737768.000000 0 1 0
-7.710004 -17.026773 11.191165 21.785255 1.145603 1.031300 0.010160 -0.015088 101322.000000 0 1 0
-6.800404 -17.871773 10.510865 21.820267 1.207203 1.068201 0.010493 -0.009804 -386067.000000 0 1 0
-6.163104 -17.233973 9.464165 20.604953 1.227355 1.093572 0.012587 -0.005664 -450589.000000 0 1 0
-5.104104 -18.013473 8.694565 20.642978 1.294685 1.136042 0.010202 -0.006181 180420.000000 0 1 0
-3.882904 -18.237373 9.375965 20.870732 1.361019 1.104882 0.024468 0.000081 -402257.000000 0 1 0
-2.908404 -18.804873 8.580365 20.873541 1.417350 1.147175 0.029611 -0.004834 -132658.000000 0 1 0
-1.562104 -19.076473 9.291165 21.276225 1.489092 1.118878 0.023985 -0.007360 385573.000000 0 1 0
-0.574604 -19.560573 8.393365 21.293069 1.541429 1.165618 0.032487 -0.004016 -277527.000000 0 1 0
0.634096 -19.822273 9.046665 21.798320 -1.538818 1.142835 0.038807 -0.007665 -224622.000000 0 1 0
1.807496 -20.246373 8.132365 21.893333 -1.481757 1.190222 0.049287 -0.022109 158974.000000 0 1 0
1.836496 -21.643173 7.800865 23.079280 -1.486146 1.226002 0.042779 -0.013704 -8278.310000 0 1 0
2.220496 -22.503673 8.909665 24.304898 -1.472442 1.195467 0.054220 -0.017828 -174447.000000 0 1 0
2.152396 -23.982273 8.400865 25.502094 -1.481287 1.235109 0.061858 -0.015334 15311.300000 0 0 1
2.236596 -24.943773 9.421965 26.757571 -1.481370 1.210958 0.061355 -0.014714 -148643.000000 0 0 1
1.871696 -26.162963 8.817665 27.672281 -1.499378 1.246496 0.065641 -0.019809 -1320740.000000 0 0 1
1.904596 -27.402513 9.759265 29.150789 -1.501403 1.229419 0.071463 -0.020729 -45689.500000 0 0 1
1.082196 -27.304603 10.905665 29.421863 -1.531183 1.191071 0.070951 -0.023746 -526009.000000 0 0 1
-0.262604 -27.547713 10.595365 29.516220 1.561264 1.203635 0.047548 -0.014207 -343298.000000 0 0 1
-1.122304 -27.653773 11.912465 30.131339 1.530234 1.164346 0.045793 -0.015814 346131.000000 0 0 1
-0.680404 -28.744103 12.718065 31.439396 1.547130 1.154335 0.044266 -0.014861 -60794.100000 0 0 1
-1.379904 -28.817293 13.948465 32.045284 1.522948 1.120454 0.038076 -0.017321 -455093.000000 0 0 1
-0.751704 -29.779573 14.923865 33.318310 1.545559 1.106361 0.027569 0.001491 -240708.000000 0 0 1
-1.160104 -29.653403 16.278565 33.847627 1.531694 1.069074 0.027736 -0.001180 -54850.100000 0 0 1
-0.698704 -30.690303 17.149165 35.163572 1.548034 1.061347 0.012328 0.003716 -117989.000000 0 0 1
-1.003804 -30.437173 18.630165 35.700311 1.537829 1.021779 0.004824 0.002424 -467352.000000 0 0 1
-2.357504 -30.599173 18.908465 36.047154 1.493904 1.018612 0.006281 0.002781 -626340.000000 0 0 1
-2.530804 -30.323883 20.297165 36.577558 1.487530 0.982544 0.015479 -0.005792 631.612000 0 0 1
-4.002204 -30.216153 20.764165 36.880674 1.439110 0.972774 0.039116 -0.012637 -20857.900000 0 0 1
-4.679704 -29.135363 20.085765 35.696036 1.411537 0.973161 0.035972 -0.014102 206546.000000 0 0 1
-5.953204 -28.858513 20.626765 35.968290 1.367361 0.960060 0.036433 -0.017423 100870.000000 0 0 1
-5.844104 -27.892203 21.852065 35.911576 1.364259 0.916632 0.044093 -0.022254 -435560.000000 0 0 1
-5.312804 -28.423993 23.064365 36.988028 1.386016 0.897504 0.040166 -0.021208 55940.000000 0 0 1
-5.216604 -27.487983 24.101965 36.928402 1.383249 0.859697 0.041442 -0.023688 -303252.000000 0 0 1
-4.029404 -27.746233 25.039165 37.590549 1.426581 0.841825 0.048884 -0.023161 -79386.600000 0 0 1
-4.253304 -28.856333 25.881565 38.995307 1.424454 0.845029 0.056941 -0.022849 127636.000000 0 0 1
-3.692504 -30.064993 25.358065 39.504049 1.448591 0.873809 0.050875 -0.020874 -16840.100000 0 0 1
-4.043004 -31.285743 26.174965 40.991126 1.442280 0.878181 0.056974 -0.014957 28470.400000 0 0 1
-3.516004 -31.190413 27.489665 41.723924 1.458543 0.851512 0.062625 -0.027690 184985.000000 0 0 1
-4.011104 -32.180583 28.407165 43.112016 1.446792 0.851421 0.063662 -0.022662 -237670.000000 0 0 1
-3.466804 -32.021633 29.842365 43.908661 1.462952 0.823516 0.075306 -0.028066 -217990.000000 0 0 1
-2.084504 -32.285153 29.858065 44.024769 1.506320 0.825471 0.064861 -0.026009 -172792.000000 0 0 1
-1.528604 -32.327283 31.128665 44.904161 1.523546 0.804843 0.073394 -0.038471 -38804.900000 0 0 1
-28.319524 3.081427 -10.312535 30.295858 -0.108383 1.918132 0.099343 -0.033515 -175255.000000 0 0 1
-29.293434 2.791027 -11.261635 31.507452 -0.094991 1.936308 0.084621 -0.042950 -351941.000000 0 0 1
-29.845744 3.887527 -11.909135 32.368330 -0.129525 1.947573 0.071908 -0.039946 -318412.000000 0 0 1
-30.732414 3.588827 -13.117635 33.607042 -0.116250 1.971780 0.078025 -0.038532 -276165.000000 0 0 1
-31.835604 2.817727 -12.701535 34.391485 -0.088279 1.949076 0.095805 -0.044136 229116.000000 0 0 1
-32.734634 2.592327 -13.791035 35.615573 -0.079027 1.968410 0.092014 -0.036503 -253811.000000 0 0 1
-33.876244 1.636327 -13.447635 36.484467 -0.048266 1.948283 0.086379 -0.038340 -410619.000000 0 0 1
-33.575524 0.306227 -13.206535 36.080772 -0.009120 1.945532 0.118233 -0.038441 -465216.000000 0 0 1
-34.714695 -0.426773 -12.899935 37.036475 0.012293 1.926557 0.103867 -0.037269 -345709.000000 0 0 1
-34.365491 -1.847573 -12.470435 36.604812 0.053711 1.918434 0.124720 -0.035247 -12140.300000 0 0 1
-33.819874 -2.685873 -13.473035 36.503705 0.079251 1.948823 0.116686 -0.029281 284704.000000 0 0 1
-33.528504 -3.998073 -12.933835 36.158391 0.118684 1.936599 0.128394 -0.027858 138424.000000 0 0 1
-33.329794 -5.062873 -14.063635 36.527985 0.150750 1.966015 0.125639 -0.026891 122987.000000 0 0 1
-33.350274 -6.362673 -13.552535 36.556745 0.188518 1.950587 0.106626 -0.031030 212491.000000 0 0 1
-33.630574 -7.446973 -14.424835 37.343658 0.217918 1.967384 0.102174 -0.018652 -551994.000000 0 0 1
-33.363074 -8.766673 -13.683535 37.110489 0.256957 1.948432 0.083264 -0.021714 386969.000000 0 0 1
-32.033424 -9.146573 -13.343835 35.886738 0.278131 1.951778 0.085050 -0.027172 856531.000000 0 0 1
-31.175504 -9.476473 -14.439535 35.640086 0.295097 1.987938 0.077537 -0.025509 -48846.600000 0 0 1
-30.018274 -10.445473 -14.150135 34.791249 0.334866 1.989652 0.056574 -0.023462 -341655.000000 0 0 1
-30.482044 -11.742973 -14.070935 35.567452 0.367720 1.977531 0.043449 -0.017526 -130902.000000 0 0 1
-29.529624 -12.679873 -13.675935 34.925765 0.405587 1.973135 0.033739 -0.014129 -485865.000000 0 0 1
-29.950224 -14.084573 -14.194835 36.012282 0.439579 1.975957 0.038770 -0.015761 -107208.000000 0 0 1
-29.844674 -14.249873 -15.591735 36.563173 0.445460 2.011342 0.029451 -0.012797 -54583.700000 0 0 1
-30.010734 -15.637173 -15.973935 37.421009 0.480348 2.011826 0.033721 -0.009286 -729293.000000 0 0 1
-28.945974 -16.701673 -15.659935 36.905946 0.523332 2.009007 0.004764 -0.007552 -702137.000000 0 0 1
-27.774084 -16.255373 -16.309535 36.078218 0.529519 2.039870 0.002375 -0.013469 -763071.000000 0 0 1
-26.996704 -17.429573 -16.487635 36.117228 0.573289 2.044857 0.004769 -0.016085 975231.000000 0 0 1
-25.556674 -17.050673 -17.048235 35.135614 0.588352 2.077402 0.007534 -0.025134 1072230.000000 0 0 1
-25.646674 -16.454073 -18.292535 35.540192 0.570424 2.111454 0.007320 -0.021043 -598433.000000 0 0 1
-24.407004 -16.020373 -18.780635 34.714067 0.580850 2.142433 0.026227 -0.010225 -593336.000000 0 0 1
-24.532204 -15.307773 -20.171835 35.257054 0.557870 2.179904 0.029195 -0.014764 -70259.100000 0 0 1
-24.944004 -16.123973 -21.243535 36.516758 0.573845 2.191672 0.023514 -0.016235 769289.000000 0 0 1
-26.371494 -16.130573 -21.352535 37.571024 0.548954 2.175264 0.033228 -0.024274 240068.000000 0 0 1
-26.909854 -17.367873 -22.100035 38.912656 0.573141 2.174797 0.029120 -0.019036 -203151.000000 0 0 1
-26.462144 -17.497273 -23.435335 39.441280 0.584222 2.207046 0.030574 -0.005738 -56266.100000 0 0 1
-26.872124 -18.727273 -23.924835 40.561306 0.608645 2.201662 0.023419 -0.000971 -530428.000000 0 0 1
-26.219814 -19.173373 -25.270355 41.154437 0.631396 2.231962 0.030837 -0.008397 217468.000000 0 0 1
-24.841204 -19.461573 -25.312365 40.454345 0.664561 2.246827 0.037866 -0.012189 -123444.000000 0 0 1
-24.513304 -20.730273 -24.752535 40.538060 0.701977 2.227614 0.031923 -0.005049 277193.000000 0 0 1
-22.965104 -20.921673 -24.827535 39.768315 0.738870 2.245037 0.042379 0.000473 480734.000000 0 0 1
-22.542404 -21.117773 -26.161265 40.478786 0.752780 2.273516 0.046282 -0.005348 -290148.000000 0 0 1
-21.158004 -21.378273 -26.158515 39.861756 0.790577 2.286609 0.044122 0.001560 -17036.800000 0 0 1
-20.599304 -21.470073 -27.639975 40.611126 0.806094 2.319379 0.051622 -0.002546 -48325.000000 0 0 1
-21.056404 -22.560173 -28.418285 41.951549 0.819862 2.315029 0.086035 -0.004003 -202653.000000 0 0 1
-21.254604 -22.034573 -29.746385 42.686391 0.803414 2.341805 0.066882 -0.016438 -289801.000000 0 0 1
-20.078504 -22.232673 -30.711405 42.902546 0.836267 2.368624 0.074011 -0.022351 21707.000000 0 0 1
-19.693704 -23.573873 -31.011715 43.649696 0.874837 2.360959 0.077352 -0.025193 -183260.000000 0 0 1
-18.950704 -23.588473 -32.188865 44.177690 0.893993 2.387105 0.073136 -0.022968 -172051.000000 0 0 1
-18.568904 -24.963573 -32.786855 45.199138 0.931249 2.382392 0.075664 -0.018920 164110.000000 0 0 1
-17.919904 -25.029573 -34.052985 45.904338 0.949446 2.406584 0.064669 -0.020147 -452301.000000 0 0 1
-18.796804 -24.782473 33.379326 45.625324 0.921895 0.750136 0.077965 -0.022512 -678110.000000 0 0 1
-18.299404 -24.654673 31.914385 44.285992 0.932287 0.766067 0.069822 -0.021536 -449952.000000 0 0 1
-17.474004 -23.546473 31.681695 43.168357 0.932366 0.746736 0.062234 -0.018610 -23027.600000 0 0 1
-16.961404 -23.503673 30.328535 41.951542 0.945688 0.762745 0.059453 -0.021776 392536.000000 0 0 1
-16.076604 -22.289573 29.936215 40.638150 0.945943 0.742689 0.041987 -0.018839 219598.000000 0 0 1
-16.788104 -21.060473 30.046545 40.350698 0.897803 0.730808 0.038271 -0.014710 -77541.600000 0 0 1
-16.016204 -19.932273 29.750765 39.229100 0.893906 0.709964 0.041527 -0.014339 -136001.000000 0 0 1
-15.465704 -19.242073 31.052055 39.669579 0.893777 0.671696 0.048331 -0.020221 94931.200000 0 0 1
-15.150704 -17.908773 30.858015 38.761902 0.868633 0.649988 0.049565 -0.017957 -98408.200000 0 0 1
-14.687004 -17.173073 31.998555 39.173078 0.863271 0.614866 0.044224 -0.015113 9103.330000 0 0 1
-14.063104 -15.812473 31.741125 38.148450 0.843887 0.588017 0.047467 -0.021613 -546575.000000 0 0 1
-12.747804 -15.757273 31.283485 37.275389 0.890585 0.574888 0.060576 -0.026096 -568678.000000 0 0 1
-12.394204 -14.527773 30.682485 36.139831 0.864483 0.556719 0.051228 -0.029424 637495.000000 0 0 1
-10.849204 -14.450773 30.459965 35.416656 0.926803 0.535436 0.061253 -0.029918 683083.000000 0 0 1
-10.465604 -13.179673 29.962405 34.365366 0.899681 0.511772 0.073648 -0.029559 -149207.000000 0 0 1
-9.116904 -12.880273 30.269525 34.135956 0.954842 0.480564 0.064309 -0.029023 4159.720000 0 0 1
-8.757504 -11.362373 30.260655 33.488873 0.914149 0.442689 0.055516 -0.027150 -462124.000000 0 0 1
-9.465104 -10.563073 31.171545 34.246634 0.840165 0.427011 0.056257 -0.022787 57821.300000 0 0 1
-8.992304 -9.212473 31.216575 33.766933 0.797492 0.391149 0.034029 -0.014227 -323716.000000 0 0 1
-9.763304 -8.322973 32.208395 34.669507 0.705929 0.379062 0.018366 -0.011883 235261.000000 0 0 1
-11.117304 -8.041873 31.855595 34.684941 0.626236 0.406710 0.025458 -0.014474 512312.000000 0 0 1
-11.895704 -7.479673 32.888534 35.764633 0.561306 0.403780 0.028733 -0.011692 68257.300000 0 0 1
-11.576704 -6.010273 33.222595 35.691515 0.478865 0.374129 0.005953 -0.008213 -457835.000000 0 0 1
-11.836704 -5.126573 32.139905 34.631818 0.408718 0.381666 0.023180 -0.012292 216957.000000 0 0 1
-11.946204 -3.776873 32.526646 34.856266 0.306213 0.367677 0.019969 -0.009494 -479009.000000 0 0 1
-11.514704 -2.719373 31.516055 33.663706 0.231916 0.359131 0.026023 -0.005952 -540086.000000 0 0 1
-10.132404 -2.536173 31.594935 33.276684 0.245264 0.319280 0.028035 -0.010488 -456919.000000 0 0 1
-9.766704 -1.477373 30.717285 32.266434 0.150128 0.311128 0.022863 -0.007351 -297275.000000 0 0 1
-8.271404 -1.104473 30.761195 31.872984 0.132744 0.264902 0.014382 -0.004846 -20289.300000 0 0 1
-7.968804 -0.611873 32.084195 33.064661 0.076633 0.244134 0.025809 -0.015862 -131907.000000 0 0 1
-6.731904 0.055727 32.166975 32.863900 -0.008278 0.206309 0.031114 -0.014310 -143419.000000 0 0 1
-6.427704 0.803627 33.496615 34.117216 -0.124380 0.191027 0.059242 -0.024970 -451723.000000 0 0 1
-7.153604 1.968127 33.682686 34.490157 -0.268481 0.216811 0.055447 -0.029955 -202529.000000 0 0 1
-6.527004 3.072227 33.096948 33.874007 -0.439930 0.214606 0.063086 -0.024506 5476.080000 0 0 1
-7.434404 4.342027 33.290654 34.385916 -0.528605 0.253071 0.060931 -0.026885 1612700.000000 0 0 1
-8.709004 4.112227 32.610868 34.003321 -0.441146 0.287169 0.035835 -0.012408 1236570.000000 0 0 1
-9.625904 5.100927 33.061207 34.809781 -0.487294 0.318303 0.019742 -0.007764 258543.000000 0 0 1
-10.803604 5.448627 32.117725 34.321329 -0.467109 0.360289 0.009202 0.001006 403641.000000 0 0 1
-11.717404 6.405527 32.659505 35.284155 -0.500281 0.388142 0.015590 -0.003561 825523.000000 0 0 1
-12.865504 6.461227 31.772835 34.882398 -0.465417 0.425443 -0.000627 0.003915 937154.000000 0 0 1
-13.708104 7.744027 32.095575 35.749238 -0.514228 0.456054 0.005948 -0.004176 285614.000000 0 0 1
-14.488804 7.740127 33.281374 37.114483 -0.490643 0.458490 0.007510 -0.007089 -50468.200000 0 0 1
-15.289404 8.860127 33.415129 37.799981 -0.525206 0.486449 0.015236 -0.006232 -254642.000000 0 0 1
-15.832504 9.018127 -33.655485 38.271222 -0.517763 2.645384 0.020506 0.000267 -19079.700000 0 0 1
-14.887004 9.451627 -32.685565 37.138959 -0.565680 2.646845 0.017555 0.001147 -41515.600000 0 0 1
-15.538204 9.866527 -31.522665 36.502911 -0.565747 2.613095 0.015825 0.000412 -872819.000000 0 0 1
-14.522504 10.105827 -30.377595 35.154361 -0.607951 2.614196 0.015614 -0.005371 564537.000000 0 0 1
-13.693304 11.258427 -30.549685 35.320560 -0.688123 2.615800 0.027229 -0.010622 379666.000000 0 0 1
-12.569904 11.008527 -31.388445 35.558749 -0.719274 2.652417 0.030275 -0.017488 -325243.000000 0 0 1
-11.635304 12.220227 -31.657555 35.873598 -0.809913 2.651895 0.032629 -0.017346 -178394.000000 0 0 1
-12.168004 13.226327 -32.547185 37.179501 -0.827050 2.637073 0.023896 -0.022373 375927.000000 0 0 1
-11.407104 14.460027 -32.659525 37.494786 -0.902878 2.628116 0.031539 -0.026897 112436.000000 0 0 1
-11.529904 15.520727 -31.494055 36.955475 -0.931873 2.591003 0.029712 -0.027012 -473910.000000 0 0 1
-12.760304 16.161727 -31.574745 37.696038 -0.902467 2.563698 0.023375 -0.028320 -482822.000000 0 0 1
-13.036304 17.167427 -30.684945 37.499755 -0.921330 2.529192 0.011520 -0.018879 173463.000000 0 0 1
-14.502704 17.661027 -30.898615 38.431298 -0.883280 2.504782 0.003135 -0.027982 193864.000000 0 0 1
-14.753304 18.401027 -32.086515 39.822132 -0.894980 2.507730 0.014224 -0.032345 142687.000000 0 0 1
-16.100104 18.797927 -32.270595 40.668989 -0.862551 2.487325 0.019224 -0.033968 188674.000000 0 0 1
-16.543204 20.050627 -31.515865 40.852845 -0.880954 2.451911 0.003136 -0.027792 -771820.000000 0 0 1
-15.889204 21.198227 -31.896985 41.463831 -0.927581 2.448498 0.008985 -0.030192 -48760.000000 0 0 1
-16.374704 22.410127 -31.302935 41.835612 -0.939773 2.416196 -0.003255 -0.012054 -433703.000000 0 0 1
-17.697004 23.025027 -31.769475 43.042251 -0.915498 2.401046 0.010933 -0.017271 -663662.000000 0 0 1
-18.794204 22.562127 -31.044465 42.732078 -0.876256 2.383998 0.025141 -0.020840 243411.000000 0 0 1
-19.871904 22.320427 -31.977045 43.767858 -0.843366 2.390005 0.060465 -0.027118 22584.600000 0 0 1
-21.193104 21.780427 -31.424875 43.715643 -0.799064 2.372939 0.073702 -0.031466 -343293.000000 0 0 1
-21.939404 22.744027 -30.653055 44.025424 -0.803403 2.340967 0.095888 -0.028471 568392.000000 0 0 1
-23.020604 23.436527 -31.235435 45.330689 -0.794351 2.330984 0.094715 -0.025608 98017.900000 0 0 1
-24.324604 22.629327 -31.437505 45.739365 -0.749309 2.328587 0.104656 -0.037968 -437949.000000 0 0 1
-24.191104 21.659727 -32.493335 45.936588 -0.730245 2.356541 0.121794 -0.033476 635680.000000 0 0 1
-25.416364 21.607627 -33.226565 47.083816 -0.704579 2.354192 0.127164 -0.031275 480556.000000 0 0 1
-25.309034 20.669527 34.068725 47.206510 -0.684833 0.764548 0.125191 -0.021147 12103.100000 0 0 1
-25.059894 19.330027 -34.094974 46.520054 -0.657028 2.393385 0.125149 -0.020958 130384.000000 0 0 1
-24.575304 18.657627 33.289646 45.390011 -0.649365 0.747466 0.116383 -0.034245 -227618.000000 0 0 1
-24.100204 17.230427 33.515720 44.732660 -0.620689 0.723875 0.105360 -0.025589 484196.000000 0 0 1
-25.195264 16.303227 33.652598 45.089842 -0.574316 0.728242 0.094415 -0.016006 1007750.000000 0 0 1
-25.560214 15.626927 32.463221 44.174496 -0.548743 0.745298 0.086739 -0.014823 3501.130000 0 0 1
-26.544174 14.446227 32.667537 44.502299 -0.498405 0.746509 0.052742 -0.007436 -84132.800000 0 0 1
-27.707404 14.720827 33.415989 45.837007 -0.488370 0.753911 0.058631 -0.004122 -170292.000000 0 0 1
-28.666874 13.684027 33.296290 46.018313 -0.445361 0.761873 0.049249 -0.003354 -135343.000000 0 0 1
-28.518564 12.293127 34.057939 46.090917 -0.406990 0.739316 0.038554 -0.009075 -541723.000000 0 0 1
-27.358004 11.567227 33.764660 44.970139 -0.400014 0.721488 0.037749 -0.015167 -520675.000000 0 0 1
-27.605304 10.170127 33.865668 44.859422 -0.352982 0.715251 0.046559 -0.012942 -130241.000000 0 0 1
-26.428724 9.151227 34.222675 44.197442 -0.333340 0.685167 0.034861 -0.017844 980025.000000 0 0 1
-25.456194 8.916227 33.196917 42.773265 -0.336904 0.682317 0.022579 -0.010715 423587.000000 0 0 1
-24.520904 9.956427 33.048894 42.339515 -0.385701 0.675221 0.009369 -0.012738 -372762.000000 0 0 1
-23.260204 9.594427 32.188675 40.855855 -0.391221 0.663471 0.020382 -0.007491 393549.000000 0 0 1
-23.573404 9.437827 30.821525 39.934250 -0.380816 0.689119 0.022301 -0.004138 824416.000000 0 0 1
-22.363004 9.258027 30.075355 38.604948 -0.392507 0.677640 0.030119 -0.003895 827597.000000 0 0 1
-22.769604 9.120927 28.624205 37.696038 -0.381002 0.708494 0.050479 -0.015358 142534.000000 0 0 1
-23.386804 10.266627 28.004935 37.902805 -0.413662 0.739417 0.045960 -0.024419 447854.000000 0 0 1
-23.485204 10.078727 26.637655 36.914769 -0.405382 0.764687 0.047876 -0.026276 -1251370.000000 0 0 1
-23.592104 11.383427 25.789225 36.759405 -0.449558 0.793201 0.059501 -0.026388 907212.000000 0 0 1
-24.795404 12.125227 26.066835 37.964629 -0.454818 0.813983 0.067847 -0.024869 793177.000000 0 0 1
-26.004524 11.540727 25.612685 38.280978 -0.417683 0.837838 0.078864 -0.018663 -669017.000000 0 0 1
-27.201644 12.464027 25.845425 39.538176 -0.429659 0.858356 0.071452 -0.016553 -349197.000000 0 0 1
-27.193244 13.659427 25.060695 39.421959 -0.465494 0.881876 0.084139 -0.018675 -487517.000000 0 0 1
-28.162344 14.536127 25.527305 40.694716 -0.476488 0.892730 0.059160 -0.014210 -305553.000000 0 0 1
-28.247324 15.944727 24.788185 40.824009 -0.513884 0.918269 0.058925 -0.009285 12770.100000 0 0 1
-27.218764 16.825327 25.187775 40.723172 -0.553660 0.903949 0.079835 -0.011165 127538.000000 0 0 1
-27.338394 18.103727 24.567995 40.972174 -0.584910 0.927762 0.061813 -0.021564 -121317.000000 0 0 1
-22.852604 -9.180373 31.503055 39.987038 0.381989 0.663516 0.045293 -0.025510 -478583.000000 0 0 1
-21.780204 -8.809573 30.710485 38.666778 0.384359 0.653050 0.047505 -0.025607 -507082.000000 0 0 1
-22.168204 -8.901073 29.369175 37.857718 0.381820 0.682850 0.046869 -0.022230 645042.000000 0 0 1
-21.043504 -8.552873 28.304605 36.292304 0.386044 0.676280 0.049898 -0.018099 181901.000000 0 0 1
-20.570304 -7.171573 28.272445 35.691736 0.335460 0.656508 0.053844 -0.015174 1711230.000000 0 0 1
-19.290404 -6.886873 28.946585 35.460591 0.342906 0.615815 0.053283 -0.014992 2329940.000000 0 0 1
-17.984304 -7.479573 28.271905 34.331907 0.394133 0.603265 0.055685 -0.012071 -284375.000000 0 0 1
-17.843804 -8.904073 28.369395 34.677174 0.462848 0.612697 0.055681 -0.010997 45410.900000 0 0 1
-17.556504 -9.503873 29.646175 35.741434 0.496163 0.592652 0.064171 -0.014545 1198490.000000 0 0 1
-16.079204 -9.171573 30.188335 35.411779 0.518370 0.550058 0.059936 -0.015975 711393.000000 0 0 1
-15.039004 -9.898673 29.653685 34.691446 0.582118 0.545662 0.054120 -0.020860 -1373200.000000 0 0 1
-13.843404 -9.239173 29.905795 34.225118 0.588514 0.507841 0.045312 -0.022706 -794191.000000 0 0 1
-12.617004 -9.976373 29.409835 33.520967 0.669050 0.500472 0.045094 -0.022708 -550736.000000 0 0 1
-12.467504 -9.998873 27.990415 32.231653 0.675956 0.518802 0.048600 -0.023411 -551181.000000 0 0 1
-11.308004 -10.710673 27.663665 31.746934 0.758276 0.512787 0.052009 -0.031654 -167746.000000 0 0 1
-10.668304 -10.269673 26.314535 30.194927 0.766362 0.512567 0.046172 -0.030694 480356.000000 0 0 1
-11.586304 -10.634573 25.302695 29.791995 0.742594 0.556116 0.042615 -0.024856 382590.000000 0 0 1
-11.053304 -10.106473 24.103605 28.377810 0.740681 0.555983 0.037520 -0.025295 133004.000000 0 0 1
-11.821604 -10.537573 22.836145 27.789931 0.728034 0.606336 0.036941 -0.022037 -478725.000000 0 0 1
-11.922404 -11.937573 22.642845 28.237348 0.786034 0.640368 0.039227 -0.017820 580738.000000 0 0 1
-13.132304 -12.397073 22.027845 28.484571 0.756607 0.686727 0.032675 -0.011844 1580750.000000 0 0 1
-14.402904 -12.369073 22.991145 29.816612 0.709575 0.690253 0.039421 -0.012988 -603796.000000 0 0 1
-15.528204 -12.981873 22.540845 30.294287 0.696321 0.731666 0.017744 0.001825 -1470790.000000 0 0 1
-16.536804 -12.809873 23.476105 31.443381 0.659078 0.727837 0.013199 0.006386 -340931.000000 0 0 1
-17.824304 -13.633673 23.197645 32.275588 0.652964 0.768813 0.035939 -0.001502 -385390.000000 0 0 1
-17.699604 -15.063873 23.271045 32.889782 0.705124 0.784776 0.032473 -0.008245 728211.000000 0 0 1
-18.905504 -15.845173 23.068945 33.773715 0.697559 0.818874 0.043334 -0.002711 402201.000000 0 0 1
-19.943904 -15.800473 24.174705 35.097445 0.669995 0.810980 0.036413 -0.005803 -843272.000000 0 0 1
-19.526904 -16.548373 25.294005 35.985210 0.703021 0.791330 0.037688 -0.001649 59595.600000 0 0 1
-20.413704 -16.509073 26.393955 37.227808 0.680038 0.782739 0.034131 -0.009271 -277323.000000 0 0 1
-20.006204 -17.420873 27.556355 38.250330 0.716431 0.766387 0.038216 -0.007073 -211374.000000 0 0 1
-19.984504 -18.820873 27.274275 38.697438 0.755421 0.788643 0.043497 -0.001419 160511.000000 0 0 1
-19.677504 -19.545373 28.434215 39.720654 0.782029 0.772949 0.041122 -0.010576 -346071.000000 0 0 1
-19.795504 -21.110673 28.379255 40.532760 0.817538 0.795180 0.047958 0.001407 -331704.000000 0 0 1
-21.067804 -21.604973 28.066235 41.210930 0.797986 0.821616 0.054178 -0.000610 -382608.000000 0 0 1
-20.975204 -23.003173 27.878935 41.789235 0.831478 0.840444 0.069308 0.007088 1047100.000000 0 0 1
-22.387604 -23.631073 27.558165 42.650731 0.812413 0.868286 0.069152 0.011280 911771.000000 0 0 1
-23.171504 -24.066373 28.632485 43.999183 0.804340 0.862224 0.067808 0.007408 -62134.300000 0 0 1
-24.377204 -24.631673 28.179085 44.665739 0.790590 0.888099 0.058217 0.010064 -226890.000000 0 0 1
-25.207844 -25.445523 29.155435 46.183865 0.790090 0.887580 0.036002 0.003681 -142415.000000 0 0 1
-25.971174 -24.622973 30.044015 46.727246 0.758757 0.872432 0.025238 0.013137 133570.000000 0 0 1
-26.769304 -25.395843 30.915805 48.138669 0.759075 0.873400 0.032367 0.010684 -501957.000000 0 0 1
-27.887394 -24.529373 31.439185 48.660243 0.721422 0.868338 0.020657 0.008577 -839346.000000 0 0 1
-28.769694 -24.060173 30.491155 48.335264 0.696488 0.888179 0.030148 0.009368 -87931.000000 0 0 1
-29.889574 -23.349973 30.976995 48.971237 0.663177 0.885949 0.027878 0.001569 776005.000000 0 0 1
-31.201874 -23.500773 30.116275 49.323760 0.645536 0.913999 0.022369 -0.006653 213826.000000 0 0 1
-31.938534 -24.660473 30.245145 50.427945 0.657510 0.927583 0.017476 -0.006391 11191.800000 0 0 1
-33.008644 -24.746673 29.311655 50.607722 0.643311 0.953058 0.010995 -0.013360 351207.000000 0 0 1
-34.194729 -25.510993 29.937355 52.118475 0.640969 0.958914 0.005243 -0.013492 97077.600000 0 0 1
-33.829944 -26.868003 29.909715 52.544702 0.671199 0.965234 0.010330 -0.013387 21987.700000 0 0 1
-34.809417 -27.599363 30.595665 53.939921 0.670379 0.967673 0.013203 -0.016429 -109246.000000 0 0 1
-34.420613 -29.046573 30.999235 54.675722 0.700925 0.967979 0.016761 -0.022851 -497001.000000 0 0 1
-33.552074 -29.100973 32.089895 54.793883 0.714474 0.945118 0.021518 -0.011876 -443865.000000 0 0 1
-33.202974 -30.388753 32.381225 55.447791 0.741173 0.947155 0.030189 -0.018744 20348.800000 0 0 1
-32.113884 -30.459103 33.483397 55.499517 0.758959 0.923152 0.027692 -0.015483 70743.600000 0 0 1
-32.609784 -30.215653 -33.728875 55.803411 0.747309 2.219838 0.019758 -0.007360 2788.400000 0 0 1
-31.615164 -30.416963 -32.740845 54.741878 0.766085 2.211918 0.022824 -0.009080 315500.000000 0 0 1
-32.206554 -30.185063 -31.313455 54.119614 0.753009 2.187804 0.020738 -0.012052 89690.400000 0 0 1
-32.512974 -28.816503 -31.015965 53.380468 0.725199 2.190797 0.020223 -0.011184 23822.700000 0 0 1
-31.350104 -28.048333 -30.765835 52.115973 0.729868 2.202269 0.027709 -0.010099 -75586.100000 0 0 1
-31.508044 -26.525983 -30.802665 51.431399 0.699761 2.212933 0.019909 0.001776 184246.000000 0 0 1
-32.246774 -26.120213 -29.603095 50.975123 0.680815 2.190429 0.011957 -0.011312 182819.000000 0 0 1
-32.176724 -24.717973 -29.306175 50.051690 0.655044 2.196315 0.016537 -0.009892 -301806.000000 0 0 1
-30.779364 -24.074173 -29.155555 48.754297 0.663764 2.211812 0.013260 -0.009329 -421321.000000 0 0 1
-30.718654 -22.643173 -29.085685 47.982560 0.635203 2.222035 0.016043 -0.009255 611858.000000 0 0 1
-29.441084 -22.304473 -28.520145 46.665465 0.648345 2.228324 0.022749 -0.010232 643127.000000 0 0 1
-29.058814 -20.807173 -28.719675 45.849458 0.621408 2.247711 0.027098 -0.016153 -111885.000000 0 0 1
-28.557084 -20.451473 -29.993885 46.188775 0.621490 2.277560 0.035362 -0.009464 373313.000000 0 0 1
-28.192384 -19.076273 -30.010025 45.379690 0.594880 2.293360 0.032868 -0.017225 -190202.000000 0 0 1
-27.775544 -18.524973 -31.448055 45.865408 0.588201 2.326306 0.044574 -0.013143 583753.000000 0 0 1
-28.839574 -18.358773 -32.395305 47.097997 0.566885 2.329288 0.052033 -0.022249 859187.000000 0 0 1
-29.758334 -17.303773 -32.096195 47.065324 0.526688 2.321222 0.049865 -0.019295 -494748.000000 0 0 1
-30.593894 -16.808773 -33.230215 48.195107 0.502395 2.331586 0.054460 -0.025984 -382104.000000 0 0 1
-31.502824 -17.688073 -33.844555 49.505048 0.511611 2.323561 0.058742 -0.030691 28977.900000 0 0 1
-32.832384 -17.319473 -33.589605 50.061873 0.485414 2.306301 0.053036 -0.026914 -218139.000000 0 0 1
-33.853474 -17.806773 33.860527 51.084970 0.484227 0.846208 0.051257 -0.032608 -135181.000000 0 0 1
-34.083689 -19.203373 33.827483 51.718140 0.513087 0.857839 0.031179 -0.027801 -351868.000000 0 0 1
-35.173239 -19.679873 33.111565 52.161575 0.510117 0.883062 0.026904 -0.022040 -786281.000000 0 0 1
-35.383149 -21.205573 33.404642 53.080257 0.539914 0.890114 0.009910 -0.021078 615016.000000 0 0 1
-34.280942 -22.028973 32.974673 52.419345 0.571156 0.890459 0.021614 -0.019376 623770.000000 0 0 1
-34.519026 -23.293673 33.442617 53.409428 0.593617 0.894183 0.009752 -0.015953 -995544.000000 0 0 1
-33.226024 -24.077273 33.329701 52.863529 0.627079 0.888617 0.011779 -0.005695 -87927.400000 0 0 1
-32.288784 -24.025973 -34.086569 52.741892 0.639712 2.273509 0.004918 -0.013577 239923.000000 0 0 1
-31.605574 -22.770573 -34.001995 51.706353 0.624326 2.288422 0.015324 -0.017558 -1024700.000000 0 0 1
-30.490204 -22.919173 -32.932055 50.393068 0.644582 2.283000 0.017728 -0.011712 -491874.000000 0 0 1
-29.508684 -23.811973 -33.414685 50.540218 0.678963 2.293147 0.020382 -0.011077 -11092.700000 0 0 1
-28.182564 -23.625073 -32.983215 49.399326 0.697655 2.301892 0.037494 -0.011580 164996.000000 0 0 1
-27.951424 -24.151973 -31.501855 48.548602 0.712606 2.276898 0.033679 -0.001422 -894923.000000 0 0 1
-28.021264 -25.547403 -31.321585 49.182342 0.739250 2.261197 0.025405 -0.006471 26801.100000 0 0 1
-27.569084 -25.878573 -30.041045 48.293057 0.753779 2.242164 0.021474 -0.012128 -202513.000000 0 0 1
-27.157784 -27.339363 -29.744135 48.679560 0.788730 2.228143 0.020907 -0.016202 -178484.000000 0 0 1
-28.210284 -28.254273 -29.837175 49.843566 0.786177 2.212569 0.014738 -0.005123 -40471.700000 0 0 1
-27.793304 -29.443763 -29.266505 49.959296 0.814226 2.196672 0.019920 -0.007365 141316.000000 0 0 1
-28.559584 -30.680413 -29.851805 51.459380 0.821184 2.189653 0.026160 0.001346 -116360.000000 0 0 1
-28.112444 -31.129153 -31.118465 52.227316 0.836276 2.209092 0.037240 -0.012119 189371.000000 0 0 1
-28.473204 -32.426913 -31.420145 53.380273 0.850228 2.200134 0.052518 -0.003906 -314763.000000 0 0 1
-28.005344 -32.716993 -32.842605 54.160296 0.862836 2.222317 0.039682 -0.013353 336804.000000 0 0 1
-26.590464 -32.767173 -32.927845 53.525539 0.889084 2.233411 0.042154 -0.015274 -2317.310000 0 0 1
-26.164844 -33.145583 -34.228661 54.358348 0.902558 2.251945 0.050315 -0.017619 994056.000000 0 0 1
-24.650304 -33.538143 34.073888 53.791025 0.936969 0.884793 0.045656 -0.018423 990934.000000 0 0 1
-24.405304 -34.000603 32.762417 53.151066 0.948230 0.906631 0.043781 -0.008327 -158729.000000 0 0 1
-23.444804 33.593157 32.792850 52.474089 -0.961478 0.895749 0.032635 0.002210 -484321.000000 0 0 1
-23.319404 32.799450 31.452315 51.076870 -0.952746 0.907416 0.031486 -0.000459 143728.000000 0 0 1
-24.504404 32.053893 31.180385 50.991512 -0.918095 0.912864 0.041514 -0.020711 224187.000000 0 0 1
-24.315804 31.124613 30.141135 49.683879 -0.907599 0.918946 0.034012 -0.013452 158331.000000 0 0 1
-25.639164 30.498043 29.594945 49.632228 -0.871737 0.931931 0.047066 -0.010765 399835.000000 0 0 1
-26.195474 29.685953 30.628785 50.055780 -0.847779 0.912345 0.044521 -0.014736 -778606.000000 0 0 1
-27.394334 29.076713 30.344575 50.166702 -0.815181 0.921188 0.041300 -0.019039 -614359.000000 0 0 1
-27.791324 28.029273 31.404505 50.440467 -0.789661 0.898729 0.041076 -0.035975 -355180.000000 0 0 1
-26.910204 26.960883 31.282205 49.291223 -0.786339 0.883253 0.039572 -0.032776 -51481.500000 0 0 1
-27.333094 25.741303 31.913625 49.276690 -0.755415 0.866311 0.036010 -0.025027 253044.000000 0 0 1
-28.467734 24.942463 31.238115 49.075026 -0.719490 0.880795 0.042257 -0.022992 257920.000000 0 0 1
-28.027664 24.512753 29.975915 47.801469 -0.718599 0.892982 0.034543 -0.013448 240049.000000 0 0 1
-29.021174 23.735293 29.303235 47.584370 -0.685537 0.907375 0.040119 0.004558 489962.000000 0 0 1
-28.559454 23.574423 27.824335 46.320508 -0.690068 0.926431 0.052135 -0.012945 -302866.000000 0 0 1
-27.345954 22.904673 27.765605 45.203474 -0.697245 0.909379 0.052657 -0.011167 -705144.000000 0 0 1
-26.802804 22.905273 26.453045 44.077266 -0.707150 0.927106 0.049697 -0.010322 66069.600000 0 0 1
-25.472524 22.117073 26.421635 42.849938 -0.715007 0.906369 0.062700 -0.012848 -185477.000000 0 0 1
-25.587884 20.786973 26.762705 42.462694 -0.682242 0.888903 0.085235 -0.020138 -577815.000000 0 0 1
-24.399204 20.092373 26.868645 41.484318 -0.688898 0.866258 0.094577 -0.012124 -821407.000000 0 0 1
-24.467904 18.896973 27.841255 41.604199 -0.657632 0.837674 0.098833 -0.019160 860113.000000 0 0 1
-23.182504 18.269073 28.037365 40.709720 -0.667414 0.811082 0.104025 -0.016922 1064150.000000 0 0 1
-23.346904 17.156873 28.950385 40.958039 -0.633746 0.785789 0.096609 -0.015687 -377526.000000 0 0 1
-22.100304 16.275073 29.087635 39.992398 -0.634752 0.756374 0.093528 -0.024962 -681868.000000 0 0 1
-21.085104 16.976873 29.769285 40.236875 -0.677879 0.737948 0.122788 -0.025755 64193.500000 0 0 1
-19.960604 16.089973 29.668585 39.211451 -0.678441 0.712652 0.101677 -0.030780 578301.000000 0 0 1
-18.635904 16.467073 30.378785 39.259801 -0.723692 0.685996 0.083930 -0.033634 296392.000000 0 0 1
-18.822304 16.367473 31.776115 40.396717 -0.715751 0.665511 0.073759 -0.031143 -216681.000000 0 0 1
-17.571604 16.381773 32.379945 40.318539 -0.750369 0.638311 0.056226 -0.031148 -1117850.000000 0 0 1
-17.542404 16.174873 33.910409 41.464181 -0.744862 0.613177 0.050753 -0.039760 445970.000000 0 0 1
-18.443604 16.932073 -33.735325 42.011115 -0.742696 2.503124 0.077627 -0.037790 533712.000000 0 0 1
-19.791404 16.537673 -33.849865 42.555935 -0.696074 2.490497 0.092861 -0.027387 -161765.000000 0 0 1
-20.803404 17.316973 -32.941645 42.635796 -0.694193 2.453768 0.097618 -0.039398 244258.000000 0 0 1
-20.898104 16.945473 -31.561645 41.473090 -0.681329 2.435673 0.085268 -0.037847 53739.400000 0 0 1
-21.866704 17.790173 -30.993405 41.895514 -0.682963 2.403538 0.072475 -0.025610 -257749.000000 0 0 1
-22.127204 17.650873 -29.426495 40.829953 -0.673337 2.375620 0.072397 -0.024710 278800.000000 0 0 1
-22.822804 16.523173 -28.870265 40.340895 -0.626637 2.368361 0.082873 -0.029441 1984440.000000 0 0 1
-24.209204 16.285473 -29.310985 41.357418 -0.592166 2.358484 0.094962 -0.032024 1994460.000000 0 0 1
-24.975504 15.277473 -28.376615 40.772653 -0.548977 2.340569 0.090444 -0.025677 262690.000000 0 0 1
-24.696904 13.889173 -28.569065 40.237267 -0.512302 2.360316 0.056663 -0.019647 129605.000000 0 0 1
-25.614464 13.161073 -27.786995 40.017892 -0.474638 2.338332 0.030507 -0.017188 44626.200000 0 0 1
-25.362354 11.688673 -27.898665 39.474163 -0.431854 2.355701 0.034630 -0.018710 180749.000000 0 0 1
-24.207504 11.387073 -27.141925 38.109746 -0.439684 2.363430 0.028238 -0.019496 -85641.300000 0 0 1
-23.390404 10.435973 -27.773515 37.780797 -0.419660 2.396644 0.018572 -0.008765 -150199.000000 0 0 1
-22.357604 9.777473 -26.837365 36.272656 -0.412261 2.403686 0.039385 -0.009756 178953.000000 0 0 1
-22.949504 8.742773 -26.085725 35.827097 -0.363983 2.386343 0.028443 -0.016366 633235.000000 0 0 1
-21.944104 8.257373 -25.175145 34.402265 -0.359902 2.391737 0.054396 -0.001487 186813.000000 0 0 1
-22.479504 7.314273 -24.071335 33.738047 -0.314571 2.365245 0.048652 0.003241 64329.900000 0 0 1
-23.075204 6.125073 -24.572535 34.260634 -0.259456 2.370606 0.045552 -0.017491 228808.000000 0 0 1
-23.321604 5.212873 -23.541935 33.545401 -0.219906 2.348708 0.057126 -0.010799 -96307.900000 0 0 1
34.216194 24.834927 -10.674435 43.605792 0.627848 1.818104 0.049510 -0.008004 -299159.000000 0 0 1
35.197964 24.294727 -9.850935 43.888169 0.604139 1.797180 0.053083 -0.007489 -479693.000000 0 0 1
-36.115034 23.567127 -10.632835 44.415789 -0.578171 1.812537 0.062501 -0.007783 88772.100000 0 0 1
-34.954742 22.965127 -9.822735 42.961810 -0.581278 1.801475 0.052357 -0.009576 95511.100000 0 0 1
-35.462585 21.988927 -8.966135 42.679027 -0.555039 1.782456 0.012741 -0.004778 289669.000000 0 0 1
-34.414577 21.572927 -8.098235 41.416611 -0.559932 1.767595 0.038725 0.003958 -119494.000000 0 0 1
-34.822647 20.743027 -6.898935 41.115510 -0.537234 1.739388 0.024277 0.015933 -212664.000000 0 0 1
-35.269807 19.456227 -7.229235 40.923903 -0.504101 1.748379 0.015435 0.005932 409711.000000 0 0 1
-35.739227 18.631927 -6.149835 40.770841 -0.480566 1.722213 0.009077 -0.002096 -321452.000000 0 0 1
35.879434 17.355727 -6.710535 40.417649 0.450542 1.737599 0.017209 0.007771 -177425.000000 0 0 1
34.619714 17.700227 -7.255235 39.553269 0.472628 1.755270 0.017750 0.002411 -35540.400000 0 0 1
34.069194 16.574127 -7.935335 38.708929 0.452777 1.777260 0.033783 0.011740 -699740.000000 0 0 1
32.799804 16.964227 -8.655435 37.927941 0.477317 1.801032 0.025952 -0.001359 -896899.000000 0 0 1
32.363974 15.872227 -9.392735 37.250206 0.455961 1.825700 0.035675 -0.004892 38838.900000 0 0 1
31.814914 16.220427 -10.660135 37.268344 0.471486 1.860885 0.050827 -0.010029 -469365.000000 0 0 1
31.237684 14.980027 -11.419435 36.477357 0.447154 1.889205 0.046821 -0.006729 -418275.000000 0 0 1
30.042424 14.382127 -11.017635 35.082490 0.446485 1.890252 0.038485 -0.007813 43723.200000 0 0 1
29.947044 13.841027 -9.659335 34.375896 0.432939 1.855623 0.037038 -0.006374 -593734.000000 0 0 1
28.911004 12.712227 -9.542335 32.992469 0.414257 1.864216 0.052011 -0.006376 112738.000000 0 0 1
29.470524 11.530027 -10.063235 33.207258 0.372931 1.878681 0.055415 -0.009691 744187.000000 0 0 1
28.535504 10.445927 -9.835035 31.939322 0.350917 1.883812 0.069624 -0.009290 64429.500000 0 0 1
28.853844 9.077227 -10.444135 32.000318 0.304791 1.903263 0.082397 -0.012098 -932473.000000 0 0 1
30.018324 8.539227 -9.918635 32.747481 0.277146 1.878512 0.059878 -0.009343 -222784.000000 0 0 1
29.902504 7.173927 -9.717135 32.249770 0.235460 1.876861 0.074114 -0.009323 274319.000000 0 0 1
31.061084 6.567127 -8.821935 32.950639 0.208358 1.841834 0.076559 -0.009287 667068.000000 0 0 1
32.355524 6.799127 -9.318435 34.350274 0.207124 1.845516 0.067053 -0.009270 120975.000000 0 0 1
33.396954 6.358527 -8.471035 35.036350 0.188141 1.814995 0.064689 -0.008682 -659065.000000 0 0 1
34.778254 6.655127 -8.990435 36.532802 0.189073 1.819443 0.063226 -0.009033 -798682.000000 0 0 1
35.099454 5.978627 -10.200535 37.037367 0.168715 1.849815 0.073488 -0.017087 -17484.300000 0 0 1
-35.747943 5.817727 -10.333835 37.663636 -0.161329 1.848733 0.075241 -0.022634 -1054620.000000 0 0 1
-35.195556 5.120727 -11.585535 37.405529 -0.144480 1.885703 0.077269 -0.026841 1143730.000000 0 0 1
-33.741384 5.091527 -11.599435 36.040970 -0.149769 1.898469 0.080517 -0.027643 1564970.000000 0 0 1
-33.233334 6.220427 -12.304335 35.979784 -0.185033 1.919819 0.057788 -0.021890 -833790.000000 0 0 1
-32.696724 7.365527 -11.437235 35.413798 -0.221570 1.899652 0.062968 -0.016539 -524301.000000 0 0 1
-33.616134 8.171727 -10.677435 36.205375 -0.238464 1.870161 0.070876 -0.015269 223119.000000 0 0 1
-33.969194 9.359127 -11.374335 37.025327 -0.268848 1.883050 0.068631 -0.015584 445976.000000 0 0 1
-34.961729 10.203327 -10.482035 37.898594 -0.283956 1.851031 0.058314 -0.006449 673172.000000 0 0 1
-34.326769 10.817327 -9.350435 37.185646 -0.305277 1.824977 0.064260 -0.001849 401651.000000 0 0 1
-35.247386 11.701327 -8.716035 38.147982 -0.320529 1.801312 0.058870 0.000509 93572.900000 0 0 1
-34.584218 12.658827 -7.669035 37.618188 -0.350883 1.776101 0.059438 0.005855 239592.000000 0 0 1
-33.763684 13.619127 -8.299135 37.340897 -0.383405 1.794921 0.074932 -0.006844 180891.000000 0 0 1
-33.068324 14.473327 -7.373035 36.842270 -0.412561 1.772281 0.086221 -0.006933 381201.000000 0 0 1
-32.036494 15.392127 -8.048235 36.442126 -0.447891 1.793482 0.072040 -0.006428 -45136.200000 0 0 1
-32.677534 16.420727 -8.762235 37.606359 -0.465652 1.805957 0.057079 -0.004573 477180.000000 0 0 1
-31.768734 17.488027 -9.139935 37.398154 -0.503211 1.817692 0.060214 0.000574 769512.000000 0 0 1
-32.435154 18.497627 -10.124435 38.687279 -0.518292 1.835579 0.032419 -0.005508 307940.000000 0 0 1
-32.319444 18.138627 -11.514635 38.809059 -0.511424 1.872031 0.023810 -0.007334 -506233.000000 0 0 1
-33.094374 18.940427 -12.317335 40.071113 -0.519815 1.883242 0.025399 -0.010277 -459765.000000 0 0 1
-32.696324 18.851527 -13.812135 40.189610 -0.523009 1.921623 0.020765 -0.004228 658604.000000 0 0 1
-31.489744 19.610627 -14.018835 39.657387 -0.556989 1.932105 0.014026 -0.008647 410036.000000 0 0 1
-31.499974 20.115527 -15.301135 40.385734 -0.568311 1.959376 0.006822 -0.009794 37110.400000 0 0 1
-30.593774 21.375827 -15.567135 40.438109 -0.609852 1.965963 0.009597 -0.012071 -325603.000000 0 0 1
-29.248824 20.972827 -15.601835 39.227164 -0.622077 1.979838 0.009399 -0.009487 -94560.400000 0 0 1
-28.334554 22.076227 -15.548435 39.140268 -0.661884 1.979314 0.022275 -0.009328 28705.600000 0 0 1
-28.113554 22.984527 -16.822835 40.020846 -0.685357 2.004629 0.006816 -0.012938 -47592.500000 0 0 1
-29.212564 23.702027 -17.434735 41.462392 -0.681632 2.004787 0.009475 -0.000766 634664.000000 0 0 1
-28.714244 24.460327 -18.517035 42.020185 -0.705569 2.027141 0.001292 -0.008316 70081.300000 0 0 1
-27.898384 25.778627 -18.287135 42.157760 -0.745928 2.019479 0.011659 -0.009780 134187.000000 0 0 1
-28.576984 26.900727 -17.838135 43.110233 -0.755192 1.997398 0.022207 -0.005963 -249820.000000 0 0 1
-27.675834 27.962627 -17.628335 43.111697 -0.790553 1.992044 0.024408 -0.007257 421138.000000 0 0 1
-28.424974 29.241527 -17.094535 44.218425 -0.799557 1.967731 0.015333 -0.009016 171084.000000 0 0 1
-28.762174 29.277327 -15.672235 43.932260 -0.794274 1.935568 0.012602 -0.013415 -176907.000000 0 0 1
-27.672524 29.462027 -14.812335 43.048634 -0.816709 1.922059 0.011127 -0.009973 -238411.000000 0 0 1
-28.113184 30.193627 -13.514435 43.412511 -0.821064 1.887360 0.012524 -0.011771 -421211.000000 0 0 1
-27.913114 31.566227 -13.523435 44.254400 -0.846739 1.881348 0.018456 -0.007320 174980.000000 0 0 1
-28.420064 32.270327 -12.387835 44.749664 -0.848754 1.851285 0.005999 -0.008309 -593.777000 0 0 1
-27.812454 33.663627 -12.276535 45.359516 -0.880290 1.844864 -0.005186 -0.006149 87667.600000 0 0 1
-28.051614 -34.190019 -13.474235 46.232083 0.883702 1.866536 -0.009461 -0.016039 -249909.000000 0 0 1
-27.349464 -33.008619 -13.375435 44.905060 0.878885 1.873247 0.025880 -0.014950 -38140.700000 0 0 1
-27.501984 -32.278119 -14.682835 44.875625 0.865124 1.904124 0.026555 -0.019311 174008.000000 0 0 1
-26.859434 -32.971019 -15.748735 45.349090 0.887193 1.925463 0.025727 -0.017066 -15061.800000 0 0 1
-27.234944 -32.433219 -17.009335 45.639603 0.872299 1.952700 0.040438 -0.011078 199482.000000 0 0 1
-26.200734 -32.787719 -18.133335 45.720136 0.896603 1.978624 0.030702 -0.007745 209929.000000 0 0 1
-26.235564 -34.088919 -18.708835 46.908205 0.914855 1.981047 0.028622 -0.002219 -100448.000000 0 0 1
-26.019334 33.455027 -17.782735 45.961617 -0.909776 1.968068 0.007355 -0.018310 -801338.000000 0 0 1
-26.162144 32.059127 -18.504035 45.328189 -0.886340 1.991304 0.015410 -0.031210 754970.000000 0 0 1
-27.484704 31.639027 -18.870035 45.962106 -0.855548 1.993860 0.020231 -0.014460 453140.000000 0 0 1
-28.043974 32.336227 -19.965635 47.230526 -0.856366 2.007249 0.018057 -0.009012 -1368890.000000 0 0 1
-29.486084 31.987227 -20.190235 47.960999 -0.826062 2.005313 0.019215 -0.010788 -1043940.000000 0 0 1
-29.799454 30.626227 -20.461335 47.377626 -0.799080 2.017370 0.017761 -0.011603 429423.000000 0 0 1
-31.178564 30.475727 -20.771235 48.294067 -0.773999 2.015399 0.018694 -0.011513 -40924.500000 0 0 1
-31.478644 29.184527 -21.487635 48.003751 -0.747599 2.034903 0.023394 -0.015390 136124.000000 0 0 1
-32.804334 28.637227 -21.563535 48.592192 -0.717680 2.030592 0.025541 -0.020181 744701.000000 0 0 1
-32.844574 27.289027 -21.960635 48.017981 -0.693273 2.045800 0.025089 -0.009784 537792.000000 0 0 1
-34.313240 26.754027 -22.150835 48.824542 -0.662240 2.041689 0.042043 -0.009484 992672.000000 0 0 1
-34.943368 27.343327 -23.300535 50.115980 -0.663981 2.054354 0.022039 -0.011852 1064090.000000 0 0 1
35.979154 26.732627 -23.501435 50.610773 0.639008 2.053704 0.028116 -0.006462 1312470.000000 0 0 1
35.137414 27.444627 -24.560935 50.902701 0.663088 2.074312 0.043643 -0.014466 -33178.200000 0 0 1
35.654534 27.441027 -25.907345 51.917688 0.655950 2.093250 0.049591 -0.019675 84710.200000 0 0 1
34.615764 27.660527 -26.861635 51.816053 0.674176 2.115780 0.056497 -0.017075 240717.000000 0 0 1
35.203494 28.089627 -28.223385 53.149530 0.673472 2.130598 0.054233 -0.016653 34089.000000 0 0 1
35.739594 27.011327 -28.895415 53.309243 0.647191 2.143652 0.041356 -0.001209 -340662.000000 0 0 1
-35.848943 27.459227 -30.079435 54.257979 -0.653644 2.158412 0.017581 -0.001023 -504499.000000 0 0 1
-35.428145 26.188727 -30.853875 53.786285 -0.636558 2.181737 0.006249 -0.004346 629161.000000 0 0 1
-34.369434 25.411527 -30.265765 52.373850 -0.636659 2.186924 0.018142 -0.008998 1752070.000000 0 0 1
-33.036854 25.948927 -30.562745 51.950572 -0.665808 2.199757 -0.002635 0.004766 1258550.000000 0 0 1
-31.934384 25.308927 -29.685145 50.413832 -0.670169 2.200406 -0.010989 -0.005601 -156946.000000 0 0 1
-31.860094 23.959127 -29.925235 49.846013 -0.644787 2.214740 0.001843 -0.004632 200279.000000 0 0 1
-32.305274 23.213127 -28.803335 49.113258 -0.623071 2.197487 0.003069 -0.008706 -57435.200000 0 0 1
-31.943824 21.725427 -29.054775 48.338204 -0.597254 2.215639 -0.008543 -0.011087 694612.000000 0 0 1
-30.561074 21.338927 -29.077335 47.273887 -0.609543 2.233287 0.038073 -0.002453 635463.000000 0 0 1
-30.494584 20.026927 -29.604125 46.982993 -0.581097 2.252482 0.028805 -0.007058 1740.640000 0 0 1
-29.169784 19.203027 -29.669475 45.824778 -0.582201 2.275036 0.064985 -0.015137 -173286.000000 0 0 1
-28.493514 19.628027 -30.833725 46.344993 -0.603210 2.298704 0.088324 -0.021001 91163.300000 0 0 1
-27.279814 18.889027 -30.997885 45.407625 -0.605619 2.322190 0.102718 -0.028829 250522.000000 0 0 1
-27.181824 17.529327 -31.785635 45.348158 -0.572776 2.347489 0.104971 -0.024736 -478948.000000 0 0 1
-27.574504 16.417227 -31.078285 44.673688 -0.537013 2.340153 0.080075 -0.019119 188193.000000 0 0 1
-27.441894 15.270827 -31.887805 44.755869 -0.507804 2.363827 0.056093 -0.014086 10680.600000 0 0 1
-28.005214 13.991027 -31.195065 44.194716 -0.463317 2.354426 0.052089 -0.012252 -756841.000000 0 0 1
-29.370574 14.006727 -30.942715 44.902902 -0.444995 2.331047 0.020561 -0.012325 -822603.000000 0 0 1
-29.905744 12.729727 -30.657505 44.679772 -0.402431 2.326994 0.012053 -0.005187 -288002.000000 0 0 1
-29.442144 11.861727 -29.472005 43.314426 -0.382989 2.319132 -0.001853 -0.023966 -634259.000000 0 0 1
-29.778394 12.501527 -28.271215 42.922051 -0.397474 2.289838 -0.004262 -0.020986 311365.000000 0 0 1
-29.889744 11.598127 -27.194915 42.041369 -0.370145 2.274257 -0.002035 -0.019293 -94498.600000 0 0 1
-29.759004 12.332027 -25.835495 41.293462 -0.392855 2.246768 -0.006105 -0.025778 -253594.000000 0 0 1
-28.396224 12.568327 -25.582635 40.234060 -0.416688 2.259899 0.002984 -0.027453 -114406.000000 0 0 1
-28.336484 13.262627 -24.363035 39.653639 -0.437755 2.232416 0.001027 -0.020821 -229241.000000 0 0 1
-26.891794 13.595727 -23.992735 38.518355 -0.468095 2.243229 0.010162 -0.012809 -810657.000000 0 0 1
-26.109014 14.427327 -24.869135 38.836867 -0.504822 2.265748 0.023332 -0.014380 430971.000000 0 0 1
-24.711504 14.404527 -24.673035 37.774429 -0.527757 2.282557 0.037436 -0.017245 360277.000000 0 0 1
-24.226904 14.902727 -23.264235 36.745867 -0.551471 2.256363 0.029810 -0.004069 -1148290.000000 0 0 1
-24.468104 16.292427 -23.071735 37.368921 -0.587447 2.236235 0.041790 -0.009597 117868.000000 0 0 1
-24.500004 16.688727 -21.734835 36.758221 -0.597978 2.203456 0.035872 -0.000497 994710.000000 0 0 1
-25.984404 16.949227 -21.229935 37.592229 -0.577980 2.170918 0.026476 -0.006839 944897.000000 0 0 1
-26.786814 15.797727 -21.201035 37.637554 -0.532854 2.169164 0.032457 -0.010187 756209.000000 0 0 1
-27.997144 16.189927 -20.495235 38.288490 -0.524289 2.135641 0.031318 -0.010824 7951.580000 0 0 1
-29.120154 15.157627 -20.506535 38.707299 -0.479929 2.129143 0.010016 -0.018555 -105739.000000 0 0 1
-29.733564 14.817127 -21.735035 39.699418 -0.462311 2.150158 0.008158 -0.012463 470544.000000 0 0 1
-30.542744 15.854827 -22.298735 41.005711 -0.478813 2.145750 0.002045 -0.017632 -324366.000000 0 0 1
-30.985824 15.843727 -23.760135 42.138925 -0.472664 2.169839 -0.006555 -0.009199 -518867.000000 0 0 1
-32.002784 14.940527 -24.087535 42.750519 -0.436778 2.169345 -0.000051 -0.008741 -139539.000000 0 0 1
-32.360264 15.110427 -25.452435 43.855879 -0.436855 2.189974 0.013351 -0.016280 295956.000000 0 0 1
-33.702274 14.309327 -25.646295 44.702713 -0.401515 2.181822 0.003539 -0.014991 329936.000000 0 0 1
-33.630094 12.912327 -25.844235 44.335492 -0.366595 2.193119 0.011421 -0.016485 85316.900000 0 0 1
-33.284654 12.180827 -24.651735 43.173473 -0.350821 2.178511 0.014467 -0.016483 -463782.000000 0 0 1
-33.482534 10.684027 -24.763335 42.993619 -0.308880 2.184595 0.011316 -0.017604 672657.000000 0 0 1
-34.843618 10.370327 -25.122295 44.189943 -0.289276 2.175486 0.024146 -0.018533 792924.000000 0 0 1
-34.804924 9.272627 -25.986475 44.414651 -0.260369 2.195785 0.017287 -0.014939 82916.100000 0 0 1
36.056114 8.745727 -26.457805 45.569140 0.237963 2.190272 0.043758 -0.011009 -216602.000000 0 0 1
35.356584 7.956627 -25.552815 44.343458 0.221352 2.184926 0.033255 -0.010856 -575953.000000 0 0 1
34.388534 7.283927 -26.311945 43.908374 0.208728 2.213356 0.045491 -0.005430 -787496.000000 0 0 1
33.474494 6.422227 -25.490615 42.562404 0.189551 2.212923 0.047634 -0.010557 -237689.000000 0 0 1
34.234234 5.451827 -24.764035 42.602378 0.157925 2.191101 0.034032 -0.017843 21961.600000 0 0 1
33.421144 4.581127 -24.044235 41.425654 0.136224 2.190039 0.033426 -0.012030 -258697.000000 0 0 1
34.168354 3.672227 -23.058235 41.384102 0.107064 2.161778 0.018409 -0.008188 124832.000000 0 0 1
34.925364 2.656827 -23.685435 42.282853 0.075925 2.165383 0.021430 -0.013260 455816.000000 0 0 1
35.816924 1.935627 -22.827535 42.516997 0.053990 2.137559 0.032726 -0.012353 597534.000000 0 0 1
-35.805597 0.625227 -23.476235 42.820150 -0.017460 2.151069 0.053111 -0.004818 -44516.100000 0 0 1
35.409334 -0.284073 -23.670235 42.593211 -0.008022 2.160035 0.027111 -0.004598 6560.000000 0 0 1
36.011984 -1.586973 -23.702135 43.141311 -0.044039 2.152451 0.045717 -0.014440 477884.000000 0 0 1
-22.581704 29.296927 27.027205 45.811713 -0.914123 0.939784 0.022708 -0.012490 -1831430.000000 0 0 1
-23.803404 29.930827 26.806365 46.701581 -0.898940 0.959423 0.019762 -0.018805 56246.100000 0 0 1
-24.456004 29.454227 25.642445 46.078005 -0.877848 0.980628 0.015892 -0.020495 -429532.000000 0 0 1
-24.840904 27.954827 25.492105 45.259146 -0.844310 0.972485 0.019765 -0.013826 -1505940.000000 0 0 1
-26.034784 27.662027 26.132495 46.107537 -0.815693 0.968213 0.037846 -0.010367 -534815.000000 0 0 1
-25.994514 27.374227 27.564315 46.742427 -0.811245 0.940101 0.036213 -0.016025 -749089.000000 0 0 1
-25.337464 25.976227 27.832495 45.731818 -0.797846 0.916498 0.037565 -0.015063 1093860.000000 0 0 1
-23.913704 25.884127 27.997625 45.008002 -0.824946 0.899427 0.038113 -0.014631 678276.000000 0 0 1
-23.487804 26.225527 29.285365 45.793971 -0.840413 0.876945 0.030229 -0.011839 351835.000000 0 0 1
-22.022904 25.880327 29.695205 45.128758 -0.865750 0.852622 0.040756 -0.008261 434301.000000 0 0 1
-20.966104 26.578427 29.009875 44.582094 -0.902898 0.862281 0.045080 -0.017716 599242.000000 0 0 1
-19.772904 26.523627 29.765065 44.502018 -0.930193 0.838139 0.056943 -0.016910 291655.000000 0 0 1
-18.888304 25.235827 29.679535 43.295378 -0.928274 0.815489 0.064599 -0.007698 -11154.000000 0 0 1
-18.210604 24.960827 28.400435 41.967293 -0.940501 0.827487 0.063831 -0.008164 676912.000000 0 0 1
-19.055804 24.361727 27.397725 41.318915 -0.907002 0.845871 0.063954 -0.013147 31029.500000 0 0 1
-19.179304 22.790127 27.506615 40.544413 -0.871221 0.825171 0.060224 -0.007841 383288.000000 0 0 1
-19.920304 22.294027 28.642505 41.403324 -0.841569 0.806828 0.074152 -0.005271 348765.000000 0 0 1
-19.932204 20.847427 28.577355 40.602625 -0.807838 0.790021 0.082537 -0.008042 272637.000000 0 0 1
-20.546904 20.201527 29.821615 41.468128 -0.776923 0.768225 0.095152 -0.017262 253602.000000 0 0 1
-19.583904 20.227127 30.868615 41.779628 -0.801554 0.739443 0.079341 -0.021049 308384.000000 0 0 1
-20.037604 19.691227 32.094265 42.653157 -0.776680 0.719026 0.087950 -0.020449 -38970.900000 0 0 1
-19.153404 20.204327 33.266523 43.378903 -0.812094 0.696827 0.083767 -0.019022 -118103.000000 0 0 1
-19.214104 21.626427 33.373702 44.166594 -0.844397 0.714178 0.054171 -0.021710 916681.000000 0 0 1
-18.180804 22.282127 32.580204 43.456927 -0.886413 0.723169 0.062398 -0.018823 1309660.000000 0 0 1
-16.726604 22.298527 33.173092 43.329639 -0.927217 0.698826 0.041917 -0.001577 556392.000000 0 0 1
-15.967404 21.097327 33.101263 42.376276 -0.922929 0.674327 0.045753 -0.018358 689819.000000 0 0 1
-14.613304 21.423927 33.468665 42.340109 -0.972184 0.659217 0.023866 -0.017351 152092.000000 0 0 1
-13.705004 20.207327 33.386005 41.361680 -0.974838 0.631450 0.016764 -0.020659 -618692.000000 0 0 1
-12.347804 20.296127 33.709491 41.239918 -1.024236 0.613914 0.014271 -0.025004 -219885.000000 0 0 1
-12.061304 20.266827 -33.404465 40.891045 -1.033969 2.526836 0.021934 -0.029687 11615.300000 0 0 1
-10.539304 20.174227 -33.130815 40.196110 -1.089379 2.539636 0.011307 -0.021835 502540.000000 0 0 1
-9.765104 21.369927 -33.220145 40.689176 -1.142173 2.526010 0.018726 -0.022009 -754058.000000 0 0 1
-8.511604 21.143527 -32.684925 39.847214 -1.188082 2.532655 0.007082 -0.012236 -600776.000000 0 0 1
-7.648904 22.457627 -32.594915 40.314752 -1.242527 2.512414 0.014331 -0.013774 121902.000000 0 0 1
-7.930104 23.338827 -31.549795 40.037194 -1.243254 2.478370 0.026123 -0.014418 16341.500000 0 0 1
-7.409804 23.004627 -30.274015 38.738018 -1.259189 2.467873 0.031030 -0.016799 -164188.000000 0 0 1
-7.113004 24.172727 -29.322205 38.661444 -1.284616 2.431705 0.043191 -0.019158 267884.000000 0 0 1
-5.918904 24.849627 -29.687515 39.164856 -1.336965 2.431059 0.046589 -0.012964 95073.000000 0 0 1
-5.757204 25.984827 -28.899535 39.287908 -1.352758 2.397324 0.063070 -0.018514 -52739.000000 0 0 1
-4.512904 26.831327 -29.284395 39.973268 -1.404161 2.392930 0.065316 -0.022599 -172780.000000 0 0 1
-3.332304 26.119427 -28.896705 39.094095 -1.443902 2.402615 0.064591 -0.012982 380583.000000 0 0 1
-2.173504 26.463227 -29.630635 39.786945 -1.488847 2.410930 0.070271 -0.014087 272680.000000 0 0 1
-1.541704 27.838927 -29.314515 40.456439 -1.515473 2.381242 0.074044 -0.021600 -942111.000000 0 0 1
-0.934304 27.926327 -28.043295 39.587612 -1.537353 2.358005 0.080211 -0.033503 988092.000000 0 0 1
0.187496 28.841227 -28.159775 40.309111 1.564295 2.344229 0.085825 -0.026514 215754.000000 0 0 1
0.747796 29.182527 -26.745385 39.591599 1.545177 2.312482 0.088344 -0.037310 233632.000000 0 0 1
1.509496 28.176627 -26.047705 38.401612 1.517275 2.316239 0.101968 -0.045863 223856.000000 0 0 1
2.806896 28.012427 -26.558035 38.702764 1.470928 2.327055 0.088097 -0.042529 -352245.000000 0 0 1
3.982496 28.278527 -25.584835 38.342133 1.430885 2.301344 0.084401 -0.042892 158731.000000 0 0 1
4.342396 27.141927 -24.766535 36.998944 1.412152 2.304177 0.091999 -0.040058 -830014.000000 0 0 1
5.577396 27.380027 -24.218135 36.976902 1.369843 2.284917 0.061582 -0.033762 -1143760.000000 0 0 1
6.108496 26.236327 -23.375535 35.666149 1.342046 2.285506 0.067748 -0.038944 -313531.000000 0 0 1
7.357396 26.494427 -22.807735 35.725043 1.299925 2.263246 0.059221 -0.041732 -433411.000000 0 0 1
8.118796 25.296727 -22.588135 34.872096 1.260239 2.275414 0.050550 -0.025376 -172957.000000 0 0 1
9.567296 25.532627 -22.204535 35.163753 1.212281 2.254232 0.032360 -0.008805 -1284540.000000 0 0 1
9.629496 26.315027 -21.050335 35.047460 1.220000 2.215077 0.047726 -0.005605 352855.000000 0 0 1
10.922596 26.499227 -20.468435 35.220292 1.179830 2.190943 0.065537 -0.015657 1093020.000000 0 0 1
11.742196 25.223027 -19.958435 34.240610 1.135099 2.193075 0.033541 -0.000296 364661.000000 0 0 1
12.247596 24.358327 -21.025435 34.429647 1.104904 2.227713 0.036743 -0.004673 149879.000000 0 0 1
12.106096 23.015627 -20.731635 33.257741 1.086570 2.243832 0.013887 0.008071 -254416.000000 0 0 1
12.332296 22.083327 -21.878735 33.443055 1.061493 2.283932 0.027639 -0.009883 -457833.000000 0 0 1
11.192196 21.928027 -22.664035 33.462847 1.098859 2.314869 0.036563 -0.018977 -162397.000000 0 0 1
11.545196 21.181727 -23.817635 33.900396 1.071758 2.349809 0.026559 -0.028371 169328.000000 0 0 1
10.569596 21.390627 -24.998935 34.557518 1.111862 2.379512 0.040537 -0.028155 1721080.000000 0 0 1
9.230296 20.824927 -24.805535 33.677745 1.153584 2.398760 0.033621 -0.028548 1247280.000000 0 0 1
8.564796 20.521627 -25.987745 34.203155 1.175419 2.433810 0.038924 -0.027858 -855367.000000 0 0 1
7.145896 19.991227 -25.765275 33.385062 1.227499 2.452401 0.046246 -0.030157 459685.000000 0 0 1
6.011796 20.816127 -25.448265 33.422553 1.289642 2.436282 0.069305 -0.029749 710864.000000 0 0 1
6.215196 21.733627 -24.399635 33.261410 1.292259 2.394359 0.071092 -0.035022 -896182.000000 0 0 1
4.881296 22.164127 -23.761535 32.858577 1.354023 2.379142 0.086163 -0.036881 -115893.000000 0 0 1
4.091096 22.999527 -24.543635 33.883703 1.394760 2.380886 0.081111 -0.036340 -398293.000000 0 0 1
2.924396 23.404327 -23.868235 33.556031 1.446489 2.362135 0.097943 -0.031611 -67449.000000 0 0 1
2.126396 24.339327 -24.793435 34.808602 1.483653 2.363536 0.086689 -0.023624 410214.000000 0 0 1
0.729396 24.470227 -24.540335 34.663411 1.540998 2.357403 0.098879 -0.044803 214253.000000 0 0 1
0.111096 25.103727 -25.586635 35.845297 1.566371 2.365716 0.088228 -0.036265 272566.000000 0 0 1
-1.421904 24.861827 -25.716655 35.797745 -1.513666 2.372278 0.107315 -0.038226 353009.000000 0 0 1
-1.692204 23.544327 -26.173225 35.245377 -1.499047 2.407741 0.122427 -0.040954 759909.000000 0 0 1
-2.897704 23.542227 -26.973415 35.919330 -1.448327 2.420287 0.114387 -0.028990 645171.000000 0 0 1
-3.281004 22.202327 -27.559385 35.541919 -1.424081 2.458153 0.084781 -0.026422 -400294.000000 0 0 1
-2.419904 21.790727 -28.588555 36.027728 -1.460198 2.487360 0.093480 -0.030430 -201829.000000 0 0 1
-2.818504 20.607227 -29.233775 35.877784 -1.434867 2.523207 0.067874 -0.022733 1350260.000000 0 0 1
-4.129104 20.599227 -30.189525 36.780226 -1.372969 2.533621 0.048993 -0.016582 1435050.000000 0 0 1
-3.962204 21.160227 -31.513245 38.164628 -1.385692 2.542271 0.033229 -0.011921 -78090.400000 0 0 1
-3.498304 22.517927 -31.615575 38.972294 -1.416672 2.517052 0.045890 -0.013917 171746.000000 0 0 1
-2.927004 22.796527 -33.069875 40.272393 -1.443098 2.534228 0.016767 -0.004897 789414.000000 0 0 1
-1.776004 21.999527 -33.413455 40.044879 -1.490242 2.557840 0.022357 -0.004005 652823.000000 0 0 1
-1.377804 22.155327 33.757526 40.402072 -1.508688 0.581682 0.013488 0.000801 109941.000000 0 0 1
-0.225404 21.199127 33.391245 39.552864 -1.560164 0.565692 0.013110 0.007130 -98919.300000 0 0 1
-0.716104 19.894627 33.136294 38.656474 -1.534817 0.540990 0.005542 0.016854 276410.000000 0 0 1
0.222396 19.182627 32.348065 37.608775 1.559203 0.535291 0.027143 0.006687 50270.700000 0 0 1
-0.286504 17.802627 31.815165 36.458474 -1.554704 0.510212 0.020552 0.007718 325045.000000 0 0 1
-1.270404 17.913127 30.788415 35.642959 -1.499995 0.528031 0.010968 0.011531 278132.000000 0 0 1
-1.656504 16.653227 30.323895 34.635424 -1.471652 0.504292 0.011519 0.007570 -24158.300000 0 0 1
-2.769304 16.645027 29.245675 33.764411 -1.405932 0.523312 0.019242 0.007850 -806636.000000 0 0 1
-4.041204 16.982227 29.655685 34.412018 -1.337175 0.532023 0.002682 0.004942 -801751.000000 0 0 1
-4.472204 18.233827 29.204905 34.718864 -1.330275 0.571330 0.007310 0.008364 -535106.000000 0 0 1
-5.980204 18.487127 29.290445 35.149209 -1.257940 0.585714 -0.016708 0.008883 -236664.000000 0 0 1
-6.723404 17.710027 28.393895 34.133012 -1.207965 0.588345 -0.022483 0.010955 584264.000000 0 0 1
-8.114604 18.067827 28.375345 34.604239 -1.148675 0.609392 -0.037497 0.014796 679401.000000 0 0 1
-9.095404 17.162827 27.592015 33.743270 -1.083478 0.613385 -0.025495 0.005868 -99831.500000 0 0 1
-9.287804 15.839427 28.025615 33.505012 -1.040457 0.580004 -0.015885 -0.006154 140842.000000 0 0 1
-9.941304 15.607827 29.269925 34.628923 -1.003654 0.563773 -0.017139 -0.009531 -319757.000000 0 0 1
-10.345704 14.113127 29.453245 34.259416 -0.938228 0.536090 -0.014315 -0.009376 605589.000000 0 0 1
-9.275804 13.194227 29.760425 33.849831 -0.958046 0.496637 -0.000252 -0.010226 848625.000000 0 0 1
-8.557904 13.253627 30.998625 34.782339 -0.997448 0.470774 -0.003299 -0.007454 90798.600000 0 0 1
-9.370804 12.858427 32.262165 35.972189 -0.941023 0.458168 0.032979 -0.016775 -170468.000000 0 0 1
-9.737904 11.517127 32.319265 35.665191 -0.868912 0.436623 0.031917 -0.016727 280325.000000 0 0 1
-10.139504 11.231727 33.665662 36.909863 -0.836461 0.422407 0.029355 -0.014467 -189087.000000 0 0 1
-10.502504 9.762227 33.957115 36.860403 -0.748884 0.399551 0.030584 -0.011245 -189226.000000 0 0 1
-9.337404 8.960727 34.003186 36.382666 -0.764816 0.363668 0.030837 -0.013482 39033.800000 0 0 1
-9.229004 8.237227 -33.281025 35.505676 -0.728677 2.785723 0.056447 -0.018704 195923.000000 0 0 1
-8.435204 8.973927 -32.093685 34.375698 -0.816333 2.775171 0.045247 -0.018091 185816.000000 0 0 1
-9.118404 10.170927 -31.704765 34.522242 -0.839909 2.734780 0.035625 -0.017306 336559.000000 0 0 1
-8.374104 10.950527 -30.812355 33.755605 -0.917940 2.720902 0.031242 -0.010638 -263747.000000 0 0 1
-7.246004 11.880527 -31.276015 34.232157 -1.023125 2.722957 0.017612 -0.006997 45831.000000 0 0 1
-7.806604 13.038827 -31.815405 35.258674 -1.031319 2.695970 0.018800 -0.008748 271335.000000 0 0 1
-6.845004 13.819027 -32.521365 35.992482 -1.110890 2.698803 0.004302 -0.004359 134269.000000 0 0 1
-7.258504 15.282727 -32.849005 36.950030 -1.127390 2.665978 0.001814 -0.001377 -429674.000000 0 0 1
-8.210704 15.402527 -33.847725 38.083093 -1.081040 2.665486 0.003866 -0.005992 -360919.000000 0 0 1
-8.382704 16.802627 -34.212298 39.026649 -1.108035 2.639629 0.014161 -0.009925 -1398300.000000 0 0 1
-8.824104 16.928127 32.845022 37.989759 -1.090279 0.526491 0.014253 -0.016341 207191.000000 0 0 1
-10.057904 16.339427 32.493896 37.735813 -1.019014 0.533389 -0.007363 -0.016030 439009.000000 0 0 1
-11.215204 16.861727 33.148060 38.844466 -0.983860 0.548412 0.004402 -0.028614 -301859.000000 0 0 1
-12.538704 16.213327 32.661312 38.559725 -0.912513 0.560420 0.018866 -0.036970 23581.500000 0 0 1
-12.449404 14.873327 32.889700 38.182926 -0.873881 0.532832 0.013506 -0.036523 128581.000000 0 0 1
-13.678404 14.176327 32.998627 38.431450 -0.803272 0.538194 0.005786 -0.026694 -342927.000000 0 0 1
-13.774004 12.684027 32.700826 37.682247 -0.744225 0.520029 0.002868 -0.019729 -252811.000000 0 0 1
-13.695504 12.384027 31.324925 36.361819 -0.735153 0.532622 -0.014355 -0.015744 1117.310000 0 0 1
-12.891804 11.246527 31.127135 35.518749 -0.717343 0.502549 0.001765 -0.020306 -174070.000000 0 0 1
-12.712204 10.797827 29.670375 34.037102 -0.704149 0.512122 0.001468 -0.013019 -945259.000000 0 0 1
-13.793704 10.056827 29.273335 33.887080 -0.629983 0.527934 -0.010324 -0.008141 -712871.000000 0 0 1
-13.731204 9.440027 28.023715 32.603507 -0.602279 0.536446 -0.015433 0.001579 705678.000000 0 0 1
-14.734704 8.220227 27.891635 32.597959 -0.508875 0.544039 0.001849 0.003444 924091.000000 0 0 1
-14.141104 7.175127 28.639065 32.736055 -0.469546 0.505675 -0.019524 0.005761 275644.000000 0 0 1
-14.852804 5.961427 28.421245 32.617657 -0.381684 0.512859 -0.008140 0.007875 -108616.000000 0 0 1
-13.994404 4.748327 28.109485 31.757410 -0.327113 0.484020 0.000432 0.009689 -119143.000000 0 0 1
-13.145704 4.767427 26.979445 30.387964 -0.347909 0.478181 0.008645 -0.000173 -88103.000000 0 0 1
-13.806204 4.614927 25.754955 29.584228 -0.322589 0.514450 0.017162 -0.001617 -616548.000000 0 0 1
-12.890104 4.375427 24.552015 28.073129 -0.327237 0.506241 0.015349 0.001475 -741852.000000 0 0 1
-12.023804 3.312427 24.775485 27.737496 -0.268821 0.466356 0.013334 -0.004676 -245520.000000 0 0 1
-11.471304 2.836027 23.578365 26.373721 -0.242368 0.464580 0.020841 -0.007570 -232215.000000 0 0 1
-10.584804 1.586827 23.625965 25.937276 -0.148807 0.425364 0.022825 -0.015199 -337362.000000 0 0 1
-9.257704 1.913927 23.962705 25.760035 -0.203867 0.375763 0.019768 -0.018803 -182752.000000 0 0 1
-8.501104 0.768327 24.232445 25.691837 -0.090135 0.338673 0.011455 -0.015004 -292667.000000 0 0 1
-7.007804 1.052927 24.488635 25.493356 -0.149135 0.281683 0.029896 -0.017086 -450777.000000 0 0 1
-6.415704 1.347727 23.263845 24.169901 -0.207056 0.274676 0.028792 -0.013018 -321742.000000 0 1 0
-5.011704 1.457827 23.219345 23.798748 -0.283073 0.221113 0.028486 -0.008587 71589.900000 0 1 0
-4.354104 2.786127 23.674465 24.232231 -0.569232 0.214971 0.038857 -0.009793 -425250.000000 0 1 0
-4.412504 2.967827 25.067565 25.625398 -0.592095 0.209037 0.045788 -0.009128 104756.000000 0 0 1
-3.920304 4.251027 25.417835 26.067343 -0.825850 0.223699 0.045995 -0.014567 133765.000000 0 0 1
3.787396 -23.675173 12.834365 27.195204 -1.412167 1.079312 0.087317 -0.016137 174603.000000 0 0 1
3.743596 -24.938173 13.493365 28.600663 -1.421794 1.079482 0.093172 -0.025039 -101056.000000 0 0 1
2.482996 -25.544003 13.297565 28.904785 -1.473896 1.092748 0.075346 -0.022499 90790.600000 0 0 1
2.215996 -26.788463 14.170165 30.386279 -1.488262 1.085654 0.065736 -0.009879 -139673.000000 0 0 1
1.913396 -26.419963 15.511565 30.696648 -1.498500 1.041046 0.076263 -0.013090 126763.000000 0 0 1
1.828096 -27.593143 16.308165 32.104201 -1.504641 1.037963 0.072616 -0.008850 -159641.000000 0 0 1
1.446096 -27.286783 17.840865 32.633667 -1.517850 0.992377 0.038313 -0.003386 -133749.000000 0 0 1
2.488696 -26.648303 18.509965 32.541427 -1.477676 0.965735 0.069707 -0.024800 -93264.900000 0 0 1
2.549996 -27.169053 19.831565 33.733528 -1.477214 0.942350 0.057856 -0.022922 396614.000000 0 0 1
3.445996 -26.341343 20.773165 33.723369 -1.440714 0.907158 0.070291 -0.023266 157613.000000 0 0 1
2.613396 -25.255613 21.151065 33.046080 -1.467685 0.876236 0.055765 -0.015696 25834.900000 0 0 1
3.225496 -24.321073 21.937965 32.911894 -1.438944 0.841203 0.069421 -0.027419 -337237.000000 0 0 1
2.325396 -23.161873 22.496365 32.372307 -1.470734 0.802479 0.074089 -0.029027 16577.100000 0 0 1
1.774396 -22.168373 21.669465 31.050781 -1.490925 0.798375 0.055824 -0.023594 -241559.000000 0 0 1
2.648296 -21.478673 20.827965 30.035829 -1.448117 0.804548 0.044465 -0.014690 -432459.000000 0 0 1
1.899096 -20.412473 20.015865 28.651535 -1.478027 0.797362 0.026699 -0.017754 509.610000 0 0 1
1.660196 -19.379273 20.899165 28.549739 -1.485336 0.749505 0.023236 -0.019750 -247623.000000 0 0 1
0.813396 -18.500773 20.206165 27.408563 -1.526859 0.741848 0.028822 -0.019829 -390074.000000 0 0 1
0.629296 -17.143273 20.843865 26.995454 -1.534105 0.688618 0.022555 -0.025176 237174.000000 0 0 1
1.824096 -16.404373 21.038765 26.740614 -1.460056 0.665235 0.005409 -0.005627 -46007.200000 0 0 1
1.480596 -15.143373 21.444565 26.294168 -1.473334 0.617094 0.009796 -0.004829 -158850.000000 0 0 1
2.519896 -14.082373 21.114265 25.504417 -1.393731 0.595502 -0.003094 -0.006690 -777830.000000 0 0 1
2.946296 -13.734573 19.810365 24.285175 -1.359482 0.616791 -0.015507 0.004770 880739.000000 0 1 0
1.910496 -13.297473 18.843665 23.142094 -1.428099 0.619344 -0.006281 0.009468 1220660.000000 0 1 0
1.125196 -11.997373 19.224265 22.688662 -1.477283 0.559902 -0.003562 0.001166 -15993.600000 0 1 0
1.868796 -10.782973 19.096165 22.009735 -1.399191 0.520394 -0.005411 0.002812 -6867.880000 0 1 0
1.462296 -9.764573 20.027265 22.328828 -1.422146 0.458033 -0.002525 -0.006082 -906336.000000 0 1 0
0.063996 -9.220073 19.976665 22.001841 -1.563855 0.432420 0.014435 -0.011181 -845701.000000 0 1 0
-0.250904 -8.277973 20.989865 22.564623 1.540496 0.375809 0.007949 -0.016773 148010.000000 0 1 0
-1.629304 -7.909273 20.988465 22.488373 1.367639 0.367293 0.018331 -0.015237 151577.000000 0 1 0
-1.951404 -7.333773 22.336365 23.590367 1.310737 0.327521 0.014852 -0.013014 -408369.000000 0 1 0
-1.874404 -8.248673 23.405165 24.886859 1.347354 0.346807 0.018580 -0.007551 92163.400000 0 1 0
-1.943504 -7.603873 24.625765 25.846168 1.320560 0.308526 0.012829 0.004696 -158251.000000 0 0 1
-2.021004 -8.545173 25.808365 27.261257 1.338556 0.327949 0.021354 -0.000919 -16336.900000 0 0 1
-0.853404 -9.288473 26.050665 27.670222 1.479176 0.343833 0.022646 -0.001618 -98989.400000 0 0 1
-1.189604 -10.250773 27.012565 28.916642 1.455263 0.364918 0.035994 -0.010312 -180436.000000 0 0 1
-0.089604 -11.296173 27.246065 29.495078 1.562864 0.393039 0.041236 -0.012011 -8722.340000 0 0 1
0.954596 -10.750173 28.044765 30.049731 -1.482230 0.367361 0.022181 -0.011200 187358.000000 0 0 1
1.834496 -11.744873 28.553465 30.929077 -1.415853 0.394493 0.030413 -0.019736 98758.500000 0 0 1
2.872496 -11.319373 29.601965 31.822253 -1.322274 0.375761 0.030210 -0.021483 132659.000000 0 0 1
2.327896 -11.144273 30.906165 32.936378 -1.364870 0.352943 0.030979 -0.015133 327747.000000 0 0 1
3.138996 -10.214773 31.638565 33.394516 -1.272656 0.325728 0.038844 -0.021085 203545.000000 0 0 1
2.710696 -10.244573 33.127265 34.780955 -1.312126 0.309604 0.028193 -0.017451 -236170.000000 0 0 1
3.156096 -11.447173 33.723865 35.753291 -1.301770 0.338547 0.023236 -0.021473 -13593.700000 0 0 1
2.914696 -11.558373 -33.359715 35.425443 -1.323775 2.798408 0.015877 -0.020008 -248393.000000 0 0 1
3.524396 -10.487073 -32.375215 34.213369 -1.246584 2.812308 0.007182 -0.013003 95094.300000 0 0 1
2.815496 -9.260673 -32.494415 33.905370 -1.275649 2.852088 0.022279 -0.014923 320784.000000 0 0 1
3.103596 -8.382073 -31.426615 32.672980 -1.216183 2.864495 0.018973 -0.012292 -271023.000000 0 0 1
2.416296 -6.999273 -31.452515 32.312366 -1.238385 2.910381 -0.001186 -0.015934 -131610.000000 0 0 1
2.865396 -6.153573 -32.480115 33.181845 -1.135006 2.935569 0.034769 -0.014603 136333.000000 0 0 1
2.935296 -4.837473 -31.918315 32.415983 -1.025404 2.966139 0.021556 -0.005563 -146922.000000 0 0 1
3.244396 -3.786673 -33.014715 33.389166 -0.862372 2.991688 0.023049 0.000707 -498870.000000 0 0 1
2.157196 -3.671273 -33.881315 34.147844 -1.039553 3.016570 0.027210 -0.008208 -237075.000000 0 0 1
2.379596 -2.628973 33.711565 33.897546 -0.835147 0.104801 0.042975 -0.007127 329608.000000 0 0 1
1.636696 -2.993873 32.357965 32.537362 -1.070504 0.105059 0.041399 -0.012595 665514.000000 0 0 1
0.222796 -3.073173 32.469065 32.614939 -1.498426 0.094614 0.037473 -0.015332 -109065.000000 0 0 1
-0.184004 -3.683073 31.244865 31.461730 1.520879 0.117481 0.024007 -0.001788 -1449870.000000 0 0 1
-1.660704 -3.763773 31.052565 31.323884 1.155256 0.131714 0.030065 -0.011247 -1467380.000000 0 0 1
-2.213304 -2.522173 30.598965 30.782409 0.850531 0.109227 0.037938 -0.009073 -1069150.000000 0 0 1
-3.543404 -2.836373 30.394865 30.731882 0.675025 0.148233 0.018795 -0.005916 -662387.000000 0 0 1
-4.438804 -1.769673 29.668465 30.050833 0.379370 0.159694 0.018146 -0.014638 320250.000000 0 0 1
-4.031904 -1.501673 28.296165 28.621395 0.356531 0.150896 0.024040 -0.008220 138919.000000 0 0 1
-5.040104 -0.775073 27.583365 28.050765 0.152586 0.182807 0.018487 -0.007167 489292.000000 0 0 1
-5.297104 0.701327 27.949565 28.455744 -0.131633 0.188898 0.031045 -0.009180 166479.000000 0 0 1
-6.296804 0.907227 28.935365 29.626477 -0.143093 0.216420 0.028017 -0.005907 -132146.000000 0 0 1
-6.609304 2.310827 28.920865 29.756331 -0.336347 0.237526 0.031436 -0.007463 185831.000000 0 0 1
-8.030604 2.618727 29.529365 30.713706 -0.315221 0.278607 0.019090 -0.008766 263946.000000 0 0 1
-8.958704 2.133227 28.625965 30.070831 -0.233765 0.311251 0.004608 -0.001725 -955565.000000 0 0 1
-10.279604 2.480727 28.916965 30.789854 -0.236798 0.350585 -0.003725 0.002547 -569713.000000 0 0 1
-11.291004 1.742327 28.049565 30.286970 -0.153103 0.386785 0.006374 0.007571 -381681.000000 0 0 1
-11.477104 0.412427 28.513765 30.739694 -0.035919 0.382893 0.014328 0.006609 93058.600000 0 0 1
-11.887004 -0.431173 27.445565 29.912302 0.036257 0.408961 0.018612 0.006239 -908604.000000 0 0 1
-11.879204 -1.928173 27.765965 30.261893 0.160912 0.408991 0.032098 0.000554 -17634.600000 0 0 1
-10.628304 -2.536573 28.000965 30.057430 0.234280 0.372055 0.030747 -0.006071 499552.000000 0 0 1
-9.537504 -2.410973 27.092565 28.823321 0.247602 0.348304 0.029785 -0.010585 -269353.000000 0 0 1
-9.618104 -3.016373 25.688865 27.595728 0.303900 0.373927 0.027279 -0.012221 -803480.000000 0 0 1
-10.498904 -2.398473 24.788565 27.026887 0.224596 0.409847 0.021395 -0.007565 261728.000000 0 0 1
-10.335104 -3.013573 23.493165 25.842306 0.283720 0.429685 0.023947 -0.012107 392463.000000 0 0 1
-9.165004 -2.459173 22.595865 24.507508 0.262147 0.397588 0.017099 -0.011004 544448.000000 0 1 0
-7.902604 -2.814773 23.105465 24.581225 0.342172 0.348272 0.013657 -0.012485 131796.000000 0 1 0
-6.859704 -2.176573 22.333165 23.464085 0.307250 0.311737 0.007173 -0.011140 831425.000000 0 1 0
-5.404804 -2.421773 22.816865 23.572998 0.421254 0.253965 0.007643 -0.010972 337770.000000 0 1 0
-4.875504 -3.703873 22.534965 23.351956 0.649674 0.265300 0.014870 -0.018008 -286253.000000 0 1 0
-5.278804 -4.688673 23.473765 24.512590 0.726262 0.292171 0.019494 -0.013399 -156278.000000 0 1 0
-5.300204 -6.138573 22.902265 24.295843 0.858559 0.340340 0.028375 -0.015247 -371372.000000 0 1 0
-6.320604 -6.501873 22.002765 23.798026 0.799534 0.390910 0.031282 -0.020541 -98153.200000 0 1 0
-6.043704 -6.071273 20.669565 22.374486 0.787674 0.392905 0.034447 -0.023882 -888663.000000 0 1 0
-7.252804 -6.076973 19.760965 21.909553 0.697415 0.446570 0.026489 -0.019550 -1037040.000000 0 1 0
-8.104504 -5.041173 20.098365 22.249510 0.556454 0.443356 0.024323 -0.020240 -330694.000000 0 1 0
-9.146304 -4.895373 19.127565 21.759671 0.491433 0.496957 0.029292 -0.014664 413366.000000 0 1 0
-9.843804 -3.544173 19.207865 21.872442 0.345592 0.498760 0.019048 -0.017134 75638.700000 0 1 0
-9.014104 -2.541173 18.638965 20.859594 0.274780 0.465619 0.016378 -0.024894 240643.000000 0 1 0
-9.473404 -1.232273 18.876665 21.156379 0.129351 0.468504 0.011556 -0.011460 -183560.000000 0 1 0
-8.437204 -0.177073 18.291365 20.144275 0.020984 0.432268 0.003517 -0.013631 895418.000000 0 1 0
-7.201404 -0.057073 19.005865 20.324527 0.007925 0.362200 0.007099 -0.010114 651833.000000 0 1 0
-7.332304 0.536927 20.299865 21.590171 -0.073097 0.347472 0.010836 -0.009849 -586925.000000 0 1 0
-7.484504 2.064927 20.269965 21.706064 -0.269197 0.365797 0.015534 -0.011495 -120824.000000 0 1 0
-8.512104 2.476127 19.381865 21.312996 -0.283083 0.428977 0.008748 -0.015103 209668.000000 0 1 0
-8.574204 3.897727 19.293865 21.470037 -0.426662 0.454134 0.012991 -0.010732 78966.900000 0 1 0
-9.311704 4.429227 18.062865 20.798869 -0.443989 0.518721 0.006572 -0.006780 -252372.000000 0 1 0
-10.703604 4.586627 18.216265 21.620282 -0.404842 0.568788 0.012396 -0.003091 -7373.420000 0 1 0
-11.334204 5.114927 17.055365 21.107158 -0.423920 0.629984 0.010077 0.003046 137165.000000 0 1 0
-11.441304 6.638927 17.072565 21.597483 -0.525778 0.659190 0.013147 0.008025 -795940.000000 0 1 0
-10.219204 7.269927 16.789565 20.956466 -0.618335 0.641559 0.007560 0.001674 -171354.000000 0 1 0
-10.372104 8.637427 16.608465 21.401560 -0.694397 0.682434 0.003537 -0.005738 -935516.000000 0 1 0
-9.096704 9.425227 16.554265 21.109917 -0.803133 0.669401 0.002630 -0.006379 -702754.000000 0 1 0
-8.524604 9.637727 17.896565 22.041817 -0.846609 0.623334 0.013385 0.004952 76789.600000 0 1 0
-7.793904 10.854327 17.989465 22.409422 -0.948061 0.638881 0.021493 0.001917 48435.600000 0 1 0
-8.496804 12.207727 17.626265 23.063163 -0.962748 0.700902 0.025256 0.003497 -62357.800000 0 1 0
-8.403904 12.537027 16.218665 22.155084 -0.980264 0.749468 0.018455 -0.006947 55304.400000 0 1 0
-9.192904 13.668027 15.874965 22.876603 -0.978708 0.803851 0.028192 -0.016041 -300666.000000 0 1 0
-8.951604 14.212527 14.456265 22.161018 -1.008725 0.860144 0.015725 -0.014445 288661.000000 0 1 0
-7.813804 15.060027 14.546965 22.348918 -1.092187 0.862024 0.020027 -0.001338 93406.000000 0 1 0
-7.580704 15.614027 13.283065 21.856457 -1.118811 0.917583 0.004070 -0.007634 23749.400000 0 1 0
-6.630204 16.868327 13.314565 22.489502 -1.196290 0.937215 -0.004531 0.000768 424188.000000 0 1 0
-5.299804 16.463527 13.546765 21.969308 -1.259360 0.906351 0.004554 -0.002292 -521684.000000 0 1 0
-4.407004 17.533527 13.645765 22.650676 -1.324550 0.924237 0.005977 -0.003046 384586.000000 0 1 0
-2.873204 17.282227 13.620065 22.190918 -1.406051 0.909972 0.020306 -0.008475 527274.000000 0 1 0
-2.234404 16.639627 14.700265 22.315186 -1.437313 0.851632 0.027308 -0.011860 -131527.000000 0 1 0
-2.708304 15.329727 14.996865 21.615767 -1.395931 0.804054 0.015809 -0.007061 -725728.000000 0 1 0
-1.776904 14.688227 16.017065 21.804765 -1.450407 0.745768 0.015389 -0.000807 -149841.000000 0 1 0
-0.520004 14.412227 15.389565 21.090789 -1.534731 0.752940 0.019616 -0.011724 -419521.000000 0 1 0
0.418296 13.937427 16.294065 21.445825 1.540793 0.707825 0.017141 -0.003660 -205399.000000 0 1 0
1.341996 15.030527 16.837965 22.610501 1.481748 0.730716 0.013850 -0.008718 -869907.000000 0 1 0
0.714596 15.858827 17.699365 23.775629 1.525767 0.731111 0.008150 -0.006619 -373492.000000 0 1 0
1.666796 16.709327 18.348665 24.872742 1.471373 0.741137 0.025162 -0.003797 119611.000000 0 1 0
0.986996 17.971027 18.921865 26.114535 1.515930 0.760383 0.027509 -0.007237 190494.000000 0 0 1
0.406596 18.784427 17.945765 25.982119 1.549154 0.808344 0.021036 -0.004643 1002000.000000 0 0 1
-0.920404 18.393927 17.507765 25.410736 -1.520800 0.810701 0.019342 -0.002315 750239.000000 0 0 1
-1.751004 19.419827 16.655165 25.643522 -1.480874 0.863885 0.025497 -0.003690 65961.000000 0 0 1
-2.190304 20.513427 17.446665 27.018220 -1.464425 0.868808 0.018362 -0.006768 -201520.000000 0 0 1
-2.884104 21.444727 16.658765 27.307669 -1.437108 0.914686 0.033816 -0.011509 -439336.000000 0 0 1
-3.402004 22.585627 17.533865 28.794454 -1.421293 0.916083 0.030104 -0.009493 -62821.300000 0 0 1
-4.431004 22.147927 18.409365 29.138792 -1.373339 0.886946 0.032720 -0.011640 -110146.000000 0 0 1
-4.847304 23.165827 19.260465 30.514216 -1.364529 0.887702 0.028016 0.002446 -615708.000000 0 0 1
-6.070604 22.851227 20.076165 31.017466 -1.311136 0.866820 0.011881 -0.000949 -991009.000000 0 0 1
-7.298604 22.774027 19.405865 30.797946 -1.260659 0.889111 0.013674 -0.005093 -677655.000000 0 0 1
-8.221804 22.238127 20.345065 31.241863 -1.216666 0.861616 -0.001940 -0.012090 644235.000000 0 0 1
-9.665504 22.633027 19.849565 31.617734 -1.167188 0.892075 0.005769 -0.013678 569318.000000 0 0 1
-10.020904 24.028027 20.023165 32.843443 -1.175678 0.915171 0.022271 -0.017353 304630.000000 0 0 1
-11.150904 24.423327 19.244965 33.033471 -1.142494 0.948885 0.016498 -0.015851 334575.000000 0 0 1
-11.563604 25.846827 19.543265 34.405154 -1.150115 0.966682 0.024619 -0.015716 255806.000000 0 0 1
-12.225904 25.951027 20.811865 35.440968 -1.130523 0.943169 0.021216 -0.017402 -23286.300000 0 0 1
-13.032004 27.079327 20.947465 36.632217 -1.122259 0.962059 0.036627 -0.024651 -334935.000000 0 0 1
-13.833404 27.012327 22.290665 37.655047 -1.097504 0.937295 0.052128 -0.036866 -600062.000000 0 0 1
-15.116604 26.487827 22.197765 37.720783 -1.052200 0.941624 0.038915 -0.040657 -626468.000000 0 0 1
-15.861504 26.743127 23.351565 38.885443 -1.035462 0.926643 0.028846 -0.032327 287922.000000 0 0 1
-17.339004 26.277627 23.366365 39.206399 -0.987535 0.932307 0.043642 -0.035718 -17283.600000 0 0 1
-17.545704 24.913727 23.467165 38.461063 -0.957218 0.914542 0.050619 -0.035967 -1011470.000000 0 0 1
-18.881804 24.585227 23.367265 38.819904 -0.915865 0.924868 0.060023 -0.029488 -1094000.000000 0 0 1
27.193696 24.204227 23.431525 43.294088 0.727300 0.998912 0.082754 -0.030303 42320.700000 0 0 1
27.034496 23.535727 24.689685 43.524418 0.716322 0.967621 0.081101 -0.034308 40304.900000 0 0 1
27.053696 22.099527 24.545345 42.693858 0.684947 0.958296 0.079250 -0.027345 -80036.000000 0 0 1
26.516896 21.327327 25.804325 42.706719 0.677353 0.922008 0.081821 -0.028790 -441291.000000 0 0 1
25.190096 21.485727 26.190375 42.215082 0.706200 0.901540 0.085789 -0.021342 -499129.000000 0 0 1
24.919596 20.868427 27.432185 42.532368 0.697151 0.869810 0.079613 -0.021362 166939.000000 0 0 1
23.459996 21.134127 27.877415 42.120933 0.733289 0.847523 0.086870 -0.021015 75067.500000 0 0 1
23.399696 22.356427 28.549955 43.156176 0.762601 0.847913 0.092643 -0.025397 1009.570000 0 0 1
22.204196 22.404027 29.291165 43.045779 0.789878 0.822399 0.113018 -0.025546 -177458.000000 0 0 1
21.999796 23.736727 30.031055 44.150736 0.823357 0.822769 0.100243 -0.031784 -138066.000000 0 0 1
21.472196 24.776727 29.180655 43.891366 0.856728 0.843519 0.086704 -0.033746 211806.000000 0 0 1
21.030496 26.009827 29.758215 44.769903 0.890858 0.843714 0.081830 -0.037421 24486.600000 0 0 1
19.635096 25.936427 30.397015 44.522059 0.922800 0.819289 0.079247 -0.033941 -457525.000000 0 0 1
18.498296 26.205227 29.528585 43.598603 0.956121 0.826733 0.083726 -0.039137 926758.000000 0 0 1
17.474896 26.863727 30.253855 44.071845 0.994069 0.814177 0.062662 -0.033793 318851.000000 0 0 1
16.534196 25.946127 31.097335 43.745004 1.003436 0.780051 0.039318 -0.007467 -610354.000000 0 0 1
17.220196 25.271927 32.099605 44.334976 0.972666 0.761177 0.041709 -0.018184 -338498.000000 0 0 1
16.346596 24.321427 32.630913 43.857947 0.979037 0.731739 0.028603 -0.016029 76787.900000 0 0 1
16.724596 23.921127 34.067138 44.860922 0.960637 0.708414 0.038543 -0.009907 -210912.000000 0 0 1
17.006596 25.035527 -33.583225 45.208792 0.974100 2.408110 0.041990 -0.018887 4200.040000 0 0 1
17.455496 24.513527 -32.379575 44.204572 0.952011 2.392774 0.023936 -0.005749 -89573.300000 0 0 1
17.979396 25.730527 -31.504265 44.472884 0.960905 2.358015 0.029991 0.009340 920658.000000 0 0 1
16.896696 26.553327 -30.985595 44.166555 1.004091 2.348384 0.039327 -0.016769 1153620.000000 0 0 1
17.431496 27.778327 -30.476395 44.769444 1.010386 2.319570 0.052961 -0.015901 591620.000000 0 0 1
16.596996 28.274827 -29.213615 43.913112 1.039999 2.298638 0.055470 -0.005477 386926.000000 0 0 1
16.862396 27.450827 -28.036625 42.707618 1.019946 2.286937 0.040301 0.005175 274067.000000 0 0 1
16.605196 28.149827 -26.846965 42.295447 1.037847 2.258479 0.029823 0.011367 -288512.000000 0 0 1
17.092896 27.332227 -25.625415 41.181059 1.011927 2.242426 0.026427 0.014626 -566959.000000 0 0 1
18.486996 27.442327 -25.559525 41.810760 0.977963 2.228517 0.043720 0.013509 -657016.000000 0 0 1
19.020996 26.770127 -24.420835 40.924506 0.953038 2.210215 0.038371 0.011474 456314.000000 0 0 1
20.568296 26.825427 -24.364335 41.668683 0.916663 2.195326 0.024967 0.010889 80241.900000 0 0 1
21.170896 26.090027 -23.380535 40.933431 0.889109 2.178744 0.032577 0.010632 -1162810.000000 0 0 1
22.545996 26.088527 -23.576535 41.770638 0.858110 2.170537 0.034006 0.009417 -445384.000000 0 0 1
23.404896 26.060127 -22.277535 41.511540 0.839026 2.137269 0.044534 0.003643 213071.000000 0 0 1
23.178496 24.849427 -21.595535 40.262934 0.820175 2.136918 0.053370 0.003418 164774.000000 0 0 1
23.700496 24.930927 -20.278135 39.930783 0.810694 2.103463 0.049829 -0.000619 -310762.000000 0 0 1
23.159396 23.796227 -19.345835 38.430188 0.798960 2.098328 0.048100 -0.007601 -572727.000000 0 0 1
23.726496 22.511227 -19.547935 38.102805 0.759121 2.109509 0.048971 -0.002854 228305.000000 0 0 1
23.371296 21.593427 -18.501135 36.807412 0.745880 2.097454 0.047972 -0.005881 -879848.000000 0 0 1
23.649096 20.121827 -18.941235 36.372215 0.704987 2.118539 0.063509 -0.010097 -130617.000000 0 0 1
22.787296 19.648327 -19.929735 36.090330 0.711562 2.155819 0.058869 -0.013663 -400978.000000 0 0 1
21.426096 19.658527 -19.604835 35.069714 0.742402 2.164005 0.050416 -0.016053 -1202220.000000 0 0 1
20.462896 19.504027 -20.776735 35.082900 0.761411 2.204605 0.045991 -0.008606 -131181.000000 0 0 1
20.712596 20.341827 -21.907535 36.369515 0.776367 2.217250 0.046127 -0.006042 -121048.000000 0 0 1
20.723996 21.777427 -21.702435 37.077433 0.810179 2.196080 0.043943 -0.003529 27187.100000 0 0 1
20.314696 22.466227 -23.049235 38.061601 0.835648 2.221287 0.051416 0.002171 -150602.000000 0 0 1
18.978696 22.171427 -23.339035 37.369421 0.862830 2.245350 0.055492 -0.004314 -574192.000000 0 0 1
18.640496 22.558827 -24.672835 38.276854 0.880220 2.271282 0.044311 0.002215 218029.000000 0 0 1
17.116796 22.762627 -24.862235 37.805458 0.926036 2.288473 0.039856 -0.008269 -57065.400000 0 0 1
16.626696 23.837027 -24.069435 37.735773 0.961740 2.262488 0.027769 -0.004236 81655.300000 0 0 1
15.221196 23.730627 -24.254835 37.190382 1.000479 2.281253 0.025022 -0.008724 43935.300000 0 0 1
14.455596 24.765027 -23.443435 37.038702 1.042441 2.256147 0.012610 -0.006834 -138145.000000 0 0 1
14.716796 26.125127 -23.867235 38.324291 1.057784 2.243075 -0.000365 0.003497 -140462.000000 0 0 1
13.602496 26.905527 -23.523335 38.239803 1.102707 2.233377 0.008265 0.001986 -115455.000000 0 0 1
13.648196 28.289627 -24.084935 39.581060 1.121291 2.224961 0.004265 -0.001658 19843.300000 0 0 1
13.440996 28.244927 -25.497145 40.355181 1.126636 2.254693 0.015137 -0.009643 -284097.000000 0 0 1
12.816696 29.380627 -26.071455 41.318394 1.159453 2.253624 0.029392 -0.010972 -535212.000000 0 0 1
13.481496 30.760827 -26.032275 42.493041 1.157741 2.230173 0.054637 -0.007861 305960.000000 0 0 1
14.681096 30.799827 -26.816325 43.396765 1.125993 2.236908 0.041211 0.001620 229376.000000 0 0 1
15.206096 32.066127 -26.970035 44.574035 1.127992 2.220639 0.045365 -0.000498 -523968.000000 0 0 1
16.665196 32.150127 -27.394265 45.407105 1.092572 2.218433 0.039732 0.016164 -408800.000000 0 0 1
17.645596 31.682427 -26.482165 44.904881 1.062631 2.201532 0.013928 0.019815 -117172.000000 0 0 1
18.898196 31.777627 -27.106445 45.844506 1.034282 2.203428 0.030727 0.019463 -747734.000000 0 0 1
19.959096 30.900727 -26.413785 45.286957 0.997302 2.193525 0.011168 0.024307 -261258.000000 0 0 1
20.547196 31.297127 -25.187915 45.123480 0.989851 2.163011 0.024774 0.018712 -113996.000000 0 0 1
21.400496 32.390027 -25.177555 46.270988 0.986927 2.146151 0.031584 0.008134 89594.200000 0 0 1
22.919996 32.133527 -25.457825 46.967974 0.951217 2.143641 0.024977 0.016922 395691.000000 0 0 1
23.114296 31.570027 -26.768075 47.407458 0.938811 2.170791 0.027785 0.020643 407509.000000 0 0 1
24.138496 32.189627 -27.556935 48.767035 0.927369 2.171318 0.021220 0.027926 -542645.000000 0 0 1
24.188396 31.755527 -28.994345 49.337248 0.919845 2.198981 0.018171 0.027185 -218806.000000 0 0 1
23.103496 32.145227 -29.792695 49.544847 0.947615 2.215958 0.033189 0.011335 82905.900000 0 0 1
21.924496 31.373427 -29.644675 48.412624 0.960860 2.229805 0.024468 0.015132 26723.300000 0 0 1
20.763996 31.747827 -30.639895 48.763421 0.991594 2.250211 0.025818 0.009337 41434.700000 0 0 1
20.263496 33.033427 -30.138225 49.093066 1.020565 2.231788 0.043293 0.011709 583171.000000 0 0 1
19.395496 33.661527 -31.133275 49.785183 1.048067 2.246379 0.048429 -0.001230 1380020.000000 0 0 1
17.876196 33.288527 -30.903365 48.812932 1.077983 2.256345 0.052013 -0.004133 536840.000000 0 0 1
17.296196 31.995227 -31.161615 47.894668 1.075209 2.279208 0.054199 -0.009558 352956.000000 0 0 1
17.521896 31.343227 -32.412335 48.373280 1.061044 2.305067 0.054692 -0.018297 -657723.000000 0 0 1
16.987396 32.006927 -33.685975 49.474841 1.082859 2.319747 0.060231 -0.026238 -339008.000000 0 0 1
17.753296 33.127227 -34.165006 50.792128 1.078833 2.308572 0.056598 -0.016688 164267.000000 0 0 1
17.367196 33.822527 33.108520 50.415840 1.096423 0.854350 0.044025 -0.026593 -726052.000000 0 0 1
15.959696 -34.203519 33.114217 50.210995 -1.134216 0.850641 0.041851 -0.023718 -521888.000000 0 0 1
14.983696 33.457227 32.759500 49.163828 1.149735 0.841516 0.048150 -0.026605 856796.000000 0 0 1
13.624896 33.919027 32.564049 48.954627 1.188835 0.843050 0.046282 -0.023551 1360240.000000 0 0 1
13.268896 -34.144319 31.135015 48.075850 -1.200145 0.866336 0.041825 -0.023825 -735508.000000 0 0 1
13.814396 -32.876119 30.900545 47.186020 -1.173002 0.856790 0.042314 -0.014400 132342.000000 0 0 1
13.391696 -32.285119 29.724805 45.882791 -1.177601 0.866048 0.040218 -0.017059 -238851.000000 0 0 1
13.875696 -30.860119 29.407925 44.829767 -1.148248 0.855301 0.032101 -0.011653 -168704.000000 0 0 1
13.524796 -30.026019 30.444825 44.848292 -1.147580 0.824614 0.032036 -0.011318 381404.000000 0 0 1
14.049796 -28.711119 30.193065 43.969834 -1.115705 0.813889 0.037114 -0.018297 -283837.000000 0 0 1
13.563196 -27.620019 31.216125 43.832319 -1.114323 0.778210 0.043814 -0.014528 399142.000000 0 0 1
12.149696 -27.399519 31.283885 43.324707 -1.153422 0.763993 0.052506 -0.014114 620765.000000 0 0 1
11.684996 -26.509919 30.284415 41.910151 -1.155638 0.763235 0.043966 -0.012116 -424419.000000 0 0 1
11.960396 -24.991619 30.540615 41.235437 -1.124434 0.736774 0.048567 -0.010954 -423913.000000 0 0 1
11.225896 -24.585719 31.666705 41.632422 -1.142465 0.706519 0.043778 -0.020390 -110686.000000 0 0 1
11.459796 -23.269919 32.178375 41.331149 -1.113189 0.678444 0.052501 -0.023077 130853.000000 0 0 1
10.541696 -22.697519 33.330508 41.680061 -1.135997 0.644042 0.060046 -0.022107 33687.700000 0 0 1
10.535796 -23.340719 -33.883075 42.471814 -1.146786 2.494397 0.062925 -0.018677 -55648.000000 0 0 1
11.765796 -23.529519 -33.222605 42.377042 -1.107113 2.471842 0.057016 -0.015138 -12350.100000 0 0 1
12.283096 -22.353019 -32.352735 41.197468 -1.068333 2.473991 0.060442 -0.019898 -71860.100000 0 0 1
12.855996 -21.355319 -33.148195 41.474440 -1.028904 2.496833 0.055325 -0.017631 117278.000000 0 0 1
13.670396 -20.415019 -32.455275 40.706236 -0.980749 2.493613 0.052408 -0.018266 17730.000000 0 0 1
14.097496 -19.293519 -33.447285 41.105963 -0.939771 2.521259 0.039410 -0.013406 -444423.000000 0 0 1
14.771996 -19.706719 33.882039 41.887459 -0.927556 0.628547 0.051720 -0.004524 237072.000000 0 0 1
14.496696 -18.854219 32.792067 40.508708 -0.915319 0.627485 0.037464 0.000412 -285691.000000 0 0 1
15.249596 -17.517619 32.690014 40.100551 -0.854504 0.617720 0.048648 -0.003772 -515748.000000 0 0 1
15.176896 -16.601319 33.768326 40.573906 -0.830192 0.587612 0.038550 -0.002194 183610.000000 0 0 1
15.857296 -15.372619 33.539969 40.158446 -0.769880 0.582317 0.064621 -0.005134 392759.000000 0 0 1
17.333996 -15.388619 34.064383 41.202660 -0.726018 0.597487 0.076411 0.000546 243966.000000 0 0 1
18.107196 -16.092419 33.110793 41.026347 -0.726554 0.631638 0.074516 0.002864 4170.260000 0 0 1
19.468096 -16.090219 33.534446 41.981675 -0.690687 0.645519 0.073613 0.003600 443980.000000 0 0 1
20.392896 -16.691319 32.427054 41.784976 -0.685912 0.682425 0.081246 -0.005098 -160298.000000 0 0 1
20.547696 -15.785019 31.327145 40.654209 -0.655056 0.691052 0.067127 -0.002493 -242087.000000 0 0 1
21.434096 -16.341219 30.454495 40.668565 -0.651386 0.724477 0.055465 -0.003999 -841676.000000 0 0 1
21.710296 -15.561319 29.159915 39.544813 -0.621893 0.741599 0.046150 0.001577 -159143.000000 0 0 1
22.634596 -14.495619 29.227495 39.707611 -0.569610 0.743553 0.025679 -0.006348 179088.000000 0 0 1
22.882096 -13.996319 27.962615 38.747840 -0.548957 0.764605 0.025061 -0.005375 -22674.700000 0 0 1
23.462496 -12.550519 27.943175 38.585299 -0.491191 0.760934 0.022681 0.001705 639336.000000 0 0 1
22.514596 -11.529419 28.313615 37.967030 -0.473270 0.729148 0.040370 -0.009445 561456.000000 0 0 1
23.185096 -10.331819 28.445015 38.123668 -0.419208 0.728574 0.038028 -0.013322 562868.000000 0 0 1
22.132796 -9.159919 28.563105 37.277550 -0.392399 0.697846 0.054855 -0.015544 658079.000000 0 0 1
21.384996 -9.207319 29.744035 37.773012 -0.406563 0.664149 0.059465 -0.020731 151822.000000 0 0 1
20.258396 -8.327419 29.690455 36.895415 -0.390004 0.635594 0.065856 -0.024555 324765.000000 0 0 1
19.241396 -8.331519 30.837855 37.291002 -0.408627 0.597132 0.053285 -0.012400 -270501.000000 0 0 1
19.488696 -7.721819 32.095425 38.334737 -0.377244 0.578578 0.063919 -0.013391 -60105.200000 0 0 1
19.945596 -8.689819 33.001219 39.527462 -0.410879 0.582857 0.074593 -0.014118 -262281.000000 0 0 1
20.008196 -8.075719 -34.064495 40.322884 -0.383624 2.576975 0.087552 -0.022170 577881.000000 0 0 1
18.699296 -7.755819 -33.576085 39.206758 -0.393170 2.599024 0.081612 -0.031920 841843.000000 0 0 1
18.795596 -7.195019 -32.284965 38.044207 -0.365594 2.584162 0.084302 -0.035124 183529.000000 0 0 1
17.386296 -7.111919 -31.647685 36.802699 -0.388286 2.605926 0.081484 -0.037952 300111.000000 0 0 1
17.411496 -6.190819 -30.555505 35.708897 -0.341619 2.597666 0.075467 -0.031079 -23059.300000 0 0 1
16.133596 -6.106619 -29.997475 34.603934 -0.361839 2.619707 0.068545 -0.023969 -342800.000000 0 0 1
15.998396 -4.987819 -28.965965 33.464222 -0.302220 2.617104 0.050651 -0.018114 61335.500000 0 0 1
16.830596 -5.053119 -27.778735 32.870368 -0.291672 2.577548 0.057901 -0.017609 428410.000000 0 0 1
16.507896 -5.957119 -26.760735 32.002107 -0.346321 2.561146 0.075815 -0.026676 116330.000000 0 0 1
15.131996 -5.804219 -26.035745 30.668001 -0.366265 2.584801 0.071028 -0.027598 388809.000000 0 0 1
15.051296 -4.685319 -25.178915 29.706422 -0.301782 2.582227 0.054381 -0.018620 573084.000000 0 0 1
13.745996 -4.449619 -24.608735 28.536667 -0.313058 2.610699 0.019216 -0.024787 475462.000000 0 0 1
13.638996 -3.192119 -23.683335 27.515672 -0.229905 2.607482 0.019073 -0.017666 -127457.000000 0 0 1
13.843796 -1.989119 -24.402335 28.126167 -0.142706 2.621157 0.009772 -0.019561 24316.100000 0 0 1
13.750796 -0.940119 -23.493835 27.238365 -0.068262 2.611040 0.021521 -0.016954 -89125.100000 0 0 1
14.309196 0.374881 -24.055935 27.992528 0.026193 2.604832 0.015761 -0.020161 -227122.000000 0 0 1
13.502896 0.926881 -25.089955 28.507774 0.068536 2.646889 0.026077 -0.020258 52198.500000 0 0 1
14.147596 1.966881 -25.746845 29.443558 0.138140 2.635092 0.017647 -0.006570 -558867.000000 0 0 1
13.315196 2.522881 -26.886265 30.108647 0.187254 2.674708 0.012093 -0.009171 -462527.000000 0 0 1
12.185496 3.234881 -26.466025 29.315546 0.259485 2.697029 0.034432 -0.024463 -102885.000000 0 0 1
11.448296 3.703881 -27.568895 30.080329 0.312903 2.730061 0.045793 -0.024127 -188599.000000 0 0 1
10.137496 4.459881 -27.307725 29.468139 0.414456 2.756295 0.057124 -0.024422 -167925.000000 0 0 1
10.207596 5.746881 -26.729085 29.183311 0.512769 2.728548 0.048716 -0.036826 -196988.000000 0 0 1
8.921496 6.306881 -26.708865 28.857119 0.615362 2.753296 0.059913 -0.039097 -134490.000000 0 0 1
8.076696 5.656227 -31.017875 32.547419 0.610937 2.833803 0.056136 -0.019366 -213095.000000 0 0 1
8.106296 4.582027 -30.059055 31.468298 0.514471 2.841189 0.047535 -0.009351 322365.000000 0 0 1
8.077696 3.359927 -30.733715 31.954648 0.394181 2.864269 0.026330 -0.003936 -228127.000000 0 0 1
7.718896 2.182927 -29.818085 30.878224 0.275606 2.878795 0.029215 -0.006207 -1029550.000000 0 0 1
8.641696 2.013227 -28.837085 30.171335 0.228884 2.843089 0.046070 -0.015546 -218591.000000 0 0 1
8.233296 0.899327 -27.990715 29.190342 0.108799 2.853908 0.034071 -0.014390 243304.000000 0 0 1
9.354696 0.392627 -27.044905 28.619773 0.041946 2.808308 0.027659 -0.024095 145153.000000 0 0 1
10.313896 -0.448273 -27.629715 29.495399 -0.043436 2.784013 0.016422 -0.005011 254717.000000 0 0 1
11.378496 -0.764873 -26.732065 29.063009 -0.067120 2.738359 0.025637 -0.010376 387160.000000 0 0 1
12.196796 -1.974873 -27.299305 29.965213 -0.160524 2.716579 0.009500 -0.006873 -20184.500000 0 0 1
11.448196 -3.163673 -27.253205 29.728895 -0.269618 2.730599 0.012981 -0.007320 119639.000000 0 0 1
12.109096 -4.250673 -27.899345 30.709476 -0.337593 2.710460 0.033997 -0.020545 -34867.800000 0 0 1
11.422696 -5.564173 -27.468015 30.264333 -0.453287 2.708336 0.022250 -0.016509 4142.480000 0 0 1
11.433296 -5.716073 -26.068945 29.034181 -0.463607 2.685706 0.032212 -0.015519 -393712.000000 0 0 1
10.779996 -6.842873 -25.660165 28.661425 -0.565598 2.679868 0.026644 -0.019951 -301653.000000 0 0 1
10.531496 -6.751173 -24.104135 27.156953 -0.570055 2.662875 0.026570 -0.017651 -446516.000000 0 0 1
11.703496 -6.949373 -23.392035 27.063867 -0.535838 2.614607 0.027266 -0.014553 -301701.000000 0 0 1
11.370596 -6.794873 -22.076735 25.745737 -0.538640 2.601169 0.026201 -0.021314 -104744.000000 0 0 1
12.627696 -6.900273 -21.204335 25.626086 -0.500106 2.545350 0.035378 -0.021485 -82303.600000 0 0 1
13.212596 -5.631773 -21.029635 25.466353 -0.402923 2.542382 0.026432 -0.021759 -684368.000000 0 0 1
14.435796 -5.827873 -20.384435 25.649201 -0.383700 2.489375 0.032623 -0.019465 -392162.000000 0 0 1
15.081496 -4.563373 -19.780035 25.288845 -0.293823 2.468928 0.042308 -0.017668 -58058.500000 0 0 1
15.800296 -3.836373 -20.776135 26.382094 -0.238194 2.477553 0.031882 -0.021862 167240.000000 0 0 1
16.301996 -2.655473 -20.178135 26.076115 -0.161474 2.455641 0.035278 -0.010383 218070.000000 0 0 1
17.427096 -2.041773 -21.068635 27.418240 -0.116629 2.447160 0.009259 -0.015105 -700258.000000 0 0 1
18.649596 -2.670273 -21.122535 28.303697 -0.142215 2.413255 0.031891 -0.019984 -1020990.000000 0 0 1
19.455396 -1.914173 -21.965335 29.404973 -0.098072 2.414325 0.040615 -0.017206 46200.600000 0 0 1
20.867296 -2.471673 -22.295635 30.637372 -0.117898 2.385798 0.043953 -0.019630 355318.000000 0 0 1
21.862696 -2.219773 -21.275935 30.587094 -0.101186 2.340031 0.024587 -0.012613 219523.000000 0 0 1
23.081696 -2.873973 -21.406735 31.611275 -0.123876 2.314729 0.025070 -0.014348 114054.000000 0 0 1
24.112596 -2.089373 -22.283035 32.898578 -0.086435 2.314917 0.030536 -0.018603 -1112770.000000 0 0 1
23.689396 -2.153073 -23.626635 33.526722 -0.090639 2.352811 0.044316 -0.020307 45049.000000 0 0 1
24.517396 -1.583873 -24.617835 34.780011 -0.064512 2.357197 0.040991 -0.011891 910560.000000 0 0 1
25.901496 -2.338073 -24.833335 35.958985 -0.090024 2.333117 0.050857 -0.022676 -258389.000000 0 0 1
26.811396 -2.297673 -23.725335 35.875086 -0.085489 2.293389 0.044276 -0.019110 860950.000000 0 0 1
28.084896 -2.862773 -24.089935 37.111748 -0.101582 2.277222 0.032098 -0.016998 1251130.000000 0 0 1
28.992396 -2.104473 -25.145745 38.435613 -0.072460 2.283961 0.034904 -0.015445 -874108.000000 0 0 1
28.402196 -1.981673 -26.393835 38.823270 -0.069659 2.318349 0.043842 -0.018179 25757.300000 0 0 1
29.107796 -0.967273 -27.135515 39.806226 -0.033219 2.320867 0.053251 -0.024778 -63602.400000 0 0 1
28.451196 -0.625073 -28.523495 40.292072 -0.021966 2.357343 0.060293 -0.032943 1564730.000000 0 0 1
27.099196 -0.066673 -28.545715 39.360243 -0.002460 2.382183 0.057831 -0.027656 1463990.000000 0 0 1
26.888696 1.139527 -27.976855 38.820161 0.042354 2.375577 0.039725 -0.019629 -612045.000000 0 0 1
25.421596 1.634327 -28.082775 37.915311 0.064201 2.404865 0.041437 -0.011889 62192.900000 0 0 1
24.615096 0.953927 -27.129055 36.644216 0.038734 2.404367 0.047403 -0.011557 -413097.000000 0 0 1
23.281396 1.019027 -27.546835 36.081712 0.043742 2.439445 0.038689 -0.008529 -498995.000000 0 0 1
22.299796 0.768927 -26.372925 34.545670 0.034468 2.439391 0.038762 -0.003789 -194001.000000 0 0 1
22.499896 1.591927 -25.222265 33.836995 0.070635 2.411939 0.036841 -0.001864 13171.900000 0 0 1
21.690396 1.252727 -24.141535 32.478552 0.057691 2.408797 0.021433 0.005623 -695350.000000 0 0 1
21.908596 2.041127 -22.808335 31.691843 0.092897 2.374154 0.026775 0.007439 -655713.000000 0 0 1
21.386696 3.327127 -22.771635 31.416682 0.154333 2.381578 0.035025 0.002901 375045.000000 0 0 1
21.486496 3.795327 -21.430135 30.583079 0.174834 2.347201 0.027936 0.000104 -145437.000000 0 0 1
20.995296 5.269027 -21.145335 30.260375 0.245884 2.344486 0.039322 -0.000168 106332.000000 0 0 1
21.866296 6.249227 -21.707335 31.438768 0.278372 2.332927 0.036335 0.003656 557490.000000 0 0 1
21.540996 7.581227 -21.295935 31.225092 0.338406 2.321309 0.042023 -0.006627 -566841.000000 0 0 1
21.975896 7.986227 -19.876835 30.688897 0.348570 2.275343 0.046279 -0.009791 -429455.000000 0 0 1
23.375496 8.019827 -19.698135 31.602974 0.330503 2.243752 0.037475 -0.007400 269202.000000 0 0 1
23.741796 8.111927 -18.314235 31.062638 0.329237 2.201348 0.049479 -0.015983 18220.900000 0 0 1
23.652696 9.567027 -17.703335 31.054567 0.384362 2.177390 0.051489 -0.025472 657735.000000 0 0 1
22.293896 10.008427 -17.507535 30.061607 0.421965 2.192460 0.050803 -0.027321 1056730.000000 0 0 1
22.236096 11.355627 -17.127535 30.277825 0.472159 2.172053 0.049206 -0.022490 -601984.000000 0 0 1
20.789396 11.709827 -16.799435 29.181159 0.512966 2.184250 0.041342 -0.025974 337518.000000 0 0 1
19.870296 11.887727 -17.926235 29.283043 0.539144 2.229600 0.038882 -0.023639 1299320.000000 0 0 1
19.035796 10.700427 -18.014535 28.308729 0.512102 2.260566 0.039169 -0.029865 -76493.700000 0 0 1
18.368496 10.584427 -19.391335 28.730743 0.522756 2.311671 0.050851 -0.019552 -978454.000000 0 0 1
19.196296 10.371127 -20.441535 29.898402 0.495340 2.323617 0.060273 -0.011527 -551333.000000 0 0 1
18.481696 10.010427 -21.595335 30.135365 0.496402 2.369728 0.049334 -0.016426 -324866.000000 0 0 1
19.384896 10.050227 -22.822035 31.585227 0.478304 2.378286 0.070471 -0.018599 -462614.000000 0 0 1
19.523996 11.404427 -23.148535 32.358956 0.528664 2.367946 0.068585 -0.016293 257271.000000 0 0 1
20.193596 11.698827 -24.371735 33.743523 0.525085 2.377867 0.076237 -0.019199 41583.800000 0 0 1
20.148496 13.187527 -24.639835 34.452783 0.579544 2.367674 0.096418 -0.021105 38701.700000 0 0 1
20.878496 13.582627 -25.812475 35.870367 0.576766 2.374029 0.091470 -0.025300 314092.000000 0 0 1
20.873996 14.997227 -26.014135 36.570148 0.623011 2.362212 0.094693 -0.016728 343052.000000 0 0 1
19.604996 15.499527 -26.771345 36.623710 0.668977 2.390559 0.087612 -0.019343 266205.000000 0 0 1
18.397696 15.111327 -26.168035 35.377867 0.687637 2.403380 0.085443 -0.025207 -756112.000000 0 0 1
17.324896 15.313527 -27.064875 35.597241 0.723850 2.434584 0.067573 -0.025629 -713361.000000 0 0 1
16.051396 14.856827 -26.387305 34.273350 0.746768 2.449492 0.062631 -0.028607 -887804.000000 0 0 1
15.816596 13.483527 -26.394555 33.595279 0.705939 2.474563 0.058584 -0.022972 345149.000000 0 0 1
14.432696 13.192727 -26.221125 32.709298 0.740543 2.500832 0.031778 -0.024647 211805.000000 0 0 1
14.185096 11.689127 -26.025985 31.862274 0.689230 2.526687 0.030359 -0.025718 70254.700000 0 0 1
12.810796 11.348427 -26.046405 31.165983 0.724941 2.560261 0.034534 -0.020194 18300.000000 0 0 1
12.712796 10.004427 -25.699705 30.367393 0.666737 2.579784 0.051198 -0.024648 -107769.000000 0 0 1
11.284396 9.500427 -25.427105 29.396146 0.699778 2.615909 0.050325 -0.034694 -220695.000000 0 0 1
10.746696 10.157727 -24.306535 28.451336 0.757231 2.595037 0.056078 -0.037529 21470.900000 0 0 1
9.520496 9.533027 -23.966535 27.493877 0.786056 2.629466 0.055665 -0.038410 -262683.000000 0 0 1
8.825396 10.050627 -22.746435 26.387554 0.850217 2.610026 0.055238 -0.035236 -491025.000000 0 0 1
8.146696 11.241127 -23.107135 26.956841 0.943670 2.600585 0.050064 -0.036028 -191871.000000 0 0 1
7.638796 11.997227 -22.011235 26.206471 1.003818 2.567925 0.048170 -0.022177 -29507.600000 0 0 1
8.652696 12.853027 -21.227135 26.280424 0.978282 2.511065 0.037552 -0.024377 -77646.300000 0 0 1
9.508596 12.075127 -20.440135 25.573838 0.903753 2.496859 0.051008 -0.029196 -283719.000000 0 0 1
10.532296 12.773927 -19.782335 25.796187 0.881285 2.444747 0.066062 -0.023011 527567.000000 0 0 1
11.590396 11.825627 -19.035635 25.229707 0.795444 2.425677 0.077903 -0.029908 1264740.000000 0 0 1
12.626996 11.193927 -19.859935 26.060738 0.725310 2.437290 0.082570 -0.029296 866726.000000 0 0 1
12.177896 10.344127 -20.889335 26.299552 0.704156 2.488626 0.078974 -0.034932 -240099.000000 0 0 1
13.289896 9.473327 -21.584635 27.060335 0.619279 2.494183 0.090041 -0.027643 424971.000000 0 0 1
13.815596 8.469927 -20.743135 26.322766 0.549974 2.478399 0.091679 -0.038777 18342.200000 0 0 1
14.887296 7.827527 -21.389435 27.210470 0.484063 2.475228 0.080958 -0.037745 -88361.400000 0 0 1
15.634296 6.614527 -20.715435 26.782689 0.400242 2.455084 0.105676 -0.034949 293296.000000 0 0 1
16.389196 7.058227 -19.594235 26.502045 0.406658 2.402898 0.074850 -0.027205 42930.900000 0 0 1
16.927896 5.898527 -19.009135 26.128404 0.335293 2.385508 0.054242 -0.035063 -272314.000000 0 0 1
17.712796 6.187827 -17.703935 25.796544 0.336089 2.327173 0.069256 -0.029417 -1192540.000000 0 0 1
18.937296 6.763127 -18.005735 26.991991 0.343015 2.301075 0.055019 -0.026900 -516892.000000 0 0 1
19.718396 7.132127 -16.885035 26.921865 0.347059 2.248732 0.053277 -0.029430 377840.000000 0 0 1
20.407196 5.940727 -16.070235 26.645794 0.283280 2.218185 0.034308 -0.031476 265474.000000 0 0 1
21.524796 5.409627 -16.833635 27.855918 0.246221 2.219697 0.032463 -0.026233 744184.000000 0 0 1
22.216096 4.509327 -16.027435 27.762702 0.200255 2.186216 0.048168 -0.031697 -368235.000000 0 0 1
23.286296 3.691027 -16.756135 28.924788 0.157199 2.188666 0.027795 0.003741 -160727.000000 0 0 1
23.993496 2.818927 -15.914835 28.929504 0.116951 2.153310 0.025540 0.001693 268664.000000 0 0 1
25.150596 2.329727 -16.574135 30.210628 0.092367 2.151508 0.028215 -0.003578 253840.000000 0 0 1
25.794996 1.112427 -15.862935 30.302674 0.043099 2.121730 0.044229 -0.018196 13203.800000 0 0 1
25.086596 -0.085373 -15.977535 29.742667 -0.003403 2.137901 0.041177 -0.019144 -223802.000000 0 0 1
26.037596 -1.053073 -16.315635 30.745168 -0.040422 2.130191 0.034906 -0.014630 -105775.000000 0 0 1
25.496196 -2.510773 -16.332235 30.382592 -0.098160 2.138328 0.021668 -0.021751 -262712.000000 0 0 1
25.046396 -3.028873 -15.089635 29.397162 -0.120346 2.109825 0.032543 -0.020281 422909.000000 0 0 1
24.989196 -4.426473 -15.234335 29.599638 -0.175317 2.111430 0.027637 -0.018675 -921499.000000 0 0 1
24.511496 -5.223573 -13.971535 28.693256 -0.209966 2.079365 0.028595 -0.017112 765284.000000 0 0 1
23.178696 -5.197173 -13.441135 27.293345 -0.220574 2.085721 0.034536 -0.008477 1059980.000000 0 0 1
22.191996 -5.604373 -14.400935 27.042201 -0.247368 2.132390 0.035232 -0.012263 -34955.500000 0 0 1
20.746096 -5.495373 -13.846435 25.540623 -0.258940 2.143771 0.044227 -0.014902 51960.700000 0 0 1
20.402396 -6.483873 -12.880035 24.983869 -0.307706 2.112427 0.052954 -0.014300 304244.000000 0 1 0
20.541596 -6.044773 -11.533935 24.321351 -0.286192 2.064887 0.061372 -0.011937 -348196.000000 0 1 0
20.299896 -7.243973 -10.603535 24.020739 -0.342762 2.027991 0.071697 -0.015225 -469526.000000 0 1 0
19.037696 -7.851473 -10.687535 23.201356 -0.391165 2.049515 0.078878 -0.016408 224957.000000 0 1 0
18.920696 -8.865373 -11.742135 23.968006 -0.438176 2.082781 0.075089 -0.017161 -373145.000000 0 1 0
17.550296 -9.599273 -11.643935 23.146062 -0.500505 2.097936 0.097275 -0.022056 665691.000000 0 1 0
16.566496 -8.601473 -11.980635 22.180391 -0.478896 2.141406 0.081888 -0.017186 -15779.000000 0 1 0
15.265996 -9.113873 -12.187435 21.555670 -0.538214 2.171707 0.067175 -0.016761 274618.000000 0 1 0
14.291196 -7.932673 -12.501935 20.578240 -0.506731 2.223746 0.049452 -0.014748 -98300.600000 0 1 0
14.453096 -7.134773 -13.635235 21.112002 -0.458555 2.272935 0.050353 -0.016040 -286782.000000 0 1 0
15.447396 -6.170373 -13.565135 21.464120 -0.380027 2.254916 0.050309 -0.013571 -334214.000000 0 1 0
15.200496 -5.058873 -14.662735 21.717345 -0.321279 2.311981 0.029399 -0.012375 -418862.000000 0 1 0
14.114796 -4.220673 -14.423035 20.617117 -0.290562 2.345586 0.032898 -0.010703 -246373.000000 0 1 0
13.755296 -3.269773 -15.448935 20.942044 -0.233379 2.400453 0.028119 -0.011918 -50912.800000 0 1 0
14.783996 -2.145373 -15.676835 21.654845 -0.144109 2.380295 0.030342 -0.010026 -847692.000000 0 1 0
15.846796 -2.539073 -16.530835 23.039886 -0.158876 2.370985 0.021069 -0.006222 368442.000000 0 1 0
16.994596 -1.725373 -16.273935 23.593096 -0.101178 2.331975 0.031184 -0.004183 9435.650000 0 1 0
17.932396 -2.227373 -15.203335 23.615110 -0.123577 2.270246 0.031107 -0.006244 -1416050.000000 0 1 0
17.530396 -1.975973 -13.907335 22.464043 -0.112243 2.238384 0.028468 -0.000614 321687.000000 0 1 0
18.510596 -2.547373 -13.037635 22.784012 -0.136758 2.180016 0.021553 -0.001714 320829.000000 0 1 0
17.987096 -2.690473 -11.604535 21.574047 -0.148477 2.138732 0.022907 -0.000380 -462897.000000 0 1 0
18.023096 -1.527073 -10.768535 21.050542 -0.084527 2.107791 0.025064 -0.002814 701801.000000 0 1 0
17.385696 -1.885473 -9.530535 19.916037 -0.108027 2.069783 0.018613 -0.000190 -1228860.000000 0 1 0
17.398096 -0.713273 -8.539735 19.394061 -0.040974 2.026760 0.012638 -0.000602 -148064.000000 0 1 0
18.619796 -0.414773 -7.857235 20.213980 -0.022272 1.970020 0.011565 -0.003194 1154810.000000 0 1 0
19.732896 0.035027 -8.619735 21.533422 0.001775 1.982636 0.018852 -0.005057 -210774.000000 0 1 0
19.518396 1.335427 -9.434035 21.719857 0.068312 2.020114 0.023672 -0.004521 -940249.000000 0 1 0
19.544296 2.532927 -8.624235 21.512152 0.128881 1.983296 0.027170 -0.007091 632908.000000 0 1 0
19.062396 3.618727 -9.385435 21.553573 0.187604 2.021331 0.021527 -0.010534 -225246.000000 0 1 0
18.447596 4.790027 -8.616735 20.916651 0.254046 1.995396 0.004827 -0.010200 -666176.000000 0 1 0
18.039396 5.883627 -9.403035 21.176731 0.315276 2.030884 0.020444 -0.018043 -359278.000000 0 1 0
18.917996 6.915327 -9.347635 22.205644 0.350453 2.005297 0.074005 -0.016055 -1213200.000000 0 1 0
-26.606444 -29.637843 5.761965 40.243072 0.839243 1.427124 0.048293 -0.006597 95729.900000 0 0 1
-26.590934 -28.404493 6.531065 39.453109 0.818363 1.404491 0.010824 0.000484 186427.000000 0 0 1
-25.338474 -27.726373 6.428365 38.106612 0.830367 1.401292 0.045006 -0.001216 149078.000000 0 0 1
-25.207114 -26.496753 7.371365 37.307017 0.810336 1.371901 0.028177 0.009177 -457758.000000 0 0 1
-26.056894 -25.404203 7.123365 37.082039 0.772716 1.377497 0.022805 -0.006807 1334040.000000 0 0 1
-27.437534 -25.528153 7.593065 38.238194 0.749364 1.370895 0.016299 -0.009791 1465530.000000 0 0 1
-27.784264 -25.678613 9.079565 38.907518 0.746033 1.335262 0.034453 -0.006281 -119704.000000 0 0 1
-27.156194 -26.796783 9.794165 39.388477 0.778737 1.319504 0.024627 -0.006608 337262.000000 0 0 1
-27.565644 -26.798183 11.161665 40.032363 0.771282 1.288235 0.030187 -0.008598 231343.000000 0 0 1
-26.596174 -27.770923 11.957865 40.268737 0.807003 1.269298 0.029401 -0.005742 1388110.000000 0 0 1
-25.317064 -27.190293 12.236665 39.115237 0.821059 1.252619 0.032430 -0.000223 233413.000000 0 0 1
-25.368474 -26.411013 13.418265 39.001935 0.805530 1.219579 0.044160 -0.000308 -689093.000000 0 0 1
-24.017804 -25.930043 13.975965 38.007231 0.823664 1.194242 0.046717 -0.002428 -141031.000000 0 0 1
-23.263404 -26.942893 14.594465 38.472118 0.858555 1.181701 0.044355 -0.003173 -428077.000000 0 0 1
-22.162804 -26.449373 15.296165 37.745621 0.873350 1.153551 0.046915 -0.003550 104586.000000 0 0 1
-21.193204 -27.498313 15.902165 38.186227 0.914173 1.141273 0.057654 -0.009754 -65851.800000 0 0 1
-21.945704 -28.341303 16.728365 39.556056 0.911901 1.134150 0.070076 -0.000814 -148875.000000 0 0 1
-21.198104 -29.375253 17.290365 40.140028 0.945700 1.125471 0.058796 0.005936 -415235.000000 0 0 1
-21.931604 -30.388883 18.206565 41.664835 0.945656 1.118562 0.053699 -0.003458 185425.000000 0 0 1
-23.012104 -31.102613 17.609065 42.508924 0.933806 1.143684 0.054121 -0.000120 521388.000000 0 0 1
-23.503604 -32.159353 18.410765 43.881655 0.939665 1.137841 0.036409 0.003806 739241.000000 0 0 1
-24.780704 -32.967723 17.948265 44.978820 0.926230 1.160329 0.027729 0.000550 729990.000000 0 0 1
-24.459504 -33.716963 16.828765 44.925586 0.943202 1.186840 0.027501 -0.004049 -73879.200000 0 0 1
-25.455374 33.955869 16.549965 45.550833 -0.927513 1.198957 0.022229 -0.001182 -733831.000000 0 0 1
-25.210794 33.206608 15.208765 44.379832 -0.921427 1.221012 0.009143 -0.004984 201488.000000 0 0 1
-24.047304 32.398503 15.165765 43.103784 -0.932283 1.211257 0.003374 -0.008820 1329940.000000 0 0 1
-22.812204 33.092792 14.806965 42.834282 -0.967260 1.217833 0.012372 -0.001614 1453620.000000 0 0 1
-21.578504 32.124713 14.762465 41.419312 -0.979310 1.206368 0.032378 -0.012453 440814.000000 0 0 1
-21.679904 31.384943 13.544365 40.478175 -0.966289 1.229606 0.030646 -0.005975 765630.000000 0 0 1
-20.675404 30.351453 13.355465 39.077506 -0.972800 1.221998 0.046662 -0.010463 524026.000000 0 0 1
-20.685004 29.775403 11.900465 38.158421 -0.963636 1.253636 0.051564 -0.002232 -331858.000000 0 0 1
-20.016204 30.565203 10.952865 38.142434 -0.991006 1.279539 0.045119 -0.000987 -125073.000000 0 0 1
-20.025104 30.018283 9.688065 37.362557 -0.982496 1.308500 0.053408 -0.001624 37239.400000 0 0 1
-19.261404 30.938283 8.713865 37.471462 -1.013943 1.336101 0.030745 0.003752 194902.000000 0 0 1
-17.846104 30.875963 8.726465 36.714571 -1.046715 1.330816 0.034801 -0.002822 -24429.600000 0 0 1
-17.267104 31.394213 7.553965 36.617098 -1.067946 1.363008 0.048218 -0.003743 126516.000000 0 0 1
-16.500004 30.418643 6.635765 35.236023 -1.073783 1.381342 0.052847 -0.001314 -206115.000000 0 0 1
-17.279004 29.357433 6.020765 34.592954 -1.038821 1.395859 0.051755 0.008524 272779.000000 0 0 1
-17.504504 28.218733 6.820865 33.900276 -1.015573 1.368210 0.041048 0.010184 403160.000000 0 0 1
-18.725704 27.363513 6.300365 33.750680 -0.970664 1.383021 0.032521 0.017971 450404.000000 0 0 1
-18.465704 26.520133 5.219765 32.734471 -0.962565 1.410655 0.038604 0.013212 -319174.000000 0 0 1
-19.588404 25.859613 4.739565 32.785494 -0.922519 1.425725 0.031525 0.014808 -924969.000000 0 0 1
-19.273304 25.049473 3.447265 31.793395 -0.914988 1.462156 0.041472 0.005249 -1155400.000000 0 0 1
-18.962804 25.783253 2.217065 32.082385 -0.936660 1.501636 0.050338 0.007763 1182990.000000 0 0 1
-17.666404 26.427883 2.139665 31.860838 -0.981542 1.503589 0.047211 0.009220 1160590.000000 0 0 1
-16.484704 25.378743 2.182565 30.341220 -0.994739 1.498800 0.045398 0.001965 -747917.000000 0 0 1
-16.370704 24.446253 1.118165 29.442648 -0.980724 1.532809 0.069051 -0.004907 68374.200000 0 0 1
-16.079404 24.858043 -0.251435 29.606296 -0.996639 1.579289 0.064819 -0.007081 13392.000000 0 0 1
-15.865204 23.596533 -1.178735 28.458575 -0.978867 1.612228 0.072010 -0.018330 -378098.000000 0 0 1
-17.029004 22.840673 -1.348535 28.521954 -0.930145 1.618095 0.076098 -0.030239 -399419.000000 0 0 1
-16.924904 21.620673 -2.083035 27.536247 -0.906625 1.646516 0.079240 -0.026478 39805.700000 0 0 1
-15.908704 20.515873 -1.592435 26.010070 -0.911215 1.632058 0.086399 -0.032260 362919.000000 0 0 1
-16.397804 19.639273 -0.602935 25.592040 -0.875105 1.594358 0.091044 -0.037489 -144302.000000 0 0 1
-15.333304 18.894173 -0.076135 24.333223 -0.889061 1.573925 0.113821 -0.043221 -112370.000000 0 1 0
-15.722704 17.780573 0.959065 23.754410 -0.846744 1.530411 0.078182 -0.031170 109820.000000 0 1 0
-16.222704 16.652773 0.296265 23.250349 -0.798479 1.558054 0.059777 -0.033123 532537.000000 0 1 0
-17.084304 15.814473 1.083665 23.305478 -0.746819 1.524281 0.069966 -0.040718 269692.000000 0 1 0
-17.719004 14.590573 0.457765 22.957732 -0.688872 1.550856 0.083711 -0.038148 -259977.000000 0 1 0
-18.684004 14.780473 -0.551835 23.829790 -0.669276 1.593956 0.083371 -0.043086 12930.300000 0 1 0
-19.522404 13.682573 -0.739935 23.851301 -0.611306 1.601824 0.080989 -0.030380 -1019560.000000 0 1 0
-20.384804 13.957273 -1.977135 24.784163 -0.600377 1.650655 0.063827 -0.020120 -78459.500000 0 1 0
-21.343704 12.960073 -2.360735 25.081671 -0.545703 1.665058 0.073158 -0.018200 1591900.000000 0 0 1
-22.351604 12.541573 -1.391735 25.667531 -0.511328 1.625045 0.081651 -0.020634 595491.000000 0 0 1
-23.605604 13.479273 -1.236935 27.211125 -0.518838 1.616269 0.081996 -0.014266 67808.400000 0 0 1
-23.231304 14.734173 -0.679035 27.518183 -0.565215 1.595475 0.075921 -0.021174 488455.000000 0 0 1
-24.351404 15.516673 -0.280935 28.876235 -0.567323 1.580525 0.058550 -0.022236 71008.000000 0 0 1
-23.939104 16.774973 0.600665 29.237667 -0.611219 1.550251 0.054698 -0.031486 93714.200000 0 0 1
-23.600004 16.437073 1.960665 28.826754 -0.608364 1.502728 0.064393 -0.033435 294508.000000 0 0 1
-23.217404 17.502073 2.816365 29.211339 -0.645950 1.474233 0.058854 -0.038847 149897.000000 0 0 1
-24.386704 18.443473 3.258565 30.748841 -0.647516 1.464623 0.061622 -0.043032 -234054.000000 0 0 1
-25.308934 17.777273 4.081765 31.196704 -0.612342 1.439580 0.065459 -0.041713 68612.800000 0 0 1
-26.565194 18.415473 3.954265 32.564941 -0.606160 1.449069 0.060017 -0.039560 277017.000000 0 0 1
-27.650844 18.055473 2.919465 33.152564 -0.578468 1.482621 0.066185 -0.027311 -908907.000000 0 0 1
-28.819204 18.769973 3.080265 34.530369 -0.577289 1.481473 0.067585 -0.025570 -605080.000000 0 0 1
-29.665224 18.544573 1.973565 35.040286 -0.558692 1.514444 0.070119 -0.016910 -843066.000000 0 0 1
-30.800284 19.520573 1.736665 36.506523 -0.564887 1.523207 0.073369 -0.026051 -980708.000000 0 0 1
-31.711934 19.383273 2.764465 37.269294 -0.548636 1.496553 0.091161 -0.021615 -589051.000000 0 0 1
-32.847944 20.160673 2.474765 38.620779 -0.550474 1.506674 0.069671 -0.017397 33501.600000 0 0 1
-33.531974 20.845273 3.673165 39.653635 -0.556189 1.478032 0.060803 -0.015606 -81714.700000 0 0 1
-32.590864 21.749273 4.184365 39.404367 -0.588470 1.464405 0.067524 -0.025124 366797.000000 0 0 1
-32.945764 22.208873 5.480065 40.108459 -0.593134 1.433736 0.061615 -0.027962 205880.000000 0 0 1
-31.869844 23.188973 6.050365 39.875084 -0.629020 1.418475 0.068204 -0.031906 135991.000000 0 0 1
-31.869934 24.395643 5.275365 40.480483 -0.653332 1.440106 0.061731 -0.023819 -220454.000000 0 0 1
-30.752994 25.181273 5.480765 40.123334 -0.686114 1.433770 0.055471 -0.027939 -804701.000000 0 0 1
-31.123804 26.674033 5.257065 41.325923 -0.708561 1.443241 0.053939 -0.023258 -648358.000000 0 0 1
-32.113754 27.141773 6.115665 42.489650 -0.701687 1.426362 0.054373 -0.019865 -378360.000000 0 0 1
-32.319524 28.520673 5.940265 43.511690 -0.723039 1.433848 0.059425 -0.020371 -126945.000000 0 0 1
-33.389174 29.058823 6.881665 44.795194 -0.716166 1.416560 0.056931 -0.016306 -422438.000000 0 0 1
-32.803144 29.086433 8.183765 44.598664 -0.725416 1.386253 0.060682 -0.018209 811577.000000 0 0 1
-33.579354 29.656533 9.291765 45.753905 -0.723443 1.366292 0.072423 -0.021623 1319640.000000 0 0 1
-35.007943 29.045243 9.625665 46.495544 -0.692576 1.362265 0.065407 -0.017194 903704.000000 0 0 1
-34.920394 27.811413 10.226065 45.798264 -0.672556 1.345613 0.078224 -0.032432 -418445.000000 0 0 1
-36.011677 27.470963 11.005865 46.611412 -0.651665 1.332426 0.069178 -0.029177 -546332.000000 0 0 1
-35.744301 26.070553 11.588665 45.734297 -0.630162 1.314612 0.082140 -0.022431 -167045.000000 0 0 1
-34.622811 26.161393 12.458965 45.148458 -0.647083 1.291213 0.088695 -0.032656 164953.000000 0 0 1
-34.323632 24.969303 13.153665 44.436434 -0.628923 1.270283 0.085258 -0.029513 715436.000000 0 0 1
-32.966724 25.024883 13.949465 43.676506 -0.649297 1.245720 0.072401 -0.034254 655865.000000 0 0 1
-33.127314 25.901503 15.061065 44.667017 -0.663593 1.226871 0.069143 -0.022555 215780.000000 0 0 1
-31.903694 26.455943 15.510165 44.252998 -0.692320 1.212704 0.089721 -0.022632 122742.000000 0 0 1
-32.135664 27.543243 16.606265 45.465362 -0.708597 1.196894 0.079855 -0.007640 -96487.400000 0 0 1
-32.704834 28.723233 16.016165 46.380468 -0.720671 1.218215 0.082522 -0.017211 93968.300000 0 0 1
-32.912534 29.796953 16.905065 47.506573 -0.735756 1.206976 0.077868 -0.016530 -121661.000000 0 0 1
-32.271244 31.095633 16.390465 47.718119 -0.766848 1.220171 0.063232 -0.003032 764136.000000 0 0 1
-30.840264 31.042163 16.468665 46.754194 -0.788661 1.210834 0.053010 -0.004840 465909.000000 0 0 1
-30.319044 32.252403 15.878465 47.027519 -0.816287 1.226386 0.048622 0.008673 -1381470.000000 0 0 1
-28.829454 32.310433 15.725765 46.069525 -0.842271 1.222445 0.048337 0.000913 -1271740.000000 0 0 1
-28.299244 31.676343 14.538065 44.895359 -0.841647 1.241031 0.035869 -0.002641 107508.000000 0 0 1
-28.243554 30.241183 14.606965 43.881555 -0.819541 1.231448 0.042303 -0.008375 -343234.000000 0 0 1
-29.446224 29.394843 14.110265 43.934456 -0.784525 1.243836 0.061452 -0.013371 124075.000000 0 0 1
-29.385234 29.266723 12.745365 43.387525 -0.783378 1.272642 0.062512 -0.025857 -541261.000000 0 0 1
-30.303784 28.401733 12.167765 43.278542 -0.753010 1.285804 0.059267 -0.029393 -369195.000000 0 0 1
-30.264824 28.294713 10.610165 42.768282 -0.751768 1.320093 0.063419 -0.023883 87768.300000 0 0 1
-29.210754 27.546463 10.031465 41.384853 -0.756084 1.325963 0.037091 -0.012796 -9607.280000 0 0 1
-29.435044 27.454723 8.646365 41.169688 -0.750602 1.359203 0.038110 -0.015741 16514.800000 0 0 1
-28.326054 26.608353 8.008365 39.680016 -0.754140 1.367577 0.041203 -0.012270 183374.000000 0 0 1
-28.274314 26.907773 6.609165 39.587196 -0.760639 1.403059 0.029397 -0.013149 -574433.000000 0 0 1
-27.171314 26.225063 6.065865 38.246947 -0.767679 1.411526 0.030877 -0.009064 -432551.000000 0 0 1
-26.809934 26.782053 4.648665 38.179327 -0.784878 1.448735 0.033101 -0.010365 -206290.000000 0 0 1
-26.071644 27.976853 4.461965 38.501221 -0.820634 1.454644 0.025662 0.001353 148120.000000 0 0 1
-25.716964 28.071533 3.109865 38.197440 -0.829145 1.489291 0.020312 0.004847 -27616.400000 0 0 1
-24.731404 29.211323 2.718565 38.371009 -0.868258 1.499887 0.020281 0.009285 259023.000000 0 0 1
-23.402304 29.002053 3.152065 37.399497 -0.891851 1.486415 0.027469 0.012361 13345.900000 0 0 1
-22.567104 30.128233 2.892065 37.753790 -0.927913 1.494118 0.019179 0.021286 -163905.000000 0 0 1
-21.109904 29.750153 3.164765 36.615780 -0.953674 1.484257 0.013164 0.017883 -467855.000000 0 0 1
-20.237904 30.825653 2.950965 36.993267 -0.989846 1.490941 0.017106 0.013743 -734530.000000 0 0 1
-18.905104 30.397173 3.089265 35.929579 -1.014403 1.484709 0.027147 0.008022 -114613.000000 0 0 1
-17.884204 31.432523 2.587765 36.256651 -1.053505 1.499362 0.027702 0.002493 -243760.000000 0 0 1
-17.723004 32.646247 3.282165 37.291486 -1.073436 1.482669 0.033550 -0.000398 -415588.000000 0 0 1
-16.797504 33.408183 2.590665 37.482988 -1.104914 1.501625 0.050129 -0.008728 -414745.000000 0 0 1
-16.442904 -33.881073 3.311865 37.805617 1.118968 1.483081 0.048242 -0.014987 -364349.000000 0 0 1
-17.455704 -32.927633 3.231965 37.408237 1.083342 1.484291 0.048682 -0.013048 -113119.000000 0 0 1
-17.226104 -31.849143 4.159765 36.447362 1.074993 1.456416 0.037399 -0.009454 -729708.000000 0 0 1
-18.305304 -30.816173 4.218865 36.090435 1.034788 1.453631 0.047677 -0.006297 -840311.000000 0 0 1
-18.293804 -29.860983 3.201165 35.165168 1.021140 1.479638 0.061835 -0.019249 -285919.000000 0 0 1
-19.433104 -29.059913 3.288565 35.113227 0.981370 1.477003 0.059469 -0.023215 -553266.000000 0 0 1
-19.624504 -28.093663 2.142965 34.336094 0.961052 1.508344 0.053758 -0.024776 114169.000000 0 0 1
-18.638104 -27.082173 2.195765 32.949118 0.968030 1.504106 0.069102 -0.029458 223087.000000 0 0 1
-18.964804 -26.107163 1.234165 32.291964 0.942557 1.532568 0.054497 -0.027799 407043.000000 0 0 1
-17.913204 -24.943473 1.309465 30.737183 0.947991 1.528181 0.051301 -0.021264 208407.000000 0 0 1
-16.701404 -25.363533 0.745165 30.377639 0.988482 1.546264 0.066693 -0.023978 -1058060.000000 0 0 1
-15.773304 -24.316773 0.934165 28.999573 0.995364 1.538578 0.065798 -0.015335 623393.000000 0 0 1
-14.435804 -24.596773 0.140965 28.520406 1.040066 1.565854 0.059662 -0.012044 384223.000000 0 0 1
-14.517204 -24.732873 -1.290435 28.707655 1.040020 1.615762 0.048611 -0.010828 -44137.300000 0 0 1
-14.722904 -23.500873 -1.965935 27.801436 1.011131 1.641569 0.047579 -0.009996 -191280.000000 0 0 1
-14.813704 -23.697873 -3.463435 28.160795 1.012120 1.694096 0.035149 -0.009557 -189085.000000 0 0 1
-13.632404 -24.095073 -4.105535 27.986968 1.055922 1.718022 0.040913 -0.009721 -284711.000000 0 0 1
-13.763904 -23.967973 -5.495635 28.179971 1.049517 1.767073 0.056266 -0.015810 334212.000000 0 0 1
-12.660404 -24.744473 -6.251435 28.489563 1.097876 1.792025 0.056507 -0.019495 154359.000000 0 0 1
-12.974604 -26.137233 -6.377435 29.869164 1.110030 1.785965 0.026072 -0.018124 188353.000000 0 0 1
-11.948604 -26.889623 -7.041635 30.255670 1.152645 1.805688 0.042856 -0.014063 337147.000000 0 0 1
23.384096 12.671327 28.419485 38.923587 0.496586 0.752276 0.027716 0.008162 -446800.000000 0 0 1
23.872696 11.342527 28.480435 38.854777 0.443551 0.748079 0.010111 0.005346 154342.000000 0 0 1
23.190996 10.432627 29.339715 38.826291 0.422735 0.714126 0.011457 -0.001434 -586413.000000 0 0 1
23.262196 10.621827 30.874125 40.089457 0.428340 0.691750 0.023965 -0.007486 118644.000000 0 0 1
22.471096 11.731027 31.322515 40.294753 0.481131 0.680378 0.028903 0.000204 324113.000000 0 0 1
22.764596 11.984327 32.668182 41.581980 0.484580 0.667077 0.044540 -0.005715 19164.100000 0 0 1
21.820496 13.031127 33.325696 41.911172 0.538356 0.651540 0.031650 0.006044 114140.000000 0 0 1
20.608196 12.515827 33.806522 41.523784 0.545786 0.619535 0.038707 0.005354 -237159.000000 0 0 1
19.919796 13.345227 -33.799275 41.440130 0.590271 2.524591 0.034548 0.011238 -333529.000000 0 0 1
18.599896 12.834427 -33.202095 40.162890 0.604001 2.543988 0.026575 0.010656 -287803.000000 0 0 1
17.611996 12.658627 -34.203936 40.501018 0.623199 2.576465 0.021745 0.008267 -562845.000000 0 0 1
16.488196 12.206727 -33.509855 39.290904 0.637284 2.592245 0.021913 0.002287 -200772.000000 0 0 1
15.199196 11.989427 34.139877 39.246568 0.667886 0.515834 0.014336 0.004007 194456.000000 0 0 1
15.214496 11.027727 33.150706 38.105918 0.627188 0.515671 0.025351 0.005180 -35728.900000 0 0 1
13.941096 10.712427 32.614933 37.051911 0.655177 0.494408 0.012602 0.007221 1847.330000 0 0 1
14.060996 9.653027 31.483135 35.806149 0.601615 0.496477 0.021975 0.010819 -246849.000000 0 0 1
14.353896 8.432327 32.084105 36.145930 0.531147 0.478629 0.009158 0.002964 157985.000000 0 0 1
15.059496 7.619527 31.143575 35.422703 0.468406 0.496620 0.017081 -0.008230 -17832.100000 0 0 1
15.332896 6.205127 31.601995 35.669138 0.384546 0.482202 0.049072 -0.017232 -85564.500000 0 0 1
14.198596 5.388727 31.661555 35.115418 0.362732 0.447244 0.044209 -0.012416 -364001.000000 0 0 1
14.601896 4.168227 32.215185 35.614711 0.278063 0.440480 0.050675 -0.022116 476544.000000 0 0 1
13.510996 3.055927 32.357615 35.198025 0.222438 0.404493 0.033635 -0.010219 -77769.400000 0 0 1
14.037996 1.883927 32.950719 35.865923 0.133405 0.405971 0.048860 -0.020761 -162433.000000 0 0 1
13.037496 0.949627 33.304934 35.778439 0.072710 0.374020 0.044106 -0.019057 -76246.000000 0 0 1
13.563696 -0.487073 33.770943 36.396259 -0.035895 0.382141 0.030987 -0.019038 -87634.200000 0 0 1
13.956396 -1.236973 32.633339 35.514024 -0.088400 0.405549 0.027478 -0.017025 109242.000000 0 0 1
14.471696 -2.510673 33.066215 36.181598 -0.171779 0.418017 0.060290 -0.028765 -21357.400000 0 0 1
14.615696 -3.531973 31.938585 35.301085 -0.237110 0.440009 0.066401 -0.026710 -400175.000000 0 0 1
14.993796 -4.898073 32.294645 35.940912 -0.315745 0.454346 0.074844 -0.030644 783322.000000 0 0 1
16.247896 -5.218173 32.911443 37.072720 -0.310755 0.478354 0.070956 -0.033624 1120670.000000 0 0 1
17.581496 -4.825273 32.189595 36.994085 -0.267856 0.515334 0.071199 -0.032999 44102.700000 0 0 1
17.852996 -3.447573 32.117695 36.907473 -0.190761 0.515144 0.071819 -0.034660 -212033.000000 0 0 1
18.871196 -3.183873 31.200595 36.602407 -0.167142 0.550201 0.085240 -0.044941 -314935.000000 0 0 1
19.046396 -1.664573 31.099725 36.506560 -0.087174 0.551205 0.082106 -0.045018 -265216.000000 0 0 1
19.127996 -0.995973 32.342105 37.588349 -0.052022 0.534685 0.078675 -0.042941 282755.000000 0 0 1
18.886496 0.396627 32.273775 37.395904 0.020997 0.529559 0.077507 -0.038157 936892.000000 0 0 1
20.171796 1.185027 31.744725 37.630217 0.058679 0.566850 0.090701 -0.041744 839339.000000 0 0 1
20.443696 1.031627 30.339875 36.599412 0.050419 0.593530 0.096385 -0.038829 324845.000000 0 0 1
21.346596 1.910127 29.617885 36.558787 0.089244 0.626398 0.085718 -0.031042 480652.000000 0 0 1
20.957296 3.412627 29.527945 36.369683 0.161420 0.623425 0.072052 -0.024831 -244655.000000 0 0 1
20.888196 3.981627 30.835095 37.456284 0.188357 0.603721 0.067662 -0.032886 223032.000000 0 0 1
20.151296 5.178027 30.819925 37.185407 0.251516 0.593805 0.060344 -0.028766 -249238.000000 0 0 1
19.815896 5.788327 32.189015 38.240125 0.284198 0.570261 0.058086 -0.026267 -165794.000000 0 0 1
18.703596 5.177327 32.799330 38.110698 0.270047 0.534285 0.065446 -0.023719 130622.000000 0 0 1
18.600496 5.597527 34.148771 39.286758 0.292314 0.517177 0.062090 -0.019591 -495155.000000 0 0 1
17.397696 5.033427 -33.594755 38.165728 0.281626 2.647151 0.062228 -0.020102 -525161.000000 0 0 1
17.403096 3.611627 -33.401795 37.836378 0.204623 2.652577 0.058020 -0.023859 -174303.000000 0 0 1
16.320096 3.154127 -32.628395 36.618386 0.190913 2.670424 0.047547 -0.028043 3206.490000 0 0 1
15.944996 1.659127 -32.792455 36.501243 0.103680 2.686893 0.041600 -0.030151 84033.300000 0 0 1
17.026296 0.847727 -32.350075 36.566935 0.049748 2.656606 0.046964 -0.026289 428263.000000 0 0 1
17.019696 -0.408873 -32.956125 37.093711 -0.024019 2.664766 0.052855 -0.027711 622451.000000 0 0 1
18.151296 -1.345273 -32.307025 37.081305 -0.073979 2.628536 0.052645 -0.026991 568475.000000 0 0 1
18.038296 -1.626873 -30.905685 35.821617 -0.089947 2.611512 0.052502 -0.021994 337843.000000 0 0 1
18.369896 -0.576173 -29.992625 35.175881 -0.031355 2.591828 0.046935 -0.016580 -328534.000000 0 0 1
17.939996 -0.855173 -28.529465 33.712092 -0.047632 2.579737 0.040411 -0.014928 44175.100000 0 0 1
16.533996 -0.803773 -28.299645 32.785500 -0.048575 2.612322 0.049697 -0.018909 678789.000000 0 0 1
16.098796 -0.874873 -26.931615 31.388669 -0.054291 2.602168 0.043553 -0.017519 -288438.000000 0 0 1
16.684996 -1.973573 -26.018845 30.971994 -0.117737 2.568221 0.056387 -0.014593 -355399.000000 0 0 1
18.024596 -1.646173 -25.623775 31.371544 -0.091077 2.526611 0.063837 -0.010949 645940.000000 0 0 1
18.835296 -2.787473 -25.360725 31.712849 -0.146926 2.497590 0.054318 -0.012431 333424.000000 0 0 1
19.437396 -3.458773 -26.645385 33.162509 -0.176101 2.503913 0.074303 -0.022020 45976.400000 0 0 1
20.546996 -2.672573 -27.126305 34.134413 -0.129345 2.489294 0.089452 -0.015557 200402.000000 0 0 1
21.120196 -3.170273 -28.286015 35.443081 -0.148994 2.494880 0.089490 -0.022258 -435679.000000 0 0 1
22.432196 -2.489973 -28.656465 36.477341 -0.110547 2.474456 0.075507 -0.028131 -113909.000000 0 0 1
23.581796 -3.178673 -28.193305 36.892649 -0.133986 2.440594 0.065253 -0.028678 -40224.700000 0 0 1
24.758496 -2.543773 -28.652205 37.952639 -0.102384 2.426369 0.038354 -0.025735 991703.000000 0 0 1
26.076296 -3.391373 -28.395665 38.701272 -0.129330 2.394568 0.045193 -0.017351 641552.000000 0 0 1
26.130296 -4.585073 -29.134895 39.403774 -0.173701 2.402965 0.056142 -0.021190 825817.000000 0 0 1
27.434996 -5.178773 -29.084135 40.316072 -0.186570 2.376622 0.054508 -0.016884 619392.000000 0 0 1
27.644696 -6.354173 -28.059455 39.899095 -0.225927 2.350770 0.053873 -0.009760 -71775.100000 0 0 1
27.603196 -5.954073 -26.708375 38.868043 -0.212447 2.328362 0.046389 0.002156 276318.000000 0 0 1
27.711096 -7.139273 -25.913605 38.605557 -0.252149 2.306677 0.027317 -0.002084 -114971.000000 0 0 1
27.687996 -6.915873 -24.396035 37.544919 -0.244770 2.278095 0.024274 -0.004820 -257080.000000 0 0 1
28.925796 -6.568273 -23.849135 38.060809 -0.223287 2.247987 0.015735 -0.001767 -121522.000000 0 0 1
28.719696 -6.039173 -22.525835 36.996024 -0.207260 2.225434 0.021979 -0.007671 832270.000000 0 0 1
30.103496 -5.559473 -21.938735 37.662134 -0.182621 2.192615 0.016502 -0.006746 573903.000000 0 0 1
30.572896 -4.364873 -22.560735 38.245795 -0.141811 2.201716 0.016661 -0.011408 -213019.000000 0 0 1
31.645596 -3.822673 -21.841935 38.640998 -0.120214 2.171536 0.027296 -0.010079 186101.000000 0 0 1
32.335296 -2.575573 -22.482335 39.467206 -0.079484 2.176871 0.037246 -0.021101 356845.000000 0 0 1
31.394396 -1.535473 -22.478335 38.642481 -0.048870 2.191614 0.017028 -0.018253 581037.000000 0 0 1
32.077096 -0.340573 -22.765135 39.335829 -0.010617 2.187977 0.025421 -0.018339 371452.000000 0 0 1
31.010296 0.772227 -22.687635 38.431284 0.024897 2.202280 0.018999 -0.013619 -56691.400000 0 0 1
30.071496 0.651927 -23.720635 38.306506 0.021676 2.238561 0.019388 -0.011283 136363.000000 0 0 1
28.911996 1.355427 -23.285635 37.147833 0.046847 2.248283 0.013304 -0.005563 211812.000000 0 0 1
27.684996 1.468427 -24.213635 36.809176 0.052991 2.288711 0.017277 -0.002600 163960.000000 0 0 1
26.624096 2.211827 -23.620735 35.660536 0.082886 2.294784 0.018825 0.004124 345068.000000 0 0 1
25.912796 2.752827 -24.732235 35.926794 0.105837 2.330086 0.034715 0.002498 -615757.000000 0 0 1
24.917996 3.821827 -24.372235 35.064494 0.152190 2.339312 0.025137 0.006329 -504301.000000 0 0 1
25.501296 5.007127 -23.936635 35.331996 0.193881 2.315124 0.017422 0.007726 495067.000000 0 0 1
24.420796 5.879727 -23.658835 34.506332 0.236270 2.326275 0.029607 0.002235 58119.200000 0 0 1
24.860196 7.128127 -22.977135 34.594628 0.279237 2.297196 0.046164 0.002818 -9168.610000 0 0 1
25.617496 8.027327 -23.818235 35.888750 0.303662 2.296509 0.041398 0.000980 417048.000000 0 0 1
25.802996 9.241227 -23.146035 35.873860 0.343913 2.272089 0.057615 -0.004441 -200904.000000 0 0 1
26.763096 10.136527 -23.966035 37.328050 0.362054 2.267950 0.079763 -0.009040 -217606.000000 0 0 1
26.410696 10.475927 -25.321255 38.058322 0.377619 2.298729 0.077952 -0.011133 502953.000000 0 0 1
25.209396 11.243427 -25.443075 37.540357 0.419524 2.315498 0.086633 -0.016090 438971.000000 0 0 1
24.768596 11.417027 -26.910385 38.314497 0.431921 2.349497 0.076255 -0.018013 -162798.000000 0 0 1
24.430096 10.240127 -27.635845 38.280932 0.396914 2.377372 0.066066 -0.016683 246790.000000 0 0 1
25.523696 9.496527 -28.134755 39.156194 0.356197 2.372477 0.053482 -0.016635 -104097.000000 0 0 1
26.216396 9.977827 -29.416995 40.647461 0.363667 2.379960 0.048136 -0.011863 -616346.000000 0 0 1
27.112696 11.043627 -29.138875 41.305375 0.386803 2.353854 0.036308 -0.005556 958067.000000 0 0 1
27.986896 11.512827 -30.191305 42.747239 0.390265 2.355019 0.030613 -0.004700 1363500.000000 0 0 1
29.045496 10.530027 -30.840625 43.653940 0.347798 2.355308 0.029622 -0.011927 497601.000000 0 0 1
28.335296 9.566127 -31.653595 43.547099 0.325590 2.384567 0.021645 -0.014015 695100.000000 0 0 1
29.143696 8.441527 -31.891425 44.019057 0.281936 2.381092 0.021301 -0.010152 -167848.000000 0 0 1
28.407296 7.536727 -32.852195 44.079967 0.259335 2.411760 0.030578 -0.014471 -25455.000000 0 0 1
27.260196 6.901827 -32.333925 42.851327 0.247972 2.425781 0.037084 -0.015297 -266319.000000 0 0 1
26.898596 5.903127 -33.217325 43.148257 0.216034 2.449389 0.045112 -0.020266 1029450.000000 0 0 1
25.545396 5.113327 -32.845945 41.923376 0.197555 2.471036 0.030820 -0.019532 968774.000000 0 0 1
24.359996 5.836127 -32.920595 41.367081 0.235146 2.491151 0.054261 -0.025480 -419731.000000 0 0 1
24.041196 6.587627 -31.759645 40.373890 0.267449 2.476141 0.053478 -0.019657 -411198.000000 0 0 1
22.541996 6.927527 -31.622555 39.447664 0.298156 2.500818 0.052142 -0.022209 54672.200000 0 0 1
22.163496 7.849327 -32.617425 40.208568 0.340372 2.517008 0.053501 -0.017829 -1232690.000000 0 0 1
20.793896 7.968627 -32.702815 39.564621 0.365957 2.543777 0.057196 -0.021586 -1127730.000000 0 0 1
20.437796 9.020727 -33.767265 40.488334 0.415658 2.557114 0.045516 -0.010811 -186433.000000 0 0 1
19.421896 8.706327 33.790003 39.934628 0.421417 0.562109 0.054178 -0.011790 140535.000000 0 0 1
19.187196 9.855527 32.985289 39.412044 0.474509 0.579139 0.042560 -0.006119 339496.000000 0 0 1
18.186596 9.537127 31.807115 37.860291 0.482980 0.573295 0.032561 -0.010555 195761.000000 0 0 1
18.593396 8.555327 30.820245 36.997236 0.431244 0.586213 0.041087 -0.019336 930972.000000 0 0 1
19.754596 8.824727 29.986465 36.977128 0.420121 0.625029 0.045574 -0.017907 221896.000000 0 0 1
19.608196 9.832227 28.796495 36.199339 0.464795 0.650968 0.059751 -0.019357 -611752.000000 0 0 1
18.692596 9.315627 27.855325 34.815416 0.462334 0.643358 0.048398 -0.008572 856993.000000 0 0 1
17.416996 9.939727 28.114255 34.533480 0.518590 0.619591 0.045733 -0.016457 421946.000000 0 0 1
16.173896 9.401327 27.365005 33.148505 0.526530 0.599660 0.056572 -0.017391 -116870.000000 0 0 1
16.099596 9.728727 25.986605 32.080349 0.543563 0.626563 0.061243 -0.015882 997856.000000 0 0 1
14.830596 9.347227 25.407455 30.868366 0.562377 0.603965 0.066340 -0.015479 895748.000000 0 0 1
14.579996 7.895627 25.031095 30.024539 0.496324 0.585044 0.053220 -0.009710 -152572.000000 0 0 1
14.567596 7.044827 26.188895 30.784780 0.450438 0.553463 0.042873 -0.009742 57234.500000 0 0 1
14.326496 5.742827 25.644465 29.931040 0.381242 0.541794 0.048359 -0.012160 -79212.700000 0 0 1
14.132196 4.658727 26.814245 30.666373 0.318435 0.506627 0.068239 -0.010194 778202.000000 0 0 1
15.348596 3.937427 27.145155 31.431548 0.251118 0.528374 0.045627 -0.009845 1099460.000000 0 0 1
15.604296 3.956027 28.556275 32.781169 0.248290 0.513321 0.039884 -0.011604 1271440.000000 0 0 1
16.841096 3.013627 28.981675 33.654746 0.177071 0.533275 0.066930 -0.023589 1202220.000000 0 0 1
16.569496 1.626827 28.935775 33.383736 0.097868 0.522122 0.070938 -0.020556 -57227.800000 0 0 1
15.878796 1.127027 30.039405 33.996650 0.070858 0.487303 0.059724 -0.015069 -137396.000000 0 0 1
15.507596 -0.366873 30.037695 33.806557 -0.023653 0.476694 0.064918 -0.022926 362366.000000 0 0 1
14.524196 -0.881673 29.109875 32.544039 -0.060629 0.463538 0.046696 -0.012912 630353.000000 0 0 1
14.953496 -1.025173 27.780795 31.566289 -0.068450 0.494770 0.052123 -0.010429 -837883.000000 0 0 1
15.924996 -2.213673 27.464025 31.824182 -0.138121 0.529633 0.053642 -0.012173 1028820.000000 0 0 1
17.299696 -2.083573 27.838645 32.842213 -0.119863 0.559259 0.070855 -0.026472 914006.000000 0 0 1
18.024496 -1.016573 27.211965 32.655887 -0.056340 0.585756 0.072603 -0.025462 -1201850.000000 0 0 1
19.483796 -0.839773 27.607835 33.801126 -0.043074 0.615001 0.104315 -0.027804 -570420.000000 0 0 1
20.334896 -1.615873 26.792595 33.674355 -0.079296 0.650736 0.083968 -0.024520 -174324.000000 0 0 1
21.669896 -1.458573 27.259315 34.853724 -0.067207 0.672758 0.071328 -0.023950 -312180.000000 0 0 1
22.677696 -1.950473 26.261915 34.752992 -0.085797 0.714114 0.073977 -0.013646 -743359.000000 0 0 1
22.670096 -1.422673 24.926855 33.723958 -0.062673 0.738998 0.084376 0.000678 232373.000000 0 0 1
22.112596 -2.208573 23.839235 32.590702 -0.099548 0.750316 0.090902 0.000672 85708.400000 0 0 1
21.994896 -1.440673 22.489145 31.489882 -0.065407 0.775358 0.090203 -0.009121 -333991.000000 0 0 1
21.116496 -0.372373 22.522645 30.875793 -0.017632 0.753265 0.075550 -0.010934 -357125.000000 0 0 1
21.257196 0.447927 21.431745 30.189215 0.021069 0.781420 0.064978 -0.005619 -121411.000000 0 0 1
-30.040024 -27.323419 -10.414235 41.921696 0.738076 1.821846 -0.014492 0.014112 28835.800000 0 0 1
-30.062524 -26.180819 -9.547235 40.991954 0.716491 1.805860 -0.005477 0.014072 -39569.400000 0 0 1
-30.664484 -26.444919 -8.263235 41.327054 0.711647 1.772101 0.016943 0.005920 -381125.000000 0 0 1
-30.909534 -25.194019 -7.381835 40.554030 0.683874 1.753841 0.044373 -0.008697 102350.000000 0 0 1
-29.808884 -24.442219 -6.887435 39.159014 0.686796 1.747600 0.034334 -0.010412 -714552.000000 0 0 1
-28.977644 -25.131719 -6.009135 38.825467 0.714441 1.726194 0.021848 -0.008660 -95963.900000 0 0 1
-27.807304 -24.202019 -5.540935 37.278490 0.716189 1.719985 0.009597 -0.011540 -240882.000000 0 0 1
-27.986964 -23.183019 -4.612135 36.633241 0.691790 1.697032 0.024969 -0.012290 -516042.000000 0 0 1
-28.576944 -22.062119 -5.154835 36.468495 0.657449 1.712622 0.039552 -0.014473 -272594.000000 0 0 1
-28.599744 -20.946919 -4.168935 35.694520 0.632152 1.687858 0.037155 -0.015594 446466.000000 0 0 1
-27.423084 -20.153719 -4.345335 34.308597 0.633779 1.697792 0.043060 -0.017657 538227.000000 0 0 1
-27.429604 -19.152119 -3.381135 33.624677 0.609536 1.671522 0.049661 -0.008112 237126.000000 0 0 1
-26.370694 -18.027519 -3.647335 32.151330 0.599648 1.684484 0.044794 -0.003695 253539.000000 0 0 1
-26.575434 -17.129919 -4.747035 31.972209 0.572554 1.719821 0.045334 -0.013289 -77048.600000 0 0 1
-25.869834 -15.911419 -4.584535 30.715461 0.551417 1.720614 0.046120 -0.014749 -10254.900000 0 0 1
-26.185634 -14.895619 -5.719235 30.663929 0.517198 1.758408 0.042173 -0.027532 -107753.000000 0 0 1
-27.481204 -14.355219 -5.645535 31.514456 0.481379 1.750910 0.041055 -0.021685 -269071.000000 0 0 1
-27.665834 -13.193919 -6.431635 31.318426 0.445000 1.777631 0.070856 -0.042572 998214.000000 0 0 1
-29.094294 -12.531719 -6.180635 32.275721 0.406712 1.763481 0.066562 -0.025124 937901.000000 0 0 1
-30.098064 -13.404919 -6.652135 33.613036 0.419001 1.770015 0.070021 -0.024940 -453757.000000 0 0 1
-31.339974 -12.803619 -6.367435 34.448089 0.387846 1.756707 0.056479 -0.028378 -485501.000000 0 0 1
-32.532294 -13.535419 -6.983535 35.921128 0.394275 1.766455 0.033023 -0.023016 -409489.000000 0 0 1
-32.943224 -14.700519 -6.287035 36.618138 0.419721 1.743343 0.036111 -0.025951 49539.900000 0 0 1
-32.876274 -15.828719 -7.184135 37.188836 0.448709 1.765198 0.043797 -0.030734 -122767.000000 0 0 1
-33.811774 -16.988119 -6.711935 38.430227 0.465591 1.746349 0.037782 -0.029173 909568.000000 0 0 1
-35.220727 -16.779719 -6.636835 39.574059 0.444603 1.739299 0.028011 -0.027069 596584.000000 0 0 1
-35.717525 -15.970019 -5.565535 39.519087 0.420456 1.712098 0.023189 -0.027733 17080.800000 0 0 1
34.998974 -16.085019 -5.259335 38.875656 -0.430797 1.706499 0.036988 -0.029447 -222019.000000 0 0 1
34.233474 -15.480519 -6.260035 38.088913 -0.424685 1.735899 0.050321 -0.032591 847267.000000 0 0 1
32.804084 -15.398519 -6.110935 36.750046 -0.438876 1.737856 0.070675 -0.039829 1024010.000000 0 0 1
32.177494 -14.616119 -4.957635 35.687536 -0.426370 1.710165 0.088365 -0.042151 -808114.000000 0 0 1
32.398304 -15.255219 -3.739035 36.004891 -0.440069 1.674832 0.080601 -0.040087 371354.000000 0 0 1
31.741594 -14.514619 -2.703635 35.007322 -0.428887 1.648104 0.097497 -0.045981 -861730.000000 0 0 1
31.924514 -15.113019 -1.290335 35.344631 -0.442141 1.607312 0.103694 -0.043671 788666.000000 0 0 1
33.248544 -15.173919 -0.681735 36.553772 -0.428146 1.589448 0.107342 -0.040798 1368840.000000 0 0 1
34.243754 -15.971519 -1.319635 37.808274 -0.436414 1.605707 0.084424 -0.044154 -434229.000000 0 0 1
33.917544 -17.428919 -1.674935 38.170308 -0.474675 1.614691 0.079673 -0.043497 -1026880.000000 0 0 1
34.176354 -18.445519 -0.702035 38.842673 -0.494913 1.588871 0.085062 -0.036758 253272.000000 0 0 1
33.714084 -19.720819 -1.112635 39.074136 -0.529275 1.599275 0.069326 -0.034913 -58348.800000 0 0 1
34.603124 -20.525519 -2.105735 40.287805 -0.535382 1.623087 0.064476 -0.034189 66381.300000 0 0 1
34.725054 -19.856319 -3.343735 40.140794 -0.519438 1.654193 0.042346 -0.035460 -356420.000000 0 0 1
35.576374 -20.566819 -4.161335 41.303622 -0.524163 1.671717 0.051066 -0.032068 -526578.000000 0 0 1
35.764304 -19.989219 -5.590135 41.350985 -0.509662 1.706399 0.055777 -0.033144 -405062.000000 0 0 1
34.708644 -20.044619 -6.517235 40.607279 -0.523719 1.731988 0.047376 -0.036166 -20170.300000 0 0 1
34.899014 -19.151419 -7.581735 40.524076 -0.501896 1.758997 0.047301 -0.039590 -216946.000000 0 0 1
33.747684 -19.330119 -8.586635 39.828256 -0.520167 1.788094 0.044363 -0.045354 -71759.700000 0 0 1
33.873034 -20.566119 -9.310235 40.706611 -0.545663 1.801554 0.053956 -0.048336 358971.000000 0 0 1
32.857034 -20.657819 -10.300235 40.155013 -0.561269 1.830208 0.059308 -0.052913 -79892.900000 0 0 1
32.814594 -22.055119 -10.934535 41.021823 -0.591764 1.840612 0.057824 -0.047256 -43539.200000 0 0 1
32.269374 -22.956619 -9.990835 40.842817 -0.618340 1.817921 0.050798 -0.044342 -6378.060000 0 0 1
32.088394 -24.161919 -10.660735 41.558569 -0.645406 1.830220 0.039426 -0.033111 -540000.000000 0 0 1
31.270164 -25.165819 -9.849535 41.329831 -0.677653 1.811427 0.039393 -0.023441 -27516.200000 0 0 1
29.995344 -24.602919 -9.565335 39.956476 -0.686952 1.812538 0.042394 -0.024108 -254464.000000 0 0 1
29.176734 -25.585319 -8.983335 39.832031 -0.719910 1.798284 0.025217 -0.008097 1469680.000000 0 0 1
27.691144 -25.008719 -8.792335 38.334588 -0.734542 1.802214 0.031425 -0.015279 1582110.000000 0 0 1
26.966294 -24.685819 -9.961135 37.891884 -0.741276 1.836805 0.029577 -0.011236 -243222.000000 0 0 1
25.755594 -24.043019 -9.633935 36.527115 -0.751022 1.837702 0.044986 -0.023431 -263909.000000 0 0 1
24.964494 -23.757019 -10.917635 36.149920 -0.760620 1.877597 0.076999 -0.033071 -549511.000000 0 0 1
24.462994 -24.944719 -11.450035 36.766566 -0.795148 1.887489 0.068848 -0.021008 316431.000000 0 0 1
23.624594 -24.654319 -12.566935 36.385227 -0.806724 1.923446 0.075238 -0.010016 276148.000000 0 0 1
23.006894 -25.923819 -13.286135 37.119846 -0.844941 1.936841 0.076033 -0.013064 775940.000000 0 0 1
23.977794 -26.735919 -13.982635 38.539046 -0.839731 1.942086 0.065630 -0.008410 705072.000000 0 0 1
23.476894 -28.065619 -13.905435 39.143386 -0.874192 1.933971 0.080199 -0.004540 -265621.000000 0 0 1
24.229194 -29.149119 -14.638935 40.632788 -0.877309 1.939358 0.074357 -0.010325 -555652.000000 0 0 1
24.117294 -29.172119 -16.057535 41.115701 -0.879971 1.972020 0.075591 -0.004874 108966.000000 0 0 1
24.377794 -30.488619 -16.490935 42.376688 -0.896317 1.970506 0.076907 -0.000615 -200171.000000 0 0 1
24.316894 -30.544519 -18.000235 42.991714 -0.898430 2.002800 0.072444 -0.002457 -597633.000000 0 0 1
23.073494 -30.162419 -18.489735 42.237755 -0.917780 2.023895 0.066051 -0.006326 -574368.000000 0 0 1
22.885094 -30.364919 -19.865935 42.900014 -0.924951 2.052258 0.056824 -0.005246 49617.300000 0 0 1
21.493294 -29.907019 -20.359035 42.081847 -0.947649 2.075783 0.042307 -0.002351 63104.100000 0 0 1
21.220394 -30.145819 -21.720435 42.788466 -0.957441 2.103221 0.031045 -0.003888 467228.000000 0 0 1
19.903094 -29.740719 -22.075035 42.047006 -0.981028 2.123521 0.032463 -0.013083 -3270.080000 0 0 1
19.637894 -30.011119 -23.554635 42.908449 -0.991366 2.151905 0.035164 -0.011839 -479805.000000 0 0 1
20.339094 -29.167919 -24.413235 43.132961 -0.961878 2.172441 0.044214 -0.010742 236283.000000 0 0 1
20.198494 -29.516919 -25.748445 44.070513 -0.970684 2.194759 0.039399 -0.010085 -291457.000000 0 0 1
20.671894 -28.348319 -26.678295 44.075910 -0.940734 2.220915 0.043444 -0.019783 155432.000000 0 0 1
19.817294 -27.239519 -26.802845 43.047753 -0.941838 2.242896 0.056375 -0.027012 171592.000000 0 0 1
18.711694 -27.390819 -27.685275 43.207163 -0.971477 2.266280 0.068929 -0.032399 101431.000000 0 0 1
17.945094 -26.119419 -28.067175 42.332219 -0.968821 2.295644 0.069511 -0.028666 -335863.000000 0 0 1
17.054594 -25.733119 -27.057465 41.050688 -0.985511 2.290449 0.045791 -0.011822 -403028.000000 0 0 1
16.589994 -24.433419 -27.245135 40.181056 -0.974312 2.315915 0.038185 -0.004488 -159204.000000 0 0 1
15.498094 -24.132819 -26.206365 38.850450 -0.999924 2.311144 0.043783 -0.008464 111605.000000 0 0 1
14.241494 -24.791219 -26.400725 38.915588 -1.049370 2.316393 0.070833 -0.016741 670285.000000 0 0 1
13.197194 -24.334119 -25.512415 37.645699 -1.073859 2.315424 0.055186 -0.014803 637361.000000 0 0 1
13.305594 -24.597119 -23.965835 36.829585 -1.074935 2.279332 0.051550 -0.013196 202818.000000 0 0 1
14.468894 -23.973619 -23.380135 36.478953 -1.027782 2.266494 0.028015 -0.011812 600893.000000 0 0 1
14.543894 -24.284219 -21.966535 35.829832 -1.031184 2.230749 0.030890 -0.018026 -346706.000000 0 0 1
15.752294 -23.710519 -21.258035 35.527842 -0.984393 2.212235 0.023930 -0.024270 -485517.000000 0 0 1
15.585994 -22.320319 -20.981435 34.370634 -0.961221 2.227421 0.014787 -0.027646 576563.000000 0 0 1
16.858394 -21.782719 -20.631535 34.414424 -0.912152 2.213676 0.031211 -0.020000 -907561.000000 0 0 1
16.761594 -20.382019 -20.023235 33.125635 -0.882562 2.219888 0.042425 -0.008882 -28131.900000 0 0 1
16.012394 -20.274119 -18.815835 31.960481 -0.902309 2.200273 0.039233 -0.013777 -319515.000000 0 0 1
14.651394 -20.067319 -19.043335 31.305100 -0.940145 2.224731 0.033898 -0.017105 -995287.000000 0 0 1
13.765994 -20.059619 -17.813135 30.152922 -0.969356 2.202797 0.045244 -0.017780 -274106.000000 0 0 1
13.871294 -18.825419 -17.125335 28.984243 -0.935772 2.202908 0.056834 -0.015918 52918.900000 0 0 1
13.228494 -18.956619 -15.868935 28.038716 -0.961528 2.172400 0.060225 -0.019690 -130415.000000 0 0 1
13.328694 -17.778619 -14.947435 26.779828 -0.927485 2.162963 0.059739 -0.014805 -606573.000000 0 0 1
12.581194 -16.748519 -15.492935 26.054374 -0.926539 2.207612 0.064969 -0.023450 -49482.800000 0 0 1
12.742894 -15.586019 -14.668835 24.909437 -0.885424 2.200477 0.056838 -0.015777 -311326.000000 0 1 0
11.361494 -15.083819 -14.229835 23.645155 -0.925235 2.216559 0.050197 -0.009943 -591719.000000 0 1 0
10.687594 -14.519219 -15.313335 23.654400 -0.936251 2.274935 0.049316 -0.007915 -1026040.000000 0 1 0
9.499594 -13.969619 -14.871735 22.506911 -0.973607 2.292631 0.047321 -0.012204 -933762.000000 0 1 0
8.733494 -13.361319 -16.057935 22.641909 -0.991866 2.359178 0.038165 -0.010664 -208974.000000 0 1 0
9.155094 -12.101319 -16.612435 22.499571 -0.923125 2.401409 0.037206 -0.006557 599629.000000 0 1 0
10.232094 -12.169819 -17.574635 23.699537 -0.871682 2.406189 0.048090 -0.007166 532131.000000 0 1 0
10.298694 -10.942019 -18.563335 23.882803 -0.815676 2.461108 0.045237 -0.010432 -334087.000000 0 1 0
9.257894 -10.925919 -19.499935 24.193631 -0.867853 2.508150 0.033795 -0.011754 -28942.800000 0 1 0
9.344694 -9.801919 -20.336735 24.433250 -0.809274 2.554110 0.023858 -0.015397 -74641.200000 0 1 0
8.940994 -10.097319 -21.771335 25.610316 -0.846060 2.586972 0.026310 -0.010062 -176817.000000 0 0 1
9.906094 -10.832219 -22.468935 26.838791 -0.830026 2.562905 0.028412 -0.003819 -381875.000000 0 0 1
9.603594 -10.926019 -23.868135 27.951651 -0.849725 2.594245 0.025623 0.000629 403195.000000 0 0 1
10.797794 -11.541519 -24.655935 29.286757 -0.818678 2.571554 0.041778 0.001732 270028.000000 0 0 1
10.936494 -12.849319 -24.207835 29.508155 -0.865644 2.532868 0.044270 -0.002042 -546817.000000 0 0 1
12.039694 -13.582119 -24.640435 30.603582 -0.845525 2.506723 0.046230 -0.006916 -324410.000000 0 0 1
11.864994 -15.107319 -24.383735 31.041516 -0.905033 2.474332 0.036100 -0.009623 125927.000000 0 0 1
11.011794 -15.779019 -25.293265 31.780282 -0.961497 2.491255 0.041289 -0.007952 -125806.000000 0 0 1
11.022194 -17.181419 -25.018135 32.289271 -1.000407 2.457215 0.044177 -0.013475 933566.000000 0 0 1
9.600294 -17.804319 -25.285245 32.380597 -1.076274 2.466864 0.049377 -0.015188 853353.000000 0 0 1
9.464594 -18.298419 -26.633885 33.671568 -1.093455 2.483222 0.043893 -0.021537 475682.000000 0 0 1
8.334494 -19.161619 -26.829655 34.006791 -1.160522 2.479894 0.057004 -0.022580 274009.000000 0 0 1
8.535294 -20.100419 -28.042125 35.542072 -1.169237 2.479950 0.055628 -0.029381 211633.000000 0 0 1
9.608694 -21.017819 -27.769695 36.127990 -1.141997 2.447521 0.046355 -0.028193 510984.000000 0 0 1
9.494194 -21.990419 -28.825315 37.478221 -1.163229 2.448262 0.051534 -0.028376 152635.000000 0 0 1
10.342994 -23.273219 -28.634255 38.321545 -1.152596 2.414651 0.049266 -0.016907 78984.900000 0 0 1
10.196494 -24.185819 -29.735825 39.662850 -1.171818 2.418427 0.059129 -0.013794 508929.000000 0 0 1
10.890594 -25.472319 -29.584175 40.529835 -1.166771 2.389024 0.067806 -0.010190 580132.000000 0 0 1
10.287194 -26.468919 -28.515375 40.243716 -1.200111 2.358262 0.061934 -0.006151 144988.000000 0 0 1
10.714694 -26.166119 -27.187985 39.225719 -1.182138 2.336600 0.062073 -0.007337 -177299.000000 0 0 1
9.853694 -26.526919 -26.096995 38.494492 -1.215133 2.315754 0.056480 -0.009400 754747.000000 0 0 1
8.981294 -25.307919 -25.625425 37.118955 -1.229780 2.332782 0.043786 -0.009176 740096.000000 0 0 1
9.837294 -24.366819 -24.960735 36.242965 -1.187090 2.330499 0.044943 -0.007049 808531.000000 0 0 1
9.018394 -23.214019 -24.693535 35.071253 -1.200252 2.351946 0.037699 -0.010251 737811.000000 0 0 1
9.867494 -21.882519 -24.511335 34.307691 -1.147169 2.366643 0.049235 -0.014006 547575.000000 0 0 1
10.562694 -21.818319 -23.250835 33.588851 -1.119933 2.335355 0.054054 -0.018803 206395.000000 0 0 1
11.582594 -20.851919 -23.282235 33.331989 -1.063764 2.344089 0.049836 -0.021507 -322973.000000 0 0 1
12.154294 -20.587919 -21.857535 32.393535 -1.037495 2.311422 0.044032 -0.021620 -97001.700000 0 0 1
11.230594 -20.018619 -20.925035 31.060078 -1.059541 2.309994 0.051303 -0.017297 101456.000000 0 0 1
10.869994 -18.652519 -21.177335 30.241574 -1.043148 2.346575 0.055825 -0.018034 717719.000000 0 0 1
12.013094 -17.527619 -21.095335 29.942362 -0.969949 2.352559 0.040097 -0.018644 1219420.000000 0 0 1
13.057894 -17.735919 -22.037235 31.156238 -0.936160 2.356487 0.037870 -0.015143 -192753.000000 0 0 1
14.276994 -17.182619 -21.612135 31.083104 -0.877497 2.339636 0.038981 -0.011425 -963390.000000 0 0 1
15.338694 -17.427419 -22.618035 32.412436 -0.849059 2.343145 0.022931 0.006148 -1005220.000000 0 0 1
16.643394 -17.386919 -22.088535 32.668194 -0.807244 2.313318 0.030773 -0.001152 -254544.000000 0 0 1
17.605894 -17.192119 -23.057935 33.722468 -0.773508 2.323694 0.031251 0.001099 -969905.000000 0 0 1
19.036594 -17.408719 -22.586435 34.287060 -0.740762 2.289946 0.027543 -0.006140 -679693.000000 0 0 1
19.307394 -18.786419 -22.436835 35.058759 -0.771723 2.265266 0.027946 -0.008497 249999.000000 0 0 1
20.603294 -18.970319 -21.890035 35.546341 -0.744157 2.234219 0.022369 -0.017458 265022.000000 0 0 1
20.787194 -20.466519 -21.525935 36.253989 -0.777625 2.206512 0.034426 -0.017573 -376404.000000 0 0 1
20.090594 -20.819119 -20.372035 35.384849 -0.803204 2.184290 0.026632 -0.020701 -30693.800000 0 0 1
20.144894 -22.201819 -20.175135 36.135490 -0.833933 2.163155 0.037103 -0.016381 -1282600.000000 0 0 1
-15.666904 12.887927 28.823845 35.247192 -0.688383 0.613283 0.049186 -0.022240 -471561.000000 0 0 1
-16.731904 13.644127 28.320665 35.611499 -0.684094 0.651348 0.070766 -0.029658 -182371.000000 0 0 1
-16.911904 13.406527 26.949295 34.525526 -0.670291 0.675233 0.058690 -0.030420 -724925.000000 0 0 1
-18.184404 14.026727 26.438505 35.020225 -0.657032 0.715219 0.077199 -0.030307 -791127.000000 0 0 1
-18.148204 15.437927 26.424885 35.580352 -0.704876 0.733730 0.076756 -0.031543 -369112.000000 0 0 1
-19.300804 16.085027 25.956775 36.124829 -0.694770 0.769110 0.092092 -0.029224 -689922.000000 0 0 1
-19.386904 17.611727 26.217325 37.059049 -0.737455 0.784916 0.104455 -0.020460 602404.000000 0 0 1
-18.363504 18.467227 25.630545 36.540136 -0.788214 0.793387 0.041293 -0.022090 234868.000000 0 0 1
-17.218304 18.411027 26.438935 36.530168 -0.818862 0.761566 0.032830 -0.008089 -368851.000000 0 0 1
-16.048004 19.282327 25.883465 36.045808 -0.876689 0.769769 0.034478 -0.009268 155615.000000 0 0 1
-16.346004 20.675027 25.898555 36.951099 -0.901804 0.794156 0.043227 -0.012723 579428.000000 0 0 1
-15.183304 21.444727 25.560495 36.657167 -0.954708 0.799193 0.045425 -0.018759 394370.000000 0 0 1
-15.399404 22.930027 25.523285 37.608055 -0.979398 0.824852 0.043377 -0.022205 -243761.000000 0 0 1
-15.274904 23.554727 26.787185 38.803365 -0.995486 0.808849 0.040911 -0.017972 55008.800000 0 0 1
-15.562904 24.915927 26.602915 39.632341 -1.012473 0.834912 0.040962 -0.021998 -610512.000000 0 0 1
-15.066204 25.796127 27.747065 40.771685 -1.042188 0.822287 0.022958 -0.013752 340514.000000 0 0 1
-13.693304 26.137527 27.582815 40.391689 -1.088216 0.819094 0.023784 -0.016813 422389.000000 0 0 1
-13.187404 27.189227 28.460895 41.511254 -1.119202 0.815343 0.032381 -0.005771 1034670.000000 0 0 1
-11.637404 27.226427 28.670515 41.215360 -1.166869 0.801504 0.049402 -0.012924 688208.000000 0 0 1
-10.900304 27.748827 27.598985 40.626567 -1.196495 0.823942 0.053967 -0.020516 -356991.000000 0 0 1
-9.526004 27.642127 27.902195 40.414903 -1.238923 0.808763 0.041911 -0.015464 -616508.000000 0 0 1
-8.736704 28.115327 26.730895 39.766095 -1.269511 0.833616 0.055221 -0.024105 397426.000000 0 0 1
-7.297104 28.166927 26.862595 39.600789 -1.317303 0.825302 0.037536 -0.022244 998297.000000 0 0 1
-6.782604 28.708327 25.685905 39.114415 -1.338791 0.854380 0.057203 -0.029439 195386.000000 0 0 1
-5.261604 28.386227 25.558185 38.557531 -1.387519 0.846166 0.010733 -0.023382 -592802.000000 0 0 1
-4.517404 29.033427 26.537025 39.592430 -1.416441 0.836244 0.020312 -0.021704 -459950.000000 0 0 1
-3.128804 28.951427 26.317245 39.250120 -1.463143 0.835912 -0.000282 -0.013950 -128872.000000 0 0 1
-2.545404 29.887227 25.279585 39.227322 -1.485834 0.870508 -0.007708 -0.006641 -1308100.000000 0 0 1
-2.840204 29.552827 23.940865 38.139236 -1.474985 0.892172 -0.010736 0.000089 -341188.000000 0 0 1
-2.409004 30.570627 23.096445 38.390263 -1.492158 0.925266 -0.013546 0.000994 -401423.000000 0 0 1
-2.910504 30.345027 21.650145 37.390112 -1.475175 0.953253 -0.004436 0.004769 37337.100000 0 0 1
-4.283004 30.146927 21.427745 37.233447 -1.429670 0.957584 0.001026 0.004870 -451482.000000 0 0 1
-4.620004 28.782927 21.637345 36.303939 -1.411642 0.932279 0.000713 -0.002357 -771534.000000 0 0 1
-6.101404 28.510027 21.355945 36.140353 -1.359968 0.938601 0.031472 -0.008208 -521670.000000 0 0 1
-6.401104 28.766227 19.963045 35.594846 -1.351842 0.975395 0.020520 -0.003943 176302.000000 0 0 1
-7.338304 27.887527 19.334945 34.718942 -1.313490 0.980149 0.022732 -0.012611 -973097.000000 0 0 1
-6.938304 26.471227 18.974745 33.300253 -1.314455 0.964524 0.016333 -0.007949 268022.000000 0 0 1
-5.944504 26.365327 17.937045 32.437712 -1.349038 0.984873 0.013861 -0.006668 908354.000000 0 0 1
-4.624904 26.687327 18.395445 32.741343 -1.399201 0.974186 0.014729 -0.000256 -435380.000000 0 0 1
-3.685504 26.996827 17.230845 32.238387 -1.435119 1.006901 0.017924 -0.006318 -205357.000000 0 0 1
-3.260404 25.864727 16.495545 30.849916 -1.445402 1.006640 0.029561 -0.012341 -66381.300000 0 0 1
-2.516204 26.189627 15.322345 30.446709 -1.475014 1.043439 0.031213 -0.023302 181465.000000 0 0 1
-1.908104 24.974727 14.624645 29.004449 -1.494543 1.042317 0.034478 -0.024915 362997.000000 0 0 1
-0.879704 24.339727 15.395845 28.813681 -1.534669 1.007088 0.029825 -0.024643 412903.000000 0 0 1
-0.226804 23.313127 14.603345 27.510198 -1.561068 1.011212 0.033041 -0.035058 -815587.000000 0 0 1
1.052196 22.847427 15.240845 27.484457 1.524776 0.983003 0.023210 -0.031271 -878583.000000 0 0 1
2.055996 23.829627 15.166645 28.321465 1.484730 1.005676 0.023102 -0.035825 16198.900000 0 0 1
3.274396 23.324027 15.705945 28.309161 1.431321 0.982673 0.022700 -0.026976 31278.100000 0 0 1
4.474796 24.243827 15.520545 29.132014 1.388276 1.008931 0.028739 -0.026390 -473449.000000 0 0 1
5.718596 23.594727 15.592145 28.853569 1.333014 0.999897 0.023799 -0.018397 -20019.700000 0 0 1
6.726296 24.606727 15.690345 29.948639 1.303963 1.019363 0.032633 -0.010980 389253.000000 0 0 1
8.181296 24.086127 15.883945 29.989579 1.243355 1.012610 0.039895 -0.002315 366105.000000 0 0 1
8.671396 23.334227 14.806745 28.964098 1.214995 1.034204 0.031366 -0.003597 292476.000000 0 0 1
9.468296 24.133427 13.895345 29.413458 1.196918 1.078768 0.030256 -0.005143 112243.000000 0 0 1
10.018396 23.351827 12.674545 28.395777 1.165526 1.108110 0.033610 -0.006699 157009.000000 0 0 1
11.005396 22.414527 13.130945 28.212612 1.114380 1.086678 0.037935 -0.004488 170266.000000 0 0 1
11.575796 21.835627 11.959645 27.455906 1.083334 1.120098 0.046501 -0.007531 64065.400000 0 0 1
12.738996 20.862727 12.152145 27.298535 1.022612 1.109446 0.037704 0.000028 -464706.000000 0 0 1
12.312396 19.664027 12.752945 26.474642 1.011379 1.068198 0.042575 -0.002146 140994.000000 0 0 1
13.270496 18.662527 13.149545 26.406562 0.952675 1.049546 0.049334 -0.003622 -192496.000000 0 0 1
14.208696 19.014627 14.309945 27.716739 0.929057 1.028280 0.053038 0.000431 -289951.000000 0 0 1
15.198496 17.998427 14.446845 27.634200 0.869542 1.020677 0.049797 -0.001632 271494.000000 0 0 1
15.598196 17.924327 15.770445 28.518278 0.854677 0.984843 0.051093 -0.006487 22527.500000 0 0 1
16.604896 16.739427 15.899345 28.438006 0.789433 0.977511 0.038731 -0.016714 48660.300000 0 0 1
17.280296 16.626527 17.123445 29.466293 0.766119 0.950692 0.054779 -0.028134 -306188.000000 0 0 1
18.543596 16.065427 16.898445 29.791280 0.713915 0.967660 0.051461 -0.031319 -261820.000000 0 0 1
19.228496 15.820227 18.268145 30.882677 0.688459 0.937837 0.060728 -0.032645 -217884.000000 0 0 1
19.652196 16.852627 19.082245 32.161342 0.708858 0.935609 0.077950 -0.023879 141243.000000 0 0 1
18.593196 17.404727 19.806445 32.263396 0.752395 0.909807 0.065808 -0.021452 -259613.000000 0 0 1
19.112896 18.532827 20.777145 33.770671 0.769991 0.908103 0.070502 -0.022285 551093.000000 0 0 1
18.070296 19.318127 21.375845 34.009592 0.818761 0.891142 0.067655 -0.023321 430556.000000 0 0 1
18.679296 20.420327 22.027745 35.371279 0.829897 0.898534 0.064691 -0.013441 61657.400000 0 0 1
17.821696 21.504227 22.719045 36.002773 0.878767 0.887908 0.074922 -0.011167 17950.400000 0 0 1
17.096396 21.084527 23.870145 36.147308 0.889474 0.849502 0.077451 -0.015430 551931.000000 0 0 1
16.287296 22.131027 24.441245 36.775438 0.936349 0.843827 0.070763 -0.018646 287883.000000 0 0 1
15.553496 21.783227 25.747125 37.139395 0.950728 0.804799 0.085208 -0.016570 -238312.000000 0 0 1
14.619996 20.773527 25.553485 36.031435 0.957538 0.782434 0.078233 -0.019173 -535379.000000 0 0 1
13.864396 20.519027 26.732585 36.440130 0.976576 0.747188 0.074682 -0.022554 -138143.000000 0 0 1
12.843096 19.395527 26.587465 35.327396 0.985915 0.718792 0.096526 -0.019593 -259168.000000 0 0 1
13.354796 18.058527 26.574965 34.794967 0.934031 0.701680 0.079900 -0.030809 51577.100000 0 0 1
13.941296 17.564527 25.357585 33.850841 0.899897 0.724097 0.090851 -0.030233 -165489.000000 0 0 1
12.974996 17.223327 24.197685 32.411749 0.925162 0.727903 0.097080 -0.028829 -215176.000000 0 0 1
12.466796 18.327027 23.367345 32.207666 0.973455 0.759005 0.087906 -0.021861 386791.000000 0 0 1
13.358696 18.983027 22.436745 32.283395 0.957579 0.802386 0.079498 -0.019887 353954.000000 0 0 1
14.130496 18.090727 21.425045 31.400285 0.907692 0.819865 0.089521 -0.019916 94665.900000 0 0 1
13.274396 17.458627 20.459945 29.993709 0.920714 0.820109 0.066021 -0.014533 198521.000000 0 0 1
13.974696 16.543027 19.696645 29.273225 0.869359 0.832735 0.059096 -0.015899 -206757.000000 0 0 1
13.032396 15.861927 18.702245 27.770813 0.883014 0.831931 0.063646 -0.014684 120115.000000 0 0 1
12.404196 16.674827 17.721745 27.312528 0.931219 0.864724 0.060897 -0.004360 1118390.000000 0 0 1
11.446096 15.919427 16.887345 25.877088 0.947431 0.859788 0.054175 -0.019527 898458.000000 0 0 1
10.846296 16.620427 15.680245 25.293296 0.992604 0.902134 0.049964 -0.008165 -107140.000000 0 0 1
10.038896 17.736127 15.895645 25.846105 1.055741 0.908396 0.038882 -0.004881 -39940.100000 0 0 1
9.929296 18.379327 14.640745 25.509645 1.075475 0.959500 0.037090 -0.003986 -259494.000000 0 0 1
8.999596 19.628527 14.637245 26.086792 1.140900 0.975085 0.034796 -0.004784 -331526.000000 0 0 1
7.653896 19.323827 14.873645 25.558124 1.193669 0.949667 0.034730 -0.016717 -897799.000000 0 0 1
6.984896 20.535727 14.873045 26.300424 1.242938 0.969750 0.031836 -0.013803 224206.000000 0 0 1
5.545896 20.400427 15.464245 26.193076 1.305359 0.939249 0.036713 -0.013105 280545.000000 0 0 1
4.599996 19.663427 14.704145 24.980436 1.340992 0.941438 0.038390 -0.020910 289440.000000 0 1 0
3.557796 19.364927 15.658045 25.156166 1.389099 0.898948 0.027973 -0.012259 245229.000000 0 0 1
2.212596 18.897927 15.113745 24.299229 1.454246 0.899522 0.023822 -0.014092 -260231.000000 0 1 0
1.515396 19.773627 14.274845 24.434892 1.494309 0.946903 0.022748 -0.022169 -228992.000000 0 1 0
0.612096 19.042127 13.463445 23.328986 1.538663 0.955608 0.024543 -0.027742 454151.000000 0 1 0
-0.372204 19.975127 12.658145 23.651065 -1.552165 1.006047 0.031419 -0.031820 662253.000000 0 1 0
-1.452504 20.608027 13.360845 24.603104 -1.500430 0.996725 0.036545 -0.029072 328687.000000 0 1 0
-2.378504 20.930827 12.320045 24.403694 -1.457645 1.041596 0.034660 -0.021321 -109553.000000 0 1 0
-3.549604 21.758927 12.831945 25.509006 -1.409088 1.043688 0.031578 -0.020109 140464.000000 0 0 1
-4.476804 21.066427 13.685445 25.517200 -1.361402 1.004723 0.033444 -0.020361 448346.000000 0 0 1
-5.559804 21.885027 14.106345 26.624327 -1.322013 1.012397 0.027086 -0.008543 55195.600000 0 0 1
-6.374104 21.210027 15.194245 26.858137 -1.278860 0.969487 0.021933 -0.010593 -1334440.000000 0 0 1
-7.333604 20.293627 14.781145 26.155215 -1.224024 0.970203 0.015580 -0.005381 -95733.800000 0 0 1
-8.023804 19.777227 15.952745 26.646017 -1.185378 0.928930 0.003174 0.011576 616996.000000 0 0 1
-9.092404 20.698927 16.692245 28.102463 -1.156902 0.934802 0.001741 0.021291 1133180.000000 0 0 1
-10.340904 20.838127 15.980845 28.223204 -1.110154 0.968871 -0.002140 0.011579 1109170.000000 0 0 1
-11.347304 19.880327 16.353645 28.132373 -1.052139 0.950458 -0.009762 0.019223 306356.000000 0 0 1
-12.543304 19.915727 15.359245 28.104751 -1.008739 0.992617 0.003712 0.008769 -437610.000000 0 0 1
-13.290504 21.079527 15.411345 29.300060 -1.008256 1.016925 -0.002525 0.008978 -1229600.000000 0 0 1
-14.150804 21.068727 14.385645 29.173332 -0.979352 1.055136 0.002691 -0.002273 -1099390.000000 0 0 1
-15.153104 22.249627 14.347045 30.504100 -0.972902 1.081130 0.011922 -0.006247 152925.000000 0 0 1
-16.406104 21.814727 14.834645 31.066207 -0.925975 1.072970 0.022538 -0.012217 -131259.000000 0 0 1
-17.342004 22.880327 14.996545 32.390597 -0.922230 1.089430 0.034657 -0.018928 172218.000000 0 0 1
-18.472004 22.415327 15.930945 33.127886 -0.881544 1.069124 0.054548 -0.023739 -686481.000000 0 0 1
-19.297904 21.458927 15.266245 32.648934 -0.838371 1.084236 0.047152 -0.021839 977806.000000 0 0 1
-20.509904 21.176227 16.019045 33.551431 -0.801381 1.073049 0.056205 -0.021931 1759880.000000 0 0 1
-21.661004 22.254727 15.999245 34.934908 -0.798917 1.095083 0.058588 -0.027304 -400628.000000 0 0 1
-22.444504 22.310227 14.836445 34.951710 -0.782398 1.132404 0.063416 -0.026251 256861.000000 0 0 1
-23.273604 23.472327 14.868645 36.244825 -0.789649 1.148092 0.087332 -0.037984 -24718.700000 0 0 1
-22.671204 24.625027 14.032145 36.294304 -0.826685 1.173831 0.053879 -0.024195 -25564.500000 0 0 1
-21.415104 25.013027 14.538945 35.994987 -0.862738 1.155003 0.031376 -0.022896 -134578.000000 0 0 1
-20.902504 26.063427 13.710345 36.113577 -0.894846 1.181384 0.033537 -0.012377 -778814.000000 0 0 1
-19.519104 26.544627 14.094745 35.836775 -0.936749 1.166574 0.028446 -0.010667 -449346.000000 0 0 1
-18.481604 25.827727 13.423845 34.479570 -0.949695 1.170895 0.035827 -0.003290 -1150650.000000 0 0 1
-17.380904 26.617127 13.337845 34.474126 -0.992317 1.173535 0.028618 -0.009936 -1498310.000000 0 0 1
-16.214304 25.890027 12.657545 33.066759 -1.011280 1.177985 0.031368 -0.009517 -883727.000000 0 0 1
-15.022604 26.580627 12.821045 33.114763 -1.056380 1.173236 0.024520 -0.003230 -957243.000000 0 0 1
-14.061004 25.982927 11.989745 31.883825 -1.074763 1.185272 0.014594 0.001459 -29148.600000 0 0 1
-12.639404 26.587627 12.189245 31.862739 -1.127033 1.178236 0.002716 0.004858 -611560.000000 0 0 1
-11.692704 25.783127 11.536145 30.570764 -1.145034 1.183854 0.001474 0.000286 926575.000000 0 0 1
-10.310904 26.138427 11.773445 30.465490 -1.195064 1.174015 0.013399 -0.007555 1112280.000000 0 0 1
-9.853904 27.362527 10.966945 31.081846 -1.225131 1.210191 0.011840 -0.009049 -872948.000000 0 0 1
-8.664704 27.917027 11.487245 31.406914 -1.269850 1.196352 0.031216 -0.016266 -2763.840000 0 0 1
-8.273304 29.041527 10.737145 32.049089 -1.293270 1.229168 0.030582 -0.018582 -123668.000000 0 0 1
-7.104104 29.813527 11.382545 32.693684 -1.336874 1.215192 0.021485 -0.017777 684236.000000 0 0 1
-5.912604 29.021427 11.467845 31.760251 -1.369815 1.201376 0.038881 -0.021968 1083730.000000 0 0 1
-4.792104 29.757127 12.054245 32.461603 -1.411127 1.190346 0.051026 -0.031564 1396610.000000 0 0 1
-3.446304 29.158527 11.535445 31.546207 -1.453150 1.196446 0.053759 -0.037371 103497.000000 0 0 1
-3.215804 29.452327 10.165545 31.322823 -1.462040 1.240270 0.053267 -0.032236 12225.100000 0 0 1
-1.918504 29.089727 9.753245 30.741156 -1.504940 1.247947 0.049472 -0.028647 190082.000000 0 0 1
-1.469204 29.825927 8.456345 31.036337 -1.521577 1.294841 0.037002 -0.023091 255812.000000 0 0 1
-2.280104 29.454927 7.349045 30.443391 -1.493540 1.326988 0.053456 -0.023964 212783.000000 0 0 1
-2.361704 30.481927 6.356645 31.227111 -1.493472 1.365802 0.044401 -0.014387 35636.400000 0 0 1
11.776596 -33.992619 -26.553745 44.713396 -1.237291 2.206651 0.060634 -0.013988 -3279.220000 0 0 1
11.949096 -33.624619 -25.191025 43.680472 -1.229348 2.185494 0.059323 -0.017165 909477.000000 0 0 1
13.236396 -33.005819 -25.004135 43.471750 -1.189400 2.183622 0.063101 -0.014547 875130.000000 0 0 1
13.893796 -33.033119 -23.591035 42.904096 -1.172657 2.152987 0.057705 -0.016207 -713890.000000 0 0 1
13.344496 -32.083519 -22.753135 41.534720 -1.176633 2.150541 0.063216 -0.019640 105433.000000 0 0 1
13.855396 -32.073419 -21.419835 40.981527 -1.163020 2.120777 0.040584 -0.013229 429266.000000 0 0 1
15.380796 -31.790019 -21.235135 41.208072 -1.120172 2.112171 0.023596 -0.013504 231958.000000 0 0 1
16.174496 -32.883419 -21.612335 42.544408 -1.113671 2.103651 0.028708 -0.004725 -282830.000000 0 0 1
17.558996 -32.604019 -21.511435 42.826187 -1.076784 2.097049 0.015079 -0.009699 246986.000000 0 0 1
18.452596 -33.851019 -21.723735 44.252802 -1.071714 2.083920 0.012783 0.001000 421402.000000 0 0 1
19.863596 -33.640519 -21.689635 44.684307 -1.037416 2.077614 0.016979 0.007893 933092.000000 0 0 1
20.501396 33.681027 -21.877835 45.092776 1.024010 2.077358 0.013657 0.019694 9010.660000 0 0 1
22.017796 33.719227 -21.585635 45.691457 0.992333 2.062833 0.030394 0.020467 -34445.500000 0 0 1
22.643696 -34.198819 -22.664035 46.861015 -0.985949 2.075609 0.024058 0.018457 494116.000000 0 0 1
24.066196 -34.229219 -22.512535 47.514582 -0.958000 2.064400 0.024566 0.018261 541361.000000 0 0 1
24.794196 -33.540819 -23.669035 47.957919 -0.934227 2.086949 0.032724 0.006238 -215035.000000 0 0 1
24.819196 -32.126719 -23.708235 47.012754 -0.913025 2.099360 0.043756 0.006449 519087.000000 0 0 1
23.573796 -31.481119 -24.013335 46.080636 -0.928049 2.118954 0.028612 0.004699 600497.000000 0 0 1
23.756896 -29.949819 -23.907235 45.088110 -0.900201 2.129672 0.034294 -0.011993 137695.000000 0 0 1
24.514896 -29.246519 -24.878735 45.555356 -0.873183 2.148523 0.037490 -0.017881 -208410.000000 0 0 1
24.506996 -27.923719 -24.436735 44.468877 -0.850473 2.152591 0.053272 -0.010703 159773.000000 0 0 1
24.923796 -26.930119 -25.515865 44.693247 -0.824071 2.178411 0.042792 -0.009482 87926.200000 0 0 1
24.112696 -26.922019 -26.677845 44.921316 -0.840390 2.206668 0.038820 -0.012413 -251472.000000 0 0 1
24.802996 -26.274419 -27.719165 45.539937 -0.814198 2.225190 0.035995 -0.007269 -817569.000000 0 0 1
23.830096 -25.916319 -28.823755 45.500967 -0.827311 2.256833 0.035300 -0.013907 381628.000000 0 0 1
22.995796 -24.766419 -28.643475 44.301590 -0.822453 2.273858 0.047072 -0.015350 373934.000000 0 0 1
21.932096 -24.951719 -27.705715 43.257506 -0.849716 2.265924 0.038954 -0.011939 -1073590.000000 0 0 1
21.113696 -23.743219 -27.535965 42.044714 -0.843951 2.284874 0.039077 -0.011386 -705404.000000 0 0 1
20.558896 -23.255819 -28.731295 42.296438 -0.846874 2.317583 0.058382 -0.019799 -181484.000000 0 0 1
20.199196 -21.956719 -28.547035 41.292109 -0.827065 2.334143 0.048760 -0.007204 -230388.000000 0 0 1
19.225096 -21.467519 -29.661495 41.355326 -0.840449 2.370623 0.073184 -0.013142 -9786.060000 0 0 1
18.027696 -22.203019 -29.612895 41.169108 -0.888812 2.373589 0.063222 -0.018425 -470731.000000 0 0 1
17.006496 -21.585919 -30.329565 40.927440 -0.903507 2.405440 0.058585 -0.021373 -409107.000000 0 0 1
15.664396 -22.321819 -30.200615 40.690467 -0.958895 2.407149 0.058773 -0.022949 -393329.000000 0 0 1
15.758596 -23.530919 -30.944885 41.947866 -0.980698 2.400452 0.047029 -0.010819 386947.000000 0 0 1
14.810796 -24.488519 -30.493015 41.819508 -1.026851 2.387887 0.056942 -0.018402 -36700.000000 0 0 1
15.201196 -25.900619 -30.931125 43.112097 -1.040061 2.370943 0.069706 -0.017712 401905.000000 0 0 1
14.265896 -26.906819 -30.555245 43.140650 -1.083285 2.357841 0.071233 -0.012907 265704.000000 0 0 1
14.871596 -28.117819 -30.837415 44.302622 -1.084295 2.340696 0.085970 -0.021796 144327.000000 0 0 1
14.302796 -29.268419 -29.977175 44.270096 -1.116248 2.314669 0.080359 -0.021050 -230587.000000 0 0 1
14.646696 -29.331819 -28.609065 43.512756 -1.107673 2.288275 0.102025 -0.024401 -57670.400000 0 0 1
14.108396 -28.341719 -27.747805 42.097988 -1.108913 2.290450 0.084817 -0.016254 -234331.000000 0 0 1
14.983296 -28.089919 -26.522165 41.436312 -1.080783 2.265386 0.066748 -0.018705 -246226.000000 0 0 1
15.059496 -29.143219 -25.573335 41.594605 -1.093846 2.232958 0.066332 -0.025512 -469505.000000 0 0 1
15.893896 -28.922919 -24.494035 41.098771 -1.068317 2.209282 0.067732 -0.025206 -1128690.000000 0 0 1
15.346496 -28.034919 -23.279435 39.539901 -1.069946 2.200318 0.049600 -0.020156 816737.000000 0 0 1
14.312996 -28.707519 -22.536835 39.203220 -1.108285 2.183244 0.050324 -0.020580 606737.000000 0 0 1
13.053796 -28.803819 -23.167935 39.202230 -1.145287 2.203076 0.059645 -0.014083 -1080350.000000 0 0 1
11.846696 -28.382219 -22.367535 38.028952 -1.175382 2.199592 0.043131 -0.013399 -504869.000000 0 0 1
11.811696 -26.998219 -22.114435 36.843836 -1.158387 2.214573 0.037600 -0.014537 33773.300000 0 0 1
10.596296 -26.573219 -21.540035 35.810482 -1.191361 2.216175 0.038588 -0.013847 -195498.000000 0 0 1
10.453396 -25.016219 -21.327835 34.495815 -1.174985 2.237340 0.049023 -0.014291 -166012.000000 0 0 1
10.739396 -24.456119 -20.114235 33.436789 -1.157019 2.216249 0.048705 -0.018285 47976.700000 0 0 1
10.513596 -23.052719 -20.195435 32.400913 -1.142908 2.243750 0.052431 -0.020757 -248104.000000 0 0 1
10.828896 -22.296319 -18.857635 31.144843 -1.118669 2.221167 0.049839 -0.018110 124607.000000 0 0 1
10.056696 -22.806819 -17.765635 30.608919 -1.155493 2.190025 0.058545 -0.025576 265159.000000 0 0 1
10.112596 -21.934719 -16.634435 29.327478 -1.138807 2.173894 0.056803 -0.025583 -95173.600000 0 0 1
9.328896 -22.410219 -15.367535 28.729904 -1.176336 2.135182 0.063952 -0.022767 280851.000000 0 0 1
9.869696 -23.630119 -14.859235 29.607268 -1.175147 2.096565 0.048312 -0.016284 134726.000000 0 0 1
9.408396 -23.905119 -13.580035 29.058390 -1.195843 2.057072 0.051677 -0.013047 -33413.900000 0 0 1
9.559796 -25.413719 -13.188435 30.185786 -1.211003 2.022956 0.063661 -0.011251 -219664.000000 0 0 1
10.920296 -25.688619 -13.025235 30.802837 -1.168839 2.007393 0.055534 -0.017960 -507618.000000 0 0 1
11.067996 -27.038319 -13.116835 32.025343 -1.182260 1.992786 0.061983 -0.031946 408372.000000 0 0 1
12.429896 -27.656419 -12.590735 32.831486 -1.148408 1.964375 0.051597 -0.028246 1699910.000000 0 0 1
13.727296 -27.355819 -13.135935 33.306641 -1.105705 1.976204 0.045168 -0.023779 885422.000000 0 0 1
13.819696 -27.633919 -14.502835 34.131360 -1.107069 2.009661 0.049726 -0.022571 -844296.000000 0 0 1
15.159796 -27.420819 -15.245835 34.844745 -1.065762 2.023653 0.036906 -0.017739 -1058.590000 0 0 1
16.202196 -28.320619 -14.908035 35.872248 -1.051145 1.999384 0.050380 -0.019567 -73718.700000 0 0 1
17.376096 -27.756719 -15.467435 36.216098 -1.011468 2.012065 0.055555 -0.020764 915629.000000 0 0 1
18.639396 -28.711919 -15.295335 37.493315 -0.994993 1.991002 0.051246 -0.019328 955276.000000 0 0 1
18.625496 -29.915519 -16.072635 38.732119 -1.013922 1.998705 0.045591 -0.016882 -580431.000000 0 0 1
19.936296 -30.365119 -16.224935 39.783727 -0.989829 1.990871 0.059992 -0.011033 -198468.000000 0 0 1
20.174296 -31.430519 -17.321635 41.169392 -1.000158 2.005058 0.047390 -0.011511 -141142.000000 0 0 1
19.664396 -32.692819 -17.001435 41.767903 -1.029282 1.990013 0.041495 -0.005212 25783.100000 0 0 1
20.278996 -33.716619 -17.776735 43.174766 -1.029308 1.995158 0.030636 0.004275 16900.800000 0 0 1
19.972096 33.426227 -17.371135 42.637467 1.032219 1.990418 0.018845 0.009732 -950070.000000 0 0 1
20.783196 32.884827 -16.353335 42.199344 1.007179 1.968742 0.034440 0.008469 25774.400000 0 0 1
20.374396 31.588027 -15.926135 40.823538 0.997941 1.971560 0.015312 0.010507 -179608.000000 0 0 1
21.341896 31.033527 -14.839135 40.481554 0.968370 1.946111 0.029658 0.005411 867237.000000 0 0 1
22.664296 30.740227 -15.324835 41.151943 0.935483 1.952386 0.045891 0.000441 1529130.000000 0 0 1
23.714696 30.458927 -14.362635 41.187599 0.909254 1.926993 0.057952 -0.009688 990485.000000 0 0 1
23.485296 29.322827 -13.345335 39.868349 0.895493 1.912120 0.055317 -0.003447 -960513.000000 0 0 1
23.373796 28.041827 -13.912335 39.067012 0.875940 1.934903 0.060583 0.003112 56368.300000 0 0 1
22.915196 27.060027 -13.023735 37.775242 0.868146 1.922789 0.017832 0.005413 729607.000000 0 0 1
21.377696 26.948827 -12.748735 36.684812 0.900173 1.925722 0.014862 0.009658 447926.000000 0 0 1
20.620796 26.301127 -13.776435 36.149089 0.905871 1.961783 0.023585 0.005201 815450.000000 0 0 1
19.198096 26.406527 -13.691335 35.402319 0.942165 1.967885 0.028916 0.003658 987297.000000 0 0 1
18.411196 27.774927 -13.802735 36.068465 0.985426 1.963493 0.026078 0.000751 -100354.000000 0 0 1
18.582896 28.539127 -15.023135 37.222310 0.993622 1.986251 0.026740 -0.000059 56371.100000 0 0 1
17.990596 27.986527 -16.190635 37.000593 0.999478 2.023699 0.014058 0.002632 -67407.900000 0 0 1
18.226896 28.949927 -17.464635 38.410044 1.008895 2.042820 0.010260 0.008911 -52103.100000 0 0 1
17.532996 30.176427 -17.415735 39.004237 1.044452 2.033656 0.007840 0.006915 -20414.500000 0 0 1
17.701296 30.836727 -18.623035 40.137975 1.049689 2.053274 -0.001554 0.016194 -482207.000000 0 0 1
16.782596 32.024827 -18.839435 40.769712 1.088095 2.051151 -0.007325 0.015908 -198413.000000 0 0 1
17.138796 33.217727 -18.090735 41.526262 1.094468 2.021552 -0.003206 -0.002705 -277796.000000 0 0 1
16.245496 34.278627 -18.454135 42.184067 1.128226 2.023576 0.006756 -0.008849 71913.500000 0 0 1
16.363496 -32.860419 -17.845535 40.817083 -1.108774 2.023288 0.003200 -0.010999 167197.000000 0 0 1
15.204796 -32.091919 -18.139435 39.876261 -1.128337 2.043048 0.008761 -0.010532 145929.000000 0 0 1
14.748596 -31.339719 -17.058135 38.609313 -1.130941 2.028416 0.015390 -0.012362 25276.500000 0 0 1
13.594996 -30.372319 -17.398935 37.550295 -1.149931 2.052568 0.026283 -0.020488 629482.000000 0 0 1
12.358796 -31.055219 -17.682435 37.813159 -1.192048 2.057400 0.025956 -0.016605 259833.000000 0 0 1
11.358796 -30.044419 -17.775135 36.710282 -1.209340 2.076245 0.022675 -0.011022 552156.000000 0 0 1
9.938996 -30.634319 -18.056435 36.922622 -1.257071 2.081779 0.034930 -0.016336 -1190450.000000 0 0 1
9.380096 -31.375119 -16.984935 36.890003 -1.280288 2.049266 0.050242 -0.012417 -367413.000000 0 0 1
8.435496 -32.257219 -17.478835 37.645657 -1.315017 2.053639 0.060408 -0.007720 -309355.000000 0 0 1
7.118796 -31.737319 -18.110735 37.228127 -1.350145 2.078853 0.056594 -0.003425 -1085980.000000 0 0 1
7.239796 -31.244519 -19.421435 37.494357 -1.343101 2.115287 0.036043 -0.002511 -124001.000000 0 0 1
7.018996 -32.259519 -20.405135 38.811241 -1.356556 2.124397 0.042325 -0.013027 -1026950.000000 0 0 1
7.194096 -31.648519 -21.796835 39.095854 -1.347282 2.162195 0.039153 -0.001219 -730697.000000 0 0 1
8.461996 -31.234919 -22.194835 39.240748 -1.306232 2.171965 0.037711 -0.004978 -22644.300000 0 0 1
9.518096 -32.212519 -22.239835 40.284623 -1.283493 2.155638 0.041386 -0.007813 45836.100000 0 0 1
9.393696 -33.307119 -23.322935 41.732062 -1.295904 2.163823 0.049218 -0.013032 -450418.000000 0 0 1
8.451196 34.289927 -22.990835 42.140245 1.329149 2.147876 0.051890 -0.025441 41802.400000 0 0 1
8.299296 33.230627 -23.952135 41.795426 1.326054 2.181056 0.053831 -0.028354 -633766.000000 0 0 1
7.123296 32.295927 -23.651935 40.659344 1.353709 2.191625 0.058931 -0.038396 -240276.000000 0 0 1
5.869596 32.908227 -23.767835 41.016015 1.394290 2.188883 0.059661 -0.034173 32620.700000 0 0 1
5.364196 33.608427 -22.574435 40.840006 1.412523 2.156460 0.046889 -0.026837 -765381.000000 0 0 1
4.088096 -34.202019 -22.649335 41.224787 -1.451833 2.152455 0.045734 -0.020716 -949167.000000 0 0 1
2.907796 33.695627 -22.701435 40.733349 1.484714 2.161949 0.051508 -0.024463 23999.200000 0 0 1
1.766396 -34.081019 -22.859835 41.075639 -1.519013 2.161000 0.046172 -0.018446 706613.000000 0 0 1
0.368496 33.917927 -22.581735 40.749188 1.559932 2.158155 0.040578 -0.019136 316793.000000 0 0 1
0.100496 33.855227 -21.167735 39.928179 1.567828 2.129568 0.036220 -0.021347 -345224.000000 0 0 1
-1.236304 33.607927 -20.840935 39.564703 -1.534027 2.125576 0.032585 -0.021888 -218095.000000 0 0 1
-1.580804 33.947227 -19.363135 39.113222 -1.524263 2.088693 0.038586 -0.020667 190694.000000 0 0 1
-0.802504 33.333827 -18.353935 38.061200 -1.546726 2.073985 0.032627 -0.018140 -70646.600000 0 0 1
-1.535604 33.261727 -17.148235 37.453471 -1.524662 2.046377 0.021452 -0.010647 368564.000000 0 0 1
-0.830004 32.291527 -16.147035 36.113133 -1.545099 2.034343 0.012141 0.004080 1364960.000000 0 0 1
0.456196 32.644627 -15.604335 36.185288 1.556823 2.016657 0.010163 -0.005413 578556.000000 0 0 1
1.165796 31.541027 -15.085135 34.982235 1.533852 2.016644 0.003023 0.004572 11772.000000 0 0 1
2.247796 31.937927 -14.082935 34.977319 1.500532 1.985185 0.026594 -0.005210 -32811.000000 0 0 1
3.329496 32.566127 -14.753335 35.906811 1.468912 1.994214 0.049080 -0.010964 -53018.000000 0 0 1
4.155996 33.336327 -13.883335 36.350103 1.446768 1.962684 0.060910 -0.018480 660845.000000 0 0 1
5.539096 33.660827 -14.551935 37.087621 1.407702 1.973999 0.082577 -0.031171 671965.000000 0 0 1
6.329296 32.496627 -14.743035 36.241521 1.378437 1.989744 0.083301 -0.022425 259845.000000 0 0 1
7.532596 32.828727 -15.463435 37.061882 1.345249 2.001195 0.069459 -0.009182 567698.000000 0 0 1
8.536996 31.689427 -15.547735 36.315728 1.307648 2.013215 0.058456 -0.014906 -203042.000000 0 0 1
8.930696 31.410127 -14.223335 35.618207 1.293781 1.981580 0.047509 -0.016677 -137453.000000 0 0 1
9.879096 30.315827 -14.216835 34.910805 1.255775 1.990219 0.043609 -0.010447 612492.000000 0 0 1
9.352696 28.855927 -14.049635 33.429473 1.257363 2.004547 0.055509 -0.014642 99624.600000 0 0 1
8.498196 28.358827 -15.078235 33.223419 1.279645 2.041870 0.054944 -0.018742 219522.000000 0 0 1
7.983096 27.079227 -14.676735 31.818562 1.284112 2.050215 0.056543 -0.007978 -536942.000000 0 0 1
7.376596 26.120127 -15.711235 31.361092 1.295554 2.095525 0.056461 -0.007443 60104.100000 0 0 1
8.232896 25.483627 -16.680135 31.550320 1.258315 2.127845 0.057562 -0.006746 -469746.000000 0 0 1
7.582196 24.592027 -17.598835 31.176537 1.271725 2.170611 0.041552 0.000214 -276421.000000 0 0 1
8.463896 23.708427 -18.484835 31.231653 1.227900 2.204164 0.048588 0.005875 -572691.000000 0 0 1
7.805596 22.899527 -19.393635 31.006914 1.242285 2.246519 0.053958 0.000707 -505097.000000 0 0 1
8.655796 21.884727 -19.892735 30.815337 1.194160 2.272535 0.047631 0.003476 -268015.000000 0 0 1
8.108896 21.122727 -21.121835 30.952475 1.204251 2.321831 0.032143 -0.001268 665574.000000 0 0 1
6.962796 20.316127 -20.782035 29.885089 1.240619 2.339770 0.039237 0.003756 469846.000000 0 0 1
6.590996 19.365527 -21.736435 29.848576 1.242747 2.386523 0.038631 0.002780 155131.000000 0 0 1
25.299396 -13.013773 -9.231435 29.910485 -0.475094 1.884554 0.070121 -0.000787 -148331.000000 0 0 1
25.711596 -12.352873 -8.063135 29.642770 -0.447877 1.846278 0.070107 -0.006234 1192470.000000 0 0 1
24.603696 -12.101873 -7.171335 28.341229 -0.457124 1.826613 0.058409 0.001211 457818.000000 0 0 1
25.280496 -11.580273 -5.819535 28.409034 -0.429546 1.777105 0.037756 0.004521 293686.000000 0 0 1
25.659996 -10.213273 -5.738235 28.207689 -0.378801 1.775654 0.036732 0.004064 349658.000000 0 0 1
26.716196 -9.779973 -6.552635 29.194863 -0.350918 1.797170 0.047557 -0.003427 -1301710.000000 0 0 1
26.890096 -8.246773 -6.481435 28.863395 -0.297578 1.797283 0.076599 -0.004255 -18072.400000 0 0 1
27.423596 -7.819373 -5.198435 28.986548 -0.277762 1.751111 0.070784 -0.010952 865271.000000 0 0 1
28.816696 -8.099373 -5.107635 30.365931 -0.273996 1.739803 0.074436 -0.012973 -45063.500000 0 0 1
29.500096 -7.954673 -3.711935 30.778417 -0.263385 1.691692 0.087583 -0.020530 -86342.800000 0 0 1
29.585996 -6.625973 -3.235335 30.491017 -0.220321 1.677104 0.089094 -0.014840 275865.000000 0 0 1
30.241896 -6.605173 -1.975735 31.017804 -0.215034 1.634536 0.103592 -0.020117 149400.000000 0 0 1
30.550796 -5.248973 -1.289235 31.025232 -0.170150 1.612363 0.099561 -0.024731 505034.000000 0 0 1
29.301196 -4.742573 -0.820435 29.693858 -0.160464 1.598430 0.100346 -0.019593 596590.000000 0 0 1
29.353196 -3.396373 -0.420235 29.552023 -0.115195 1.585017 0.097401 -0.019737 -163541.000000 0 0 1
29.935596 -3.173973 0.990765 30.119689 -0.105632 1.537896 0.103832 -0.021867 -604198.000000 0 0 1
29.053896 -3.582173 1.977165 29.340587 -0.122675 1.503359 0.096455 -0.025143 4345.620000 0 0 1
29.715396 -3.458973 3.160065 30.082475 -0.115882 1.465555 0.095177 -0.022493 -272706.000000 0 0 1
28.921996 -4.054773 4.355265 29.527807 -0.139289 1.422759 0.094765 -0.027386 -371592.000000 0 0 1
28.991096 -5.486773 4.440365 29.837982 -0.187045 1.421426 0.108999 -0.036793 262877.000000 0 0 1
29.560196 -5.884473 5.687865 30.672203 -0.196499 1.384276 0.100864 -0.036861 145248.000000 0 0 1
30.359596 -7.236673 5.655865 31.718502 -0.233999 1.391523 0.074521 -0.036984 39593.100000 0 0 1
31.660596 -7.088073 5.126965 32.846916 -0.220245 1.414069 0.080373 -0.037933 -191885.000000 0 0 1
32.438096 -8.200573 5.489065 33.905889 -0.247619 1.408189 0.073867 -0.033074 -229875.000000 0 0 1
33.944296 -7.952573 5.597265 35.309886 -0.230132 1.411606 0.070351 -0.023866 -323714.000000 0 0 1
34.610296 -7.732773 4.394565 35.734865 -0.219814 1.447507 0.074946 -0.027858 514350.000000 0 0 1
36.017296 -7.618873 4.652565 37.107132 -0.208461 1.445084 0.084893 -0.025493 767519.000000 0 0 1
-35.294401 -7.158473 3.537465 36.186353 0.200107 1.472883 0.088498 -0.019175 -203002.000000 0 0 1
-35.132801 -8.128673 2.501565 36.147571 0.227369 1.501537 0.090354 -0.023116 157738.000000 0 0 1
-34.072501 -7.788173 1.631265 34.989313 0.224716 1.524158 0.103779 -0.025885 -102203.000000 0 0 1
-33.625101 -8.946573 0.639065 34.800819 0.260044 1.552432 0.087535 -0.028717 -58191.100000 0 0 1
-33.250101 -10.023673 1.447365 34.758282 0.292798 1.529143 0.085907 -0.028260 158319.000000 0 0 1
-33.148601 -11.171773 0.654065 34.986656 0.325066 1.552101 0.071458 -0.033846 -614281.000000 0 0 1
-33.057301 -12.508173 1.470165 35.375146 0.361729 1.529225 0.050232 -0.033075 565015.000000 0 0 1
-31.815401 -12.628873 2.162965 34.298493 0.377868 1.507691 0.046610 -0.026579 634142.000000 0 0 1
-30.813301 -13.243973 1.357765 33.566440 0.405941 1.530335 0.042548 -0.012312 -688543.000000 0 0 1
-29.582801 -13.682273 2.139965 32.663836 0.433207 1.505235 0.042062 -0.004259 -489811.000000 0 0 1
-28.837801 -12.557873 2.557865 31.557276 0.410702 1.489653 0.056301 -0.007148 -934915.000000 0 0 1
-27.571301 -12.967573 2.907665 30.607011 0.439630 1.475653 0.063649 -0.002583 -1139390.000000 0 0 1
-26.660801 -11.862873 3.471865 29.386731 0.418651 1.452376 0.069838 -0.003220 -446052.000000 0 0 1
-25.476701 -12.445973 3.963465 28.629943 0.454425 1.431913 0.070238 0.005259 -64365.100000 0 0 1
-24.756101 -11.414573 4.641065 27.653147 0.432031 1.402167 0.070291 0.010813 -197777.000000 0 0 1
-23.416901 -11.875773 5.217065 26.769442 0.469348 1.374652 0.069185 0.013683 -233073.000000 0 0 1
-23.593701 -12.648173 6.389265 27.522023 0.492095 1.336508 0.064739 0.003702 -688381.000000 0 0 1
-22.411001 -13.110173 6.943965 26.876538 0.529308 1.309467 0.069574 0.006630 -588379.000000 0 0 1
-22.085801 -12.620773 8.337365 26.768978 0.519157 1.254071 0.080607 -0.006398 -422368.000000 0 0 1
-21.635701 -11.244373 8.452265 25.806594 0.479294 1.237115 0.075072 -0.009814 367772.000000 0 0 1
-22.604601 -10.230973 8.705265 26.294913 0.425019 1.233367 0.070281 -0.013488 -725740.000000 0 0 1
-23.042101 -10.143173 10.175965 27.154607 0.414676 1.186678 0.058440 -0.010074 -85023.000000 0 0 1
-23.846201 -11.271273 10.568765 28.414463 0.441542 1.189687 0.043179 -0.015445 192145.000000 0 0 1
-25.219301 -11.064673 10.314165 29.407859 0.413449 1.212448 0.039790 -0.009012 -559044.000000 0 0 1
-26.013801 -10.743873 11.584265 30.435898 0.391668 1.180338 0.048776 -0.018002 -967265.000000 0 0 1
-26.038001 -11.802973 12.498565 31.200991 0.425593 1.158644 0.040045 -0.012929 1155300.000000 0 0 1
-27.220801 -11.591173 13.326765 32.448883 0.402565 1.147574 0.030880 -0.013057 942634.000000 0 0 1
-27.239101 -12.364673 14.687965 33.325517 0.426118 1.114371 0.033838 -0.009859 -136294.000000 0 0 1
-27.451501 -13.746273 14.639965 34.012844 0.464246 1.125833 0.019603 -0.006240 298372.000000 0 0 1
-26.993801 -14.422073 15.815465 34.449825 0.490689 1.093829 0.032563 -0.007625 -408450.000000 0 0 1
-26.750101 -15.958773 15.691165 34.877830 0.537906 1.104155 0.031794 0.009571 597639.000000 0 0 1
-27.915001 -16.765273 15.823365 36.203599 0.540848 1.118462 0.024777 0.010585 384024.000000 0 0 1
-27.383101 -18.042173 15.715665 36.363944 0.582592 1.123891 0.025457 0.006139 309192.000000 0 0 1
-28.262101 -19.202073 16.293565 37.854277 0.596786 1.125829 0.006975 0.012595 121915.000000 0 0 1
-28.549401 -19.109773 17.683865 38.638981 0.589864 1.095425 0.026535 0.006031 -77222.900000 0 0 1
-29.155701 -20.244173 18.297165 39.933291 0.606922 1.094835 0.029516 0.004224 698123.000000 0 0 1
-28.251401 -21.578373 18.525365 40.086869 0.652274 1.090400 0.019057 0.011979 868599.000000 0 0 1
-27.275201 -21.582073 19.576365 39.911860 0.669396 1.058144 0.037454 0.013413 782809.000000 0 0 1
-26.416901 -22.740673 19.411965 39.897560 0.710753 1.062665 0.041208 0.014955 -557462.000000 0 0 1
-25.119401 -22.606173 20.159965 39.350319 0.732787 1.032912 0.055519 0.020850 -1199700.000000 0 0 1
-24.140301 -22.008873 19.381065 37.983817 0.739245 1.035326 0.055680 0.010296 -548329.000000 0 0 1
-22.887301 -21.994873 20.020765 37.529109 0.765517 1.008095 0.056804 0.021325 305445.000000 0 0 1
-21.710201 -21.544173 19.100265 36.059733 0.781560 1.012568 0.052888 0.016718 267409.000000 0 0 1
-21.321801 -22.487773 18.121665 35.898662 0.812006 1.041645 0.045329 0.011113 440318.000000 0 0 1
-20.172801 -22.082473 17.390265 34.597671 0.830561 1.044143 0.043496 0.005832 259382.000000 0 0 1
-19.708101 -23.001873 16.230465 34.364567 0.862365 1.078895 0.049466 0.005781 -230224.000000 0 0 1
-19.456401 -24.409073 16.482765 35.299235 0.897828 1.084965 0.055163 0.000303 176798.000000 0 0 1
-18.341001 -24.775673 17.267665 35.332684 0.933543 1.060178 0.050001 0.001485 -137099.000000 0 0 1
-16.983801 -24.823073 16.551965 34.330774 0.970757 1.067710 0.045099 -0.001779 -295406.000000 0 0 1
-16.503801 -23.531473 16.234965 33.010298 0.959165 1.056623 0.042448 -0.006347 482304.000000 0 0 1
-15.262801 -23.659373 15.495565 32.137697 0.997869 1.067676 0.040138 -0.011007 747595.000000 0 0 1
-14.583501 -22.279773 15.242065 30.682036 0.991220 1.050918 0.045573 -0.008115 -58794.800000 0 0 1
-15.356701 -21.233973 14.582665 29.989398 0.944660 1.062991 0.049143 -0.009877 103042.000000 0 0 1
-16.356101 -20.597973 15.342465 30.449791 0.899686 1.042733 0.048022 -0.004011 -51386.100000 0 0 1
-15.826201 -19.560273 16.380665 30.023310 0.890532 0.993694 0.044364 -0.005951 -391063.000000 0 0 1
-15.211901 -18.417373 15.795465 28.637358 0.880429 0.986553 0.041355 -0.008354 47771.400000 0 0 1
-15.203001 -17.256073 16.656865 28.396381 0.848565 0.943962 0.027686 -0.010617 -520428.000000 0 0 1
-14.597001 -16.024973 15.880365 26.871141 0.831997 0.938520 0.034153 -0.008680 458368.000000 0 0 1
-15.446901 -15.475173 14.864865 26.439591 0.786312 0.973729 0.039929 -0.013099 330341.000000 0 0 1
-15.611201 -16.313573 13.702265 26.412012 0.807395 1.025362 0.052726 -0.016207 225622.000000 0 0 1
-16.538501 -15.516973 12.703865 25.993974 0.753541 1.060170 0.049633 -0.013267 -569494.000000 0 0 1
-17.896501 -15.525573 12.948865 27.000024 0.714578 1.070612 0.046106 -0.015956 -1193260.000000 0 0 1
-18.460701 -14.471973 12.209565 26.444451 0.664868 1.090879 0.064574 -0.017309 -186062.000000 0 0 1
-20.017801 -14.407973 12.240765 27.534313 0.623864 1.110109 0.050051 -0.017769 356889.000000 0 0 1
-20.579701 -15.509973 11.530265 28.231727 0.645836 1.150079 0.048785 -0.017633 87532.200000 0 0 1
-20.539901 -15.494273 10.103165 27.641165 0.646279 1.196614 0.057106 -0.015400 -354613.000000 0 0 1
-21.411901 -16.639773 9.489265 28.729736 0.660638 1.234181 0.045981 -0.006160 245887.000000 0 0 1
-20.800001 -17.925773 9.490865 29.052537 0.711314 1.238008 0.045998 0.001594 -34339.500000 0 0 1
-21.652801 -18.919073 8.977565 30.122613 0.718120 1.268164 0.046931 -0.001684 -160107.000000 0 0 1
-21.022501 -20.299573 8.961665 30.566807 0.767905 1.273242 0.044857 0.004713 -888880.000000 0 0 1
-19.915701 -20.432173 8.156265 29.675470 0.798198 1.292364 0.057857 0.000270 -912578.000000 0 0 1
-19.608801 -21.796073 7.983765 30.386089 0.838176 1.304931 0.051584 -0.001365 847283.000000 0 0 1
-18.243101 -22.080273 7.240665 29.542790 0.880272 1.323183 0.058108 -0.009453 1505430.000000 0 0 1
-17.072001 -21.843773 8.023665 28.861443 0.907407 1.289078 0.047477 -0.008129 1521730.000000 0 0 1
-15.813901 -21.990973 7.303865 28.054034 0.947360 1.307412 0.064005 -0.016650 2095960.000000 0 0 1
-14.526501 -21.634573 8.142865 27.301653 0.979491 1.267932 0.031732 -0.016378 1534110.000000 0 0 1
-13.266101 -21.935873 7.500365 26.710063 1.026879 1.286162 0.048867 -0.013086 728175.000000 0 0 1
-12.209001 -21.586573 8.381465 26.178022 1.056068 1.244885 0.041626 -0.011229 802567.000000 0 0 1
-10.824601 -22.110673 7.863465 25.843528 1.115532 1.261622 0.025532 -0.004758 534453.000000 0 0 1
-10.562201 -23.513173 8.110265 27.022321 1.148605 1.265965 0.030345 0.000863 -161838.000000 0 0 1
-9.413601 -23.970673 7.414565 26.798971 1.196587 1.290466 0.039251 -0.003946 274348.000000 0 0 1
-9.378901 -25.539093 7.453565 28.209302 1.218849 1.303397 0.028611 0.007068 -49421.000000 0 0 1
-10.036201 -26.114793 6.338465 28.685953 1.203888 1.347997 0.020676 0.003614 -100769.000000 0 0 1
-10.134301 -27.497543 6.505665 30.019038 1.217690 1.352345 0.038373 0.003472 722537.000000 0 0 1
-8.990001 -28.258323 5.733665 30.203110 1.262785 1.379800 0.045407 -0.001121 402560.000000 0 0 1
-7.666301 -27.987223 6.159465 29.664724 1.303433 1.361639 0.046494 0.003977 -306094.000000 0 0 1
-6.694201 -28.887583 5.701865 30.196292 1.343083 1.380829 0.046428 0.006826 136106.000000 0 0 1
-6.820201 -30.332613 6.220165 31.706041 1.349627 1.373333 0.053417 0.002433 -923115.000000 0 0 1
-6.635201 -30.410163 7.636965 32.048825 1.355973 1.330190 0.053886 0.010260 111760.000000 0 0 1
-6.662201 -31.759313 8.068765 33.438658 1.364023 1.327091 0.074115 0.004887 -18144.600000 0 0 1
-7.000201 -31.713303 9.597065 33.865027 1.353546 1.283467 0.063767 0.003705 -35727.500000 0 0 1
-5.864201 -31.582663 10.428665 33.772926 1.387209 1.256878 0.059593 0.015810 180628.000000 0 0 1
-6.178201 -31.621103 11.807265 34.314368 1.377845 1.219526 0.050566 0.005265 -491218.000000 0 0 1
-5.296201 -30.763103 12.705965 33.702519 1.400307 1.184237 0.044748 -0.001053 -221214.000000 0 0 1
-5.624201 -29.363953 12.702765 32.484360 1.381554 1.169032 0.047351 0.000865 -148763.000000 0 0 1
-4.958201 -28.609573 13.656165 32.087105 1.399195 1.131175 0.029406 -0.006000 -370610.000000 0 0 1
-5.767201 -28.305463 14.980065 32.540163 1.369799 1.092400 0.030793 -0.005567 75681.000000 0 0 1
-6.090201 -29.337633 15.917065 33.928458 1.366113 1.082484 0.031302 -0.012338 -119305.000000 0 0 1
-5.015201 -30.043653 16.463265 34.623871 1.405391 1.075277 0.028111 -0.014169 -195480.000000 0 0 1
-5.486201 -31.424193 16.998665 36.145995 1.397953 1.081191 0.026272 -0.007672 317637.000000 0 0 1
-6.032201 -32.262473 15.962465 36.497328 1.385958 1.118136 0.023005 -0.002960 446851.000000 0 0 1
-6.646201 -33.470093 16.384365 37.853224 1.374775 1.123156 0.022616 -0.004888 66718.300000 0 0 1
-6.161201 33.907709 15.564965 37.814829 -1.391052 1.146576 0.018438 -0.007649 -81897.100000 0 0 1
-6.382201 34.018309 14.108465 37.376819 -1.385341 1.183738 0.026220 -0.013702 269191.000000 0 0 1
-5.592201 33.027441 13.496665 36.114326 -1.403067 1.187779 0.031381 -0.016338 -5914.590000 0 0 1
-4.325201 33.488649 12.785065 36.106161 -1.442353 1.208849 0.046355 -0.020925 -341374.000000 0 0 1
-4.658201 33.742816 11.432765 35.930274 -1.433613 1.246973 0.050927 -0.015971 1279.420000 0 0 1
-3.590201 34.272912 10.702665 36.084194 -1.466424 1.269663 0.062949 -0.018148 -612438.000000 0 0 1
-3.960201 -34.182389 9.175865 35.613416 1.455456 1.310205 0.056633 -0.010816 -897273.000000 0 0 1
-4.100201 33.368513 8.269665 34.621621 -1.448533 1.329606 0.055605 -0.022255 169417.000000 0 0 1
-5.023201 32.337183 8.584165 33.832142 -1.416690 1.314264 0.069777 -0.023733 521438.000000 0 0 1
-6.495201 32.745721 8.886165 34.546111 -1.374985 1.310646 0.070754 -0.010039 -649064.000000 0 0 1
-7.106201 33.357414 7.820965 34.991180 -1.360902 1.345380 0.074213 -0.009579 123423.000000 0 0 1
-8.518501 33.465703 8.080965 35.465760 -1.321545 1.340925 0.050137 -0.007067 906944.000000 0 0 1
-9.293601 33.819996 6.781765 35.723318 -1.302620 1.379796 0.066595 -0.009006 -95792.100000 0 0 1
-9.251001 -33.434623 6.494365 35.293510 1.300860 1.385732 0.085262 -0.004720 49160.000000 0 0 1
-9.667301 -33.265013 5.161265 35.023656 1.287972 1.422893 0.079319 -0.006442 -1184790.000000 0 0 1
-9.683001 -31.797973 4.695565 33.569628 1.275201 1.430461 0.066662 -0.006049 185830.000000 0 0 1
-10.743801 -31.014013 5.230965 33.236445 1.237316 1.412753 0.083231 -0.006692 417347.000000 0 0 1
-12.056001 -31.469153 4.950465 34.061149 1.204939 1.424939 0.084510 -0.002391 -376542.000000 0 0 1
-13.236501 -30.636613 5.512965 33.826023 1.162971 1.407086 0.071240 -0.004669 326217.000000 0 0 1
-13.450101 -30.752403 6.908165 34.268619 1.158497 1.367817 0.063324 -0.002201 -199509.000000 0 0 1
-14.488701 -29.893853 7.322165 34.017334 1.119486 1.353850 0.051013 0.000682 18074.900000 0 0 1
33.461394 -13.118873 -12.766735 38.141306 -0.373643 1.912107 0.062394 -0.012008 -294134.000000 0 0 1
32.489864 -13.011373 -11.767735 36.923796 -0.380916 1.895157 0.067625 -0.012338 -42151.400000 0 0 1
32.172184 -14.280473 -11.156535 36.924919 -0.417750 1.877734 0.067360 -0.014452 -86876.400000 0 0 1
33.119014 -14.691473 -9.986435 37.582408 -0.417516 1.839748 0.050570 -0.017442 -190689.000000 0 0 1
34.321864 -15.154873 -10.539235 38.970964 -0.415806 1.844644 0.055189 -0.021607 -768826.000000 0 0 1
35.255344 -15.421673 -9.509235 39.638275 -0.412350 1.813060 0.042028 -0.021935 -217617.000000 0 0 1
-35.601669 -15.711173 -10.116035 40.207635 0.415599 1.825124 0.032305 -0.023353 -361230.000000 0 0 1
-35.024910 -14.544473 -10.671835 39.397641 0.393593 1.845098 0.030528 -0.017472 -375113.000000 0 0 1
-33.693604 -14.837073 -11.007035 38.425935 0.414802 1.861314 0.034701 -0.020572 62774.600000 0 0 1
-32.822764 -13.603973 -11.403535 37.315446 0.392916 1.881363 0.048104 -0.023476 -4916.770000 0 0 1
-32.616704 -12.712373 -10.321535 36.496409 0.371639 1.857518 0.064764 -0.023560 423735.000000 0 0 1
-32.046884 -11.480373 -10.878135 35.737033 0.343994 1.880098 0.068699 -0.021922 -19260.600000 0 0 1
-32.410914 -10.216573 -10.113435 35.455990 0.305361 1.860052 0.068586 -0.025688 -209649.000000 0 0 1
-32.134534 -10.141073 -8.748035 34.813758 0.305690 1.824800 0.073501 -0.020295 -2129.240000 0 0 1
-32.918664 -9.194473 -8.063735 35.116956 0.272368 1.802489 0.083393 -0.020804 -215684.000000 0 0 1
-32.526634 -8.862873 -6.616535 34.355654 0.266022 1.764597 0.077702 -0.021572 -762511.000000 0 0 1
-31.375164 -8.041373 -6.531035 33.041171 0.250897 1.769770 0.082863 -0.028734 241126.000000 0 0 1
-31.069884 -7.879973 -5.121135 32.460094 0.248384 1.729225 0.081406 -0.029351 314490.000000 0 0 1
-30.058334 -8.997073 -4.670835 31.721719 0.290833 1.718578 0.074072 -0.023623 -522438.000000 0 0 1
-30.663564 -10.198573 -4.330535 32.603966 0.321087 1.704012 0.067755 -0.018411 199177.000000 0 0 1
-31.098094 -10.300273 -2.971235 32.894001 0.319846 1.661247 0.056400 -0.020316 60980.500000 0 0 1
-31.594194 -11.753373 -2.701935 33.817677 0.356147 1.650779 0.054171 -0.020056 211104.000000 0 0 1
-32.741824 -12.144473 -3.442635 35.090839 0.355186 1.669061 0.052337 -0.027339 576355.000000 0 0 1
-33.299554 -13.430373 -3.068635 36.036811 0.383365 1.656052 0.050016 -0.025278 167272.000000 0 0 1
-34.808935 -13.432473 -2.762735 37.412912 0.368285 1.644708 0.036391 -0.030743 -14842.200000 0 0 1
-35.248914 -12.521273 -1.774335 37.448851 0.341321 1.618194 0.047442 -0.042749 1020800.000000 0 0 1
35.576894 -12.556173 -1.484835 37.756822 -0.339283 1.610133 0.079112 -0.042139 936827.000000 0 0 1
35.122524 -11.465273 -0.477235 36.949587 -0.315531 1.583713 0.081262 -0.042882 104385.000000 0 0 1
35.677884 -11.727273 0.814165 37.564654 -0.317574 1.549121 0.086644 -0.039742 229741.000000 0 0 1
35.399774 -10.669873 1.722365 37.012927 -0.292751 1.524245 0.079034 -0.037178 -257034.000000 0 0 1
35.493484 -11.048973 3.258265 37.315995 -0.301787 1.483369 0.096341 -0.034684 671029.000000 0 0 1
34.386494 -11.831073 3.764465 36.559219 -0.331375 1.467645 0.094930 -0.036092 408035.000000 0 0 1
34.598284 -12.306273 5.087365 37.072455 -0.341735 1.433134 0.088452 -0.036620 -503911.000000 0 0 1
33.333294 -12.603573 5.921665 36.125125 -0.361492 1.406132 0.088037 -0.012335 -128137.000000 0 0 1
32.718844 -11.429373 6.406465 35.244803 -0.336070 1.388010 0.070244 -0.021552 -100151.000000 0 0 1
32.675084 -11.497473 7.801565 35.506583 -0.338342 1.349267 0.052513 -0.012692 -560248.000000 0 0 1
32.114224 -10.198673 8.402765 34.726687 -0.307502 1.326402 0.051896 -0.027225 460579.000000 0 0 1
30.722744 -9.979773 8.132265 33.310908 -0.314081 1.324172 0.059831 -0.027526 425937.000000 0 0 1
30.232454 -9.085673 9.066765 32.844436 -0.291940 1.291112 0.068891 -0.021948 422844.000000 0 0 1
28.668944 -8.914573 9.078265 31.365473 -0.301471 1.277160 0.064701 -0.024102 910239.000000 0 0 1
28.076224 -8.375873 7.899665 30.345252 -0.289920 1.307436 0.076372 -0.025153 319678.000000 0 0 1
27.704034 -9.446473 7.032165 30.103168 -0.328615 1.335016 0.081007 -0.034276 -935774.000000 0 0 1
26.651194 -9.078773 5.987765 28.784781 -0.328323 1.361248 0.080450 -0.031480 -1063060.000000 0 0 1
25.432194 -8.763573 6.584265 27.693849 -0.331843 1.330746 0.089928 -0.031131 684229.000000 0 0 1
24.367794 -8.311173 5.687865 26.366964 -0.328699 1.353368 0.096000 -0.028923 856070.000000 0 0 1
24.531694 -6.964873 4.925965 25.972651 -0.276634 1.379981 0.088979 -0.027606 -888954.000000 0 0 1
25.397194 -6.980373 3.828165 26.615746 -0.268225 1.426465 0.085479 -0.027922 174809.000000 0 0 1
25.791694 -5.670173 3.389865 26.624303 -0.216402 1.443128 0.091684 -0.032275 -461782.000000 0 0 1
26.315094 -5.656273 1.985965 26.989288 -0.211723 1.497146 0.093626 -0.036341 -152301.000000 0 0 1
25.462794 -5.885673 0.887665 26.149244 -0.227158 1.536844 0.085701 -0.032416 323746.000000 0 0 1
26.279494 -5.651773 -0.267435 26.881701 -0.211837 1.580745 0.081789 -0.027040 555720.000000 0 0 1
25.467394 -5.809273 -1.590435 26.169931 -0.224269 1.631607 0.085071 -0.023319 954861.000000 0 0 1
24.415894 -4.846573 -1.813735 24.958261 -0.195954 1.643531 0.093528 -0.016436 666100.000000 0 1 0
23.767494 -4.945973 -3.078535 24.471081 -0.205170 1.696934 0.080282 -0.014049 1271170.000000 0 1 0
22.470994 -3.991773 -3.128335 23.036196 -0.175807 1.707018 0.054827 -0.013246 977047.000000 0 1 0
22.723994 -2.616373 -3.057735 23.077588 -0.114632 1.703685 0.043580 -0.014736 221825.000000 0 1 0
23.279894 -1.980773 -4.203135 23.739066 -0.084881 1.748790 0.051379 -0.016295 -319529.000000 0 1 0
22.267494 -1.163373 -4.996135 22.850735 -0.052198 1.791219 0.032179 -0.007677 -58411.300000 0 1 0
21.935394 0.041827 -4.271635 22.347486 0.001907 1.763126 0.019045 -0.007776 891722.000000 0 1 0
20.888194 0.832727 -4.870335 21.464628 0.039845 1.799690 0.017270 0.000071 -274561.000000 0 1 0
20.620194 2.216127 -4.197335 21.159424 0.107063 1.770488 0.016038 0.000249 -91045.800000 0 1 0
21.672594 3.197427 -4.330635 22.331128 0.146477 1.765961 0.035983 0.000357 1499520.000000 0 1 0
22.820694 2.923627 -3.500235 23.271943 0.127419 1.721775 0.070901 0.002520 11479.600000 0 1 0
24.014494 3.830327 -3.753235 24.605977 0.158168 1.723928 0.065378 0.001396 -607617.000000 0 1 0
23.717294 5.191627 -3.484935 24.527695 0.215497 1.713360 0.067388 0.003658 223804.000000 0 1 0
24.821394 6.010527 -3.228835 25.742055 0.237578 1.696558 0.066256 -0.001420 -312407.000000 0 0 1
24.339494 7.444027 -3.049035 25.634374 0.296807 1.690022 0.064011 -0.008668 33159.500000 0 0 1
23.463294 7.623527 -1.941035 24.746958 0.314153 1.649312 0.077330 -0.010374 394309.000000 0 1 0
22.647794 8.709327 -2.288035 24.372321 0.367121 1.664813 0.065375 -0.002105 -90748.000000 0 1 0
21.555994 9.109727 -1.254735 23.435494 0.399843 1.624362 0.048447 0.003081 194099.000000 0 1 0
22.132294 9.698227 -0.070635 24.164003 0.412992 1.573719 0.037397 -0.000018 1341090.000000 0 1 0
21.090794 10.043927 0.864665 23.376264 0.444446 1.533799 0.026301 -0.000826 264523.000000 0 1 0
21.741894 10.354827 2.199865 24.182055 0.444477 1.479699 0.056715 0.000227 -329930.000000 0 1 0
22.592794 11.534427 2.254565 25.466849 0.472041 1.482151 0.063852 -0.013789 450817.000000 0 0 1
22.129894 12.812327 2.057565 25.653879 0.524805 1.490505 0.064401 -0.009062 -586506.000000 0 0 1
21.065494 13.385627 3.061365 25.145616 0.566064 1.448748 0.050640 -0.004252 867230.000000 0 0 1
19.725194 12.883627 2.809065 23.726820 0.578591 1.452126 0.096768 -0.005961 1616170.000000 0 1 0
18.776194 13.618227 3.608365 23.473855 0.627500 1.416466 0.081142 -0.007248 232048.000000 0 1 0
18.699294 13.323327 5.126565 23.525652 0.619069 1.351120 0.056864 -0.008059 -939829.000000 0 1 0
17.962194 12.164827 5.437065 22.364818 0.595291 1.325228 0.026811 -0.006629 361718.000000 0 1 0
18.063094 11.979827 6.841365 22.728746 0.585613 1.265055 0.021956 -0.013076 -50259.200000 0 1 0
18.228894 10.537327 7.326765 22.293706 0.524128 1.235925 0.008352 -0.019124 210497.000000 0 1 0
19.488394 10.084227 6.816265 22.977176 0.477508 1.269610 0.002370 -0.015735 885509.000000 0 1 0
19.660294 8.771427 7.257665 22.718688 0.419647 1.245639 0.021820 -0.014754 527802.000000 0 1 0
20.691194 7.991027 6.360965 23.074746 0.368557 1.291512 0.033909 -0.016154 391676.000000 0 1 0
20.100194 7.750727 5.139065 22.147270 0.368035 1.336621 0.011771 -0.009553 542070.000000 0 1 0
21.058094 7.100927 4.371665 22.649016 0.325232 1.376559 0.023579 -0.011403 -224197.000000 0 1 0
20.581894 6.752027 2.958365 21.862208 0.316994 1.435061 0.017494 -0.005305 -365885.000000 0 1 0
21.541994 5.978327 2.306065 22.474782 0.270707 1.468009 0.022318 -0.007637 422194.000000 0 1 0
21.186394 5.869827 0.914065 22.003492 0.270277 1.529243 0.021535 0.000400 111084.000000 0 1 0
22.097394 4.842827 0.185765 22.622606 0.215747 1.562585 0.039833 -0.001314 180689.000000 0 1 0
22.027394 3.494027 0.680165 22.313156 0.157311 1.540309 0.034712 -0.002072 1143280.000000 0 1 0
23.133194 2.693027 0.204365 23.290316 0.115892 1.562022 0.050704 -0.002127 597505.000000 0 1 0
23.030894 1.227727 0.436565 23.067726 0.053257 1.551870 0.064956 -0.007159 -335337.000000 0 1 0
22.020194 0.598627 -0.307235 22.030472 0.027179 1.584743 0.032134 -0.013165 483852.000000 0 1 0
22.408794 -0.685773 -0.723535 22.430957 -0.030593 1.603058 0.053601 -0.014558 -987202.000000 0 1 0
22.278194 -1.815173 0.368265 22.355053 -0.081298 1.554322 0.071961 -0.015881 -327944.000000 0 1 0
23.190494 -1.889673 1.429565 23.311232 -0.081305 1.509433 0.078493 -0.018494 -140847.000000 0 1 0
24.433294 -2.413573 1.027265 24.573695 -0.098463 1.528981 0.084109 -0.019154 -1111310.000000 0 1 0
25.564294 -1.918673 1.894665 25.706112 -0.074912 1.497025 0.093918 -0.025093 -816851.000000 0 0 1
25.803794 -0.516873 1.780365 25.870304 -0.020028 1.501923 0.091495 -0.024026 -186658.000000 0 0 1
26.778494 -0.113973 2.658265 26.910353 -0.004256 1.471853 0.096015 -0.024624 -528376.000000 0 0 1
26.345294 1.197727 3.374965 26.587581 0.045431 1.443515 0.094147 -0.013781 48029.900000 0 0 1
26.305594 2.375327 2.594965 26.539787 0.090053 1.472863 0.085931 -0.014062 820362.000000 0 0 1
27.595404 2.932227 2.296465 27.845611 0.105861 1.488231 0.096796 -0.016507 731030.000000 0 0 1
27.505474 3.866227 1.049365 27.795683 0.139647 1.533035 0.090088 -0.014873 50657.800000 0 0 1
27.466234 3.221827 -0.193935 27.655231 0.116768 1.577809 0.115257 -0.010093 256443.000000 0 0 1
27.842164 4.075527 -1.259635 28.167050 0.145347 1.615531 0.111125 -0.006821 48686.700000 0 0 1
29.222774 3.763327 -1.917835 29.526450 0.128076 1.635795 0.098397 -0.009277 790832.000000 0 0 1
30.284324 4.033827 -0.972235 30.567258 0.132419 1.602608 0.098271 -0.017587 -454843.000000 0 0 1
31.515804 3.640427 -1.444735 31.758241 0.115001 1.616304 0.081419 -0.022755 -835636.000000 0 0 1
32.625794 4.021327 -0.432435 32.875531 0.122638 1.583950 0.060446 -0.028279 -303631.000000 0 0 1
32.721734 3.290727 0.763265 32.895643 0.100230 1.547592 0.058860 -0.028417 394316.000000 0 0 1
31.947914 3.854427 1.836365 32.231942 0.120067 1.513792 0.060362 -0.017793 202721.000000 0 0 1
32.029404 3.051727 3.142965 32.327604 0.094992 1.473420 0.066630 -0.018090 -210525.000000 0 0 1
31.094064 1.993027 3.157065 31.317408 0.064009 1.469816 0.079331 -0.023466 140550.000000 0 0 1
31.184574 1.045927 4.186065 31.481658 0.033527 1.437433 0.076049 -0.023356 510727.000000 0 0 1
32.447214 0.087527 4.112765 32.706944 0.002698 1.444717 0.097588 -0.013996 963466.000000 0 0 1
33.707564 0.683727 4.287065 33.985972 0.020281 1.444317 0.090754 -0.027805 341306.000000 0 0 1
34.815534 -0.198473 4.158165 35.063530 -0.005701 1.451927 0.086774 -0.034608 244643.000000 0 0 1
-36.051914 0.527527 4.369365 36.319556 -0.014631 1.450201 0.099223 -0.040630 245363.000000 0 0 1
-35.790654 1.610827 3.526265 36.000003 -0.044977 1.472687 0.082773 -0.042054 136849.000000 0 0 1
-35.431348 1.211427 2.216065 35.521246 -0.034178 1.508369 0.103851 -0.038533 -731400.000000 0 0 1
-35.276799 2.431027 1.219065 35.381472 -0.068804 1.536335 0.093820 -0.041002 -151872.000000 0 0 1
-34.151607 3.236927 1.323265 34.330176 -0.094499 1.532242 0.103557 -0.041890 -148086.000000 0 0 1
-32.958924 2.738027 0.762065 33.081236 -0.082884 1.547758 0.121123 -0.038703 -469607.000000 0 0 1
-31.654704 3.466027 1.094865 31.862711 -0.109060 1.536428 0.112537 -0.029117 -230807.000000 0 0 1
-31.183184 3.029127 2.390365 31.421018 -0.096836 1.494647 0.110223 -0.034735 184094.000000 0 0 1
-30.387274 4.025227 3.000365 30.799205 -0.131698 1.473225 0.114306 -0.019009 -976079.000000 0 0 1
-30.567324 4.131527 4.537465 31.177225 -0.134347 1.424740 0.120413 -0.024635 -218230.000000 0 0 1
-31.802934 4.586127 5.037565 32.524394 -0.143217 1.415285 0.114580 -0.015646 845542.000000 0 0 1
-32.936394 3.725627 4.762465 33.486824 -0.112637 1.428093 0.112866 -0.019253 -78498.500000 0 0 1
-33.296704 2.773327 5.953265 33.938226 -0.083100 1.394469 0.105293 -0.019667 -627996.000000 0 0 1
-33.594014 3.577727 7.050265 34.511797 -0.106099 1.365062 0.099312 -0.004886 174592.000000 0 0 1
-33.491274 3.102127 8.383265 34.663637 -0.092361 1.326528 0.093191 -0.005894 -114812.000000 0 0 1
-34.505344 2.015627 8.818665 35.671422 -0.058349 1.320987 0.080329 -0.008604 -102692.000000 0 0 1
-34.328354 0.769427 8.135665 35.287631 -0.022410 1.338150 0.084767 -0.017928 -21340.600000 0 0 1
-35.236585 -0.203373 8.590865 36.269288 0.005772 1.331660 0.084303 -0.015606 -167386.000000 0 0 1
-34.860666 -0.900073 9.912765 36.253814 0.025813 1.293843 0.082995 -0.005919 225550.000000 0 0 1
-33.720124 -1.744173 9.714465 35.134879 0.051679 1.290656 0.077153 -0.013052 523737.000000 0 0 1
-33.423354 -2.534373 10.836465 35.227441 0.075682 1.258112 0.061167 -0.003491 689554.000000 0 0 1
-32.180344 -3.477773 10.585265 34.054622 0.107654 1.254728 0.077867 -0.002307 508087.000000 0 0 1
-32.511964 -4.570873 9.730765 34.243371 0.139675 1.282661 0.057100 -0.005735 390787.000000 0 0 1
-31.396604 -5.374973 9.338665 33.194092 0.169552 1.285611 0.044889 -0.019550 319695.000000 0 0 1
-31.710454 -6.392373 8.268965 33.388487 0.198920 1.320533 0.041115 -0.001467 -42471.600000 0 0 1
-32.634054 -7.368273 8.704765 34.569435 0.222061 1.316251 0.056302 -0.003519 -5479.200000 0 0 1
-32.761954 -8.407273 7.743065 34.698457 0.251197 1.345748 0.050379 -0.004975 -24429.800000 0 0 1
-33.757854 -9.492873 8.140165 35.999578 0.274126 1.342705 0.053099 -0.010848 84459.100000 0 0 1
-35.128446 -9.197473 8.033865 37.190647 0.256076 1.353062 0.059437 -0.010043 165418.000000 0 0 1
-35.976774 -10.187073 8.603765 38.368340 0.275934 1.344632 0.055976 -0.015554 73022.300000 0 0 1
7.790196 -23.915173 10.886865 27.407052 -1.255893 1.162301 0.092776 -0.023362 -27542.200000 0 0 1
7.120496 -24.523973 9.799565 27.352481 -1.288218 1.204382 0.077630 -0.022465 251301.000000 0 0 1
5.938896 -25.191213 10.285265 27.850573 -1.339271 1.192539 0.072990 -0.022676 814707.000000 0 0 1
5.480396 -26.221563 9.218465 28.329935 -1.364759 1.239365 0.058152 -0.013857 -352605.000000 0 0 1
5.081796 -25.575463 8.049865 27.289729 -1.374653 1.271364 0.063900 -0.009442 -411798.000000 0 0 1
4.983996 -26.498053 6.993565 27.854928 -1.384879 1.317010 0.051515 -0.006087 -380279.000000 0 0 1
4.449796 -25.885053 5.658965 26.867463 -1.400554 1.358582 0.052373 -0.006025 326352.000000 0 0 1
3.048296 -25.785473 5.484165 26.537875 -1.453125 1.362642 0.048703 -0.012462 174557.000000 0 0 1
2.371196 -26.969793 4.994465 27.530656 -1.483101 1.388372 0.044384 -0.008706 1058610.000000 0 0 1
0.801696 -26.801253 5.074365 27.289175 -1.540893 1.383760 0.057749 -0.012232 728178.000000 0 0 1
0.340696 -26.848813 6.403265 27.603925 -1.558108 1.336695 0.047614 -0.006836 -224810.000000 0 0 1
-1.060504 -26.636603 6.431565 27.422588 1.531004 1.334056 0.041898 -0.006192 653085.000000 0 0 1
-1.960004 -27.911663 6.415665 28.706503 1.500690 1.345401 0.048710 -0.002489 -278513.000000 0 0 1
-1.884704 -28.587973 7.633665 29.649573 1.504965 1.310401 0.056154 -0.006553 128860.000000 0 0 1
-2.475404 -29.903903 7.730965 30.986108 1.488206 1.318635 0.058034 -0.000556 211066.000000 0 0 1
-2.109404 -30.597143 9.061665 31.980440 1.501964 1.283511 0.061800 0.000870 779790.000000 0 0 1
-0.815104 -31.206203 9.109065 32.518711 1.544682 1.286880 0.053017 -0.000333 268349.000000 0 0 1
-0.616204 -31.758863 10.398665 33.423604 1.551396 1.254428 0.050777 0.007272 274150.000000 0 0 1
0.791096 -31.876173 11.051965 33.747032 -1.545984 1.237146 0.033669 -0.002018 44635.200000 0 0 1
1.495896 -33.069123 10.634565 34.769219 -1.525592 1.259953 0.037143 -0.001457 -255861.000000 0 0 1
2.851396 -33.043743 10.962565 34.931322 -1.484718 1.251570 0.048916 -0.003684 -390644.000000 0 0 1
3.196596 -33.429753 12.404865 35.800102 -1.475465 1.216955 0.042717 0.001671 -250766.000000 0 0 1
2.605696 -32.535103 13.381465 35.275859 -1.490878 1.181716 0.030807 0.013513 769446.000000 0 0 1
3.396596 -32.718843 14.571365 35.977552 -1.467355 1.153804 0.030434 0.014195 262879.000000 0 0 1
3.044796 -31.668183 15.677165 35.467141 -1.474944 1.112948 0.042447 0.016120 360206.000000 0 0 1
3.636296 -30.340023 15.490865 34.259401 -1.451514 1.101606 0.050233 0.009831 17007.200000 0 0 1
4.999896 -30.171343 15.755665 34.402760 -1.406572 1.095078 0.038149 0.023880 -285774.000000 0 0 1
5.600096 -28.993523 14.926765 33.087668 -1.379996 1.102768 0.052624 0.001145 -121742.000000 0 0 1
5.833396 -29.298413 13.559465 32.806777 -1.374264 1.144707 0.045573 0.002646 -244417.000000 0 0 1
4.690996 -29.360853 12.738665 32.347160 -1.412365 1.166022 0.044076 0.007415 -566432.000000 0 0 1
5.041096 -29.734903 11.300465 32.206795 -1.402858 1.212294 0.034248 -0.007127 103150.000000 0 0 1
5.492196 -31.015933 10.953865 33.348756 -1.395536 1.236119 0.028615 -0.000357 -869133.000000 0 0 1
6.767296 -31.305413 11.404365 33.998305 -1.357902 1.228725 0.023617 0.001021 -1210800.000000 0 0 1
7.214196 -32.729393 10.989565 35.270786 -1.353846 1.253944 0.005507 0.008512 -417816.000000 0 0 1
6.712996 -33.784843 11.774765 36.402267 -1.374653 1.241410 0.000117 -0.005183 118255.000000 0 0 1
6.847996 33.628606 11.131565 36.078940 1.369907 1.257145 0.007327 -0.005419 -55878.200000 0 0 1
6.299196 32.389203 11.877765 35.068813 1.378710 1.225263 0.006331 -0.002122 -988693.000000 0 0 1
4.919996 32.226733 11.891065 34.701097 1.419298 1.221038 0.009824 -0.001252 -508453.000000 0 0 1
4.534496 31.042663 12.640065 33.822771 1.425749 1.187786 0.021178 0.005453 390234.000000 0 0 1
3.329996 31.184653 13.605565 34.186004 1.464416 1.161475 0.033028 -0.006143 173545.000000 0 0 1
3.771396 31.646373 14.827165 35.150550 1.452183 1.135346 0.039572 0.001267 259789.000000 0 0 1
2.766196 31.532253 15.811765 35.382859 1.483294 1.107526 0.028996 -0.000682 102900.000000 0 0 1
3.327596 31.889143 17.232565 36.399885 1.466824 1.077623 0.030158 0.004113 -8545.160000 0 0 1
3.695396 33.253567 17.314465 37.672886 1.460123 1.093251 0.039425 0.007170 20371.200000 0 0 1
4.303396 33.331748 18.549965 38.387834 1.442399 1.066462 0.037709 0.013518 -561812.000000 0 0 1
4.500896 -33.869003 19.169665 39.177079 -1.438679 1.059500 0.039017 0.008204 -618265.000000 0 0 1
3.364596 -33.176883 19.529965 38.645124 -1.469728 1.040989 0.038060 0.007687 -786149.000000 0 0 1
3.695396 -32.222123 20.557765 38.399777 -1.456610 1.005861 0.033743 0.001345 1166870.000000 0 0 1
2.450096 -31.508623 21.259265 38.088747 -1.493193 0.978641 0.025134 0.000663 1231990.000000 0 0 1
1.566696 -32.379233 21.988965 39.171212 -1.522448 0.974774 0.023158 0.002370 -18119.300000 0 0 1
0.497296 -31.600463 22.468465 38.777165 -1.555061 0.952773 0.020514 0.000548 -192247.000000 0 0 1
-0.661704 -32.490213 23.000065 39.812747 1.550433 0.954881 0.018000 0.002250 -721867.000000 0 0 1
-1.423004 -33.041453 21.969865 39.704377 1.527756 0.984432 0.021567 -0.001951 -405520.000000 0 0 1
-2.198604 -34.098183 22.448865 40.883634 1.506407 0.989519 0.023796 -0.000503 955713.000000 0 0 1
-3.606504 -33.824403 23.148365 41.145400 1.464573 0.973270 0.031347 0.000085 800262.000000 0 0 1
-4.518904 -33.259083 22.261365 40.275991 1.435754 0.985171 0.035097 -0.005300 -820132.000000 0 0 1
-5.775704 -33.023563 22.826765 40.558300 1.397651 0.973010 0.041344 -0.008145 -54250.400000 0 0 1
-6.901704 -32.789453 21.807665 39.979445 1.363339 0.993844 0.033039 -0.011441 -348148.000000 0 0 1
-7.614204 -33.865423 21.350065 40.751298 1.349637 1.019360 0.023147 -0.000453 -178787.000000 0 0 1
-8.802504 -33.456863 20.698565 40.314716 1.313527 1.031626 0.028245 -0.006242 -257900.000000 0 0 1
-9.862304 34.082890 20.705865 41.080911 -1.289127 1.042542 0.043335 -0.010694 -381663.000000 0 0 1
-10.284804 33.645997 22.017465 41.504205 -1.274140 1.011621 0.056954 -0.012777 -743858.000000 0 0 1
-11.634804 33.323582 22.021465 41.602580 -1.234882 1.012986 0.052485 -0.008458 -555658.000000 0 0 1
-12.252304 33.225678 23.443665 42.469637 -1.217507 0.986023 0.053522 -0.016297 -244912.000000 0 0 1
-12.463604 -34.185678 24.202965 43.701093 1.221187 0.983840 0.040742 -0.012285 502738.000000 0 0 1
-11.265704 -33.535553 24.660565 43.124157 1.246708 0.962037 0.032781 -0.007576 264811.000000 0 0 1
-11.571304 -32.125573 25.174365 42.422826 1.225073 0.935501 0.025434 0.000273 305284.000000 0 0 1
-12.416904 -32.087103 26.364165 43.345483 1.201569 0.916963 0.024093 0.002831 710212.000000 0 0 1
-12.726004 -30.685713 26.591065 42.551720 1.177664 0.895778 0.031340 -0.001778 -33506.000000 0 0 1
-13.503704 -30.324033 27.856165 43.334316 1.151846 0.872622 0.032661 -0.008994 -282788.000000 0 0 1
-12.779204 -30.567613 29.046665 44.061273 1.174816 0.850997 0.018934 -0.000772 196480.000000 0 0 1
-13.551504 -30.257233 30.205165 44.849698 1.149710 0.831896 0.025655 -0.007680 61327.600000 0 0 1
-12.771804 -29.797553 31.436265 45.158077 1.165864 0.800792 0.025138 -0.009474 -111456.000000 0 0 1
-13.684704 -29.081823 32.253065 45.533326 1.130978 0.783653 0.032793 -0.015895 1007040.000000 0 0 1
-13.069504 -28.687593 33.510765 46.008274 1.143311 0.754865 0.031583 -0.016267 93680.900000 0 0 1
-12.532404 -29.770803 -33.988415 46.888956 1.172350 2.381643 0.033916 -0.010633 -616776.000000 0 0 1
-11.216004 -30.126603 34.219165 46.950636 1.214399 0.754181 0.029090 -0.009930 -582446.000000 0 0 1
-10.798904 -31.279163 -33.521915 47.103303 1.238366 2.362666 0.039768 -0.007777 -190225.000000 0 0 1
-9.336804 -31.582013 -33.877115 47.246782 1.283347 2.370321 0.039192 -0.014226 -277506.000000 0 0 1
-8.453204 -30.642013 -33.294815 46.031884 1.301622 2.379364 0.044845 -0.022241 291168.000000 0 0 1
-7.157804 -31.196213 -33.074715 46.025804 1.345255 2.372601 0.054190 -0.031837 503945.000000 0 0 1
-6.298304 -30.399773 -32.061915 44.629376 1.366504 2.372301 0.053557 -0.026181 -31743.200000 0 0 1
-6.458704 -30.700983 -30.655615 43.863789 1.363445 2.344630 0.063785 -0.026228 -93624.500000 0 0 1
-5.722604 -29.808833 -29.845415 42.568340 1.381127 2.347760 0.058400 -0.018635 -47644.700000 0 0 1
-6.017104 -30.052043 -28.350315 41.750104 1.373187 2.317261 0.053798 -0.022683 -213731.000000 0 0 1
-5.591804 -31.285783 -27.811715 42.232215 1.393931 2.289677 0.054203 -0.017892 261277.000000 0 0 1
-6.540804 -31.792763 -26.850415 42.124894 1.367895 2.261916 0.063747 -0.018820 488116.000000 0 0 1
-6.140704 -33.132903 -26.103915 42.625250 1.387540 2.229896 0.062266 -0.013690 20341.400000 0 0 1
-5.255504 -32.858033 -25.044915 41.647550 1.412194 2.215991 0.039341 -0.017940 -125787.000000 0 0 1
-5.083404 -34.019453 -24.308815 42.119861 1.422467 2.186012 0.054423 -0.019953 -248846.000000 0 0 1
-4.182204 -33.861513 -23.060515 41.181067 1.447910 2.165156 0.060286 -0.030647 -265760.000000 0 0 1
-4.705404 -33.118343 -21.999115 40.036565 1.429662 2.152533 0.062399 -0.027710 -34785.400000 0 0 1
-4.738004 -31.695313 -22.211815 38.992388 1.422409 2.176870 0.039424 -0.019485 161451.000000 0 0 1
-5.407004 -30.837013 -21.069215 37.736837 1.397219 2.163155 0.067096 -0.027055 201233.000000 0 0 1
-6.813704 -30.876343 -20.901015 37.902870 1.353600 2.154881 0.076078 -0.027869 184590.000000 0 0 1
-7.350904 -29.752613 -20.236315 36.725498 1.328580 2.154377 0.074377 -0.029181 96392.200000 0 0 1
-7.675104 -28.528633 -21.122015 36.317071 1.307987 2.191491 0.085885 -0.041657 -209694.000000 0 0 1
-6.519104 -27.978803 -21.733315 36.022897 1.341879 2.218453 0.076128 -0.028779 -273277.000000 0 0 1
-6.797504 -27.305183 -22.957515 36.315652 1.326810 2.255142 0.093040 -0.041212 -953048.000000 0 0 1
-5.795104 -27.537043 -24.146115 37.079736 1.363376 2.279953 0.076506 -0.035627 1703600.000000 0 0 1
-4.439704 -27.027653 -24.033715 36.439326 1.407985 2.291022 0.079961 -0.028454 1030430.000000 0 0 1
-3.738404 -27.510983 -22.943415 36.017081 1.435736 2.261416 0.057106 -0.027534 -1112330.000000 0 0 1
-2.208604 -27.150813 -22.964315 35.628701 1.489629 2.271225 0.051598 -0.026655 557760.000000 0 0 1
-1.825804 -25.783653 -23.047215 34.630975 1.500102 2.298971 0.060651 -0.029969 158928.000000 0 0 1
-2.040204 -25.019473 -21.883515 33.302022 1.489432 2.287792 0.065957 -0.032966 -759682.000000 0 0 1
-1.825804 -23.509773 -22.252715 32.422621 1.493290 2.327231 0.064122 -0.027211 -172536.000000 0 0 1
-2.577104 -23.179073 -23.408915 33.043732 1.460069 2.358057 0.070583 -0.029855 444033.000000 0 0 1
-3.967104 -23.020273 -23.130315 32.873734 1.400142 2.351263 0.070129 -0.029625 -407813.000000 0 0 1
-4.829304 -23.074973 -24.401915 33.929781 1.364487 2.373430 0.057329 -0.024305 -184197.000000 0 0 1
-4.604504 -21.995173 -25.293215 33.833945 1.364435 2.415191 0.065493 -0.019650 392413.000000 0 0 1
-5.493504 -22.066773 -26.399315 34.843147 1.326807 2.430519 0.081345 -0.018981 372483.000000 0 0 1
-5.046504 -21.000273 -27.423315 34.907261 1.334961 2.474469 0.078381 -0.016176 302320.000000 0 0 1
-5.775404 -21.031873 -28.653515 36.009983 1.302800 2.490976 0.086735 -0.017937 698277.000000 0 0 1
-5.152404 -21.958973 -29.632915 37.240481 1.340328 2.490988 0.082252 -0.013643 618423.000000 0 0 1
-6.064604 -22.062973 -30.872915 38.427739 1.302544 2.503783 0.078791 -0.015256 -73054.800000 0 0 1
-6.023804 -20.944173 -31.764215 38.521552 1.290743 2.540261 0.086171 -0.020621 37510.700000 0 0 1
-7.085004 -21.086273 -32.691215 39.541671 1.246647 2.544108 0.081018 -0.017066 212975.000000 0 0 1
-6.859004 -20.145073 -33.921815 40.044468 1.242627 2.581308 0.080220 -0.021545 -104844.000000 0 0 1
-5.873504 -20.609673 33.699865 39.936670 1.293169 0.566410 0.074759 -0.018990 -662619.000000 0 0 1
-5.797804 -19.864773 32.513265 38.540059 1.286821 0.566802 0.071512 -0.014786 730274.000000 0 0 1
-4.534604 -20.267373 31.663665 37.867093 1.350682 0.580518 0.047340 -0.018665 -639220.000000 0 0 1
-4.499204 -21.583173 31.182465 38.189296 1.365281 0.615433 0.048261 -0.019155 90138.800000 0 0 1
-3.391204 -22.087973 30.432365 37.755896 1.418454 0.633384 0.043980 -0.023720 -414782.000000 0 0 1
-2.037104 -21.983473 31.113665 38.150793 1.478395 0.617127 0.034003 -0.026642 -1768060.000000 0 0 1
-1.496704 -20.755073 30.786565 37.159464 1.498808 0.594375 0.033869 -0.021816 182159.000000 0 0 1
-0.309304 -20.371173 31.512365 37.524785 1.555614 0.573928 0.044851 -0.020459 594459.000000 0 0 1
-0.501204 -19.944473 33.009565 38.570255 1.545672 0.543644 0.030675 -0.025257 106725.000000 0 0 1
-1.359404 -18.783473 33.180765 38.152720 1.498550 0.516237 0.021019 -0.020817 392891.000000 0 0 1
-1.602404 -18.592373 -33.909915 38.705638 1.484823 2.638504 0.024388 -0.023983 524983.000000 0 0 1
-2.677304 -17.490173 -33.610315 37.983251 1.418901 2.657015 0.028785 -0.029096 454052.000000 0 0 1
-2.250304 -16.203773 -33.889215 37.631171 1.432804 2.691858 0.053328 -0.029432 392988.000000 0 0 1
-3.326904 -15.256573 -33.726415 37.165877 1.356094 2.707986 0.065220 -0.029642 679141.000000 0 0 1
-2.902504 -13.783073 -33.969915 36.774349 1.363244 2.748528 0.052649 -0.036677 -136756.000000 0 0 1
-1.877504 -13.324573 -33.113515 35.743169 1.430813 2.755611 0.059686 -0.029603 -31610.700000 0 0 1
-1.649004 -11.911673 -33.218715 35.328320 1.433235 2.794265 0.048009 -0.025885 -7058.260000 0 0 1
-1.119504 -11.261873 33.960165 35.796311 1.471715 0.321680 0.044257 -0.023830 51394.300000 0 0 1
-2.103704 -11.120873 32.919065 34.810404 1.383838 0.331155 0.045458 -0.020651 321657.000000 0 0 1
-1.579004 -10.806773 31.631765 33.464132 1.425711 0.332455 0.043225 -0.014804 -152636.000000 0 0 1
-0.729504 -11.919073 31.015565 33.234948 1.509668 0.367520 0.036274 -0.022465 -158539.000000 0 0 1
-1.507004 -13.101573 30.693465 33.406752 1.456275 0.405817 0.055210 -0.024532 520067.000000 0 0 1
-0.655404 -14.179773 30.344265 33.500298 1.524608 0.437554 0.046757 -0.032935 -8916.150000 0 0 1
-1.236804 -15.570873 30.708965 34.453190 1.491532 0.470538 0.038893 -0.032343 349343.000000 0 0 1
-2.028304 -16.122573 29.646965 33.808193 1.445649 0.501387 0.047907 -0.033192 333616.000000 0 0 1
-2.394804 -17.447073 30.072365 34.849427 1.434388 0.529771 0.042364 -0.023842 -102112.000000 0 0 1
-2.937304 -18.328473 28.939165 34.380750 1.411888 0.570324 0.044812 -0.027178 815962.000000 0 0 1
-4.314404 -18.119273 28.562665 34.099091 1.337038 0.577853 0.045033 -0.022336 823841.000000 0 0 1
-4.885204 -19.149573 27.781165 34.093467 1.321016 0.618321 0.042166 -0.021045 -69900.400000 0 0 1
-4.270904 -19.307073 26.317665 32.918432 1.353093 0.644365 0.038793 -0.026367 -128554.000000 0 0 1
-4.935604 -20.263773 25.479365 32.926869 1.331881 0.685951 0.041432 -0.015548 -141157.000000 0 0 1
-4.643204 -21.560573 25.831465 33.965898 1.358680 0.706695 0.040254 -0.023089 -302391.000000 0 0 1
-28.707594 -34.069819 -0.470835 44.554463 0.870608 1.581364 0.020441 0.007941 118866.000000 0 0 1
-28.137644 -32.821819 -0.071035 43.231977 0.862088 1.572439 0.021984 0.007059 184040.000000 0 0 1
-28.576154 -32.557119 1.259865 43.337626 0.850426 1.541721 0.024675 0.009751 22406.800000 0 0 1
-28.255984 -31.102219 1.651465 42.053252 0.833312 1.531515 0.031142 0.001039 -168574.000000 0 0 1
-26.893924 -30.821919 1.470665 40.932099 0.853351 1.534859 0.024628 -0.003285 -663676.000000 0 0 1
-26.564994 -29.509719 1.783865 39.745498 0.837864 1.525899 0.039916 -0.014027 163061.000000 0 0 1
-25.028834 -29.475119 1.957565 38.717661 0.866795 1.520215 0.042117 -0.011126 920.914000 0 0 1
-24.600604 -30.090919 3.163965 38.995690 0.885450 1.489571 0.031830 0.000715 620597.000000 0 0 1
-23.166304 -30.052019 3.146665 38.074965 0.914070 1.488058 0.031657 0.001636 902613.000000 0 0 1
-22.475004 -30.741019 4.383565 38.332124 0.939496 1.456188 0.024527 -0.000271 67285.600000 0 0 1
-22.841204 -30.103419 5.575965 38.197223 0.921714 1.424295 0.019404 0.004203 -365414.000000 0 0 1
-22.112804 -30.642119 6.610665 38.361654 0.945689 1.397607 0.019478 0.011853 -320402.000000 0 0 1
-22.524204 -30.314019 8.036565 38.611733 0.931771 1.361126 0.010208 0.017987 -132481.000000 0 0 1
-22.276204 -28.959119 8.398165 37.488519 0.915102 1.344859 0.016189 0.009089 107218.000000 0 0 1
-22.908304 -28.788819 9.640865 38.033311 0.898661 1.314515 0.002812 0.016460 26359.700000 0 0 1
-22.246404 -27.657219 10.485865 37.010507 0.893402 1.283541 0.021660 0.003463 758894.000000 0 0 1
-20.964304 -27.976619 11.025565 36.657282 0.927711 1.265292 0.020571 0.005054 195780.000000 0 0 1
-20.476404 -26.929019 11.863465 35.849644 0.920682 1.233515 0.033788 -0.002912 382137.000000 0 0 1
-19.084504 -27.154619 12.507365 35.468660 0.958188 1.210415 0.032762 -0.000351 274610.000000 0 0 1
-19.052904 -28.270319 13.316865 36.600041 0.977765 1.198400 0.032483 0.004813 -700687.000000 0 0 1
-17.788004 -28.386419 13.893565 36.266142 1.011020 1.177646 0.042316 0.001173 -322093.000000 0 0 1
-17.659404 -29.503319 14.950465 37.494224 1.031439 1.160653 0.047551 -0.008731 -64644.300000 0 0 1
-17.706104 -30.756519 14.278765 38.253794 1.048447 1.188271 0.051786 0.000654 -331830.000000 0 0 1
-17.935004 -31.735119 15.243965 39.511525 1.056398 1.174710 0.056532 0.002096 277842.000000 0 0 1
-17.384704 -33.173019 14.862765 40.293659 1.088085 1.193013 0.058307 -0.000916 165206.000000 0 0 1
-17.731004 -34.181019 15.742265 41.599874 1.092271 1.182707 0.060204 0.010430 -180023.000000 0 0 1
-17.319204 33.214427 15.235765 40.438614 -1.090147 1.184497 0.052877 -0.000799 -111899.000000 0 0 1
-17.264204 32.095927 16.341165 39.940392 -1.077295 1.149286 0.063834 -0.003741 -140319.000000 0 0 1
-18.501804 31.814827 16.926965 40.509531 -1.044056 1.139717 0.062943 -0.009908 -171524.000000 0 0 1
-18.306404 30.638227 17.672465 39.826390 -1.032216 1.111031 0.048639 -0.003012 59764.600000 0 0 1
-18.941004 30.579027 19.060765 40.708123 -1.016226 1.083510 0.047580 -0.009386 -257469.000000 0 0 1
-18.433304 31.517827 20.001065 41.631751 -1.041589 1.069654 0.047706 -0.007150 12217.500000 0 0 1
-19.316904 31.782327 21.083365 42.752396 -1.024670 1.055089 0.042562 -0.009015 -68998.000000 0 0 1
-18.786904 32.843127 22.067165 43.801581 -1.051205 1.042806 0.026827 -0.002596 221080.000000 0 0 1
-17.731204 32.421427 22.915765 43.481913 -1.070338 1.015708 0.018090 -0.012619 -60990.400000 0 0 1
-17.515004 33.103427 24.116465 44.544541 -1.084141 0.998694 0.012798 -0.011208 -107858.000000 0 0 1
-18.510104 32.756527 25.264265 45.319941 -1.056448 0.979468 0.011317 -0.009164 23146.900000 0 0 1
-19.832504 33.062627 24.867865 45.878930 -1.030490 0.997943 0.020746 -0.009267 -575435.000000 0 0 1
-20.707704 32.366927 25.725865 46.241184 -1.001639 0.980820 0.018689 -0.012134 -1114790.000000 0 0 1
-22.113604 32.501127 25.202665 46.695921 -0.973350 1.000693 0.032191 -0.024741 -1260130.000000 0 0 1
-22.285404 31.886627 23.919765 45.667837 -0.960812 1.019517 0.045552 -0.008180 89266.400000 0 0 1
-23.618704 31.960227 23.468565 46.152712 -0.934371 1.037357 0.035896 -0.010634 -6783.390000 0 0 1
-23.747004 31.451527 22.029965 45.149065 -0.924081 1.061070 0.032684 -0.016083 -106442.000000 0 0 1
-23.351604 32.393127 21.058565 45.145046 -0.946193 1.085507 0.032111 -0.019035 -1319.560000 0 0 1
-23.045304 31.799227 19.806165 43.983645 -0.943676 1.103687 0.008396 -0.003504 -239042.000000 0 0 1
-22.554404 32.752027 18.721765 43.953394 -0.967734 1.130789 0.012259 0.007622 -599675.000000 0 0 1
-21.317004 33.243727 19.138865 43.884578 -1.000608 1.119516 0.030733 0.010838 -553367.000000 0 0 1
-20.706604 34.094727 18.143365 43.822318 -1.025008 1.143929 0.044721 0.011446 570204.000000 0 0 1
-19.408804 -33.844219 18.673965 43.253321 1.050109 1.124381 0.057845 0.006641 331313.000000 0 0 1
-19.735204 -32.724119 19.516265 42.909566 1.028117 1.098623 0.063904 -0.001430 578556.000000 0 0 1
-18.588404 -32.119219 20.111865 42.209716 1.046162 1.074156 0.045046 -0.003833 46584.900000 0 0 1
-18.954904 -31.014519 21.125065 42.041137 1.022210 1.044325 0.039121 0.002403 -60288.300000 0 0 1
-19.604504 -29.915519 20.553165 41.251757 0.990684 1.049232 0.060034 0.003381 135909.000000 0 0 1
-19.949704 -28.994819 21.573065 41.280593 0.968140 1.020904 0.067498 0.009992 142538.000000 0 0 1
-20.772104 -27.715319 21.179965 40.598154 0.927627 1.021957 0.068184 -0.002824 -158208.000000 0 0 1
-20.029404 -26.696219 20.524365 39.180540 0.927122 1.019443 0.065016 0.010324 597283.000000 0 0 1
-20.781104 -25.511619 20.157265 38.587722 0.887232 1.021162 0.065812 0.023939 255161.000000 0 0 1
-21.974404 -25.551419 19.156465 38.764927 0.860521 1.053916 0.063305 0.015394 385575.000000 0 0 1
-23.113604 -26.224319 19.715265 40.132845 0.848364 1.057272 0.061214 0.010927 28097.000000 0 0 1
-24.042304 -26.256819 18.669965 40.199758 0.829397 1.087806 0.051389 0.008862 322188.000000 0 0 1
-25.544984 -26.474319 19.110865 41.456736 0.803261 1.091693 0.036565 0.007413 934301.000000 0 0 1
-26.011734 -27.782519 19.392765 42.714845 0.818304 1.099541 0.027168 0.004213 -8303.090000 0 0 1
-26.102204 -28.692019 18.294165 42.886286 0.832627 1.130095 0.033750 0.004347 -651480.000000 0 0 1
-27.005754 -29.896119 18.701365 44.416548 0.836150 1.136199 0.039227 -0.002183 633024.000000 0 0 1
-28.339664 -29.537519 19.045165 45.147756 0.806092 1.135322 0.029322 0.001033 373966.000000 0 0 1
-29.186214 -29.538519 17.902465 45.220100 0.791397 1.163753 0.024612 0.001083 355104.000000 0 0 1
-30.661034 -29.079919 18.184065 46.004358 0.758938 1.164436 0.022328 0.003525 823527.000000 0 0 1
-30.871934 -27.741919 17.825165 45.171085 0.732048 1.165148 0.036069 0.004863 -881474.000000 0 0 1
-32.195514 -27.461319 18.112165 46.029617 0.706207 1.166372 0.018197 0.028042 -991024.000000 0 0 1
-32.725954 -26.215719 17.419765 45.405949 0.675392 1.177056 0.026276 0.005447 -323189.000000 0 0 1
-32.781664 -26.387119 16.002465 45.022177 0.677743 1.207417 0.044906 -0.011622 -233857.000000 0 0 1
-33.311874 -25.272319 15.359065 44.545167 0.649019 1.218773 0.047125 -0.014904 -458409.000000 0 0 1
-32.498414 -24.005619 15.033665 43.109485 0.636211 1.214578 0.035607 -0.012828 -300083.000000 0 0 1
-32.009534 -23.284819 16.163365 42.755671 0.628902 1.183118 0.026047 -0.006885 208883.000000 0 0 1
-31.550974 -21.979319 15.753465 41.553894 0.608460 1.181963 0.025864 -0.006664 145291.000000 0 0 1
-32.650364 -20.904319 15.882065 41.896024 0.569489 1.181991 0.035191 -0.017431 194112.000000 0 0 1
-33.172924 -20.669319 17.162965 42.687598 0.557216 1.157031 0.046092 -0.018003 879086.000000 0 0 1
-34.368952 -19.866219 17.184065 43.257180 0.524107 1.162274 0.071787 -0.022642 463732.000000 0 0 1
-34.683642 -19.369419 18.593165 43.861546 0.509315 1.133043 0.052035 -0.014187 -436861.000000 0 0 1
-35.364401 -20.280919 19.402365 45.148735 0.520694 1.126588 0.063181 -0.014567 2131.420000 0 0 1
-35.598207 -19.851219 20.703165 45.715690 0.508695 1.100817 0.060497 -0.003155 -451751.000000 0 0 1
35.127844 -19.950319 21.048965 45.552603 -0.516508 1.090457 0.065090 0.004687 484907.000000 0 0 1
34.534134 -21.252019 21.230265 45.770939 -0.551660 1.088475 0.070820 0.000190 412019.000000 0 0 1
35.220034 -21.991019 22.261365 47.112887 -0.558160 1.078658 0.047423 0.008852 -57330.800000 0 0 1
34.626154 -23.432019 22.529965 47.493467 -0.594927 1.076536 0.052567 0.016532 573890.000000 0 0 1
33.553344 -23.369719 23.477065 47.150220 -0.608369 1.049597 0.058128 0.008108 301547.000000 0 0 1
33.413624 -24.617019 24.120765 48.002909 -0.634958 1.044325 0.052904 -0.005848 -1900.450000 0 0 1
32.449844 -24.488219 25.321365 47.894016 -0.646469 1.013733 0.055460 -0.007518 -218673.000000 0 0 1
31.086654 -24.356619 25.085665 46.785848 -0.664603 1.004891 0.061708 -0.002405 -634692.000000 0 0 1
30.309564 -24.314819 26.277065 46.908041 -0.676091 0.976190 0.027433 0.007046 -178222.000000 0 0 1
28.958304 -24.963419 25.977665 46.223314 -0.711447 0.973990 0.026614 0.002117 97838.400000 0 0 1
28.046794 -24.113219 25.227465 44.771587 -0.710127 0.972216 0.031092 0.010602 1114890.000000 0 0 1
26.682994 -24.574719 25.228465 44.185682 -0.744290 0.963116 0.027914 0.017530 1169360.000000 0 0 1
25.664094 -23.525719 24.726365 42.702439 -0.741954 0.953247 0.031860 0.013700 -218920.000000 0 0 1
25.751394 -23.220219 23.352665 41.805022 -0.733758 0.978088 0.024962 0.020124 182658.000000 0 0 1
26.814294 -22.294319 23.138565 41.850164 -0.693616 0.984967 0.024989 0.024416 76682.200000 0 0 1
26.877694 -21.696319 21.693665 40.789163 -0.679130 1.010014 0.028479 0.012312 -305333.000000 0 0 1
26.078394 -20.554919 21.609965 39.617899 -0.667503 0.993859 0.018712 0.012416 -249865.000000 0 0 1
26.164794 -19.919719 20.345265 38.669387 -0.650705 1.016749 0.014881 0.009453 -201552.000000 0 0 1
25.326394 -18.643919 20.252065 37.405456 -0.634575 0.998671 0.002658 0.020120 -249585.000000 0 0 1
25.626994 -17.544219 21.085365 37.538448 -0.600315 0.974357 0.005845 0.002890 -192728.000000 0 0 1
25.307094 -17.654019 22.427565 38.145892 -0.609108 0.942284 0.005585 0.009148 -332352.000000 0 0 1
25.756194 -16.503119 23.329465 38.470748 -0.569841 0.919245 0.027036 0.001041 37359.900000 0 0 1
24.781694 -15.470019 23.223265 37.319886 -0.558061 0.899150 0.013751 -0.001171 67053.100000 0 0 1
24.936494 -14.384919 24.105265 37.547549 -0.523233 0.873701 0.015828 -0.002935 83634.200000 0 0 1
23.750094 -13.377419 24.020465 36.331874 -0.512965 0.848459 0.020351 -0.007958 1415180.000000 0 0 1
22.493094 -13.987019 24.391065 36.006944 -0.556321 0.826575 0.026919 -0.004907 386753.000000 0 0 1
21.445794 -13.049019 24.437065 35.033829 -0.546621 0.798855 0.030892 -0.008504 710751.000000 0 0 1
20.079994 -13.701619 24.870065 34.777301 -0.598783 0.773996 0.028109 -0.004431 677641.000000 0 0 1
19.566294 -14.724919 23.968265 34.265739 -0.645141 0.796124 0.040225 -0.010445 -204529.000000 0 0 1
18.367594 -15.256319 24.468665 34.188293 -0.693129 0.773166 0.055859 -0.007631 -293720.000000 0 0 1
17.783194 -16.517419 23.793165 33.987966 -0.748513 0.795333 0.066681 -0.014873 458560.000000 0 0 1
18.495194 -17.768819 24.025265 35.142802 -0.765371 0.818048 0.044020 -0.008911 321466.000000 0 0 1
17.961494 -18.642819 23.102365 34.697107 -0.804009 0.842191 0.062123 -0.014822 -167351.000000 0 0 1
18.375794 -20.105119 23.323965 35.859350 -0.830308 0.862647 0.042967 -0.009180 -229591.000000 0 0 1
17.620894 -20.668219 24.382965 36.499318 -0.864818 0.839226 0.038034 -0.009091 248869.000000 0 0 1
17.668894 -22.085119 24.668365 37.529596 -0.896033 0.853560 0.043978 -0.005357 -570364.000000 0 0 1
17.005094 -22.979119 23.594165 37.066127 -0.933711 0.880789 0.034839 -0.007924 -10967.400000 0 0 1
17.747694 -23.240219 22.370165 36.817288 -0.918608 0.917762 0.032587 0.000543 -108159.000000 0 0 1
18.817794 -24.085719 22.668065 38.053547 -0.907572 0.932674 0.042323 0.004988 -307966.000000 0 0 1
19.941994 -24.259219 21.596865 38.113219 -0.882761 0.968362 0.034646 0.017657 329904.000000 0 0 1
19.471394 -24.957319 20.428865 37.674149 -0.908253 0.997682 0.026521 0.002379 22103.100000 0 0 1
20.561994 -25.523519 19.761265 38.272095 -0.892644 1.028229 0.024841 -0.002071 -137527.000000 0 0 1
20.063694 -26.233419 18.495965 37.852937 -0.917881 1.060281 0.021630 -0.008842 78893.900000 0 0 1
19.301994 -27.414619 18.660365 38.371051 -0.957340 1.062930 0.031707 -0.014540 9022.140000 0 0 1
18.498894 -27.575919 17.513265 37.541375 -0.979913 1.085460 0.043046 -0.016107 -572497.000000 0 0 1
17.594194 -28.800519 17.593065 38.059710 -1.022402 1.090267 0.042071 -0.011578 -356722.000000 0 0 1
16.682994 -28.618719 18.665965 38.023304 -1.043015 1.057664 0.044920 -0.017161 -169313.000000 0 0 1
15.975694 -29.826019 18.921765 38.766576 -1.079053 1.060891 0.059332 -0.016869 -283201.000000 0 0 1
14.857194 -29.542419 19.936165 38.612711 -1.104823 1.028259 0.050076 -0.015601 -531498.000000 0 0 1
13.793894 -28.881919 19.309265 37.380269 -1.125232 1.027964 0.052142 -0.022957 -55338.100000 0 0 1
12.665694 -28.835719 20.199165 37.415569 -1.156929 1.000526 0.035803 -0.019590 -391284.000000 0 0 1
11.472894 -28.187919 19.560265 36.177204 -1.184258 0.999552 0.042559 -0.020030 -845752.000000 0 0 1
10.935794 -29.002419 18.536665 36.115646 -1.210217 1.031819 0.035274 -0.014421 31652.400000 0 0 1
10.695794 -28.231919 17.350865 34.820882 -1.208651 1.049172 0.046098 -0.007200 -29069.000000 0 0 1
10.505594 -29.221219 16.182065 35.015802 -1.225666 1.090394 0.034623 -0.008077 356628.000000 0 0 1
9.261694 -29.875819 15.973165 35.121013 -1.270185 1.098645 0.047419 -0.000663 431002.000000 0 0 1
9.524994 -30.924119 15.018565 35.673295 -1.272006 1.136245 0.030006 -0.002394 -318879.000000 0 0 1
8.342294 -31.857619 14.807865 36.107820 -1.314685 1.148231 0.017938 0.003722 -474937.000000 0 0 1
8.228794 -32.910919 15.691965 37.377526 -1.325787 1.137545 0.020504 -0.000997 99985.000000 0 0 1
7.321894 -33.902219 15.223365 37.877717 -1.358092 1.157197 0.002707 0.003110 116674.000000 0 0 1
7.048094 33.573127 16.272865 37.968890 1.363869 1.127871 0.031882 -0.004039 964.026000 0 0 1
8.096894 32.626927 16.272065 37.347773 1.327545 1.119991 0.033102 -0.007511 165043.000000 0 0 1
7.800294 31.696727 17.300065 36.943461 1.329500 1.083448 0.037523 -0.013428 -123964.000000 0 0 1
9.007294 30.814727 17.594765 36.609486 1.286414 1.069450 0.054132 -0.018548 -264439.000000 0 0 1
9.399394 29.967827 16.537065 35.494982 1.266865 1.086146 0.041262 -0.016558 252264.000000 0 0 1
10.568494 29.189027 16.832065 35.313040 1.223409 1.073953 0.058587 -0.016838 488282.000000 0 0 1
11.352894 28.650827 15.639965 34.559609 1.193527 1.101173 0.042303 -0.011621 -106990.000000 0 0 1
10.719794 27.635927 14.856165 33.156660 1.200770 1.106202 0.041642 -0.010693 -103281.000000 0 0 1
11.323494 27.534427 13.602365 32.732102 1.180631 1.142231 0.032683 -0.002246 -84079.000000 0 0 1
-9.173504 -9.105573 19.249945 23.186742 0.781682 0.591306 0.027216 -0.014358 -60321.400000 0 1 0
-9.433404 -9.258573 17.896345 22.248358 0.776045 0.636149 0.024905 -0.018030 -12852.000000 0 1 0
-9.685304 -10.636273 17.650845 22.770326 0.832160 0.683814 0.035910 -0.019927 4334.310000 0 1 0
-9.791404 -11.008373 16.167445 21.873320 0.843840 0.739004 0.038992 -0.015691 163198.000000 0 1 0
-11.038404 -10.623273 15.607145 21.869688 0.766236 0.776112 0.033248 -0.024054 309003.000000 0 1 0
-11.404704 -11.145773 14.335245 21.442826 0.773916 0.838561 0.038394 -0.026111 78072.400000 0 1 0
-11.497504 -12.660073 14.079845 22.152022 0.833485 0.882010 0.025964 -0.028032 319687.000000 0 1 0
-10.233704 -13.236573 13.702045 21.625947 0.912650 0.884608 0.032511 -0.027072 835175.000000 0 1 0
-10.239904 -14.670473 13.850645 22.625622 0.961418 0.911999 0.045892 -0.025838 -114631.000000 0 1 0
-9.969604 -15.236773 15.305245 23.786609 0.991396 0.871813 0.052895 -0.029118 -182132.000000 0 1 0
-11.011504 -14.959573 16.185945 24.637915 0.936261 0.854027 0.054143 -0.015169 -577063.000000 0 1 0
-10.610004 -15.118673 17.513245 25.453098 0.958876 0.811985 0.055050 -0.018598 -119205.000000 0 0 1
-11.680404 -14.777473 18.605945 26.476154 0.901924 0.791550 0.035954 -0.012120 -319283.000000 0 0 1
-12.026504 -13.406573 18.578045 25.875022 0.839608 0.769884 0.033689 -0.008656 110376.000000 0 0 1
-13.254004 -13.204473 17.901445 25.893792 0.783526 0.807453 0.039605 -0.018618 645870.000000 0 0 1
-14.567404 -13.454973 18.733945 27.280144 0.745721 0.813823 0.018825 -0.009017 92301.300000 0 0 1
-15.035004 -14.802373 18.868345 28.305053 0.777602 0.841149 0.024421 -0.009173 -205035.000000 0 0 1
-15.783604 -14.905473 20.031845 29.539297 0.756792 0.825564 0.022831 -0.006274 -329158.000000 0 0 1
-16.276704 -16.323473 20.365745 30.759558 0.786833 0.847186 0.024628 -0.011484 -338175.000000 0 0 1
-17.455704 -16.648273 19.685445 31.134922 0.761727 0.886326 0.027191 -0.002917 -360351.000000 0 0 1
-17.806204 -17.982573 19.908145 32.198883 0.790326 0.904235 0.021213 -0.001301 356374.000000 0 0 1
-19.027804 -18.448973 19.046345 32.637175 0.769954 0.947668 0.034075 0.001539 173107.000000 0 0 1
-18.842604 -18.590873 17.644745 31.811968 0.778674 0.982845 0.036148 -0.000165 29909.000000 0 0 1
-19.043904 -17.387573 16.978645 30.875109 0.739965 0.988535 0.040220 0.000448 -566467.000000 0 0 1
-18.654604 -17.542973 15.502545 29.934580 0.754698 1.026424 0.039166 -0.007129 -696021.000000 0 0 1
-19.401304 -18.511573 14.790145 30.624130 0.761935 1.066768 0.039440 -0.002488 138331.000000 0 0 1
-19.117704 -18.439173 13.405845 29.752418 0.767333 1.103381 0.041943 -0.011743 -285580.000000 0 0 1
-19.506104 -19.631573 12.621445 30.416897 0.788604 1.142910 0.037524 0.000701 19541.200000 0 0 1
-18.787904 -20.851573 12.935745 30.904804 0.837412 1.138929 0.036789 -0.000209 239876.000000 0 0 1
-18.780204 -21.886873 11.946745 31.216278 0.861643 1.178070 0.035179 -0.000893 -253772.000000 0 0 1
-17.974904 -23.178173 12.414745 31.850444 0.911168 1.170401 0.038505 -0.000299 324003.000000 0 0 1
-17.964804 -24.362273 11.590745 32.412959 0.935406 1.205104 0.037272 -0.010294 -209587.000000 0 0 1
-17.178904 -24.268673 10.444445 31.514594 0.954812 1.232992 0.038272 -0.007580 -334466.000000 0 0 1
-17.471704 -25.444143 9.518845 32.299741 0.969074 1.271651 0.061403 -0.007548 356318.000000 0 0 1
-18.748904 -25.388693 8.906645 32.793833 0.934712 1.295746 0.046549 -0.003621 -28573.400000 0 0 1
-18.936704 -26.476003 8.028945 33.526727 0.949915 1.328967 0.057791 -0.007010 673308.000000 0 0 1
-20.182704 -26.297293 7.086345 33.898458 0.916200 1.360197 0.060086 -0.010651 566526.000000 0 0 1
-20.056604 -25.206063 6.198845 32.803028 0.898679 1.380681 0.065724 -0.016225 -421103.000000 0 0 1
-21.152504 -25.004873 5.365145 33.188204 0.868667 1.408426 0.067185 -0.021998 -556515.000000 0 0 1
-21.012604 -23.755273 4.454845 32.026367 0.846586 1.431245 0.066740 -0.020097 55022.700000 0 0 1
-21.697304 -23.850373 3.197845 32.401227 0.832634 1.471940 0.064352 -0.027828 84357.600000 0 0 1
-21.819604 -22.603873 2.537245 31.519324 0.803051 1.490211 0.069463 -0.012204 173118.000000 0 0 1
-22.319804 -22.602473 1.094945 31.784341 0.791690 1.536340 0.047731 -0.012552 92917.300000 0 0 1
-21.347404 -23.208973 0.268745 31.534748 0.827154 1.562274 0.051329 -0.021494 398154.000000 0 0 1
-21.794304 -23.213573 -1.045755 31.858362 0.816922 1.603627 0.035324 -0.022682 -98094.200000 0 0 1
-20.873704 -24.118373 -1.907955 31.953837 0.857390 1.630542 0.037346 -0.023540 -50372.800000 0 0 1
-19.539404 -23.635073 -2.026155 30.732886 0.879978 1.636772 0.053528 -0.019983 137449.000000 0 0 1
-18.847604 -24.176073 -3.115755 30.812702 0.908620 1.672089 0.054006 -0.020270 -50794.500000 0 0 1
-18.537604 -25.721683 -3.184455 31.865161 0.946313 1.670899 0.062041 -0.027062 -1109030.000000 0 0 1
-19.686604 -26.497253 -3.190955 33.163971 0.931811 1.667163 0.083303 -0.034622 -726506.000000 0 0 1
-19.281704 -27.770493 -3.683655 34.008142 0.963890 1.679326 0.084885 -0.032824 -277231.000000 0 0 1
-20.354004 -28.766893 -4.181555 35.486688 0.955021 1.688905 0.093654 -0.036167 280595.000000 0 0 1
-21.052904 -28.428473 -5.396955 35.784493 0.933366 1.722192 0.074834 -0.025319 314359.000000 0 0 1
-21.953104 -29.475593 -5.766455 37.202169 0.930638 1.726427 0.070671 -0.041484 546745.000000 0 0 1
-22.798704 -29.123113 -7.043755 37.650380 0.906607 1.758988 0.061073 -0.002913 909.842000 0 0 1
-21.920304 -29.003433 -8.157455 37.259132 0.923604 1.791523 0.095155 -0.010437 620058.000000 0 0 1
-22.634304 -29.009933 -9.396855 37.976161 0.908230 1.820834 0.095224 -0.009169 -90740.800000 0 0 1
-23.368304 -27.730923 -9.714755 37.542751 0.870567 1.832540 0.049164 -0.003119 -737773.000000 0 0 1
-22.638704 -26.602083 -10.165055 36.380078 0.865715 1.853979 0.041838 -0.006392 39420.200000 0 0 1
-22.183304 -25.732763 -9.111655 35.175223 0.859340 1.832821 0.026568 -0.010673 59264.700000 0 0 1
-21.658004 -24.343173 -9.630855 33.976648 0.843704 1.858191 0.020678 -0.011391 35437.100000 0 0 1
-22.649304 -23.412573 -10.025655 34.083035 0.801967 1.869366 0.008496 -0.004437 184623.000000 0 0 1
-22.075804 -22.185073 -10.413255 32.984155 0.787867 1.891996 0.005203 0.003122 108967.000000 0 0 1
-23.155804 -21.093773 -10.592555 33.065703 0.738832 1.896894 -0.005076 0.005160 -166153.000000 0 0 1
-23.887604 -21.289973 -11.809555 34.107861 0.727963 1.924358 -0.017596 0.011703 577659.000000 0 0 1
-25.196704 -20.734573 -11.824255 34.707483 0.688554 1.918440 -0.016743 0.014703 294497.000000 0 0 1
-25.364924 -19.236673 -11.925255 33.994715 0.648853 1.929219 -0.011484 -0.002327 -966722.000000 0 0 1
-24.998904 -18.739073 -13.201955 33.917395 0.643242 1.970601 -0.004317 -0.002913 257844.000000 0 0 1
-24.835204 -17.334773 -13.285055 33.072260 0.609377 1.984166 0.003519 -0.001607 381904.000000 0 0 1
-23.721304 -16.576273 -12.461455 31.508109 0.609915 1.977408 0.001234 0.006709 199645.000000 0 0 1
-24.027604 -16.519273 -11.106155 31.201904 0.602296 1.934721 0.013148 0.002249 -220503.000000 0 0 1
-22.860604 -16.388973 -10.374555 29.980611 0.621984 1.924146 0.006474 0.005381 -502078.000000 0 0 1
-23.164804 -16.735473 -8.915455 29.936091 0.625636 1.873201 -0.011896 -0.008218 55331.400000 0 0 1
-23.473304 -18.047673 -8.639055 30.843926 0.655462 1.854684 -0.006291 -0.000844 887881.000000 0 0 1
-24.678704 -18.060073 -7.829155 31.567393 0.631756 1.821426 0.009181 -0.007381 1048880.000000 0 0 1
-25.031164 -19.462073 -7.262055 32.527971 0.660879 1.795950 0.010530 -0.005665 143158.000000 0 0 1
-25.409744 -20.398873 -8.251355 33.613300 0.676444 1.818810 0.002784 -0.017419 153026.000000 0 0 1
-26.018334 -21.568473 -7.725855 34.667587 0.692159 1.795539 0.004024 -0.007209 108310.000000 0 0 1
-25.750694 -22.803573 -8.654055 35.468209 0.724775 1.817279 -0.013658 -0.000840 -7884.960000 0 0 1
-26.229824 -24.015273 -8.108455 36.475801 0.741352 1.794966 0.000091 0.004106 -407606.000000 0 0 1
-26.022144 -25.107703 -9.016055 37.267117 0.767515 1.815151 -0.001835 0.013872 101829.000000 0 0 1
-26.522534 -26.496013 -8.606455 38.464979 0.784898 1.796454 0.005068 0.005455 -368952.000000 0 0 1
-25.816694 -26.843943 -7.452355 37.982056 0.804903 1.768285 0.018978 -0.009533 -57416.800000 0 0 1
-26.438744 -27.950533 -6.832555 39.075866 0.813187 1.746553 0.012469 -0.012174 -99453.900000 0 0 1
-25.900014 -28.485323 -5.502655 38.890919 0.832899 1.712762 0.033461 -0.015207 -259420.000000 0 0 1
-26.580734 -27.839513 -4.423855 38.744605 0.808525 1.685226 0.005783 -0.017205 320411.000000 0 0 1
-25.922964 -28.049063 -3.175155 38.325339 0.824770 1.653739 0.020061 -0.019545 -163653.000000 0 0 1
-26.083344 -29.363143 -2.312155 39.343120 0.844482 1.629599 0.018291 -0.005559 -336378.000000 0 0 1
-25.703744 -30.563043 -3.015555 40.048416 0.871546 1.646165 0.034490 -0.015243 -78887.300000 0 0 1
-25.729234 -31.759143 -2.159255 40.930417 0.889905 1.623575 0.034262 -0.014543 -374188.000000 0 0 1
-24.776004 -31.930393 -0.962555 40.426809 0.910901 1.594608 0.049840 -0.023191 -1387680.000000 0 0 1
-23.490204 -31.915163 -1.448755 39.654334 0.936303 1.607339 0.061907 -0.032186 -1762690.000000 0 0 1
-22.594004 -31.955723 -0.386455 39.138301 0.955361 1.580671 0.049814 -0.024977 -474595.000000 0 0 1
-21.510204 -30.883373 -0.309155 37.637311 0.962425 1.579010 0.060915 -0.023046 -504314.000000 0 0 1
-21.939204 -29.563053 0.037145 36.814456 0.932360 1.569787 0.063568 -0.032735 35993.100000 0 0 1
-22.444804 -28.852213 -1.101455 36.570926 0.909663 1.600919 0.063956 -0.038376 -124995.000000 0 0 1
-22.900304 -27.380363 -0.805855 35.703748 0.874265 1.593369 0.050079 -0.028229 -187625.000000 0 0 1
-24.264104 -27.373573 -0.463255 36.582425 0.845543 1.583460 0.043815 -0.028538 -452848.000000 0 0 1
-24.830204 -26.110773 -0.129855 36.032324 0.810531 1.574400 0.049131 -0.044702 59501.500000 0 0 1
-24.456504 -25.381073 1.199545 35.266958 0.803948 1.536776 0.048692 -0.028655 -350608.000000 0 0 1
-24.898804 -26.146143 2.326145 36.179859 0.809829 1.506458 0.031991 -0.030044 -5221.290000 0 0 1
-24.492304 -25.573783 3.556745 35.588506 0.806996 1.470688 0.039587 -0.026940 -242235.000000 0 0 1
-25.400554 -24.470473 4.137345 35.512108 0.766751 1.454026 0.048179 -0.021140 -493560.000000 0 0 1
-25.421944 -23.325473 3.267745 34.655895 0.742418 1.476365 0.036703 -0.017430 133647.000000 0 0 1
-26.198974 -22.220373 3.731845 34.555143 0.703413 1.462588 0.022085 -0.005799 -58399.100000 0 0 1
-26.312374 -21.051273 2.762645 33.810196 0.674773 1.488995 0.018707 0.003459 526847.000000 0 0 1
-25.011704 -20.477473 2.723145 32.439602 0.686049 1.486752 0.030723 0.005582 395284.000000 0 0 1
-25.047334 -19.412373 1.841845 31.742740 0.659327 1.512740 0.029229 0.004336 108057.000000 0 0 1
-23.772004 -18.547273 1.770645 30.203389 0.662560 1.512139 0.046915 0.006875 -268655.000000 0 0 1
-22.648404 -19.244073 1.311245 29.749015 0.704313 1.526705 0.042610 -0.000434 386284.000000 0 0 1
-21.465404 -18.422573 1.488345 28.326135 0.709261 1.518229 0.050416 0.003532 601446.000000 0 0 1
-20.152304 -19.200873 1.339345 27.867234 0.761226 1.522716 0.055444 -0.008778 -408000.000000 0 0 1
-19.895704 -19.501173 0.008145 27.859197 0.775384 1.570504 0.033423 -0.004134 -539986.000000 0 0 1
-18.684704 -20.138573 -0.205155 27.472211 0.822829 1.578264 0.051772 -0.012109 -604056.000000 0 0 1
-18.345204 -20.674373 -1.567655 27.684540 0.845020 1.627452 0.049182 -0.011259 -243577.000000 0 0 1
-17.878704 -19.739873 -2.488955 26.748935 0.834833 1.663980 0.044750 -0.013262 -197078.000000 0 0 1
-17.893204 -20.180673 -3.814055 27.239187 0.845406 1.711279 0.052397 -0.010918 -138506.000000 0 0 1
-17.112804 -19.235173 -4.742055 26.178751 0.843722 1.752943 0.058327 -0.010915 702919.000000 0 0 1
-15.735504 -19.204873 -4.330355 25.202881 0.884368 1.743473 0.076014 -0.016088 728472.000000 0 0 1
-15.019904 -18.403773 -5.295855 24.338087 0.886296 1.790146 0.080125 -0.013331 880238.000000 0 1 0
-13.460104 -18.293973 -5.192055 23.298096 0.936467 1.795537 0.091305 -0.019326 531507.000000 0 1 0
-12.796904 -19.445573 -5.620755 23.947525 0.988756 1.807718 0.081480 -0.017921 -1096800.000000 0 1 0
-11.537804 -19.034273 -6.044255 23.064204 1.025860 1.835955 0.068542 -0.021762 -219074.000000 0 1 0
-10.481604 -20.203573 -6.004355 23.539343 1.092222 1.828724 0.050227 -0.024156 407087.000000 0 1 0
-10.696004 -21.266873 -6.941555 24.796564 1.104798 1.854528 0.051675 -0.021993 -119752.000000 0 1 0
-9.573504 -22.124573 -7.042755 25.114719 1.162414 1.855032 0.038888 -0.016826 143935.000000 0 0 1
-9.821804 -23.304373 -8.005555 26.526412 1.171930 1.877372 0.061025 -0.015624 -332847.000000 0 0 1
-10.306404 -22.845573 -9.279055 26.725326 1.147000 1.925381 0.051435 -0.011715 162177.000000 0 0 1
-10.604804 -23.984073 -10.093855 28.099529 1.154481 1.938226 0.061531 -0.011228 276473.000000 0 0 1
-11.434304 -23.575173 -11.356855 28.557140 1.119209 1.979793 0.075690 -0.015023 41458.000000 0 0 1
-10.663404 -22.862673 -12.289455 28.061374 1.134379 2.024112 0.057365 -0.003263 306478.000000 0 0 1
-11.513404 -22.234673 -13.260255 28.333258 1.093000 2.057834 0.061058 -0.008514 -15034.300000 0 0 1
-10.909504 -20.994473 -13.971355 27.476971 1.091563 2.104209 0.045869 0.006004 -390606.000000 0 0 1
-10.689104 -19.945373 -13.042055 26.118385 1.078828 2.093638 0.052314 -0.007015 -216914.000000 0 0 1
-10.383304 -18.776273 -13.812955 25.517820 1.065652 2.142786 0.049524 0.009788 5173.980000 0 0 1
-10.102404 -17.546073 -12.899555 24.006703 1.048388 2.138066 0.052964 0.007605 -123028.000000 0 1 0
-11.295904 -16.975673 -12.401855 23.865811 0.983659 2.117237 0.063245 -0.004833 -42654.700000 0 1 0
-11.165104 -15.746773 -11.707355 22.576150 0.954028 2.115976 0.069128 -0.011502 54403.200000 0 1 0
-10.838304 -14.438473 -12.567855 21.997484 0.926877 2.178924 0.068225 0.005425 -429347.000000 0 1 0
-11.976604 -13.949573 -13.183755 22.623904 0.861351 2.192887 0.062938 0.016912 -700322.000000 0 1 0
-11.800004 -13.780973 -14.598855 23.286947 0.862683 2.248379 0.064269 0.009907 -9282.430000 0 1 0
-12.988704 -12.957573 -15.179155 23.812011 0.784198 2.261991 0.058933 0.012534 199474.000000 0 1 0
-13.180704 -11.691273 -14.662355 22.921638 0.725586 2.264869 0.052319 0.006013 -79808.000000 0 1 0
-14.179204 -10.932273 -15.315055 23.560885 0.656811 2.278408 0.034484 -0.007709 -385499.000000 0 1 0
-14.214704 -9.546873 -14.679555 22.554155 0.591424 2.279511 0.025335 -0.012807 563852.000000 0 1 0
-13.027804 -8.737673 -14.759955 21.538962 0.590786 2.325768 0.025056 -0.011091 705084.000000 0 1 0
-12.867804 -7.920073 -15.938455 21.962292 0.551735 2.382875 0.022825 -0.009722 -516403.000000 0 1 0
-11.756604 -6.899873 -15.770155 20.845234 0.530727 2.428795 0.011576 -0.012182 -658061.000000 0 1 0
-10.495504 -7.504373 -15.858955 20.444502 0.620728 2.458632 0.010474 -0.012512 -240837.000000 0 1 0
-9.504104 -6.524873 -15.540255 19.349457 0.601630 2.503337 0.010130 -0.006964 -68093.500000 0 1 0
11.630296 22.013427 16.085145 29.640962 1.084744 0.997188 0.049820 0.007604 -690034.000000 0 0 1
12.499896 21.696627 17.078445 30.309475 1.048120 0.972218 0.075733 0.005199 -688785.000000 0 0 1
12.602996 20.277727 17.279445 29.472037 1.014704 0.944313 0.069576 0.003219 -144579.000000 0 0 1
13.791996 20.042227 18.235545 30.404689 0.968070 0.927594 0.071879 -0.001386 15287.800000 0 0 1
15.023996 20.442027 17.685645 30.925377 0.936993 0.961999 0.068019 0.007168 91461.200000 0 0 1
16.076896 20.412827 18.652845 31.985602 0.903670 0.948178 0.084899 -0.001771 201530.000000 0 0 1
17.419096 20.950527 18.164245 32.745829 0.877177 0.982789 0.068742 0.007549 -1184950.000000 0 0 1
17.572596 22.321627 18.476745 33.888660 0.903881 0.994146 0.068931 -0.001119 -174620.000000 0 0 1
18.792396 22.815327 17.981145 34.597903 0.881786 1.024276 0.063468 -0.001330 1050310.000000 0 0 1
20.095796 22.429227 18.812945 35.508283 0.840215 1.012410 0.055032 -0.008883 261582.000000 0 0 1
20.473996 21.115227 18.532645 34.763433 0.800815 1.008527 0.067658 -0.009350 452093.000000 0 0 1
21.751396 20.863127 19.147945 35.707662 0.764557 1.004818 0.074772 -0.018873 775530.000000 0 0 1
22.341296 19.450727 18.785045 35.076234 0.716343 1.005639 0.070974 -0.021328 43627.700000 0 0 1
22.740196 19.306927 17.391945 34.530475 0.703926 1.042955 0.060843 -0.017435 32605.500000 0 0 1
22.686396 18.012227 16.914645 33.544271 0.671051 1.042285 0.044840 -0.011739 -261885.000000 0 0 1
23.612096 16.907727 17.486545 33.899581 0.621425 1.028816 0.037256 -0.009826 -492759.000000 0 0 1
24.863496 16.904727 16.851145 34.466278 0.597109 1.059949 0.052655 -0.010969 -263404.000000 0 0 1
25.497296 15.651027 17.072945 34.446367 0.550527 1.052227 0.039233 0.000743 -170666.000000 0 0 1
26.850696 15.603627 16.328145 35.086199 0.526426 1.086741 0.065296 -0.011476 -756337.000000 0 0 1
27.826696 16.600127 16.656345 36.432445 0.537882 1.095970 0.064942 -0.008898 811112.000000 0 0 1
28.928496 16.274727 17.507745 37.526601 0.512454 1.085419 0.063615 -0.015013 764921.000000 0 0 1
29.848396 15.208227 16.791045 37.472071 0.471231 1.106163 0.046178 -0.014968 -855878.000000 0 0 1
30.545796 15.738127 15.649645 37.757724 0.475758 1.143430 0.065022 -0.010220 149319.000000 0 0 1
30.615896 14.671727 14.713545 37.001096 0.446885 1.161840 0.073542 -0.030645 183208.000000 0 0 1
29.537596 14.753127 13.573445 35.698218 0.463223 1.180754 0.071718 -0.018061 372089.000000 0 0 1
29.998996 15.659927 12.527045 36.084622 0.481104 1.216258 0.067273 -0.006512 38281.300000 0 0 1
29.166896 15.677127 11.406845 35.022796 0.493194 1.239047 0.062439 -0.011007 -88629.200000 0 0 1
27.809896 16.400627 11.529745 34.282735 0.532842 1.227797 0.062468 -0.007452 -315062.000000 0 0 1
27.848096 17.827727 11.476545 35.000791 0.569439 1.236723 0.050047 0.004881 -192379.000000 0 0 1
28.457796 18.539427 12.509945 36.194685 0.577409 1.217887 0.050143 0.001998 -477916.000000 0 0 1
27.868196 18.498427 13.936145 36.235953 0.586003 1.176028 0.060325 -0.000771 100967.000000 0 0 1
26.786096 19.403427 14.126945 35.966074 0.626904 1.167138 0.071527 0.008342 264993.000000 0 0 1
26.180096 19.257727 15.379345 35.955274 0.634213 1.128810 0.070433 -0.000581 -206980.000000 0 0 1
26.773696 20.167827 16.479045 37.351452 0.645591 1.113873 0.065650 -0.010624 -193473.000000 0 0 1
26.435396 21.547127 16.305345 37.801761 0.683872 1.124821 0.063950 -0.005795 363357.000000 0 0 1
25.161296 21.952727 16.791445 37.376004 0.717401 1.104862 0.070971 -0.007863 238010.000000 0 0 1
24.996096 23.487227 16.658745 38.130938 0.754287 1.118666 0.058924 0.000652 -79946.400000 0 0 1
24.623296 23.747527 15.352045 37.495827 0.767295 1.148963 0.072135 -0.002862 -8294.710000 0 0 1
24.488696 25.134827 15.151745 38.223437 0.798418 1.163205 0.076852 -0.006482 -294233.000000 0 0 1
24.554496 25.511327 13.647045 37.947239 0.804507 1.202923 0.084351 -0.008866 -244815.000000 0 0 1
23.318796 25.283027 13.036145 36.782316 0.825791 1.208510 0.079070 -0.004676 -238814.000000 0 0 1
23.294596 25.908227 11.719045 36.758815 0.838468 1.246324 0.080308 -0.018430 240296.000000 0 0 1
22.436296 24.964127 10.851645 35.275391 0.838677 1.258099 0.075972 -0.014895 -672320.000000 0 0 1
21.054896 24.957427 11.049245 34.471258 0.870011 1.244502 0.077523 -0.016816 -311481.000000 0 0 1
20.484596 23.611827 10.888045 33.101157 0.856198 1.235623 0.080944 -0.008313 291893.000000 0 0 1
20.442696 22.966427 9.480045 32.175019 0.843471 1.271718 0.073387 -0.004090 17889.800000 0 0 1
19.413496 23.606627 8.681245 31.772955 0.882560 1.294050 0.071139 -0.009211 727945.000000 0 0 1
19.694296 23.551627 7.284145 31.553180 0.874358 1.337842 0.066688 -0.031102 356003.000000 0 0 1
18.522796 24.128627 6.408145 31.086153 0.916083 1.363166 0.054759 -0.022342 -430656.000000 0 0 1
17.670496 23.094027 5.993445 29.690098 0.917667 1.367533 0.055228 -0.010339 -41415.400000 0 0 1
16.836396 23.485627 4.914545 29.311971 0.948831 1.402337 0.071224 -0.023783 -360565.000000 0 0 1
15.523896 24.226127 5.192045 29.237885 1.000922 1.392270 0.058658 -0.020355 -671660.000000 0 0 1
15.780596 25.437627 5.857145 30.502561 1.015537 1.377575 0.071545 -0.038853 -11898.900000 0 0 1
14.610396 25.998227 6.404645 30.502311 1.058805 1.359250 0.049374 -0.040860 -96781.000000 0 0 1
14.314496 27.296327 5.606045 31.327655 1.087811 1.390878 0.056061 -0.037346 -287664.000000 0 0 1
14.090796 27.090327 4.234645 30.828048 1.091166 1.432997 0.043147 -0.018638 316317.000000 0 0 1
13.833296 28.285927 3.537245 31.685420 1.115945 1.458927 0.034348 -0.017784 -486218.000000 0 0 1
13.336596 28.016727 2.151745 31.103565 1.126514 1.501561 0.041256 -0.003073 -273555.000000 0 0 1
14.279596 27.705227 1.138245 31.189454 1.094896 1.534294 0.054406 -0.013344 -175272.000000 0 0 1
13.665496 27.063027 0.084945 30.317659 1.103196 1.567994 0.043113 0.000022 282216.000000 0 0 1
14.660996 26.632327 -1.077355 30.420163 1.067572 1.606220 0.038609 -0.003034 694390.000000 0 0 1
15.136796 27.800427 -1.771455 31.703697 1.072200 1.626701 0.036023 0.009161 -15770.000000 0 0 1
16.128096 27.498327 -2.748255 31.997287 1.040354 1.656793 0.037677 0.000163 125136.000000 0 0 1
15.922296 28.136427 -4.175855 32.597788 1.055831 1.699252 0.038111 -0.003763 -1590460.000000 0 0 1
15.033996 27.348927 -4.844455 31.582489 1.068175 1.724795 0.048138 -0.005673 -738211.000000 0 0 1
15.232996 27.598927 -6.234055 32.134224 1.066464 1.766035 0.034239 -0.004529 589206.000000 0 0 1
13.927396 27.310527 -7.029455 31.452352 1.099209 1.796195 0.052416 -0.011211 460100.000000 0 0 1
13.660396 25.957927 -7.293455 30.226063 1.086369 1.814498 0.043624 -0.003371 14203.400000 0 0 1
12.367896 25.863927 -7.874055 29.730595 1.124748 1.838841 0.041827 -0.012601 136684.000000 0 0 1
11.989296 24.469927 -8.289255 28.482140 1.115213 1.866103 0.051734 -0.005308 -62732.400000 0 0 1
12.546196 23.915827 -9.477855 28.621732 1.087664 1.908310 0.046074 -0.004205 135936.000000 0 0 1
12.100796 22.549427 -9.647255 27.349140 1.078273 1.931299 0.050561 0.001383 92136.800000 0 0 1
12.406496 21.942327 -10.998955 27.502070 1.056196 1.982239 0.048443 0.000481 164351.000000 0 0 1
11.855696 20.632827 -11.164655 26.285368 1.049260 2.009480 0.056784 -0.006813 -139767.000000 0 0 1
11.894796 20.191627 -12.519955 26.569480 1.038433 2.061465 0.059547 -0.011804 535763.000000 0 0 1
13.194696 19.430627 -12.969255 26.830036 0.974258 2.075314 0.062986 -0.008980 1109750.000000 0 0 1
14.335896 20.281827 -13.039255 28.051606 0.955498 2.054240 0.054531 -0.003702 -10172.400000 0 0 1
15.447596 19.687727 -13.651955 28.506327 0.905497 2.070209 0.050448 -0.007990 700378.000000 0 0 1
16.747096 20.567527 -13.810655 29.903555 0.887427 2.050865 0.047682 -0.004791 544467.000000 0 0 1
16.777396 21.744427 -14.597555 31.102889 0.913631 2.059330 0.048867 -0.004867 95217.700000 0 0 1
15.976596 22.850227 -14.166755 31.274294 0.960616 2.040906 0.041121 -0.002489 323070.000000 0 0 1
16.662396 24.145227 -14.675255 32.802295 0.966752 2.034636 0.028642 -0.004671 -23359.300000 0 0 1
16.774296 24.307927 -16.056055 33.616205 0.966762 2.068750 0.028658 -0.001151 376974.000000 0 0 1
15.536896 24.505127 -16.766855 33.511547 1.005732 2.094777 0.029367 0.002967 521192.000000 0 0 1
15.645196 24.497127 -18.257955 34.325418 1.002438 2.131648 0.014586 0.010657 3529.050000 0 0 1
16.002696 23.208327 -18.763655 33.864251 0.967136 2.158059 0.023782 0.011618 -146919.000000 0 0 1
16.046996 23.205127 -20.176255 34.685231 0.965779 2.191608 0.021246 0.010020 -235513.000000 0 0 1
16.363896 21.859227 -20.693455 34.261085 0.928189 2.219298 0.033518 0.003318 -186459.000000 0 0 1
15.265496 21.011327 -20.648855 33.179609 0.942482 2.242519 0.035364 0.000002 -76467.300000 0 0 1
15.682596 19.984627 -21.505055 33.283577 0.905434 2.273281 0.044781 -0.003444 352998.000000 0 0 1
14.502696 19.027127 -21.758255 32.338544 0.919526 2.308820 0.048376 -0.004136 -508819.000000 0 0 1
14.366096 18.181427 -20.619155 31.017714 0.902089 2.297961 0.048834 -0.006068 41423.900000 0 0 1
13.671396 16.955827 -20.780355 30.103659 0.892229 2.332691 0.044537 -0.005768 636086.000000 0 0 1
12.149696 17.073327 -21.110155 29.744785 0.952315 2.359882 0.043239 -0.008262 168488.000000 0 0 1
11.252596 17.066427 -20.009455 28.605282 0.987882 2.345497 0.039823 -0.000913 427902.000000 0 0 1
9.885996 17.239927 -20.373855 28.461236 1.050138 2.368631 0.029659 0.000290 493086.000000 0 0 1
8.968796 16.989427 -19.177555 27.145138 1.085075 2.355311 0.031820 -0.010583 -307904.000000 0 0 1
8.793496 15.625227 -18.953255 26.090212 1.058198 2.383939 0.039437 -0.022303 194179.000000 0 0 1
7.485296 15.294327 -18.499955 25.143477 1.115651 2.397607 0.033949 -0.019260 519385.000000 0 0 1
7.083696 15.509127 -16.975555 24.059951 1.142348 2.353999 0.032669 -0.022267 -177424.000000 0 1 0
6.811396 16.850127 -16.705155 24.685706 1.186645 2.314086 0.043981 -0.015087 -292418.000000 0 1 0
6.500796 16.868827 -15.341655 23.710421 1.202962 2.274496 0.027654 -0.020872 -350065.000000 0 1 0
6.035796 18.245327 -14.900355 24.317553 1.251316 2.230320 0.020166 -0.016093 -424532.000000 0 1 0
7.032596 19.240627 -14.780355 25.260998 1.220374 2.195807 0.023816 -0.011103 -197873.000000 0 0 1
7.478696 19.921327 -15.939655 26.586891 1.211665 2.213711 0.037908 -0.004269 372947.000000 0 0 1
8.729996 20.818727 -15.619855 27.451996 1.173735 2.176071 0.039489 0.008746 460351.000000 0 0 1
8.577796 22.040727 -14.892555 27.949247 1.199653 2.132753 0.038497 0.003474 -120994.000000 0 0 1
8.207596 21.820627 -13.512055 26.945872 1.211027 2.096072 0.021380 -0.001624 6256.810000 0 0 1
8.122496 23.176927 -12.780055 27.685279 1.233715 2.050616 0.039036 -0.005493 -112321.000000 0 0 1
6.892496 23.844427 -12.982655 28.010936 1.289405 2.052721 0.031339 -0.002368 -92486.400000 0 0 1
6.541296 24.772627 -11.905855 28.252805 1.312635 2.005790 0.030801 -0.002257 272400.000000 0 0 1
5.987596 24.218727 -10.588255 27.101830 1.328426 1.972171 0.027724 -0.014701 57909.300000 0 0 1
6.998996 24.046627 -9.602355 26.822219 1.287562 1.936921 0.028083 -0.012717 382173.000000 0 0 1
6.458296 23.288927 -8.540655 25.632528 1.300282 1.910488 0.029099 -0.019060 709051.000000 0 0 1
7.523296 23.142827 -7.366655 25.425539 1.256491 1.864746 0.025764 -0.020296 753188.000000 0 0 1
7.682896 24.327027 -6.658755 26.366079 1.264892 1.826111 0.025007 -0.022319 529725.000000 0 0 1
8.694096 24.266927 -5.626355 26.384217 1.226774 1.785694 0.032967 -0.014777 505334.000000 0 0 1
9.001296 25.675427 -5.017755 27.666383 1.233605 1.753172 0.028138 -0.010834 -156425.000000 0 0 1
9.504696 26.555827 -5.979455 28.832361 1.227089 1.779699 0.036195 -0.009941 -94517.700000 0 0 1
9.628396 27.832027 -5.444455 29.949454 1.237737 1.753601 0.032261 -0.008701 124511.000000 0 0 1
9.709996 28.914327 -6.595655 31.206169 1.246810 1.783760 0.039336 -0.005603 1070490.000000 0 0 1
11.018696 28.968627 -7.197955 31.818290 1.207329 1.798992 0.046753 -0.010303 594691.000000 0 0 1
11.068396 30.170827 -7.943355 33.104155 1.219183 1.813111 0.052575 -0.017478 -625493.000000 0 0 1
12.327596 30.453827 -8.734055 33.995425 1.186162 1.830629 0.048224 -0.020497 -678003.000000 0 0 1
13.447896 30.638127 -7.929855 34.386383 1.157189 1.803501 0.036697 -0.008698 -490168.000000 0 0 1
14.520796 31.267227 -8.609255 35.533256 1.136024 1.815519 0.024074 -0.010729 293489.000000 0 0 1
15.796596 31.494027 -7.795955 36.085774 1.105890 1.788553 0.019979 -0.011541 119332.000000 0 0 1
16.565696 30.361227 -7.336455 35.356046 1.071322 1.779817 0.016411 -0.005560 299211.000000 0 0 1
17.653496 30.887827 -6.571755 36.178609 1.051569 1.753458 0.020958 -0.006367 310940.000000 0 0 1
18.789196 29.878927 -6.353255 35.862906 1.009437 1.748890 0.021511 -0.007911 -507267.000000 0 0 1
18.507596 29.082727 -5.190455 34.860822 1.004057 1.720243 0.034939 -0.013509 -255350.000000 0 0 1
19.541996 28.205627 -4.770755 34.644005 0.964892 1.708943 0.031950 -0.010781 -693643.000000 0 0 1
19.592296 26.870827 -5.528855 33.711536 0.940787 1.735545 0.023060 0.007101 -227966.000000 0 0 1
20.136396 27.018727 -6.845555 34.385283 0.930326 1.771219 0.012623 0.007125 365356.000000 0 0 1
19.859996 25.931827 -7.716955 33.562337 0.917226 1.802801 0.016106 0.004998 -712008.000000 0 0 1
20.425696 26.139527 -9.133155 34.407825 0.907494 1.839455 0.015636 0.003176 1224390.000000 0 0 1
21.863596 26.207927 -9.264355 35.365245 0.875526 1.835851 0.015919 -0.000760 1203080.000000 0 0 1
22.521996 24.960327 -9.212655 34.858733 0.836705 1.838259 0.025982 0.001936 -258053.000000 0 0 1
24.068396 25.010927 -9.192355 35.907291 0.804600 1.829681 0.006393 0.005038 -113132.000000 0 0 1
24.549796 25.357027 -10.457355 36.810699 0.801572 1.858848 0.015330 0.003986 -248678.000000 0 0 1
25.958596 25.464327 -10.338055 37.804180 0.775787 1.847788 0.009583 0.010748 -98904.700000 0 0 1
26.669396 25.592627 -11.651355 38.755559 0.764798 1.876157 0.022460 0.006508 -389299.000000 0 0 1
26.603396 26.884227 -12.223455 39.748147 0.790648 1.883385 0.020115 -0.004756 -117357.000000 0 0 1
27.218596 26.826427 -13.502455 40.531783 0.778142 1.910420 0.024803 -0.003660 176215.000000 0 0 1
27.099896 28.053127 -14.420755 41.585340 0.802680 1.924927 0.037116 -0.013908 -138570.000000 0 0 1
27.814196 29.204927 -14.098555 42.723840 0.809784 1.907092 0.041737 -0.020420 -93833.300000 0 0 1
27.777496 30.180527 -15.126055 43.717857 0.826836 1.924093 0.050197 -0.016427 -117604.000000 0 0 1
28.328496 31.592727 -14.748155 44.923403 0.839820 1.905295 0.047443 -0.022756 161438.000000 0 0 1
29.722496 31.555527 -14.504155 45.711580 0.815303 1.893674 0.045024 -0.023597 160793.000000 0 0 1
30.207396 32.882827 -14.307055 46.887727 0.827779 1.880876 0.044285 -0.020329 -46285.900000 0 0 1
15.427696 -32.989519 -28.618215 46.317647 -1.133358 2.236825 0.057861 -0.008812 -520894.000000 0 0 1
16.588196 -33.341519 -27.943155 46.557975 -1.109132 2.214522 0.049421 -0.006281 -164587.000000 0 0 1
16.847696 -32.480919 -26.822155 45.368304 -1.092305 2.203354 0.060320 -0.011769 -379202.000000 0 0 1
18.103196 -32.897419 -26.033545 45.691480 -1.067729 2.177020 0.018330 -0.009694 379542.000000 0 0 1
19.368596 -32.424519 -26.463805 46.117512 -1.032332 2.181976 0.026268 -0.017496 688028.000000 0 0 1
19.996896 -33.116719 -27.561875 47.499999 -1.027565 2.189832 0.033489 -0.007561 -611188.000000 0 0 1
21.506496 -32.944319 -27.738225 48.137996 -0.992446 2.184896 0.055537 -0.006047 -319339.000000 0 0 1
21.817096 -31.642519 -28.165195 47.649900 -0.967161 2.203201 0.057494 -0.024861 794943.000000 0 0 1
23.179396 -31.336119 -27.831845 47.894137 -0.933918 2.190890 0.038347 -0.014530 732659.000000 0 0 1
23.846196 -30.092119 -28.506285 47.820341 -0.900682 2.209446 0.028328 -0.017827 -16246.400000 0 0 1
24.041996 -30.413119 -29.845655 48.925847 -0.901866 2.226880 0.026163 -0.016862 34748.200000 0 0 1
24.700196 -29.331619 -30.508595 49.002224 -0.870906 2.242852 0.022654 -0.027773 116618.000000 0 0 1
24.901896 -29.574519 -31.998785 50.186441 -0.870962 2.262173 0.032135 -0.015014 -481840.000000 0 0 1
26.060796 -30.291219 -32.264525 51.358764 -0.860329 2.250058 0.035489 -0.021641 -706744.000000 0 0 1
26.174396 -30.697219 -33.612465 52.509200 -0.864758 2.265458 0.029200 -0.022078 -484530.000000 0 0 1
27.534996 -31.325219 -33.907905 53.751199 -0.849703 2.253420 0.020875 -0.017428 -304473.000000 0 0 1
28.469196 -30.326219 34.136261 53.809470 -0.816972 0.883575 0.020036 -0.025716 56653.600000 0 0 1
29.644796 -31.096519 33.861106 54.702669 -0.809294 0.903324 0.015894 -0.007108 653471.000000 0 0 1
30.924196 -30.187019 33.794272 54.859957 -0.773336 0.907129 0.012764 -0.016518 375997.000000 0 0 1
31.087996 -29.481219 32.568013 53.817110 -0.758876 0.920828 0.004570 -0.011061 193206.000000 0 0 1
32.200996 -28.595119 32.566760 53.992396 -0.726157 0.923323 0.009646 -0.018881 225384.000000 0 0 1
32.207496 -27.845019 31.260535 52.819400 -0.712881 0.937459 0.011440 -0.024297 -258370.000000 0 0 1
33.377896 -27.060319 31.193725 53.097960 -0.681247 0.942861 0.002666 -0.025220 157664.000000 0 0 1
33.437296 -26.122919 30.155515 52.055881 -0.663204 0.952937 0.020410 -0.019184 -287739.000000 0 0 1
34.090096 -26.643919 28.836455 51.995906 -0.663404 0.982925 0.022306 -0.013683 -364536.000000 0 0 1
33.472696 -27.738619 28.206225 51.821265 -0.691994 0.995244 0.021056 -0.021011 -471159.000000 0 0 1
32.272396 -27.417319 27.586505 50.539413 -0.704238 0.993403 0.024874 -0.018279 -947786.000000 0 0 1
31.704496 -28.499619 26.746415 50.326674 -0.732215 1.010478 0.017217 -0.010780 -122850.000000 0 0 1
30.394196 -28.159319 26.310115 49.081326 -0.747249 1.005044 0.024994 -0.000582 275980.000000 0 0 1
29.951996 -29.206319 25.450785 48.968088 -0.772794 1.024247 0.029036 0.001881 424916.000000 0 0 1
28.559896 -28.882219 24.809625 47.595880 -0.791009 1.022475 0.036835 0.005110 446408.000000 0 0 1
27.536196 -28.729319 25.766495 47.408102 -0.806600 0.996190 0.033744 0.008111 -299593.000000 0 0 1
26.324896 -28.450119 25.096645 46.176304 -0.824178 0.996200 0.033111 0.019919 -95555.700000 0 0 1
25.154996 -28.320319 26.081325 45.989671 -0.844521 0.967800 0.047808 0.014884 -271688.000000 0 0 1
24.898796 -27.093919 26.689265 45.457094 -0.827593 0.943286 0.042434 0.012077 162409.000000 0 0 1
23.893396 -27.290419 27.677965 45.625992 -0.851670 0.918985 0.043591 0.005126 121739.000000 0 0 1
23.719696 -26.045519 28.540805 45.338401 -0.832100 0.889879 0.045405 0.001252 -280364.000000 0 0 1
22.706496 -26.227119 29.527815 45.555885 -0.857221 0.865622 0.051571 -0.004118 410431.000000 0 0 1
22.604096 -25.123419 30.427915 45.475151 -0.838135 0.837785 0.045902 -0.003404 -205378.000000 0 0 1
22.133896 -23.771719 29.817395 44.091735 -0.821061 0.828125 0.049272 -0.001534 54401.300000 0 0 1
23.064996 -23.069419 28.932485 43.603679 -0.785494 0.845265 0.061186 -0.000832 826444.000000 0 0 1
22.653796 -21.722619 28.670535 42.509602 -0.764418 0.830579 0.061903 0.004828 -124663.000000 0 0 1
23.398196 -20.685019 29.506455 42.964829 -0.723929 0.813776 0.051152 0.004097 -115511.000000 0 0 1
22.875096 -20.493519 30.797535 43.494167 -0.730539 0.784015 0.056594 0.002145 383736.000000 0 0 1
23.871296 -19.809019 31.506395 44.214126 -0.692665 0.777618 0.046926 0.000033 -50014.400000 0 0 1
23.239396 -19.341719 32.825455 44.628266 -0.694117 0.744347 0.070988 -0.004616 -90809.600000 0 0 1
23.342796 -20.394319 33.813484 45.871190 -0.718086 0.741968 0.048315 -0.005676 77858.300000 0 0 1
22.750496 -19.997419 -33.497945 45.161866 -0.721084 2.406444 0.055853 -0.009543 -337314.000000 0 0 1
22.846896 -21.130419 -32.430715 44.946931 -0.746387 2.376811 0.036327 -0.002856 466968.000000 0 0 1
24.090996 -21.298019 -31.754325 45.192022 -0.723941 2.349916 0.022715 0.000793 375985.000000 0 0 1
23.889496 -22.274219 -30.733165 44.848370 -0.750422 2.325768 0.029563 -0.003508 -133242.000000 0 0 1
25.183996 -22.622219 -29.998195 45.231518 -0.731863 2.295902 0.028694 0.002405 -325425.000000 0 0 1
26.046696 -23.443219 -30.728475 46.607447 -0.732840 2.290689 0.013065 0.001196 -500402.000000 0 0 1
27.181996 -23.779619 -29.968935 46.930462 -0.718734 2.263450 0.020944 -0.006714 109728.000000 0 0 1
28.130996 -24.809119 -30.657185 48.442836 -0.722733 2.256029 0.007103 -0.005809 236032.000000 0 0 1
29.237796 -24.267619 -31.372985 49.275047 -0.692773 2.260996 0.001137 -0.008566 217442.000000 0 0 1
29.010196 -23.936419 -32.763625 49.879843 -0.689862 2.287431 0.003826 -0.002892 -28288.900000 0 0 1
29.106496 -25.111719 -33.757685 51.160218 -0.711851 2.291405 0.003406 -0.000203 -348018.000000 0 0 1
28.010096 -25.963619 -33.592145 50.863614 -0.747500 2.292195 0.020546 -0.012150 -395626.000000 0 0 1
28.161296 -27.203419 34.214925 51.997555 -0.768099 0.852623 0.023734 -0.015698 -101330.000000 0 0 1
27.692496 -27.129419 32.763137 50.757294 -0.775128 0.869137 0.023615 -0.025841 -25656.600000 0 0 1
28.535496 -26.315319 31.914955 50.252711 -0.744944 0.882672 0.006170 -0.025813 417847.000000 0 0 1
28.142396 -26.293419 30.545145 49.156325 -0.751445 0.900283 0.004075 -0.022021 361915.000000 0 0 1
29.273596 -25.536919 29.727325 48.916169 -0.717329 0.917610 0.009931 -0.014603 635177.000000 0 0 1
29.398396 -24.092819 29.922975 48.374726 -0.686536 0.903880 -0.001298 -0.013788 10766.000000 0 0 1
29.778696 -23.707219 31.256455 49.252096 -0.672367 0.883277 -0.002149 -0.005584 -1787490.000000 0 0 1
30.287296 -22.263619 31.327065 48.932342 -0.633884 0.876022 -0.004151 -0.001735 768371.000000 0 0 1
31.574496 -22.082819 30.712885 49.273533 -0.610315 0.897823 0.004224 -0.002348 1219120.000000 0 0 1
32.650196 -22.701319 31.445095 50.696935 -0.607557 0.901727 0.003460 -0.004116 -864505.000000 0 0 1
34.041096 -22.382119 30.881765 51.121805 -0.581632 0.922183 -0.001467 -0.008159 -229405.000000 0 0 1
34.300396 -22.851219 29.545225 50.711101 -0.587685 0.948850 0.007337 0.000101 -668657.000000 0 0 1
35.543396 -22.342219 29.213455 51.146200 -0.561177 0.962859 -0.001352 -0.000975 -687818.000000 0 0 1
35.848696 -22.459019 27.720165 50.576122 -0.559673 0.990720 0.019920 0.001118 -99043.900000 0 0 1
-35.999301 -23.794319 27.394645 51.113461 0.584046 1.005155 0.016653 -0.001812 244374.000000 0 0 1
-35.456001 -23.885119 26.092265 50.084262 0.592825 1.022812 0.015642 -0.000483 127823.000000 0 0 1
-35.101201 -25.360819 25.728905 50.371044 0.625671 1.034696 0.007168 -0.008649 580917.000000 0 0 1
35.917896 -26.088019 25.521065 51.205515 -0.628175 1.049039 0.020457 -0.009652 838173.000000 0 0 1
-35.973601 -27.457819 25.230115 51.813035 0.651944 1.062207 0.014707 -0.003314 385758.000000 0 0 1
-35.570201 -28.293019 26.561255 52.642516 0.671938 1.041925 0.017757 -0.007635 -634647.000000 0 0 1
-35.256101 -29.673219 26.273285 53.045058 0.699625 1.052615 0.019397 -0.006124 457489.000000 0 0 1
-34.102301 -30.166719 26.946745 52.906758 0.724238 1.036396 0.037869 -0.014787 496150.000000 0 0 1
-32.729401 -29.528919 26.669705 51.521296 0.734037 1.026701 0.047010 -0.012131 -1086200.000000 0 0 1
-32.301401 -29.784219 25.379055 50.740287 0.744877 1.046995 0.050268 -0.017168 -511221.000000 0 0 1
-31.081501 -29.212619 25.028115 49.455469 0.754412 1.040170 0.032014 -0.006952 -331849.000000 0 0 1
-30.650201 -29.375419 23.547605 48.547295 0.764164 1.064382 0.019474 -0.000811 -239767.000000 0 0 1
-30.383301 -30.695219 23.195745 49.024321 0.790505 1.077936 0.031818 0.000403 430962.000000 0 0 1
-29.961601 -30.736619 21.833445 48.157415 0.798166 1.100246 0.022767 0.006015 -661182.000000 0 0 1
-30.028401 -32.177219 21.140445 48.826189 0.819928 1.123007 0.036212 0.008031 1167650.000000 0 0 1
-28.980301 -33.155919 21.468845 48.990654 0.852498 1.117175 0.051154 -0.006057 1225630.000000 0 0 1
-27.618401 -32.780019 21.289745 47.859785 0.870651 1.109805 0.060675 -0.004908 134088.000000 0 0 1
-26.762601 -34.057419 21.384645 48.305773 0.904769 1.112196 0.055687 0.003511 -263753.000000 0 0 1
-26.983701 33.628327 20.283545 47.648785 -0.894588 1.131074 0.049097 -0.003870 222186.000000 0 0 1
-28.097201 32.726727 20.362045 47.698053 -0.861365 1.129740 0.059982 -0.001137 476868.000000 0 0 1
-28.069401 31.563427 21.412645 47.356547 -0.843924 1.101613 0.061241 -0.002741 -85685.600000 0 0 1
-27.226001 30.526127 20.979045 45.969772 -0.842479 1.096889 0.049184 -0.007732 -167523.000000 0 0 1
-27.236001 29.440827 21.888345 45.690937 -0.824280 1.071222 0.054078 -0.015665 534761.000000 0 0 1
-26.217901 28.306227 21.431645 44.135431 -0.823680 1.063760 0.050834 -0.007080 -7674.000000 0 0 1
-24.889201 28.704627 21.576045 43.691574 -0.856470 1.054312 0.045448 -0.013930 -880806.000000 0 0 1
-24.081201 27.678527 21.020545 42.283193 -0.854787 1.050500 0.042232 -0.019007 -1538990.000000 0 0 1
-22.642101 28.008127 21.183645 41.783570 -0.890947 1.039113 0.026736 -0.013195 -1757120.000000 0 0 1
-22.171101 28.133527 22.534145 42.318327 -0.903374 1.009255 0.031136 -0.024010 -337336.000000 0 0 1
-20.882301 28.648027 22.523345 42.000965 -0.940919 1.004799 0.044344 -0.025089 -564373.000000 0 0 1
-20.253801 28.793527 23.969385 42.588908 -0.957782 0.973017 0.029377 -0.019260 -165520.000000 0 0 1
-19.847301 27.563727 24.557025 41.913266 -0.946739 0.944805 0.033994 -0.036451 -52605.100000 0 0 1
-19.709101 27.751627 25.931215 42.790529 -0.953260 0.919769 0.042230 -0.031389 -578207.000000 0 0 1
-18.356801 28.125127 26.571945 42.825964 -0.992537 0.901463 0.046066 -0.022844 -414918.000000 0 0 1
-17.833501 29.430627 26.295055 43.308492 -1.026013 0.918319 0.026620 -0.021914 43553.400000 0 0 1
-16.611601 29.724127 26.927645 43.411601 -1.061177 0.901688 0.029860 -0.014853 -550230.000000 0 0 1
-16.494101 29.884627 28.438385 44.428460 -1.066476 0.876176 0.015251 -0.005739 -663517.000000 0 0 1
-16.656501 28.662827 29.188865 44.169973 -1.044376 0.848872 0.020938 -0.005563 305594.000000 0 0 1
-16.820101 28.964427 30.566395 45.344882 -1.044677 0.831068 0.011916 0.005280 -271644.000000 0 0 1
-16.627401 27.711627 31.449105 45.093802 -1.030366 0.799012 0.013013 0.009864 833280.000000 0 0 1
-15.221301 27.383327 31.575155 44.480614 -1.063465 0.781492 0.012583 0.012596 1334720.000000 0 0 1
-14.927401 26.103627 32.235985 44.083845 -1.051331 0.750654 0.026912 0.005549 -221679.000000 0 0 1
-15.144601 25.882727 33.712188 45.119687 -1.041387 0.726999 0.036670 0.004300 44126.200000 0 0 1
-16.497201 25.831727 34.159623 45.894614 -1.002448 0.731302 0.042076 0.001385 100928.000000 0 0 1
-16.907101 26.941127 -33.515335 46.205542 -1.010360 2.382344 0.036374 0.000013 -347783.000000 0 0 1
-18.277701 26.700927 -32.870955 46.124977 -0.970526 2.364065 0.019504 0.002560 -144154.000000 0 0 1
-19.296801 26.697827 -33.871125 47.248213 -0.944941 2.370108 0.011641 0.005901 764378.000000 0 0 1
-20.507301 26.164627 -33.290495 47.046723 -0.906024 2.356899 0.023008 -0.003453 746195.000000 0 0 1
-21.798501 26.198227 -34.144818 48.243034 -0.876810 2.357128 0.051217 -0.014573 -93482.600000 0 0 1
-21.732101 25.409427 33.172363 47.099139 -0.863247 0.789347 0.057607 -0.017610 -81006.900000 0 0 1
-21.875801 24.049627 33.393362 46.605277 -0.832697 0.772003 0.066535 -0.018859 -259644.000000 0 0 1
-22.264101 23.227027 32.162805 45.493197 -0.806562 0.785577 0.080145 -0.019351 -219764.000000 0 0 1
-23.659401 23.163227 32.042335 46.076172 -0.774802 0.801791 0.086576 -0.025883 -511443.000000 0 0 1
-24.011001 22.570827 30.759295 45.078871 -0.754491 0.819832 0.095096 -0.019712 -368507.000000 0 0 1
-25.495401 22.285327 30.606875 45.644628 -0.718316 0.835850 0.076850 -0.012122 -656053.000000 0 0 1
-25.827901 20.952127 30.893675 45.392635 -0.681545 0.822232 0.079907 -0.024895 -98069.900000 0 0 1
-27.120701 20.731327 30.355035 45.680943 -0.652660 0.843970 0.059572 -0.013838 -101810.000000 0 0 1
-27.700401 19.382527 30.779285 45.720444 -0.610538 0.832260 0.074802 -0.020043 -462864.000000 0 0 1
-28.388601 19.460627 32.007495 47.001153 -0.600934 0.821677 0.065588 -0.018153 -66876.300000 0 0 1
-28.607101 18.196927 32.599955 47.034577 -0.566540 0.805007 0.062730 -0.011825 -15012.100000 0 0 1
-29.572201 17.149827 32.012255 46.833921 -0.525532 0.818212 0.039535 -0.008763 -1006040.000000 0 0 1
-30.927701 17.445627 32.040045 47.827159 -0.513587 0.836704 0.039696 -0.011055 -782112.000000 0 0 1
-31.621601 16.328027 31.494995 47.523308 -0.476647 0.846341 0.046554 -0.002417 -560283.000000 0 0 1
-33.113901 16.656927 31.543835 48.672345 -0.466060 0.865729 0.026344 -0.006037 -788420.000000 0 0 1
-33.564401 16.783827 32.881885 49.894732 -0.463686 0.851274 0.025636 -0.006549 -126884.000000 0 0 1
-34.955701 16.892527 32.976260 50.938122 -0.450162 0.866656 0.028482 -0.013441 -477241.000000 0 0 1
-35.448201 17.354727 -34.139787 52.185118 -0.455277 2.283928 0.025673 -0.001459 1020770.000000 0 0 1
35.343596 17.378027 -34.022385 52.045060 0.456976 2.283273 0.019030 -0.014143 1045470.000000 0 0 1
34.855396 18.051427 -32.913335 51.225387 0.477861 2.268579 0.010955 -0.013924 -327175.000000 0 0 1
33.385396 17.872427 -32.549335 49.934633 0.491516 2.280803 0.020288 -0.016222 -239689.000000 0 0 1
32.968896 16.503127 -32.364175 49.058548 0.464101 2.291223 0.021912 -0.011607 96749.200000 0 0 1
31.667496 16.421827 -31.815985 47.799201 0.478393 2.299117 0.019274 -0.010993 237146.000000 0 0 1
30.794996 15.183127 -32.148885 47.036262 0.458063 2.323331 0.018307 -0.009628 -28134.500000 0 0 1
30.418696 15.159927 -33.530225 47.743025 0.462347 2.349428 0.029253 -0.015380 11136.600000 0 0 1
29.855796 13.910727 -33.955485 47.305939 0.436022 2.371412 0.024309 -0.013919 62771.800000 0 0 1
30.832596 12.715727 -34.095927 47.695607 0.391160 2.367228 0.026730 -0.008217 112573.000000 0 0 1
31.354096 12.151627 -32.885595 47.034070 0.369737 2.345056 0.030988 -0.004968 -309001.000000 0 0 1
32.201996 11.124627 -33.201145 47.571440 0.332628 2.343288 0.054821 -0.007172 -874628.000000 0 0 1
17.626996 -21.215773 9.932265 29.316717 -0.877529 1.225164 0.001359 -0.017456 10907.700000 0 0 1
17.417996 -22.473673 10.594465 30.342961 -0.911461 1.214125 -0.001175 -0.014773 127958.000000 0 0 1
18.642496 -23.101373 10.885765 31.618286 -0.891810 1.219317 -0.004350 -0.015762 -353076.000000 0 0 1
18.329596 -24.530873 11.487665 32.706334 -0.929086 1.211905 0.005075 -0.010773 293041.000000 0 0 1
17.487796 -25.416263 10.745865 32.669299 -0.968132 1.235628 0.015569 -0.014431 1082760.000000 0 0 1
16.104096 -25.192913 11.116565 31.899887 -1.002029 1.214844 0.015450 -0.014218 1049820.000000 0 0 1
15.175196 -26.190163 10.311365 31.977109 -1.045644 1.242468 0.017382 -0.005145 179544.000000 0 0 1
15.117196 -25.766803 8.948365 31.185429 -1.040219 1.279765 0.020643 -0.008966 -182331.000000 0 0 1
14.306196 -26.639483 8.211965 31.333140 -1.077966 1.305614 0.036939 -0.006328 -217252.000000 0 0 1
14.066296 -26.085083 6.765865 30.398506 -1.076246 1.346344 0.040491 -0.006619 -37119.500000 0 0 1
13.293796 -24.909273 6.960665 29.080024 -1.080562 1.329087 0.044410 -0.015119 -40795.100000 0 0 1
12.924096 -24.286973 5.745965 28.105257 -1.081768 1.364900 0.052511 -0.003467 215227.000000 0 0 1
12.233096 -22.919373 6.051865 26.675295 -1.080519 1.341932 0.062701 -0.009353 55076.400000 0 0 1
11.689096 -22.307173 4.899265 25.656339 -1.088129 1.378659 0.064321 -0.007306 -164925.000000 0 0 1
10.972996 -21.146073 5.258165 24.396954 -1.092132 1.353566 0.076392 -0.011971 -222556.000000 0 1 0
10.265196 -20.572473 4.073965 23.349478 -1.107967 1.395421 0.066521 -0.017384 -25664.500000 0 1 0
11.101096 -19.927973 3.120265 23.023781 -1.062548 1.434854 0.056332 -0.008346 -277138.000000 0 1 0
10.280496 -19.444473 2.131365 22.097938 -1.084445 1.474195 0.041272 -0.004083 80782.900000 0 1 0
11.074496 -19.255273 0.813465 22.227725 -1.048856 1.534191 0.034345 0.004650 333267.000000 0 1 0
11.968496 -18.176373 0.885665 21.780952 -0.988494 1.530123 0.036113 0.003613 -485937.000000 0 1 0
12.742796 -18.043873 -0.264235 22.091402 -0.955914 1.582758 0.047841 -0.001321 -33235.400000 0 1 0
13.856196 -16.956473 -0.079235 21.898001 -0.885678 1.574415 0.046352 0.001075 865681.000000 0 1 0
14.912496 -17.474473 0.739365 22.984482 -0.864339 1.538623 0.053061 -0.008183 227984.000000 0 1 0
16.172896 -16.876473 0.522265 23.380562 -0.806684 1.548457 0.050194 -0.012459 715793.000000 0 1 0
17.324296 -17.590873 1.333465 24.725456 -0.793033 1.516839 0.047603 -0.008047 256631.000000 0 1 0
17.802896 -18.757273 0.681065 25.869717 -0.811497 1.544467 0.052377 -0.015188 -333400.000000 0 0 1
18.775896 -19.331873 1.502865 26.991002 -0.799987 1.515087 0.044183 -0.007831 -29167.500000 0 0 1
19.194096 -20.703673 0.862065 28.245328 -0.823216 1.540271 0.031049 -0.008265 854294.000000 0 0 1
18.155796 -21.699373 1.051665 28.312572 -0.874076 1.533643 0.033489 -0.002049 832838.000000 0 0 1
18.526596 -22.881773 0.363365 29.443885 -0.890189 1.558455 0.046420 -0.003773 37962.300000 0 0 1
17.447296 -23.999773 0.400165 29.674187 -0.942193 1.557311 0.041874 -0.000192 -53478.200000 0 0 1
17.262796 -24.464473 1.755165 29.993252 -0.956304 1.512244 0.031067 0.000004 -507014.000000 0 0 1
16.250196 -25.394123 1.854065 30.205429 -1.001540 1.509376 0.031769 -0.000681 -1097150.000000 0 0 1
16.204796 -25.979043 3.302965 30.796358 -1.013086 1.463338 0.022794 -0.003004 136125.000000 0 0 1
17.231796 -26.872223 3.677565 32.133716 -1.000597 1.456099 0.027857 -0.005158 -321666.000000 0 0 1
18.467896 -26.231183 3.911265 32.317738 -0.957362 1.449474 0.016773 -0.003565 -1322140.000000 0 0 1
19.627196 -27.188063 3.918065 33.760463 -0.945520 1.454479 0.033341 -0.001240 -735863.000000 0 0 1
20.028996 -27.573653 2.602065 34.179494 -0.942583 1.494593 0.047751 -0.000440 385285.000000 0 0 1
20.962496 -28.686643 2.593865 35.624119 -0.939736 1.497920 0.081684 0.001836 707153.000000 0 0 1
20.342896 -30.135563 2.860265 36.471451 -0.977015 1.492291 0.082521 0.003365 244672.000000 0 0 1
20.134996 -30.313853 4.232165 36.636853 -0.984491 1.455021 0.096428 -0.008359 -239937.000000 0 0 1
19.543996 -31.549103 4.486265 37.382353 -1.016177 1.450496 0.082151 -0.015066 -448420.000000 0 0 1
19.253096 -31.897143 5.970565 37.732706 -1.027734 1.411895 0.081728 -0.024146 -141457.000000 0 0 1
20.232596 -32.652483 6.638965 38.982284 -1.016065 1.399655 0.087339 -0.032765 200187.000000 0 0 1
19.581296 -33.419243 7.632365 39.478171 -1.040788 1.376240 0.085352 -0.031139 643602.000000 0 0 1
20.608096 34.282423 8.425765 40.877520 1.029548 1.363186 0.076586 -0.035638 582416.000000 0 0 1
21.589696 -33.581463 9.111565 40.949362 -0.999425 1.346410 0.079784 -0.035363 -260078.000000 0 0 1
22.658596 34.171880 9.400165 42.065336 0.985283 1.345428 0.088497 -0.036813 -210052.000000 0 0 1
23.757096 -33.777003 10.251865 42.548635 -0.957825 1.327457 0.082525 -0.031684 -99954.100000 0 0 1
24.608396 -32.902593 9.539465 42.180033 -0.928630 1.342662 0.073872 -0.029584 154792.000000 0 0 1
25.530996 -32.234533 10.408365 42.417343 -0.900929 1.322885 0.066961 -0.020891 146179.000000 0 0 1
26.432596 -31.305573 9.615165 42.085300 -0.869596 1.340292 0.060406 -0.024705 -201861.000000 0 0 1
25.746996 -30.093113 9.253365 40.670973 -0.863073 1.341269 0.055447 -0.031646 671518.000000 0 0 1
26.592096 -29.317783 8.385165 40.459647 -0.834111 1.362036 0.071931 -0.030322 479861.000000 0 0 1
26.022696 -27.833213 8.197765 38.975272 -0.819003 1.358881 0.048537 -0.025126 199513.000000 0 0 1
26.314496 -27.046343 9.350565 38.876606 -0.799112 1.327896 0.046767 -0.032389 107576.000000 0 0 1
25.673696 -25.776843 9.273765 37.544468 -0.787403 1.321205 0.032518 -0.019313 -197831.000000 0 0 1
26.421596 -24.726373 10.109065 37.572430 -0.752267 1.298384 0.041150 -0.031588 -343529.000000 0 0 1
27.787896 -24.661473 9.843565 38.435026 -0.725860 1.311801 0.068649 -0.028088 -712139.000000 0 0 1
28.493896 -23.845573 10.794165 38.691440 -0.696820 1.288064 0.054915 -0.033329 1556960.000000 0 0 1
30.020996 -23.681873 10.406965 39.628226 -0.667901 1.305065 0.075213 -0.037777 1314580.000000 0 0 1
30.110396 -22.810073 9.285965 38.899416 -0.648314 1.329752 0.085403 -0.033926 366761.000000 0 0 1
31.454096 -22.656873 8.815565 39.754349 -0.624231 1.347187 0.078852 -0.039619 766887.000000 0 0 1
31.500296 -21.912973 7.452065 39.089389 -0.607796 1.378981 0.082280 -0.016666 2826.980000 0 0 1
30.992896 -20.591873 7.580165 37.974251 -0.586436 1.369833 0.078297 -0.002891 46085.700000 0 0 1
31.201896 -19.938773 6.385365 37.575070 -0.568621 1.400031 0.062000 -0.002685 -40989.300000 0 0 1
30.851596 -18.427773 6.387465 36.499363 -0.538435 1.394888 0.067960 -0.003754 -558634.000000 0 0 1
31.603796 -17.744573 7.327865 36.977932 -0.511606 1.371307 0.076558 -0.007716 -164966.000000 0 0 1
31.134396 -16.422473 7.555565 36.001873 -0.485382 1.359359 0.073266 -0.005226 -168193.000000 0 0 1
31.831196 -15.753673 8.733065 36.574167 -0.459570 1.329690 0.074467 -0.025642 -1122030.000000 0 0 1
33.191796 -15.614673 8.591365 37.673929 -0.439719 1.340727 0.067872 -0.019419 -1500860.000000 0 0 1
33.731596 -14.955173 9.665665 38.143189 -0.417317 1.314598 0.062521 -0.031704 -1007510.000000 0 0 1
35.235696 -15.119973 9.691865 39.548706 -0.405346 1.323213 0.049784 -0.036822 -972806.000000 0 0 1
35.848996 -14.147073 8.890265 39.551574 -0.375868 1.344083 0.054245 -0.020520 -1158100.000000 0 0 1
-35.038901 -14.413873 8.747165 38.884409 0.390268 1.343902 0.048708 -0.024602 -808575.000000 0 0 1
-34.286501 -13.408473 7.911565 37.655600 0.372786 1.359116 0.044996 -0.026843 -429537.000000 0 0 1
-34.897301 -13.291373 6.620465 37.925095 0.363908 1.395330 0.067487 -0.029558 293989.000000 0 0 1
-34.126401 -12.666773 5.563265 36.824019 0.355411 1.419139 0.062271 -0.022331 -285161.000000 0 0 1
-33.041701 -13.601773 4.916965 36.068529 0.390513 1.434048 0.050980 -0.015099 410584.000000 0 0 1
-31.989701 -13.560273 5.904365 35.243206 0.400934 1.402471 0.046797 -0.019926 -464443.000000 0 0 1
-31.089301 -14.553973 5.531565 34.770117 0.437832 1.411028 0.042267 -0.006922 -335720.000000 0 0 1
-30.412401 -15.189673 6.778365 34.663909 0.463213 1.373983 0.037211 -0.001305 -109417.000000 0 0 1
-31.319801 -16.031273 7.397565 35.953521 0.473088 1.363563 0.026326 -0.015208 -263359.000000 0 0 1
-30.809001 -16.437373 8.641965 35.973120 0.490107 1.328189 0.017425 -0.010929 256847.000000 0 0 1
-31.762101 -17.327673 9.531465 37.415614 0.499417 1.313212 0.002489 -0.010175 -380309.000000 0 0 1
-32.914701 -16.588973 9.875065 38.158728 0.466842 1.309028 0.033160 -0.017756 -290403.000000 0 0 1
-33.798401 -17.246073 10.721265 39.429741 0.471824 1.295421 0.041035 -0.022013 -85534.400000 0 0 1
-34.504101 -18.618073 10.401465 40.562990 0.494816 1.311472 0.049627 -0.024644 -1159870.000000 0 0 1
-33.717401 -19.777973 10.309565 40.426706 0.530494 1.312929 0.045411 -0.025351 -472343.000000 0 0 1
-33.206501 -20.273473 11.574865 40.591415 0.548124 1.281628 0.037076 -0.035151 -1087430.000000 0 0 1
-34.181001 -20.883473 12.557065 41.977854 0.548445 1.267010 0.068327 -0.043213 -471606.000000 0 0 1
-34.587701 -22.213073 12.312765 42.910767 0.570890 1.279767 0.062170 -0.041011 309185.000000 0 0 1
-35.659701 -22.265973 11.359865 43.548070 0.558169 1.306885 0.073617 -0.043353 -262208.000000 0 0 1
-36.022001 -23.739773 11.210065 44.573837 0.582701 1.316572 0.067049 -0.032655 -425812.000000 0 0 1
35.777996 -24.243773 12.449265 44.975657 -0.595545 1.290334 0.093844 -0.030504 -34439.300000 0 0 1
35.295596 -25.586833 12.410465 45.326425 -0.627262 1.293452 0.074263 -0.013122 -63555.600000 0 0 1
34.097396 -25.768353 13.367265 44.780847 -0.647157 1.267671 0.092993 -0.024137 -1227190.000000 0 0 1
32.912196 -25.360703 12.835965 43.487239 -0.656528 1.271167 0.096518 -0.026656 -1133800.000000 0 0 1
31.908196 -24.991273 13.771565 42.805989 -0.664428 1.243250 0.090436 -0.004842 -254488.000000 0 0 1
31.967796 -23.523673 14.344665 42.202756 -0.634387 1.223987 0.087466 -0.011113 -417775.000000 0 0 1
33.146096 -23.169573 15.032765 43.144836 -0.610064 1.214905 0.092035 -0.020210 -557700.000000 0 0 1
34.046996 -22.495273 14.207165 43.209707 -0.583869 1.235768 0.091788 -0.031124 -825935.000000 0 0 1
35.210196 -21.889473 14.968465 44.079042 -0.556208 1.224323 0.090844 -0.039212 -560471.000000 0 0 1
34.929296 -20.661373 15.579065 43.470166 -0.534161 1.204259 0.099960 -0.026171 -191872.000000 0 0 1
34.057296 -20.698773 16.667065 43.198723 -0.546108 1.174697 0.093006 -0.025459 -330264.000000 0 0 1
33.841996 -19.350273 17.428765 42.702174 -0.519413 1.150373 0.087825 -0.010442 -216057.000000 0 0 1
33.242996 -18.315673 16.659865 41.450112 -0.503583 1.157177 0.083489 -0.024729 -55974.800000 0 0 1
33.300896 -16.991673 17.171865 41.140486 -0.471811 1.140219 0.059814 -0.014500 -285251.000000 0 0 1
34.647096 -16.298673 17.443665 42.075521 -0.439705 1.143315 0.053578 -0.019134 -273128.000000 0 0 1
35.383496 -16.824273 18.533965 43.342310 -0.443843 1.128940 0.048614 0.004875 -109707.000000 0 0 1
-35.731601 -15.996373 18.732165 43.399600 0.420924 1.124508 0.040323 -0.003369 -252753.000000 0 0 1
-35.257401 -15.942573 20.204665 43.651787 0.424663 1.089577 0.031474 0.006003 361281.000000 0 0 1
-34.382301 -16.987873 20.683965 43.572433 0.458907 1.076170 0.037510 -0.003248 601400.000000 0 0 1
-33.979401 -16.676473 22.013565 43.787002 0.456246 1.044028 0.028686 0.009969 -42474.200000 0 0 1
-33.145801 -17.764073 22.724465 43.938682 0.491982 1.027237 0.027983 0.007422 -350457.000000 0 0 1
-33.862701 -18.988573 23.019965 45.134989 0.511061 1.035583 0.029818 0.004522 909698.000000 0 0 1
-33.057501 -20.020973 23.662065 45.315903 0.544557 1.021417 0.018561 0.005667 360409.000000 0 0 1
-32.043501 -20.854673 22.841065 44.535577 0.576954 1.032269 0.022105 0.006147 -181725.000000 0 0 1
-30.885301 -20.171773 22.487165 43.202718 0.578565 1.023356 0.021141 0.008225 -711130.000000 0 0 1
-29.774601 -21.021173 22.350865 42.754857 0.614748 1.020702 0.028988 0.014594 97828.700000 0 0 1
-28.477001 -20.171973 22.296365 41.412269 0.616315 1.002259 0.042820 0.012158 54107.300000 0 0 1
-28.105501 -19.546073 23.528765 41.539993 0.607668 0.968650 0.029377 0.006752 -58319.900000 0 0 1
-26.916801 -18.812673 23.457665 40.357068 0.610000 0.950529 0.051686 0.004757 -182709.000000 0 0 1
-26.510501 -18.031073 24.754465 40.505677 0.597278 0.913302 0.047824 -0.004871 -786246.000000 0 0 1
-25.579801 -16.969973 24.616365 39.348083 0.585747 0.894889 0.052111 -0.004135 90963.900000 0 0 1
-25.341501 -16.312573 25.825365 39.689309 0.571941 0.862306 0.044273 -0.014280 -292127.000000 0 0 1
-24.264601 -17.025873 26.643365 39.856243 0.611849 0.838624 0.040047 -0.006380 -1052970.000000 0 0 1
-24.428601 -18.393473 26.986765 40.784334 0.645385 0.847720 0.049541 -0.008616 230039.000000 0 0 1
-23.427601 -18.857873 27.934165 41.046187 0.677747 0.822277 0.049666 -0.014588 318043.000000 0 0 1
-23.826901 -20.182973 28.645065 42.374679 0.702789 0.828482 0.045172 -0.004416 -129401.000000 0 0 1
-24.941701 -20.092573 29.516465 43.554812 0.678135 0.826186 0.042835 -0.014399 44180.400000 0 0 1
-25.276401 -21.182673 30.263565 44.760312 0.697510 0.828306 0.038176 -0.010667 -150338.000000 0 0 1
-26.582401 -21.086673 31.074865 46.009989 0.670616 0.829298 0.034971 -0.012169 -404818.000000 0 0 1
-26.315901 -20.419773 32.309365 46.404621 0.659902 0.800632 0.043830 -0.023111 1063880.000000 0 0 1
-27.376601 -20.458873 33.300965 47.717901 0.641779 0.798375 0.045325 -0.022329 923162.000000 0 0 1
-28.721701 -19.728073 33.083365 48.048330 0.601859 0.811318 0.034066 -0.026099 591529.000000 0 0 1
-29.662401 -20.273573 32.129965 48.199694 0.599551 0.841157 0.042853 -0.023821 1068340.000000 0 0 1
-30.862101 -19.516373 32.138865 48.644268 0.563884 0.849056 0.046073 -0.031110 904713.000000 0 0 1
-32.057201 -19.982073 31.207565 48.998567 0.557394 0.880316 0.038438 -0.002147 489079.000000 0 0 1
-31.919601 -19.553573 29.913265 47.916663 0.549624 0.896591 0.034497 -0.013714 278025.000000 0 0 1
-32.936901 -20.077873 29.085965 48.311012 0.547438 0.924722 0.027822 -0.007315 6528.270000 0 0 1
-33.201201 -19.217873 27.822265 47.389080 0.524708 0.943321 0.018397 0.005551 -1164660.000000 0 0 1
-34.351301 -19.662673 27.235165 48.045675 0.519878 0.968107 -0.004946 0.010922 -1034640.000000 0 0 1
-34.936001 -18.599773 26.588465 47.680418 0.489227 0.979257 0.016002 0.016827 -378225.000000 0 0 1
36.034796 -18.973673 25.796865 48.207728 -0.484652 1.006148 0.011941 0.016981 392633.000000 0 0 1
34.880896 -19.297773 26.582365 47.913496 -0.505333 0.982675 0.014282 0.018539 341420.000000 0 0 1
33.883196 -19.935573 25.808665 47.027495 -0.531818 0.989869 0.042630 0.021971 17860.900000 0 0 1
32.664196 -20.279473 26.694865 46.806224 -0.555607 0.963892 0.040079 0.012391 -490799.000000 0 0 1
31.783596 -19.245273 26.943065 45.896692 -0.544461 0.943402 0.028501 0.000470 -47566.000000 0 0 1
30.981996 -19.530273 28.077265 46.148115 -0.562455 0.916733 0.023343 0.010948 18276.200000 0 0 1
-30.067984 -6.169973 33.672024 45.562676 0.202391 0.739172 0.023480 -0.011304 370066.000000 0 0 1
-31.009254 -5.630173 32.725935 45.434123 0.179608 0.766570 0.025515 -0.011413 903708.000000 0 0 1
-30.430004 -4.521173 32.090365 44.454670 0.147497 0.764300 0.028401 -0.011424 -11993.600000 0 0 1
-31.133114 -4.333773 30.736195 43.963235 0.138313 0.796611 0.027916 -0.010978 72882.200000 0 0 1
-30.980534 -5.338773 29.717945 43.260285 0.170651 0.813503 0.015308 -0.013218 -4748.870000 0 0 1
-29.621184 -5.562473 29.387175 42.094675 0.185625 0.798027 0.024844 -0.017027 183508.000000 0 0 1
-29.429104 -6.515773 28.164165 41.252244 0.217891 0.819303 0.033092 -0.018774 39168.800000 0 0 1
-29.949174 -6.037773 26.944495 40.735900 0.198934 0.848055 0.025126 -0.015364 -144732.000000 0 0 1
-29.746744 -6.979273 25.920515 40.068093 0.230455 0.867269 0.026460 -0.013386 -38665.200000 0 0 1
-30.223034 -6.603773 24.489415 39.455963 0.215120 0.901190 0.041206 -0.007678 120680.000000 0 0 1
-29.568914 -5.458973 24.007135 38.476793 0.182563 0.897024 0.052433 -0.008791 -90034.800000 0 0 1
-30.286464 -4.985973 22.916845 38.305503 0.163164 0.929462 0.061571 -0.007598 17352.500000 0 0 1
-29.769314 -3.624673 22.402445 37.432871 0.121162 0.929207 0.070709 -0.012776 -501425.000000 0 0 1
-28.493324 -3.640773 21.869545 36.102655 0.127088 0.920076 0.083300 -0.011354 -849351.000000 0 0 1
-28.120784 -2.450873 21.240145 35.326039 0.086936 0.925719 0.086578 -0.014162 727134.000000 0 0 1
-26.703804 -2.497273 20.562945 33.795920 0.093246 0.916697 0.095057 -0.013194 651887.000000 0 0 1
-26.588494 -3.394173 19.469245 33.128838 0.126969 0.942605 0.098822 -0.013151 402357.000000 0 0 1
-25.444974 -3.018373 18.689345 31.715121 0.118072 0.940619 0.104901 -0.017518 215022.000000 0 0 1
-25.243064 -3.847773 17.428845 30.915728 0.151265 0.971873 0.094740 -0.012400 -34387.800000 0 0 1
-26.217224 -3.540173 16.449345 31.152152 0.134220 1.014514 0.083068 -0.008163 239274.000000 0 0 1
-25.861184 -3.983473 15.153345 30.237274 0.152832 1.045872 0.088190 -0.012586 5545.400000 0 0 1
-27.115264 -4.181773 14.265845 30.923116 0.153017 1.091300 0.087465 -0.018411 170073.000000 0 0 1
-27.600554 -2.907973 13.872645 31.027361 0.104972 1.107264 0.084307 -0.017142 1115330.000000 0 0 1
-28.842544 -3.152173 13.123545 31.844245 0.108857 1.146020 0.077594 -0.019657 1136900.000000 0 0 1
-29.199484 -1.939773 12.278545 31.735394 0.066334 1.173525 0.071339 -0.009787 -275060.000000 0 0 1
-28.335794 -1.724773 11.164545 30.504739 0.060794 1.196096 0.083650 -0.012090 134363.000000 0 0 1
-28.570344 -0.521973 10.453545 30.427185 0.018268 1.220092 0.087224 -0.002418 -293064.000000 0 0 1
-29.835824 -0.466973 9.572645 31.337357 0.015650 1.260364 0.067787 -0.000182 -103282.000000 0 0 1
-29.891734 -1.229973 8.403645 31.074907 0.041124 1.296955 0.060292 -0.007713 -891063.000000 0 0 1
-31.140114 -1.122773 7.833845 32.129993 0.036040 1.324496 0.073075 -0.014437 -884634.000000 0 0 1
-31.149594 -1.893073 6.484145 31.873579 0.060699 1.365933 0.074642 -0.012611 -224963.000000 0 0 1
-30.511674 -1.309173 5.383745 31.010657 0.042881 1.396303 0.084497 -0.021734 276313.000000 0 0 1
-31.396634 -0.488373 4.653245 31.743343 0.015554 1.423677 0.093955 -0.017210 -212568.000000 0 0 1
-30.829254 -0.013273 3.327645 31.008326 0.000431 1.463275 0.091813 -0.023555 -253975.000000 0 0 1
-30.908124 -0.981973 2.265745 31.006612 0.031760 1.497658 0.097159 -0.035682 511102.000000 0 0 1
-30.385724 -0.489473 1.023345 30.406891 0.016107 1.537135 0.091134 -0.045134 163055.000000 0 0 1
-31.282564 -0.982673 -0.154955 31.298378 0.031402 1.575747 0.104415 -0.044665 -362871.000000 0 0 1
-32.559914 -0.434073 -0.185355 32.563335 0.013331 1.576488 0.101279 -0.035286 -384307.000000 0 0 1
-33.252424 -1.018673 -1.295255 33.293228 0.030625 1.609711 0.115110 -0.035185 1059210.000000 0 0 1
-34.791673 -0.646773 -1.361155 34.824295 0.018588 1.609893 0.124014 -0.037836 620995.000000 0 0 1
-35.542335 -1.389973 -0.462855 35.572515 0.039088 1.583808 0.101895 -0.026005 722217.000000 0 0 1
35.293604 -1.071573 -0.514355 35.313614 -0.030352 1.585362 0.105772 -0.026275 720885.000000 0 0 1
34.306414 -2.146373 -0.068355 34.373560 -0.062483 1.572785 0.103393 -0.027339 -487689.000000 0 0 1
34.321784 -2.582373 1.279945 34.442587 -0.075099 1.533626 0.098038 -0.030922 -203591.000000 0 0 1
33.420154 -3.601973 1.525045 33.648279 -0.107364 1.525458 0.095253 -0.024837 -810709.000000 0 0 1
33.521884 -4.206073 2.906745 33.909540 -0.124820 1.484970 0.102385 -0.022489 89860.800000 0 0 1
33.057274 -3.287973 3.926945 33.451682 -0.099137 1.453133 0.099348 -0.029087 368840.000000 0 0 1
33.329204 -3.741473 5.243345 33.945944 -0.111790 1.415714 0.085031 -0.026353 -76729.800000 0 0 1
32.645244 -2.800773 6.268345 33.359383 -0.085585 1.381769 0.095104 -0.022927 359282.000000 0 0 1
31.236364 -2.736173 6.101545 31.944106 -0.087373 1.378608 0.088662 -0.023927 278307.000000 0 0 1
30.630034 -1.867273 7.045545 31.485320 -0.060887 1.345113 0.099459 -0.023522 667670.000000 0 0 1
29.100624 -2.080673 7.292445 30.072500 -0.071378 1.325859 0.081443 -0.023368 -288250.000000 0 0 1
28.212394 -1.627673 6.324145 28.958303 -0.057630 1.350634 0.073007 -0.021213 25971.700000 0 0 1
26.871994 -1.667173 6.755045 27.758137 -0.061962 1.324974 0.084567 -0.016340 330324.000000 0 0 1
26.106094 -3.061373 6.843145 27.161163 -0.116733 1.316106 0.094603 -0.023626 -881358.000000 0 0 1
26.521794 -3.858073 7.939645 27.952250 -0.144455 1.282788 0.091811 -0.022848 841596.000000 0 0 1
25.992794 -5.208473 7.880745 27.656097 -0.197762 1.281837 0.092638 -0.026605 -250425.000000 0 0 1
26.265394 -5.886973 9.240745 28.459072 -0.220490 1.240099 0.098266 -0.036135 -278366.000000 0 0 1
25.507194 -5.522573 10.391745 28.090997 -0.213219 1.191861 0.112055 -0.026537 445707.000000 0 0 1
26.004894 -6.101673 11.553045 29.102539 -0.230467 1.162575 0.096167 -0.025483 -853828.000000 0 0 1
25.087594 -5.845973 12.710145 28.724738 -0.228937 1.112433 0.084143 -0.021701 -334083.000000 0 0 1
23.980494 -6.724073 12.564445 27.895206 -0.273377 1.103565 0.089392 -0.028707 -243109.000000 0 0 1
22.940494 -6.458873 13.467645 27.374455 -0.274445 1.056435 0.102198 -0.025870 159540.000000 0 0 1
21.827594 -7.528373 13.449445 26.720925 -0.332126 1.043348 0.088008 -0.030481 -99083.300000 0 0 1
22.282894 -8.727573 13.978545 27.714574 -0.373306 1.042138 0.078544 -0.032430 163970.000000 0 0 1
21.322594 -9.780473 13.885945 27.260414 -0.430057 1.036331 0.097990 -0.049136 -164728.000000 0 0 1
21.665594 -11.048573 14.672445 28.403338 -0.471583 1.027951 0.086025 -0.047015 -256480.000000 0 0 1
21.669694 -10.862073 16.091745 29.094751 -0.464652 0.984739 0.079799 -0.035327 407916.000000 0 0 1
22.226194 -12.017173 16.691645 30.282457 -0.495657 0.986996 0.073116 -0.029436 -128682.000000 0 0 1
22.192094 -11.967273 18.215345 31.104718 -0.494559 0.945160 0.082988 -0.028551 267808.000000 0 0 1
20.829194 -12.087473 18.634945 30.450345 -0.525819 0.912237 0.086717 -0.023984 394762.000000 0 0 1
20.630394 -12.280573 20.014345 31.256994 -0.536931 0.875887 0.105055 -0.018608 120672.000000 0 0 1
20.749694 -11.087973 21.056045 31.572931 -0.490763 0.840753 0.076001 -0.020233 -224428.000000 0 0 1
19.791294 -10.049673 21.083645 30.613908 -0.469854 0.811109 0.067990 -0.024833 -230861.000000 0 0 1
20.018894 -8.943373 20.237245 29.837663 -0.420145 0.825425 0.076861 -0.019523 -1073510.000000 0 0 1
21.058894 -7.880073 20.705645 30.566261 -0.358062 0.826571 0.065553 -0.003023 318591.000000 0 0 1
22.402794 -8.247773 20.875245 31.712565 -0.352759 0.852286 0.075789 -0.013028 40379.300000 0 0 1
23.065394 -8.526073 19.643045 31.473092 -0.354070 0.896789 0.070013 -0.014557 -1717320.000000 0 0 1
24.424494 -9.134073 19.842345 32.767451 -0.357869 0.920339 0.053381 -0.007833 -1187350.000000 0 0 1
24.425794 -10.522773 20.159945 33.373216 -0.406778 0.922191 0.037288 -0.013527 -194581.000000 0 0 1
25.677794 -11.100673 19.879345 34.318543 -0.408043 0.952976 0.032351 -0.012666 75961.600000 0 0 1
25.622094 -12.569473 20.366745 35.061199 -0.456077 0.950973 0.008592 -0.016613 -393891.000000 0 0 1
24.642094 -13.213773 19.643745 34.171821 -0.492208 0.958373 0.048801 -0.023037 -672448.000000 0 0 1
24.533894 -14.591573 20.039945 34.877290 -0.536551 0.958700 0.033419 -0.021962 21636.100000 0 0 1
23.482294 -15.283673 19.152345 33.938490 -0.576979 0.971181 0.054547 -0.019660 -333768.000000 0 0 1
23.836994 -15.319573 17.825045 33.475720 -0.571213 1.009272 0.040470 -0.026572 -334972.000000 0 0 1
22.864494 -15.832473 16.966045 32.577584 -0.605640 1.023021 0.042706 -0.028568 -480940.000000 0 0 1
22.651794 -17.377073 16.902645 33.177792 -0.654380 1.036243 0.025335 -0.029044 153373.000000 0 0 1
23.795794 -18.064673 16.416845 34.089368 -0.649334 1.068337 0.023999 -0.021070 241218.000000 0 0 1
23.556094 -19.472173 16.567245 34.763900 -0.690769 1.074053 0.017428 -0.011562 -270995.000000 0 0 1
24.813394 -20.241473 16.197245 35.885547 -0.684270 1.102509 0.012156 0.000860 -332373.000000 0 0 1
25.059094 -20.200573 14.773145 35.415635 -0.678460 1.140504 0.018878 -0.012105 221452.000000 0 0 1
26.045594 -21.143273 14.373245 36.496591 -0.681882 1.166008 0.015427 -0.012960 -72841.300000 0 0 1
26.312294 -21.064973 12.886445 36.085044 -0.675092 1.205621 0.027111 -0.030870 -293320.000000 0 0 1
25.231294 -21.518073 12.098845 35.299118 -0.706136 1.220951 0.018856 -0.025188 146659.000000 0 0 1
25.297694 -21.093873 10.754645 34.649491 -0.695029 1.255199 0.047818 -0.019967 -315647.000000 0 0 1
23.974894 -21.400073 10.054645 33.672757 -0.728714 1.267572 0.008043 -0.015048 -302181.000000 0 0 1
23.836994 -22.762973 9.791345 34.383509 -0.762355 1.282031 0.006629 -0.018039 -68947.700000 0 0 1
22.538194 -23.180673 10.165045 33.891621 -0.799450 1.266179 -0.010282 -0.004572 -90074.000000 0 0 1
21.919394 -24.027473 9.051945 33.759695 -0.831247 1.299346 -0.000000 -0.006447 -851376.000000 0 0 1
22.490694 -25.300283 8.997845 35.027088 -0.844120 1.311001 -0.002814 -0.012899 -47662.200000 0 0 1
22.062794 -26.053613 7.839345 35.028745 -0.868150 1.345087 0.011605 -0.010318 -269756.000000 0 0 1
20.584094 -26.397803 7.623645 34.331748 -0.908516 1.346871 0.008308 -0.003743 -68372.400000 0 0 1
19.768394 -25.255543 7.414645 32.918214 -0.906672 1.343602 0.010719 0.002676 -72008.500000 0 0 1
18.379294 -25.562303 7.506645 32.366333 -0.947432 1.336738 0.003667 -0.011656 591908.000000 0 0 1
17.439694 -24.341073 7.458145 30.858625 -0.949101 1.326692 0.001029 -0.008672 -275392.000000 0 0 1
17.434594 -23.740573 6.223945 30.105106 -0.937367 1.362554 0.020482 -0.009698 166733.000000 0 0 1
16.649094 -22.556073 6.185145 28.709315 -0.934942 1.353654 0.037913 -0.016493 -34330.400000 0 0 1
16.216094 -22.000173 4.819245 27.752377 -0.935609 1.396260 0.047449 -0.010058 -147935.000000 0 0 1
15.559794 -20.763473 5.005745 26.425111 -0.927690 1.380213 0.082326 -0.013878 -6407.550000 0 0 1
15.071594 -20.135373 3.832545 25.441592 -0.928247 1.419580 0.072422 -0.011764 295881.000000 0 0 1
14.315794 -18.785173 4.044345 23.962083 -0.919609 1.401204 0.084886 -0.013214 -272094.000000 0 1 0
15.087194 -17.847973 4.650345 23.828539 -0.869027 1.374377 0.058007 -0.009208 -247682.000000 0 1 0
14.482294 -16.580773 4.511745 22.472533 -0.852851 1.368655 0.046517 -0.011967 274032.000000 0 1 0
15.577094 -15.524473 4.737145 22.496570 -0.783706 1.358636 0.036125 -0.008202 -431738.000000 0 1 0
16.218994 -15.420273 5.970545 23.162211 -0.760159 1.310082 0.056446 -0.015483 -59141.300000 0 1 0
17.217394 -14.431773 5.877345 23.221928 -0.697609 1.314919 0.050256 -0.020431 283261.000000 0 1 0
18.654394 -14.987673 5.683645 24.595133 -0.676835 1.337600 0.064596 -0.019942 -308606.000000 0 1 0
19.638694 -14.003173 5.543845 24.748765 -0.619424 1.344874 0.074311 -0.021221 -955266.000000 0 1 0
20.893494 -14.518373 5.236045 25.975708 -0.607278 1.367831 0.071078 -0.015857 -373737.000000 0 0 1
21.797294 -13.217473 5.290645 26.034872 -0.545098 1.366157 0.065103 -0.019338 -222928.000000 0 0 1
22.051594 -12.784673 6.587845 26.327179 -0.525406 1.317879 0.087468 -0.025367 18796.100000 0 0 1
23.007194 -11.764473 6.636445 26.679134 -0.472678 1.319406 0.084534 -0.026001 -250210.000000 0 0 1
22.978294 -10.990873 8.010645 26.701530 -0.446150 1.266096 0.093442 -0.028155 -244842.000000 0 0 1
23.687694 -11.601473 9.063245 27.889845 -0.455429 1.239821 0.085810 -0.028832 361252.000000 0 0 1
23.492994 -10.881773 10.255445 27.847943 -0.433770 1.193653 0.108357 -0.039929 -38142.200000 0 0 1
23.932494 -11.788473 11.410845 29.016198 -0.457687 1.166624 0.077242 -0.030460 -462782.000000 0 0 1
23.006194 -12.813773 11.586545 28.770224 -0.508179 1.156302 0.072466 -0.032663 5256.060000 0 0 1
23.312294 -13.746973 12.672145 29.883534 -0.532802 1.132882 0.070111 -0.027947 -358232.000000 0 0 1
22.317094 -14.892273 12.865745 29.754998 -0.588443 1.123655 0.048932 -0.031550 -520047.000000 0 0 1
21.165594 -14.565273 13.581645 29.061842 -0.602734 1.084521 0.050425 -0.034005 -547949.000000 0 0 1
20.311794 -15.685673 13.715445 29.098501 -0.657586 1.079981 0.030485 -0.031146 -374037.000000 0 0 1
18.994994 -15.276773 14.362045 28.292365 -0.677329 1.038365 0.033340 -0.031322 -995107.000000 0 0 1
19.108494 -14.796573 15.650145 28.792363 -0.658901 0.996133 0.037450 -0.030789 -25336.700000 0 0 1
18.842294 -13.439473 15.911245 28.085925 -0.619571 0.968519 0.061744 -0.031976 321108.000000 0 0 1
17.346094 -12.990273 15.877245 26.864867 -0.642789 0.938493 0.055659 -0.029916 537106.000000 0 0 1
16.709594 -13.227973 14.550745 25.805309 -0.669622 0.971736 0.062255 -0.036474 627171.000000 0 0 1
15.289094 -13.171873 14.652345 24.938842 -0.711145 0.942792 0.091148 -0.032077 614617.000000 0 1 0
14.677894 -11.746773 14.488545 23.734894 -0.674926 0.914190 0.069137 -0.022543 -440993.000000 0 1 0
14.928794 -10.828573 15.527445 24.108680 -0.627536 0.871002 0.049323 -0.011747 192530.000000 0 1 0
14.613194 -9.488673 15.071845 23.037814 -0.575899 0.857643 0.036269 -0.013850 -406948.000000 0 1 0
15.184194 -8.370573 15.978245 23.578180 -0.503817 0.826206 0.034826 -0.013393 -315468.000000 0 1 0
16.573194 -8.208773 16.094245 24.516922 -0.459884 0.854687 0.041147 -0.022645 43665.600000 0 1 0
17.243894 -9.059173 17.030445 25.873859 -0.483726 0.852357 0.064479 -0.019660 117936.000000 0 0 1
18.774394 -8.839473 16.902645 26.764035 -0.440037 0.887254 0.068788 -0.028991 176515.000000 0 0 1
19.291594 -7.599373 17.405345 27.071426 -0.375255 0.872464 0.061439 -0.027612 -362649.000000 0 0 1
20.476194 -7.307773 16.741045 27.439764 -0.342801 0.914607 0.058304 -0.019022 -559951.000000 0 0 1
21.092194 -5.895573 17.013145 27.732392 -0.272558 0.910342 0.063338 -0.013337 -284674.000000 0 0 1
21.686794 -5.759773 18.241145 28.917666 -0.259596 0.888218 0.075269 -0.013343 -10341.600000 0 0 1
21.958094 -4.441673 18.472745 29.036678 -0.199586 0.881251 0.080927 -0.009863 -100114.000000 0 0 1
-5.470004 -33.484019 -5.899635 34.436989 1.408865 1.742962 0.007333 -0.008641 -131823.000000 0 0 1
-5.913404 -32.248919 -6.326335 33.391371 1.389443 1.761409 0.002550 -0.010725 5793.960000 0 0 1
-5.556504 -31.279319 -5.372435 32.220081 1.394989 1.738321 0.012954 -0.016200 -645550.000000 0 0 1
-6.083304 -29.829419 -5.696035 30.971691 1.369619 1.755760 0.015225 -0.017361 173370.000000 0 0 1
-7.410904 -29.508219 -5.361135 30.893337 1.324738 1.745216 0.009494 -0.016527 113205.000000 0 0 1
-8.361104 -30.107619 -6.257535 31.867437 1.299915 1.768442 0.006294 -0.012595 -411203.000000 0 0 1
-9.822004 -29.878719 -5.835335 31.988447 1.253195 1.754244 0.043119 -0.007210 -412006.000000 0 0 1
-10.716604 -30.460819 -6.714035 32.981592 1.232505 1.775798 0.031112 -0.011907 -805857.000000 0 0 1
-12.035904 -30.316219 -6.254335 33.212239 1.192868 1.760242 0.036309 -0.012017 249344.000000 0 0 1
-13.172104 -30.866719 -7.152035 34.313413 1.167452 1.780768 0.054013 -0.021509 305139.000000 0 0 1
-13.471904 -30.130219 -8.281335 34.027971 1.150338 1.816634 0.071629 -0.031294 -515644.000000 0 0 1
-14.615504 -30.600919 -8.921735 35.066032 1.125215 1.828051 0.088119 -0.028274 -235428.000000 0 0 1
-14.853304 -29.825819 -10.244035 34.858864 1.108749 1.869071 0.092590 -0.031947 -321438.000000 0 0 1
-15.239304 -28.473219 -10.249335 33.882288 1.079375 1.878109 0.100464 -0.035025 -391249.000000 0 0 1
-14.241104 -27.618319 -9.809235 32.585299 1.094715 1.876572 0.088278 -0.033675 -669636.000000 0 0 1
-14.603704 -26.106419 -9.546235 31.399744 1.060772 1.879709 0.085151 -0.023406 -324765.000000 0 0 1
-14.697504 -25.294619 -10.726635 31.159189 1.044425 1.922239 0.105762 -0.032398 135686.000000 0 0 1
-15.136704 -24.027119 -10.276435 30.199791 1.008621 1.918013 0.094190 -0.020791 -228033.000000 0 0 1
-15.787504 -23.185219 -11.421635 30.286192 0.972984 1.957485 0.088426 -0.014961 -801030.000000 0 0 1
-17.045104 -23.686719 -11.702935 31.441293 0.947033 1.952191 0.078992 -0.018355 -796459.000000 0 0 1
-17.589704 -23.245219 -12.949035 31.896950 0.923020 1.988830 0.084836 -0.017563 1073050.000000 0 0 1
-19.143204 -23.547619 -13.116535 33.060492 0.888205 1.978763 0.067172 -0.008292 1189390.000000 0 0 1
-19.475204 -24.896119 -13.318735 34.299986 0.906967 1.969584 0.091794 -0.013965 -110035.000000 0 0 1
-19.332704 -25.747219 -12.189735 34.427640 0.926741 1.932714 0.104172 -0.028288 -1175790.000000 0 0 1
-19.430704 -27.277019 -12.472835 35.737370 0.951832 1.927315 0.104965 -0.033432 540382.000000 0 0 1
-18.488704 -27.880219 -13.372935 36.027409 0.985234 1.951084 0.105174 -0.033790 687390.000000 0 0 1
-17.102004 -27.638419 -13.136335 35.056013 1.016685 1.954896 0.105880 -0.036426 149426.000000 0 0 1
-16.236904 -28.855819 -13.541135 35.772303 1.058262 1.959011 0.095810 -0.034747 -254628.000000 0 0 1
-16.030604 -28.916319 -14.903935 36.266528 1.064597 1.994298 0.095305 -0.033301 -115974.000000 0 0 1
-15.334204 -30.061419 -15.413135 37.099750 1.099105 1.999235 0.104760 -0.036386 378889.000000 0 0 1
-16.189004 -31.396219 -15.416135 38.541713 1.094719 1.982298 0.097245 -0.039681 256234.000000 0 0 1
-16.446104 -31.893819 -14.100835 38.555461 1.094706 1.945212 0.096318 -0.038648 -482264.000000 0 0 1
-16.808604 -33.235119 -14.165235 39.846659 1.102561 1.934239 0.072078 -0.035310 -935687.000000 0 0 1
-17.372604 -33.655619 -12.774635 39.971232 1.094283 1.896099 0.099004 -0.033711 545804.000000 0 0 1
-18.686904 -33.160319 -12.496935 40.062208 1.057623 1.888029 0.117130 -0.034888 487044.000000 0 0 1
-18.913604 -31.754119 -12.465735 39.005680 1.033599 1.896091 0.123859 -0.037504 -1154210.000000 0 0 1
-18.252604 -30.932519 -11.356035 37.668791 1.037704 1.877031 0.127519 -0.041443 -405401.000000 0 0 1
-18.696804 -31.216219 -10.021735 37.741992 1.031153 1.839553 0.132750 -0.044295 193189.000000 0 0 1
-18.484104 -30.048719 -9.199335 36.458406 1.019320 1.825878 0.130827 -0.040905 -113402.000000 0 0 1
-18.697704 -30.413619 -7.736135 36.529990 1.019580 1.784187 0.131692 -0.042451 738490.000000 0 0 1
-17.602604 -31.203819 -7.226635 36.547972 1.057179 1.769838 0.132924 -0.045866 654327.000000 0 0 1
-17.879504 -31.580719 -5.921135 36.770618 1.055637 1.732529 0.123268 -0.049234 -215029.000000 0 0 1
-16.840404 -32.519619 -5.307035 37.003911 1.092968 1.714711 0.123148 -0.037866 58996.500000 0 0 1
-15.562404 -32.065319 -4.938635 35.982819 1.118950 1.708481 0.111502 -0.035122 162457.000000 0 0 1
-15.591804 -31.718319 -3.532435 35.519491 1.113915 1.670412 0.086397 -0.033268 555938.000000 0 0 1
-14.232304 -31.067419 -3.091135 34.311778 1.141218 1.661008 0.075586 -0.028249 282027.000000 0 0 1
-13.104704 -31.876419 -3.237135 34.616736 1.180750 1.664447 0.043612 -0.019498 -164499.000000 0 0 1
-11.993004 -31.127319 -2.686035 33.465758 1.203036 1.651145 0.036376 -0.012192 368299.000000 0 0 1
-10.719104 -31.964219 -2.591635 33.813120 1.247235 1.647517 0.035161 -0.013547 -776116.000000 0 0 1
-10.786704 -33.109219 -1.727235 34.864835 1.255849 1.620358 0.043161 -0.012285 161575.000000 0 0 1
-9.568204 -33.841919 -1.592035 35.204554 1.295256 1.616034 0.039933 -0.018128 965707.000000 0 0 1
-8.387504 -33.176619 -0.785035 34.229440 1.323171 1.593733 0.038545 -0.022167 144320.000000 0 0 1
-8.684804 -33.012919 0.568565 34.140913 1.313552 1.554142 0.055758 -0.018755 185849.000000 0 0 1
-7.557704 -32.764219 1.407665 33.654041 1.344092 1.528957 0.054504 -0.022451 996962.000000 0 0 1
-6.573504 -33.896819 1.863865 34.578596 1.379247 1.516868 0.063600 -0.026588 271059.000000 0 0 1
-7.265804 33.841227 2.748165 34.721361 -1.359304 1.491564 0.082671 -0.027566 480557.000000 0 0 1
-6.449804 32.891727 3.455265 33.695764 -1.377161 1.468073 0.069216 -0.021762 389216.000000 0 0 1
-5.492004 33.356227 4.567765 34.112526 -1.407613 1.436490 0.061990 -0.019074 178173.000000 0 0 1
-4.374704 34.130227 4.197165 34.664486 -1.443315 1.449419 0.056115 -0.017409 -234084.000000 0 0 1
-3.785104 -33.814119 5.260765 34.429600 1.459322 1.417398 0.035040 -0.009649 22081.300000 0 0 1
-2.740904 -32.780419 4.828565 33.247308 1.487376 1.425049 0.061162 -0.010205 17931.900000 0 0 1
-3.306304 -31.711819 4.031565 32.137589 1.466911 1.445018 0.052661 -0.005742 267857.000000 0 0 1
-3.509204 -31.929619 2.661765 32.231973 1.461331 1.488121 0.052232 -0.001417 -449079.000000 0 0 1
-4.111204 -30.678619 2.098365 31.023907 1.437581 1.503108 0.049236 -0.007721 290800.000000 0 0 1
-3.206704 -29.549519 2.203865 29.804598 1.462700 1.496785 0.050620 -0.012165 480855.000000 0 0 1
-3.794004 -28.363519 1.704165 28.666843 1.437822 1.511314 0.054027 -0.008807 191229.000000 0 0 1
-3.272904 -27.100519 2.395565 27.402350 1.450609 1.483263 0.069840 -0.008323 122444.000000 0 0 1
-3.540004 -25.924619 1.641965 26.216666 1.435086 1.508125 0.067888 -0.012786 -290240.000000 0 0 1
-3.105604 -24.721819 2.275965 25.019855 1.445829 1.479704 0.047580 -0.009217 -150720.000000 0 0 1
-3.972104 -24.070519 3.355065 24.625677 1.407251 1.434129 0.024789 -0.003645 -316892.000000 0 1 0
-4.168904 -24.885619 4.496865 25.629975 1.404815 1.394430 0.046796 -0.004055 -246421.000000 0 0 1
-4.955604 -24.160219 5.379165 25.243011 1.368488 1.356054 0.024765 0.002610 -412662.000000 0 0 1
-5.694504 -25.028519 6.406365 26.455541 1.347084 1.326209 0.042984 0.003464 -436923.000000 0 0 1
-4.877704 -25.605819 7.383665 27.091853 1.382560 1.294762 0.046995 -0.003484 -406947.000000 0 0 1
-5.577804 -26.539519 8.135365 28.313286 1.363642 1.279354 0.047770 -0.002446 -86960.600000 0 0 1
-4.865704 -27.064919 9.428465 29.070275 1.392917 1.240489 0.044477 0.002950 111172.000000 0 0 1
-4.602004 -26.095119 10.460665 28.487878 1.396236 1.194803 0.039566 -0.008388 664536.000000 0 0 1
-5.786404 -25.674319 11.167165 28.589486 1.349123 1.169509 0.032552 -0.009003 672620.000000 0 0 1
-5.470104 -24.763519 12.381065 28.221352 1.353394 1.116631 0.037269 -0.003173 274959.000000 0 0 1
-4.680204 -25.489019 13.318065 29.137009 1.389203 1.096082 0.045013 0.001473 3920.270000 0 0 1
-3.801904 -24.629819 14.029665 28.599195 1.417643 1.058062 0.018217 -0.003068 -91038.700000 0 0 1
-2.874204 -25.399819 14.947965 29.611713 1.458117 1.041647 0.011724 -0.006651 -65763.900000 0 0 1
-3.505704 -25.924319 16.089065 30.711859 1.436383 1.019407 0.007986 -0.005361 11785.800000 0 0 1
-2.512904 -26.670119 16.774965 31.607110 1.476852 1.011330 -0.004325 0.007512 249350.000000 0 0 1
-2.764904 -26.940019 18.307865 32.689253 1.468523 0.976341 0.014699 -0.012757 -219321.000000 0 0 1
-2.716604 -25.796419 19.137565 32.234788 1.465874 0.935156 0.006375 -0.013932 -243901.000000 0 0 1
-2.723704 -26.202719 20.478865 33.367424 1.467221 0.910009 0.019597 -0.023054 60452.200000 0 0 1
-2.828904 -24.997719 21.390565 33.021886 1.458109 0.866144 0.022130 -0.027383 127946.000000 0 0 1
-2.585204 -25.412419 22.709165 34.178656 1.469415 0.844072 0.013121 -0.027646 -216996.000000 0 0 1
-3.032404 -24.460419 23.636365 34.149456 1.447454 0.806340 0.029536 -0.025526 -203342.000000 0 0 1
-2.321504 -23.111219 23.708765 33.190712 1.470683 0.775145 0.039980 -0.028254 -172170.000000 0 0 1
-2.588604 -22.338419 22.568365 31.859645 1.455430 0.783612 0.043127 -0.016515 421213.000000 0 0 1
-1.560404 -21.316719 22.410165 30.968579 1.497726 0.761732 0.034982 -0.019888 299012.000000 0 0 1
-2.001204 -20.096019 21.518565 29.511073 1.471541 0.753689 0.028790 -0.009459 -524243.000000 0 0 1
-2.874404 -19.183419 22.236265 29.507919 1.422065 0.717321 0.039873 -0.023848 448226.000000 0 0 1
-4.210704 -19.632519 22.403365 30.084491 1.359521 0.730739 0.036761 -0.022749 -572726.000000 0 0 1
-5.074704 -19.600619 21.130765 29.265101 1.317454 0.764040 0.024153 -0.024283 -1085020.000000 0 0 1
-4.927404 -20.627419 20.116465 29.230838 1.336314 0.811801 0.028697 -0.012867 -267159.000000 0 0 1
-5.501704 -21.903919 20.431065 30.454537 1.324713 0.835414 0.015922 -0.010908 348702.000000 0 0 1
-5.197504 -22.838019 19.197965 30.284502 1.347026 0.884184 0.014582 0.000737 -182413.000000 0 0 1
-5.649304 -24.160319 19.390965 31.490398 1.341097 0.907429 0.019313 -0.007278 -329085.000000 0 0 1
-5.740004 -24.709219 18.093565 31.158791 1.342543 0.951222 0.015010 -0.006755 -4121.540000 0 0 1
-6.537604 -26.049519 17.911865 32.282389 1.324907 0.982614 0.017930 -0.018170 1103450.000000 0 0 1
-7.939504 -25.923719 18.202365 32.655796 1.273603 0.979545 0.030137 -0.022155 220483.000000 0 0 1
-8.595204 -27.129619 17.861665 33.599596 1.263981 1.010304 0.027770 -0.024412 -336784.000000 0 0 1
-10.108304 -27.055119 18.045665 34.055885 1.213237 1.012333 0.037186 -0.019614 -649018.000000 0 0 1
-10.642104 -26.128119 17.113065 32.996818 1.184009 1.025551 0.038286 -0.023262 155073.000000 0 0 1
-12.060604 -26.029219 17.179965 33.438445 1.136897 1.031213 0.038539 -0.019257 579544.000000 0 0 1
-12.628404 -24.996719 18.190465 33.394694 1.102995 0.994752 0.041303 -0.027042 -566863.000000 0 0 1
-12.475704 -23.691119 17.692165 32.092445 1.086097 0.986890 0.034960 -0.020355 -108495.000000 0 0 1
-12.763504 -22.752019 18.721065 32.109807 1.059560 0.948340 0.037383 -0.019118 104362.000000 0 0 1
-11.553804 -22.278619 19.589465 31.836683 1.092376 0.908016 0.028306 -0.023244 339526.000000 0 0 1
-11.012104 -23.345019 20.338365 32.861915 1.130035 0.903450 0.029060 -0.019438 -213881.000000 0 0 1
-9.654404 -23.571319 20.022065 32.399039 1.182056 0.904621 0.033889 -0.024146 46277.000000 0 0 1
-8.875704 -24.445019 21.031265 33.446243 1.222509 0.890777 0.028330 -0.022845 -9460.120000 0 0 1
-8.745304 -23.762919 22.276265 33.725193 1.218156 0.849281 0.029342 -0.024869 -8335.110000 0 0 1
-7.941504 -24.488819 23.186365 34.646461 1.257206 0.837628 0.026250 -0.027294 140089.000000 0 0 1
-7.833204 -24.056419 24.664865 35.333072 1.256006 0.798101 0.034434 -0.022150 92607.400000 0 0 1
-6.955804 -24.844719 25.466065 36.251397 1.297814 0.791913 0.037282 -0.024301 49861.600000 0 0 1
-6.696004 -24.380819 26.791765 36.838288 1.302763 0.756445 0.033777 -0.025158 385406.000000 0 0 1
-5.408804 -24.975319 27.459665 37.510731 1.357524 0.749473 0.036249 -0.025003 240124.000000 0 0 1
-4.180704 -24.607419 26.900865 36.696865 1.402507 0.747992 0.037498 -0.022640 -1015650.000000 0 0 1
-3.150204 -24.848219 27.803765 37.422014 1.444691 0.733286 0.039116 -0.024137 -635519.000000 0 0 1
-1.937004 -24.009519 27.408865 36.489106 1.490294 0.720991 0.036901 -0.026764 -1157280.000000 0 0 1
-2.081104 -22.588719 27.509565 35.656099 1.478925 0.689562 0.043582 -0.028946 1316840.000000 0 0 1
-0.847904 -21.800119 27.285565 34.935171 1.531921 0.674476 0.045739 -0.030315 1581160.000000 0 0 1
0.179296 -21.868019 28.428165 35.866460 -1.562597 0.655716 0.057932 -0.037453 -767936.000000 0 0 1
0.896096 -23.055219 28.516665 36.681689 -1.531948 0.680261 0.059358 -0.024321 -222269.000000 0 0 1
1.697296 -23.098019 29.661365 37.632378 -1.497446 0.662938 0.058147 -0.024868 -26969.800000 0 0 1
2.482796 -24.397819 29.963065 38.719545 -1.469382 0.685901 0.062650 -0.035454 448014.000000 0 0 1
3.586396 -24.683519 29.052465 38.290783 -1.426511 0.709431 0.063098 -0.042291 1370270.000000 0 0 1
4.364596 -25.824119 29.506665 39.453493 -1.403366 0.725926 0.059982 -0.032291 -987637.000000 0 0 1
5.457496 -25.445119 30.517265 40.106631 -1.359516 0.706092 0.069137 -0.035502 -132531.000000 0 0 1
6.566596 -24.698819 29.990265 39.402638 -1.310941 0.705753 0.071743 -0.031670 357418.000000 0 0 1
7.410496 -25.455819 29.192665 39.435084 -1.287513 0.737322 0.070700 -0.030480 -1639880.000000 0 0 1
8.472096 -24.664219 28.460665 38.601938 -1.239926 0.741752 0.062069 -0.021534 -200890.000000 0 0 1
7.946596 -23.883819 27.410665 37.214645 -1.249599 0.742832 0.069276 -0.029428 214815.000000 0 0 1
9.025596 -23.590619 26.552865 36.647419 -1.205386 0.760416 0.053235 -0.017574 123348.000000 0 0 1
8.712596 -22.550919 25.446065 35.099224 -1.202110 0.759798 0.063940 -0.021550 177087.000000 0 0 1
7.741296 -22.852619 24.441865 34.344936 -1.244180 0.778940 0.060329 -0.014385 422763.000000 0 0 1
7.403396 -21.724519 23.576565 32.903183 -1.242354 0.771962 0.059303 -0.006715 -313772.000000 0 0 1
6.689196 -22.095719 22.292965 32.092716 -1.276830 0.802874 0.060215 -0.008329 -119412.000000 0 0 1
7.414096 -23.017419 21.452965 32.326462 -1.259182 0.845129 0.055081 -0.006542 293642.000000 0 0 1
7.038096 -23.043919 20.035465 31.336510 -1.274374 0.877124 0.066749 -0.001560 311935.000000 0 0 1
8.077896 -23.903319 19.261365 31.743051 -1.244905 0.918780 0.094287 -0.013310 406923.000000 0 0 1
9.361296 -23.333519 19.176265 31.619869 -1.189260 0.919192 0.096872 -0.017126 -487505.000000 0 0 1
10.310696 -24.280019 18.740665 32.358033 -1.169216 0.953091 0.110051 -0.015993 387129.000000 0 0 1
11.599096 -23.635319 18.177165 31.993385 -1.114574 0.966536 0.075267 -0.018205 208044.000000 0 0 1
11.243196 -22.772819 17.127765 30.632844 -1.112192 0.977459 0.072118 -0.015306 -90568.600000 0 0 1
12.342196 -22.491219 16.291265 30.390625 -1.068909 1.005031 0.066877 -0.019206 -53522.500000 0 0 1
-12.093904 22.504627 11.342865 27.953199 -1.077681 1.152964 0.010896 -0.008969 145632.000000 0 0 1
-13.127204 21.596827 10.883865 27.517357 -1.024639 1.164154 0.005702 -0.013095 577478.000000 0 0 1
-12.643604 20.308927 10.531965 26.138774 -1.013951 1.156086 0.024102 -0.018583 -219413.000000 0 0 1
-13.536204 19.577527 9.487365 25.622616 -0.965855 1.191493 0.033859 -0.021009 -338174.000000 0 0 1
-13.557904 20.392527 8.318265 25.862433 -0.984055 1.243341 0.035121 -0.027928 112295.000000 0 0 1
-14.344104 19.926927 7.207365 25.588705 -0.946882 1.285271 0.032103 -0.025067 1363620.000000 0 0 1
-15.916104 19.991527 7.392265 26.601298 -0.898412 1.289198 0.033037 -0.021304 901133.000000 0 0 1
-16.440904 18.852827 8.106365 26.295352 -0.853631 1.257411 0.033524 -0.029251 504725.000000 0 0 1
-17.775304 19.154827 8.523765 27.486786 -0.822736 1.255494 0.038756 -0.024878 378941.000000 0 0 1
-18.310704 18.108027 9.507165 27.451206 -0.779833 1.217141 0.044341 -0.024647 -106574.000000 0 0 1
-18.623204 16.895827 8.938965 26.687034 -0.736804 1.229238 0.047588 -0.028603 227297.000000 0 0 1
-19.233904 15.952027 9.837065 26.854759 -0.692395 1.195760 0.060093 -0.027418 232277.000000 0 0 1
-18.206304 15.202127 10.760665 26.045461 -0.695717 1.144887 0.055455 -0.017082 286143.000000 0 0 1
-17.321604 14.377227 10.059965 24.656551 -0.692778 1.150530 0.038520 -0.004162 -387629.000000 0 1 0
-16.612004 13.446227 10.841765 23.964631 -0.680464 1.101334 0.034809 -0.005306 160168.000000 0 1 0
-17.374104 12.424627 11.800065 24.402302 -0.620804 1.066075 0.038451 0.000342 168078.000000 0 1 0
-18.282104 11.586027 11.100965 24.324941 -0.564857 1.096895 0.032813 0.000972 324812.000000 0 1 0
-19.025104 10.639027 11.887265 24.828422 -0.509887 1.071536 0.033351 0.001165 191778.000000 0 1 0
-19.968104 9.739727 11.050265 24.813218 -0.453811 1.109245 0.030994 -0.005160 -444966.000000 0 1 0
-19.435904 8.793827 10.130565 23.615971 -0.424892 1.127443 0.023277 -0.005209 81796.200000 0 1 0
-18.969104 9.319227 8.905065 22.934146 -0.456651 1.172023 0.032955 -0.005970 -336579.000000 0 1 0
-19.981604 9.598827 7.722765 23.474306 -0.447831 1.235565 0.050692 -0.014178 63016.300000 0 1 0
-20.354204 8.368227 7.173665 23.146972 -0.390064 1.255689 0.027097 -0.021464 726364.000000 0 1 0
-21.233804 8.625827 6.057865 23.706055 -0.385866 1.312389 0.036348 -0.017277 257498.000000 0 1 0
-21.616404 7.309327 5.345565 23.436515 -0.326068 1.340684 0.054534 -0.011210 300944.000000 0 1 0
-22.528904 6.432027 6.070165 24.202673 -0.278103 1.317284 0.069446 -0.007303 951690.000000 0 1 0
-22.249204 5.104227 5.825965 23.558906 -0.225510 1.320910 0.066339 -0.007160 -384341.000000 0 1 0
-23.447804 4.137627 5.923465 24.535829 -0.174663 1.326966 0.102801 -0.002652 -76633.300000 0 1 0
-24.346504 4.218627 4.831565 25.177233 -0.171571 1.377696 0.098134 -0.007545 -163324.000000 0 0 1
-25.368504 3.284127 4.952965 26.055294 -0.128741 1.379538 0.114712 -0.016421 -798226.000000 0 0 1
-26.298414 3.378527 3.726565 26.775143 -0.127769 1.431163 0.109762 -0.018928 -150364.000000 0 0 1
-25.594294 3.389427 2.491265 25.937665 -0.131663 1.474600 0.094750 -0.014432 283183.000000 0 0 1
-26.521464 3.530627 1.462765 26.795392 -0.132345 1.516179 0.096047 -0.019044 -331399.000000 0 0 1
-25.987604 3.247227 0.033565 26.189715 -0.124309 1.569515 0.099054 -0.017881 -158249.000000 0 0 1
-25.518024 4.440127 -0.628535 25.909059 -0.172275 1.595058 0.099261 -0.011554 472158.000000 0 0 1
-25.492654 4.357127 -2.022335 25.941276 -0.169281 1.648834 0.109958 -0.012528 -761482.000000 0 0 1
-26.698584 4.939527 -2.724135 27.287986 -0.182942 1.670792 0.122372 -0.024687 -416552.000000 0 0 1
-27.863224 4.162127 -2.646335 28.296389 -0.148281 1.664455 0.110349 -0.029128 349516.000000 0 0 1
-29.064014 4.872127 -2.941135 29.615955 -0.166090 1.670269 0.094018 -0.019569 245777.000000 0 0 1
-30.331914 4.031527 -2.797435 30.726273 -0.132139 1.661966 0.096432 -0.020719 -388217.000000 0 0 1
-30.317224 3.074027 -3.757335 30.703440 -0.101050 1.693479 0.103778 -0.027423 661833.000000 0 0 1
-31.502484 2.278927 -3.751735 31.806847 -0.072215 1.689025 0.112750 -0.034908 321884.000000 0 0 1
-31.713544 1.679827 -5.151435 32.173094 -0.052919 1.731605 0.113172 -0.049131 130641.000000 0 0 1
-30.557694 0.943027 -5.553235 31.072502 -0.030851 1.750480 0.123712 -0.041763 494630.000000 0 0 1
-30.629944 0.066927 -6.696435 31.353471 -0.002185 1.786033 0.129931 -0.036428 -298055.000000 0 0 1
-30.887264 0.730527 -8.058035 31.929432 -0.023647 1.825925 0.122284 -0.037308 -574905.000000 0 0 1
-32.260294 0.957327 -8.161935 33.290542 -0.029666 1.818494 0.123083 -0.039939 -332044.000000 0 0 1
-32.715694 1.788627 -9.185435 34.027754 -0.054617 1.844127 0.130809 -0.041570 -255746.000000 0 0 1
-34.246402 1.809027 -9.344035 35.544333 -0.052775 1.836806 0.134738 -0.039007 -1411.240000 0 0 1
-34.815133 2.600527 -8.307135 35.886832 -0.074557 1.804397 0.110905 -0.031362 573339.000000 0 0 1
36.017794 2.440927 -8.120035 37.002359 0.067667 1.792043 0.110569 -0.028029 474103.000000 0 0 1
35.431544 3.097727 -6.864335 36.223050 0.087207 1.761451 0.108584 -0.020422 -450980.000000 0 0 1
34.087824 2.858327 -6.560135 34.830808 0.083656 1.760271 0.101603 -0.018109 -299820.000000 0 0 1
33.699344 3.620127 -5.487035 34.334511 0.107014 1.731296 0.096185 -0.029780 -964738.000000 0 0 1
32.247894 3.422727 -5.124435 32.831411 0.105742 1.727520 0.080252 -0.022043 -916217.000000 0 0 1
32.075164 2.264927 -4.442835 32.460512 0.070496 1.708096 0.104195 -0.034340 1212960.000000 0 0 1
30.851874 1.492227 -4.717435 31.246105 0.048330 1.722353 0.092447 -0.034371 1157770.000000 0 0 1
30.792414 0.173927 -3.940335 31.043989 0.005648 1.698067 0.110212 -0.029220 -144560.000000 0 0 1
31.850804 -0.673173 -4.370735 32.156340 -0.021132 1.707140 0.110535 -0.038530 405032.000000 0 0 1
31.886784 -1.953773 -3.701835 32.160345 -0.061196 1.686158 0.111069 -0.027326 613110.000000 0 0 1
33.155644 -2.790273 -4.116735 33.526555 -0.083959 1.693897 0.112926 -0.036604 663016.000000 0 0 1
33.059034 -4.098573 -3.570935 33.502979 -0.123348 1.677585 0.097472 -0.032610 174499.000000 0 0 1
34.340814 -4.686273 -3.425735 34.827982 -0.135626 1.669317 0.118942 -0.037215 282406.000000 0 0 1
34.253424 -6.140873 -3.015135 34.929907 -0.177393 1.657223 0.097402 -0.031779 -91732.600000 0 0 1
33.873124 -6.336273 -1.672935 34.501241 -0.184922 1.619304 0.104221 -0.028422 -186250.000000 0 0 1
34.167594 -7.598173 -1.150435 35.021140 -0.218819 1.603652 0.105960 -0.027635 -172840.000000 0 0 1
33.624034 -7.771073 0.252865 34.511291 -0.227129 1.563469 0.095342 -0.013785 -223802.000000 0 0 1
32.216414 -7.570773 0.237365 33.094868 -0.230809 1.563624 0.094994 -0.021754 76824.500000 0 0 1
31.620944 -7.762173 1.513865 32.594896 -0.240716 1.524335 0.080585 -0.026492 -399512.000000 0 0 1
31.555504 -9.189073 2.040065 32.929482 -0.283367 1.508804 0.088417 -0.033919 34750.600000 0 0 1
30.454304 -10.011773 1.619565 32.098648 -0.317618 1.520319 0.089456 -0.036715 1549050.000000 0 0 1
29.200374 -9.746073 2.304665 30.870038 -0.322139 1.496070 0.079359 -0.040554 551861.000000 0 0 1
28.035484 -10.716273 1.881065 30.072667 -0.365103 1.508205 0.087999 -0.035168 -70837.300000 0 0 1
26.812494 -10.588473 2.583465 28.943046 -0.376109 1.481417 0.089282 -0.027649 814835.000000 0 0 1
26.034094 -9.443673 2.163965 27.778405 -0.347981 1.492816 0.087525 -0.025492 -364333.000000 0 0 1
25.384194 -9.370273 0.729865 27.068285 -0.353622 1.543829 0.083335 -0.019174 -752851.000000 0 0 1
26.356294 -9.332373 -0.294735 27.961300 -0.340310 1.581337 0.083807 -0.028560 113774.000000 0 0 1
25.947894 -9.543073 -1.670635 27.697554 -0.352424 1.631150 0.080215 -0.016667 -681954.000000 0 0 1
25.385294 -10.899973 -2.009835 27.699495 -0.405576 1.643419 0.094538 -0.014508 239233.000000 0 0 1
24.011094 -11.051973 -1.662235 26.484746 -0.431375 1.633600 0.087847 -0.012374 366788.000000 0 0 1
23.649494 -12.395573 -1.886435 26.767657 -0.482770 1.641329 0.080379 -0.012971 150544.000000 0 0 1
22.171294 -12.779973 -1.626835 25.642554 -0.522901 1.634282 0.086548 -0.012308 -353391.000000 0 0 1
21.233894 -12.269073 -2.507235 24.651463 -0.523941 1.672680 0.081610 -0.011086 -595913.000000 0 1 0
19.976394 -12.559773 -1.926835 23.675239 -0.561278 1.652273 0.093950 -0.008556 -708776.000000 0 1 0
18.853494 -11.984273 -2.758935 22.509748 -0.566223 1.693672 0.091078 -0.010159 -630097.000000 0 1 0
18.791994 -12.726373 -3.969635 23.040348 -0.595275 1.743951 0.077204 -0.017993 311987.000000 0 1 0
17.919194 -12.033873 -4.844335 22.121917 -0.591385 1.791569 0.077150 -0.021654 -53451.900000 0 1 0
17.801194 -12.573773 -6.333735 22.695781 -0.614971 1.853623 0.073738 -0.025024 -219435.000000 0 1 0
17.068694 -13.761373 -6.477935 22.862182 -0.678531 1.858079 0.073546 -0.025625 247191.000000 0 1 0
16.968994 -14.055673 -7.838535 23.386991 -0.691769 1.912578 0.067389 -0.030239 -221581.000000 0 1 0
16.142494 -15.279773 -8.304635 23.728012 -0.757949 1.928360 0.060905 -0.025739 -649931.000000 0 1 0
14.748294 -15.111773 -8.329935 22.699464 -0.797570 1.946542 0.064519 -0.021111 166625.000000 0 1 0
14.149494 -16.134573 -9.146335 23.327839 -0.850853 1.973686 0.063186 -0.017507 -118500.000000 0 1 0
14.131394 -15.862273 -10.610235 23.746265 -0.843042 2.034001 0.069040 -0.026261 -547700.000000 0 1 0
13.121894 -15.042473 -11.225235 22.901223 -0.853485 2.083068 0.048722 -0.014773 574521.000000 0 1 0
13.317694 -13.654373 -10.942935 21.989787 -0.797880 2.091669 0.043256 -0.009604 -133229.000000 0 1 0
13.271294 -12.708073 -12.126835 22.015506 -0.763722 2.154157 0.047000 -0.004516 39936.000000 0 1 0
14.487794 -12.674673 -12.847535 23.143091 -0.718746 2.159321 0.062951 -0.011017 240513.000000 0 1 0
14.231194 -12.239773 -14.161535 23.513571 -0.710309 2.217139 0.070038 -0.009174 -19836.900000 0 1 0
15.508494 -12.090773 -15.003835 24.734899 -0.662192 2.222555 0.070059 -0.017279 -250253.000000 0 1 0
16.352794 -13.172273 -15.162535 25.900292 -0.678089 2.196194 0.066702 -0.016173 164825.000000 0 0 1
17.448494 -12.791673 -16.019235 26.920118 -0.632604 2.208144 0.066277 -0.015274 258387.000000 0 0 1
18.550894 -13.842873 -16.067335 28.176587 -0.641071 2.177591 0.066778 -0.011040 -397865.000000 0 0 1
19.410594 -13.873873 -14.949035 28.155447 -0.620562 2.130513 0.062068 -0.024479 -47635.000000 0 0 1
20.417094 -14.859073 -15.096435 29.420268 -0.629125 2.109624 0.050411 -0.011702 272271.000000 0 0 1
21.461694 -14.636273 -13.940035 29.481340 -0.598524 2.063310 0.047244 -0.012774 582006.000000 0 0 1
22.337394 -13.510773 -14.153435 29.695452 -0.543978 2.067602 0.053778 -0.013810 156236.000000 0 0 1
23.170794 -13.290273 -13.042635 29.725871 -0.520765 2.025019 0.047003 -0.008698 -46813.700000 0 0 1
23.820994 -11.882673 -13.121135 29.678306 -0.462713 2.028748 0.050724 -0.014205 10279.900000 0 0 1
22.987894 -10.703173 -12.861035 28.432506 -0.435751 2.040179 0.042467 -0.009497 633225.000000 0 0 1
23.658394 -9.454673 -13.005235 28.605010 -0.380190 2.042774 0.048906 -0.015516 -360841.000000 0 0 1
24.798594 -9.069573 -12.074835 29.034963 -0.350618 1.999698 0.062151 -0.011188 -69556.000000 0 0 1
25.988194 -9.828173 -12.301335 30.385886 -0.361554 1.987597 0.059696 -0.010484 93071.800000 0 0 1
26.768994 -9.699473 -11.147735 30.576639 -0.347625 1.943982 0.056165 -0.010760 -423372.000000 0 0 1
28.129924 -10.421573 -11.226335 32.030180 -0.354802 1.928893 0.070849 -0.008604 164924.000000 0 0 1
28.958194 -9.992373 -12.272535 33.000601 -0.332269 1.951839 0.060375 -0.009002 -993379.000000 0 0 1
30.186594 -10.582573 -12.403735 34.308512 -0.337184 1.940710 0.064596 -0.006117 -576234.000000 0 0 1
30.943864 -10.062573 -13.681935 35.298349 -0.314402 1.968832 0.061856 -0.007955 -152964.000000 0 0 1
30.472714 -10.589273 -14.891435 35.531308 -0.334446 2.003258 0.067072 -0.019677 25667.600000 0 0 1
30.940654 -9.970673 -16.068935 36.262227 -0.311744 2.029885 0.059140 -0.016587 -151837.000000 0 0 1
30.456914 -10.819073 -17.274035 36.647896 -0.341322 2.061619 0.039641 -0.007272 1424990.000000 0 0 1
29.114204 -10.583473 -17.770735 35.713384 -0.348665 2.091618 0.040014 -0.014004 1287290.000000 0 0 1
29.151874 -9.476473 -18.660535 35.886639 -0.314297 2.117630 0.029459 -0.005746 276974.000000 0 0 1
27.775024 -9.150173 -19.323335 35.050947 -0.318241 2.154709 0.005549 -0.007664 230437.000000 0 0 1
27.372014 -9.962573 -20.346535 35.531134 -0.349065 2.180518 0.009470 -0.005141 1044960.000000 0 0 1
25.966294 -9.732773 -20.565735 34.524263 -0.358616 2.208920 0.030039 0.001951 889995.000000 0 0 1
25.323894 -10.334573 -21.837435 34.999665 -0.387466 2.244561 0.038142 -0.002604 -46286.800000 0 0 1
25.258694 -11.716573 -21.986335 35.477861 -0.434322 2.239182 0.044263 -0.010747 340761.000000 0 0 1
24.517394 -12.033673 -23.162335 35.810692 -0.456278 2.274177 0.048995 -0.011356 -812258.000000 0 0 1
24.647794 -13.503373 -23.771635 36.809584 -0.501194 2.272867 0.044657 -0.008288 -131212.000000 0 0 1
25.838294 -13.785873 -24.510435 38.189386 -0.490122 2.267656 0.040315 -0.004794 991944.000000 0 0 1
27.000894 -13.833973 -23.649335 38.467105 -0.473481 2.232921 0.029451 0.000346 761353.000000 0 0 1
28.321964 -14.339173 -24.336835 40.000338 -0.468668 2.224859 0.012662 0.006298 660628.000000 0 0 1
28.825414 -13.480573 -25.337785 40.677189 -0.437445 2.243239 0.016347 -0.002814 37045.100000 0 0 1
30.206754 -13.699573 -25.552855 41.869735 -0.425783 2.227228 0.002482 -0.005535 212611.000000 0 0 1
30.791964 -12.957873 -26.811415 42.835774 -0.398325 2.247096 0.007261 -0.000015 59865.300000 0 0 1
30.635024 -13.728373 -27.964005 43.691630 -0.421295 2.265335 0.006067 -0.003628 -238318.000000 0 0 1
31.474724 -13.237373 -28.932535 44.754641 -0.398114 2.273745 0.001231 -0.006796 -278747.000000 0 0 1
31.410054 -14.102773 -30.200345 45.798914 -0.422013 2.290832 0.003491 -0.015450 -85721.000000 0 0 1
32.034874 -15.333573 -30.029295 46.509248 -0.446424 2.272687 0.017853 -0.018265 -296235.000000 0 0 1
32.172294 -16.133673 -31.160635 47.606062 -0.464829 2.284386 -0.009898 -0.014612 105132.000000 0 0 1
30.903144 -16.725873 -31.834325 47.415012 -0.496089 2.306889 -0.013703 -0.007254 432205.000000 0 0 1
30.164574 -15.939773 -32.749935 47.292030 -0.486130 2.335751 -0.006341 -0.013669 -79607.600000 0 0 1
28.949464 -16.529073 -33.134635 47.001976 -0.518795 2.353167 -0.009543 -0.010056 -60285.900000 0 0 1
28.147954 -15.644573 -34.113451 46.912552 -0.507284 2.384988 0.014247 -0.014084 -38530.200000 0 0 1
27.404834 -14.540573 -33.551925 45.696662 -0.487815 2.395330 0.011743 -0.014714 834554.000000 0 0 1
28.233644 -13.357673 -33.373435 45.709433 -0.441907 2.389296 0.024012 -0.015648 163274.000000 0 0 1
27.301264 -12.129473 -33.162735 44.634629 -0.418089 2.408311 0.030221 -0.011264 76539.500000 0 0 1
26.559594 -12.005173 34.177375 44.918027 -0.424523 0.706123 0.034013 -0.016268 -419670.000000 0 0 1
25.707894 -10.874973 34.227661 44.166658 -0.400193 0.684135 0.008302 -0.015836 -185190.000000 0 0 1
20.608196 -30.185119 9.313165 37.717028 -0.971757 1.321294 0.040186 -0.015817 -100735.000000 0 0 1
21.295496 -29.594419 8.255765 37.382957 -0.947051 1.348118 0.052989 -0.019333 -1066090.000000 0 0 1
22.542996 -30.138919 8.086265 38.495829 -0.928596 1.359164 0.066744 -0.018623 -792699.000000 0 0 1
23.007296 -29.979819 6.583565 38.359726 -0.916235 1.398315 0.060439 -0.015368 92909.400000 0 0 1
23.236596 -28.638219 6.138465 37.386733 -0.889152 1.405861 0.050958 -0.011345 294520.000000 0 0 1
23.981296 -28.505519 4.921765 37.575138 -0.871383 1.439434 0.053003 -0.005201 244148.000000 0 0 1
24.113096 -27.044819 4.406765 36.500455 -0.842643 1.449769 0.038886 -0.006632 -11236.900000 0 0 1
24.714496 -26.140619 5.304465 36.363108 -0.813434 1.424399 0.038035 -0.005632 122897.000000 0 0 1
24.559496 -24.799319 4.934265 35.249427 -0.790257 1.430354 0.032413 0.004538 9693.230000 0 0 1
25.364196 -23.871719 5.915065 35.329725 -0.755095 1.402580 0.018695 0.006738 784896.000000 0 0 1
26.746796 -23.810819 5.526565 36.233812 -0.727391 1.417674 0.021762 0.005888 935377.000000 0 0 1
27.608696 -23.141219 6.459565 36.598936 -0.697595 1.393371 0.039076 0.002831 306869.000000 0 0 1
27.373596 -21.636219 6.759865 35.540618 -0.668863 1.379429 0.032452 0.011079 -411032.000000 0 0 1
27.471896 -20.802719 5.636865 34.917509 -0.648116 1.408653 0.037367 0.012307 149973.000000 0 0 1
27.207796 -19.472119 6.040465 33.998748 -0.621173 1.392181 0.042755 0.004410 -348163.000000 0 0 1
27.279896 -18.439919 4.901765 33.290399 -0.594404 1.423016 0.052255 0.006254 -120378.000000 0 0 1
28.562296 -18.266219 4.345665 34.181052 -0.568974 1.443315 0.078175 -0.000355 -93692.000000 0 0 1
28.455096 -17.770119 3.001965 33.682064 -0.558237 1.481551 0.072753 -0.010593 151911.000000 0 0 1
29.608196 -16.744419 2.800765 34.130121 -0.514691 1.488643 0.084178 -0.020140 406793.000000 0 0 1
29.281196 -15.414319 3.290065 33.253785 -0.484563 1.471696 0.080979 -0.021886 -10104.100000 0 0 1
30.420396 -14.670719 3.646465 33.969504 -0.449360 1.463244 0.081927 -0.022889 -41717.300000 0 0 1
30.109596 -13.402419 4.478565 33.260640 -0.418789 1.435735 0.078724 -0.023721 16933.200000 0 0 1
29.542196 -13.691219 5.768465 33.067598 -0.433979 1.395455 0.072777 -0.019361 237012.000000 0 0 1
29.424396 -12.550819 6.561865 32.655417 -0.403178 1.368476 0.070244 -0.024301 -408384.000000 0 0 1
29.011296 -12.733919 8.075165 32.695815 -0.413610 1.321235 0.080161 -0.016031 -444197.000000 0 0 1
27.611796 -12.863119 8.160365 31.535103 -0.435961 1.309047 0.073751 -0.009097 -363810.000000 0 0 1
27.071496 -12.772319 9.438865 31.386147 -0.440834 1.265335 0.058556 -0.003473 -40660.200000 0 0 1
27.401096 -13.935619 10.446365 32.467647 -0.470487 1.243222 0.068838 -0.001835 389814.000000 0 0 1
28.697196 -13.897019 11.067265 33.751157 -0.450980 1.236708 0.073415 -0.007445 610393.000000 0 0 1
29.098096 -15.158819 11.502465 34.767740 -0.480271 1.233606 0.067390 -0.015270 188756.000000 0 0 1
30.118596 -15.245019 12.639165 36.045651 -0.468568 1.212538 0.066776 -0.019367 1375230.000000 0 0 1
31.445596 -14.668119 12.528165 36.890841 -0.436458 1.224304 0.062319 -0.015708 1055030.000000 0 0 1
32.256696 -15.075819 13.593365 38.112391 -0.437205 1.206100 0.058968 -0.016421 1593840.000000 0 0 1
33.808896 -14.797919 13.300065 39.228964 -0.412572 1.224903 0.057971 -0.021083 1396800.000000 0 0 1
34.212696 -13.490419 13.403665 39.142793 -0.375592 1.221294 0.057624 -0.021268 -576352.000000 0 0 1
35.531596 -13.417919 12.954365 40.129172 -0.361077 1.242092 0.044781 -0.020139 -682064.000000 0 0 1
-36.023501 -12.066919 13.260565 40.238611 0.323226 1.234971 0.044138 -0.022795 -771742.000000 0 0 1
-34.729401 -12.105919 12.739865 38.922857 0.335408 1.237340 0.051729 -0.019871 -657675.000000 0 0 1
-34.061401 -10.839919 12.844765 37.982508 0.308111 1.225819 0.045751 -0.015894 -700676.000000 0 0 1
-32.857501 -10.867919 11.943265 36.611046 0.319432 1.238494 0.045183 -0.015877 -524005.000000 0 0 1
-31.787801 -11.728119 12.362465 36.067210 0.353456 1.220941 0.038559 -0.014276 466625.000000 0 0 1
-31.984801 -13.103919 11.976065 36.580956 0.388834 1.237261 0.035935 -0.015185 -325389.000000 0 0 1
-30.887901 -14.174219 12.314465 36.147158 0.430224 1.223161 0.018939 -0.010352 599629.000000 0 0 1
-29.708201 -14.128919 11.534065 34.860268 0.443929 1.233576 0.030309 -0.012420 -3412.760000 0 0 1
-28.793201 -15.156919 11.928265 34.656373 0.484549 1.219424 0.021905 -0.000415 74571.600000 0 0 1
-27.398901 -14.887619 11.341165 33.180763 0.497735 1.221965 0.019645 0.001587 -266859.000000 0 0 1
-27.368901 -14.949319 9.960565 32.737620 0.499933 1.261641 0.026802 0.000827 294558.000000 0 0 1
-26.019001 -14.908619 9.526765 31.464498 0.520322 1.263190 0.036756 -0.001437 292405.000000 0 0 1
-25.833501 -14.463719 8.064465 30.685576 0.510399 1.304863 0.055179 0.007232 -114974.000000 0 0 1
-26.318001 -15.522219 7.254365 31.403858 0.532882 1.337689 0.059567 0.006760 262374.000000 0 0 1
-26.240101 -15.106519 5.885665 30.844625 0.522363 1.378802 0.066571 0.004649 -163085.000000 0 0 1
-26.642201 -16.182019 4.849165 31.546459 0.545830 1.416469 0.055238 0.002735 329892.000000 0 0 1
-28.019201 -16.552319 4.850465 32.902613 0.533590 1.422838 0.034446 -0.001608 369892.000000 0 0 1
-28.259201 -17.508919 3.868565 33.468052 0.554694 1.454948 0.028751 0.004517 -273695.000000 0 0 1
-29.700201 -18.031519 3.786865 34.951080 0.545637 1.462236 0.041307 -0.001535 -241626.000000 0 0 1
-30.609001 -17.047219 3.315865 35.192522 0.508152 1.476436 0.047415 -0.006483 -1115780.000000 0 0 1
-31.890401 -17.484519 3.546765 36.541561 0.501513 1.473582 0.055492 -0.007445 -1539120.000000 0 0 1
-32.931901 -16.683619 2.807765 37.023463 0.468921 1.494886 0.043469 -0.015682 -463165.000000 0 0 1
-32.812101 -16.778219 1.398965 36.879530 0.472680 1.532854 0.044425 -0.011774 117844.000000 0 0 1
-33.877101 -16.118519 0.721765 37.523134 0.444096 1.551560 0.059416 -0.024691 288807.000000 0 0 1
-34.425401 -16.802319 -0.502035 38.310289 0.454065 1.583901 0.058410 -0.027069 413300.000000 0 0 1
-33.420701 -16.877919 -1.534435 37.472149 0.467651 1.611756 0.055030 -0.023131 883125.000000 0 0 1
-33.936901 -17.747219 -2.496035 38.378474 0.481837 1.635880 0.052866 -0.017170 208638.000000 0 0 1
-32.829601 -18.305419 -3.412835 37.742795 0.508651 1.661343 0.048199 -0.009774 -30384.200000 0 0 1
-33.316801 -19.326319 -4.228635 38.747868 0.525642 1.680146 0.052438 -0.027231 -271745.000000 0 0 1
-32.298301 -20.011719 -4.905435 38.310736 0.554700 1.699192 0.038453 -0.019771 -543426.000000 0 0 1
-32.727901 -21.150319 -5.826435 39.400494 0.573733 1.719218 0.057308 -0.023303 -334814.000000 0 0 1
-33.439701 -22.177819 -5.219935 40.463774 0.585611 1.700160 0.078741 -0.027940 -82198.100000 0 0 1
-33.895401 -23.176319 -6.150435 41.519488 0.599743 1.719477 0.061971 -0.028538 249550.000000 0 0 1
-34.396101 -24.504319 -5.448535 42.582156 0.619010 1.699102 0.063218 -0.022537 -59112.700000 0 0 1
-33.321601 -25.189719 -4.881235 42.055648 0.647303 1.687125 0.070615 -0.023203 -423388.000000 0 0 1
-33.748101 -26.460119 -4.473135 43.117064 0.664938 1.674727 0.058512 -0.015344 689938.000000 0 0 1
-32.555401 -27.315419 -3.942135 42.679348 0.698099 1.663295 0.048088 -0.009076 -210994.000000 0 0 1
-31.476301 -27.541919 -4.814835 42.101039 0.718833 1.685411 0.058454 -0.004664 187532.000000 0 0 1
-30.696301 -28.701119 -4.517835 42.266157 0.751820 1.677891 0.041544 0.000944 596597.000000 0 0 1
-29.745301 -28.599219 -3.281135 41.394011 0.765757 1.650146 0.036598 -0.003670 -735272.000000 0 0 1
-30.441801 -28.588819 -2.074935 41.813027 0.754018 1.620441 0.043618 -0.004285 -82669.600000 0 0 1
-29.558301 -28.397719 -0.990735 41.001283 0.765376 1.594962 0.035960 -0.008579 277555.000000 0 0 1
-30.362101 -28.215419 0.345165 41.449804 0.748768 1.562469 0.029534 -0.007091 527847.000000 0 0 1
-31.218201 -29.297119 0.672765 42.817636 0.753663 1.555083 0.022784 0.000068 64414.400000 0 0 1
-31.782401 -29.087919 1.972265 43.129084 0.741161 1.525051 0.033859 0.000732 49186.600000 0 0 1
-32.398301 -30.405919 2.537165 44.504012 0.753685 1.513756 0.023726 0.005575 -589968.000000 0 0 1
-33.313101 -30.125419 3.530765 45.052968 0.735192 1.492347 0.031503 0.002917 60675.600000 0 0 1
-34.004701 -31.246719 4.123765 46.364670 0.743156 1.481737 0.026646 0.007342 285028.000000 0 0 1
-35.048601 -32.100319 3.436465 47.651278 0.741520 1.498617 0.031714 0.007306 -242803.000000 0 0 1
-35.801801 -33.088319 4.134965 48.925492 0.746030 1.486180 0.043346 -0.003641 -266406.000000 0 0 1
35.536696 -33.649319 3.243565 49.047469 -0.758125 1.504617 0.040338 0.005200 -2136750.000000 0 0 1
34.382196 34.186127 3.854065 48.638262 0.782539 1.491474 0.047452 0.004084 -496345.000000 0 0 1
33.447996 -33.683219 4.641965 47.695656 -0.788902 1.473317 0.051634 0.002328 489226.000000 0 0 1
32.835096 -32.581919 4.004465 46.430171 -0.781528 1.484442 0.049960 0.000481 -1195720.000000 0 0 1
31.870196 -32.762519 2.798465 45.792177 -0.799203 1.509646 0.040940 0.003324 -891864.000000 0 0 1
32.420096 -33.153819 1.592065 46.397985 -0.796587 1.536476 0.044897 0.008639 -485258.000000 0 0 1
31.760996 -32.652419 0.437765 45.553628 -0.799236 1.561186 0.050155 0.009673 -407946.000000 0 0 1
32.268996 -33.327219 -0.904535 46.398382 -0.801529 1.590293 0.051360 0.004960 1071560.000000 0 0 1
33.544496 -32.937319 -1.405035 47.032695 -0.776265 1.600674 0.031753 0.009500 523146.000000 0 0 1
34.694296 -33.330219 -0.657135 48.114754 -0.765348 1.584454 0.031750 0.016714 -90117.100000 0 0 1
35.997396 -33.067819 -1.436835 48.901510 -0.743006 1.600183 0.019837 0.022863 -247776.000000 0 0 1
-35.964501 -34.254219 -2.215835 49.716263 0.761046 1.615381 0.013577 0.012380 -103598.000000 0 0 1
-35.139901 -33.951519 -3.286235 48.972622 0.768200 1.637950 0.017033 0.011018 -647675.000000 0 0 1
-34.695001 33.513327 -4.179435 48.418528 -0.768075 1.657223 0.015638 0.002776 18817.500000 0 0 1
-33.589901 32.820527 -3.618335 47.101601 -0.773814 1.647692 0.012554 0.009030 7050.600000 0 0 1
-33.094201 31.894027 -4.535935 46.184736 -0.766933 1.669168 0.011409 -0.003909 -466997.000000 0 0 1
-31.755201 31.241627 -4.225635 44.746933 -0.777246 1.665371 0.023829 -0.005978 -142348.000000 0 0 1
-30.637101 32.162127 -4.283735 44.624934 -0.809678 1.666939 0.021444 0.000578 327763.000000 0 0 1
-29.406601 31.532627 -4.041235 43.305731 -0.820272 1.664251 0.030625 -0.012024 196438.000000 0 0 1
-29.033801 31.285327 -2.524535 42.756363 -0.822708 1.629875 0.025791 -0.012326 -378081.000000 0 0 1
-29.862801 30.307527 -1.922635 42.591427 -0.792789 1.615953 0.040270 -0.012214 1158.940000 0 0 1
-29.625501 30.135727 -0.505135 42.262129 -0.793936 1.582749 0.031703 -0.000902 -414460.000000 0 0 1
-30.935301 29.725427 0.147665 42.902397 -0.765456 1.567354 0.025621 -0.000517 -315500.000000 0 0 1
-31.346701 28.405027 -0.137935 42.302249 -0.736206 1.574057 0.029900 -0.011518 -294144.000000 0 0 1
-32.676501 28.301227 -0.570035 43.232374 -0.713769 1.583982 0.037198 -0.011505 -138657.000000 0 0 1
-33.121001 26.958627 -1.233235 42.723403 -0.683185 1.599666 0.034460 -0.007851 -102615.000000 0 0 1
-33.247401 25.939327 -0.258335 42.169955 -0.662545 1.576922 0.044095 -0.011645 -98802.800000 0 0 1
-33.828901 24.754327 -0.748135 41.925302 -0.631719 1.588642 0.052989 -0.001226 -104002.000000 0 0 1
-33.881701 23.694727 0.391465 41.346862 -0.610281 1.561328 0.051327 -0.004109 1101370.000000 0 0 1
-32.548701 23.248827 0.734765 40.005822 -0.620244 1.552429 0.071262 -0.015269 906178.000000 0 0 1
-32.099501 23.874727 1.900565 40.049878 -0.639504 1.523324 0.072340 -0.025753 642214.000000 0 0 1
-30.563701 23.590727 2.176865 38.670415 -0.657342 1.514474 0.064661 -0.032557 1577450.000000 0 0 1
-29.557601 24.292627 1.452665 38.286992 -0.687937 1.532846 0.069554 -0.030854 396450.000000 0 0 1
-29.364201 25.698227 1.792265 39.062353 -0.718918 1.524898 0.033427 -0.022125 -375524.000000 0 0 1
-28.760301 26.607027 0.734165 39.187087 -0.746527 1.552060 0.023664 -0.013220 -140050.000000 0 0 1
-27.481701 26.195627 0.320165 37.967845 -0.761443 1.562364 0.034108 -0.021194 -152853.000000 0 0 1
-26.928201 27.081027 -0.677535 38.196454 -0.788228 1.588535 0.034612 -0.017421 207875.000000 0 0 1
-25.715901 26.520927 -1.435935 36.969299 -0.800808 1.609647 0.031432 -0.012420 -391742.000000 0 0 1
-26.066801 25.528727 -2.331235 36.559933 -0.774970 1.634604 0.062336 -0.027447 -598125.000000 0 0 1
-25.049301 24.769827 -2.908035 35.347822 -0.779788 1.653159 0.051179 -0.019932 -294371.000000 0 0 1
-24.167001 23.824927 -2.059735 33.998729 -0.778271 1.631416 0.039417 -0.015381 44288.500000 0 0 1
-24.728201 22.571327 -1.712435 33.524337 -0.739829 1.621899 0.041762 -0.020818 603753.000000 0 0 1
-23.732501 21.812527 -0.968135 32.248337 -0.743268 1.600822 0.032443 -0.026243 361923.000000 0 0 1
-24.306101 20.441327 -0.417635 31.761751 -0.699243 1.583946 0.043238 -0.025033 133609.000000 0 0 1
-25.259001 20.532127 0.643065 32.557625 -0.682536 1.551043 0.036084 -0.026792 526049.000000 0 0 1
-26.544201 21.051427 0.397265 33.880895 -0.670501 1.559071 0.039936 -0.023689 87331.300000 0 0 1
-27.472101 20.548227 -0.742335 34.314677 -0.642199 1.592431 0.049057 -0.027178 -447037.000000 0 0 1
-27.772001 19.159327 -0.570635 33.744473 -0.603901 1.587708 0.053330 -0.021957 -228623.000000 0 0 1
-28.715301 18.721427 -1.471335 34.310715 -0.577757 1.613692 0.071131 -0.019592 -456666.000000 0 0 1
-29.040001 17.186727 -1.498135 33.777947 -0.534390 1.615163 0.067393 -0.013030 103139.000000 0 0 1
-29.760101 16.717727 -0.352435 34.136055 -0.511819 1.581121 0.068462 -0.016266 481856.000000 0 0 1
-29.876001 15.322627 -0.306335 33.577555 -0.473894 1.579920 0.074955 -0.015596 744210.000000 0 0 1
-28.558801 14.540627 0.118565 32.047606 -0.470938 1.567097 0.081167 -0.016544 525175.000000 0 0 1
-28.330301 14.622827 1.513065 31.917431 -0.476488 1.523373 0.079488 -0.020203 852022.000000 0 0 1
-27.046001 14.161627 1.962365 30.592299 -0.482359 1.506607 0.078547 -0.027104 669158.000000 0 0 1
-26.710901 12.607027 1.796565 29.591165 -0.440982 1.510046 0.093691 -0.020475 -292577.000000 0 0 1
-26.437001 12.162227 0.486765 29.104497 -0.431176 1.554071 0.090206 -0.018431 469175.000000 0 0 1
-26.071201 10.760027 0.436065 28.207727 -0.391421 1.555337 0.100765 -0.012134 -166397.000000 0 0 1
-26.309301 10.103227 -0.921235 28.197575 -0.366653 1.603473 0.109564 -0.010145 -319505.000000 0 0 1
-27.597701 9.715927 -1.332435 29.288355 -0.338505 1.616306 0.106459 -0.018861 1083.500000 0 0 1
-27.576401 9.063927 -2.553635 29.139899 -0.317560 1.658543 0.108695 -0.022503 -976903.000000 0 0 1
-28.926101 8.777027 -3.141735 30.391217 -0.294600 1.674358 0.122400 -0.025934 -975785.000000 0 0 1
-28.777401 8.039127 -4.357335 30.195244 -0.272411 1.715607 0.138383 -0.024466 952696.000000 0 0 1
-30.051001 7.725227 -4.941935 31.419175 -0.251622 1.728743 0.129245 -0.027312 562959.000000 0 0 1
-11.568804 17.940027 -19.155135 28.681021 -0.998043 2.302137 0.053376 -0.010186 118826.000000 0 0 1
-11.707804 17.429327 -20.471035 29.324348 -0.979296 2.343523 0.031753 0.001421 -737784.000000 0 0 1
-10.518204 17.542227 -21.169735 29.436712 -1.030676 2.373390 0.026748 0.008594 -738155.000000 0 0 1
-10.447804 16.583927 -22.372535 29.744135 -1.008613 2.422140 0.012303 0.003554 -105384.000000 0 0 1
-10.171304 15.238627 -22.027835 28.651295 -0.982239 2.447798 0.023441 -0.002633 -199272.000000 0 0 1
-10.272904 14.403827 -23.191035 29.168937 -0.951262 2.489902 0.009421 -0.005106 -534557.000000 0 0 1
-9.695304 13.024627 -23.076535 28.216419 -0.930900 2.528445 0.004906 -0.001139 584806.000000 0 0 1
-8.259504 12.992727 -23.055635 27.723504 -1.004538 2.552829 0.010461 -0.006291 769385.000000 0 0 1
-7.775004 11.717927 -22.626335 26.640411 -0.984980 2.585499 0.005668 0.000071 416395.000000 0 0 1
-6.242504 11.559927 -22.481035 26.038389 -1.075653 2.612728 0.016765 -0.002396 474262.000000 0 0 1
-5.547904 11.122427 -23.643335 26.711325 -1.108106 2.657597 0.007990 -0.009520 904744.000000 0 0 1
-4.116604 11.182727 -23.456435 26.309773 -1.218070 2.671549 0.028566 -0.015448 827442.000000 0 0 1
-3.355704 10.774627 -24.686835 27.143934 -1.268873 2.712825 0.050100 -0.022719 -568914.000000 0 0 1
-3.486904 9.422427 -25.070335 27.008560 -1.216360 2.760440 0.044790 -0.018633 -56762.000000 0 0 1
-3.062004 9.375227 -26.396415 28.178741 -1.255113 2.784020 0.046910 -0.020719 -380247.000000 0 0 1
-2.944404 7.917527 -26.872865 28.169267 -1.214760 2.837030 0.059360 -0.006505 355350.000000 0 0 1
-1.776004 7.163727 -26.475615 27.485112 -1.327780 2.869725 0.062428 -0.016706 770802.000000 0 0 1
-1.723304 6.779527 -25.091095 26.047933 -1.321876 2.869707 0.067565 -0.023913 140974.000000 0 0 1
-0.374604 6.058727 -24.770935 25.503877 -1.509046 2.901271 0.019909 -0.016465 445529.000000 0 0 1
0.395296 6.813427 -23.843435 24.800976 1.512844 2.862809 0.038098 -0.014246 253495.000000 0 1 0
1.400996 5.949527 -23.299335 24.087729 1.339529 2.885038 0.035055 -0.002468 326230.000000 0 1 0
1.841996 6.378327 -21.875935 22.861158 1.289655 2.846943 0.040962 -0.010250 85679.700000 0 1 0
2.275496 7.705027 -21.895335 23.322757 1.283633 2.789918 0.024396 -0.018841 11479.500000 0 1 0
2.135396 8.350327 -20.621835 22.350569 1.320436 2.745703 0.031556 -0.013775 -222906.000000 0 1 0
2.861096 9.682727 -20.623635 22.962478 1.283487 2.686329 0.029534 -0.017657 -522072.000000 0 1 0
2.619396 10.458727 -19.533835 22.311811 1.325393 2.637251 0.033986 -0.019745 69205.500000 0 1 0
3.236296 11.721927 -19.667435 23.123261 1.301418 2.587822 0.032512 -0.018668 164548.000000 0 1 0
4.648096 11.858827 -19.063035 22.926750 1.197247 2.552555 0.024427 -0.008511 -263815.000000 0 1 0
5.683096 11.037827 -19.520735 23.134180 1.095320 2.575131 0.030491 -0.010477 -419426.000000 0 1 0
6.460896 10.780227 -18.349935 22.241326 1.030871 2.541065 0.024012 -0.010500 -116879.000000 0 1 0
7.501896 9.686127 -18.631635 22.298819 0.911799 2.559918 0.048234 -0.021899 -176436.000000 0 1 0
6.887096 8.435227 -18.817135 21.740969 0.886094 2.616974 0.043637 -0.022383 104808.000000 0 1 0
6.704696 8.220027 -20.232435 22.844545 0.886583 2.658704 0.041712 -0.013149 -45675.900000 0 1 0
6.538596 6.685927 -20.478335 22.512598 0.796538 2.713210 0.054918 -0.013437 -406814.000000 0 1 0
7.735796 5.967827 -20.404935 22.623414 0.657092 2.695034 0.056858 -0.015345 -309205.000000 0 1 0
7.692196 4.607927 -20.882535 22.726265 0.539713 2.736009 0.055000 -0.000677 -613537.000000 0 1 0
7.648396 4.478727 -22.439835 24.126814 0.529747 2.765423 0.065653 -0.005934 -569222.000000 0 1 0
6.447696 4.951127 -22.977035 24.372743 0.654853 2.801533 0.062832 -0.014543 -332435.000000 0 1 0
6.343996 4.695627 -24.352935 25.600013 0.637179 2.828177 0.068804 -0.017114 520901.000000 0 0 1
5.276096 5.581927 -25.124265 26.272110 0.813557 2.844902 0.051039 -0.017062 468407.000000 0 0 1
5.553896 6.965127 -25.158155 26.688790 0.897651 2.801275 0.066888 -0.028987 216937.000000 0 0 1
5.231596 7.709127 -23.964435 25.711756 0.974561 2.770804 0.076317 -0.034844 -648469.000000 0 0 1
5.147396 9.263227 -24.273635 26.486080 1.063602 2.729957 0.085177 -0.043234 -271033.000000 0 0 1
4.084496 9.669627 -25.089585 27.196913 1.171126 2.745345 0.083208 -0.044202 -400675.000000 0 0 1
2.907696 9.828027 -24.341135 26.410900 1.283144 2.743062 0.062199 -0.045754 -1521440.000000 0 0 1
1.617596 9.842027 -25.089975 26.999795 1.407897 2.763216 0.068226 -0.031733 -1038950.000000 0 0 1
1.488996 11.060327 -25.793775 28.104568 1.436976 2.733246 0.082981 -0.042288 -240538.000000 0 0 1
0.224896 11.176427 -26.389065 28.659132 1.550677 2.740899 0.096060 -0.041942 -342801.000000 0 0 1
-0.150104 12.648027 -26.737665 29.578672 -1.558929 2.699716 0.093721 -0.043603 -162884.000000 0 0 1
-0.497404 13.429727 -25.638025 28.946732 -1.533776 2.658789 0.086989 -0.042920 -89957.300000 0 0 1
-0.552304 14.814527 -25.955435 29.890799 -1.533532 2.622646 0.085823 -0.043387 -191738.000000 0 0 1
-1.042004 15.606827 -24.736235 29.266707 -1.504129 2.577737 0.090424 -0.041064 -587162.000000 0 0 1
-2.230604 15.108827 -24.213735 28.627909 -1.424219 2.578876 0.076865 -0.035069 -691129.000000 0 0 1
-2.486904 15.689727 -22.949035 27.910758 -1.413599 2.536113 0.076071 -0.040680 674220.000000 0 0 1
-3.888204 15.287427 -22.326035 27.336338 -1.321737 2.526494 0.060100 -0.032031 1303890.000000 0 0 1
-5.082604 15.713327 -22.956135 28.279421 -1.257960 2.517958 0.050211 -0.027600 40403.200000 0 0 1
-5.422704 15.198827 -24.220935 29.104359 -1.228090 2.553878 0.054758 -0.030691 994854.000000 0 0 1
-6.981904 15.319127 -24.544335 29.763182 -1.143160 2.540387 0.025893 -0.021345 1138600.000000 0 0 1
-7.411304 16.630427 -24.825535 30.786453 -1.151568 2.508799 0.021562 -0.015922 -263220.000000 0 0 1
-8.577404 16.508727 -25.592675 31.640084 -1.091617 2.513022 0.015172 -0.009578 -122218.000000 0 0 1
-9.358304 17.784027 -26.078505 32.923212 -1.086394 2.485040 0.014769 -0.008003 44975.600000 0 0 1
-9.797304 18.650627 -25.084835 32.757930 -1.087109 2.443024 0.014825 -0.009089 368873.000000 0 0 1
-10.936504 19.394027 -25.511185 33.860832 -1.057336 2.424033 0.021931 -0.004987 561184.000000 0 0 1
-11.439204 20.527927 -24.564535 33.995110 -1.062403 2.378338 0.025795 -0.002669 -122120.000000 0 0 1
-10.508504 21.573127 -24.452735 34.260249 -1.117513 2.365613 0.022248 -0.002584 -49683.900000 0 0 1
-11.032304 22.833027 -24.763135 35.443923 -1.120701 2.344315 0.033771 -0.011760 -190328.000000 0 0 1
-10.618004 23.312927 -26.193715 36.638030 -1.143415 2.367324 0.029451 -0.015472 -60157.900000 0 0 1
-11.181504 22.524927 -27.252705 37.082452 -1.110028 2.396348 0.024941 -0.011501 161251.000000 0 0 1
-10.947204 23.074927 -28.530805 38.292301 -1.127821 2.411450 0.031987 -0.013641 -435129.000000 0 0 1
-11.506404 22.225627 -29.680345 38.823945 -1.093082 2.441039 0.039634 -0.023446 -412520.000000 0 0 1
-10.823804 21.113727 -30.157795 38.372344 -1.097086 2.474987 0.033505 -0.019191 -380942.000000 0 0 1
-10.923204 19.966527 -29.327945 37.122863 -1.070201 2.481644 0.028891 -0.011889 -483752.000000 0 0 1
-9.890004 18.910927 -29.687415 36.561974 -1.088936 2.518324 0.021366 -0.013730 -764416.000000 0 0 1
-8.591604 19.428127 -29.535205 36.381260 -1.154427 2.518067 0.016115 -0.016347 1247420.000000 0 0 1
-7.422304 18.621627 -29.954735 36.043609 -1.191510 2.551824 0.013710 -0.013510 1815150.000000 0 0 1
-7.161504 17.276327 -29.204945 34.679784 -1.177830 2.572020 0.018932 -0.020896 -408093.000000 0 0 1
-8.131904 16.281027 -29.537045 34.693468 -1.107572 2.589391 0.013357 -0.017937 572079.000000 0 0 1
-7.783204 15.087127 -28.876515 33.497056 -1.094523 2.610119 0.000065 -0.009395 687554.000000 0 0 1
-9.088204 14.236927 -28.709665 33.309614 -1.002651 2.609808 0.001268 -0.003459 631012.000000 0 0 1
-10.001904 14.602927 -27.711085 32.881420 -0.970260 2.573183 0.005552 -0.007722 -945421.000000 0 0 1
-11.130104 13.806927 -27.738735 32.923363 -0.892332 2.572749 0.035610 -0.011707 -90322.700000 0 0 1
-12.235404 14.440327 -26.814395 32.821333 -0.867867 2.526952 0.023690 -0.007429 405986.000000 0 0 1
-12.809904 15.637927 -27.308085 33.976019 -0.884483 2.504361 0.021518 -0.002202 472799.000000 0 0 1
-13.816204 16.171127 -26.398885 33.901238 -0.863768 2.463387 0.006321 0.000373 729111.000000 0 0 1
-14.698304 17.292427 -26.947825 35.231427 -0.866311 2.441652 -0.005567 0.008347 -305865.000000 0 0 1
-14.035704 18.519727 -27.027215 35.643395 -0.922272 2.431447 0.000011 0.007955 -156955.000000 0 0 1
-14.907404 19.551627 -27.400995 36.814553 -0.919366 2.410279 -0.004389 0.003459 -497444.000000 0 0 1
-14.295604 20.998927 -27.313825 37.300995 -0.973088 2.392423 0.010517 -0.002580 102412.000000 0 0 1
-15.244904 22.039627 -27.568945 38.447353 -0.965660 2.370367 0.001901 -0.009243 153756.000000 0 0 1
-14.741304 23.335827 -27.558995 39.004680 -1.007392 2.355416 0.019346 -0.010788 -272148.000000 0 0 1
-14.607804 24.033727 -26.129165 38.389337 -1.024658 2.319427 -0.007022 -0.002952 -59876.200000 0 0 1
-13.833504 25.193927 -26.200815 38.891933 -1.068659 2.309977 0.021963 -0.015697 -32491.500000 0 0 1
-13.758104 25.849027 -24.960435 38.477018 -1.081684 2.276685 0.035546 -0.020546 -66234.400000 0 0 1
-13.394204 27.319227 -25.206575 39.510964 -1.114951 2.262648 0.059801 -0.026124 127512.000000 0 0 1
-14.449104 28.136827 -25.682515 40.743701 -1.096383 2.252792 0.062317 -0.030334 165534.000000 0 0 1
-15.031404 28.931127 -24.641035 40.867270 -1.091625 2.217994 0.060506 -0.024742 619412.000000 0 0 1
-16.528304 29.342927 -24.772435 41.807484 -1.057814 2.205000 0.058767 -0.022976 170772.000000 0 0 1
-17.426204 28.303527 -24.919135 41.541852 -1.018920 2.214118 0.037600 -0.020723 -295929.000000 0 0 1
-18.675104 28.849527 -25.357755 42.709138 -0.996302 2.206484 0.024441 -0.011329 -282419.000000 0 0 1
-19.798504 27.858827 -25.267095 42.503189 -0.952943 2.207409 0.024604 -0.002365 -1132770.000000 0 0 1
-20.195004 27.759527 -23.892735 41.824542 -0.941853 2.178838 0.035377 -0.009883 24302.400000 0 0 1
-21.137104 26.691327 -23.776835 41.527605 -0.901008 2.180415 0.043283 -0.021909 69954.900000 0 0 1
-21.705104 26.587427 -22.312735 40.937280 -0.886155 2.147241 0.043780 -0.015420 -113640.000000 0 0 1
-22.764104 27.470127 -22.052035 41.941680 -0.878807 2.124426 0.039074 -0.013206 -157561.000000 0 0 1
-23.119204 27.554427 -20.690435 41.495037 -0.872701 2.092807 0.025954 -0.010770 10890.000000 0 0 1
-24.444304 28.302627 -20.412135 42.605374 -0.858416 2.070423 0.013748 -0.002818 240871.000000 0 0 1
-25.605944 27.648727 -20.884135 43.084377 -0.823738 2.076847 0.008185 -0.003404 358218.000000 0 0 1
-26.657084 28.604427 -21.123635 44.441212 -0.820622 2.066120 0.019503 -0.002003 877374.000000 0 0 1
-28.007644 27.929227 -21.502835 45.020459 -0.783996 2.068744 0.005569 -0.003531 116423.000000 0 0 1
-28.000074 27.518127 -22.855735 45.427261 -0.776717 2.098011 0.001383 0.000447 130672.000000 0 0 1
-29.290044 27.028227 -23.204435 46.118082 -0.745258 2.098039 -0.008269 -0.000375 171424.000000 0 0 1
-29.382554 26.501627 -24.659635 46.623688 -0.733892 2.128110 -0.008727 0.007362 -10169.700000 0 0 1
-29.005224 25.152027 -24.838835 45.726307 -0.714370 2.145048 0.005032 0.003950 -128214.000000 0 0 1
-29.016524 24.913627 -26.232955 46.376884 -0.709466 2.172014 0.022950 -0.000791 -7804.370000 0 0 1
-29.047364 23.407127 -26.576995 45.803707 -0.678283 2.189816 0.029941 -0.002752 161261.000000 0 0 1
-27.792494 22.779027 -26.354565 44.563100 -0.686585 2.203589 0.033409 -0.005560 282305.000000 0 0 1
-27.775244 21.593027 -27.102945 44.410501 -0.660820 2.227213 0.054696 -0.017021 -31914.700000 0 0 1
-26.593884 20.725227 -26.640435 42.970716 -0.662005 2.239497 0.051859 -0.015931 -35430.200000 0 0 1
-26.765104 20.122127 -25.400045 42.028955 -0.644655 2.219742 0.057893 -0.007349 16640.600000 0 0 1
-26.145564 18.830027 -25.479055 41.077277 -0.624155 2.239885 0.050830 -0.012855 -418353.000000 0 0 1
-27.025474 17.603927 -25.380335 41.041879 -0.577347 2.237503 0.053087 -0.011747 -302348.000000 0 0 1
-27.817124 17.338427 -26.543535 42.177869 -0.557376 2.251479 0.056284 -0.013887 464619.000000 0 0 1
-28.492134 16.085727 -26.432445 42.062173 -0.513958 2.250309 0.028018 -0.019703 -169141.000000 0 0 1
-29.320874 15.726227 -27.687665 43.285501 -0.492302 2.264842 0.027219 -0.022305 367379.000000 0 0 1
-30.546994 16.452427 -27.778715 44.446127 -0.494044 2.245925 0.016099 -0.017494 231141.000000 0 0 1
-31.236314 16.111227 -28.957565 45.539208 -0.476196 2.259947 0.019941 -0.010542 -313794.000000 0 0 1
-32.549064 16.851927 -29.182935 46.851603 -0.477738 2.243215 0.011701 -0.007633 -382058.000000 0 0 1
-33.610994 16.409827 -28.367625 46.943620 -0.454186 2.219673 0.001714 -0.008779 261788.000000 0 0 1
-34.861047 16.841527 -28.911755 48.319967 -0.450040 2.212224 0.005954 -0.010866 29892.400000 0 0 1
-36.028854 16.608227 -27.980925 48.547334 -0.431939 2.185068 0.001939 -0.002322 -625653.000000 0 0 1
36.098114 17.475527 -26.864215 48.271668 0.450857 2.160989 0.008973 -0.008085 220126.000000 0 0 1
34.983674 17.014027 -26.103385 46.847852 0.452662 2.161800 0.027446 -0.008618 181452.000000 0 0 1
34.349904 18.001127 -25.136185 46.214546 0.482703 2.145876 0.034277 -0.004555 -338396.000000 0 0 1
33.692464 18.969227 -25.881435 46.528082 0.512778 2.160668 0.036187 -0.012215 -168728.000000 0 0 1
33.291694 20.034627 -25.044935 46.227394 0.541735 2.143346 0.043399 -0.012784 -811831.000000 0 0 1
32.867664 21.135027 -25.975425 46.922227 0.571463 2.157459 0.041296 -0.009625 232798.000000 0 0 1
31.569364 20.840527 -26.483055 46.176883 0.583478 2.181584 0.031964 -0.010830 283796.000000 0 0 1
30.529994 21.486827 -25.758745 45.357218 0.613268 2.174759 0.050016 -0.005037 -5212.160000 0 0 1
29.112414 21.257827 -26.335895 44.643109 0.630707 2.201757 0.018594 -0.003521 244905.000000 0 0 1
28.644514 19.973627 -25.997635 43.535399 0.608907 2.210753 0.030450 -0.016500 468828.000000 0 0 1
27.340314 19.740427 -26.555145 42.922639 0.625356 2.237851 0.038224 -0.013873 698716.000000 0 0 1
26.856094 18.256827 -26.466195 41.892971 0.597041 2.254615 0.059732 -0.009536 423569.000000 0 0 1
27.637834 17.394327 -27.328865 42.582618 0.561733 2.267619 0.045233 -0.012007 661463.000000 0 0 1
28.743724 16.797827 -26.642395 42.640191 0.528870 2.245696 0.041184 -0.008246 554910.000000 0 0 1
29.582724 15.828227 -27.584475 43.434705 0.491293 2.258907 0.025351 -0.005316 396168.000000 0 0 1
28.928184 14.641027 -28.118335 42.916666 0.468529 2.285223 0.037753 -0.008814 472586.000000 0 0 1
28.210064 13.769127 -27.193245 41.531544 0.454076 2.284663 0.052049 -0.013295 282200.000000 0 0 1
28.986734 12.933427 -26.092475 41.089190 0.419676 2.258831 0.044323 -0.010537 5132.360000 0 0 1
29.698874 13.769827 -25.202055 41.313131 0.434146 2.226889 0.046571 -0.017529 -443067.000000 0 0 1
30.470094 12.989327 -24.380635 41.128635 0.402969 2.205315 0.039511 -0.018960 -488700.000000 0 0 1
-14.547704 -31.301019 -24.544435 42.353498 1.135730 2.188928 0.101350 -0.009108 -74691.000000 0 0 1
-13.897204 -30.084919 -24.849035 41.421120 1.138064 2.214188 0.097676 -0.014362 211245.000000 0 0 1
-13.951604 -29.664119 -26.169025 41.945501 1.131174 2.244496 0.080112 -0.007376 22115.300000 0 0 1
-13.117204 -28.364719 -26.418405 40.921271 1.137639 2.272593 0.069139 -0.011601 139871.000000 0 0 1
-13.671804 -27.175219 -25.843155 39.915904 1.104673 2.275017 0.067141 -0.015786 127850.000000 0 0 1
-13.052004 -26.109719 -26.449405 39.390903 1.107236 2.306973 0.061743 -0.013155 -413572.000000 0 0 1
-13.619004 -24.818719 -25.936265 38.394478 1.068922 2.312467 0.044375 -0.005044 -144054.000000 0 0 1
-13.270804 -24.645419 -24.595335 37.261796 1.076849 2.291706 0.047173 -0.010520 258288.000000 0 0 1
-13.661404 -23.359419 -24.164135 36.279496 1.041602 2.299703 0.049365 -0.004335 -21440.800000 0 0 1
-13.009904 -22.993519 -22.774135 34.880091 1.055898 2.282238 0.047058 -0.009739 1488550.000000 0 0 1
-11.582504 -22.804219 -22.974935 34.380728 1.100840 2.302651 0.059802 -0.020938 1065690.000000 0 0 1
-11.010904 -22.117919 -21.897735 33.014439 1.108888 2.295986 0.055262 -0.011686 -1006640.000000 0 0 1
-9.535804 -21.880119 -22.043935 32.490095 1.159796 2.316490 0.049163 -0.014860 -1141180.000000 0 0 1
-9.215104 -20.745519 -22.789735 32.166236 1.152778 2.358165 0.057150 -0.014602 16523.700000 0 0 1
-7.821904 -20.652219 -23.011635 31.894070 1.208747 2.376765 0.063491 -0.012373 80334.000000 0 0 1
-7.528804 -19.434819 -23.921935 31.727812 1.201210 2.424887 0.064331 -0.001069 -33983.100000 0 0 1
-7.835204 -18.238719 -23.210235 30.541059 1.165043 2.434061 0.063100 -0.000462 -102095.000000 0 0 1
-8.142004 -17.098519 -23.975735 30.553027 1.126384 2.473049 0.059789 -0.008042 -461067.000000 0 0 1
-6.998604 -16.398219 -24.727735 30.485126 1.167410 2.516897 0.063350 -0.009448 -103179.000000 0 0 1
-6.513204 -17.181519 -25.805515 31.678874 1.208452 2.522830 0.071867 -0.009962 25200.200000 0 0 1
-5.456004 -16.566219 -26.515835 31.737944 1.252639 2.559769 0.055369 -0.013605 7136.880000 0 0 1
-5.112704 -17.162519 -27.902495 33.154804 1.281268 2.571002 0.067184 -0.007858 722990.000000 0 0 1
-6.155604 -17.007719 -28.928595 34.117702 1.223533 2.582819 0.090618 -0.014512 956933.000000 0 0 1
-5.923604 -17.899219 -30.024545 35.453412 1.251200 2.580874 0.086185 -0.021521 -475291.000000 0 0 1
-6.803004 -17.539919 -31.181475 36.417221 1.200801 2.598721 0.092035 -0.017004 -122129.000000 0 0 1
-6.331004 -16.421319 -31.986795 36.508854 1.202821 2.638588 0.087775 -0.014006 145662.000000 0 0 1
-6.408904 -15.175819 -31.352375 35.416817 1.171206 2.657806 0.075822 -0.015048 399280.000000 0 0 1
-7.229404 -14.114319 -32.218525 35.909771 1.097434 2.684202 0.066944 -0.015317 421139.000000 0 0 1
-6.546304 -13.750419 -33.387875 36.697116 1.126467 2.713653 0.066776 -0.026519 230898.000000 0 0 1
-7.394704 -13.069919 34.161534 37.316415 1.055918 0.414157 0.065935 -0.021671 227650.000000 0 0 1
-7.692004 -11.554719 -34.083299 36.801491 0.983462 2.754841 0.047385 -0.017283 -283874.000000 0 0 1
-6.581704 -10.714919 -34.145147 36.387077 1.019960 2.788728 0.035091 -0.017481 -558377.000000 0 0 1
-6.227104 -10.226619 33.060171 35.161562 1.023850 0.347473 0.029206 -0.022385 -389220.000000 0 0 1
-4.890904 -9.460219 33.068424 34.741004 1.093644 0.311563 0.041711 -0.019142 -137388.000000 0 0 1
-4.740704 -8.737319 31.847795 33.363109 1.073667 0.302546 0.036750 -0.012146 -152961.000000 0 0 1
-3.745404 -7.753019 32.005655 33.143616 1.120768 0.262802 0.027369 -0.016084 -782089.000000 0 0 1
-3.709204 -6.741419 30.887155 31.831137 1.067791 0.244146 0.019541 -0.014830 212300.000000 0 0 1
-4.873504 -5.937319 30.827565 31.770136 0.883485 0.244198 0.012470 -0.012165 -344099.000000 0 0 1
-5.955604 -6.536219 30.205885 31.473590 0.831844 0.284787 0.019558 -0.010974 -896605.000000 0 0 1
-7.198104 -5.661119 30.025945 31.391374 0.666439 0.296027 0.013789 -0.008475 -906375.000000 0 0 1
-8.352404 -6.273219 29.637325 31.424305 0.644184 0.338861 0.019104 -0.010398 -1383950.000000 0 0 1
-9.465904 -5.411619 29.796175 31.728552 0.519348 0.350804 0.022327 -0.012377 -609669.000000 0 0 1
-10.621504 -6.068719 29.098925 31.565696 0.519096 0.397962 0.035652 -0.014922 -1085710.000000 0 0 1
-10.267204 -6.162219 27.743775 30.217635 0.540555 0.407456 0.032032 -0.011644 835208.000000 0 0 1
-11.225304 -6.843419 26.897545 29.938566 0.547479 0.454628 0.033758 -0.022411 413077.000000 0 0 1
-10.921804 -6.504319 25.399545 28.402973 0.537130 0.464029 0.028115 -0.018868 283867.000000 0 0 1
-9.742204 -7.132719 24.913555 27.685221 0.631977 0.451287 0.034671 -0.017064 557593.000000 0 0 1
-9.155504 -6.531719 23.731645 26.261713 0.619676 0.442557 0.032097 -0.017703 -220629.000000 0 0 1
-9.882804 -6.723419 22.384745 25.376189 0.597392 0.490460 0.028749 -0.021353 180966.000000 0 0 1
-11.047204 -5.887619 22.324745 25.594902 0.489660 0.511045 0.018629 -0.018722 -446861.000000 0 0 1
-11.802404 -6.190419 21.221045 25.058946 0.483059 0.560771 0.019380 -0.016406 -522124.000000 0 0 1
-13.051504 -5.282619 21.278845 25.515428 0.384596 0.584551 0.018865 -0.006773 -301565.000000 0 0 1
-12.761704 -3.951019 21.000345 24.889478 0.300240 0.566576 0.021340 -0.004045 188098.000000 0 1 0
-13.892904 -3.065119 20.975745 25.345406 0.217146 0.595986 0.032638 -0.004476 534822.000000 0 0 1
-13.592204 -1.622119 20.399145 24.566326 0.118780 0.591025 0.023033 -0.010420 918893.000000 0 1 0
-12.542904 -0.952119 21.180645 24.634340 0.075764 0.535915 0.019963 -0.016342 926940.000000 0 1 0
-12.473704 0.432881 20.977845 24.410052 -0.034690 0.536714 0.025156 -0.019462 -524247.000000 0 1 0
-12.041904 1.033881 19.575345 23.005879 -0.085647 0.553130 0.018219 -0.028951 -209164.000000 0 1 0
-12.966304 0.927881 18.504845 22.614493 -0.071439 0.612395 0.029937 -0.022270 726426.000000 0 1 0
-14.221104 1.610881 18.714345 23.559742 -0.112793 0.652883 0.033999 -0.013146 923588.000000 0 1 0
-15.411704 1.153881 17.825145 23.592114 -0.074731 0.714295 0.051698 -0.009866 86391.400000 0 1 0
-15.639704 -0.235119 18.043745 23.879538 0.015032 0.714203 0.039168 -0.014500 142122.000000 0 1 0
-16.637704 -0.784119 17.224245 23.960439 0.047094 0.768633 0.042994 -0.010777 -140098.000000 0 1 0
-16.673604 -2.347119 17.334545 24.166185 0.139850 0.770868 0.041670 -0.007632 28539.600000 0 1 0
-17.146604 -2.754119 18.612945 25.456491 0.159262 0.750765 0.049390 -0.006416 31692.100000 0 0 1
-16.982004 -4.197819 18.679345 25.591562 0.242334 0.752617 0.059990 -0.001525 190675.000000 0 0 1
-17.700104 -4.746119 19.956145 27.093672 0.261978 0.742824 0.061514 0.002021 61074.500000 0 0 1
-17.192404 -4.153519 21.130745 27.556104 0.237048 0.696914 0.057653 -0.003463 -343350.000000 0 0 1
-18.038904 -4.203419 22.229645 28.934891 0.228934 0.694671 0.055438 -0.001772 -358839.000000 0 0 1
-18.406704 -5.592019 22.784545 29.819673 0.294943 0.701186 0.059951 0.003704 571908.000000 0 0 1
-17.289204 -6.271719 23.375645 29.743433 0.347991 0.666631 0.042421 -0.000895 334682.000000 0 0 1
-16.511104 -7.064319 22.550845 28.828142 0.404284 0.672525 0.038808 0.004296 -624797.000000 0 0 1
-15.376104 -7.688719 23.377545 29.018108 0.463682 0.634076 0.037507 0.000451 -225352.000000 0 0 1
-15.784804 -8.780919 24.214355 30.209263 0.507659 0.640907 0.042423 -0.009705 -57232.800000 0 0 1
-14.829904 -9.038919 25.196515 30.602165 0.547380 0.603495 0.050489 -0.008891 -233971.000000 0 0 1
-15.392104 -9.814519 26.375165 32.076330 0.567632 0.605421 0.043912 -0.011727 -74884.100000 0 0 1
-15.513704 -11.215319 26.051465 32.328582 0.625950 0.633714 0.047582 -0.017035 -15233.700000 0 0 1
-14.929204 -11.946119 27.128845 33.189835 0.674854 0.613941 0.040174 -0.019868 -48826.900000 0 0 1
-14.914004 -13.497719 26.891455 33.582232 0.735591 0.642226 0.027239 -0.021616 452353.000000 0 0 1
-16.068704 -14.140219 27.464155 34.819949 0.721646 0.662027 0.032385 -0.025558 571208.000000 0 0 1
-16.265804 -15.517019 27.126665 35.230813 0.761843 0.692002 0.041495 -0.015985 -72935.600000 0 0 1
-15.386504 -16.546019 27.874375 35.881695 0.821694 0.681163 0.037155 -0.013096 1141320.000000 0 0 1
-13.993004 -16.465919 27.506925 34.979445 0.866409 0.665879 0.042893 -0.014561 616743.000000 0 0 1
-13.120904 -17.109619 28.377545 35.639616 0.916584 0.649748 0.046934 -0.018073 -477246.000000 0 0 1
-11.863004 -17.500919 27.595845 34.764115 0.975091 0.653760 0.042241 -0.019368 112960.000000 0 0 1
-10.843504 -18.149819 28.383195 35.392136 1.032258 0.640222 0.052224 -0.033532 571548.000000 0 0 1
-9.846404 -18.650219 27.512865 34.666123 1.085039 0.654006 0.036340 -0.027187 1267690.000000 0 0 1
-8.536804 -19.247519 28.219145 35.208865 1.153338 0.641033 0.053238 -0.033582 1066260.000000 0 0 1
-8.775404 -20.519519 28.738565 36.386309 1.166674 0.660284 0.049051 -0.022167 -143547.000000 0 0 1
-7.600104 -21.056519 29.282345 36.859114 1.224410 0.652712 0.059913 -0.024112 -232202.000000 0 0 1
-7.793504 -22.303719 30.131235 38.289501 1.234633 0.664975 0.052824 -0.021402 170476.000000 0 0 1
-8.162604 -23.430619 29.346195 38.429431 1.235571 0.701866 0.041139 -0.023132 108392.000000 0 0 1
-8.551504 -24.571119 30.143015 39.817954 1.235877 0.712055 0.038603 -0.020555 -84130.200000 0 0 1
-8.627604 -25.858819 29.360445 40.064321 1.248767 0.748320 0.038248 -0.018220 -45338.500000 0 0 1
-9.748704 -25.964419 28.484665 39.756313 1.211619 0.772051 0.047282 -0.021273 284868.000000 0 0 1
-9.661904 -27.049519 27.557505 39.805087 1.227728 0.806109 0.041795 -0.019684 15440.700000 0 0 1
-10.977104 -27.303019 26.759025 39.774327 1.188526 0.832848 0.035205 -0.010384 313514.000000 0 0 1
-11.098804 -26.478519 25.605235 38.469774 1.173880 0.842507 0.040711 -0.010654 101439.000000 0 0 1
-11.553304 -25.148919 25.804165 37.839158 1.140157 0.820380 0.035322 -0.010886 -350237.000000 0 0 1
-11.784604 -24.503719 24.433895 36.555771 1.122520 0.838740 0.042854 -0.020827 -31579.400000 0 0 1
-12.922304 -25.000319 23.750845 36.825325 1.093732 0.869826 0.024733 -0.008488 129170.000000 0 0 1
-13.030204 -24.488519 22.457345 35.690421 1.081804 0.890239 0.031035 -0.014971 -391974.000000 0 0 1
-14.433404 -24.676119 21.883545 36.001716 1.041543 0.917450 0.028586 -0.010048 -356484.000000 0 0 1
-14.751804 -26.051419 21.599445 36.916503 1.055557 0.945806 0.033687 -0.006083 587030.000000 0 0 1
-15.974404 -26.159019 20.851545 37.071051 1.022572 0.973420 0.037415 -0.004374 648644.000000 0 0 1
-16.172804 -27.556819 20.289445 37.849696 1.040073 1.005042 0.037149 -0.002973 426909.000000 0 0 1
-15.199304 -27.804119 19.275045 37.089288 1.070524 1.024305 0.028413 0.000374 282463.000000 0 0 1
-15.382204 -29.073019 18.692145 37.831851 1.084150 1.054014 0.034042 0.008352 602391.000000 0 0 1
-14.412504 -29.380219 17.479045 37.100331 1.114736 1.080226 0.028410 -0.004698 703535.000000 0 0 1
-14.794304 -28.727219 16.242145 36.165340 1.095227 1.105030 0.031674 -0.014639 744364.000000 0 0 1
-13.665404 -28.714419 15.325345 35.300529 1.126608 1.121714 0.035733 -0.009442 747368.000000 0 0 1
-13.893404 -28.062719 13.972245 34.289452 1.111089 1.151104 0.026935 -0.006606 -212950.000000 0 0 1
-13.892604 -26.629519 14.001745 33.138868 1.089940 1.134575 0.027569 -0.010643 -123020.000000 0 0 1
-14.021204 -25.981019 12.713145 32.143920 1.075918 1.164177 0.031779 -0.032194 57288.300000 0 0 1
-13.162604 -26.438819 11.534445 31.706604 1.108869 1.198466 0.036112 -0.019270 -82728.200000 0 0 1
-13.615204 -25.752019 10.370045 30.920513 1.084450 1.228790 0.039419 -0.014018 27694.900000 0 0 1
-12.896304 -26.043619 9.186345 30.479070 1.111011 1.264637 0.044246 -0.009968 -214562.000000 0 0 1
-13.475804 -25.425419 7.910945 29.843463 1.083428 1.302508 0.063477 -0.018644 28631.500000 0 0 1
-14.479504 -26.234019 7.328845 30.847881 1.066468 1.330922 0.047522 -0.005143 -203827.000000 0 0 1
-14.981004 -25.760219 6.140245 30.425680 1.044049 1.367589 0.062143 -0.004802 -482186.000000 0 0 1
-16.006904 -26.727419 5.566745 31.647505 1.031190 1.393978 0.069819 -0.012362 -273549.000000 0 0 1
-15.504904 -27.879119 4.883045 32.272147 1.063246 1.418905 0.096049 -0.003994 -52646.400000 0 0 1
-15.626104 -27.503719 3.532645 31.829378 1.054129 1.459580 0.077978 -0.009462 -276286.000000 0 0 1
-15.190304 -28.466119 2.418945 32.356090 1.080610 1.495966 0.071684 -0.012106 -666072.000000 0 0 1
-13.818604 -28.484519 2.184945 31.734770 1.119118 1.501892 0.057254 -0.002277 -867189.000000 0 0 1
-13.544104 -29.638119 1.456645 32.618747 1.142151 1.526125 0.047599 -0.004915 387596.000000 0 0 1
-12.085304 -29.620719 0.899145 32.003907 1.183411 1.542698 0.030459 -0.004986 463119.000000 0 0 1
-11.914104 -28.921519 -0.349655 31.281343 1.180034 1.581974 0.036844 -0.002001 -65571.800000 0 0 1
-11.832804 -27.493419 -0.207655 29.932365 1.164372 1.577734 0.030245 -0.002644 -420973.000000 0 0 1
-11.562604 -26.776419 -1.520055 29.205839 1.163163 1.622866 0.030987 -0.000994 -525917.000000 0 0 1
-10.448304 -27.181519 -2.223155 29.205213 1.203819 1.646992 0.023620 -0.005399 -1030970.000000 0 0 1
-10.119504 -26.341719 -3.320955 28.413364 1.204017 1.687944 0.036317 -0.008897 -565814.000000 0 0 1
-8.818804 -26.784319 -3.916255 28.469424 1.252723 1.708794 0.023528 -0.009356 -695957.000000 0 0 1
-8.372404 -25.977119 -4.982655 27.744094 1.259009 1.751369 0.028098 -0.008339 -490021.000000 0 0 1
-7.031804 -26.254519 -5.307555 27.693252 1.309106 1.763645 0.022833 -0.000449 178460.000000 0 0 1
-6.301604 -25.139919 -6.085255 26.622473 1.325195 1.801411 0.018997 -0.002632 -147631.000000 0 0 1
-6.820604 -24.909719 -7.339455 26.849252 1.303534 1.847678 0.027900 -0.007652 -278767.000000 0 0 1
-6.157304 -23.827319 -7.985755 25.873265 1.317915 1.884569 0.022728 -0.003430 -223362.000000 0 0 1
-6.485504 -23.772519 -9.474155 26.399887 1.304462 1.937854 0.033766 -0.009494 -251261.000000 0 0 1
-5.816704 -24.816619 -10.111255 27.421454 1.340565 1.948444 0.019798 -0.006294 -244218.000000 0 0 1
-6.090004 -24.894319 -11.516955 28.097251 1.330874 1.993137 0.015608 0.005556 -542473.000000 0 0 1
-7.401804 -25.449219 -12.028055 29.105387 1.287759 1.996826 0.024524 -0.001778 -519193.000000 0 0 1
-7.447104 -25.365119 -13.444055 29.657904 1.285225 2.041265 0.029995 -0.000872 961675.000000 0 0 1
-8.514404 -26.234119 -13.962655 30.914072 1.256967 2.039422 0.045139 -0.003911 608105.000000 0 0 1
-8.609804 -26.178019 -15.528055 31.631281 1.253046 2.083928 0.048903 -0.008976 67363.200000 0 0 1
-7.517604 -26.745319 -16.202155 32.161099 1.296785 2.098767 0.042792 -0.014732 73259.800000 0 0 1
-6.321804 -25.987719 -16.320055 31.331629 1.332170 2.118679 0.046819 -0.010023 368416.000000 0 0 1
-5.236104 -26.817719 -17.091055 32.229040 1.377974 2.129751 0.041353 -0.009938 -156831.000000 0 0 1
-5.258304 -26.766819 -18.507455 32.964197 1.376818 2.166923 0.075120 -0.020144 -36926.500000 0 0 1
-4.307304 -27.481319 -19.266755 33.837607 1.415326 2.176559 0.071639 -0.026033 -115898.000000 0 0 1
-24.473604 14.464827 -5.414835 28.939746 -0.533804 1.759013 0.054890 -0.019389 186337.000000 0 0 1
-24.786304 13.175927 -4.947135 28.503334 -0.488592 1.745243 0.059473 -0.013884 449925.000000 0 0 1
-23.560004 12.479227 -5.013435 27.128203 -0.487108 1.756670 0.055744 -0.014312 -303201.000000 0 0 1
-23.668604 10.926827 -4.723735 26.493622 -0.432507 1.750052 0.057433 -0.020130 -243332.000000 0 0 1
-24.208204 10.092927 -5.724835 26.845447 -0.395008 1.785698 0.060578 -0.027419 1453060.000000 0 0 1
-25.649254 10.170427 -5.907535 28.217384 -0.377502 1.781715 0.084172 -0.028738 1206610.000000 0 0 1
-26.147014 9.637327 -7.284335 28.802881 -0.353132 1.826476 0.089853 -0.021326 -19154.900000 0 0 1
-25.660164 10.390627 -8.380235 28.924686 -0.384751 1.864737 0.092829 -0.005036 -121419.000000 0 0 1
-26.100124 9.848527 -9.607135 29.504355 -0.360817 1.902461 0.098055 -0.016431 -122718.000000 0 0 1
-26.375944 10.854227 -10.768535 30.487145 -0.390398 1.931802 0.079798 -0.019570 107317.000000 0 0 1
-25.249204 11.444927 -11.403135 29.975659 -0.425577 1.961039 0.059533 -0.016705 129074.000000 0 0 1
-25.694314 12.275627 -12.403235 31.060087 -0.445695 1.981583 0.067961 -0.017033 110094.000000 0 0 1
-24.729904 13.478727 -12.715035 30.901720 -0.499025 1.994859 0.050029 -0.013722 44609.300000 0 0 1
-24.625104 14.522927 -11.828335 30.938983 -0.532857 1.963093 0.044414 -0.013234 -157443.000000 0 0 1
-23.900804 15.516927 -12.500835 31.117428 -0.575828 1.984203 0.031694 -0.009860 -211687.000000 0 0 1
-23.914404 16.904627 -11.852635 31.593513 -0.615329 1.955366 0.028557 -0.010878 -63429.900000 0 0 1
-22.976204 16.955727 -10.799935 30.529350 -0.635757 1.932380 0.020197 -0.003956 123131.000000 0 0 1
-22.894704 18.220027 -10.225435 30.995102 -0.672186 1.906999 -0.004569 -0.001306 308769.000000 0 0 1
-21.874704 18.296927 -9.025335 29.912152 -0.696570 1.877301 0.008082 -0.002788 181734.000000 0 0 1
-22.411104 17.724927 -7.813435 29.622295 -0.669167 1.837724 0.026074 -0.012515 735886.000000 0 0 1
-23.221704 18.718227 -7.124235 30.665522 -0.678429 1.805259 0.037839 -0.018088 350816.000000 0 0 1
-23.681804 18.209527 -5.725635 30.417061 -0.655503 1.760164 0.043939 -0.019061 53499.800000 0 0 1
-22.588204 17.952327 -4.886335 29.264129 -0.671541 1.738556 0.037690 -0.025585 13157.400000 0 0 1
-23.093004 17.500927 -3.676735 29.207664 -0.648503 1.697014 0.034460 -0.022722 -298616.000000 0 0 1
-22.044104 17.266327 -2.593735 28.121095 -0.664452 1.663162 0.042057 -0.029777 -517557.000000 0 0 1
-21.493204 18.380927 -1.922335 28.346281 -0.707504 1.638665 0.047522 -0.032888 -101604.000000 0 0 1
-20.486204 17.955427 -1.059535 27.261777 -0.719659 1.609671 0.085994 -0.045161 -654623.000000 0 0 1
-19.713304 19.130027 -0.420935 27.472704 -0.770383 1.586119 0.079015 -0.039984 92140.100000 0 0 1
-20.457004 20.091127 0.349865 28.675160 -0.776375 1.558595 0.054921 -0.034488 227047.000000 0 0 1
-19.601804 21.157327 0.634065 28.849007 -0.823543 1.548816 0.064962 -0.032052 109069.000000 0 0 1
-20.305104 22.199327 1.546565 30.124727 -0.829934 1.519435 0.049165 -0.016942 158830.000000 0 0 1
-20.417004 21.676627 2.840365 29.913172 -0.815314 1.475699 0.043990 -0.023913 10742.000000 0 0 1
-21.636404 22.035527 3.442465 31.073284 -0.794537 1.459783 0.029873 -0.024335 -145782.000000 0 0 1
-21.603204 21.689427 4.962065 31.012122 -0.787390 1.410102 0.047598 -0.025825 82232.000000 0 0 1
-20.749004 22.584527 5.686565 31.191650 -0.827731 1.387461 0.044727 -0.016279 260924.000000 0 0 1
-20.215904 22.060227 6.901665 30.707806 -0.828996 1.344107 0.050526 -0.012243 -478216.000000 0 0 1
-21.067704 21.791627 8.158965 31.389359 -0.802287 1.307849 0.044584 -0.021954 96248.200000 0 0 1
-21.977504 20.643827 8.048465 31.208269 -0.754117 1.309953 0.056941 -0.022816 1198330.000000 0 0 1
-22.520404 20.154827 9.270365 31.612107 -0.730023 1.273168 0.062598 -0.025765 26186.400000 0 0 1
-23.163304 20.988927 10.390865 32.940002 -0.736191 1.249867 0.062258 -0.024717 -453140.000000 0 0 1
-24.293704 21.697327 9.916065 34.048295 -0.729004 1.275278 0.063834 -0.025224 390307.000000 0 0 1
-24.835704 22.459927 10.980065 35.239499 -0.735208 1.253937 0.068063 -0.021491 -101033.000000 0 0 1
-25.950864 23.460927 10.691365 36.580974 -0.735049 1.274201 0.067282 -0.028727 59841.900000 0 0 1
-26.670344 23.884327 11.868565 37.717783 -0.730345 1.250690 0.070174 -0.035009 400487.000000 0 0 1
-27.051454 25.300027 11.816165 38.877940 -0.751955 1.261981 0.062516 -0.030460 157623.000000 0 0 1
-27.583784 25.945327 13.119265 40.076679 -0.754799 1.237294 0.059710 -0.031829 594160.000000 0 0 1
-26.611534 25.889127 14.208665 39.753072 -0.771639 1.205289 0.057109 -0.030064 562156.000000 0 0 1
-27.182394 25.810227 15.478265 40.554001 -0.759510 1.179193 0.052365 -0.026509 11070.100000 0 0 1
-26.149664 25.919927 16.641465 40.405270 -0.780986 1.146298 0.050152 -0.033786 -27065.800000 0 0 1
-25.527244 24.713227 16.985465 39.381338 -0.769197 1.124855 0.072077 -0.039020 280158.000000 0 0 1
-24.597304 24.936827 18.056565 39.407007 -0.792252 1.094819 0.065431 -0.037602 341968.000000 0 0 1
-23.908204 23.625227 18.546165 38.388980 -0.779445 1.066591 0.076503 -0.029064 -753555.000000 0 0 1
-22.910804 23.855527 19.474665 38.382987 -0.805596 1.038658 0.076934 -0.034457 -226964.000000 0 0 1
-22.422404 22.593127 19.934465 37.557908 -0.789191 1.011292 0.080306 -0.032037 -1324650.000000 0 0 1
-21.120204 22.710327 20.683365 37.277655 -0.821661 0.982618 0.068595 -0.037570 -1388830.000000 0 0 1
-20.213504 23.122327 19.666365 36.469078 -0.852420 1.001237 0.056761 -0.032600 55898.000000 0 0 1
-18.866004 22.772127 19.961365 35.678452 -0.878936 0.977039 0.050131 -0.032533 358237.000000 0 0 1
-18.351904 21.276927 19.724265 34.329967 -0.859075 0.958743 0.048868 -0.020483 -465506.000000 0 0 1
-18.663304 20.305027 20.701465 34.484252 -0.827503 0.926900 0.060597 -0.020882 449306.000000 0 0 1
-17.928404 20.485927 21.918265 34.950124 -0.851877 0.892933 0.062581 -0.025740 147021.000000 0 0 1
-18.890604 20.140627 23.090865 35.995664 -0.817413 0.874357 0.058381 -0.019943 361559.000000 0 0 1
-19.956504 21.071527 23.167765 37.135113 -0.812569 0.897102 0.053370 -0.017334 -72949.800000 0 0 1
-20.656504 20.985027 24.386365 38.232935 -0.793287 0.879110 0.075710 -0.017725 750076.000000 0 0 1
-21.848004 22.032127 24.414765 39.482029 -0.789594 0.904121 0.078296 -0.014740 529203.000000 0 0 1
-21.381704 23.391427 24.715365 40.189369 -0.830255 0.908445 0.071315 -0.024346 -41858.900000 0 0 1
-22.359604 24.333627 25.045565 41.465137 -0.827649 0.922267 0.070717 -0.025159 -293539.000000 0 0 1
-23.335604 24.881327 23.979865 41.697299 -0.817445 0.958077 0.067889 -0.030692 -188705.000000 0 0 1
-24.273504 23.950627 23.548165 41.440941 -0.778703 0.966438 0.062375 -0.032512 -345764.000000 0 0 1
-25.024344 24.541127 22.505865 41.653315 -0.775649 0.999986 0.054706 -0.025583 -69330.200000 0 0 1
-26.157884 23.713827 21.887265 41.540737 -0.736430 1.015863 0.056478 -0.024733 213677.000000 0 0 1
-27.340264 23.596827 22.675665 42.643710 -0.712039 1.010134 0.040598 -0.016203 654944.000000 0 0 1
-28.109484 22.478327 22.106365 42.238722 -0.674540 1.019998 0.048673 -0.012499 496430.000000 0 0 1
-29.624204 22.568827 22.376865 43.447318 -0.651034 1.029749 0.051096 -0.005650 -669712.000000 0 0 1
-30.294254 23.615027 21.715365 44.124465 -0.662129 1.056251 0.040870 -0.004127 -624834.000000 0 0 1
-31.675314 23.635227 21.877265 45.172604 -0.641047 1.065229 0.026434 0.006480 -404698.000000 0 0 1
-32.455034 22.728427 20.900565 44.796699 -0.610931 1.085393 0.014799 -0.001423 -1090470.000000 0 0 1
-32.209564 21.385527 21.233465 44.109600 -0.586119 1.068568 0.009912 0.001138 89161.000000 0 0 1
-32.788584 20.417827 20.404165 43.684194 -0.556952 1.084807 -0.002126 0.009668 202255.000000 0 0 1
-34.332835 20.251027 20.470765 44.809595 -0.532919 1.096358 -0.001809 0.013197 258231.000000 0 0 1
-34.902358 19.490227 19.391165 44.430404 -0.509286 1.119159 0.005272 0.014466 18408.700000 0 0 1
35.984584 19.782927 19.109465 45.292672 0.502660 1.135245 0.018642 0.009123 236373.000000 0 0 1
35.455024 18.935027 17.873065 43.989094 0.490521 1.152388 0.015840 0.011806 -154466.000000 0 0 1
35.435234 17.579827 18.215865 43.549097 0.460532 1.139242 0.033403 0.002757 279670.000000 0 0 1
34.930604 16.786527 17.146365 42.378443 0.447981 1.154254 0.045404 -0.005454 55904.000000 0 0 1
34.952144 15.241427 17.335465 41.886416 0.411206 1.144097 0.052060 -0.011418 -50121.200000 0 0 1
34.178944 14.526127 16.374765 40.587455 0.401873 1.155519 0.070304 -0.028249 162268.000000 0 0 1
34.465024 13.176727 16.308365 40.341378 0.365174 1.154628 0.063924 -0.034983 -63469.700000 0 0 1
33.498944 12.425927 15.363465 38.892402 0.355202 1.164701 0.067745 -0.042872 -147766.000000 0 0 1
33.593704 12.905327 14.042265 38.629906 0.366776 1.198766 0.074839 -0.045033 99488.200000 0 0 1
32.761274 12.162627 13.210665 37.359768 0.355479 1.209372 0.083375 -0.042695 -613621.000000 0 0 1
32.968184 12.536127 11.708365 37.163711 0.363365 1.250289 0.090061 -0.042644 -161133.000000 0 0 1
34.233994 12.221127 11.169365 38.027319 0.342887 1.272681 0.083235 -0.038820 160695.000000 0 0 1
34.290474 12.452427 9.803165 37.775675 0.348337 1.308282 0.069374 -0.028139 1437480.000000 0 0 1
35.783534 12.305427 9.236065 38.951120 0.331217 1.331397 0.063571 -0.017198 1242970.000000 0 0 1
-35.941658 11.008427 9.278965 38.718050 -0.297214 1.328786 0.076169 -0.022326 123538.000000 0 0 1
-34.595454 10.865827 8.857765 37.327893 -0.304326 1.331215 0.075610 -0.013119 197639.000000 0 0 1
-34.324841 10.790927 7.377565 36.729651 -0.304594 1.368559 0.082679 -0.017986 -662013.000000 0 0 1
-34.582372 11.936027 6.637965 37.181605 -0.332346 1.391306 0.071383 -0.025030 -30476.500000 0 0 1
-34.204895 11.765827 5.280665 36.555368 -0.331302 1.425833 0.072425 -0.030692 103888.000000 0 0 1
-35.134623 12.528127 4.291665 37.547491 -0.342520 1.456246 0.076644 -0.018249 -325322.000000 0 0 1
35.764944 12.118627 4.323865 38.009054 0.326699 1.456791 0.076321 -0.032341 -101821.000000 0 0 1
34.888374 13.259527 4.292365 37.569111 0.363196 1.456294 0.062832 -0.029473 408766.000000 0 0 1
34.250394 13.742827 5.627965 37.331338 0.381580 1.419462 0.073978 -0.025512 -62947.500000 0 0 1
33.509314 14.966327 5.395165 37.094108 0.420049 1.424833 0.066789 -0.014591 423981.000000 0 0 1
32.924054 15.632327 6.506365 37.022909 0.443285 1.394140 0.051667 -0.010855 593144.000000 0 0 1
31.596264 15.064127 7.107365 35.717873 0.444891 1.370473 0.083835 -0.022462 193557.000000 0 0 1
31.790764 13.955727 8.006665 35.630348 0.413658 1.344146 0.094929 -0.024765 856145.000000 0 0 1
30.637524 13.081627 8.095065 34.282895 0.403547 1.332420 0.105718 -0.029225 518282.000000 0 0 1
30.779264 11.776327 7.289065 33.751673 0.365422 1.353120 0.111106 -0.027671 -341700.000000 0 0 1
30.785394 12.094427 5.905065 33.598890 0.374338 1.394127 0.113879 -0.033654 298074.000000 0 0 1
31.096504 10.992427 5.069765 33.369575 0.339784 1.418278 0.114204 -0.032060 -184949.000000 0 0 1
30.629274 11.236327 3.610165 32.824393 0.351606 1.460589 0.099346 -0.032155 616222.000000 0 0 1
29.223764 11.156827 3.347765 31.459668 0.364695 1.464180 0.085915 -0.023590 796954.000000 0 0 1
28.919524 11.311827 1.984665 31.116478 0.372853 1.506971 0.082372 -0.021190 -20432.500000 0 0 1
27.383254 11.340327 1.768765 29.691314 0.392631 1.511189 0.089297 -0.008725 -40261.400000 0 0 1
26.912694 10.073127 1.586765 28.779833 0.358147 1.515634 0.071666 -0.006414 -370595.000000 0 0 1
25.519494 10.012427 1.780865 27.471162 0.373889 1.505924 0.070539 -0.001188 -186867.000000 0 0 1
24.943394 8.523227 1.699165 26.414115 0.329264 1.506424 0.072752 -0.005774 -23474.300000 0 0 1
25.422694 7.584227 2.637265 26.660627 0.289919 1.471714 0.077532 -0.004914 254085.000000 0 0 1
26.791994 7.241727 2.572265 27.872390 0.263986 1.478378 0.105852 -0.013864 -127614.000000 0 0 1
27.226904 6.424627 3.805065 28.232227 0.231727 1.435608 0.101172 -0.023480 638542.000000 0 0 1
28.639494 6.164727 3.823165 29.543884 0.212018 1.441026 0.118763 -0.027041 992568.000000 0 0 1
29.022904 5.623627 5.085265 29.996901 0.191393 1.400447 0.102662 -0.013107 -121866.000000 0 0 1
30.526374 5.576127 5.410365 31.499599 0.180674 1.398181 0.093460 -0.017956 -151411.000000 0 0 1
31.072944 6.812927 5.731365 32.323248 0.215840 1.392540 0.114228 -0.027077 -477558.000000 0 0 1
32.434534 6.728527 6.058165 33.674522 0.204548 1.389908 0.082705 -0.024146 -35862.200000 0 0 1
33.010954 8.010927 6.741665 34.631605 0.238073 1.374877 0.073053 -0.021452 188684.000000 0 0 1
32.427754 8.161527 8.059165 34.396510 0.246562 1.334296 0.097401 -0.027453 285162.000000 0 0 1
33.000444 9.164827 8.820365 35.366965 0.270892 1.318740 0.083960 -0.029051 -322382.000000 0 0 1
32.533724 9.060227 10.274965 35.300224 0.271605 1.275447 0.087511 -0.029350 -514293.000000 0 0 1
31.264194 9.567727 10.556065 34.357266 0.296978 1.258501 0.095464 -0.031538 -271222.000000 0 0 1
30.824114 9.172427 11.853065 34.274693 0.289229 1.217678 0.100431 -0.037551 -297725.000000 0 0 1
29.337634 9.389227 12.183465 33.125386 0.309740 1.194156 0.083383 -0.043022 -209760.000000 0 0 1
28.934834 10.755227 12.523565 33.312748 0.355879 1.185386 0.092532 -0.047089 361491.000000 0 0 1
28.855344 11.751627 11.498865 33.210774 0.386749 1.217237 0.102623 -0.050254 40630.500000 0 0 1
27.651134 11.712927 10.489965 31.809075 0.400681 1.234727 0.098136 -0.040844 197100.000000 0 0 1
27.569304 12.745427 9.566865 31.843953 0.433040 1.265653 0.095430 -0.024930 878547.000000 0 0 1
26.400994 12.654427 8.713365 30.546190 0.446964 1.281527 0.087083 -0.023321 667797.000000 0 0 1
26.441494 13.892527 7.733665 30.853922 0.483765 1.317440 0.071378 -0.019282 68551.600000 0 0 1
26.258294 15.113527 8.390165 31.437423 0.522264 1.300637 0.070485 -0.007882 308689.000000 0 0 1
26.319694 16.234727 7.542065 31.830416 0.552701 1.331576 0.061009 -0.002753 -877395.000000 0 0 1
26.010894 17.567127 8.283465 32.462076 0.594008 1.312769 0.072856 -0.003748 894746.000000 0 0 1
24.657694 18.058027 8.253665 31.657814 0.632108 1.307034 0.074491 -0.001899 1196740.000000 0 0 1
23.702794 17.210527 8.920965 30.620390 0.628027 1.275168 0.068596 0.001232 592068.000000 0 0 1
22.309794 17.928727 9.130565 30.042193 0.676948 1.261987 0.054878 -0.005163 683536.000000 0 0 1
21.732894 18.442527 7.922765 29.584044 0.703681 1.299682 0.055483 -0.009903 549493.000000 0 0 1
20.757694 19.468827 8.266365 29.635281 0.753369 1.288110 0.074143 -0.021791 608681.000000 0 0 1
19.885094 19.746427 7.015265 28.888619 0.781899 1.325506 0.060693 -0.018679 -98748.500000 0 0 1
20.543394 20.615227 6.084765 29.732860 0.787143 1.364692 0.058069 -0.005998 136737.000000 0 0 1
19.843894 20.799627 4.870765 29.156971 0.808909 1.402956 0.051167 -0.008683 -83631.700000 0 0 1
17.343796 16.948827 33.457977 41.321982 0.773881 0.627173 0.065501 0.005053 49809.800000 0 0 1
16.962896 17.687227 32.292495 40.538662 0.806299 0.649171 0.050090 0.003193 296529.000000 0 0 1
16.648796 16.791127 31.217115 39.161622 0.789654 0.648260 0.059782 -0.009695 -137044.000000 0 0 1
16.062596 17.440727 29.984865 38.226667 0.826509 0.669074 0.066250 -0.017732 224175.000000 0 0 1
17.071796 18.114927 29.239835 38.400062 0.815035 0.705245 0.067471 -0.012018 369370.000000 0 0 1
16.578996 18.333627 27.883915 37.262551 0.835614 0.725287 0.078154 -0.027723 -518027.000000 0 0 1
17.658196 18.628027 26.876375 37.163891 0.812119 0.762393 0.080069 -0.025950 -1106530.000000 0 0 1
18.398596 19.742427 27.116855 38.256968 0.820617 0.782989 0.078115 -0.021047 -614759.000000 0 0 1
19.305496 19.871227 26.051395 38.029502 0.799838 0.816150 0.075171 -0.020852 -379770.000000 0 0 1
20.095196 21.170227 26.126415 39.173779 0.811444 0.840707 0.076296 -0.015654 -187925.000000 0 0 1
19.255096 22.308127 25.968155 39.277937 0.858722 0.848461 0.066301 -0.017233 18037.300000 0 0 1
19.917596 23.454627 26.363845 40.520149 0.866769 0.862375 0.065813 -0.018189 -269029.000000 0 0 1
19.112696 24.769227 26.209785 40.813755 0.913595 0.873457 0.081093 -0.022506 26783.800000 0 0 1
19.161796 25.270427 24.870385 40.302667 0.922024 0.905757 0.085369 -0.025228 365084.000000 0 0 1
18.308096 26.404527 24.765985 40.567714 0.964534 0.914123 0.087692 -0.028488 -42369.600000 0 0 1
18.473596 27.269327 23.564475 40.499067 0.975366 0.949792 0.071857 -0.027671 -724360.000000 0 0 1
19.723696 27.865027 23.615325 41.511053 0.954835 0.965638 0.070692 -0.022837 -599064.000000 0 0 1
19.618896 29.110227 22.959545 41.945764 0.977767 0.991587 0.054752 -0.012387 -125967.000000 0 0 1
20.942496 29.790727 22.591045 42.853598 0.958068 1.015532 0.062010 -0.014353 -436350.000000 0 0 1
21.525096 29.374127 21.421845 42.250024 0.938400 1.039066 0.066757 -0.016815 377943.000000 0 0 1
22.674296 30.198027 21.105245 43.260558 0.926749 1.061156 0.070077 -0.026773 757212.000000 0 0 1
22.865996 30.421727 19.605645 42.810239 0.926250 1.095090 0.055352 -0.023003 41550.400000 0 0 1
21.889396 31.314027 19.126145 42.726144 0.960723 1.106666 0.047906 -0.012449 188975.000000 0 0 1
22.075896 31.407127 17.751245 42.294911 0.958130 1.137680 0.056612 -0.012136 -37437.800000 0 0 1
21.540396 32.676827 17.013545 42.675806 0.987984 1.160731 0.068220 -0.009072 -819384.000000 0 0 1
22.338196 33.791327 17.298045 44.046239 0.986683 1.167204 0.062188 -0.009045 98637.800000 0 0 1
22.752396 -34.123019 16.162145 44.082501 -0.982718 1.195408 0.061131 -0.014782 92313.900000 0 0 1
23.786596 33.713427 15.220645 43.978010 0.956353 1.217389 0.063486 -0.011428 -70942.300000 0 0 1
23.273096 32.696027 14.330045 42.614755 0.952193 1.227843 0.079459 -0.005327 -84817.700000 0 0 1
22.357896 33.135427 13.352845 42.144163 0.977223 1.248403 0.063672 -0.009354 -213419.000000 0 0 1
21.916696 31.930727 12.531345 40.705620 0.969268 1.257861 0.077160 -0.011452 199475.000000 0 0 1
22.912296 31.479427 11.598245 40.625693 0.941623 1.281278 0.100900 -0.027527 372052.000000 0 0 1
22.534196 30.230927 10.974045 39.269945 0.930244 1.287574 0.093754 -0.026245 -932801.000000 0 0 1
23.607596 29.645727 10.076445 39.213804 0.898301 1.310919 0.091745 -0.023919 540153.000000 0 0 1
24.720996 28.997027 10.724645 39.585013 0.864832 1.296441 0.091557 -0.019801 987512.000000 0 0 1
25.663296 29.862227 11.391145 40.989213 0.860876 1.289183 0.094010 -0.019654 -34074.900000 0 0 1
27.014896 29.156027 11.683045 41.429121 0.823498 1.284917 0.082973 -0.019404 386400.000000 0 0 1
26.972596 28.223727 12.741845 41.066462 0.808061 1.255315 0.083581 -0.017655 -6823.090000 0 0 1
28.298596 27.871927 13.088545 41.820627 0.777802 1.252479 0.070027 -0.001745 276324.000000 0 0 1
28.436196 26.736727 14.158645 41.520321 0.754605 1.222810 0.057176 -0.014619 -724162.000000 0 0 1
29.477996 27.107027 14.969045 42.752959 0.743522 1.213088 0.045955 -0.016975 -751595.000000 0 0 1
29.723396 26.142027 15.992945 42.692624 0.721379 1.186824 0.052944 -0.024585 -197686.000000 0 0 1
30.922496 26.576327 16.826645 44.109386 0.709955 1.179404 0.044833 -0.028860 305816.000000 0 0 1
32.171096 26.683827 16.139345 44.804961 0.692433 1.202300 0.045811 -0.022963 -142919.000000 0 0 1
33.215696 26.842927 17.021345 45.973377 0.679685 1.191525 0.019724 -0.016979 89500.100000 0 0 1
34.665496 26.820127 16.460745 46.818500 0.658487 1.211531 0.030502 -0.025866 287580.000000 0 0 1
34.952396 27.916927 15.591445 47.372122 0.673956 1.235417 0.060619 -0.032664 -336651.000000 0 0 1
-35.909401 27.963427 15.285045 48.011154 -0.661631 1.246793 0.079158 -0.033008 61379.500000 0 0 1
-35.609001 29.109927 14.277245 48.158369 -0.685314 1.269808 0.082840 -0.038781 71734.100000 0 0 1
-36.057401 30.367727 14.789345 49.407082 -0.699951 1.266799 0.084551 -0.036620 26434.900000 0 0 1
-36.066701 31.415427 13.872245 49.801357 -0.716581 1.288511 0.073467 -0.014669 578503.000000 0 0 1
35.045396 32.461027 14.238145 49.845991 0.747134 1.281119 0.062387 -0.018651 -746407.000000 0 0 1
34.897696 33.613927 13.372045 50.264867 0.766662 1.301522 0.048768 -0.019483 -209615.000000 0 0 1
33.971896 -34.108219 13.916845 50.111266 -0.787401 1.289378 0.053513 -0.011660 38147.300000 0 0 1
32.499896 34.105527 13.631945 49.043452 0.809500 1.289130 0.077905 -0.008283 -420206.000000 0 0 1
32.098396 32.969227 14.390145 48.211547 0.798781 1.267697 0.067467 -0.021657 -811375.000000 0 0 1
31.002096 32.285227 13.858845 46.856520 0.805670 1.270533 0.075890 -0.010306 -391161.000000 0 0 1
30.565096 31.094527 14.803645 46.046092 0.793984 1.243487 0.074810 -0.016751 63027.100000 0 0 1
29.802396 31.550027 15.920645 46.228281 0.813876 1.219205 0.076895 -0.026571 63669.300000 0 0 1
29.326296 30.436627 16.617045 45.415263 0.803975 1.196206 0.067093 -0.020635 -558666.000000 0 0 1
28.423196 30.765827 17.770645 45.499561 0.824956 1.169548 0.061790 -0.023300 -569013.000000 0 0 1
28.133996 29.671427 18.605645 44.923105 0.811989 1.143769 0.050855 -0.020600 -42621.500000 0 0 1
28.673396 29.870327 19.901945 45.940042 0.805840 1.122739 0.037584 -0.027140 -70897.800000 0 0 1
28.452696 28.697227 20.890345 45.491683 0.789677 1.093688 0.039651 -0.030197 -1305850.000000 0 0 1
27.237796 28.717627 21.490445 45.038193 0.811839 1.073376 0.044646 -0.026700 -1526220.000000 0 0 1
27.187996 27.977627 22.698545 45.134894 0.799711 1.043840 0.029070 -0.024484 290810.000000 0 0 1
25.864696 27.938427 23.506425 44.744723 0.823922 1.017676 0.057658 -0.024445 234751.000000 0 0 1
24.721296 27.301127 22.964845 43.403665 0.834948 1.013258 0.069758 -0.026613 4108.100000 0 0 1
23.628496 27.286027 23.839095 43.256624 0.857112 0.987104 0.078916 -0.025440 -138094.000000 0 0 1
23.512196 26.091527 24.755335 42.969963 0.837350 0.956837 0.084056 -0.025113 -311407.000000 0 0 1
24.650696 26.012227 25.592095 44.036895 0.812266 0.950654 0.062645 -0.026357 -220323.000000 0 0 1
24.540296 25.011027 26.605405 43.995740 0.794898 0.921373 0.075748 -0.021876 -279341.000000 0 0 1
25.868696 24.747827 27.388495 45.075204 0.763257 0.917739 0.078585 -0.029950 443697.000000 0 0 1
26.402996 25.845227 28.122305 46.432295 0.774723 0.920198 0.083999 -0.017746 255508.000000 0 0 1
26.756696 26.988427 27.377645 46.838354 0.789710 0.946516 0.060089 -0.006038 -1100280.000000 0 0 1
27.043896 28.106627 28.383895 48.238991 0.804665 0.941716 0.033108 -0.009783 -225809.000000 0 0 1
28.091296 27.891927 29.300785 49.250548 0.781837 0.933614 0.033727 -0.001655 22991.900000 0 0 1
28.173296 28.966727 30.211385 50.453282 0.799283 0.928795 0.024558 -0.002954 -23267.500000 0 0 1
29.648396 29.360527 30.428385 51.642565 0.780520 0.940714 0.002689 0.000373 104934.000000 0 0 1
30.150596 29.951827 29.230935 51.581178 0.782091 0.968304 -0.022763 -0.002065 228632.000000 0 0 1
31.571496 30.051627 29.237415 52.485103 0.760739 0.979953 0.013944 -0.014390 783038.000000 0 0 1
32.241396 30.422027 27.875415 52.364550 0.756372 1.009441 0.003534 -0.012259 -34644.000000 0 0 1
31.952696 31.790127 27.606865 52.855709 0.782848 1.021243 -0.009856 -0.010469 -39364.400000 0 0 1
32.309696 32.134227 26.328395 52.628029 0.782675 1.046882 -0.008679 -0.012051 -271593.000000 0 0 1
32.028996 33.593827 25.985215 53.194297 0.809239 1.060431 -0.003981 -0.013976 -608241.000000 0 0 1
32.822596 -34.156819 26.765455 54.409565 -0.805315 1.056496 0.012050 -0.018625 -22865.700000 0 0 1
32.654396 -32.822719 26.291755 53.243750 -0.787969 1.054342 0.012911 -0.014447 -143790.000000 0 0 1
33.647396 -31.738419 26.832575 53.473934 -0.756211 1.045132 0.014280 -0.018233 143225.000000 0 0 1
33.554596 -31.569819 28.222775 54.028599 -0.754931 1.021172 0.005100 -0.023935 619456.000000 0 0 1
34.712896 -30.873219 28.701325 54.606839 -0.726921 1.017377 0.012721 -0.031434 274171.000000 0 0 1
34.633096 -30.397819 30.192205 55.091270 -0.720363 0.990777 0.014171 -0.027191 -729321.000000 0 0 1
34.585096 -31.409619 31.172575 56.164246 -0.737318 0.982403 0.018117 -0.023923 302920.000000 0 0 1
33.340396 -32.072019 31.340815 55.878826 -0.766010 0.975359 0.011305 -0.020962 -77750.600000 0 0 1
33.332496 -33.045119 32.515657 57.099065 -0.781069 0.964947 0.021184 -0.014481 -206569.000000 0 0 1
33.310396 -32.412719 33.802851 57.469989 -0.771741 0.941986 0.014419 -0.015995 116204.000000 0 0 1
33.602396 -33.185919 -33.489345 57.896136 -0.779162 2.187609 0.017269 -0.013245 66397.600000 0 0 1
32.699896 34.180827 -33.130965 57.751822 0.807537 2.181786 0.018830 -0.007400 207174.000000 0 0 1
32.969396 33.129027 -34.036045 57.818387 0.787813 2.200211 0.030538 -0.010906 426591.000000 0 0 1
32.158296 31.962027 -33.813925 56.560664 0.782337 2.211593 0.034131 -0.003852 261508.000000 0 0 1
32.226396 31.004527 33.477858 55.862226 0.766077 0.928178 0.028723 0.002304 373383.000000 0 0 1
33.505596 30.388327 33.444364 56.254785 0.736649 0.934133 0.033657 -0.010609 263677.000000 0 0 1
33.566696 29.370027 32.469155 55.168538 0.718816 0.941539 0.035806 -0.012900 382160.000000 0 0 1
34.981096 28.770327 32.166085 55.552370 0.688283 0.953267 0.050046 -0.018214 421161.000000 0 0 1
35.413896 27.869827 33.168635 55.955604 0.666748 0.936306 0.057958 -0.017317 496874.000000 0 0 1
-35.617301 27.199127 32.811112 55.542360 -0.652180 0.938820 0.038931 -0.017418 302472.000000 0 0 1
-35.488801 25.972527 33.774403 55.450315 -0.631784 0.915880 0.028469 -0.011760 -1278.640000 0 0 1
36.112996 24.826327 33.283157 55.029661 0.602262 0.921254 0.021168 -0.009731 76858.300000 0 0 1
36.071996 23.744927 34.210098 55.093931 0.582163 0.900853 0.006063 -0.013552 -20305.000000 0 0 1
35.706096 22.451727 33.556878 53.898696 0.561322 0.898746 0.005143 -0.019190 -433286.000000 0 0 1
-35.553901 22.012627 32.666632 53.063589 -0.554370 0.907633 0.008894 -0.012089 -318440.000000 0 0 1
-36.011601 20.922427 31.963715 52.500119 -0.526325 0.916210 0.007700 -0.009635 46655.300000 0 0 1
-34.926601 20.150127 31.170195 50.965441 -0.523282 0.912722 0.005172 -0.015819 114015.000000 0 0 1
-34.424801 20.788527 30.001925 50.173153 -0.543269 0.929833 0.008524 -0.018513 59608.300000 0 0 1
-33.340301 20.087027 29.436945 48.801620 -0.542245 0.923294 0.034925 -0.016357 -36377.000000 0 0 1
-33.769501 19.007227 28.375905 48.029635 -0.512657 0.938746 0.034690 -0.007361 161221.000000 0 0 1
-34.681801 17.998427 28.819375 48.552313 -0.478699 0.935304 0.030036 -0.008030 442136.000000 0 0 1
-35.188901 17.222527 27.758325 48.014569 -0.455156 0.954370 0.030799 -0.017271 72253.500000 0 0 1
-35.952801 16.038727 28.361875 48.520518 -0.419610 0.946491 0.024312 -0.019811 -196268.000000 0 0 1
-34.977401 15.207527 29.001575 47.914286 -0.410126 0.920678 0.042954 -0.014469 742797.000000 0 0 1
-35.533601 14.276827 29.877285 48.570740 -0.382043 0.908246 0.049789 -0.022966 -569574.000000 0 0 1
-34.624101 13.098027 30.117735 47.722790 -0.361654 0.887829 0.059275 -0.018137 -47013.200000 0 0 1
-33.342001 13.344327 30.672355 47.228736 -0.380701 0.863945 0.066529 -0.013049 576104.000000 0 0 1
-32.733401 12.117227 31.079525 46.735850 -0.354538 0.843297 0.064347 -0.011530 784903.000000 0 0 1
-31.162001 12.049627 31.062645 45.619642 -0.368968 0.821799 0.068143 -0.011820 -467959.000000 0 0 1
-30.669701 12.189627 29.798905 44.465631 -0.378305 0.836378 0.070779 -0.012034 342295.000000 0 0 1
-29.337801 12.675027 29.703515 43.630972 -0.407816 0.821956 0.061702 -0.009721 865962.000000 0 0 1
-28.170501 11.780627 30.241305 42.975538 -0.396089 0.790224 0.067540 -0.010098 -568113.000000 0 0 1
-27.804501 10.739927 29.358525 41.837296 -0.368611 0.792972 0.074922 -0.014118 -105470.000000 0 0 1
-26.738701 9.917827 29.776385 41.230505 -0.355186 0.763829 0.054675 -0.010939 -622197.000000 0 0 1
-26.547401 8.785327 28.733975 40.094735 -0.319586 0.771806 0.043447 -0.013361 -231616.000000 0 0 1
-27.568501 7.846927 28.678155 40.546678 -0.277300 0.785143 0.056648 -0.015988 -623262.000000 0 0 1
-28.876101 8.207827 28.331085 41.277694 -0.276939 0.814333 0.072007 -0.025590 -554279.000000 0 0 1
-29.734301 6.908627 28.236525 41.583160 -0.228295 0.824346 0.082717 -0.018142 -133583.000000 0 0 1
-29.984601 6.339627 29.504175 42.541316 -0.208361 0.804403 0.084597 -0.013474 -210074.000000 0 0 1
-30.477401 5.036827 29.362195 42.619011 -0.163784 0.810763 0.084866 -0.005750 -315445.000000 0 0 1
-31.252501 4.640527 30.646415 44.016543 -0.147408 0.800640 0.065952 0.001474 -212656.000000 0 0 1
-32.453301 5.366827 30.700035 44.994575 -0.163888 0.819885 0.063189 -0.001762 -352059.000000 0 0 1
-33.266001 4.968327 31.796725 46.285450 -0.148256 0.813485 0.061923 0.000112 1017030.000000 0 0 1
-34.739001 5.513927 31.646045 47.314625 -0.157411 0.838145 0.058170 0.010362 853235.000000 0 0 1
-34.970801 6.718527 32.279045 48.062795 -0.189806 0.834428 0.057076 0.004659 1220350.000000 0 0 1
35.856596 7.071927 32.371755 48.822517 0.194729 0.845911 0.069746 0.006838 1397590.000000 0 0 1
35.681796 8.496227 32.866523 49.250226 0.233758 0.840168 0.053163 0.006594 -165142.000000 0 0 1
35.995696 8.613227 34.238766 50.419946 0.234869 0.824299 0.059620 0.004678 273273.000000 0 0 1
35.819696 9.931927 -33.848155 50.273168 0.270481 2.309439 0.053109 0.001485 -243853.000000 0 0 1
35.691296 10.043927 -32.284135 49.163141 0.274317 2.287196 0.051891 -0.007064 -121592.000000 0 0 1
34.550596 9.378427 -31.782735 47.873174 0.265054 2.296811 0.059723 -0.009326 38762.200000 0 0 1
34.430196 9.576427 -30.317715 46.864808 0.271283 2.274333 0.045863 -0.005482 1519720.000000 0 0 1
33.108396 8.878527 -29.702835 45.356946 0.262001 2.284805 0.048755 -0.003715 1357770.000000 0 0 1
33.098796 7.446827 -29.706895 45.094181 0.221303 2.289985 0.048607 0.000557 -183226.000000 0 0 1
31.867396 6.963127 -29.273065 43.828397 0.215122 2.302182 0.041262 0.001296 -578442.000000 0 0 1
35.140944 5.964427 -19.849435 40.797799 0.168126 2.078912 0.033499 -0.009316 -305763.000000 0 0 1
34.747014 6.854827 -18.809535 40.101649 0.194777 2.059007 0.032382 -0.005703 211734.000000 0 0 1
35.183214 8.154227 -19.010335 40.813513 0.227744 2.055318 0.018092 -0.006949 -1413530.000000 0 0 1
-35.652017 8.430527 -18.513835 41.047560 -0.232202 2.038720 0.025243 -0.011633 -381439.000000 0 0 1
-34.591082 7.733427 -19.172335 40.297981 -0.219950 2.066629 0.029548 -0.018309 412499.000000 0 0 1
-34.115212 8.436227 -20.306035 40.587592 -0.242423 2.094743 0.021018 -0.016148 -953951.000000 0 0 1
-33.141994 7.745827 -21.230235 40.113744 -0.229595 2.128514 0.009174 -0.008696 -445843.000000 0 0 1
-33.737884 6.676727 -21.908235 40.777374 -0.195376 2.137987 0.009066 -0.007905 813812.000000 0 0 1
-34.539255 6.989227 -23.099235 42.135307 -0.199660 2.151026 0.006647 -0.006773 601442.000000 0 0 1
-34.543132 5.846127 -24.085135 42.514690 -0.167653 2.173065 0.030528 -0.014152 487153.000000 0 0 1
-33.288774 5.595527 -24.720635 41.839720 -0.166534 2.202898 0.029796 -0.016902 439865.000000 0 0 1
-33.367564 4.386827 -25.468195 42.205065 -0.130720 2.218604 0.040319 -0.008685 -244779.000000 0 0 1
-32.121974 4.177327 -26.366875 41.767013 -0.129320 2.254005 0.044003 -0.005524 -8188.910000 0 0 1
-30.963564 4.239527 -25.575315 40.383321 -0.136074 2.256624 0.041309 -0.010314 -162448.000000 0 0 1
-29.790824 3.959227 -26.342505 39.963686 -0.132127 2.290499 0.046604 -0.010162 70221.300000 0 0 1
-28.519284 4.343427 -25.593505 38.564782 -0.151137 2.296484 0.053192 -0.021153 -527332.000000 0 0 1
-28.213754 5.744627 -25.595885 38.524875 -0.200865 2.297486 0.031471 -0.016545 -106702.000000 0 0 1
-27.035584 6.013927 -24.871135 37.224501 -0.218881 2.302501 0.043347 -0.014033 -103274.000000 0 0 1
-26.454054 7.395727 -25.250075 37.310589 -0.272609 2.314140 0.031207 -0.018958 -168244.000000 0 0 1
-27.044564 8.501727 -24.567235 37.513155 -0.304578 2.284842 0.031375 -0.025241 104319.000000 0 0 1
-26.399884 9.745027 -24.858635 37.548251 -0.353616 2.294341 0.018190 -0.026146 171566.000000 0 0 1
-25.043274 10.114927 -24.244335 36.294147 -0.383862 2.302309 0.037176 -0.014519 -418999.000000 0 0 1
-25.192934 10.381127 -22.867135 35.571865 -0.390864 2.269001 0.028205 -0.016228 79588.800000 0 0 1
-23.928304 10.653327 -22.321335 34.413647 -0.418871 2.276565 0.050855 -0.016154 -569593.000000 0 0 1
-23.957704 10.951827 -20.765635 33.542893 -0.428769 2.238363 0.066016 -0.022462 -715693.000000 0 0 1
-24.466404 12.224027 -20.404735 34.123085 -0.463348 2.211768 0.051528 -0.022024 432228.000000 0 0 1
-25.858424 12.454727 -20.443935 35.238229 -0.448861 2.189726 0.051876 -0.009614 -125391.000000 0 0 1
-26.791564 11.746227 -19.446535 35.127332 -0.413191 2.157479 0.037357 -0.012715 -474444.000000 0 0 1
-26.616104 12.140827 -18.186635 34.446630 -0.427953 2.127000 0.045273 -0.022095 100941.000000 0 0 1
-27.605334 11.490527 -17.436335 34.613761 -0.394430 2.098719 0.037050 -0.024516 -840755.000000 0 0 1
-27.184944 11.268527 -15.963035 33.478640 -0.392955 2.067821 0.050051 -0.023172 323676.000000 0 0 1
-26.203054 10.272727 -15.693035 32.224219 -0.373628 2.079442 0.063968 -0.027129 204123.000000 0 0 1
-24.911504 10.571227 -16.143135 31.510866 -0.401321 2.108661 0.058971 -0.021570 -1121550.000000 0 0 1
-24.024804 9.303227 -15.919435 30.284809 -0.369453 2.124284 0.058798 -0.021353 -328532.000000 0 0 1
-22.668904 9.400327 -16.288535 29.454400 -0.393097 2.156767 0.070371 -0.016990 117128.000000 0 0 1
-22.054904 8.139627 -16.085435 28.485321 -0.353555 2.170856 0.069629 -0.019179 -558028.000000 0 0 1
-20.563704 8.209027 -15.783335 27.191316 -0.379816 2.190084 0.083673 -0.016156 -408582.000000 0 0 1
-19.758204 8.632027 -16.876935 27.381188 -0.411893 2.234921 0.084832 -0.023931 768929.000000 0 0 1
-18.365804 8.670627 -16.539935 26.192594 -0.441085 2.254249 0.092692 -0.023253 321757.000000 0 0 1
-17.504104 9.127527 -17.757135 26.552236 -0.480661 2.303339 0.067327 -0.016193 -153770.000000 0 0 1
-17.276004 8.188527 -18.801135 26.814081 -0.442618 2.347829 0.090494 -0.022985 175325.000000 0 0 1
-16.438504 7.102427 -18.482635 25.734737 -0.407836 2.372005 0.089460 -0.028981 -915749.000000 0 0 1
-15.956804 6.262527 -19.714635 26.124809 -0.373996 2.425890 0.075063 -0.036381 -138088.000000 0 0 1
-16.852504 5.479127 -20.508935 27.104319 -0.314343 2.428996 0.073854 -0.025346 -181213.000000 0 0 1
-17.736904 6.325627 -21.213035 28.365545 -0.342575 2.415607 0.073213 -0.025773 -136588.000000 0 0 1
-18.767904 5.612927 -22.150735 29.570158 -0.290604 2.417485 0.067710 -0.011897 -234567.000000 0 0 1
-19.597604 4.884927 -21.318835 29.367010 -0.244283 2.383204 0.067671 -0.017481 -306667.000000 0 0 1
-20.071504 3.693127 -21.915335 29.946391 -0.181963 2.391783 0.043619 -0.006072 -342113.000000 0 0 1
-20.989504 2.985127 -20.920235 29.784669 -0.141273 2.349536 0.062449 -0.014445 -455466.000000 0 0 1
-21.737404 1.914927 -21.398935 30.562985 -0.087867 2.346416 0.066182 -0.008860 137808.000000 0 0 1
-22.432504 1.376727 -20.292435 30.280283 -0.061295 2.305212 0.068680 -0.016388 -162594.000000 0 0 1
-23.132204 0.000627 -20.410235 30.849255 -0.000027 2.293763 0.077258 -0.002547 -73175.500000 0 0 1
-22.230504 -1.065573 -20.609035 30.332541 0.047896 2.317791 0.050813 -0.015487 -305005.000000 0 0 1
-22.854404 -2.285573 -20.790335 30.980407 0.099674 2.306461 0.048318 -0.016916 -629037.000000 0 0 1
-23.481904 -2.540273 -22.171035 32.394561 0.107761 2.324585 0.064104 -0.014549 100665.000000 0 0 1
-22.574404 -2.582873 -23.250035 32.509061 0.113921 2.367687 0.032076 -0.012262 151824.000000 0 0 1
-21.735004 -3.727873 -23.371935 32.133390 0.169862 2.385236 0.027037 -0.020656 503210.000000 0 0 1
-20.714504 -3.731973 -24.539835 32.329890 0.178250 2.432641 0.022613 -0.020077 601491.000000 0 0 1
-21.398104 -3.945073 -25.775775 33.731781 0.182318 2.440502 0.021264 -0.015191 582049.000000 0 0 1
-20.435004 -3.920373 -26.822205 33.946861 0.189543 2.481806 0.022358 -0.019516 311009.000000 0 0 1
-21.077104 -3.704773 -28.248475 35.439328 0.173995 2.493264 0.012517 -0.021268 221913.000000 0 0 1
-21.681604 -4.908573 -28.700765 36.303167 0.222640 2.482561 0.022536 -0.012805 257619.000000 0 0 1
-22.237704 -4.897773 -30.020675 37.679498 0.216785 2.492674 0.002260 -0.017697 -229941.000000 0 0 1
-22.002004 -6.266473 -30.684095 38.273627 0.277467 2.500936 0.027324 -0.016129 735679.000000 0 0 1
-20.644404 -6.290873 -31.143835 37.890697 0.295786 2.535603 0.022870 -0.018093 618686.000000 0 0 1
-20.182704 -7.520873 -31.636435 38.272302 0.356700 2.543861 0.021212 -0.018398 59536.900000 0 0 1
-18.691404 -7.548273 -32.074255 37.882751 0.383809 2.580495 0.039970 -0.021619 17721.400000 0 0 1
-18.508204 -6.935673 -33.335345 38.754385 0.358538 2.606398 0.039108 -0.026801 408726.000000 0 0 1
-18.522104 -7.985473 34.203236 39.707650 0.407053 0.532823 0.043498 -0.023336 -643158.000000 0 0 1
-18.569404 -7.445273 32.758852 38.384857 0.381319 0.548262 0.041914 -0.022106 69167.900000 0 0 1
-17.314104 -7.071673 32.219945 37.254686 0.387756 0.525933 0.056639 -0.021922 271677.000000 0 0 1
-16.899004 -5.756173 32.408035 36.999873 0.328296 0.503507 0.036165 -0.022583 -533447.000000 0 0 1
-15.672504 -5.381773 31.601575 35.682634 0.330774 0.482950 0.039733 -0.020623 -507508.000000 0 0 1
-15.948804 -5.193073 30.224575 34.566708 0.314783 0.506632 0.046819 -0.020942 29314.500000 0 0 1
-14.794404 -5.070173 29.429405 33.326730 0.330165 0.488459 0.041311 -0.015738 -66309.700000 0 0 1
-15.067804 -5.197073 27.893285 32.126058 0.332135 0.519143 0.046596 -0.015455 -82583.000000 0 0 1
-16.091904 -4.319473 27.501605 32.155023 0.262244 0.544702 0.047715 -0.016808 -136397.000000 0 0 1
-16.488904 -4.353073 26.173575 31.239226 0.258111 0.577476 0.050877 -0.009193 581502.000000 0 0 1
-15.413804 -3.744073 25.172655 29.753420 0.238289 0.562279 0.055843 -0.003934 770556.000000 0 0 1
-15.325404 -2.374073 25.244735 29.627704 0.153689 0.550878 0.052623 -0.006378 -673004.000000 0 0 1
-14.250304 -1.974873 24.487125 28.400538 0.137708 0.531187 0.047245 -0.005860 -715692.000000 0 0 1
-14.151004 -0.432173 24.453595 28.256256 0.030531 0.524804 0.041951 -0.006377 -328094.000000 0 0 1
-15.137904 0.188327 23.683595 28.108793 -0.012440 0.568761 0.046960 -0.014808 -120446.000000 0 0 1
-15.393904 1.485027 24.266855 28.775994 -0.096171 0.567398 0.027982 -0.012038 52526.900000 0 0 1
-16.210704 2.445227 23.342145 28.524056 -0.149712 0.612294 0.031337 -0.013249 234361.000000 0 0 1
-15.341204 3.124327 22.459945 27.378150 -0.200908 0.608756 0.028077 -0.014973 517660.000000 0 0 1
-16.086104 4.019127 21.658145 27.276205 -0.244838 0.653385 0.024616 -0.016510 30452.500000 0 0 1
-15.215904 4.754727 20.615745 26.060316 -0.302870 0.658227 0.023652 -0.010628 -163529.000000 0 0 1
-14.356804 5.697227 21.194045 26.225250 -0.377772 0.629785 0.027284 -0.012883 -473457.000000 0 0 1
-13.135304 5.645127 20.522245 25.011321 -0.405902 0.608479 0.022914 -0.008903 -790924.000000 0 0 1
-12.102704 6.646827 20.976845 25.113418 -0.502230 0.582147 0.017573 -0.009065 -473749.000000 0 0 1
-12.255804 7.861327 20.262445 24.951390 -0.570332 0.623094 0.022761 -0.010511 889499.000000 0 1 0
-11.190704 8.834327 20.397445 24.886401 -0.668265 0.610045 0.016891 -0.011562 591325.000000 0 1 0
-11.800304 10.240927 20.401045 25.696817 -0.714768 0.653578 0.013322 -0.002911 27175.800000 0 0 1
-12.203504 10.657727 19.110745 25.054605 -0.717885 0.703220 0.014994 -0.001569 349240.000000 0 0 1
-12.757904 11.979127 19.255745 26.020133 -0.753926 0.737678 0.006652 0.001223 -182688.000000 0 0 1
-13.152704 12.724727 17.904545 25.602442 -0.768861 0.796337 0.006632 0.004182 -352718.000000 0 0 1
-12.148804 13.447127 17.258745 25.025645 -0.836079 0.809801 0.001773 0.003688 -383468.000000 0 0 1
-11.915904 14.748627 17.793645 26.002395 -0.891237 0.817142 0.007728 -0.004309 -672413.000000 0 0 1
-12.826604 15.914727 17.362845 26.819185 -0.892433 0.866623 0.005539 0.006272 -163987.000000 0 0 1
-12.751404 16.412627 16.036645 26.251602 -0.910284 0.913622 0.000300 0.003760 100989.000000 0 0 1
-13.273604 15.548927 15.025145 25.371493 -0.864177 0.937003 0.019407 -0.003538 -220912.000000 0 0 1
-13.760104 16.322927 13.815445 25.429214 -0.870385 0.996445 0.018863 -0.011394 124597.000000 0 0 1
-15.018804 16.994027 13.942045 26.622209 -0.847021 1.019608 0.026389 -0.008292 557839.000000 0 0 1
-15.453804 17.559027 12.716845 26.624380 -0.849082 1.072831 0.021409 -0.012301 -165726.000000 0 0 1
-16.698304 18.414927 12.944045 28.026615 -0.834247 1.090718 0.037668 -0.015328 867297.000000 0 0 1
-17.969504 17.707527 12.997345 28.379404 -0.778055 1.095069 0.048057 -0.019518 699691.000000 0 0 1
-19.019504 18.607627 13.154945 29.682282 -0.774452 1.111640 0.057797 -0.021256 -80598.600000 0 0 1
-20.389804 17.938527 13.424745 30.294531 -0.721530 1.111697 0.059907 -0.015206 246946.000000 0 0 1
-21.035204 17.467327 12.270745 29.969292 -0.692996 1.148952 0.065184 -0.018124 87016.100000 0 0 1
-22.290404 16.879127 12.589045 30.663514 -0.648117 1.147734 0.074000 -0.026859 270213.000000 0 0 1
-23.004404 16.294827 11.330945 30.382796 -0.616298 1.188621 0.077934 -0.026522 -511935.000000 0 0 1
-22.319504 15.257027 10.722145 29.084386 -0.599616 1.193233 0.072268 -0.014485 -486860.000000 0 0 1
-22.912104 14.750227 9.567745 28.880364 -0.571986 1.233127 0.068129 -0.023549 -65993.600000 0 0 1
-22.202004 13.490527 8.894445 27.459687 -0.546008 1.240938 0.075806 -0.007887 -518475.000000 0 0 1
-22.158304 12.307027 9.649745 27.121411 -0.506990 1.207028 0.064897 -0.009796 1139540.000000 0 0 1
-23.423104 11.727027 10.061345 28.060570 -0.464176 1.204073 0.076497 -0.013034 1222720.000000 0 0 1
-24.500404 11.304127 9.043245 28.457571 -0.432282 1.247409 0.081917 -0.010777 -225206.000000 0 0 1
-24.924304 12.359727 8.225245 29.011005 -0.460355 1.283332 0.087970 -0.017104 37732.900000 0 0 1
-26.088224 11.992027 7.487645 29.672697 -0.430868 1.315697 0.107955 -0.017148 -52017.300000 0 0 1
-26.450974 13.020427 6.373045 30.162911 -0.457426 1.357904 0.090032 -0.021590 -509139.000000 0 0 1
-25.685874 12.988127 5.147645 29.239593 -0.468159 1.393823 0.088463 -0.025786 952539.000000 0 0 1
-24.342004 13.458227 5.271745 28.309862 -0.505052 1.383487 0.079800 -0.030107 55445.500000 0 0 1
-24.137004 14.943027 5.686345 28.952090 -0.554340 1.373106 0.079133 -0.032299 128319.000000 0 0 1
-22.760904 15.396227 5.838645 28.092567 -0.594733 1.361434 0.070927 -0.035552 1459100.000000 0 0 1
-22.762904 16.666727 6.454245 28.941093 -0.632004 1.345892 0.074559 -0.038620 280718.000000 0 0 1
-21.340104 17.274427 6.579145 28.232800 -0.680496 1.335602 0.067048 -0.040706 368957.000000 0 0 1
-20.828004 17.742227 5.318445 27.872535 -0.705564 1.378806 0.068724 -0.044146 356557.000000 0 0 1
-19.467404 18.113227 5.404545 27.134441 -0.749380 1.370279 0.060985 -0.036484 -57859.400000 0 0 1
-18.935704 18.742927 4.107545 26.957932 -0.780282 1.417832 0.054391 -0.026306 -772130.000000 0 0 1
-17.588904 19.083627 4.197545 26.290183 -0.826134 1.410448 0.042796 -0.028772 -512051.000000 0 0 1
-17.240204 20.238727 3.462645 26.810830 -0.865234 1.441284 0.049688 -0.022320 -87032.600000 0 0 1
-17.456504 21.617027 4.231345 28.105687 -0.891478 1.419671 0.053506 -0.018440 29559.700000 0 0 1
-16.566004 21.941827 5.316545 28.002534 -0.924105 1.379777 0.059025 -0.021174 280704.000000 0 0 1
-16.878704 23.234027 5.907645 29.319122 -0.942529 1.367913 0.043658 -0.003818 50276.700000 0 0 1
-15.999404 23.548327 7.142745 29.351719 -0.974011 1.324978 0.030822 0.007847 393178.000000 0 0 1
-16.662904 23.072927 8.318945 29.651596 -0.945336 1.286423 0.034560 -0.009827 -87887.000000 0 0 1
-15.806904 23.049327 9.393645 29.485085 -0.969674 1.246555 0.030916 -0.001774 -343393.000000 0 0 1
-16.404304 22.420127 10.673745 29.760580 -0.939125 1.203971 0.024859 -0.010115 -157058.000000 0 0 1
-17.657004 22.900627 11.049645 30.956472 -0.913973 1.205805 0.032590 -0.000934 -841100.000000 0 0 1
-18.540204 21.891427 11.465245 30.893779 -0.868095 1.190583 0.029340 -0.007565 374412.000000 0 0 1
-19.849504 22.533227 12.037445 32.351958 -0.848635 1.189550 0.036643 -0.013901 389364.000000 0 0 1
-20.699304 23.193527 11.107045 33.011624 -0.842162 1.227643 0.047395 -0.020964 104684.000000 0 0 1
-20.276704 24.468727 10.638545 33.511818 -0.878812 1.247750 0.038998 -0.011080 -218958.000000 0 0 1
-21.440004 25.187427 9.905245 34.528164 -0.865595 1.279834 0.044301 0.003155 659973.000000 0 0 1
-22.398804 25.805927 10.765045 35.826505 -0.855961 1.265603 0.041595 -0.017777 79957.900000 0 0 1
-23.132304 26.820627 10.154745 36.845194 -0.859100 1.291577 0.033458 -0.008769 -420063.000000 0 0 1
-24.033204 27.544127 11.133145 38.212834 -0.853364 1.275163 0.018365 -0.011014 -408740.000000 0 0 1
-23.267404 28.055627 12.215445 38.440959 -0.878425 1.247418 0.021116 -0.010004 530285.000000 0 0 1
-24.082404 28.766127 13.149145 39.753644 -0.873793 1.233681 0.009394 -0.013440 -105434.000000 0 0 1
8.710996 -32.798119 28.085735 44.050047 -1.311195 0.879434 0.062692 -0.015278 275729.000000 0 0 1
10.053896 -32.945419 27.644935 44.167000 -1.274605 0.894488 0.047537 -0.019737 534630.000000 0 0 1
10.437996 -32.419819 26.376145 43.077807 -1.259313 0.911842 0.055848 -0.017704 1404770.000000 0 0 1
11.984296 -32.714719 26.094565 43.529330 -1.219651 0.927956 0.023745 -0.007272 1696800.000000 0 0 1
12.435996 -34.090419 25.979985 44.629254 -1.221003 0.949452 0.032005 -0.020228 310033.000000 0 0 1
13.837996 -34.137119 25.773275 44.956588 -1.185673 0.960278 0.036392 -0.012129 279367.000000 0 0 1
14.481196 33.059527 25.775595 44.351084 1.157938 0.950629 0.055556 -0.010471 64974.600000 0 0 1
14.211896 32.408527 24.574785 43.083763 1.157527 0.963809 0.050532 -0.016277 808039.000000 0 0 1
15.295896 31.494427 24.339395 42.641172 1.118678 0.963322 0.055672 -0.023392 330095.000000 0 0 1
15.420896 31.016027 22.846645 41.494182 1.109398 0.987715 0.060481 -0.030908 -93370.500000 0 0 1
14.414596 30.137127 22.364545 40.201988 1.124659 0.980864 0.065771 -0.026185 -298063.000000 0 0 1
14.611496 28.748127 22.488045 39.314918 1.100563 0.961857 0.074796 -0.021706 -210254.000000 0 0 1
14.319496 28.111327 23.847165 39.547212 1.099669 0.923534 0.082064 -0.029561 263720.000000 0 0 1
15.251696 28.472427 24.882115 40.772699 1.079025 0.914402 0.071456 -0.025202 526622.000000 0 0 1
14.855196 27.885527 26.057645 40.954613 1.081316 0.881160 0.065716 -0.026822 -538499.000000 0 0 1
15.750596 28.238727 27.212595 42.261475 1.062010 0.871198 0.065209 -0.031199 -284642.000000 0 0 1
15.520796 29.567927 27.691935 43.382032 1.087412 0.878473 0.060749 -0.028196 300677.000000 0 0 1
16.432896 29.895727 28.724745 44.597147 1.068204 0.870958 0.073177 -0.036821 62923.100000 0 0 1
16.230896 31.300427 29.291365 45.838224 1.092418 0.877578 0.070459 -0.040957 -268625.000000 0 0 1
16.922596 32.269027 28.600565 46.321233 1.087802 0.905313 0.064410 -0.025610 -143982.000000 0 0 1
16.547696 33.589427 29.078635 47.409312 1.113049 0.910498 0.052020 -0.010332 574.687000 0 0 1
17.165596 -33.794919 28.356915 47.337817 -1.100822 0.928503 0.032200 -0.008703 -566931.000000 0 0 1
16.890996 -33.700519 26.982715 46.358361 -1.106182 0.949553 0.049563 -0.008921 -243263.000000 0 0 1
17.240896 -32.508619 26.386905 45.280543 -1.083166 0.948697 0.043659 -0.004059 803696.000000 0 0 1
18.727396 -31.951719 26.334595 45.443797 -1.040649 0.952684 0.055229 -0.001232 986632.000000 0 0 1
19.220996 -31.445819 27.574065 46.028419 -1.022152 0.928462 0.046151 -0.004149 247635.000000 0 0 1
20.274996 -30.522219 27.297435 45.692793 -0.984455 0.930526 0.052837 -0.002030 190019.000000 0 0 1
20.466896 -29.532819 28.521195 45.875264 -0.964769 0.899870 0.044293 -0.004510 551157.000000 0 0 1
19.420896 -28.537719 28.671255 44.873305 -0.973254 0.877680 0.054778 -0.007270 665839.000000 0 0 1
19.475196 -27.846519 29.926845 45.280547 -0.960489 0.848752 0.056059 -0.010475 432303.000000 0 0 1
18.109896 -27.161019 30.278245 44.524841 -0.982729 0.822992 0.069678 -0.010032 337096.000000 0 0 1
17.728496 -26.269819 29.301715 43.162408 -0.977142 0.824572 0.057796 -0.003316 -942722.000000 0 0 1
16.565296 -25.656819 29.650425 42.565586 -0.997486 0.800174 0.055036 -0.004629 -1377460.000000 0 0 1
15.763496 -24.958219 28.537445 41.058328 -1.007468 0.802312 0.043865 -0.005291 -695689.000000 0 0 1
15.197696 -25.893419 27.662375 40.824578 -1.040040 0.826314 0.039163 -0.003158 98084.900000 0 0 1
14.468096 -25.353719 26.603255 39.495191 -1.052237 0.831752 0.041138 -0.009592 -307851.000000 0 0 1
12.996996 -24.908019 26.850255 38.862161 -1.089861 0.808049 0.024142 -0.011015 519923.000000 0 0 1
11.991496 -25.933919 26.936205 39.267331 -1.137690 0.814861 0.027619 -0.011299 604531.000000 0 0 1
11.752496 -26.597419 25.677495 38.792752 -1.154727 0.847426 0.027357 -0.018135 -635686.000000 0 0 1
10.731096 -27.755119 25.784945 39.374693 -1.201864 0.856798 0.046945 -0.021003 775039.000000 0 0 1
9.385396 -27.371919 26.108765 38.974033 -1.240475 0.836720 0.035043 -0.028344 611593.000000 0 0 1
8.648996 -28.535519 26.416575 39.836120 -1.276502 0.845802 0.046373 -0.024102 138696.000000 0 0 1
7.140596 -28.348819 26.792055 39.654229 -1.324046 0.828961 0.057447 -0.037353 300789.000000 0 0 1
6.168496 -28.123019 25.825285 38.676865 -1.354876 0.839656 0.062436 -0.038234 -256726.000000 0 0 1
6.382296 -27.041919 24.981105 37.363816 -1.339023 0.838484 0.059970 -0.039951 -820806.000000 0 0 1
5.207396 -26.725219 23.988085 36.287499 -1.378358 0.848570 0.067268 -0.034228 -87330.100000 0 0 1
4.890896 -27.785419 23.100245 36.463293 -1.396557 0.884701 0.055456 -0.027720 201207.000000 0 0 1
4.270596 -29.017919 23.539475 37.608304 -1.424674 0.894496 0.051432 -0.021974 682052.000000 0 0 1
2.740296 -28.858619 23.896805 37.568423 -1.476124 0.881379 0.035986 -0.027388 -27657.200000 0 0 1
1.931896 -28.540719 22.780445 36.568478 -1.503210 0.898284 0.030852 -0.023090 185225.000000 0 0 1
0.638296 -28.091219 23.162245 36.414470 -1.548078 0.881399 0.029903 -0.024068 328575.000000 0 0 1
0.602096 -26.681519 23.744075 35.721801 -1.548234 0.843712 0.036691 -0.029009 -583236.000000 0 0 1
1.131396 -26.527619 25.074455 36.520172 -1.528172 0.814005 0.043508 -0.031086 -201.492000 0 0 1
1.051996 -25.195119 25.484105 35.851644 -1.529067 0.780131 0.044902 -0.027643 360690.000000 0 0 1
2.325396 -24.619519 26.209685 36.034370 -1.476622 0.756340 0.053609 -0.027740 889019.000000 0 0 1
3.463896 -24.471719 25.330855 35.390901 -1.430184 0.773106 0.058788 -0.027413 848095.000000 0 0 1
4.566896 -23.711719 25.820045 35.352184 -1.380525 0.751938 0.070353 -0.032808 388928.000000 0 0 1
4.369496 -22.275619 26.244665 34.699829 -1.377100 0.713105 0.059625 -0.018809 -672566.000000 0 0 1
4.195396 -21.326219 25.206535 33.283305 -1.376552 0.711577 0.060890 -0.015706 145828.000000 0 0 1
3.640196 -20.120619 25.715745 32.854070 -1.391814 0.671762 0.067912 -0.027667 -135935.000000 0 0 1
3.290696 -19.153619 24.532025 31.297126 -1.400652 0.669966 0.069732 -0.026659 -327194.000000 0 0 1
4.352096 -18.379319 24.047815 30.578383 -1.338286 0.665785 0.073264 -0.023373 -409497.000000 0 0 1
4.432496 -18.405719 22.612145 29.491128 -1.334475 0.697043 0.076280 -0.028962 -274420.000000 0 0 1
5.442796 -17.377119 22.114745 28.646994 -1.267259 0.688855 0.073997 -0.020014 1007490.000000 0 0 1
6.764696 -17.776619 22.558545 29.506902 -1.207178 0.700504 0.069557 -0.027427 626229.000000 0 0 1
7.748496 -16.955019 21.931845 28.783983 -1.142134 0.704484 0.046682 -0.022905 -18139.500000 0 0 1
9.151596 -17.120419 22.515045 29.728568 -1.079898 0.711545 0.062218 -0.016166 -273298.000000 0 0 1
9.286396 -16.586919 23.808225 30.466287 -1.060413 0.673792 0.064201 -0.013218 -470512.000000 0 0 1
10.505896 -16.963919 24.371675 31.498047 -1.016300 0.686054 0.073998 -0.013275 -347180.000000 0 0 1
10.731196 -16.343619 25.719655 32.307478 -0.989796 0.649990 0.085748 -0.032445 10138.300000 0 0 1
10.911796 -14.930719 25.648135 31.619939 -0.939678 0.624701 0.098364 -0.026835 96918.700000 0 0 1
10.736796 -14.233819 26.873485 32.250033 -0.924539 0.585772 0.089606 -0.022290 -6036.080000 0 0 1
11.031996 -12.728419 26.711295 31.578646 -0.856674 0.562610 0.081573 -0.020181 -343914.000000 0 0 1
9.909896 -12.080919 26.186715 30.494240 -0.883803 0.537985 0.080630 -0.012261 -300942.000000 0 0 1
10.090696 -10.665619 26.006315 29.864796 -0.813090 0.513966 0.072379 -0.004227 -517088.000000 0 0 1
8.939896 -10.029919 25.266685 28.616890 -0.842796 0.488732 0.068156 0.001637 -124252.000000 0 0 1
7.722696 -9.844519 25.979825 28.835844 -0.905599 0.448829 0.035767 -0.001296 -105923.000000 0 0 1
6.772796 -9.255519 25.152125 27.643531 -0.939073 0.427817 0.027325 0.000796 907.475000 0 0 1
5.299396 -9.456819 25.580415 27.782596 -1.060020 0.400836 0.018292 -0.001076 -1024510.000000 0 0 1
4.816096 -8.511319 26.555505 28.298979 -1.055869 0.352852 0.010920 0.001454 -90728.000000 0 0 1
3.442296 -8.626019 26.833925 28.395724 -1.191101 0.333205 0.004169 -0.004025 659040.000000 0 0 1
2.461496 -8.435219 25.605585 27.071348 -1.286868 0.330576 0.012329 -0.001535 -951525.000000 0 0 1
2.528096 -7.181719 24.991355 26.125394 -1.232325 0.295720 0.011800 0.001754 -291699.000000 0 0 1
1.692496 -7.076519 23.881535 24.965364 -1.336036 0.295740 0.012818 -0.010611 -206286.000000 0 1 0
1.937196 -5.719619 23.181945 23.955570 -1.244230 0.254831 0.010654 -0.016479 -219378.000000 0 1 0
1.672796 -4.585219 23.949685 24.441970 -1.220977 0.201042 0.009143 -0.006204 431818.000000 0 1 0
2.368196 -3.451119 23.352045 23.724177 -0.969385 0.177353 0.011274 -0.010719 -263738.000000 0 1 0
1.512096 -2.658119 22.327145 22.535604 -1.053589 0.136121 0.022846 -0.013765 651962.000000 0 1 0
0.440796 -1.822119 22.758245 22.835327 -1.333442 0.082188 0.028439 -0.016958 512901.000000 0 1 0
-0.673604 -2.477119 23.340445 23.481189 1.305286 0.109544 0.018831 -0.018970 120640.000000 0 1 0
-1.699304 -1.429119 23.944275 24.047002 0.699248 0.092466 0.026113 -0.024110 351333.000000 0 1 0
-1.324304 -0.911119 25.212135 25.263327 0.602626 0.063671 0.030912 -0.020465 76034.300000 0 0 1
-1.927304 0.328881 25.388325 25.463498 -0.169015 0.076859 0.038355 -0.022275 -407320.000000 0 0 1
-1.367104 1.115881 26.644145 26.702521 -0.684563 0.066136 0.054936 -0.026846 -209987.000000 0 0 1
-1.725904 0.582881 27.929075 27.988421 -0.325698 0.065133 0.069472 -0.023830 -53163.200000 0 0 1
-1.059204 -0.578119 28.314215 28.339917 0.499617 0.042593 0.060634 -0.023586 -1118690.000000 0 0 1
0.342696 -0.412119 28.967155 28.972113 -0.877114 0.018501 0.063132 -0.021432 363619.000000 0 0 1
1.346596 0.035881 28.013965 28.046334 0.026639 0.048049 0.047207 -0.020234 329276.000000 0 0 1
1.890496 -1.007119 27.274715 27.358698 -0.489486 0.078374 0.038019 -0.019553 -937761.000000 0 0 1
3.033296 -1.762119 27.923875 28.143361 -0.526276 0.124972 0.021957 -0.020558 -931223.000000 0 0 1
2.479196 -2.705119 28.829955 29.062526 -0.828949 0.126595 0.023515 -0.015558 751533.000000 0 0 1
3.394796 -3.743619 29.342125 29.774144 -0.834225 0.170558 0.016683 -0.002481 837183.000000 0 0 1
3.936496 -4.771219 28.260865 28.929864 -0.880966 0.215474 0.018315 -0.000459 -293874.000000 0 0 1
4.915796 -4.254619 27.416515 28.176801 -0.713424 0.232830 0.021348 -0.004249 -691192.000000 0 0 1
5.254696 -5.169819 26.492615 27.499046 -0.777256 0.271382 0.022751 -0.003780 275355.000000 0 0 1
6.457196 -4.621619 25.638555 26.840087 -0.621206 0.300348 0.013181 -0.000860 965815.000000 0 0 1
7.740696 -4.617519 26.268255 27.771588 -0.537860 0.330538 0.017323 -0.002652 433744.000000 0 0 1
8.599196 -5.695019 25.980785 27.953186 -0.584955 0.377906 0.033468 0.004115 110708.000000 0 0 1
9.386496 -5.743019 24.658505 27.002416 -0.549079 0.419737 0.033996 0.004150 -574366.000000 0 0 1
8.627296 -6.133919 23.551285 25.820888 -0.618064 0.422414 0.028764 0.005043 27812.400000 0 0 1
9.334396 -5.928219 22.305545 24.896025 -0.565825 0.460235 0.038056 0.011534 395889.000000 0 1 0
9.445096 -4.489619 21.699545 24.088105 -0.443725 0.449094 0.026846 0.011028 -142212.000000 0 1 0
8.234296 -4.003419 21.200245 23.092886 -0.452537 0.407682 0.020484 0.005825 -707851.000000 0 1 0
8.312596 -2.778119 20.543245 22.334774 -0.322536 0.403258 0.012635 0.010301 -415593.000000 0 1 0
6.969996 -2.095119 20.264845 21.532169 -0.291999 0.344801 0.008293 0.011574 -149507.000000 0 1 0
6.495396 -1.611119 21.504345 22.521606 -0.243133 0.301703 0.010083 0.015220 -850804.000000 0 1 0
5.174796 -1.200119 21.449545 22.097552 -0.227888 0.242773 0.002283 0.022873 -809516.000000 0 1 0
4.771296 -0.420119 22.748545 23.247324 -0.087825 0.207521 0.005510 0.007411 -179877.000000 0 1 0
3.527896 0.242881 22.691545 22.965436 0.068737 0.154596 -0.000437 0.005273 21276.000000 0 1 0
3.019196 0.669881 23.955555 24.154356 0.218337 0.128388 0.013961 0.001072 686355.000000 0 1 0
1.475896 0.918881 23.854915 23.918185 0.556866 0.072752 0.017859 -0.006071 206168.000000 0 1 0
1.213696 2.083881 23.141645 23.266958 1.043403 0.103834 0.027158 -0.013320 126476.000000 0 1 0
-0.139504 2.327881 22.830845 22.949640 -1.510941 0.101792 0.019738 -0.019055 -35839.200000 0 1 0
-0.571804 3.755881 22.370245 22.690559 -1.419714 0.168226 0.023654 -0.014414 -161892.000000 0 1 0
-0.399804 4.730881 23.370045 23.847433 -1.486487 0.200427 0.038790 -0.013729 -216111.000000 0 1 0
-1.232904 5.798881 23.116745 23.864848 -1.361305 0.251048 0.032364 -0.013982 -411080.000000 0 1 0
-1.074404 6.990881 24.053405 25.071758 -1.418303 0.285991 0.043613 -0.008445 -251192.000000 0 0 1
-0.027904 7.866881 23.742255 25.011663 -1.567249 0.319962 0.034134 -0.007771 -372357.000000 0 0 1
-0.112204 9.121881 24.346875 25.999839 -1.558496 0.358500 0.046764 -0.002783 -750621.000000 0 0 1
0.607896 10.267881 23.630755 25.772301 1.511662 0.410541 0.036856 -0.001845 1351760.000000 0 0 1
2.054696 10.294881 23.764415 25.979872 1.373801 0.415972 0.029345 0.001399 1230980.000000 0 0 1
2.567796 10.581881 25.092635 27.353430 1.332738 0.409428 0.038684 0.001912 -588518.000000 0 0 1
3.912696 11.319881 25.054605 27.770166 1.238004 0.445923 0.028111 -0.000565 -428968.000000 0 0 1
5.036396 10.766881 24.448295 27.184741 1.133266 0.452541 0.032020 -0.006100 -347385.000000 0 0 1
5.037496 10.625881 23.062545 25.887578 1.128101 0.471533 0.028561 -0.007775 -890289.000000 0 0 1
6.352496 10.097881 22.448945 25.421970 1.009260 0.488468 0.031913 -0.002772 134848.000000 0 0 1
7.291796 11.151881 22.265445 25.947732 0.991711 0.539261 0.034354 -0.008315 715413.000000 0 0 1
8.476896 10.643881 21.611745 25.538549 0.898248 0.561908 0.040587 -0.013798 611770.000000 0 0 1
9.419896 11.795881 21.260945 26.074989 0.896925 0.617416 0.043322 -0.022485 -712978.000000 0 0 1
8.914796 12.521881 20.138745 25.334564 0.952103 0.651934 0.042331 -0.020206 555784.000000 0 0 1
9.845196 13.407881 19.495345 25.627478 0.937429 0.706374 0.051665 -0.025380 1441880.000000 0 0 1
11.183296 12.776881 18.881345 25.393306 0.851810 0.732424 0.060819 -0.027154 349580.000000 0 0 1
12.097996 12.513881 19.886745 26.428041 0.802294 0.718967 0.071532 -0.028491 -1508820.000000 0 0 1
13.306496 12.220881 19.280545 26.422570 0.742896 0.752913 0.074540 -0.031655 -1397970.000000 0 0 1
14.473296 12.272881 20.234145 27.740233 0.703313 0.753330 0.074769 -0.025252 -740071.000000 0 0 1
14.789496 13.494881 20.795245 28.866645 0.739659 0.766432 0.073137 -0.027666 -18907.000000 0 0 1
15.910196 13.401881 21.648945 30.023684 0.700033 0.765462 0.075991 -0.029858 266855.000000 0 0 1
16.648796 14.689881 22.108945 31.333376 0.722971 0.787522 0.083112 -0.026032 194910.000000 0 0 1
15.943796 15.497881 23.017745 32.003211 0.771217 0.768100 0.094042 -0.020508 754466.000000 0 0 1
16.809696 16.635881 23.271345 33.179420 0.780201 0.793466 0.092686 -0.016138 238031.000000 0 0 1
-20.488104 12.623827 -25.219715 34.859108 -0.552213 2.379620 0.022517 -0.006382 15394.500000 0 0 1
-20.428804 12.500927 -26.612855 35.802978 -0.549143 2.408807 0.028071 -0.021677 431921.000000 0 0 1
-21.250504 13.543927 -27.197485 37.077285 -0.567428 2.394305 0.049089 -0.022083 399090.000000 0 0 1
-21.008604 13.629927 -28.718735 38.103833 -0.575516 2.424465 0.047089 -0.019258 234555.000000 0 0 1
-19.667004 14.038827 -28.909095 37.677785 -0.619945 2.445372 0.034838 -0.014995 -138509.000000 0 0 1
-19.554104 14.469627 -30.285835 38.845397 -0.637057 2.464904 0.052342 -0.027064 224415.000000 0 0 1
-18.129004 14.879327 -30.759695 38.680925 -0.687264 2.490160 0.022614 -0.024678 -83556.300000 0 0 1
-17.289104 13.756827 -30.861895 37.955500 -0.672109 2.520267 0.018433 -0.025010 -208891.000000 0 0 1
-15.937704 14.207227 -30.916085 37.572064 -0.728056 2.537200 0.004099 -0.015242 89376.700000 0 0 1
-15.101004 13.902427 -29.699255 36.102126 -0.744096 2.536845 0.018627 -0.005787 -708259.000000 0 0 1
-15.584004 14.347127 -28.425755 35.450314 -0.744098 2.501178 0.013467 -0.003594 -302406.000000 0 0 1
-16.407804 13.385027 -27.784505 34.933561 -0.684284 2.490386 0.037507 -0.001963 -335767.000000 0 0 1
-17.235104 13.915427 -26.653525 34.656865 -0.679230 2.448180 0.036880 -0.011295 -918803.000000 0 0 1
-16.462404 14.316727 -25.549585 33.597034 -0.715799 2.434835 0.054966 -0.005490 -11346.600000 0 0 1
-17.215004 14.832727 -24.449735 33.378971 -0.711199 2.392768 0.046287 -0.001404 -245688.000000 0 0 1
-16.343304 15.264727 -23.275435 32.277877 -0.751288 2.376179 0.045673 -0.001858 -106836.000000 0 0 1
-15.588204 16.406027 -23.598735 32.696332 -0.810954 2.377131 0.020682 -0.000918 -44813.300000 0 0 1
-14.887704 16.976427 -22.489135 31.868542 -0.850855 2.354185 0.025671 -0.001436 68132.400000 0 0 1
-14.685504 18.510027 -22.818035 32.847341 -0.900104 2.338756 0.025165 -0.000870 614663.000000 0 0 1
-15.881804 19.291127 -22.772935 33.808073 -0.882027 2.309858 0.004161 0.001724 996045.000000 0 0 1
-16.731104 19.258427 -23.967035 35.003365 -0.855507 2.324997 -0.011827 0.011411 934112.000000 0 0 1
-18.000104 20.146127 -23.768435 35.983450 -0.841597 2.292331 -0.010317 0.008699 368569.000000 0 0 1
-17.711104 21.504727 -23.728035 36.594482 -0.881835 2.276283 -0.004507 0.003628 77682.300000 0 0 1
-18.916104 22.222227 -23.940235 37.746274 -0.865592 2.257823 0.022331 -0.007563 165018.000000 0 0 1
-18.877004 23.755827 -24.045935 38.715469 -0.899341 2.240934 0.023100 -0.016643 -169126.000000 0 0 1
-18.394104 24.371027 -22.876535 38.152665 -0.924260 2.213804 0.030052 -0.015320 -124895.000000 0 0 1
-17.625204 25.507227 -23.182735 38.713119 -0.966144 2.212841 0.023581 -0.004206 -892.883000 0 0 1
-16.416704 25.809127 -22.217835 37.805441 -1.004268 2.198996 0.025116 -0.013854 527112.000000 0 0 1
-15.293904 24.950727 -22.238735 36.756001 -1.020899 2.220608 0.035104 -0.025899 -24309.500000 0 0 1
-15.531404 23.574627 -21.927635 35.746450 -0.988247 2.231182 0.024735 -0.005367 -635199.000000 0 0 1
-14.229004 22.710327 -21.916335 34.620070 -1.011088 2.256287 0.043821 -0.006265 450212.000000 0 0 1
-13.487204 22.968727 -20.743835 33.760536 -1.039843 2.232473 0.055448 -0.020476 -20503.400000 0 0 1
-12.481704 21.957227 -20.579735 32.579721 -1.053894 2.254506 0.055406 -0.016334 228094.000000 0 0 1
-11.672804 22.109527 -19.262235 31.561356 -1.085037 2.227249 0.059229 -0.022843 -238133.000000 0 0 1
-12.337704 21.938427 -18.056935 30.976869 -1.058499 2.193110 0.062857 -0.024413 -565173.000000 0 0 1
-13.255904 22.951227 -17.748835 31.898259 -1.047034 2.160868 0.069607 -0.030672 -703833.000000 0 0 1
-13.857304 22.744427 -16.396735 31.275977 -1.023595 2.122642 0.076896 -0.028990 -294267.000000 0 0 1
-13.132204 23.120727 -15.264735 30.659989 -1.054251 2.091939 0.089898 -0.036662 -138816.000000 0 0 1
-14.055604 23.410527 -14.223135 30.788152 -1.030085 2.051009 0.081524 -0.034324 320853.000000 0 0 1
-13.351104 23.851127 -12.936035 30.240192 -1.060484 2.012827 0.087554 -0.029409 -164221.000000 0 0 1
-12.778304 25.116927 -12.994935 31.032457 -1.100171 2.002868 0.093132 -0.044240 85129.800000 0 0 1
-11.812504 25.326727 -11.991135 30.409960 -1.134384 1.976120 0.074950 -0.031904 20842.500000 0 0 1
-11.297904 26.792727 -11.959835 31.440905 -1.171743 1.961015 0.084381 -0.035513 169582.000000 0 0 1
-10.474604 27.194927 -13.047935 31.930079 -1.203142 1.991761 0.086952 -0.042293 63123.300000 0 0 1
-10.377904 28.589927 -13.054035 33.098227 -1.222595 1.976214 0.054709 -0.025597 -679037.000000 0 0 1
-9.598304 29.132827 -14.266135 33.828562 -1.252530 2.006136 0.085755 -0.039184 660030.000000 0 0 1
-8.205504 28.902427 -14.417635 33.324897 -1.294171 2.018214 0.067805 -0.039520 41030.700000 0 0 1
-7.645904 27.610227 -14.327535 32.032214 -1.300643 2.034524 0.066842 -0.039578 577879.000000 0 0 1
-6.182304 27.621827 -14.960435 32.015634 -1.350606 2.057014 0.056682 -0.036993 1325890.000000 0 0 1
-5.359904 28.469627 -14.205135 32.265060 -1.384707 2.026689 0.034202 -0.029398 -1986460.000000 0 0 1
-4.081304 28.428727 -14.690835 32.259420 -1.428208 2.043614 0.034052 -0.024609 -906265.000000 0 0 1
-3.179404 29.563627 -14.081535 32.899943 -1.463664 2.013087 0.005503 -0.010792 76079.300000 0 0 1
-3.479704 30.892727 -14.517035 34.310541 -1.458631 2.007668 0.003401 -0.004602 -217279.000000 0 0 1
-4.385504 31.561727 -13.683435 34.678691 -1.432730 1.976404 -0.000557 -0.011118 -69455.900000 0 0 1
-4.499704 33.091127 -13.891335 36.169589 -1.435646 1.964987 0.008134 -0.013751 -897057.000000 0 0 1
-3.518104 33.784927 -13.264235 36.465576 -1.467038 1.943083 -0.007344 -0.013659 -1031050.000000 0 0 1
-3.689204 -33.455019 -13.473935 36.254592 1.460967 1.951580 0.013192 -0.015800 224934.000000 0 0 1
-2.915404 -32.475319 -12.585135 34.950416 1.481263 1.939156 0.012000 -0.014447 76145.800000 0 0 1
-3.273504 -32.626519 -11.216235 34.655584 1.470798 1.900380 0.003346 -0.012426 -167423.000000 0 0 1
-2.401404 -31.887219 -10.421235 33.632776 1.495629 1.885835 -0.003938 -0.012306 -293891.000000 0 0 1
-2.721604 -32.082219 -8.919435 33.410062 1.486167 1.841042 -0.001526 -0.005272 -549815.000000 0 0 1
-1.919504 -31.315419 -8.103735 32.403866 1.509577 1.823565 0.007573 -0.014996 -545907.000000 0 0 1
-1.928104 -31.747419 -6.720135 32.508098 1.510138 1.779020 0.002045 -0.016291 -19637.400000 0 0 1
-1.027604 -30.871119 -5.829835 31.433564 1.537522 1.757342 0.019543 -0.017878 59502.600000 0 0 1
-0.997204 -31.216819 -4.477335 31.552033 1.538863 1.713180 0.029893 -0.025942 -44488.400000 0 0 1
0.069396 -30.506419 -3.905435 30.755469 -1.568522 1.698124 0.029789 -0.017825 -212127.000000 0 0 1
0.126596 -30.714319 -2.364235 30.805439 -1.566675 1.647619 0.038892 -0.012231 -165085.000000 0 0 1
0.353696 -32.095619 -1.876135 32.152352 -1.559777 1.629181 0.038857 -0.018516 450183.000000 0 0 1
1.573096 -32.715719 -2.253135 32.830924 -1.522750 1.639479 0.040287 -0.015159 170407.000000 0 0 1
2.903196 -32.290319 -1.614435 32.460741 -1.481128 1.620552 0.033647 -0.006270 -711224.000000 0 0 1
3.029296 -32.366919 -0.161435 32.508771 -1.477476 1.575762 0.028281 -0.008106 308649.000000 0 0 1
4.295296 -31.845719 0.242265 32.134998 -1.436727 1.563257 0.015013 -0.003743 474009.000000 0 0 1
4.521296 -30.313919 0.224565 30.650061 -1.422739 1.563470 0.012218 -0.007131 -703228.000000 0 0 1
4.614496 -29.749619 -1.032235 30.123063 -1.416912 1.605070 0.016387 -0.011968 167078.000000 0 0 1
4.399696 -28.330319 -0.922335 28.684753 -1.416727 1.602956 0.047543 -0.011469 -301853.000000 0 0 1
3.903796 -27.584619 -2.182335 27.944828 -1.430209 1.648970 0.044690 -0.010438 -882774.000000 0 0 1
2.585096 -27.816619 -2.570235 28.054467 -1.478129 1.662541 0.051562 -0.015704 -617366.000000 0 0 1
2.129396 -26.932219 -3.515435 27.244028 -1.491895 1.700192 0.043686 -0.021063 -29960.400000 0 0 1
2.706396 -27.172219 -4.939135 27.749759 -1.471522 1.749738 0.030605 -0.013514 47214.900000 0 0 1
2.024896 -28.230919 -5.587735 28.849745 -1.499193 1.765712 0.030208 -0.012010 124006.000000 0 0 1
2.611796 -28.435019 -6.846535 29.364040 -1.479202 1.806123 0.037213 -0.025406 -61908.600000 0 0 1
1.843896 -29.452519 -7.726435 30.504896 -1.508272 1.826871 0.021614 -0.020373 293465.000000 0 0 1
0.542496 -29.007319 -8.110335 30.124681 -1.552096 1.843385 0.014921 -0.015032 131693.000000 0 0 1
0.351196 -29.125319 -9.491835 30.634988 -1.558739 1.885817 0.027413 -0.009168 243318.000000 0 0 1
-0.980904 -28.371819 -9.759435 30.019475 1.536237 1.901917 0.003322 -0.013023 -386952.000000 0 0 1
-0.904704 -26.932219 -9.614235 28.611124 1.537217 1.913496 0.006080 -0.013922 64181.600000 0 0 1
-2.131704 -26.205319 -9.668335 28.013204 1.489629 1.923179 0.008781 -0.012087 1424810.000000 0 0 1
-3.233904 -26.544719 -8.561735 28.078169 1.449565 1.880656 0.012931 -0.015850 403539.000000 0 0 1
-2.789004 -26.243319 -7.250135 27.368866 1.464919 1.838901 0.017132 -0.019529 -235569.000000 0 0 1
-1.875704 -27.146319 -6.670035 28.016607 1.501810 1.811179 0.012065 -0.018450 245732.000000 0 0 1
-1.608704 -26.842919 -5.159035 27.381488 1.510938 1.760343 0.024864 -0.014862 530610.000000 0 0 1
-2.722604 -27.223019 -4.343035 27.701395 1.471117 1.728226 0.030584 -0.017904 347132.000000 0 0 1
-2.408404 -27.233919 -2.954635 27.499393 1.482592 1.678448 0.036583 -0.004078 681331.000000 0 0 1
-3.719604 -27.271719 -2.080235 27.602708 1.435242 1.646231 0.046543 -0.006632 759430.000000 0 0 1
-4.546404 -26.123619 -2.226635 26.609607 1.398488 1.654572 0.032929 -0.005977 20403.700000 0 0 1
-5.411804 -26.077619 -1.106035 26.656203 1.366174 1.612301 0.042554 -0.007801 -400247.000000 0 0 1
-6.436304 -24.970019 -0.992035 25.805271 1.318526 1.609249 0.022123 -0.002032 -477399.000000 0 0 1
-5.934604 -23.721819 -0.788535 24.465609 1.325653 1.603032 0.016911 -0.003576 99472.100000 0 1 0
-6.798504 -23.123819 0.190265 24.103254 1.284849 1.562902 0.018454 0.006357 255842.000000 0 1 0
-6.284904 -21.742719 0.632265 22.641679 1.289408 1.542868 0.014423 0.001420 520326.000000 0 1 0
-5.161104 -21.854519 1.508965 22.506310 1.338888 1.503700 0.012027 -0.000639 589118.000000 0 1 0
-4.479404 -20.590319 1.652965 21.136665 1.356585 1.492513 -0.001636 -0.000651 266165.000000 0 1 0
-3.484804 -20.393819 2.809265 20.879265 1.401555 1.435839 0.001841 0.001203 -291913.000000 0 1 0
-4.028904 -20.381519 4.061565 21.169192 1.375638 1.377737 0.001607 0.011817 -324031.000000 0 1 0
-3.082104 -20.096519 5.093765 20.959864 1.418617 1.325313 0.019863 0.003227 530132.000000 0 1 0
-2.173604 -21.278819 5.598165 22.110001 1.469001 1.314814 0.024267 -0.005518 689621.000000 0 1 0
-1.119804 -21.522419 4.665965 22.050844 1.518814 1.357584 0.040044 -0.009860 5223.540000 0 1 0
-0.482504 -22.782919 4.899265 23.308733 1.549621 1.359027 0.046849 -0.013221 -227344.000000 0 1 0
0.470896 -23.093619 3.671365 23.388371 -1.550408 1.413170 0.050308 -0.019513 314509.000000 0 1 0
1.654196 -22.352019 3.650065 22.708415 -1.496924 1.409360 0.025709 -0.021689 -1248400.000000 0 1 0
2.639796 -22.919719 4.411765 23.489268 -1.456126 1.381854 0.039349 -0.017318 -1628520.000000 0 1 0
3.810696 -21.965619 4.610165 22.765401 -1.399021 1.366878 0.043556 -0.017826 -453474.000000 0 1 0
4.620196 -21.681119 3.534565 22.447946 -1.360839 1.412682 0.028143 -0.012278 -1106740.000000 0 1 0
5.799896 -21.015519 3.856865 22.139699 -1.301518 1.395697 0.042390 -0.010275 -376293.000000 0 1 0
6.439296 -20.693719 2.543565 21.821189 -1.269122 1.453967 0.046196 -0.005145 -466529.000000 0 1 0
7.109196 -21.748719 1.925665 22.962048 -1.254866 1.486835 0.048004 -0.003235 -280679.000000 0 1 0
6.787896 -21.849119 0.587365 22.886777 -1.269578 1.545130 0.038582 -0.007107 -348606.000000 0 1 0
7.823396 -22.697419 -0.136135 24.008268 -1.238867 1.576467 0.043245 0.000756 -274030.000000 0 1 0
8.914096 -21.899919 -0.531235 23.650577 -1.184238 1.593260 0.041580 0.001102 -857144.000000 0 1 0
9.894096 -22.713419 -1.118135 24.800056 -1.159977 1.615898 0.039034 -0.002661 -522461.000000 0 1 0
11.157996 -21.980219 -1.534235 24.697870 -1.101057 1.632956 0.042671 -0.006950 -399952.000000 0 1 0
11.047796 -21.010719 -2.545435 23.874325 -1.086709 1.677617 0.041818 -0.003134 -451448.000000 0 1 0
12.267196 -20.946819 -3.246635 24.490692 -1.041006 1.703754 0.045293 -0.006649 -76461.600000 0 1 0
12.366396 -19.780119 -4.310235 23.722542 -1.012058 1.753505 0.039243 -0.018273 -480923.000000 0 1 0
12.783496 -18.651119 -3.653435 22.904795 -0.969936 1.730986 0.054153 -0.012978 40814.000000 0 1 0
12.657296 -17.496919 -4.483435 22.055623 -0.944537 1.775502 0.057070 -0.021613 -860813.000000 0 1 0
13.136396 -16.199419 -3.760335 21.192598 -0.889434 1.749177 0.064315 -0.017879 743505.000000 0 1 0
14.480896 -16.117319 -3.276635 21.913482 -0.838828 1.720885 0.055896 -0.014298 598877.000000 0 1 0
15.420396 -16.047319 -4.334035 22.673530 -0.805318 1.763129 0.058357 -0.017875 -1598620.000000 0 1 0
16.805696 -15.564319 -4.010635 23.254347 -0.747067 1.744131 0.057104 -0.020313 -762794.000000 0 1 0
17.432096 -16.489419 -3.124635 24.197981 -0.757615 1.700286 0.063341 -0.026630 381503.000000 0 1 0
18.818696 -16.228219 -2.968635 25.026211 -0.711618 1.689697 0.057308 -0.015166 27440.600000 0 0 1
19.476296 -17.242619 -2.049935 26.092840 -0.724641 1.649440 0.042393 -0.026228 194377.000000 0 0 1
20.885596 -17.249719 -2.276035 27.183475 -0.690344 1.654623 0.051937 -0.024144 349068.000000 0 0 1
21.479296 -18.070019 -1.293935 28.099111 -0.699408 1.616862 0.046110 -0.019717 1234850.000000 0 0 1
23.055096 -18.248719 -1.287335 29.431454 -0.669553 1.614550 0.053804 -0.028331 1109220.000000 0 0 1
23.728596 -17.032519 -1.036535 29.227169 -0.622576 1.606269 0.047740 -0.016154 -352699.000000 0 0 1
25.061196 -17.371219 -0.742335 30.502031 -0.606115 1.595136 0.078731 -0.018959 -337369.000000 0 0 1
25.903196 -16.136219 -0.440435 30.521257 -0.557119 1.585227 0.071012 -0.029882 -112503.000000 0 0 1
25.314196 -15.379319 0.634365 29.626583 -0.545943 1.549383 0.053835 -0.026973 269423.000000 0 0 1
26.095496 -14.305919 1.092165 29.779642 -0.501471 1.534113 0.053050 -0.026666 346850.000000 0 0 1
25.269296 -13.482319 2.163665 28.722669 -0.490122 1.495395 0.054359 -0.028555 282262.000000 0 0 1
24.933896 -14.135119 3.366865 28.858908 -0.515728 1.453864 0.062050 -0.013284 -208797.000000 0 0 1
26.006296 -14.376119 4.240665 30.016387 -0.504986 1.429044 0.072610 -0.004549 -41703.000000 0 0 1
25.561296 -14.865619 5.706965 30.115377 -0.526756 1.380140 0.059185 0.005717 274874.000000 0 0 1
24.858196 -16.103319 5.650665 30.152559 -0.574832 1.382279 0.052737 0.003434 45130.500000 0 0 1
24.084296 -16.250919 6.825365 29.845122 -0.593579 1.340062 0.026999 0.009749 -160205.000000 0 0 1
23.331796 -17.627819 6.768665 30.015455 -0.647029 1.343334 0.024655 0.005868 145546.000000 0 0 1
24.151696 -18.794319 6.646365 31.316211 -0.661293 1.356936 0.034044 0.006907 232644.000000 0 0 1
23.330696 -19.963119 6.528765 31.392233 -0.707770 1.361293 0.023001 0.017344 230693.000000 0 0 1
2.014696 23.221427 -3.127535 23.517550 1.484253 1.704179 0.027168 -0.015433 59618.500000 0 1 0
2.859096 24.215627 -2.600735 24.522129 1.453272 1.677053 0.035703 -0.015234 41680.000000 0 1 0
3.691196 24.722827 -3.646035 25.261367 1.422588 1.715635 0.049997 -0.017490 -382155.000000 0 0 1
4.615796 25.868027 -3.311935 26.484510 1.394218 1.696176 0.041255 -0.010576 -394455.000000 0 0 1
5.642096 25.407727 -2.472735 26.143838 1.352280 1.665520 0.026961 -0.006152 -124675.000000 0 0 1
6.396696 26.456027 -1.812835 27.278663 1.333563 1.637301 0.023685 -0.006000 584559.000000 0 0 1
7.505896 25.822727 -0.917835 26.907139 1.287921 1.604914 0.006370 -0.011342 461880.000000 0 0 1
8.562596 25.255227 -1.674135 26.719792 1.243916 1.633493 0.009815 -0.008943 -220076.000000 0 0 1
9.486796 24.511327 -0.912035 26.298978 1.201514 1.605483 -0.004314 -0.003807 -217420.000000 0 0 1
10.540596 23.944727 -1.876335 26.229273 1.156117 1.642393 0.017740 -0.008341 -233541.000000 0 0 1
11.471596 24.964127 -2.310635 27.570712 1.140051 1.654702 0.018822 -0.005847 517350.000000 0 0 1
12.219896 24.777827 -3.511735 27.849575 1.112621 1.697229 0.037587 -0.013680 990211.000000 0 0 1
13.399596 23.728127 -3.331435 27.453081 1.056727 1.692446 0.037465 -0.008905 221466.000000 0 0 1
12.977496 22.381827 -3.478235 26.104783 1.045345 1.704435 0.043481 -0.018643 -60113.900000 0 0 1
12.899096 21.914527 -4.841335 25.885743 1.038794 1.758931 0.049662 -0.020036 -464873.000000 0 0 1
11.784396 20.885827 -4.936335 24.483814 1.057094 1.773804 0.059354 -0.025666 -611326.000000 0 1 0
10.496596 21.347127 -4.622435 24.233144 1.113803 1.762721 0.051413 -0.021277 -694723.000000 0 1 0
9.652496 20.240027 -4.491135 22.869186 1.125798 1.768465 0.027243 -0.017421 -1155090.000000 0 1 0
8.198196 20.632427 -4.516435 22.656249 1.192581 1.771487 0.021522 -0.014328 -1083230.000000 0 1 0
7.829296 21.361627 -3.394135 23.002981 1.219488 1.718889 0.021752 -0.004949 694038.000000 0 1 0
6.495596 21.889427 -3.559735 23.108689 1.282328 1.725455 0.023635 0.007360 1070620.000000 0 1 0
5.947796 22.474127 -2.209135 23.352579 1.312077 1.665537 0.020139 -0.000864 18942.500000 0 1 0
5.523696 21.459727 -1.272335 22.195719 1.318867 1.628151 0.011705 -0.005396 81785.600000 0 1 0
4.845096 22.080427 -0.180235 22.606474 1.354790 1.578769 0.018025 -0.002888 193056.000000 0 1 0
4.390696 21.043227 0.831165 21.512472 1.365096 1.532150 0.004766 -0.005452 -203996.000000 0 1 0
3.708496 21.637727 1.892365 22.034637 1.401055 1.484809 0.014032 -0.006827 42411.900000 0 1 0
3.402496 20.655327 2.906765 21.134540 1.407535 1.432823 0.018777 -0.015910 -173551.000000 0 1 0
2.482796 21.310227 3.955065 21.815879 1.454812 1.388495 0.014621 -0.012189 -1157270.000000 0 1 0
1.180396 21.381727 3.522165 21.702010 1.515646 1.407779 0.010414 -0.015410 -1139810.000000 0 1 0
0.338796 22.024627 4.452965 22.472825 1.555415 1.371327 0.010621 -0.016709 646180.000000 0 1 0
-1.132304 22.128127 3.940265 22.504706 -1.519671 1.394803 0.011912 -0.015665 177070.000000 0 1 0
-2.000404 22.892727 4.715665 23.458816 -1.483636 1.368398 0.023583 -0.015476 -697058.000000 0 1 0
-3.265804 22.823727 4.116165 23.420734 -1.428673 1.394130 0.032779 -0.018366 -502775.000000 0 1 0
-4.450404 23.117627 5.033965 24.074293 -1.380612 1.360141 0.039184 -0.030537 -474467.000000 0 1 0
-4.725404 24.449027 5.366365 25.473167 -1.379875 1.358539 0.059919 -0.023661 468237.000000 0 0 1
-5.836804 24.338627 6.282665 25.805211 -1.335425 1.324860 0.060631 -0.025649 671094.000000 0 0 1
-6.312604 25.680527 6.836065 27.314286 -1.329762 1.317833 0.072291 -0.023314 -341634.000000 0 0 1
-5.416104 26.226227 7.769065 27.883822 -1.367144 1.288437 0.060795 -0.029869 -197654.000000 0 0 1
-5.784404 27.471727 8.344965 29.288113 -1.363269 1.281866 0.066962 -0.020890 -24850.700000 0 0 1
-5.860804 28.758227 7.416765 30.271984 -1.369754 1.323272 0.078208 -0.018225 55127.000000 0 0 1
-7.014204 28.575227 6.638065 30.163000 -1.330091 1.348907 0.070973 -0.021876 -506973.000000 0 0 1
-7.189604 29.729727 5.773365 31.126818 -1.333520 1.384237 0.079607 -0.019818 -1889900.000000 0 0 1
-8.571704 30.046327 5.338665 31.697905 -1.292896 1.401566 0.069698 -0.019571 -1476740.000000 0 0 1
-9.317104 30.665027 6.332565 32.668849 -1.275825 1.375720 0.061887 -0.014783 -366740.000000 0 0 1
-10.125404 29.751427 7.052165 32.208760 -1.242759 1.350056 0.043208 -0.012039 -365236.000000 0 0 1
-11.081604 30.448627 8.086265 33.396235 -1.221753 1.326235 0.020902 -0.016276 19776.500000 0 0 1
-10.483204 31.065927 9.191065 34.050918 -1.245345 1.297485 0.023726 -0.015464 87566.400000 0 0 1
-11.512804 31.432627 10.111365 34.968477 -1.219702 1.277451 0.028874 -0.005659 292761.000000 0 0 1
-11.011904 31.746127 11.549865 35.531366 -1.236909 1.239720 0.026488 -0.010247 -422342.000000 0 0 1
-10.378104 32.978627 11.542165 36.448819 -1.265916 1.248582 0.017881 -0.006178 -99876.700000 0 0 1
-9.733204 33.291327 12.752365 36.954979 -1.286359 1.218474 0.025209 -0.010225 142881.000000 0 0 1
-9.239204 -33.860419 12.756365 37.344554 1.304419 1.222193 0.025084 -0.012040 705496.000000 0 0 1
-10.290504 -32.997819 13.214565 37.005071 1.268500 1.205633 0.014621 0.002702 595892.000000 0 0 1
-9.743904 -31.708419 13.252665 35.721151 1.272659 1.190707 0.017348 0.012931 120789.000000 0 0 1
-10.622004 -30.684219 13.985165 35.354393 1.237536 1.164107 0.018996 0.007384 -291392.000000 0 0 1
-10.804304 -30.912019 15.348565 36.164407 1.234551 1.132485 0.018445 -0.001068 947404.000000 0 0 1
-9.670704 -30.623819 16.235965 35.985377 1.264917 1.102707 0.028820 -0.006616 1153520.000000 0 0 1
-9.898504 -31.056119 17.725665 37.103398 1.262246 1.072719 0.025182 -0.013108 -222066.000000 0 0 1
-10.931104 -30.370619 18.357965 37.133252 1.225308 1.053674 0.039138 -0.010913 1246.820000 0 0 1
-11.441904 -31.073119 19.517865 38.437000 1.217978 1.038181 0.040731 -0.010146 275752.000000 0 0 1
-11.767904 -30.070919 20.656165 38.333026 1.197779 1.001712 0.043879 -0.013211 -91494.500000 0 0 1
-10.570704 -29.860219 21.360065 38.205037 1.230557 0.977508 0.040568 -0.014976 197504.000000 0 0 1
-10.731804 -28.874819 22.345865 38.056070 1.214951 0.943222 0.027564 -0.013853 213030.000000 0 0 1
-9.452504 -28.856119 23.216965 38.223722 1.254238 0.918017 0.042440 -0.017856 177768.000000 0 0 1
-9.385304 -29.921519 24.173465 39.594667 1.266851 0.914075 0.042358 -0.005563 -591307.000000 0 0 1
-8.176304 -29.993119 24.854365 39.801741 1.304657 0.896364 0.052656 -0.008282 -515500.000000 0 0 1
-8.102304 -31.099719 25.945965 41.304152 1.315935 0.891599 0.060218 -0.007916 -272612.000000 0 0 1
-8.053304 -32.380519 25.376165 41.920204 1.327034 0.920598 0.075013 -0.003940 262735.000000 0 0 1
-8.075204 -33.392519 26.360465 43.302926 1.333525 0.916318 0.083809 -0.009858 -515140.000000 0 0 1
-7.835204 33.754027 25.832765 43.221019 -1.342709 0.930180 0.077180 -0.014054 -188450.000000 0 0 1
-6.494604 33.636227 25.404565 42.649356 -1.380060 0.932708 0.070789 -0.008085 128558.000000 0 0 1
-6.090704 32.431927 24.706865 41.223242 -1.385159 0.928116 0.060731 -0.006138 -283151.000000 0 0 1
-6.865504 31.982227 23.453665 40.250123 -1.359339 0.948752 0.060714 -0.008742 -234224.000000 0 0 1
-7.889204 31.089727 23.835865 39.961971 -1.322286 0.931708 0.062073 -0.018315 -111815.000000 0 0 1
-8.753404 30.850527 22.752665 39.319980 -1.294327 0.953719 0.055050 -0.013467 -365755.000000 0 0 1
-9.618604 29.578227 22.912765 38.631384 -1.256391 0.935877 0.049390 -0.026816 360774.000000 0 0 1
-8.968604 28.318727 22.678465 37.372435 -1.264088 0.918739 0.049833 -0.024497 -75798.700000 0 0 1
-9.835004 27.346427 23.133465 37.144469 -1.225555 0.898484 0.041540 -0.027289 -164678.000000 0 0 1
-9.130604 25.998727 22.968965 35.873041 -1.233058 0.875927 0.032402 -0.023533 -483127.000000 0 0 1
-7.845104 25.929327 23.483865 35.852023 -1.276995 0.856585 0.021024 -0.027508 -814565.000000 0 0 1
-7.256604 24.689427 23.308665 34.720598 -1.284931 0.834807 0.010934 -0.028760 -1047040.000000 0 0 1
-5.835904 24.622527 23.775365 34.721673 -1.338076 0.816548 -0.012012 -0.020848 -720889.000000 0 0 1
-4.923204 25.434127 23.046565 34.673865 -1.379594 0.843749 -0.007018 -0.015544 5484.300000 0 0 1
-3.607804 25.365227 23.556765 34.804197 -1.429510 0.827339 -0.010406 -0.015444 611188.000000 0 0 1
-2.499904 26.036727 22.658365 34.605811 -1.475075 0.856936 -0.001837 -0.004473 336105.000000 0 0 1
-2.245104 25.147627 21.601765 33.227697 -1.481755 0.863063 -0.000001 0.001961 -228683.000000 0 0 1
-1.485004 25.745027 20.590865 32.999930 -1.513179 0.896987 0.004536 0.006386 -102668.000000 0 0 1
-1.018104 24.711027 19.539265 31.519109 -1.529619 0.902158 0.010809 -0.001865 -349898.000000 0 0 1
-0.069704 23.794327 20.025965 31.100066 -1.567867 0.871185 0.010646 0.003605 -202251.000000 0 0 1
0.017196 22.708127 19.074365 29.656209 1.570039 0.872149 0.011745 0.001299 -536901.000000 0 0 1
1.069796 21.649327 19.404165 29.092257 1.521422 0.840638 0.015764 0.003926 626425.000000 0 0 1
2.381096 22.160627 19.080065 29.339596 1.463760 0.862793 0.019031 -0.005939 832105.000000 0 0 1
3.382796 21.163227 19.371565 28.889150 1.412294 0.835849 0.026332 0.001833 -494930.000000 0 0 1
4.767896 21.729027 19.207165 29.390451 1.354794 0.858574 0.027216 -0.003286 -435107.000000 0 0 1
5.692796 20.635127 18.917665 28.567367 1.301613 0.847029 0.035168 -0.003386 2047250.000000 0 0 1
7.049696 21.202627 18.788065 29.193167 1.249803 0.871633 0.042872 -0.002364 1191000.000000 0 0 1
8.125996 20.160027 18.567165 28.586677 1.187642 0.863864 0.049986 -0.003090 -585152.000000 0 0 1
8.539096 19.464827 19.689965 28.973960 1.157384 0.823614 0.052792 -0.002068 130317.000000 0 0 1
9.507896 18.466627 19.387665 28.412989 1.095324 0.819821 0.051507 -0.010918 312416.000000 0 0 1
9.996396 17.708727 20.680265 29.003453 1.056897 0.776989 0.071724 -0.014852 165296.000000 0 0 1
9.024296 16.815327 21.216765 28.536718 1.078244 0.732522 0.060312 -0.014089 287060.000000 0 0 1
9.648096 16.128927 22.281765 29.149701 1.031712 0.700700 0.059894 -0.017318 -64544.100000 0 0 1
8.740796 15.113227 22.942765 28.830220 1.046445 0.650487 0.047040 -0.015150 -412352.000000 0 0 1
7.662096 15.710427 23.608465 29.374902 1.117031 0.637317 0.043664 -0.004697 -705132.000000 0 0 1
6.576096 14.922327 23.977865 28.997567 1.155713 0.597237 0.043375 -0.002823 -163240.000000 0 0 1
6.733496 13.659627 24.886565 29.176472 1.112806 0.549153 0.047853 -0.007773 -849790.000000 0 0 1
7.014696 13.998827 26.220065 30.539563 1.106276 0.538341 0.056787 -0.011824 -186370.000000 0 0 1
7.241196 12.790327 26.962965 30.708775 1.055641 0.499084 0.059632 -0.022188 -754107.000000 0 0 1
8.143696 13.071927 28.185365 32.118684 1.013643 0.500093 0.044253 -0.021238 1064630.000000 0 0 1
9.509396 13.491927 27.944165 32.455155 0.956842 0.533547 0.071284 -0.022968 1199800.000000 0 0 1
9.736296 14.694827 27.163665 32.382064 0.985638 0.575631 0.063878 -0.020853 100098.000000 0 0 1
11.222996 14.847427 26.618065 32.479580 0.923537 0.610202 0.089481 -0.032443 1313880.000000 0 0 1
11.373996 14.159627 25.342565 31.178653 0.894065 0.621823 0.077676 -0.029664 249030.000000 0 0 1
12.708796 13.727527 25.135265 31.332731 0.823914 0.639818 0.100544 -0.041688 -136045.000000 0 0 1
12.810696 12.628027 24.003065 29.995468 0.778218 0.643129 0.081464 -0.031181 -51084.300000 0 0 1
12.387396 11.351927 24.373265 29.603545 0.741807 0.603556 0.079052 -0.026350 1229830.000000 0 0 1
10.960196 11.107727 24.455665 29.010120 0.792083 0.567952 0.076231 -0.020809 860588.000000 0 0 1
10.535196 9.743127 24.892365 28.732364 0.746358 0.522944 0.067026 -0.022693 -178445.000000 0 0 1
10.718596 8.778027 23.821965 27.557723 0.686191 0.526763 0.067422 -0.016294 251162.000000 0 0 1
10.412996 7.536827 24.296065 27.486961 0.626515 0.486633 0.062528 -0.024975 -81334.400000 0 0 1
10.824796 6.359027 23.332165 26.495346 0.531140 0.493640 0.048280 -0.025313 -392822.000000 0 0 1
12.163496 5.957527 23.265565 26.920796 0.455444 0.527193 0.063009 -0.021169 -190599.000000 0 0 1
12.414196 4.870327 22.395365 26.065010 0.373867 0.537069 0.065823 -0.024943 -95295.800000 0 0 1
12.079596 3.457527 22.936865 26.152838 0.278775 0.501148 0.049103 -0.028010 -263833.000000 0 0 1
13.028796 3.025527 23.887165 27.376998 0.228174 0.510446 0.054437 -0.017963 213163.000000 0 0 1
12.567996 1.832327 24.513565 27.608456 0.144773 0.478035 0.045913 -0.015516 -764455.000000 0 0 1
13.632496 1.105427 25.307265 28.766727 0.080911 0.495479 0.030465 -0.004195 167475.000000 0 0 1
14.645696 0.404627 24.564365 28.601891 0.027621 0.537801 0.049235 -0.006860 1403570.000000 0 0 1
15.849696 1.164127 24.320265 29.052424 0.073316 0.578806 0.052860 -0.016179 377898.000000 0 0 1
16.929596 0.359827 23.578165 29.028789 0.021251 0.622825 0.050525 -0.016554 -130259.000000 0 0 1
17.095096 -0.884573 24.124965 29.581053 -0.051698 0.617109 0.045674 -0.015584 80512.600000 0 0 1
18.100896 -1.630573 23.472165 29.685750 -0.089840 0.658864 0.052927 -0.008018 21241.700000 0 0 1
18.154096 -3.099373 24.032965 30.278057 -0.169096 0.653860 0.051947 -0.003074 842203.000000 0 0 1
16.999296 -3.901573 23.650265 29.385939 -0.225607 0.635431 0.044229 -0.002178 1025290.000000 0 0 1
17.092196 -5.242073 24.028565 29.949866 -0.297587 0.639670 0.064544 -0.006568 -206151.000000 0 0 1
16.281896 -6.245873 23.218565 29.038127 -0.366296 0.644186 0.043265 -0.010343 -393196.000000 0 0 1
16.583596 -6.180573 21.832265 28.104501 -0.356746 0.681189 0.034813 -0.009421 179999.000000 0 0 1
15.968296 -7.181373 21.018565 27.355780 -0.422627 0.694551 0.045281 -0.006847 -127956.000000 0 0 1
16.492696 -8.622973 21.123965 28.152915 -0.481749 0.722236 0.059149 -0.013369 -165935.000000 0 0 1
16.196696 -9.218173 22.394265 29.134358 -0.517419 0.694061 0.050622 -0.010822 108635.000000 0 0 1
16.943996 -10.422073 22.487165 30.023178 -0.551441 0.724255 0.052854 -0.012578 -11916.600000 0 0 1
16.540496 -11.459073 23.613565 31.024165 -0.605870 0.705736 0.069897 -0.010991 13647.500000 0 0 1
15.420996 -12.270873 23.351365 30.555977 -0.672129 0.700972 0.083814 -0.020466 -106617.000000 0 0 1
15.253896 -13.276673 24.349865 31.652288 -0.716207 0.693063 0.099079 -0.014975 176843.000000 0 0 1
14.135196 -14.313973 24.049765 31.354183 -0.791682 0.696589 0.092714 -0.028532 105800.000000 0 0 1
14.553396 -15.124973 22.996965 31.135616 -0.804655 0.739796 0.107789 -0.029362 -378129.000000 0 0 1
13.771796 -16.230673 22.655165 31.086229 -0.867171 0.754251 0.101207 -0.016475 -606737.000000 0 0 1
14.118196 -17.055273 21.373265 30.773727 -0.879338 0.803030 0.075178 -0.018256 -286599.000000 0 0 1
15.317896 -17.748873 21.578865 31.863896 -0.858783 0.826819 0.092832 -0.026937 -435524.000000 0 0 1
15.553396 -18.607173 20.464065 31.731892 -0.874556 0.869897 0.072102 -0.018996 6421.860000 0 0 1
-24.006504 -32.257219 26.979585 48.422499 0.931004 0.979822 0.043214 -0.014903 -1276650.000000 0 0 1
-23.974404 -33.494819 26.284045 48.862317 0.949568 1.002828 0.047305 -0.016628 -228684.000000 0 0 1
-25.215474 -34.095719 26.073935 49.781405 0.934017 1.019527 0.046617 -0.029163 -240497.000000 0 0 1
-26.035094 34.066127 27.310455 50.834910 -0.918236 1.003637 0.038742 -0.027560 -736180.000000 0 0 1
-26.568874 -33.542219 28.122225 51.203956 0.900890 0.989366 0.061324 -0.025830 -87461.400000 0 0 1
-26.126154 -33.531619 29.498795 51.740935 0.908899 0.964138 0.038836 -0.014746 -126890.000000 0 0 1
-27.166094 -32.984919 30.516745 52.509745 0.881835 0.950639 0.035439 -0.022729 168416.000000 0 0 1
-27.448724 -31.592019 30.297365 51.666415 0.855460 0.944185 0.030355 -0.013221 -104171.000000 0 0 1
-28.344774 -31.133619 31.254285 52.436235 0.832252 0.932232 0.026885 -0.000796 -422844.000000 0 0 1
-28.729754 -29.641919 31.095195 51.681266 0.801024 0.925203 0.022034 -0.008718 -16845.800000 0 0 1
-29.505344 -29.444919 29.916165 51.308338 0.784373 0.948298 0.018840 0.005778 348406.000000 0 0 1
-29.929104 -28.080419 29.965035 50.815003 0.753540 0.940123 0.017329 0.008171 178425.000000 0 0 1
-30.632034 -27.571619 28.661625 50.199646 0.732865 0.963130 0.010429 -0.003761 -36778.900000 0 0 1
-29.761574 -27.398019 27.542105 48.938434 0.744072 0.973038 0.018644 0.002541 338445.000000 0 0 1
-29.310874 -26.044819 27.410105 47.841131 0.726465 0.960708 0.009926 0.004249 53328.300000 0 0 1
-28.140104 -25.975419 26.419275 46.524896 0.745418 0.966902 0.024590 0.008633 92342.400000 0 0 1
-28.677584 -26.069519 25.079325 46.162714 0.737796 0.996456 0.005665 0.006231 184125.000000 0 0 1
-27.662284 -25.991319 24.114925 44.969770 0.754265 1.004811 0.021430 0.017321 -373544.000000 0 0 1
-27.982724 -26.517619 22.670845 44.723419 0.758522 1.039198 0.001851 0.022261 361266.000000 0 0 1
-28.823014 -25.519719 22.013145 44.346372 0.724687 1.051360 -0.006382 0.018744 504290.000000 0 0 1
-29.195944 -26.034419 20.799145 44.303482 0.728218 1.082106 -0.001874 0.020980 -54717.900000 0 0 1
-29.827364 -24.896119 19.916245 43.659423 0.695529 1.097107 0.003314 0.012295 201314.000000 0 0 1
-31.040514 -24.276719 20.327145 44.340336 0.663729 1.094563 0.015623 0.005696 187297.000000 0 0 1
-31.474434 -23.356819 19.393345 43.729656 0.638419 1.111316 0.031999 -0.004185 -271563.000000 0 0 1
-32.941414 -22.942419 19.617545 44.680414 0.608347 1.116240 0.055417 -0.001298 192128.000000 0 0 1
-33.933724 -23.814719 19.083045 45.637715 0.611934 1.139397 0.042207 -0.007249 695701.000000 0 0 1
-35.229047 -23.211619 19.123645 46.320393 0.582591 1.145209 0.057619 -0.012030 834688.000000 0 0 1
35.890114 -24.076419 18.462045 46.995972 -0.590884 1.167075 0.065819 -0.007101 147513.000000 0 0 1
35.627674 -25.325619 19.056145 47.684954 -0.617965 1.159688 0.054440 -0.004460 -156438.000000 0 0 1
35.014104 -26.164719 18.097445 47.308536 -0.641747 1.178252 0.073085 0.002084 -72059.500000 0 0 1
34.873494 -27.569319 18.744445 48.245022 -0.668954 1.171765 0.067645 0.009571 287990.000000 0 0 1
33.667824 -27.727019 19.495145 47.774163 -0.688935 1.150459 0.072082 0.007799 399609.000000 0 0 1
33.647004 -27.050719 20.754345 47.902037 -0.677149 1.122682 0.067900 0.004521 -40647.200000 0 0 1
32.293524 -27.264019 21.500045 47.417828 -0.701150 1.100201 0.053973 0.001500 -216944.000000 0 0 1
31.228784 -26.600719 20.919945 46.048663 -0.705539 1.099209 0.059622 0.004837 -274599.000000 0 0 1
30.220474 -26.425919 21.950045 45.753806 -0.718511 1.070435 0.053871 0.013719 655564.000000 0 0 1
29.020614 -25.517619 21.547145 44.245049 -0.721256 1.062150 0.047034 0.021837 44201.600000 0 0 1
29.306964 -24.162919 21.134945 43.467582 -0.689489 1.063034 0.045737 0.023861 -55118.500000 0 0 1
30.093884 -23.389119 22.027145 44.021448 -0.660686 1.046767 0.058639 0.014812 -302413.000000 0 0 1
30.882214 -22.177419 21.509545 43.683059 -0.622790 1.055951 0.044205 0.007866 184337.000000 0 0 1
30.152274 -20.963319 21.398245 42.503003 -0.607530 1.043206 0.047570 -0.003933 -44759.700000 0 0 1
31.042354 -19.938619 20.985945 42.445096 -0.570946 1.053622 0.055897 -0.004658 -224863.000000 0 0 1
30.498474 -18.503619 20.973945 41.381726 -0.545336 1.039280 0.026236 0.009532 -118827.000000 0 0 1
30.263164 -17.896619 22.219545 41.591541 -0.534047 1.007197 0.020901 0.012804 211587.000000 0 0 1
29.199074 -18.443519 22.988645 41.487675 -0.563365 0.983505 0.024631 0.015788 -277314.000000 0 0 1
29.267234 -18.076019 24.469385 42.214503 -0.553274 0.952505 0.018475 0.021998 11522.700000 0 0 1
28.964744 -16.670519 24.764345 41.594896 -0.522244 0.933070 0.019829 0.007585 152747.000000 0 0 1
29.111464 -16.432419 26.143225 42.437836 -0.513881 0.907096 0.013775 0.012504 -86864.400000 0 0 1
28.896454 -14.957019 26.535885 41.986554 -0.477634 0.886653 0.012994 -0.000755 660325.000000 0 0 1
27.541184 -14.488719 26.522755 40.888829 -0.484289 0.864980 0.023600 -0.001276 848144.000000 0 0 1
27.499484 -13.103819 26.907745 40.644292 -0.444681 0.847272 0.014948 -0.007029 -197477.000000 0 0 1
28.157344 -12.067019 25.980995 40.167911 -0.404879 0.867403 0.023247 -0.015602 -295724.000000 0 0 1
27.408044 -11.764519 24.783585 38.779258 -0.405453 0.877477 0.023620 -0.004408 595721.000000 0 0 1
28.082564 -11.046919 23.694005 38.367574 -0.374780 0.905169 0.029070 0.001360 34076.400000 0 0 1
29.131014 -11.779919 22.848045 38.851199 -0.384274 0.942100 0.026600 -0.010172 -133785.000000 0 0 1
28.553124 -12.801119 22.007145 38.255248 -0.421461 0.957861 0.021563 -0.010331 275831.000000 0 0 1
29.198684 -14.069719 22.151745 39.258374 -0.449032 0.971265 0.012883 -0.006101 -18313.500000 0 0 1
28.539034 -15.144719 21.287645 38.691121 -0.487879 0.988199 0.013175 -0.002004 -183692.000000 0 0 1
29.003754 -15.136619 19.964045 38.326206 -0.481002 1.022894 0.017491 -0.000334 -641462.000000 0 0 1
28.295544 -15.979119 19.125345 37.706086 -0.514076 1.038838 0.014948 -0.005277 -743115.000000 0 0 1
28.767094 -16.138719 17.643045 37.406965 -0.511259 1.079634 0.031925 -0.017913 -377533.000000 0 0 1
28.044844 -16.969119 16.773445 36.821363 -0.544140 1.097822 0.041694 -0.024246 549126.000000 0 0 1
26.653394 -16.665719 16.565945 35.532804 -0.558798 1.085788 0.032974 -0.027748 243308.000000 0 0 1
26.398294 -15.628719 15.504545 34.373212 -0.534542 1.102838 0.048323 -0.028107 -506581.000000 0 0 1
26.544694 -15.903019 14.141245 34.022076 -0.539760 1.142140 0.062842 -0.030881 63487.600000 0 0 1
25.601294 -16.865819 13.737245 33.594554 -0.582528 1.149534 0.046717 -0.034899 -331748.000000 0 0 1
25.730594 -17.324519 12.300345 33.369161 -0.592584 1.193279 0.049507 -0.016453 -378397.000000 0 0 1
25.315294 -16.434319 11.263545 32.215189 -0.575802 1.213615 0.061223 -0.020873 -216885.000000 0 0 1
25.227794 -17.164819 10.033145 32.120657 -0.597445 1.253122 0.042270 -0.012189 622866.000000 0 0 1
26.581394 -17.510819 9.303745 33.162614 -0.582510 1.286430 0.058005 -0.010510 1112540.000000 0 0 1
27.525054 -18.235619 10.123845 34.534890 -0.585119 1.273278 0.062814 -0.013227 -147167.000000 0 0 1
28.757304 -18.338819 9.453145 35.392892 -0.567687 1.300423 0.073331 -0.006376 -245966.000000 0 0 1
29.783674 -19.166419 10.246845 36.870269 -0.571807 1.289172 0.087991 -0.020270 -57033.400000 0 0 1
29.969844 -18.603719 11.541545 37.114649 -0.555536 1.254583 0.090679 -0.036304 89014.600000 0 0 1
29.884554 -19.667319 12.487245 37.892233 -0.582055 1.234973 0.075446 -0.035777 1614.650000 0 0 1
29.778114 -19.292019 13.963045 38.129840 -0.574869 1.195877 0.075832 -0.027636 157643.000000 0 0 1
29.651404 -20.383519 14.802645 38.907736 -0.602246 1.180508 0.069512 -0.019558 -19874.800000 0 0 1
29.318204 -19.893719 16.118645 38.924644 -0.596181 1.143844 0.069140 -0.019029 173499.000000 0 0 1
29.125194 -21.006019 17.265345 39.844974 -0.624834 1.122631 0.043584 -0.003887 439322.000000 0 0 1
27.892654 -21.692219 17.084845 39.248496 -0.660997 1.120426 0.008779 0.004042 123348.000000 0 0 1
27.727414 -22.733819 18.005545 40.122758 -0.686760 1.105417 0.036365 0.003006 -295436.000000 0 0 1
26.377594 -23.423919 17.801445 39.513908 -0.726159 1.103459 0.014912 0.014760 -649196.000000 0 0 1
25.302894 -22.623419 18.176245 38.502356 -0.729548 1.079146 0.015558 0.015688 309495.000000 0 0 1
24.069294 -23.367819 18.104045 38.120104 -0.770612 1.075922 0.015008 0.005565 662021.000000 0 0 1
22.900194 -22.825419 18.931345 37.467512 -0.783763 1.041097 0.001831 0.007016 -301388.000000 0 0 1
22.227494 -21.717919 18.413345 36.121750 -0.773803 1.035893 0.006206 0.006779 246343.000000 0 0 1
21.139694 -21.145719 19.155645 35.510095 -0.785541 1.001022 0.009441 0.002985 616909.000000 0 0 1
21.448094 -20.536019 20.520645 36.094954 -0.763677 0.966093 0.003801 0.011503 -205396.000000 0 0 1
21.703694 -21.541019 21.486945 37.373181 -0.781636 0.958278 0.010082 0.010299 -162539.000000 0 0 1
22.196994 -20.981119 22.697945 38.054049 -0.757246 0.931705 0.015790 0.020334 -5226.070000 0 0 1
22.472394 -22.041519 23.713275 39.410106 -0.775719 0.925162 0.020480 0.019815 218387.000000 0 0 1
21.323694 -22.662819 24.298905 39.480883 -0.815833 0.907827 0.038757 0.014890 349052.000000 0 0 1
21.712494 -23.534319 25.354085 40.842701 -0.825641 0.901067 0.040965 0.016064 358434.000000 0 0 1
20.514094 -24.170719 26.150945 41.096516 -0.867048 0.881065 0.061493 0.002392 313124.000000 0 0 1
19.928794 -25.251119 25.499545 41.048784 -0.902661 0.900522 0.050440 0.005260 -119262.000000 0 0 1
19.002494 -25.960719 26.271875 41.536311 -0.938934 0.886015 0.052949 0.003323 -228804.000000 0 0 1
18.195394 -27.020719 25.474035 41.353574 -0.978156 0.907134 0.058054 0.000771 -188751.000000 0 0 1
17.271994 -26.385319 24.630715 40.014735 -0.991190 0.907724 0.058757 -0.003092 63367.200000 0 0 1
16.693794 -27.257819 23.700365 39.791692 -1.021280 0.932770 0.053597 -0.006779 -14272.900000 0 0 1
15.815794 -26.677019 22.543445 38.340704 -1.035642 0.942241 0.051278 -0.009209 20174.500000 0 0 1
14.556094 -26.227319 22.963745 37.776788 -1.064124 0.917409 0.041332 -0.015449 -306394.000000 0 0 1
14.076094 -25.233819 22.092645 36.372614 -1.061964 0.918016 0.036860 -0.021532 504218.000000 0 0 1
12.595794 -24.846419 22.365645 35.724231 -1.101607 0.894301 0.051912 -0.025032 554022.000000 0 0 1
11.592394 -25.832319 22.285445 36.032394 -1.148978 0.903985 0.045086 -0.023923 510359.000000 0 0 1
10.294194 -25.224219 22.376945 35.255629 -1.183320 0.883169 0.055508 -0.024052 955735.000000 0 0 1
9.099394 -26.194719 22.484645 35.700442 -1.236462 0.889482 0.059120 -0.033034 -116044.000000 0 0 1
8.877894 -26.851619 21.283945 35.395378 -1.251483 0.925644 0.064364 -0.029819 236913.000000 0 0 1
7.680594 -27.611219 21.343745 35.734107 -1.299486 0.930674 0.060404 -0.026200 126292.000000 0 0 1
7.453694 -28.541619 20.113445 35.703393 -1.315350 0.972364 0.064647 -0.020979 15597.200000 0 0 1
7.846294 -29.904819 20.353845 37.015423 -1.314204 0.988582 0.065277 -0.021303 187361.000000 0 0 1
7.787594 -30.624919 19.159845 36.954458 -1.321785 1.025733 0.045613 -0.010196 -6611.540000 0 0 1
8.447394 -32.050619 19.196845 38.302996 -1.313093 1.045830 0.038114 -0.004517 -284942.000000 0 0 1
7.836394 -33.071119 19.984445 39.426971 -1.338132 1.039244 0.047417 -0.008700 216174.000000 0 0 1
8.710794 -34.140719 20.294445 40.661175 -1.320982 1.048224 0.043164 -0.014093 140334.000000 0 0 1
8.008894 33.370127 21.158745 40.316253 1.335250 1.018294 0.055172 -0.017639 430181.000000 0 0 1
7.102894 32.441327 20.589845 39.074704 1.355252 1.015806 0.043578 -0.010799 73716.200000 0 0 1
6.908794 31.311827 21.464145 38.585897 1.353631 0.980907 0.051228 -0.024584 -464559.000000 0 0 1
6.145394 30.141227 20.899545 37.189386 1.369666 0.974023 0.041012 -0.013669 841250.000000 0 0 1
4.749494 30.391027 21.160945 37.335744 1.415771 0.968211 0.039146 -0.014514 1041680.000000 0 0 1
3.831994 29.321427 20.813145 36.160991 1.440844 0.957497 0.034411 -0.014181 1394670.000000 0 0 1
2.425294 29.531927 21.475545 36.595297 1.488856 0.943647 0.010249 -0.008717 457472.000000 0 0 1
2.297394 29.215927 22.837645 37.153821 1.492323 0.908818 0.007332 -0.014535 -358266.000000 0 0 1
0.965394 29.017427 23.223845 37.179161 1.537539 0.896117 -0.011125 -0.009699 -408718.000000 0 0 1
0.815794 28.479827 24.663655 37.683709 1.542160 0.857287 -0.009796 -0.010236 -406285.000000 0 0 1
0.808794 29.476727 25.723035 39.130629 1.543365 0.853482 -0.007641 -0.011395 114284.000000 0 0 1
0.614594 28.917327 27.044945 39.598214 1.549546 0.818956 -0.000209 -0.013894 -537316.000000 0 0 1
1.829594 28.226327 27.694295 39.585943 1.506068 0.795960 -0.005512 -0.015528 -252690.000000 0 0 1
2.226994 27.050727 26.981315 38.271304 1.488655 0.788371 -0.007176 -0.017911 -15149.400000 0 0 1
3.159194 26.277327 27.688505 38.303155 1.451146 0.762838 -0.002196 -0.010782 -380604.000000 0 0 1
3.671994 25.032427 26.970855 36.980170 1.425146 0.753450 0.013820 0.003868 -358675.000000 0 0 1
2.744894 23.988527 26.720855 36.013719 1.456867 0.734802 0.015775 0.006889 -462605.000000 0 0 1
3.323494 22.712627 26.580905 35.120557 1.425499 0.712320 0.028047 0.016554 313334.000000 0 0 1
2.239694 21.562327 26.508745 34.244178 1.467297 0.685489 0.018698 0.015110 357689.000000 0 0 1
2.677094 20.231827 26.674445 33.586004 1.439240 0.653085 0.026724 0.017564 -99138.600000 0 0 1
3.455694 19.646227 25.659035 32.500802 1.396681 0.660820 0.029730 0.016244 13887.000000 0 0 1
4.090394 18.222427 25.882725 31.917137 1.349986 0.625048 0.031096 0.011595 528205.000000 0 0 1
5.246894 18.140727 26.730155 32.727925 1.289247 0.615061 0.035996 0.005529 502314.000000 0 0 1
6.379894 17.974127 25.884075 32.152101 1.229720 0.635035 0.042150 0.005367 40036.700000 0 0 1
7.703894 17.748527 26.707235 32.979336 1.161278 0.626956 0.043353 -0.005092 600313.000000 0 0 1
8.236694 18.861427 27.468245 34.323476 1.159062 0.643041 0.045448 -0.005079 215498.000000 0 0 1
8.483094 20.071627 26.791025 34.533927 1.170925 0.682832 0.045654 -0.005350 -445224.000000 0 0 1
9.007894 21.202727 27.746095 36.063050 1.169056 0.692930 0.041961 -0.007059 837553.000000 0 0 1
10.288094 20.870527 28.310665 36.645839 1.112806 0.687952 0.061106 -0.026963 540870.000000 0 0 1
10.538694 21.597227 29.489095 38.040912 1.116823 0.683774 0.071552 -0.035046 30582.500000 0 0 1
11.839694 21.174127 30.202635 38.739143 1.060949 0.676704 0.073541 -0.033023 -492780.000000 0 0 1
13.013394 21.629727 29.629885 38.924589 1.029169 0.705615 0.062209 -0.030613 -734105.000000 0 0 1
14.105794 21.420827 30.506825 39.855886 0.988463 0.699090 0.051065 -0.018204 -1892490.000000 0 0 1
15.409194 21.532827 29.902565 39.940822 0.949668 0.724740 0.044150 -0.024664 -2122760.000000 0 0 1
15.647394 22.821427 29.465825 40.421446 0.969770 0.753987 0.037373 -0.028483 -269204.000000 0 0 1
16.928094 22.945327 28.899925 40.598695 0.935176 0.778677 0.075547 -0.017103 -112672.000000 0 0 1
-8.597104 17.039527 4.365765 19.578446 -1.103524 1.345917 0.010583 -0.010911 -136339.000000 0 1 0
-8.451704 18.354327 4.795765 20.768052 -1.139266 1.337773 0.016521 -0.015864 739971.000000 0 1 0
-7.108604 18.647727 5.205265 20.624373 -1.206597 1.315653 0.014874 -0.006638 483049.000000 0 1 0
-6.812504 20.156827 5.571465 21.994297 -1.244874 1.314692 0.019580 -0.009212 -229207.000000 0 1 0
-6.998604 21.172327 4.581665 22.764875 -1.251549 1.368152 0.027405 -0.019209 236810.000000 0 1 0
-8.361904 21.424427 4.294065 23.395865 -1.198682 1.386210 0.026483 -0.021246 127781.000000 0 1 0
-8.576104 22.577127 3.280365 24.372874 -1.207773 1.435796 0.062913 -0.027944 -24121.900000 0 1 0
-7.930304 22.418727 2.042865 23.867600 -1.230797 1.485100 0.047616 -0.028118 -230355.000000 0 1 0
-8.337804 21.308627 1.189065 22.912669 -1.197823 1.518877 0.061382 -0.028509 -1110300.000000 0 1 0
-7.783704 21.195927 -0.226635 22.581070 -1.218858 1.580833 0.042992 -0.015137 1405790.000000 0 1 0
-6.422504 20.677127 -0.345735 21.654368 -1.269635 1.586763 0.018584 -0.012227 1695880.000000 0 1 0
-5.429104 21.649927 0.075965 22.320400 -1.325095 1.567393 0.019407 -0.015353 -9366.530000 0 1 0
-4.019904 21.260527 -0.434135 21.641583 -1.383924 1.590858 0.014801 -0.011628 1600.050000 0 1 0
-3.889904 21.337827 -1.819135 21.765648 -1.390476 1.654472 0.016453 -0.021261 62779.500000 0 1 0
-2.533204 21.265127 -2.226435 21.530902 -1.452230 1.674388 0.013585 -0.014201 257767.000000 0 1 0
-2.452104 21.269627 -3.805435 21.746061 -1.456016 1.746696 0.028387 -0.020552 272884.000000 0 1 0
-1.291904 21.984927 -4.205435 22.420787 -1.512101 1.759483 0.035340 -0.007823 367976.000000 0 1 0
-1.473104 22.428127 -5.508435 23.141602 -1.505209 1.811135 0.043025 -0.016332 707016.000000 0 1 0
-0.143704 23.016927 -6.100135 23.811997 -1.564553 1.829864 0.045645 -0.019260 605834.000000 0 1 0
0.940096 22.131527 -6.178035 22.996877 1.528344 1.842784 0.039812 -0.009231 461785.000000 0 1 0
2.099296 22.701427 -6.806335 23.792604 1.478584 1.860919 0.038227 -0.014507 602066.000000 0 1 0
3.353396 21.837527 -6.893435 23.143947 1.418425 1.873236 0.031497 -0.002856 -62113.800000 0 1 0
3.071696 20.785627 -7.763535 22.399778 1.424078 1.924729 0.025986 -0.012649 845656.000000 0 1 0
4.191096 19.874327 -7.739835 21.736127 1.362962 1.934868 0.023146 -0.009420 842344.000000 0 1 0
4.045296 18.793827 -8.788735 21.137980 1.358785 1.999596 0.009350 -0.008243 -79454.200000 0 1 0
4.309996 19.185127 -10.122935 22.116034 1.349812 2.046225 0.011787 -0.011372 -162236.000000 0 1 0
3.184996 19.036227 -10.952335 22.191795 1.405019 2.086941 0.016475 -0.014402 -417116.000000 0 1 0
3.460796 19.415927 -12.392535 23.292279 1.394404 2.131810 0.012643 -0.012510 -47332.900000 0 1 0
3.590796 20.810527 -12.625935 24.604595 1.399932 2.109651 0.036274 -0.015712 -14680.100000 0 1 0
3.862596 21.082227 -13.977635 25.588166 1.389590 2.148682 0.035844 -0.009140 -68142.600000 0 0 1
4.104096 22.579027 -14.358535 27.070714 1.390993 2.129879 0.036257 -0.009846 -375153.000000 0 0 1
2.966796 23.364227 -14.533935 27.675336 1.444492 2.123698 0.033767 -0.011760 -813139.000000 0 0 1
3.329896 24.635027 -14.928435 28.997085 1.436441 2.111600 0.034270 -0.013123 -399740.000000 0 0 1
2.163396 25.558227 -15.275335 29.853628 1.486352 2.107929 0.021968 -0.002527 47189.400000 0 0 1
1.284396 25.750527 -14.157735 29.413955 1.520959 2.072964 0.023228 -0.012883 12216.900000 0 0 1
1.025496 27.147427 -14.078135 30.597848 1.533039 2.048907 0.012355 -0.004902 -751140.000000 0 0 1
0.105896 27.593427 -12.918635 30.468009 1.566959 2.008661 0.020478 -0.016527 658141.000000 0 0 1
-1.290004 27.333527 -13.087635 30.332688 -1.523636 2.016918 0.004139 -0.026898 589938.000000 0 0 1
-1.803304 25.995027 -13.333235 29.270608 -1.501536 2.043748 0.010488 -0.023919 -623998.000000 0 0 1
-1.603604 24.885627 -12.283935 27.798579 -1.506446 2.028502 0.038232 -0.030147 -220229.000000 0 0 1
-2.345804 25.084827 -11.093135 27.528330 -1.477553 1.985558 0.038362 -0.027652 -45728.200000 0 0 1
-2.638304 23.840527 -10.513535 26.189039 -1.460580 1.983894 0.070921 -0.029142 -143448.000000 0 0 1
-3.410704 23.973927 -9.164135 25.891378 -1.429477 1.932583 0.053678 -0.030765 -37282.000000 0 0 1
-2.819104 24.491227 -7.944935 25.901535 -1.456194 1.882558 0.055859 -0.029223 -153927.000000 0 0 1
-2.487304 25.836127 -7.942135 27.143501 -1.474820 1.867739 0.047436 -0.031232 -346055.000000 0 0 1
-2.267404 26.450927 -6.589835 27.353584 -1.485284 1.814103 0.045137 -0.027885 309810.000000 0 0 1
-1.142504 25.912627 -5.905135 26.601507 -1.526734 1.794646 0.050391 -0.025550 97417.600000 0 0 1
-1.033704 26.393627 -4.586135 26.809042 -1.531651 1.742709 0.050516 -0.029308 -229162.000000 0 0 1
-1.868704 25.673227 -3.491435 25.976850 -1.498136 1.705610 0.051235 -0.026757 -689795.000000 0 0 1
-3.228104 25.835527 -3.730035 26.302248 -1.446492 1.713090 0.040619 -0.028092 -1216800.000000 0 0 1
-3.890904 24.884627 -2.922435 25.355954 -1.415694 1.686309 0.039145 -0.024121 135659.000000 0 0 1
-5.149604 24.273327 -3.612135 25.075094 -1.361745 1.715352 0.034534 -0.018803 -207337.000000 0 0 1
-6.181204 25.188227 -3.744135 26.204438 -1.330151 1.714169 0.034084 -0.014097 -1266990.000000 0 0 1
-7.263604 24.562627 -4.355635 25.981804 -1.283273 1.739233 0.023722 -0.014729 -744121.000000 0 0 1
-8.525204 25.404327 -4.378635 27.152005 -1.247024 1.732767 0.026073 -0.015487 -565162.000000 0 0 1
-9.123204 25.434027 -3.072635 27.194920 -1.226391 1.684024 0.048259 -0.010504 414263.000000 0 0 1
-10.431704 26.022827 -3.248135 28.223365 -1.189542 1.686139 0.063927 -0.010531 838565.000000 0 0 1
-11.179804 26.051427 -1.901035 28.412652 -1.165421 1.637754 0.070601 -0.012555 -175613.000000 0 0 1
-11.682504 24.775327 -1.473735 27.431179 -1.130177 1.624547 0.072364 -0.007428 14473.700000 0 0 1
-10.710004 23.850227 -1.053635 26.165772 -1.148731 1.611075 0.079417 -0.007774 -24034.600000 0 0 1
-11.369204 22.567927 -0.442635 25.273821 -1.104132 1.588311 0.076980 -0.015505 -45993.100000 0 0 1
-12.050604 22.746727 0.783165 25.753524 -1.083615 1.540382 0.079520 -0.014647 -27697.700000 0 0 1
-13.047904 21.749927 0.902365 25.379546 -1.030446 1.535234 0.078743 -0.019389 38606.000000 0 0 1
-13.992404 22.021227 2.114265 26.176171 -1.004750 1.489938 0.079566 -0.020302 25151.600000 0 0 1
-13.405504 21.943527 3.409565 25.939372 -1.022394 1.438971 0.064358 -0.024012 221855.000000 0 0 1
-12.873204 23.241227 3.832165 26.843239 -1.064967 1.427546 0.067015 -0.016895 205497.000000 0 0 1
-12.575604 23.204827 5.358065 26.931741 -1.074163 1.370510 0.065684 -0.021667 -597897.000000 0 0 1
-11.413804 22.596727 5.828265 25.977984 -1.103070 1.344516 0.058147 -0.022253 -238610.000000 0 0 1
-11.477204 22.247827 7.204765 26.049964 -1.094526 1.290568 0.041646 -0.023762 -519935.000000 0 0 1
-10.118104 21.807327 7.780465 25.267987 -1.136380 1.257793 0.031775 -0.026614 112268.000000 0 0 1
-9.302704 22.937027 8.173565 26.066351 -1.185492 1.251848 0.038958 -0.025089 927717.000000 0 0 1
-8.093504 22.584027 8.860265 25.574350 -1.226682 1.217011 0.042889 -0.026162 562958.000000 0 0 1
-8.313004 22.378427 10.376565 26.030235 -1.215121 1.160768 0.033405 -0.029977 -593880.000000 0 0 1
-9.192704 21.359727 10.709465 25.601492 -1.164381 1.139208 0.033182 -0.023801 -647069.000000 0 0 1
-8.908304 20.753127 11.994465 25.571807 -1.165330 1.082581 0.025746 -0.011790 -317435.000000 0 0 1
-9.930104 19.801327 12.680865 25.524573 -1.105960 1.050877 0.020731 -0.004761 -575205.000000 0 0 1
-10.094504 18.687827 11.853765 24.323767 -1.075536 1.061764 0.029512 -0.019654 7853.840000 0 1 0
-10.613104 17.535427 12.477965 23.996432 -1.026534 1.023954 0.022307 -0.018118 -473666.000000 0 1 0
-10.952804 16.424627 11.388765 22.791144 -0.982665 1.047542 0.025395 -0.029594 -168379.000000 0 1 0
-11.150604 15.173527 12.076265 22.369802 -0.937047 1.000541 0.015234 -0.026056 56971.400000 0 1 0
-11.729204 14.200727 11.238465 21.576329 -0.880427 1.022926 0.015972 -0.012985 97306.200000 0 1 0
-11.922504 12.803827 11.833265 21.121322 -0.821026 0.976106 0.012964 -0.018620 -201410.000000 0 1 0
-12.913004 12.865027 12.810665 22.279311 -0.783537 0.958189 0.027610 -0.010057 -254970.000000 0 1 0
-13.183704 11.563027 13.323165 22.023178 -0.720001 0.921079 0.017424 -0.002035 447991.000000 0 1 0
-14.140604 11.664727 14.583265 23.424221 -0.689747 0.898771 0.029495 -0.002407 1050080.000000 0 1 0
-15.472404 12.080227 14.275365 24.271654 -0.662898 0.942027 0.046734 -0.011379 698032.000000 0 1 0
-16.156004 12.471327 15.493465 25.624166 -0.657390 0.921479 0.047173 -0.006967 734394.000000 0 0 1
-17.218804 13.636027 15.340765 26.791183 -0.669799 0.961117 0.055316 -0.005938 364628.000000 0 0 1
-18.383504 13.251327 14.671365 26.996293 -0.624568 0.996245 0.059145 -0.003106 -334037.000000 0 0 1
-19.218904 14.360727 14.396465 27.979545 -0.641719 1.030331 0.077918 -0.009240 -94074.700000 0 0 1
-20.541504 13.916227 13.764065 28.373654 -0.595444 1.064319 0.064128 -0.009768 108026.000000 0 0 1
-21.484104 13.186527 14.559865 29.110838 -0.550491 1.047021 0.063865 0.003115 834597.000000 0 0 1
-22.589404 12.695327 13.798765 29.357425 -0.512012 1.081476 0.052374 -0.000668 551291.000000 0 0 1
-23.506604 11.781327 14.655965 30.102448 -0.464601 1.062294 0.046746 0.000825 264086.000000 0 0 1
-24.173804 12.441427 15.747365 31.418806 -0.475311 1.045802 0.045377 -0.003281 146240.000000 0 0 1
-24.947304 11.559527 16.521465 32.077242 -0.433907 1.029727 0.047861 0.002865 308648.000000 0 0 1
-25.867304 12.408727 17.488365 33.599655 -0.447282 1.023369 0.048519 -0.009785 -770182.000000 0 0 1
-27.005944 13.005127 17.015365 34.467042 -0.448791 1.054491 0.048656 0.002901 -871888.000000 0 0 1
-27.585374 13.555827 18.153165 35.696648 -0.456755 1.037308 0.037584 0.001855 -443761.000000 0 0 1
-28.712004 14.537027 17.821465 36.787347 -0.468679 1.065067 0.032397 -0.001396 -244563.000000 0 0 1
-28.283384 15.824427 17.395265 36.782571 -0.510104 1.078193 0.037523 -0.002454 701487.000000 0 0 1
-29.388824 16.743227 17.141265 37.919145 -0.517853 1.101737 0.036293 -0.003028 729572.000000 0 0 1
-28.882694 18.213327 16.821965 38.064600 -0.562614 1.113045 0.066937 -0.013689 -135599.000000 0 0 1
-28.335194 18.902827 17.922465 38.489152 -0.588313 1.086428 0.058134 -0.016824 -664678.000000 0 0 1
-29.154214 19.206527 18.998065 39.746513 -0.582530 1.072442 0.044424 -0.010530 -1172500.000000 0 0 1
-28.409704 19.409427 20.329465 39.964037 -0.599360 1.037129 0.049402 -0.018922 146219.000000 0 0 1
-27.824574 18.363727 21.061765 39.433885 -0.583361 1.007350 0.047458 -0.015385 45952.600000 0 0 1
-26.914264 17.533227 20.369265 38.035491 -0.577392 1.005657 0.067151 -0.019205 -409220.000000 0 0 1
-26.419134 16.326827 21.213565 37.610520 -0.553544 0.971535 0.070934 -0.017630 121537.000000 0 0 1
-27.401544 15.339527 21.447265 38.028027 -0.510340 0.971592 0.022360 -0.005391 289846.000000 0 0 1
-26.835634 14.094327 21.789165 37.330537 -0.483611 0.947540 0.029748 -0.001914 377420.000000 0 0 1
-28.039914 13.175527 22.190665 38.108488 -0.439266 0.949238 0.037177 -0.009776 391539.000000 0 0 1
-28.861764 12.978127 21.067065 38.016502 -0.422575 0.983448 0.041339 -0.011014 -17868.700000 0 0 1
-29.792414 11.932427 21.384765 38.565255 -0.380954 0.983024 0.055938 -0.011212 299802.000000 0 0 1
-30.676444 11.572727 20.123365 38.469755 -0.360743 1.020317 0.056696 -0.008281 133740.000000 0 0 1
-29.998524 11.029727 18.981265 37.173307 -0.352334 1.034896 0.074022 -0.011781 460654.000000 0 0 1
-29.291294 9.788327 19.186965 36.358367 -0.322505 1.014885 0.088923 -0.015942 -53061.300000 0 0 1
-28.467214 9.415227 17.943265 34.942660 -0.319414 1.031531 0.098755 -0.014509 -288399.000000 0 0 1
-29.145824 8.879227 16.795565 34.790957 -0.295716 1.066997 0.085282 -0.005548 959717.000000 0 0 1
-30.051564 9.748627 16.056465 35.439276 -0.313686 1.100591 0.077255 -0.007338 565318.000000 0 0 1
-29.340024 10.935727 15.313765 34.855968 -0.356774 1.115928 0.069437 -0.010156 290112.000000 0 0 1
-28.698994 10.529427 14.075665 33.654501 -0.351643 1.139289 0.071803 -0.010298 356551.000000 0 0 1
-27.795864 11.537027 13.696965 33.065388 -0.393424 1.143690 0.059607 -0.001401 -187516.000000 0 0 1
-27.382504 11.429027 12.206165 32.084492 -0.395402 1.180526 0.068870 -0.004293 -369216.000000 0 0 1
-26.647474 10.300627 11.927165 30.958812 -0.368860 1.175308 0.083969 -0.000039 712599.000000 0 0 1
-27.509134 9.249527 11.442365 31.196697 -0.324360 1.195250 0.086106 0.002613 289450.000000 0 0 1
-26.695044 8.110627 10.791065 29.914122 -0.294962 1.201741 0.093573 0.000224 -249449.000000 0 0 1
-26.132874 8.479127 9.570165 29.093139 -0.313745 1.235606 0.084211 -0.005733 323006.000000 0 0 1
-25.798944 7.393727 8.697065 28.211551 -0.279109 1.257412 0.109872 -0.010023 -311638.000000 0 0 1
-25.218724 7.867327 7.367465 27.425506 -0.302396 1.298820 0.097375 -0.003095 -612007.000000 0 0 1
-26.126714 8.572727 6.608265 28.280134 -0.317052 1.334944 0.100414 -0.000545 -167643.000000 0 0 1
-25.528274 8.911127 5.357465 27.564531 -0.335845 1.375191 0.093608 -0.004893 277431.000000 0 0 1
-26.508114 9.352727 4.198365 28.421468 -0.339189 1.422536 0.080323 0.002935 186914.000000 0 0 1
-27.331124 8.349227 3.555965 28.798347 -0.296481 1.447002 0.104141 -0.007594 117816.000000 0 0 1
-26.880714 7.127727 3.023165 27.973501 -0.259197 1.462512 0.120054 -0.010738 -852602.000000 0 0 1
-25.993014 7.303227 1.769265 27.057424 -0.273907 1.505360 0.140735 -0.006578 343841.000000 0 0 1
-24.718704 7.865627 2.070365 26.022467 -0.308074 1.491151 0.118675 -0.002269 466738.000000 0 0 1
-23.788804 7.740627 1.008965 25.036823 -0.314584 1.530486 0.123860 0.002664 -829833.000000 0 0 1
-22.546104 8.493027 1.398765 24.133272 -0.360257 1.512804 0.109784 -0.000099 -1231740.000000 0 1 0
-22.788404 9.878627 1.474365 24.881165 -0.409043 1.511505 0.095723 -0.005085 10811.900000 0 1 0
-21.781304 10.657427 2.032665 24.333879 -0.455045 1.487167 0.107455 -0.003473 -483656.000000 0 1 0
-22.155004 12.131327 2.254765 25.359362 -0.500973 1.481766 0.105042 -0.011842 -656569.000000 0 0 1
-21.005804 12.762627 2.703565 24.727266 -0.545972 1.461242 0.098027 -0.018456 -7164.800000 0 1 0
-21.141004 14.122027 3.226865 25.627843 -0.588920 1.444549 0.078214 -0.029921 -510207.000000 0 0 1
-19.895504 14.532027 4.020065 24.963409 -0.630850 1.409054 0.046967 -0.028130 -187826.000000 0 1 0
-19.526104 13.787927 5.125065 24.446716 -0.614827 1.359587 0.050526 -0.026063 -8381.030000 0 1 0
-18.455504 14.415127 5.793465 24.123966 -0.663094 1.328272 0.050803 -0.030469 -395385.000000 0 1 0
-17.987104 13.649527 7.013065 23.643785 -0.649142 1.269652 0.030952 -0.018921 -182957.000000 0 1 0
-17.168504 12.574027 6.610065 22.283551 -0.632135 1.269630 0.045408 -0.019551 239271.000000 0 1 0
-16.722604 11.767727 7.702065 21.850553 -0.613206 1.210568 0.029758 -0.014075 -267783.000000 0 1 0
10.768796 -32.825119 -14.331035 37.400989 -1.253794 1.964025 0.048118 -0.006384 508509.000000 0 0 1
12.068096 -32.678019 -13.737835 37.446228 -1.217029 1.946437 0.017131 -0.012907 610723.000000 0 0 1
12.502796 -31.356619 -13.841135 36.484716 -1.191386 1.959910 0.024297 -0.027852 810550.000000 0 0 1
13.902596 -31.010519 -13.180335 36.450730 -1.149341 1.940772 0.031312 -0.023464 1186470.000000 0 0 1
14.930096 -31.824419 -13.741035 37.742781 -1.132140 1.943431 0.026902 -0.016075 151165.000000 0 0 1
16.232696 -31.359119 -13.404535 37.770046 -1.093137 1.933602 0.027620 -0.012519 975233.000000 0 0 1
17.305096 -32.326719 -14.067035 39.272950 -1.079295 1.937121 0.033647 -0.010734 469470.000000 0 0 1
17.334196 -33.581119 -13.329735 40.073031 -1.094282 1.909894 0.028497 -0.012132 -7450.130000 0 0 1
18.093596 34.069727 -14.075135 41.063779 1.082598 1.920653 0.023804 0.007973 310880.000000 0 0 1
17.992396 32.596627 -13.447535 39.586647 1.066441 1.917393 0.009109 0.001053 -34544.800000 0 0 1
18.739696 32.422927 -12.250335 39.401689 1.046728 1.886945 0.015379 -0.007884 24159.600000 0 0 1
18.394396 31.216127 -11.629335 38.053145 1.038312 1.881373 0.002340 -0.001383 290371.000000 0 0 1
19.147696 30.980127 -10.275635 37.841660 1.017200 1.845792 0.010505 -0.010844 48417.800000 0 0 1
20.479096 30.577227 -10.408935 38.245341 0.980662 1.846436 0.012611 -0.004634 -299033.000000 0 0 1
21.192096 30.523327 -9.191535 38.278750 0.963912 1.813287 0.015401 -0.011140 934040.000000 0 0 1
22.510596 29.652527 -9.221235 38.354015 0.921467 1.813599 0.021041 -0.003603 967312.000000 0 0 1
23.564996 30.195027 -10.010135 39.588527 0.908105 1.826426 0.029310 -0.015637 1221960.000000 0 0 1
24.721496 29.310227 -9.859535 39.591062 0.870121 1.822479 0.029187 -0.008942 598407.000000 0 0 1
25.966296 29.599227 -10.670035 40.794760 0.850686 1.835428 0.029034 -0.012216 -497367.000000 0 0 1
26.467496 30.890227 -10.463735 42.002669 0.862354 1.822569 0.034049 -0.022385 -950500.000000 0 0 1
27.523796 31.150027 -11.286035 43.072707 0.847123 1.835914 0.038866 -0.019519 -776257.000000 0 0 1
28.157996 32.556127 -11.066435 44.443674 0.857712 1.822443 0.040726 -0.020780 -302487.000000 0 0 1
27.603596 33.616427 -11.800735 45.069724 0.883301 1.835717 0.044843 -0.015043 -148104.000000 0 0 1
28.205996 -33.744619 -11.515635 45.463034 -0.874565 1.826883 0.054884 -0.009260 -292525.000000 0 0 1
27.317696 -32.554319 -11.898835 44.131876 -0.872640 1.843795 0.046540 0.001913 -491436.000000 0 0 1
26.130896 -32.668419 -11.160335 43.296679 -0.896127 1.831504 0.062378 -0.008801 -900090.000000 0 0 1
25.115896 -31.757919 -11.504735 42.091954 -0.901657 1.847643 0.060323 -0.009916 -44946.800000 0 0 1
25.246696 -30.228619 -11.206235 40.948075 -0.874962 1.848002 0.037625 -0.006118 -623414.000000 0 0 1
26.175796 -29.575219 -12.032235 41.287293 -0.846298 1.866515 0.033064 -0.001118 -91943.700000 0 0 1
26.743996 -28.531119 -11.240135 40.689148 -0.817718 1.850680 0.039563 -0.000755 -86891.500000 0 0 1
27.719096 -27.589019 -11.975335 40.901234 -0.783046 1.867936 0.041450 0.011317 634222.000000 0 0 1
28.976896 -28.140419 -12.383735 42.248084 -0.770754 1.868284 0.028198 0.009142 712711.000000 0 0 1
28.884896 -28.859419 -13.628135 43.045666 -0.784957 1.892936 0.027934 0.000592 246824.000000 0 0 1
30.242796 -29.554119 -13.970435 44.533647 -0.773882 1.889889 0.021484 0.004905 596380.000000 0 0 1
30.466596 -30.793619 -13.293635 45.312043 -0.790736 1.868557 0.019556 -0.003958 570163.000000 0 0 1
31.764096 -31.317519 -13.604235 46.634966 -0.778319 1.866818 0.026228 -0.006447 393113.000000 0 0 1
32.083196 -32.399219 -12.539035 47.289199 -0.790299 1.839162 0.012699 -0.005553 -300576.000000 0 0 1
33.021396 -33.214219 -13.190835 48.657940 -0.788309 1.845325 0.012603 -0.007625 19222.000000 0 0 1
33.846096 -33.968719 -12.268835 49.497035 -0.787206 1.821277 0.022360 -0.009633 657557.000000 0 0 1
33.189396 33.408627 -11.458035 48.466060 0.788690 1.809469 0.028102 -0.020549 501056.000000 0 0 1
32.273396 33.788227 -10.432535 47.875402 0.808325 1.790469 0.024481 -0.027652 98803.700000 0 0 1
31.965996 32.729427 -9.533235 46.732460 0.797198 1.776234 0.049105 -0.027163 -137953.000000 0 0 1
31.062096 33.239127 -8.384635 46.260085 0.819242 1.753054 0.031550 -0.019297 -1021930.000000 0 0 1
29.878996 33.781227 -8.793735 45.948400 0.846619 1.763367 0.021123 -0.019291 -1561840.000000 0 0 1
29.122796 34.080327 -7.646335 45.476064 0.863676 1.739739 0.026065 -0.016747 277231.000000 0 0 1
28.212596 -33.275019 -7.827335 44.322056 -0.867545 1.748329 0.030373 -0.021523 -366908.000000 0 0 1
28.884996 -32.050819 -7.851735 43.854849 -0.837305 1.750806 0.010228 -0.014881 -21325.900000 0 0 1
28.107996 -30.928619 -8.268335 42.602867 -0.833139 1.766115 0.014611 -0.003530 431659.000000 0 0 1
26.979396 -30.411019 -7.323535 41.308015 -0.845121 1.749029 0.019642 -0.003732 528919.000000 0 0 1
26.349396 -29.252819 -7.855135 40.146249 -0.837569 1.767730 0.030513 -0.014134 77316.500000 0 0 1
25.442296 -28.596919 -6.966135 38.905286 -0.843709 1.750821 0.031304 -0.013696 101602.000000 0 0 1
24.444896 -27.728619 -7.738535 37.766575 -0.848254 1.777162 0.072741 -0.024871 -387146.000000 0 0 1
23.466796 -28.456219 -8.450535 37.839906 -0.881197 1.796019 0.082675 -0.023853 621582.000000 0 0 1
22.611696 -27.538919 -9.188735 36.798285 -0.883332 1.823172 0.096289 -0.025222 80777.600000 0 0 1
21.360696 -28.148119 -9.804635 36.670517 -0.921644 1.841460 0.086754 -0.021852 -709033.000000 0 0 1
21.592196 -28.993019 -10.893435 37.755596 -0.930672 1.863482 0.085913 -0.020642 -164011.000000 0 0 1
20.508196 -29.775019 -11.335435 37.889708 -0.967646 1.874618 0.081010 -0.022060 105946.000000 0 0 1
20.070296 -31.099619 -10.598535 38.501066 -0.997693 1.849676 0.075291 -0.022680 -96418.000000 0 0 1
20.908396 -32.177619 -10.863235 39.881952 -0.994575 1.846667 0.063227 -0.013193 -278679.000000 0 0 1
20.623396 -33.319819 -10.091235 40.464402 -1.016557 1.822842 0.050700 -0.014726 -384744.000000 0 0 1
21.733796 34.252327 -10.259435 41.842990 1.005380 1.818511 0.045555 -0.013021 -1121100.000000 0 0 1
22.813596 -34.021219 -9.493535 42.047958 -0.980097 1.798539 0.041591 -0.005507 -1227880.000000 0 0 1
23.843096 33.694827 -9.880135 42.443511 0.954975 1.805735 0.032948 -0.010668 110807.000000 0 0 1
25.203796 33.912227 -9.165535 43.235142 0.931657 1.784410 0.039188 -0.012800 -313135.000000 0 0 1
25.281896 33.531127 -7.794535 42.711421 0.924751 1.754318 0.030645 -0.017551 4175.720000 0 0 1
25.556996 32.120227 -7.626535 41.749647 0.898703 1.754501 0.034190 -0.017967 -168488.000000 0 0 1
25.756196 31.577027 -6.158935 41.211925 0.886578 1.720804 0.041220 -0.025762 -43419.400000 0 0 1
26.782896 32.241527 -5.400935 42.261208 0.877617 1.698946 0.041112 -0.020892 259689.000000 0 0 1
27.659796 31.292627 -4.787935 42.038282 0.846943 1.684939 0.051655 -0.017679 -193243.000000 0 0 1
27.177896 30.153727 -3.866535 40.777879 0.837257 1.665758 0.051589 -0.014774 -791673.000000 0 0 1
26.793696 30.633227 -2.578835 40.779249 0.852158 1.634077 0.056543 -0.004209 -3724.960000 0 0 1
26.524696 29.595527 -1.669135 39.777390 0.840062 1.612771 0.047434 -0.004131 832529.000000 0 0 1
25.126996 28.872127 -1.793635 38.316873 0.854643 1.617624 0.036668 0.000911 1530270.000000 0 0 1
24.049196 29.633827 -1.200035 38.183342 0.889055 1.602230 0.038129 -0.000157 1314430.000000 0 0 1
22.718496 29.121627 -1.351635 36.959791 0.908293 1.607375 0.045322 0.001278 1717400.000000 0 0 1
21.547896 29.852427 -0.581535 36.821426 0.945580 1.586590 0.049628 -0.003485 922434.000000 0 0 1
21.721196 29.748827 0.859365 36.844831 0.940119 1.547470 0.069127 -0.014454 -978822.000000 0 0 1
20.584296 30.227527 1.433065 36.598775 0.972951 1.531630 0.062734 -0.009363 -1119200.000000 0 0 1
20.006896 29.319927 2.515665 35.584583 0.972004 1.500042 0.061701 -0.029637 -309446.000000 0 0 1
19.266696 28.241427 2.008065 34.246403 0.972107 1.512127 0.060409 -0.022426 170901.000000 0 0 1
18.774596 27.321627 2.973865 33.283639 0.968733 1.481328 0.081657 -0.033123 344458.000000 0 0 1
18.089696 26.046227 2.311765 31.796026 0.963756 1.498026 0.070054 -0.016588 140355.000000 0 0 1
18.967596 25.034227 1.937765 31.468034 0.922407 1.509179 0.072647 -0.017779 -85725.000000 0 0 1
19.631096 24.291827 2.978465 31.374258 0.891114 1.475720 0.073396 -0.015455 715521.000000 0 0 1
20.946396 23.519627 2.568865 31.599421 0.843203 1.489412 0.067904 -0.002672 674975.000000 0 0 1
20.649996 22.528427 1.635065 30.604343 0.828875 1.517345 0.068859 -0.001015 208634.000000 0 0 1
21.790396 21.739327 1.369465 30.810633 0.784225 1.526334 0.038298 -0.004916 -112721.000000 0 0 1
21.677596 20.844327 0.163865 30.073759 0.765804 1.565348 0.058078 -0.007243 -283075.000000 0 0 1
21.656096 21.557127 -1.036035 30.574002 0.783108 1.604689 0.037790 0.005635 346352.000000 0 0 1
21.720196 20.608327 -2.126335 30.016518 0.759137 1.641695 0.069899 -0.003932 -105863.000000 0 0 1
21.608896 21.406727 -3.440335 30.610917 0.780698 1.683423 0.052315 -0.005638 -507991.000000 0 0 1
22.505296 22.446427 -3.662535 31.996009 0.784089 1.685516 0.049125 -0.005229 55143.900000 0 0 1
22.159896 23.047627 -4.896635 32.345496 0.805032 1.722766 0.041357 0.002767 -458596.000000 0 0 1
22.975996 24.266227 -5.249835 33.827606 0.812702 1.726620 0.037220 0.008975 -568972.000000 0 0 1
22.860396 25.369327 -4.341735 34.424571 0.837372 1.697256 0.028864 0.008819 141741.000000 0 0 1
23.370496 25.267927 -3.031935 34.552002 0.824389 1.658659 0.043746 0.007841 -414025.000000 0 0 1
22.296396 24.994227 -1.958535 33.551103 0.842384 1.629204 0.031092 0.004254 -729670.000000 0 0 1
21.321296 26.018027 -1.920635 33.693089 0.884289 1.627831 0.041029 -0.002860 584871.000000 0 0 1
20.205796 25.728227 -1.089135 32.732279 0.905049 1.604077 0.050948 -0.003352 914528.000000 0 0 1
19.135296 24.671327 -1.603335 31.263471 0.911106 1.622103 0.057071 -0.007724 -46482.700000 0 0 1
18.440696 25.055427 -2.785835 31.234509 0.936318 1.660106 0.037605 -0.005123 -211928.000000 0 0 1
17.826596 23.962327 -3.294235 30.047173 0.931183 1.680653 0.039188 -0.003683 -351466.000000 0 0 1
17.394096 24.276627 -4.735335 30.237933 0.949085 1.728046 0.037585 -0.003585 -260524.000000 0 0 1
16.649296 23.298027 -5.402735 29.140808 0.950324 1.757276 0.037663 -0.006200 93855.800000 0 0 1
16.412896 23.642127 -6.770935 29.566516 0.963958 1.801854 0.032146 0.000595 343999.000000 0 0 1
15.559996 22.486627 -7.442235 28.339879 0.965482 1.836519 0.038455 -0.000130 154004.000000 0 0 1
16.230396 21.247527 -7.609635 27.799095 0.918476 1.848072 0.030226 -0.002096 309601.000000 0 0 1
15.385096 20.278327 -8.197335 26.741504 0.921753 1.882352 0.054413 -0.003841 370983.000000 0 0 1
16.188196 18.954027 -8.528035 26.344643 0.863940 1.900445 0.049045 -0.001167 367290.000000 0 0 1
17.198996 19.107627 -9.504535 27.408814 0.837920 1.924921 0.048026 -0.003795 172251.000000 0 0 1
17.583596 17.824927 -9.992235 26.958406 0.792214 1.950509 0.044698 -0.003366 344956.000000 0 0 1
19.080796 17.736727 -10.426035 28.060122 0.748908 1.951486 0.038024 -0.003349 366903.000000 0 0 1
19.309396 18.411327 -11.641435 29.109324 0.761594 1.982227 0.044780 -0.010857 410062.000000 0 0 1
20.719296 18.357727 -11.838135 30.107089 0.725038 1.974907 0.048785 -0.008574 469197.000000 0 0 1
21.065096 18.911327 -13.270235 31.264608 0.731574 2.009150 0.048633 -0.018204 -110412.000000 0 0 1
20.685796 17.956327 -14.212235 30.859674 0.714881 2.049404 0.051834 -0.012856 240429.000000 0 0 1
20.970296 18.414827 -15.555735 31.950588 0.720605 2.079297 0.054180 -0.016683 66020.100000 0 0 1
20.878796 17.309927 -16.612235 31.804466 0.692215 2.120370 0.052685 -0.015428 -83705.600000 0 0 1
21.928896 16.325827 -16.534435 31.949908 0.639965 2.114736 0.059213 -0.020366 522222.000000 0 0 1
22.065196 15.631827 -17.725735 32.333088 0.616367 2.151034 0.062062 -0.025930 -227431.000000 0 0 1
22.915996 16.313327 -18.804635 33.836102 0.618651 2.160069 0.055037 -0.025036 744466.000000 0 0 1
24.335096 16.466427 -18.560735 34.754007 0.594885 2.134192 0.074076 -0.022477 1385510.000000 0 0 1
25.083496 16.541027 -19.780335 35.972893 0.582982 2.153002 0.094270 -0.019852 588300.000000 0 0 1
26.574696 16.837927 -19.414535 36.968290 0.564765 2.123708 0.077656 -0.016589 378783.000000 0 0 1
26.801896 17.927127 -18.543135 37.196389 0.589530 2.092687 0.055280 -0.013219 -428523.000000 0 0 1
28.181396 18.124627 -18.400235 38.226455 0.571539 2.072988 0.052394 -0.022753 -302667.000000 0 0 1
28.409196 19.391227 -17.565135 38.621705 0.598931 2.042943 0.049614 -0.018564 181290.000000 0 0 1
27.836096 19.324227 -16.250235 37.581167 0.606833 2.017953 0.047456 -0.022430 481476.000000 0 0 1
26.537296 19.913227 -16.197235 36.920389 0.643748 2.024956 0.038536 -0.011678 234922.000000 0 0 1
25.624196 19.367627 -15.089035 35.487792 0.647224 2.009968 0.042418 -0.007954 -193726.000000 0 0 1
26.037996 19.682627 -13.815835 35.443763 0.647279 1.971206 0.038589 -0.010238 -508990.000000 0 0 1
25.039296 19.449927 -12.896335 34.228372 0.660419 1.957107 0.047116 -0.012911 -562614.000000 0 0 1
25.478296 19.697227 -11.422535 34.170142 0.658121 1.911642 0.040693 -0.002128 -113604.000000 0 0 1
25.648996 21.106427 -11.162135 35.042054 0.688546 1.894980 0.043119 -0.000603 84301.900000 0 0 1
25.987296 21.518527 -9.831235 35.143132 0.691606 1.854328 0.039353 0.001486 152731.000000 0 0 1
24.907096 21.297227 -8.732035 33.914359 0.707428 1.831203 0.039055 0.002868 -261786.000000 0 0 1
24.912196 19.971427 -8.187335 32.962219 0.675760 1.821809 0.046785 0.000176 -74407.100000 0 0 1
24.114096 19.873927 -7.029335 32.029270 0.689301 1.792063 0.046466 -0.003057 1036690.000000 0 0 1
22.593996 19.519127 -7.329035 30.744101 0.712513 1.811502 0.036396 -0.002410 833322.000000 0 0 1
21.886796 20.702227 -7.660735 31.085381 0.757591 1.819803 0.039395 0.001983 -192832.000000 0 0 1
20.560696 20.392627 -8.024735 30.049922 0.781294 1.841124 0.047787 -0.000063 -241786.000000 0 0 1
19.671196 21.637027 -8.116435 30.347873 0.832952 1.841538 0.035090 -0.001131 -575991.000000 0 0 1
20.003096 22.566527 -9.138335 31.510017 0.845543 1.865037 0.043719 0.000571 96524.400000 0 0 1
19.545796 22.298727 -10.470935 31.446969 0.851093 1.910249 0.048563 0.004459 531173.000000 0 0 1
18.041696 22.702627 -10.619635 30.881851 0.899298 1.921842 0.036294 -0.001970 261074.000000 0 0 1
17.846496 24.092527 -10.602035 31.801736 0.933243 1.910682 0.036066 -0.001713 -539542.000000 0 0 1
16.501696 24.455627 -10.551935 31.332523 0.977211 1.914283 0.032987 -0.000047 -334491.000000 0 0 1
16.282296 25.834927 -9.881035 32.096596 1.008435 1.883732 0.026204 0.000409 -16888.800000 0 0 1
16.841996 26.935727 -10.552035 33.474343 1.012006 1.891493 0.043660 0.006862 -56279.200000 0 0 1
16.709496 28.150127 -9.837235 34.181985 1.035107 1.862715 0.026909 -0.007447 24496.800000 0 0 1
20.013896 28.770927 33.376527 48.397467 0.963010 0.809813 0.039009 0.001523 966349.000000 0 0 1
18.710396 29.087827 33.886934 48.420088 0.999189 0.795605 0.047357 -0.021501 548851.000000 0 0 1
17.800496 28.009327 33.900337 47.440625 1.004668 0.774766 0.040421 -0.023584 251526.000000 0 0 1
16.309696 28.360027 34.078720 47.240411 1.048891 0.764990 0.057001 -0.030776 235588.000000 0 0 1
15.710496 28.831527 32.858230 46.451479 1.071872 0.785030 0.055882 -0.035200 674168.000000 0 0 1
14.412296 29.439627 33.061741 46.556252 1.115540 0.781091 0.057152 -0.032216 831729.000000 0 0 1
13.650996 29.399827 31.705935 45.342759 1.136096 0.796448 0.061060 -0.036756 -142912.000000 0 0 1
13.367596 28.079027 31.247185 44.085269 1.126475 0.783015 0.066671 -0.043709 -19251.700000 0 0 1
12.015296 27.992927 30.868115 43.368327 1.165352 0.778787 0.070486 -0.028880 -227295.000000 0 0 1
11.428396 26.562427 30.796015 42.244116 1.164490 0.753935 0.060299 -0.031255 -122374.000000 0 0 1
11.646896 25.789527 29.575285 40.932229 1.146601 0.763323 0.061069 -0.027982 1400490.000000 0 0 1
12.986896 25.251427 29.421885 40.889379 1.095772 0.767645 0.049558 -0.022521 1039200.000000 0 0 1
12.948196 24.423227 28.125685 39.436074 1.083314 0.776748 0.070515 -0.020286 -189818.000000 0 0 1
12.703096 25.303527 27.021805 39.138409 1.105527 0.808732 0.061216 -0.020690 233392.000000 0 0 1
12.618496 24.595827 25.795395 37.809834 1.096776 0.819974 0.077127 -0.017382 -417816.000000 0 0 1
11.352496 23.833927 25.388855 36.626892 1.126274 0.804911 0.079472 -0.010820 -593333.000000 0 0 1
11.427096 23.348627 24.074165 35.430246 1.115655 0.823742 0.087000 -0.007453 129280.000000 0 0 1
10.589796 22.240927 23.803155 34.254822 1.126418 0.802537 0.081646 -0.007673 -179117.000000 0 0 1
10.758796 21.911027 22.290745 33.056347 1.114357 0.830745 0.083863 -0.005387 32656.400000 0 0 1
10.351996 22.983227 21.449945 33.098228 1.147597 0.865750 0.079713 -0.002027 8565.990000 0 0 1
10.528996 22.628427 20.116945 32.056153 1.135292 0.892390 0.077869 0.006832 -541006.000000 0 0 1
10.011396 23.657527 19.126745 32.027160 1.170468 0.930786 0.062839 0.000537 -184965.000000 0 0 1
8.655396 24.011427 19.089745 31.872917 1.224825 0.928628 0.056748 -0.004228 -256788.000000 0 0 1
8.170796 24.831227 20.138545 32.998678 1.252903 0.914378 0.061838 -0.009057 680780.000000 0 0 1
6.799196 25.573227 19.859345 33.084930 1.310936 0.926978 0.055240 -0.011870 872500.000000 0 0 1
6.887696 26.609627 18.921645 33.369765 1.317513 0.967901 0.053305 -0.015093 840484.000000 0 0 1
5.614296 27.008627 18.345245 33.129055 1.365845 0.983934 0.034655 -0.018624 332509.000000 0 0 1
5.665796 28.196627 17.270545 33.547321 1.372498 1.030009 0.034763 -0.013703 -1203.650000 0 0 1
5.924396 27.789827 15.945445 32.582667 1.360755 1.059413 0.030924 -0.012942 1369.390000 0 0 1
6.773896 28.736627 15.310745 33.258056 1.339299 1.092393 0.021931 -0.011464 364843.000000 0 0 1
7.472696 28.129427 14.025145 32.308057 1.311140 1.121750 0.024339 -0.016996 -171478.000000 0 0 1
6.585096 28.017527 12.974545 31.570304 1.339951 1.147275 0.006808 -0.016936 -255080.000000 0 0 1
6.925196 26.855127 12.225945 30.308908 1.318422 1.155591 0.001609 -0.019491 471033.000000 0 0 1
6.084696 26.864727 10.879945 29.616048 1.348060 1.194620 -0.007644 -0.021191 -123497.000000 0 0 1
6.505296 27.775427 9.915445 30.201147 1.340733 1.236279 -0.008565 -0.016739 47094.800000 0 0 1
6.368596 29.142127 10.181345 31.519555 1.355643 1.241881 -0.012537 -0.007629 -452466.000000 0 0 1
6.895896 30.059127 9.013945 32.130292 1.345287 1.286436 -0.020027 -0.003236 98095.600000 0 0 1
6.053396 29.942227 7.847145 31.539788 1.371316 1.319354 -0.016795 -0.008644 222371.000000 0 0 1
6.218296 28.822727 6.983545 30.301595 1.358310 1.338238 -0.013680 0.000417 -326323.000000 0 0 1
4.831396 28.361727 6.546345 29.505670 1.402067 1.347067 -0.020380 0.006175 -345426.000000 0 0 1
4.135996 29.292527 5.789445 30.144258 1.430527 1.377538 -0.018457 -0.002897 488709.000000 0 0 1
2.742896 28.963627 5.660845 29.638831 1.476377 1.378621 0.010367 -0.009128 763003.000000 0 0 1
1.799996 29.915427 4.987445 30.381694 1.510699 1.405890 0.016163 -0.005878 -680756.000000 0 0 1
2.164196 29.979427 3.625945 30.275357 1.498732 1.450743 0.007922 -0.006919 195342.000000 0 0 1
1.319496 30.806227 2.829645 30.964037 1.527990 1.479284 0.010878 -0.019137 -511966.000000 0 0 1
0.108596 30.060727 2.323245 30.150565 1.567184 1.493665 0.030017 -0.018646 -1098340.000000 0 0 1
0.306796 29.135827 1.252245 29.164339 1.560267 1.527846 0.035000 -0.010565 14993.600000 0 0 1
-0.758804 28.178627 1.299545 28.218781 -1.543874 1.524728 0.050704 -0.013954 807708.000000 0 0 1
-1.356004 27.901727 -0.177955 27.935225 -1.522235 1.577167 0.047662 -0.024185 520123.000000 0 0 1
-2.090404 29.019727 -0.676655 29.102787 -1.498887 1.594049 0.057498 -0.022239 212489.000000 0 0 1
-1.364604 29.559327 -1.751955 29.642626 -1.524664 1.629933 0.046316 -0.025206 -385092.000000 0 0 1
-2.322304 30.601127 -2.378855 30.781179 -1.495052 1.648156 0.051419 -0.027094 -72510.600000 0 0 1
-3.524104 30.087527 -2.894855 30.431214 -1.454199 1.666068 0.034943 -0.029555 -134094.000000 0 0 1
-3.402804 29.276327 -4.028355 29.747437 -1.455085 1.706632 0.025234 -0.027639 -1307510.000000 0 0 1
-4.736804 28.888727 -4.626855 29.637875 -1.408275 1.727550 0.025219 -0.022032 -931014.000000 0 0 1
-5.366704 29.845027 -5.392455 30.799443 -1.392879 1.746786 0.020946 -0.017668 122581.000000 0 0 1
-6.440804 29.215927 -6.107455 30.534494 -1.353812 1.772173 0.022800 -0.022714 11420.600000 0 0 1
-7.102804 30.198327 -7.047355 31.812796 -1.339790 1.794175 0.025132 -0.018321 -89765.000000 0 0 1
-8.001504 31.094827 -6.350055 32.729734 -1.318935 1.766049 0.019388 -0.005258 188212.000000 0 0 1
-8.210604 32.267727 -7.093455 34.043168 -1.321631 1.780701 0.018178 -0.009042 -27337.200000 0 0 1
-9.082504 33.317427 -6.329355 35.108454 -1.304658 1.752068 0.023021 -0.007336 159379.000000 0 0 1
-10.448804 32.979327 -6.290855 35.162314 -1.263973 1.750674 0.040118 -0.015294 -387872.000000 0 0 1
-11.190004 34.079927 -5.777755 36.332355 -1.253541 1.730499 0.036190 -0.012083 -390644.000000 0 0 1
-12.692804 33.934927 -5.957855 36.717605 -1.212873 1.733778 0.072563 -0.017878 -473258.000000 0 0 1
-13.029104 33.945827 -7.355655 37.096932 -1.204315 1.770401 0.072918 -0.017776 238130.000000 0 0 1
-14.433404 33.768627 -7.492655 37.480437 -1.166877 1.772061 0.088912 -0.024347 -79865.800000 0 0 1
-14.915404 33.555927 -8.934055 37.792682 -1.152531 1.809452 0.116195 -0.026114 469563.000000 0 0 1
-16.318404 33.338027 -9.016255 38.196952 -1.115598 1.809092 0.136903 -0.028760 1196580.000000 0 0 1
-17.219904 -34.127719 -9.058955 39.284742 1.103498 1.803488 0.133796 -0.035831 1164730.000000 0 0 1
-18.736704 34.103527 -9.263555 39.999101 -1.068409 1.804512 0.119018 -0.033465 1112800.000000 0 0 1
-19.457904 33.402327 -8.256055 39.528318 -1.043320 1.781210 0.104123 -0.029913 321585.000000 0 0 1
-19.873504 34.282127 -7.173255 40.270038 -1.045434 1.749881 0.111738 -0.028631 -282481.000000 0 0 1
-20.703104 33.588927 -6.076455 39.921896 -1.018429 1.723599 0.094655 -0.023650 -291291.000000 0 0 1
-20.533204 34.034727 -4.702755 40.026129 -1.027953 1.688560 0.100831 -0.034831 464239.000000 0 0 1
-21.558404 33.542627 -3.839855 40.057672 -0.999558 1.666802 0.080080 -0.023578 977377.000000 0 0 1
-22.872004 -34.189319 -3.780955 41.307793 0.981193 1.662456 0.074351 -0.026266 590897.000000 0 0 1
-23.620604 -34.294219 -4.993855 41.940017 0.967652 1.690151 0.065642 -0.034519 -98730.500000 0 0 1
-24.226604 -33.045519 -5.188555 41.302007 0.938181 1.696754 0.064619 -0.032663 36272.400000 0 0 1
-24.803404 -32.974319 -6.666755 41.796653 0.925886 1.730985 0.097644 -0.024115 221790.000000 0 0 1
-23.718904 -32.821319 -7.586555 41.199287 0.945019 1.755996 0.118034 -0.024041 353776.000000 0 0 1
-23.925904 -33.125319 -8.946955 41.830415 0.945270 1.786348 0.077800 -0.019056 567543.000000 0 0 1
-25.100484 -32.341919 -9.692855 42.071195 0.910801 1.803277 0.053013 -0.008889 1025620.000000 0 0 1
-26.394254 -32.786219 -9.257455 43.096326 0.892989 1.787292 0.055851 0.004290 1189380.000000 0 0 1
-27.570534 -32.132919 -9.789255 43.456741 0.861667 1.798011 -0.001874 0.012873 1136460.000000 0 0 1
-27.686934 -30.607819 -9.490055 42.349333 0.835462 1.796805 -0.018506 0.017769 -513463.000000 0 0 1
-26.832244 -29.708419 -10.208955 41.313221 0.836224 1.820494 -0.008738 0.017596 90856.700000 0 0 1
-27.113884 -29.629619 -11.591355 41.802351 0.829704 1.851768 0.004088 0.007932 72177.300000 0 0 1
-26.053934 -28.803319 -12.336455 40.750789 0.835475 1.878351 0.040395 0.002855 705143.000000 0 0 1
-24.726004 -29.322919 -12.441755 40.323766 0.870245 1.884461 0.048240 -0.009852 104872.000000 0 0 1
-23.896704 -28.558319 -13.246455 39.523393 0.874034 1.912566 0.047909 -0.016377 423384.000000 0 0 1
-22.509704 -29.290519 -13.385355 39.291081 0.915561 1.918427 0.073755 -0.025129 369414.000000 0 0 1
-22.509104 -30.421819 -14.290555 40.452031 0.933791 1.931862 0.075813 -0.031055 -106380.000000 0 0 1
-23.047704 -31.595719 -13.709055 41.441818 0.940573 1.907950 0.070343 -0.030169 9265.230000 0 0 1
-23.042604 -32.889919 -14.537155 42.708749 0.959669 1.918116 0.064612 -0.024093 146587.000000 0 0 1
-23.599304 -33.880519 -13.684655 43.498121 0.962393 1.890835 0.058707 -0.032242 5708.250000 0 0 1
-23.807804 33.550027 -14.458955 43.605931 -0.953642 1.908777 0.064844 -0.035762 -20692.200000 0 0 1
-24.268504 32.361027 -13.581555 42.669134 -0.927340 1.894731 0.041988 -0.031106 741737.000000 0 0 1
-23.291304 31.828227 -12.634955 41.414526 -0.939057 1.880824 0.045793 -0.030542 797674.000000 0 0 1
-23.111604 32.680727 -11.484955 41.642290 -0.955259 1.850218 0.073332 -0.026437 138625.000000 0 0 1
-22.287104 31.962127 -10.381655 40.324574 -0.961887 1.831181 0.075877 -0.022962 -94459.900000 0 0 1
-23.049004 31.045927 -9.622455 39.845925 -0.932166 1.814699 0.059591 -0.022010 101379.000000 0 0 1
-22.400504 30.542927 -8.459955 38.810099 -0.937997 1.790544 0.069073 -0.016539 35432.300000 0 0 1
-23.249204 29.454727 -7.728255 38.312300 -0.902602 1.773907 0.055999 -0.021941 121696.000000 0 0 1
-23.280404 28.319427 -8.564755 37.647339 -0.882745 1.800306 0.054181 -0.011191 47914.300000 0 0 1
-23.595004 27.044827 -7.982755 36.767802 -0.853418 1.789652 0.047195 -0.011480 -64780.100000 0 0 1
-22.611704 26.422527 -6.969455 35.468470 -0.862960 1.768581 0.045208 -0.005660 -573532.000000 0 0 1
-22.882304 26.897327 -5.666455 35.765552 -0.865880 1.729900 0.048081 -0.002240 -67468.600000 0 0 1
-21.851204 26.613427 -4.775355 34.764257 -0.883346 1.708596 0.035439 0.004753 -549696.000000 0 0 1
-20.647204 27.536827 -4.785255 34.748849 -0.927421 1.708945 0.045783 -0.006068 -92017.100000 0 0 1
-19.897904 27.608027 -6.029455 34.561308 -0.946293 1.746150 0.060018 -0.012486 -267663.000000 0 0 1
-18.664504 28.223427 -5.852755 34.339194 -0.986510 1.742072 0.075556 -0.013302 -661914.000000 0 0 1
-17.663304 28.128627 -6.988755 33.941930 -1.010080 1.778183 0.073425 -0.004612 -611844.000000 0 0 1
-17.944304 28.715327 -8.223655 34.845323 -1.012267 1.809049 0.075007 -0.009496 -35642.900000 0 0 1
-18.160104 30.156427 -8.215855 36.148302 -1.028763 1.800082 0.094095 -0.018634 -87268.400000 0 0 1
-18.103504 30.706827 -9.700555 36.942480 -1.038089 1.836497 0.090221 -0.023892 208947.000000 0 0 1
-16.879604 30.428527 -10.391055 36.315152 -1.064329 1.860988 0.086314 -0.026593 471513.000000 0 0 1
-16.849804 30.901727 -11.722955 37.097982 -1.071591 1.892307 0.088014 -0.030626 319707.000000 0 0 1
-15.363904 31.305927 -12.005355 36.881420 -1.114563 1.902350 0.088176 -0.029786 687987.000000 0 0 1
-15.038704 31.917427 -13.284755 37.701054 -1.130473 1.930900 0.086728 -0.032589 -127784.000000 0 0 1
-15.292104 31.143727 -14.440655 37.580749 -1.114361 1.965199 0.077104 -0.037102 -149202.000000 0 0 1
-14.744204 31.852927 -15.711955 38.456027 -1.137280 1.991682 0.099760 -0.036603 291342.000000 0 0 1
-13.336304 32.003227 -15.733455 38.073680 -1.175962 1.996802 0.097601 -0.037819 80831.600000 0 0 1
-12.871304 32.368927 -17.045855 38.781169 -1.192323 2.025882 0.095280 -0.043294 110816.000000 0 0 1
-11.354604 32.176027 -17.259755 38.237715 -1.231549 2.039108 0.113136 -0.044077 -160092.000000 0 0 1
-10.974004 30.810827 -17.236255 36.970587 -1.228632 2.055804 0.105903 -0.048843 -671788.000000 0 0 1
-9.736704 30.524227 -17.795055 36.649636 -1.262016 2.077783 0.097822 -0.043400 -587007.000000 0 0 1
-9.588904 30.663027 -19.315055 37.486526 -1.267712 2.112099 0.098126 -0.042772 -316474.000000 0 0 1
-10.350904 29.679827 -20.037855 37.276654 -1.235234 2.138319 0.089538 -0.049395 414067.000000 0 0 1
-10.107804 29.703827 -21.490755 38.030745 -1.242801 2.171337 0.095304 -0.053988 -627905.000000 0 0 1
-11.312004 29.340827 -22.373755 38.593140 -1.202819 2.189199 0.091061 -0.047335 161940.000000 0 0 1
-12.236004 30.389027 -22.618755 39.809808 -1.188011 2.175077 0.092241 -0.044256 1469840.000000 0 0 1
-13.281704 30.636427 -21.588455 39.762491 -1.161726 2.144725 0.094447 -0.040176 1338930.000000 0 0 1
-14.100204 31.959527 -21.732955 41.140593 -1.155293 2.127347 0.120343 -0.040616 558330.000000 0 0 1
-15.031604 31.992227 -22.811555 42.069213 -1.131557 2.143896 0.100528 -0.033306 -41508.100000 0 0 1
-15.683304 33.211827 -22.958355 43.313710 -1.129618 2.129454 0.091725 -0.031466 25039.900000 0 0 1
-16.232804 33.223927 -24.371255 44.286468 -1.116320 2.153531 0.070619 -0.015676 500550.000000 0 0 1
-15.155504 33.209527 -25.329855 44.431560 -1.142666 2.177408 0.082466 -0.013047 424180.000000 0 0 1
-15.564104 33.063527 -26.650955 45.229543 -1.130835 2.200911 0.083127 -0.008412 -32900.900000 0 0 1
-15.882704 -34.298819 -27.432755 46.703590 1.137128 2.198614 0.072321 -0.006262 102501.000000 0 0 1
-17.081004 -33.699619 -26.992055 46.432705 1.101675 2.191141 0.067136 0.002001 -170940.000000 0 0 1
-17.488004 -32.585119 -27.802555 46.266644 1.078232 2.215448 0.047283 0.003477 -154610.000000 0 0 1
-18.909904 -32.092119 -27.506355 46.304299 1.038327 2.206861 0.038380 -0.003302 184983.000000 0 0 1
-19.887204 -33.101119 -27.747855 47.551324 1.029788 2.193871 0.025061 0.001012 -328837.000000 0 0 1
-21.165604 -32.690019 -27.321055 47.571632 0.996206 2.182562 0.025509 -0.001474 510118.000000 0 0 1
-22.305904 -33.733919 -27.305555 48.796762 0.986567 2.164672 0.007149 0.010624 286132.000000 0 0 1
-22.195204 33.925027 -26.237155 48.289987 -0.991444 2.145189 0.020044 0.001957 240407.000000 0 0 1
-23.325504 33.021127 -26.248255 48.202125 -0.955800 2.146644 0.005782 0.010458 688146.000000 0 0 1
-23.019404 31.609427 -26.790355 47.400126 -0.941364 2.171467 0.004550 0.007021 300269.000000 0 0 1
-22.372104 30.789527 -25.813655 45.987507 -0.942431 2.166775 0.009834 -0.004672 -56990.400000 0 0 1
-22.797104 29.447127 -26.007855 45.423009 -0.912005 2.180434 0.013544 -0.011392 -178985.000000 0 0 1
31.560644 9.868227 -26.361485 42.289290 0.303044 2.243830 0.026306 -0.008272 -273571.000000 0 0 1
31.023714 8.597127 -26.637125 41.784182 0.270331 2.262036 0.022973 -0.006404 -242667.000000 0 0 1
29.637394 8.712727 -26.426145 40.652526 0.285922 2.278446 0.025613 -0.007415 -88430.000000 0 0 1
29.017974 7.327627 -26.073695 39.693507 0.247349 2.287464 0.017439 0.003029 29300.400000 0 0 1
29.421684 6.899327 -24.777535 39.078926 0.230336 2.257561 0.013940 0.001903 183262.000000 0 0 1
28.965294 5.569727 -24.537535 38.367965 0.189971 2.264685 0.012745 0.008513 35458.900000 0 0 1
29.052624 5.186127 -23.024535 37.431004 0.176647 2.233334 0.023771 0.002211 -460358.000000 0 0 1
30.316284 5.116527 -22.453935 38.071448 0.167196 2.201588 0.027480 -0.003722 -440114.000000 0 0 1
30.113424 4.856427 -21.094335 37.086037 0.159894 2.175836 0.028051 -0.004814 -263888.000000 0 0 1
31.340854 4.452227 -20.249035 37.577851 0.141114 2.139874 0.025386 -0.008357 -296575.000000 0 0 1
31.657424 3.077027 -20.400935 37.787018 0.096893 2.141106 0.031132 -0.008662 522012.000000 0 0 1
32.594624 2.781427 -19.351835 38.008412 0.085128 2.104989 0.040766 -0.014954 25953.100000 0 0 1
33.176514 1.375527 -19.446435 38.480346 0.041437 2.100596 0.039292 -0.018174 -21041.800000 0 0 1
32.306924 0.391027 -18.892135 37.427303 0.012103 2.099910 0.050704 -0.018152 433013.000000 0 0 1
32.827284 -0.929873 -18.988135 37.934740 -0.028319 2.095027 0.067626 -0.019162 91240.500000 0 0 1
31.617354 -1.849673 -18.722435 36.791411 -0.058435 2.104680 0.054498 -0.019540 302125.000000 0 0 1
31.386974 -2.100873 -17.396235 35.946972 -0.066835 2.075950 0.055798 -0.016115 58283.400000 0 0 1
30.059284 -1.746173 -17.050535 34.602463 -0.058026 2.086049 0.054451 -0.021336 -46352.900000 0 0 1
29.647334 -2.215873 -15.616235 33.581860 -0.074602 2.054453 0.068259 -0.022409 -179937.000000 0 0 1
29.599994 -3.638773 -15.535035 33.626442 -0.122318 2.051033 0.050241 -0.034381 298220.000000 0 0 1
28.997624 -3.917773 -14.299935 32.568379 -0.134294 2.025364 0.048426 -0.026610 -301211.000000 0 0 1
28.842194 -5.349473 -13.857635 32.442612 -0.183390 2.012127 0.047006 -0.023557 538833.000000 0 0 1
27.896494 -6.067873 -14.695835 32.109205 -0.214178 2.046184 0.036879 -0.025265 940623.000000 0 0 1
27.852844 -7.440173 -14.268735 32.167280 -0.261030 2.030385 0.043131 -0.018394 19838.800000 0 0 1
27.089894 -8.396973 -15.249535 32.201240 -0.300576 2.064136 0.024783 -0.010988 459208.000000 0 0 1
25.755594 -8.024173 -15.555235 31.140060 -0.302020 2.093847 0.031192 -0.021861 92895.100000 0 0 1
25.193894 -8.667073 -16.669735 31.428180 -0.331333 2.129877 0.032444 -0.018509 518159.000000 0 0 1
23.724294 -8.172873 -16.875635 30.239462 -0.331761 2.162850 0.043703 -0.019803 98252.400000 0 0 1
23.615594 -6.783173 -17.329735 30.067049 -0.279703 2.185076 0.041402 -0.020608 -126743.000000 0 0 1
22.459394 -6.401273 -18.043235 29.512015 -0.277653 2.228607 0.039115 -0.026616 -226480.000000 0 0 1
22.301994 -7.014473 -19.470735 30.425175 -0.304726 2.265236 0.040563 -0.019881 -564517.000000 0 0 1
23.269194 -6.585473 -20.374535 31.621915 -0.275800 2.270926 0.040377 -0.020258 -339291.000000 0 0 1
22.956994 -6.832473 -21.720335 32.333871 -0.289272 2.307367 0.053822 -0.017212 -237674.000000 0 0 1
24.107094 -6.463873 -22.674335 33.720307 -0.261970 2.308275 0.068316 -0.026065 -225450.000000 0 0 1
23.963594 -6.808273 -24.051235 34.627566 -0.276815 2.338617 0.065188 -0.023954 122443.000000 0 0 1
23.609194 -5.676273 -24.810435 34.715585 -0.235948 2.366959 0.068556 -0.023708 -162407.000000 0 0 1
23.493394 -5.945973 -26.331075 35.785747 -0.247886 2.397640 0.079817 -0.019781 532207.000000 0 0 1
22.344594 -6.678173 -26.785305 35.515228 -0.290422 2.425219 0.089631 -0.022735 290209.000000 0 0 1
22.313994 -6.627273 -28.218565 36.580357 -0.288703 2.451855 0.083131 -0.020411 -73792.400000 0 0 1
21.161894 -7.440073 -28.825145 36.524915 -0.338081 2.480287 0.078193 -0.027196 -70755.000000 0 0 1
21.220394 -8.827873 -28.591735 36.684108 -0.394231 2.464510 0.060796 -0.014718 35753.300000 0 0 1
20.242894 -9.478773 -29.367935 36.906605 -0.437928 2.491019 0.078432 -0.025064 -328546.000000 0 0 1
20.080494 -10.977873 -28.986485 36.931778 -0.500301 2.473276 0.084604 -0.024544 -311015.000000 0 0 1
19.196994 -11.128473 -27.883595 35.635128 -0.525358 2.469427 0.092139 -0.020174 249627.000000 0 0 1
19.092094 -12.449773 -27.344385 35.598038 -0.577843 2.446732 0.091347 -0.020725 -274156.000000 0 0 1
18.830694 -13.655873 -28.270325 36.609960 -0.627434 2.453098 0.082312 -0.015147 -297766.000000 0 0 1
17.606294 -13.637573 -28.976815 36.546146 -0.659051 2.486322 0.087597 -0.013892 213984.000000 0 0 1
17.680294 -14.552273 -30.008145 37.747188 -0.688656 2.489766 0.074901 -0.008829 -713561.000000 0 0 1
16.408594 -14.774673 -30.797695 37.894999 -0.733049 2.519587 0.067130 -0.014863 -308864.000000 0 0 1
15.398394 -15.543473 -30.117625 37.226085 -0.790087 2.513324 0.064009 -0.014672 154783.000000 0 0 1
14.444794 -15.973273 -31.019905 37.762839 -0.835605 2.534728 0.053101 -0.018936 -1316450.000000 0 0 1
13.262894 -16.639273 -30.359305 37.073672 -0.897836 2.530273 0.052553 -0.022505 -809014.000000 0 0 1
13.456094 -17.917473 -29.807325 37.290467 -0.926653 2.496973 0.046003 -0.023889 -194175.000000 0 0 1
12.445094 -18.272273 -28.890945 36.379157 -0.972874 2.488424 0.047586 -0.023270 -62405.900000 0 0 1
12.664194 -19.611373 -28.211125 36.617692 -0.997409 2.450301 0.047785 -0.021877 -606040.000000 0 0 1
13.722494 -19.629773 -27.334785 36.343160 -0.960698 2.422085 0.054414 -0.018900 -717008.000000 0 0 1
13.736694 -20.790373 -26.564945 36.422969 -0.986919 2.388162 0.050618 -0.015255 88751.100000 0 0 1
14.616094 -20.617973 -25.305075 35.764198 -0.954122 2.356826 0.039325 -0.011848 -67340.400000 0 0 1
16.005094 -20.842173 -25.447185 36.580301 -0.915926 2.340124 0.047587 -0.008345 99588.100000 0 0 1
16.610994 -20.689473 -24.193435 35.906848 -0.894307 2.310113 0.043243 -0.001890 26491.600000 0 0 1
18.156794 -20.890873 -24.264535 36.808497 -0.855303 2.290564 0.023526 -0.006540 235970.000000 0 0 1
18.682794 -22.166973 -24.620235 38.033899 -0.870485 2.274864 0.030862 -0.008602 287055.000000 0 0 1
18.375694 -23.287073 -23.765135 38.009677 -0.902741 2.246234 0.031277 -0.014836 -873833.000000 0 0 1
19.064094 -24.601873 -24.053335 39.335160 -0.911546 2.228748 0.024798 -0.014467 78126.800000 0 0 1
20.486194 -24.546873 -23.879635 39.905765 -0.875326 2.212300 0.033836 -0.016087 750937.000000 0 0 1
20.987294 -25.857333 -23.672535 40.858991 -0.888988 2.188754 0.040917 -0.027424 -174709.000000 0 0 1
21.046794 -26.297313 -22.213035 40.347678 -0.895848 2.153808 0.053230 -0.026990 -12219.100000 0 0 1
19.766394 -26.358693 -21.583935 39.387273 -0.927359 2.150759 0.032766 -0.023083 622395.000000 0 0 1
19.886794 -26.379483 -20.168535 38.705704 -0.924821 2.118905 0.036930 -0.022610 298364.000000 0 0 1
18.531694 -26.827933 -19.539535 38.012565 -0.966298 2.110671 0.029650 -0.023816 -289909.000000 0 0 1
18.387194 -28.225753 -19.813135 39.081228 -0.993414 2.102466 0.036204 -0.020894 471927.000000 0 0 1
17.248194 -28.842603 -19.202735 38.705826 -1.031841 2.089921 0.031779 -0.015700 366855.000000 0 0 1
15.860694 -28.429173 -19.718735 38.060584 -1.061907 2.115410 0.026810 -0.022941 -1011090.000000 0 0 1
15.357194 -27.401863 -18.959635 36.690234 -1.059971 2.113845 0.032027 -0.018454 -165314.000000 0 0 1
14.014794 -27.202513 -19.386135 36.224486 -1.095061 2.135501 0.034181 -0.009919 265658.000000 0 0 1
13.213194 -26.177343 -18.554535 34.700325 -1.103350 2.134958 0.037961 -0.017191 -596687.000000 0 0 1
12.752394 -26.757943 -17.334935 34.338187 -1.126057 2.099981 0.030600 -0.016494 -115957.000000 0 0 1
11.762294 -25.888343 -16.835135 33.045115 -1.144333 2.105352 0.039880 -0.022340 -126666.000000 0 0 1
10.303994 -26.070003 -17.261735 32.920888 -1.194397 2.122736 0.048469 -0.013146 -885797.000000 0 0 1
9.631994 -27.261883 -16.934635 33.507722 -1.231173 2.100636 0.055943 -0.005452 -224295.000000 0 0 1
8.248194 -26.996983 -16.910735 32.906576 -1.274280 2.110523 0.053857 0.005907 49188.800000 0 0 1
7.453694 -27.804183 -17.947135 33.922409 -1.308877 2.128294 0.043411 0.000236 -256473.000000 0 0 1
7.424294 -27.164873 -19.181435 34.073126 -1.304007 2.168746 0.043689 -0.002460 -19448.600000 0 0 1
6.925894 -28.071423 -20.149635 35.241745 -1.328903 2.179439 0.035486 -0.001104 -61930.400000 0 0 1
6.900794 -27.366613 -21.531735 35.498846 -1.323785 2.222507 0.033191 -0.007278 -56694.100000 0 0 1
5.848794 -26.426953 -21.602035 34.630047 -1.352988 2.244385 0.051603 -0.014043 45311.700000 0 0 1
5.824094 -25.919183 -22.952635 35.107657 -1.349765 2.283364 0.038074 -0.011287 196073.000000 0 0 1
4.508094 -25.118563 -23.167735 34.467508 -1.393214 2.307921 0.025387 -0.015360 724937.000000 0 0 1
3.356994 -25.947373 -23.038135 34.861028 -1.442134 2.292756 0.023886 -0.012251 1155510.000000 0 0 1
2.110694 -25.386343 -23.528235 34.677072 -1.487844 2.316509 0.024922 -0.017521 1408380.000000 0 0 1
1.299394 -26.375363 -24.382035 35.942062 -1.521571 2.316339 0.015916 -0.013044 -67910.300000 0 0 1
2.051094 -26.824593 -25.470795 37.047634 -1.494482 2.328857 0.011057 -0.004583 37883.300000 0 0 1
1.307694 -27.828683 -26.087855 38.167026 -1.523840 2.323368 0.015057 -0.010460 -581596.000000 0 0 1
1.971694 -28.505923 -27.240025 39.477768 -1.501738 2.332298 0.013544 -0.007105 -1103490.000000 0 0 1
2.022294 -27.789493 -28.434785 39.810584 -1.498152 2.366351 0.013149 -0.012104 -86496.400000 0 0 1
2.536594 -28.579203 -29.477275 41.135324 -1.482272 2.369701 0.019455 -0.009258 1441830.000000 0 0 1
4.056094 -29.068053 -29.499435 41.612742 -1.432154 2.358739 0.007993 -0.004786 996615.000000 0 0 1
4.480894 -30.006183 -28.526725 41.644009 -1.422559 2.325419 0.007123 -0.007365 367447.000000 0 0 1
5.750394 -30.582493 -28.855505 42.438144 -1.384937 2.318481 0.023647 -0.009593 602309.000000 0 0 1
6.165894 -31.696953 -27.906185 42.678686 -1.378669 2.283481 0.037490 -0.013119 -240044.000000 0 0 1
5.209694 -32.714553 -27.836425 43.269498 -1.412875 2.269632 0.030422 -0.020025 -106929.000000 0 0 1
5.683894 -33.797123 -27.041865 43.655637 -1.404179 2.238820 0.039054 -0.030188 -142664.000000 0 0 1
4.595094 33.847305 -26.529575 43.250125 1.435862 2.231153 0.045222 -0.029293 -417254.000000 0 0 1
3.907894 33.264804 -27.563695 43.377138 1.453854 2.259378 0.038629 -0.027430 -621350.000000 0 0 1
2.643294 32.803539 -27.175275 42.679676 1.490391 2.261042 0.035406 -0.029229 -156927.000000 0 0 1
1.644794 32.936469 -28.356905 43.492877 1.520899 2.281002 0.037513 -0.015226 -244891.000000 0 0 1
1.841894 31.977603 -29.349215 43.443481 1.513260 2.312537 0.038929 -0.016790 -137807.000000 0 0 1
0.967094 32.214633 -30.404695 44.307599 1.540785 2.327074 0.038624 -0.016859 -143055.000000 0 0 1
0.705594 31.023693 -31.333855 44.099635 1.548057 2.361039 0.039262 -0.020897 -246904.000000 0 0 1
1.750994 30.752703 -32.225695 44.579032 1.513920 2.378771 0.033152 -0.019538 -165358.000000 0 0 1
1.327794 29.810243 -33.201315 44.640127 1.526284 2.409467 0.032121 -0.021660 -61041.000000 0 0 1
2.442494 29.290083 -34.134704 45.045008 1.487599 2.430717 0.032847 -0.015156 -15649.300000 0 0 1
2.842094 30.296733 33.462372 45.229413 1.477261 0.737969 0.032344 -0.019096 -421340.000000 0 0 1
3.438094 29.846343 32.271365 44.091560 1.456109 0.749665 0.012040 -0.018906 -411725.000000 0 0 1
2.611794 28.942323 31.324135 42.727988 1.480799 0.747919 0.005095 -0.018741 -60982.000000 0 0 1
2.438694 27.571063 31.651885 42.047028 1.482575 0.718531 0.011570 -0.021995 -1397340.000000 0 0 1
3.583394 26.833333 31.500695 41.535073 1.438039 0.709923 0.015543 -0.019305 -1095170.000000 0 0 1
3.487694 25.296893 31.679785 40.690362 1.433790 0.678432 0.029641 -0.028816 -398928.000000 0 0 1
2.591094 24.799683 30.705605 39.554674 1.466693 0.682049 0.033566 -0.013507 70828.100000 0 0 1
2.390194 23.437673 30.817905 38.791504 1.469167 0.652695 0.032687 -0.009932 -72511.200000 0 0 1
1.393394 22.738273 29.873615 37.568650 1.509593 0.651502 0.027815 0.001989 1489140.000000 0 0 1
0.020894 22.564473 30.322455 37.796920 1.569870 0.639747 -0.011064 0.004339 1483490.000000 0 0 1
-0.742306 21.648573 29.485685 36.587120 -1.536521 0.633597 0.018711 0.002915 1121490.000000 0 0 1
-2.230506 21.423773 29.908265 36.857259 -1.467056 0.624147 0.019172 0.010464 517129.000000 0 0 1
-2.976506 22.609273 30.053715 37.726179 -1.439899 0.649101 0.026730 0.005551 -2552.500000 0 0 1
-4.363906 22.336673 29.980625 37.640517 -1.377857 0.649314 0.010125 0.004523 318152.000000 0 0 1
-5.192606 23.541273 30.538305 38.906847 -1.353698 0.668248 -0.017047 -0.007583 -327010.000000 0 0 1
-5.152506 23.735663 31.939895 40.125888 -1.357034 0.650151 -0.014793 -0.001880 87537.500000 0 0 1
-4.674706 25.036623 32.279855 41.117811 -1.386207 0.668007 -0.003895 -0.009571 80767.600000 0 0 1
-4.813006 25.494873 33.767242 42.583802 -1.384209 0.655145 0.017203 -0.003089 -39970.300000 0 0 1
-6.143706 25.905613 34.000649 43.184373 -1.337941 0.664319 0.025918 -0.004159 -53895.200000 0 0 1
-6.405306 26.186833 -33.123045 42.707309 -1.330906 2.458434 0.035387 -0.006346 113656.000000 0 0 1
-7.897206 26.519853 -32.888145 42.980211 -1.281373 2.442137 0.062706 -0.007512 -74452.700000 0 0 1
-8.249806 27.857623 -33.262135 44.164194 -1.282883 2.423629 0.057653 -0.015040 -49728.400000 0 0 1
-9.503106 28.272693 -32.768425 44.310539 -1.246537 2.403150 0.054950 -0.013161 -6044.450000 0 0 1
-9.570706 28.664073 -31.273525 43.488629 -1.248543 2.373331 0.062348 -0.013252 -236505.000000 0 0 1
-8.807506 29.794493 -30.953245 43.856440 -1.283373 2.354328 0.072131 -0.011836 205717.000000 0 0 1
-9.087806 30.127123 -29.591315 43.195806 -1.277828 2.325470 0.081282 -0.017096 -5951.240000 0 0 1
-8.419406 31.485803 -29.216635 43.770469 -1.309506 2.301638 0.075079 -0.020218 440513.000000 0 0 1
-6.999006 31.453533 -29.268325 43.530974 -1.351845 2.308184 0.065254 -0.017886 -127381.000000 0 0 1
-6.547706 32.682384 -28.852155 44.084663 -1.373070 2.284280 0.071656 -0.015208 81234.300000 0 0 1
-4.993906 32.696567 -28.861085 43.897230 -1.419233 2.288252 0.067019 -0.018997 275543.000000 0 0 1
-4.272406 33.853608 -28.447615 44.425072 -1.445258 2.265751 0.067649 -0.021930 192934.000000 0 0 1
-4.110106 -33.701183 -29.401935 44.912543 1.449438 2.284514 0.066882 -0.024616 -15031.600000 0 0 1
-3.027506 -33.899703 -30.509955 45.707910 1.481725 2.301640 0.065011 -0.027685 -36218.400000 0 0 1
-3.360306 33.869660 -31.598095 46.442277 -1.471907 2.319068 0.071203 -0.025106 -140919.000000 0 0 1
-4.212806 -34.250035 -32.601525 47.472856 1.448410 2.327791 0.083370 -0.027227 -191964.000000 0 0 1
-3.614506 -33.270283 -33.668395 47.471436 1.462580 2.359209 0.062172 -0.035286 -243238.000000 0 0 1
-3.372606 -31.985443 -33.101915 46.153871 1.465743 2.370583 0.061524 -0.036416 484624.000000 0 0 1
-2.683606 -31.088713 -33.986295 46.138683 1.484689 2.398843 0.044262 -0.038126 107661.000000 0 0 1
32.270894 19.485427 12.376645 39.677119 0.543215 1.253568 0.037045 0.004712 103998.000000 0 0 1
33.255214 18.711127 13.036145 40.323152 0.512505 1.241590 0.038187 -0.003434 -132759.000000 0 0 1
32.829554 17.385127 13.153545 39.408603 0.487013 1.230493 0.049924 -0.000484 -438547.000000 0 0 1
33.774234 16.295527 13.685545 39.919134 0.449537 1.220867 0.068647 -0.012182 -314080.000000 0 0 1
34.821144 16.059227 12.763445 40.414309 0.432122 1.249481 0.069461 -0.011215 -329359.000000 0 0 1
35.722524 15.139227 13.287445 41.010378 0.400854 1.240840 0.061687 -0.013680 34319.900000 0 0 1
-35.521192 14.455927 12.294645 40.272660 -0.386497 1.260558 0.061982 -0.021190 1828830.000000 0 0 1
-34.385750 13.679527 12.796245 39.156776 -0.378630 1.237886 0.055971 -0.018504 1489620.000000 0 0 1
-34.885328 12.387227 13.137145 39.281218 -0.341197 1.229787 0.055558 -0.022329 452331.000000 0 0 1
-34.037480 11.758527 14.290545 38.743163 -0.332623 1.193021 0.046569 -0.023086 165226.000000 0 0 1
-34.354224 12.201827 15.578145 39.645629 -0.341279 1.166975 0.048728 -0.023209 -6972.090000 0 0 1
-33.614784 11.529227 16.551345 39.202344 -0.330408 1.134922 0.048216 -0.022228 -210473.000000 0 0 1
-33.546324 12.297927 17.868645 39.948508 -0.351382 1.107061 0.049498 -0.013500 475696.000000 0 0 1
-34.742506 12.127127 18.637045 41.248616 -0.335835 1.101989 0.054697 -0.010289 488298.000000 0 0 1
-34.680295 12.933027 19.810745 41.981563 -0.356947 1.079361 0.052458 -0.010476 716567.000000 0 0 1
-36.010260 13.099727 20.651545 43.529622 -0.348896 1.076485 0.064551 -0.016030 839501.000000 0 0 1
35.832574 11.887227 21.340045 43.366774 0.320319 1.056316 0.057618 -0.001623 -174347.000000 0 0 1
34.694544 11.941827 22.138545 42.853632 0.331498 1.027911 0.057611 -0.011379 -360850.000000 0 0 1
34.575384 10.790827 23.124345 42.972485 0.302516 1.002592 0.044361 -0.006287 -234229.000000 0 0 1
35.397754 10.839127 24.259715 44.260834 0.297144 0.990696 0.059239 -0.000847 -188236.000000 0 0 1
34.872234 11.638527 25.303795 44.629699 0.322123 0.967971 0.047487 0.002818 -733649.000000 0 0 1
35.945374 12.082627 26.370305 46.189315 0.324273 0.963173 0.053830 -0.002502 903144.000000 0 0 1
-35.370148 13.065227 25.889085 45.738301 -0.353839 0.969119 0.071217 -0.015021 912365.000000 0 0 1
-34.360325 12.508427 25.004915 44.298289 -0.349125 0.971009 0.062915 -0.017032 -672638.000000 0 0 1
-33.363334 13.565627 24.430425 43.519926 -0.386186 0.974766 0.057673 -0.019400 1051740.000000 0 0 1
-32.254494 13.820327 25.343465 43.285621 -0.404812 0.945307 0.055095 -0.020115 422112.000000 0 0 1
-32.587614 14.508827 26.502085 44.438937 -0.418876 0.931824 0.047378 -0.017519 -1301770.000000 0 0 1
-31.537094 14.909227 27.540615 44.445009 -0.441613 0.902492 0.043640 -0.012650 -628159.000000 0 0 1
-30.804094 15.980827 26.995925 43.966567 -0.478566 0.909665 0.045587 -0.018572 -217810.000000 0 0 1
-30.412934 16.899127 27.995085 44.657047 -0.507175 0.893240 0.061480 -0.022287 104730.000000 0 0 1
-29.689874 18.198127 27.520455 44.385086 -0.549880 0.902005 0.057128 -0.012814 475110.000000 0 0 1
-30.612904 19.178527 27.011855 45.106608 -0.559667 0.928739 0.052180 -0.021459 572593.000000 0 0 1
-29.953514 20.303627 26.531935 44.870857 -0.595697 0.938132 0.051327 -0.019515 -90094.600000 0 0 1
-30.947054 21.228827 25.780945 45.530653 -0.601249 0.968868 0.048931 -0.006838 544457.000000 0 0 1
-32.015644 21.617527 26.654645 46.933879 -0.593899 0.966821 0.039597 -0.011770 826147.000000 0 0 1
-32.976274 22.530027 26.104945 47.712733 -0.599375 0.991868 0.035035 -0.002357 83346.500000 0 0 1
-32.753374 24.058527 26.201875 48.354260 -0.633530 0.998132 0.035481 0.004196 -453736.000000 0 0 1
-33.454654 24.674427 25.155055 48.588249 -0.635484 1.026614 0.037419 0.001706 -20839.000000 0 0 1
-33.596244 26.050727 25.330795 49.487343 -0.659564 1.033443 0.042807 0.000426 130475.000000 0 0 1
-34.735298 26.471527 24.371785 50.012664 -0.651196 1.061787 0.048438 0.004602 11340.300000 0 0 1
-34.351269 26.451927 23.035145 49.095132 -0.656205 1.082418 0.037797 0.006985 -77353.100000 0 0 1
-35.393195 26.823127 22.122045 49.613942 -0.648513 1.108635 0.048278 -0.007642 105382.000000 0 0 1
-35.144930 26.771927 20.631345 48.760174 -0.650984 1.133912 0.044458 -0.006489 -142760.000000 0 0 1
-34.925479 25.517027 20.022145 47.663341 -0.630978 1.137269 0.040445 -0.006526 52517.500000 0 0 1
-34.489784 25.642527 18.701945 46.870536 -0.639316 1.160356 0.050581 -0.022663 -194466.000000 0 0 1
-34.468556 24.432327 17.778645 45.837759 -0.616627 1.172487 0.041204 -0.013108 179751.000000 0 0 1
-35.777718 24.010627 17.450345 46.487308 -0.591069 1.185991 0.040782 -0.014994 -46395.900000 0 0 1
-35.705300 23.123127 16.341145 45.569512 -0.574694 1.204031 0.032126 -0.012591 -586757.000000 0 0 1
35.208104 22.902527 15.657845 44.825266 0.576720 1.213963 0.030120 -0.007574 -127057.000000 0 0 1
34.322934 21.947027 16.290045 43.875977 0.568907 1.190415 0.033553 -0.006009 508262.000000 0 0 1
33.162564 21.720627 15.507745 42.567963 0.579864 1.197909 0.029658 0.002464 -464931.000000 0 0 1
32.030444 20.925727 16.144645 41.526918 0.578697 1.171494 0.034454 0.000043 246851.000000 0 0 1
31.240244 21.499927 17.213145 41.647234 0.602771 1.144712 0.037552 -0.003033 525749.000000 0 0 1
30.332584 22.506127 16.775945 41.328244 0.638348 1.152811 0.047653 0.000265 239203.000000 0 0 1
29.329404 23.006027 17.862845 41.334882 0.665157 1.123921 0.050978 -0.009519 439543.000000 0 0 1
30.009944 23.887227 18.738245 42.688619 0.672283 1.116365 0.043806 -0.015357 29544.300000 0 0 1
29.193964 24.502727 19.706945 42.907282 0.698254 1.093599 0.043937 -0.014866 37700.800000 0 0 1
30.131274 24.986727 20.809745 44.331430 0.692331 1.082171 0.035623 -0.021472 268501.000000 0 0 1
30.908914 26.083927 20.357345 45.278623 0.700940 1.104477 0.036408 -0.023413 -77141.600000 0 0 1
31.905754 26.422427 21.293545 46.578287 0.691665 1.096001 0.031637 -0.021398 -461726.000000 0 0 1
32.962814 27.376327 20.730945 47.600236 0.693077 1.120178 0.037367 -0.025484 -116225.000000 0 0 1
33.754404 28.004827 21.764845 48.962624 0.692569 1.110158 0.037795 -0.017626 220276.000000 0 0 1
33.121364 29.043327 22.476145 49.454188 0.719891 1.099003 0.024143 -0.024028 -558572.000000 0 0 1
33.847374 29.419527 23.753965 50.748440 0.715525 1.083688 0.011209 -0.018128 -896896.000000 0 0 1
35.059874 30.044527 23.580995 51.845267 0.708515 1.098610 0.047865 -0.017194 -1115220.000000 0 0 1
35.576564 30.511427 24.788935 53.020094 0.708905 1.084292 0.067890 -0.009433 -204276.000000 0 0 1
-35.396726 31.398527 24.787965 53.415718 -0.725612 1.088226 0.078202 -0.022929 294477.000000 0 0 1
-34.259215 30.583527 24.525495 52.062902 -0.728773 1.080288 0.081590 -0.018017 -617532.000000 0 0 1
-33.071544 31.219427 24.874825 51.837598 -0.756598 1.070300 0.087991 -0.008776 389602.000000 0 0 1
-31.749784 30.435027 24.560495 50.374175 -0.764259 1.061502 0.098504 -0.019082 372808.000000 0 0 1
-31.318844 30.358027 23.182645 49.395494 -0.769821 1.082268 0.073960 -0.005413 183958.000000 0 0 1
-31.911744 29.373727 22.341845 48.788659 -0.744009 1.095130 0.065576 -0.007189 -75007.300000 0 0 1
-31.459324 27.903527 22.638245 47.757575 -0.725570 1.076941 0.049810 0.005235 689870.000000 0 0 1
-30.045724 27.677527 22.447945 46.612243 -0.744394 1.068329 0.050724 0.006809 976474.000000 0 0 1
-29.566934 26.485927 23.079345 45.916926 -0.730487 1.044155 0.046693 0.000800 145252.000000 0 0 1
-29.203464 26.650527 24.626955 46.578748 -0.739723 1.013709 0.060817 -0.002571 -274932.000000 0 0 1
-30.259004 27.149027 25.381375 47.925892 -0.731278 1.012672 0.057256 -0.002993 -319368.000000 0 0 1
-29.702234 27.527027 26.612775 48.458226 -0.747408 0.989402 0.068896 -0.017070 -593970.000000 0 0 1
-30.684714 28.109527 27.602555 49.935941 -0.741626 0.985125 0.070920 -0.020957 -607561.000000 0 0 1
-31.430464 27.034727 28.152645 50.113091 -0.710354 0.974258 0.052078 -0.009835 -208464.000000 0 0 1
-32.163234 27.507427 29.248575 51.445226 -0.707531 0.966069 0.057473 -0.003873 -406728.000000 0 0 1
-32.942314 26.325627 29.838905 51.658445 -0.674218 0.954987 0.042315 -0.009098 -301700.000000 0 0 1
-32.198244 25.298427 30.463815 51.037058 -0.665966 0.931170 0.032564 -0.016131 -30468.000000 0 0 1
-33.036624 24.253727 30.958965 51.362625 -0.633278 0.923850 0.021126 -0.021416 -14320.400000 0 0 1
-32.415454 23.297427 31.980925 51.149890 -0.623175 0.895358 0.030076 -0.025963 -924241.000000 0 0 1
-31.500074 22.353227 31.483725 49.831178 -0.617156 0.886913 0.033529 -0.024875 1723.920000 0 0 1
-30.944364 21.493427 32.477251 49.742264 -0.607081 0.859376 0.032693 -0.024986 288075.000000 0 0 1
-30.088504 22.099027 33.620123 50.239404 -0.633486 0.837667 0.037068 -0.031466 -726317.000000 0 0 1
-30.884264 22.827327 -33.947205 51.257559 -0.636505 2.294663 0.064251 -0.036847 250796.000000 0 0 1
-30.534314 22.572027 -32.609145 50.051943 -0.636576 2.280364 0.044620 -0.025158 -90304.500000 0 0 1
-29.077954 22.805927 -32.144345 48.978532 -0.665096 2.286693 0.059347 -0.029756 -125886.000000 0 0 1
-28.807474 24.197027 -31.939765 49.350939 -0.698634 2.274698 0.051344 -0.028948 -417664.000000 0 0 1
-27.841794 24.367527 -30.967085 48.248339 -0.718951 2.267675 0.073775 -0.026017 -578935.000000 0 0 1
-28.163084 25.593427 -30.061555 48.496184 -0.737633 2.239379 0.047133 -0.019276 -218879.000000 0 0 1
-28.043414 26.847327 -30.688105 49.487087 -0.763611 2.239696 0.056782 -0.023646 -219438.000000 0 0 1
-29.125644 27.359127 -31.410395 50.827530 -0.754134 2.236967 0.040233 -0.016437 -638982.000000 0 0 1
-28.796084 28.809627 -31.899815 51.737870 -0.785633 2.235170 0.054666 -0.015831 33831.900000 0 0 1
-28.826264 29.781627 -30.836555 51.660351 -0.801698 2.210440 0.053488 -0.019312 104984.000000 0 0 1
-28.528494 31.062827 -31.335375 52.542172 -0.827901 2.209787 0.049461 -0.029127 -102036.000000 0 0 1
-28.558794 32.204127 -30.322685 52.651455 -0.845319 2.184517 0.038887 -0.010972 624370.000000 0 0 1
-27.650094 32.277427 -29.195585 51.562992 -0.862461 2.172699 0.024246 -0.005143 451415.000000 0 0 1
-28.167824 33.243427 -28.334535 51.974971 -0.867860 2.147373 0.017767 0.002600 -338746.000000 0 0 1
-27.260044 33.540327 -27.124985 51.027721 -0.888327 2.131254 0.021736 0.003362 215459.000000 0 0 1
-26.030904 34.207227 -27.400895 50.975988 -0.920307 2.138296 -0.005255 -0.000121 284658.000000 0 0 1
-26.143174 -33.014419 -27.765055 50.441210 0.901032 2.153692 0.005122 0.010618 -775803.000000 0 0 1
-26.585014 -32.006919 -26.699105 49.437314 0.877672 2.141304 -0.003763 0.012257 -12352.500000 0 0 1
-27.954864 -32.036219 -26.367385 50.030318 0.853326 2.125896 -0.002906 0.006404 -271000.000000 0 0 1
-28.247044 -31.047819 -25.382665 49.052444 0.832598 2.114676 -0.002468 0.005556 359184.000000 0 0 1
-29.792334 -30.934319 -25.230075 49.810360 0.804201 2.101943 -0.007586 0.006751 291963.000000 0 0 1
-30.222204 -30.089419 -26.261915 50.084358 0.783197 2.122752 -0.002028 0.002032 165394.000000 0 0 1
-31.642054 -30.036119 -26.252255 50.917275 0.759367 2.112488 -0.005646 -0.002940 182191.000000 0 0 1
-32.234794 -28.981919 -27.197325 51.173509 0.732311 2.131135 0.010208 -0.009225 414552.000000 0 0 1
-33.660584 -28.959019 -27.203795 52.074045 0.710457 2.120467 0.005170 -0.007120 675147.000000 0 0 1
-34.191860 -27.945219 -28.089845 52.336010 0.685205 2.137343 0.010961 -0.011112 537769.000000 0 0 1
-35.707031 -28.161019 -28.371655 53.600241 0.667793 2.128595 0.020306 -0.016463 942593.000000 0 0 1
35.603624 -27.681119 -27.395105 52.766980 -0.660858 2.116677 0.012846 -0.004060 -558092.000000 0 0 1
34.302184 -28.076119 -27.674295 52.256817 -0.685916 2.128905 0.011255 -0.003792 -656384.000000 0 0 1
33.281234 -27.679119 -26.612215 50.813228 -0.693758 2.122015 0.026909 0.000963 -292198.000000 0 0 1
33.496024 -28.334119 -25.420905 50.705309 -0.702106 2.095950 0.022198 0.008332 480039.000000 0 0 1
32.594874 -27.842419 -24.416935 49.333689 -0.706925 2.088556 0.031306 0.008768 229601.000000 0 0 1
32.553654 -28.650219 -23.111135 49.139597 -0.721707 2.060445 0.023915 0.011379 -61162.000000 0 0 1
31.946534 -29.962019 -23.130535 49.531054 -0.753354 2.056681 0.035928 0.003435 140273.000000 0 0 1
31.735344 -30.523519 -21.816035 49.140174 -0.765936 2.030804 0.036536 -0.004714 -171810.000000 0 0 1
32.921084 -30.688119 -20.842135 49.597914 -0.750308 2.004486 0.010570 0.001597 -1598710.000000 0 0 1
33.956254 -31.550019 -21.306435 51.013676 -0.748682 2.001666 0.005033 0.000779 769243.000000 0 0 1
35.173174 -31.411419 -20.562635 51.445616 -0.728962 1.981982 0.000574 -0.001213 492474.000000 0 0 1
35.869644 -30.062019 -20.690935 51.170999 -0.697539 1.987063 -0.024064 0.009852 -1859210.000000 0 0 1
35.233634 -28.914319 -20.101435 49.814802 -0.687203 1.986161 -0.031591 0.017000 -202792.000000 0 0 1
35.742944 -27.681819 -20.556535 49.662987 -0.658979 1.997553 -0.031102 0.017901 474285.000000 0 0 1
34.669194 -26.597419 -20.136435 48.112906 -0.654404 2.002617 -0.032371 0.018727 575227.000000 0 0 1
33.551614 -26.466719 -20.961835 47.598283 -0.667896 2.026830 -0.000516 0.014474 -269030.000000 0 0 1
32.630344 -25.552919 -20.378435 46.184106 -0.664353 2.027780 0.043096 0.006353 -120243.000000 0 0 1
31.308044 -25.414919 -21.148335 45.534205 -0.681876 2.053809 0.052589 0.002448 -154137.000000 0 0 1
30.678764 -26.683119 -21.268735 45.886104 -0.715854 2.052750 0.068642 0.006623 -513115.000000 0 0 1
29.566874 -26.516319 -22.092135 45.446426 -0.731058 2.078434 0.063919 -0.002260 -319300.000000 0 0 1
28.828054 -27.787419 -22.621835 45.988529 -0.767019 2.085069 0.075220 -0.002998 296215.000000 0 0 1
28.046104 -28.421019 -21.603635 45.398847 -0.792038 2.066741 0.074107 -0.006902 211638.000000 0 0 1
27.558184 -29.666919 -22.066835 46.114258 -0.822231 2.069771 0.064603 -0.004438 -221743.000000 0 0 1
26.937594 -30.559719 -20.989435 45.826704 -0.848311 2.046560 0.064806 0.000596 -253976.000000 0 0 1
27.714284 -31.054519 -19.907335 46.138560 -0.842174 2.016916 0.075140 -0.006979 -12065.900000 0 0 1
28.478374 -32.200019 -20.312035 47.544062 -0.846655 2.012218 0.074366 -0.000487 -90043.200000 0 0 1
29.318334 -32.961719 -19.279535 48.142914 -0.843832 1.982820 0.053625 -0.004964 -626800.000000 0 0 1
28.794654 -33.546919 -18.051535 47.753385 -0.861480 1.958448 0.059069 -0.005314 -383590.000000 0 0 1
28.459084 -32.539819 -17.062135 46.474464 -0.852197 1.946717 0.045150 -0.004892 -333957.000000 0 0 1
27.763994 -33.088719 -15.851635 46.010619 -0.872678 1.922525 0.045820 -0.003553 1244530.000000 0 0 1
26.371694 -33.471019 -16.048035 45.533667 -0.903479 1.930977 0.057090 0.002584 1242090.000000 0 0 1
25.829194 -34.172219 -14.972535 45.376918 -0.923559 1.907057 0.062655 0.000552 273860.000000 0 0 1
24.290994 34.192827 -14.891835 44.508073 0.953117 1.911964 0.076470 -0.003097 543622.000000 0 0 1
23.698494 -33.151019 -14.822435 43.362579 -0.950164 1.919655 0.060212 0.000757 -302046.000000 0 0 1
22.350694 -33.207119 -14.407235 42.542152 -0.978374 1.916286 0.056146 -0.003941 139926.000000 0 0 1
-0.856204 -7.476673 -28.630605 29.603129 1.456776 2.884557 0.043625 -0.016191 240621.000000 0 0 1
-0.579204 -8.873673 -28.718755 30.064006 1.505617 2.841313 0.045462 -0.016216 -144270.000000 0 0 1
-0.476104 -9.247573 -30.062215 31.456018 1.519358 2.842793 0.037357 -0.018713 -133243.000000 0 0 1
-0.141404 -10.741573 -30.195735 32.049708 1.557633 2.799794 0.042971 -0.015756 -336858.000000 0 0 1
1.128296 -11.045273 -29.703425 31.710638 -1.468997 2.783886 0.009628 -0.018048 -557211.000000 0 0 1
1.380496 -12.426973 -29.494805 32.035589 -1.460161 2.740638 0.019279 -0.015531 -333224.000000 0 0 1
2.799896 -12.667673 -28.975245 31.747034 -1.353267 2.720619 0.016908 -0.004986 -632572.000000 0 0 1
3.730396 -12.589573 -30.057585 32.800482 -1.282730 2.729729 0.012163 -0.011963 862485.000000 0 0 1
5.105796 -12.868673 -29.737585 32.802376 -1.193085 2.705877 0.021258 -0.010807 1123190.000000 0 0 1
5.403796 -14.372673 -29.345855 33.120295 -1.211169 2.659525 0.029169 -0.010125 -1044670.000000 0 0 1
4.963596 -14.761173 -28.064355 32.095756 -1.246414 2.634983 0.023184 -0.012164 -288466.000000 0 0 1
5.610896 -15.843073 -27.460475 32.195696 -1.230425 2.592357 0.031561 -0.006501 -391696.000000 0 0 1
5.225996 -17.268873 -27.859445 33.191470 -1.276933 2.566893 0.036546 -0.014839 -548791.000000 0 0 1
5.690696 -17.629373 -29.149515 34.537994 -1.258559 2.575464 0.039418 -0.031955 64702.600000 0 0 1
5.463096 -19.027073 -29.403615 35.446403 -1.291195 2.549050 0.038580 -0.028018 -657388.000000 0 0 1
5.740996 -19.544673 -30.828025 36.950242 -1.285095 2.557680 0.047526 -0.038581 -767001.000000 0 0 1
7.092496 -19.581073 -31.151205 37.471583 -1.223284 2.552291 0.048912 -0.036013 -616689.000000 0 0 1
7.154996 -20.115273 -32.452465 38.845600 -1.229053 2.559696 0.055264 -0.038168 -519100.000000 0 0 1
8.581196 -20.345973 -32.957655 39.671181 -1.171670 2.551287 0.063682 -0.037927 -551023.000000 0 0 1
9.077796 -19.024173 -33.052315 39.201799 -1.125578 2.573879 0.066565 -0.039795 -786097.000000 0 0 1
10.299596 -19.077973 -33.714085 40.083541 -1.075765 2.570102 0.072624 -0.039237 -836116.000000 0 0 1
10.699996 -17.660573 -34.103845 39.868007 -1.026072 2.597155 0.064222 -0.025015 -344954.000000 0 0 1
9.753596 -17.176173 33.472027 38.865540 -1.054347 0.533119 0.075989 -0.033220 254805.000000 0 0 1
9.998296 -15.810373 33.147826 38.061952 -1.006902 0.513783 0.058908 -0.023387 -225865.000000 0 0 1
8.919296 -15.307873 32.194615 36.747491 -1.043224 0.503076 0.068411 -0.036763 -349888.000000 0 0 1
8.845296 -16.102973 30.986445 36.023670 -1.068494 0.535195 0.071800 -0.040879 404640.000000 0 0 1
7.859796 -15.595773 30.073665 34.776858 -1.103978 0.526122 0.066806 -0.037875 44567.000000 0 0 1
7.982896 -16.312673 28.736045 33.993973 -1.115691 0.563618 0.061016 -0.027731 -215709.000000 0 0 1
7.381296 -17.602073 28.730355 34.492750 -1.173727 0.586399 0.076246 -0.033974 325722.000000 0 0 1
7.351696 -18.206973 27.436655 33.738870 -1.187032 0.621156 0.069535 -0.025860 -92970.600000 0 0 1
7.011196 -19.749573 27.657715 34.700889 -1.229670 0.648432 0.068874 -0.026658 -155588.000000 0 0 1
7.943096 -20.324573 28.523705 35.913546 -1.198235 0.653053 0.077632 -0.020883 390288.000000 0 0 1
7.304696 -21.374473 29.228135 36.939282 -1.241491 0.657949 0.067179 -0.022686 -33159.400000 0 0 1
7.780096 -21.437073 30.692425 38.237455 -1.222652 0.639022 0.075147 -0.024325 -378130.000000 0 0 1
7.153696 -20.628773 31.647115 38.448167 -1.236991 0.603928 0.084308 -0.033462 15657.200000 0 0 1
7.149996 -19.211873 31.489615 37.574118 -1.214513 0.577067 0.072232 -0.031510 -266251.000000 0 0 1
6.345396 -18.510073 32.573709 37.999124 -1.240543 0.540945 0.071310 -0.033380 498756.000000 0 0 1
4.947896 -18.789273 32.596469 37.947968 -1.313306 0.537526 0.075471 -0.042699 363829.000000 0 0 1
4.233796 -17.794773 33.357965 38.043827 -1.337216 0.501568 0.053261 -0.041379 56917.400000 0 0 1
2.742396 -18.127673 33.495318 38.184678 -1.420653 0.500813 0.059527 -0.042674 -273121.000000 0 0 1
2.568996 -19.255073 -34.130834 39.271764 -1.438160 2.624163 0.058167 -0.046202 -1669.000000 0 0 1
2.349896 -18.937673 -32.760325 37.913011 -1.447342 2.614140 0.040405 -0.047023 -279176.000000 0 0 1
2.046596 -20.119173 -31.813585 37.697134 -1.469421 2.575356 0.035820 -0.024999 235075.000000 0 0 1
0.920796 -20.938873 -32.192085 38.413730 -1.526849 2.564470 0.030506 -0.020339 944994.000000 0 0 1
0.228996 -21.693473 -31.203685 38.004331 -1.560241 2.534055 0.025281 -0.017008 316848.000000 0 0 1
-0.578704 -20.938173 -30.100215 36.671037 1.543165 2.533636 0.025195 -0.012450 -792184.000000 0 0 1
-1.771104 -20.424173 -30.610675 36.841513 1.484297 2.551474 0.031597 -0.027745 -320103.000000 0 0 1
-2.447104 -19.415873 -29.863545 35.704282 1.445421 2.561503 0.046193 -0.014229 195997.000000 0 0 1
-1.793804 -18.026273 -30.112315 35.141368 1.471612 2.600004 0.032641 -0.005279 12444.100000 0 0 1
-2.497304 -16.939673 -29.545075 34.148214 1.424427 2.616348 0.040816 -0.009411 -486035.000000 0 0 1
-1.922904 -15.756173 -30.026245 33.963656 1.449356 2.655296 0.042456 -0.017797 89228.900000 0 0 1
-2.734904 -14.435373 -29.739165 33.170433 1.383557 2.682729 0.048273 -0.011185 294913.000000 0 0 1
-2.755904 -14.109273 -28.380875 31.814158 1.377899 2.672731 0.041978 -0.017614 96166.600000 0 0 1
-3.723104 -13.120573 -28.071485 31.209281 1.294304 2.689327 0.039553 -0.021109 177680.000000 0 0 1
-3.962004 -12.660273 -26.613695 29.736657 1.267504 2.679181 0.040203 -0.011487 -112873.000000 0 0 1
-4.447204 -13.746173 -25.810235 29.578761 1.257901 2.631283 0.031106 -0.003864 242980.000000 0 0 1
-4.448804 -13.562373 -24.384235 28.254570 1.253830 2.612012 0.033625 -0.002798 -261850.000000 0 0 1
-5.523104 -12.646573 -23.765335 27.481478 1.159035 2.615501 0.049948 -0.012974 -959906.000000 0 0 1
-6.848004 -13.017173 -23.908735 28.070796 1.086507 2.590074 0.045831 -0.012806 -855240.000000 0 0 1
-7.621604 -11.960773 -23.384435 27.349237 1.003460 2.596406 0.025229 -0.015931 1361990.000000 0 0 1
-9.163904 -11.827573 -23.793335 28.106786 0.911617 2.580236 0.040236 -0.014994 2052460.000000 0 0 1
-10.050004 -12.736073 -23.099535 28.227622 0.902739 2.529297 0.046123 -0.012538 344583.000000 0 0 1
-10.239904 -13.868973 -23.922335 29.486983 0.934805 2.517142 0.049991 -0.018696 -195623.000000 0 0 1
-11.184304 -15.007473 -23.425335 29.984316 0.930343 2.467467 0.046410 -0.026412 -242691.000000 0 0 1
-10.642604 -15.866773 -22.445635 29.475855 0.979974 2.436409 0.050253 -0.011688 81308.000000 0 0 1
-11.663404 -16.680973 -21.862435 29.870653 0.960605 2.391908 0.048480 -0.005048 838814.000000 0 0 1
-12.304104 -17.777573 -22.818635 31.434427 0.965383 2.383156 0.044570 -0.008869 310649.000000 0 0 1
-13.319704 -17.334173 -23.703735 32.245234 0.915618 2.396623 0.050857 -0.006550 -48201.500000 0 0 1
-13.847204 -18.375773 -24.520435 33.625375 0.925022 2.387984 0.039445 -0.007234 1146540.000000 0 0 1
-15.185304 -17.874073 -25.210895 34.433489 0.866551 2.392287 0.055717 -0.011715 632243.000000 0 0 1
-16.204704 -17.360473 -24.410035 34.056251 0.819818 2.369936 0.061131 -0.008554 -24000.500000 0 0 1
-17.272004 -16.928273 -25.250095 34.963636 0.775348 2.377747 0.055681 -0.007682 33430.400000 0 0 1
-18.135204 -15.832873 -24.689035 34.483531 0.717722 2.368803 0.066793 -0.014114 -126036.000000 0 0 1
-18.902904 -16.086673 -23.509335 34.187566 0.705084 2.329054 0.058898 -0.011645 565247.000000 0 0 1
-19.567304 -14.886073 -23.054535 33.704393 0.650354 2.324058 0.062516 -0.012232 549277.000000 0 0 1
-20.355604 -14.889773 -21.745935 33.300775 0.631544 2.282356 0.048000 -0.014937 787027.000000 0 0 1
-19.389404 -14.915373 -20.662135 32.020949 0.655710 2.272172 0.063075 -0.010623 931335.000000 0 0 1
-19.960204 -14.994873 -19.351835 31.587173 0.644293 2.230204 0.040987 -0.013552 112628.000000 0 0 1
-20.534104 -13.629773 -18.824835 31.012813 0.585990 2.223079 0.045103 -0.012997 852703.000000 0 0 1
-21.773804 -13.186973 -19.412935 32.013385 0.544552 2.222322 0.047873 -0.017641 688677.000000 0 0 1
-22.233404 -12.064173 -18.717435 31.467616 0.497155 2.207833 0.048613 -0.008456 894842.000000 0 0 1
-23.731304 -11.646773 -18.966635 32.535448 0.456242 2.193155 0.050871 -0.006806 792982.000000 0 0 1
-23.809704 -11.122673 -20.283035 33.196647 0.437023 2.228115 0.044397 -0.013674 175639.000000 0 0 1
-25.126474 -10.722473 -20.606335 34.218886 0.403344 2.217040 0.026162 -0.010933 -324651.000000 0 0 1
-25.202184 -9.873373 -21.834635 34.776211 0.373389 2.249599 0.031387 -0.007173 -197918.000000 0 0 1
-25.229544 -10.467373 -23.085335 35.763507 0.393273 2.272474 0.013734 -0.005017 464498.000000 0 0 1
-26.264884 -9.912873 -23.890835 36.863005 0.360890 2.275880 0.021446 0.000901 -20065.400000 0 0 1
-26.139614 -10.324673 -25.409805 37.888474 0.376173 2.305877 0.019983 -0.001552 163331.000000 0 0 1
-25.042234 -9.930873 -26.206025 37.583127 0.377542 2.342394 0.012151 -0.002654 613193.000000 0 0 1
-23.908304 -10.812273 -26.301575 37.152188 0.424715 2.357376 0.014657 0.000258 697593.000000 0 0 1
-22.977004 -10.450473 -27.464545 37.302229 0.426858 2.398339 0.023521 -0.009402 203578.000000 0 0 1
-23.579704 -10.742573 -28.739525 38.695809 0.427489 2.407896 0.030137 -0.003841 736003.000000 0 0 1
-22.582004 -10.516573 -29.737795 38.792804 0.435838 2.444295 0.034768 0.002331 571053.000000 0 0 1
-23.076604 -11.060073 -31.095005 40.271009 0.446932 2.453004 0.032240 -0.006796 -245568.000000 0 0 1
-24.095804 -10.338173 -31.705365 41.142627 0.405291 2.450611 0.028677 -0.012117 -217621.000000 0 0 1
-23.635204 -9.259573 -32.525965 41.258950 0.373392 2.478898 0.031780 -0.013971 -267830.000000 0 0 1
-24.796204 -8.369973 -33.035115 42.145308 0.325541 2.471620 0.035510 -0.015087 649399.000000 0 0 1
-25.844374 -8.932273 -33.869375 43.529895 0.332765 2.462386 0.052077 -0.023042 1372300.000000 0 0 1
-26.882014 -9.663073 -33.258745 43.842465 0.345080 2.431953 0.048668 -0.022678 125180.000000 0 0 1
-28.014394 -8.830273 -32.562305 43.852978 0.305347 2.407641 0.029787 -0.008081 -98462.500000 0 0 1
-29.317354 -9.346973 -32.740325 44.931081 0.308633 2.387187 0.029282 -0.010477 1957.070000 0 0 1
-30.110354 -8.824573 -31.707755 44.608163 0.285091 2.361440 0.037237 -0.001265 -652032.000000 0 0 1
-31.587674 -9.173473 -31.674015 45.663738 0.282638 2.337321 0.034403 -0.003031 -575509.000000 0 0 1
-31.723564 -10.625773 -31.597305 46.018271 0.323204 2.327633 0.035789 -0.008418 332266.000000 0 0 1
-33.059524 -11.107873 -31.618605 47.074974 0.324145 2.307250 0.035639 -0.011487 109304.000000 0 0 1
-33.221324 -12.627673 -31.720455 47.637189 0.363241 2.299464 0.042474 -0.017970 -772344.000000 0 0 1
-34.560061 -12.978873 -31.614815 48.603966 0.359249 2.278983 0.027385 -0.017431 -713705.000000 0 0 1
-34.651120 -14.401373 -31.746505 49.152215 0.393891 2.272974 0.025638 -0.017692 242992.000000 0 0 1
-35.902883 -14.999773 -31.059415 49.786519 0.395746 2.244458 0.024247 -0.020950 27136.400000 0 0 1
-35.822494 -14.966373 -29.686655 48.872701 0.395750 2.223615 0.027403 -0.016248 -111912.000000 0 0 1
35.771714 -15.993073 -28.967745 48.729090 -0.420429 2.207397 0.021754 -0.013901 -118460.000000 0 0 1
35.872614 -15.793173 -27.423695 47.836469 -0.414722 2.181300 0.035183 -0.021990 -183312.000000 0 0 1
-35.014092 -15.828473 -27.037185 46.984429 0.424566 2.183950 0.028799 -0.020861 -129100.000000 0 0 1
-34.877443 -15.712473 -25.604535 46.031620 0.423274 2.160648 0.035163 -0.019500 167076.000000 0 0 1
-33.404434 -15.506973 -25.173635 44.609801 0.434615 2.170390 0.039760 -0.008857 211463.000000 0 0 1
-32.463514 -16.558973 -25.301845 44.365107 0.471679 2.177679 0.033736 -0.002205 -111718.000000 0 0 1
-31.208274 -16.057573 -24.894235 43.029350 0.475203 2.187735 0.032830 0.004179 -457732.000000 0 0 1
-30.078054 -17.029073 -25.157685 42.750295 0.515167 2.199974 0.018638 0.004924 -602565.000000 0 0 1
-30.026604 -18.123673 -24.278235 42.655564 0.543053 2.176291 0.016253 -0.000460 -351412.000000 0 0 1
-30.833474 -19.162973 -24.725335 43.923397 0.556078 2.168710 0.017251 -0.003938 -502199.000000 0 0 1
-30.627534 -20.522873 -23.994035 43.988042 0.590361 2.147743 0.014099 -0.006049 -337595.000000 0 0 1
-29.436974 -21.191073 -24.296335 43.656717 0.623944 2.161001 0.013866 -0.001186 -400206.000000 0 0 1
-29.453644 -22.450673 -23.634235 43.933210 0.651287 2.138810 0.009089 0.004075 -125523.000000 0 0 1
-28.054144 -23.157473 -23.664135 43.396945 0.690072 2.147537 0.026480 -0.006405 1025620.000000 0 0 1
-26.966634 -22.479873 -23.033935 41.989358 0.694906 2.151445 0.037937 -0.006573 240360.000000 0 0 1
-27.083334 -22.332873 -21.616435 41.225410 0.689561 2.122745 0.039872 -0.012033 -799966.000000 0 0 1
-26.765434 -23.515873 -20.694535 41.202530 0.720860 2.097011 0.041616 -0.005923 -199123.000000 0 0 1
-26.925144 -23.240273 -19.306735 40.470034 0.712075 2.068106 0.039281 -0.013617 23317.500000 0 0 1
-26.790774 -24.396073 -18.459835 40.665458 0.738649 2.041983 0.041501 0.007276 -40181.200000 0 0 1
-26.499424 -23.971573 -17.042035 39.588972 0.735355 2.015815 0.030102 -0.001833 -522780.000000 0 0 1
-27.534914 -23.259373 -16.451635 39.621032 0.701422 1.998986 0.026265 -0.008358 -567654.000000 0 0 1
-27.129964 -22.107473 -15.686435 38.351526 0.683744 1.992173 0.013477 -0.006267 279510.000000 0 0 1
-28.296754 -21.358873 -14.939135 38.471879 0.646577 1.969597 0.011376 -0.006288 561709.000000 0 0 1
-29.123444 -20.645973 -15.838335 39.054885 0.616682 1.988366 0.011249 0.001412 286107.000000 0 0 1
-30.388804 -20.394573 -15.232935 39.641649 0.591080 1.965209 0.019701 -0.010302 261113.000000 0 0 1
-31.454494 -19.759973 -16.124135 40.494808 0.560903 1.980326 0.032323 -0.022241 -180463.000000 0 0 1
-32.188704 -20.627473 -16.975635 41.830342 0.569901 1.988673 0.009450 -0.006954 -269062.000000 0 0 1
-32.952624 -19.895173 -17.899035 42.450781 0.543173 2.006052 0.015854 -0.005833 -452223.000000 0 0 1
-33.934984 -20.820673 -18.634235 43.958142 0.550320 2.008553 0.001100 0.002644 390268.000000 0 0 1
-35.108748 -21.270673 -17.938135 44.797795 0.544711 1.982776 0.001604 0.007773 330113.000000 0 0 1
-34.913442 -22.170873 -16.833335 44.652628 0.565775 1.957334 0.009005 0.001864 -777559.000000 0 0 1
-35.668938 -23.492273 -16.963835 45.955758 0.582411 1.948873 -0.009578 0.023662 -224740.000000 0 0 1
35.174004 -23.311573 -16.863135 45.442330 -0.585286 1.950977 -0.003465 0.008103 -312881.000000 0 0 1
34.518184 -24.577773 -17.017135 45.663496 -0.618750 1.952674 -0.006997 0.004086 -534893.000000 0 0 1
33.139434 -24.446573 -16.392735 44.323569 -0.635575 1.949636 0.005329 -0.005930 -701278.000000 0 0 1
32.124924 -24.185473 -17.333335 43.788039 -0.645327 1.977786 0.017987 -0.010962 -9122.270000 0 0 1
30.861214 -24.592973 -16.809535 42.892766 -0.672841 1.973489 0.030894 -0.010809 425175.000000 0 0 1
29.730294 -24.362873 -17.832835 42.372751 -0.686496 2.005185 0.053245 -0.020158 -78270.400000 0 0 1
29.358344 -22.995173 -17.980835 41.400493 -0.664449 2.020073 0.044592 -0.023586 215770.000000 0 0 1
28.042744 -22.906573 -18.498335 40.660730 -0.684928 2.043105 0.058323 -0.028042 -215951.000000 0 0 1
34.289864 29.075227 -18.335535 48.552605 0.703288 1.958045 0.052814 -0.014851 17073.000000 0 0 1
33.349534 29.137127 -19.391735 48.344627 0.718087 1.983530 0.043973 -0.035549 268189.000000 0 0 1
34.009584 29.431727 -20.614935 49.475791 0.713364 2.000572 0.048139 -0.023368 -382492.000000 0 0 1
33.062254 29.634827 -21.768435 49.448967 0.730786 2.026640 0.056621 -0.019901 -992391.000000 0 0 1
32.140864 28.572227 -21.978635 48.295628 0.726687 2.043264 0.055486 -0.026982 323065.000000 0 0 1
31.222524 28.686827 -23.035535 48.253662 0.743098 2.068472 0.056505 -0.019098 845328.000000 0 0 1
30.050454 29.705327 -22.740535 47.985083 0.779623 2.064520 0.048147 -0.017191 -393652.000000 0 0 1
30.536284 31.042827 -22.702635 49.107345 0.793624 2.051391 0.062986 -0.020278 -185829.000000 0 0 1
29.564304 32.052227 -22.829235 49.219582 0.825754 2.053103 0.056242 -0.011408 -437539.000000 0 0 1
30.171134 33.477427 -22.633235 50.431129 0.837298 2.036213 0.053270 -0.009291 212968.000000 0 0 1
30.719654 33.724727 -21.345335 50.365441 0.831995 2.008443 0.056115 -0.007619 103995.000000 0 0 1
32.017204 33.233427 -21.093935 50.739690 0.804035 1.999540 0.050876 -0.010534 -418832.000000 0 0 1
32.230854 33.101727 -19.541335 50.163892 0.798727 1.970939 0.042810 -0.014530 -279113.000000 0 0 1
32.182864 -34.233119 -18.943435 50.660605 -0.816258 1.954037 0.040561 -0.012419 -2626.960000 0 0 1
32.325884 34.249927 -17.545335 50.257925 0.814290 1.927413 0.025515 -0.020294 -601360.000000 0 0 1
32.262064 -32.930419 -16.931835 49.111509 -0.795650 1.922783 0.022766 -0.007048 1111240.000000 0 0 1
33.517794 -32.195119 -17.070535 49.511326 -0.765273 1.922801 0.009005 -0.002656 1779270.000000 0 0 1
34.557384 -32.661319 -16.172335 50.224685 -0.757198 1.898637 0.003002 0.000020 549007.000000 0 0 1
35.894034 -31.868119 -16.161835 50.647444 -0.726055 1.895581 -0.012267 0.013067 260848.000000 0 0 1
-35.715989 -32.078219 -17.427035 51.071964 0.731791 1.919016 -0.018658 0.007108 472352.000000 0 0 1
-34.539762 -31.228219 -17.560835 49.765246 0.735089 1.931437 -0.030201 0.011085 1022280.000000 0 0 1
-33.509874 -31.711219 -18.610735 49.748091 0.757827 1.954222 -0.011503 -0.002460 -272637.000000 0 0 1
-32.830184 -32.906819 -18.119235 49.889742 0.786564 1.942481 -0.005524 -0.001223 144377.000000 0 0 1
-32.080584 -33.599919 -19.095835 50.227177 0.808526 1.960797 0.006723 0.000410 210730.000000 0 0 1
-30.656334 -33.035319 -19.302935 49.028017 0.822732 1.975463 0.006137 -0.006584 -1318130.000000 0 0 1
-30.702194 -31.897319 -20.218535 48.670862 0.804487 1.999194 -0.004940 -0.000052 904260.000000 0 0 1
-29.434244 -31.374819 -20.728935 47.753981 0.817300 2.019810 0.014000 -0.003406 1372300.000000 0 0 1
-28.592414 -32.523119 -21.423435 48.314004 0.849626 2.030208 0.010749 0.005483 -534633.000000 0 0 1
-29.147574 -32.916419 -22.642035 49.454357 0.846049 2.046357 0.006169 0.012728 -169725.000000 0 0 1
-28.404394 -33.961819 -23.231935 49.999376 0.874273 2.054029 0.000720 0.009034 -437297.000000 0 0 1
-29.147594 33.943927 -24.330035 50.928607 -0.861274 2.068863 0.001346 0.000503 -1078100.000000 0 0 1
-30.186914 33.140427 -23.833335 50.769730 -0.832003 2.059453 -0.004493 -0.008868 -187946.000000 0 0 1
-30.874644 32.398227 -24.825735 51.178177 -0.809473 2.077256 -0.000979 -0.011035 454218.000000 0 0 1
-31.722974 33.094827 -25.936025 52.671548 -0.806560 2.085653 0.007880 -0.019876 -313886.000000 0 0 1
-30.973394 33.854627 -26.837005 53.157424 -0.829813 2.100015 0.009904 -0.019857 -312091.000000 0 0 1
-31.858214 -33.860019 -27.514255 54.022967 0.815849 2.105175 0.009388 -0.016996 452830.000000 0 0 1
-31.291604 -33.161419 -28.769745 53.912359 0.814401 2.133694 0.014722 -0.017946 -353930.000000 0 0 1
-31.216464 -33.890619 -29.980605 54.971614 0.826448 2.147643 0.022643 -0.012450 -201740.000000 0 0 1
-32.371504 -34.009619 -30.784925 56.145170 0.810071 2.151138 0.023606 -0.009037 -98959.900000 0 0 1
-32.141574 33.815927 -32.062535 56.609220 -0.810778 2.172907 0.042961 -0.009876 270797.000000 0 0 1
-31.425414 -34.152819 -33.119195 57.016250 0.826964 2.190597 0.047635 -0.022598 -29690.700000 0 0 1
-31.701024 33.770427 34.231229 57.594910 -0.816995 0.934346 0.049735 -0.033130 -459218.000000 0 0 1
-30.742164 34.232627 33.087892 56.672409 -0.839067 0.947340 0.063342 -0.032051 1527760.000000 0 0 1
-29.339214 33.915027 33.232235 55.815768 -0.857612 0.933043 0.057415 -0.025389 937929.000000 0 0 1
-29.043094 32.629227 32.732493 54.585564 -0.843481 0.927727 0.064421 -0.030406 -509276.000000 0 0 1
-27.572224 32.226327 32.916503 53.686682 -0.863071 0.910789 0.050133 -0.026239 -348073.000000 0 0 1
-27.190644 31.854827 34.245606 54.100117 -0.864228 0.885368 0.050014 -0.028950 256950.000000 0 0 1
-25.828374 31.454327 34.160518 53.135869 -0.883298 0.872531 0.051723 -0.024262 28207.500000 0 0 1
-25.413864 29.978727 33.761053 51.811169 -0.867622 0.861082 0.056696 -0.025854 -489173.000000 0 0 1
-25.570764 29.027727 -33.654585 51.274789 -0.848630 2.286777 0.060096 -0.023028 309381.000000 0 0 1
-25.225814 27.702727 -33.977435 50.579134 -0.832161 2.307389 0.047582 -0.021759 -433332.000000 0 0 1
-25.331604 26.733427 -32.735315 49.274406 -0.812316 2.297416 0.061473 -0.029953 -8112.160000 0 0 1
-24.245904 26.726027 -31.809445 48.103899 -0.834016 2.293301 0.052574 -0.023358 251701.000000 0 0 1
-24.255404 27.841927 -30.916785 48.159579 -0.854132 2.267855 0.035000 -0.014277 233980.000000 0 0 1
-22.912404 27.853527 -30.162535 47.016760 -0.882424 2.267284 0.044542 -0.006390 -307940.000000 0 0 1
-21.730504 28.185827 -30.853435 47.101912 -0.914007 2.285026 0.043438 -0.005560 -609137.000000 0 0 1
-20.590004 28.182427 -30.073825 46.072035 -0.939829 2.282014 0.023462 -0.002484 -431424.000000 0 0 1
-20.409404 29.340627 -29.053465 46.059961 -0.963028 2.253348 0.013206 0.000881 -1029600.000000 0 0 1
-20.070304 30.593527 -29.642815 47.090099 -0.990193 2.251695 0.009423 0.008244 196868.000000 0 0 1
-19.644404 31.558827 -28.679245 46.950625 -1.014019 2.227915 0.011279 0.006533 -75132.600000 0 0 1
-19.122804 32.830727 -29.369635 48.022013 -1.043369 2.228861 0.007096 0.010873 -95833.300000 0 0 1
-17.884304 32.706327 -30.024495 47.864626 -1.070402 2.248851 0.018341 0.005941 -352626.000000 0 0 1
-17.700604 33.809727 -30.843985 49.068935 -1.088498 2.250529 0.021687 0.009949 -552843.000000 0 0 1
-16.316204 33.934527 -31.468795 49.071944 -1.122615 2.266960 0.025733 0.008123 -626884.000000 0 0 1
-15.390004 -33.955019 -30.631645 48.250318 1.145246 2.258609 0.041193 -0.003523 910331.000000 0 0 1
-14.022004 -34.021419 -31.042695 48.142730 1.179858 2.271565 0.053193 0.000846 986069.000000 0 0 1
-13.349904 33.192227 -30.828945 47.226769 -1.188395 2.282052 0.062711 -0.003607 -795386.000000 0 0 1
-13.294804 32.699827 -29.520855 46.016425 -1.184638 2.267286 0.084714 -0.015537 67875.800000 0 0 1
-12.965204 31.326527 -29.582785 44.995433 -1.178388 2.288242 0.070826 -0.012892 -222850.000000 0 0 1
-12.691604 30.692927 -28.182625 43.559074 -1.178704 2.274437 0.076772 -0.024766 254044.000000 0 0 1
-11.553804 31.212427 -27.504015 43.176114 -1.216270 2.261422 0.085909 -0.023300 185957.000000 0 0 1
-11.635904 30.809027 -26.171805 42.066064 -1.209680 2.242294 0.076628 -0.027312 364992.000000 0 0 1
-10.330604 31.178127 -25.409265 41.526229 -1.250840 2.229238 0.082981 -0.027825 1200000.000000 0 0 1
-9.173504 30.630727 -26.063345 41.251576 -1.279810 2.254688 0.089318 -0.025333 1629300.000000 0 0 1
-7.901804 31.070727 -25.489145 40.957601 -1.321759 2.242512 0.093705 -0.028184 1959430.000000 0 0 1
-6.602004 30.394427 -26.005845 40.542713 -1.356908 2.267174 0.067277 -0.025712 374106.000000 0 0 1
-6.360004 29.157327 -25.371445 39.170264 -1.356033 2.275387 0.060109 -0.038172 -21571.300000 0 0 1
-5.116604 28.616927 -25.796415 38.865964 -1.393869 2.296588 0.061720 -0.045717 198287.000000 0 0 1
-4.809304 27.303327 -24.989135 37.323691 -1.396441 2.304365 0.055706 -0.025388 -30353.600000 0 0 1
-5.696504 26.241227 -25.241595 36.853633 -1.357031 2.325283 0.066680 -0.027159 -176606.000000 0 0 1
-5.137004 25.128427 -24.580435 35.524983 -1.369145 2.334941 0.069626 -0.035921 -73869.400000 0 0 1
-6.001404 23.839227 -24.584535 34.766722 -1.324176 2.356225 0.056347 -0.035266 -53840.500000 0 0 1
-6.138904 23.080427 -25.684035 35.072238 -1.310836 2.392516 0.051511 -0.031129 -545547.000000 0 0 1
-7.058704 22.075927 -25.539295 34.488077 -1.261323 2.404648 0.043805 -0.034864 -631254.000000 0 0 1
-7.260104 21.066727 -26.797965 34.851786 -1.238919 2.447934 0.034776 -0.021091 740725.000000 0 0 1
-6.139804 20.185227 -27.065095 34.317050 -1.275515 2.479452 0.060960 -0.031972 471843.000000 0 0 1
-6.023004 19.086427 -26.147445 32.928060 -1.265122 2.488285 0.046226 -0.029199 159919.000000 0 0 1
-4.690804 18.261527 -26.261105 32.328511 -1.319364 2.518916 0.067158 -0.042592 537875.000000 0 0 1
-4.516804 17.671527 -27.522705 33.017929 -1.320556 2.556333 0.048667 -0.031753 33338.100000 0 0 1
-3.307804 16.922627 -27.604025 32.546875 -1.377764 2.583244 0.056412 -0.031337 85676.600000 0 0 1
-2.855604 16.584727 -29.014415 33.541674 -1.400286 2.615998 0.053799 -0.021836 -57973.000000 0 0 1
-2.175004 17.631027 -29.720985 34.625434 -1.448054 2.602855 0.053768 -0.024463 173588.000000 0 0 1
-2.107104 17.295927 -31.123655 35.668906 -1.449567 2.631237 0.041101 -0.028345 -55593.900000 0 0 1
-1.271804 18.351627 -31.901955 36.825730 -1.501605 2.618534 0.053703 -0.012823 -672502.000000 0 0 1
0.053596 18.297027 -31.472165 36.404412 1.567867 2.614981 0.078726 -0.023653 -585660.000000 0 0 1
0.853196 19.382527 -31.928925 37.361297 1.526806 2.595574 0.068033 -0.007598 197839.000000 0 0 1
0.625396 20.774127 -31.270045 37.546920 1.540701 2.554990 0.062225 -0.007911 -303413.000000 0 0 1
1.242496 20.750527 -29.997255 36.496075 1.510990 2.535589 0.083375 -0.032971 -79883.800000 0 0 1
0.950996 21.969327 -29.289565 36.625597 1.527536 2.497595 0.087969 -0.041061 -161024.000000 0 0 1
1.983896 22.339327 -28.221935 36.048009 1.482221 2.470108 0.098837 -0.040963 516811.000000 0 0 1
3.255896 22.599027 -28.823485 36.771051 1.427709 2.471660 0.065086 -0.036166 484564.000000 0 0 1
4.369596 22.633227 -27.941975 36.223063 1.380082 2.451813 0.069504 -0.037501 206665.000000 0 0 1
4.875196 24.004827 -27.527425 36.847773 1.370429 2.414422 0.077631 -0.037299 -471284.000000 0 0 1
5.679696 24.682927 -28.462425 38.100072 1.344627 2.414400 0.062418 -0.031611 96036.200000 0 0 1
5.966596 26.014727 -28.045675 38.715968 1.345341 2.380954 0.049391 -0.029489 -513042.000000 0 0 1
6.679696 26.732327 -29.183335 40.136052 1.325937 2.384900 0.053305 -0.020198 44909.400000 0 0 1
8.025396 26.283727 -29.365195 40.218851 1.274450 2.389316 0.058829 -0.019070 360412.000000 0 0 1
8.793496 27.246027 -30.027735 41.488992 1.258606 2.380020 0.063772 -0.014300 -22151.000000 0 0 1
10.313596 27.051427 -29.812785 41.556613 1.206550 2.370862 0.051890 -0.014342 86810.400000 0 0 1
11.054696 28.074227 -30.436665 42.857428 1.195675 2.360556 0.048465 -0.009437 -924187.000000 0 0 1
12.280396 28.272727 -29.827435 42.893252 1.161029 2.339755 0.050101 -0.014267 -729302.000000 0 0 1
13.171596 29.214327 -30.670515 44.358182 1.147227 2.334261 0.056534 -0.017599 -415307.000000 0 0 1
12.706496 30.520627 -30.848965 45.217500 1.176296 2.321612 0.054069 -0.014910 -232138.000000 0 0 1
13.384996 31.221827 -31.836585 46.556726 1.165791 2.323786 0.073804 -0.021476 -179468.000000 0 0 1
12.895396 32.707327 -31.900715 47.473320 1.195243 2.307664 0.070116 -0.017615 370425.000000 0 0 1
11.675796 32.954927 -32.577905 47.787774 1.230300 2.320908 0.061614 -0.018270 211543.000000 0 0 1
11.244396 34.277227 -32.398855 48.487633 1.253815 2.302567 0.049492 -0.006880 -124486.000000 0 0 1
10.053396 -33.972219 -33.300595 48.622136 -1.283078 2.325243 0.033308 -0.003275 -12345.700000 0 0 1
10.458596 -33.519319 33.936361 48.832403 -1.268352 0.802438 0.041157 0.000904 -11690.700000 0 0 1
9.334696 -33.347819 33.122658 47.919976 -1.297863 0.807637 0.042184 -0.003574 -112049.000000 0 0 1
9.652596 -32.517419 31.880055 46.549899 -1.282238 0.816388 0.051403 -0.003736 -69432.500000 0 0 1
9.563396 -31.086019 32.006835 45.631531 -1.272342 0.793410 0.041950 -0.006995 -182837.000000 0 0 1
9.839396 -30.432419 30.807585 44.407805 -1.258085 0.804124 0.064810 -0.010564 -927943.000000 0 0 1
9.179596 -29.041019 30.629815 43.195270 -1.264644 0.782574 0.057448 -0.026356 381384.000000 0 0 1
7.771396 -28.814819 30.567915 42.721023 -1.307363 0.773423 0.053083 -0.020037 549339.000000 0 0 1
7.210496 -29.153719 31.832905 43.763734 -1.328335 0.756299 0.049528 -0.006188 -926954.000000 0 0 1
5.676396 -28.911519 31.895745 43.421607 -1.376926 0.745779 0.046547 -0.021574 657948.000000 0 0 1
4.783396 -29.939919 31.433075 43.672850 -1.412369 0.767369 0.053079 -0.025247 330240.000000 0 0 1
4.847496 -30.266819 30.012835 42.899287 -1.411986 0.795943 0.065356 -0.027173 -721786.000000 0 0 1
4.270496 -29.303319 28.960505 41.420195 -1.426081 0.796535 0.044976 -0.033435 400542.000000 0 0 1
2.847896 -29.228719 29.045305 41.304459 -1.473668 0.790908 0.056610 -0.036343 951072.000000 0 0 1
2.154196 -28.435519 28.074985 40.017797 -1.495184 0.793209 0.056006 -0.045480 -128930.000000 0 0 1
0.708396 -28.872719 27.820785 40.101519 -1.546266 0.804101 0.053259 -0.048786 -317774.000000 0 0 1
0.549896 -30.108619 27.116675 40.523393 -1.552535 0.837717 0.055332 -0.043306 49838.300000 0 0 1
0.543396 -31.222419 27.934355 41.898245 -1.553394 0.840998 0.070394 -0.040856 -422898.000000 0 0 1
1.321296 -32.460719 27.454355 42.534524 -1.530114 0.869170 0.054043 -0.030597 439002.000000 0 0 1
2.739096 -32.389719 27.341235 42.475166 -1.486430 0.871474 0.037272 -0.027499 598263.000000 0 0 1
3.214596 -31.958519 26.069125 41.367619 -1.470547 0.889009 0.035730 -0.019286 -530817.000000 0 0 1
4.743496 -32.049019 26.095325 41.600558 -1.423856 0.892737 0.054411 -0.004533 -559971.000000 0 0 1
5.354096 -31.576219 24.936695 40.590180 -1.402833 0.909231 0.048387 -0.020617 -1166090.000000 0 0 1
6.710896 -31.739519 25.090185 41.011591 -1.362429 0.912484 0.069579 -0.024777 -1594680.000000 0 0 1
7.473896 -31.402419 23.789835 40.098969 -1.337140 0.935672 0.058400 -0.024528 -1100460.000000 0 0 1
8.811096 -31.181319 24.077835 40.368951 -1.295400 0.931732 0.048385 -0.014080 -969475.000000 0 0 1
9.471296 -30.974219 22.865845 39.647883 -1.274045 0.956085 0.042275 -0.015455 -312671.000000 0 0 1
10.643596 -29.966619 22.937945 39.210123 -1.229513 0.945916 0.037850 -0.015117 140498.000000 0 0 1
11.767996 -30.588419 23.565185 40.366509 -1.203531 0.947419 0.036829 -0.005756 -9581.980000 0 0 1
12.871496 -29.706319 23.496935 40.003085 -1.161924 0.942981 0.045308 -0.003271 143490.000000 0 0 1
14.213396 -30.361219 23.951835 41.200906 -1.132957 0.950419 0.043875 0.004257 230323.000000 0 0 1
14.563196 -30.525319 25.323805 42.251354 -1.125648 0.928094 0.044087 0.000113 279328.000000 0 0 1
14.792896 -29.348719 26.120765 41.981799 -1.103923 0.899256 0.035500 0.002984 -257709.000000 0 0 1
-11.133204 -14.053673 26.103135 31.667454 0.900835 0.601851 0.043924 -0.037888 -282660.000000 0 0 1
-9.775604 -13.833573 25.850805 30.906218 0.955616 0.580064 0.037168 -0.037872 -961443.000000 0 0 1
-9.004204 -14.136873 26.943365 31.731243 1.003664 0.556495 0.036783 -0.032697 172407.000000 0 0 1
-7.471404 -14.037973 26.673455 31.054143 1.081700 0.537612 0.061790 -0.028205 539143.000000 0 0 1
-6.806404 -15.099473 25.942075 30.778442 1.147301 0.568211 0.056222 -0.033763 358304.000000 0 0 1
-6.959404 -14.939173 24.517845 29.542121 1.134841 0.591817 0.059645 -0.029483 -241021.000000 0 0 1
-6.240104 -15.960273 23.556265 29.130171 1.198092 0.628934 0.045417 -0.029310 536612.000000 0 0 1
-6.913804 -17.232773 23.302845 29.795834 1.189255 0.672793 0.047432 -0.024592 137495.000000 0 0 1
-7.118704 -18.129773 24.379025 31.204190 1.196640 0.674092 0.046429 -0.021502 -149543.000000 0 0 1
-7.751604 -19.496773 23.945615 31.837148 1.192375 0.719511 0.041209 -0.019806 -240700.000000 0 0 1
-9.101404 -19.342073 23.599885 31.841889 1.130985 0.736002 0.026182 -0.019116 -756873.000000 0 0 1
-9.592304 -20.587373 23.128345 32.415622 1.134773 0.776324 0.021307 -0.011614 118754.000000 0 0 1
-11.094304 -20.710073 23.467745 33.207315 1.079001 0.785968 0.024126 -0.012665 -43850.500000 0 0 1
-11.370404 -20.709373 24.877655 34.308336 1.068686 0.759588 0.022293 -0.016333 793129.000000 0 0 1
-12.801804 -20.741673 25.026295 34.934491 1.017824 0.772199 0.039080 -0.014904 982605.000000 0 0 1
-13.197004 -20.832573 26.554185 36.239230 1.006123 0.748446 0.045383 -0.019958 -267040.000000 0 0 1
-13.087604 -22.090073 27.290045 37.470032 1.035935 0.754934 0.048968 -0.016764 -575070.000000 0 0 1
-12.158404 -22.033473 28.291415 37.864296 1.066561 0.726989 0.047631 -0.022302 -569715.000000 0 0 1
-11.904204 -23.392473 28.944965 39.073378 1.100062 0.736558 0.043035 -0.018174 -442222.000000 0 0 1
-13.009304 -23.877973 29.632615 40.218049 1.071935 0.742473 0.043450 -0.018539 -418010.000000 0 0 1
-12.649804 -25.174403 30.108625 41.234663 1.105161 0.752215 0.040419 -0.019781 75721.100000 0 0 1
-13.637904 -25.777393 31.110785 42.642084 1.084168 0.753090 0.042855 -0.024826 138805.000000 0 0 1
-13.464804 -25.297233 32.462476 43.302001 1.081672 0.723224 0.047865 -0.019707 -278306.000000 0 0 1
-14.646704 -25.550163 33.176027 44.361983 1.050276 0.725982 0.050450 -0.020747 -103141.000000 0 0 1
-14.546804 -24.865773 -33.951385 44.526539 1.041469 2.437961 0.039325 -0.018915 -33521.900000 0 0 1
-14.523804 -23.442673 -33.921505 43.716911 1.016129 2.458993 0.042861 -0.015590 -285714.000000 0 0 1
-15.709504 -22.756573 34.234457 44.007365 0.966591 0.679439 0.047561 -0.021028 -578402.000000 0 0 1
-15.760204 -21.232073 -33.909885 43.000759 0.932253 2.479306 0.037506 -0.016870 -149637.000000 0 0 1
-16.180704 -20.984873 -32.613485 42.021655 0.913949 2.459272 0.041175 -0.013616 117046.000000 0 0 1
-16.196404 -19.610873 -32.219325 41.048687 0.880468 2.473339 0.034883 -0.015880 -197671.000000 0 0 1
-15.998704 -19.316473 -30.749335 39.681309 0.879071 2.457365 0.049876 -0.015867 -357106.000000 0 0 1
-17.170704 -19.560173 -30.026225 39.736729 0.850360 2.427410 0.049734 -0.014442 -204414.000000 0 0 1
-17.156804 -19.255373 -28.642425 38.542364 0.842968 2.408549 0.040117 -0.014210 -90317.900000 0 0 1
-16.387204 -20.239173 -27.698805 38.018264 0.890182 2.387022 0.037752 -0.005306 425527.000000 0 0 1
-14.983704 -20.024673 -27.775225 37.375955 0.928408 2.408533 0.038474 -0.009179 322450.000000 0 0 1
-14.281604 -21.156673 -27.218525 37.315106 0.977019 2.388276 0.034184 -0.003419 1125670.000000 0 0 1
-12.761604 -21.184873 -27.623545 37.077185 1.028620 2.411373 0.058146 -0.006374 640420.000000 0 0 1
-11.995304 -20.191073 -26.932145 35.733838 1.034734 2.424451 0.060034 -0.012579 532739.000000 0 0 1
-10.585704 -20.335873 -26.881625 35.330251 1.090849 2.435445 0.052806 -0.016337 575855.000000 0 0 1
-10.001504 -21.523273 -26.062635 35.249714 1.135799 2.402933 0.056930 -0.023469 -667801.000000 0 0 1
-9.976404 -22.800673 -26.642265 36.458327 1.158345 2.390230 0.056114 -0.019339 137446.000000 0 0 1
-9.444204 -23.610273 -25.609445 36.089911 1.190287 2.359728 0.067128 -0.018887 97159.000000 0 0 1
-9.478004 -25.123773 -25.928075 37.326956 1.210052 2.338689 0.065165 -0.019652 -87164.600000 0 0 1
-8.762404 -25.468303 -27.121685 38.223030 1.239431 2.359676 0.067988 -0.019984 237931.000000 0 0 1
-8.886704 -26.824053 -27.589305 39.492697 1.250880 2.344225 0.061033 -0.015803 -158510.000000 0 0 1
-8.671604 -28.019373 -26.687455 39.654788 1.270660 2.309046 0.073545 -0.018775 -126279.000000 0 0 1
-9.718304 -28.170513 -25.752075 39.385183 1.238599 2.283460 0.069712 -0.023681 123661.000000 0 0 1
-9.409004 -29.243513 -24.874535 39.527900 1.259510 2.251436 0.107776 -0.020904 -295208.000000 0 0 1
-10.424904 -29.435983 -23.738335 39.225811 1.230425 2.220777 0.108015 -0.020866 -82790.900000 0 0 1
-10.504504 -28.359233 -22.805035 37.876910 1.216057 2.216903 0.089676 -0.033033 -101548.000000 0 0 1
-11.357504 -27.286823 -23.159135 37.548757 1.176380 2.235435 0.084982 -0.029588 -263502.000000 0 0 1
-11.302104 -26.203213 -22.044235 36.059593 1.163580 2.228534 0.083094 -0.034934 -290797.000000 0 0 1
-11.796904 -26.586903 -20.823935 35.772428 1.153185 2.192133 0.062666 -0.027805 58465.900000 0 0 1
-11.650404 -25.532153 -19.842235 34.370584 1.142713 2.186218 0.059147 -0.022085 -335866.000000 0 0 1
-12.091104 -25.934053 -18.413335 34.026766 1.134532 2.142592 0.074963 -0.021521 407601.000000 0 0 1
-13.503204 -26.118113 -18.448635 34.710870 1.093637 2.131160 0.092768 -0.023969 472687.000000 0 0 1
-14.013804 -26.508563 -17.179635 34.557640 1.084491 2.091084 0.086528 -0.020732 -1049900.000000 0 0 1
-15.492904 -26.796943 -17.151835 35.387733 1.046591 2.076797 0.079507 -0.027381 -728317.000000 0 0 1
-16.349704 -25.613523 -17.305735 34.969327 1.002674 2.088497 0.076652 -0.018059 2143920.000000 0 0 1
-17.771304 -25.729483 -17.010435 35.597478 0.966341 2.069008 0.081099 -0.014061 1749040.000000 0 0 1
-18.615004 -26.708953 -17.872035 37.138877 0.962115 2.072844 0.077541 -0.008934 -905641.000000 0 0 1
-18.411304 -28.124273 -17.766135 38.020868 0.991165 2.057000 0.071964 -0.030997 -162833.000000 0 0 1
-18.731504 -28.786253 -16.556735 38.126672 0.993922 2.020008 0.059663 -0.028868 -297739.000000 0 0 1
-20.238504 -29.146763 -16.496635 39.131443 0.963862 2.005972 0.073363 -0.023341 225739.000000 0 0 1
-20.657204 -30.085543 -17.475335 40.462913 0.969110 2.017378 0.055534 -0.015001 -930585.000000 0 0 1
-22.021804 -30.303443 -17.413935 41.309849 0.942368 2.005944 0.049382 -0.016651 -1000410.000000 0 0 1
-22.569904 -31.208443 -18.470735 42.714582 0.944670 2.017974 0.035191 -0.016567 -380117.000000 0 0 1
-22.042404 -32.498283 -18.582035 43.443043 0.974808 2.012780 0.032047 -0.020956 592.012000 0 0 1
-22.644604 -33.207513 -19.660635 44.744358 0.972313 2.025726 0.023141 -0.002822 436900.000000 0 0 1
-21.969004 33.979246 -19.703035 45.004843 -0.996856 2.023944 0.014127 -0.006276 260800.000000 0 0 1
-22.442104 33.084446 -18.689635 44.130840 -0.974764 2.008107 0.023104 -0.007387 -31297.300000 0 0 1
-21.642304 31.915403 -18.645035 42.832459 -0.974910 2.021170 0.025091 -0.012477 -201663.000000 0 0 1
-22.282604 30.608493 -18.098835 41.963819 -0.941533 2.016725 0.040791 -0.025235 -91508.400000 0 0 1
-22.771504 30.639843 -16.772535 41.697233 -0.931662 1.984765 0.033214 -0.030122 -60561.400000 0 0 1
-23.492604 29.471213 -16.408035 41.105698 -0.897803 1.981404 0.029880 -0.025850 -267516.000000 0 0 1
-22.703204 28.216243 -16.030035 39.604972 -0.893248 1.987500 0.036137 -0.035180 -496573.000000 0 0 1
-22.009804 27.704963 -17.138635 39.315763 -0.899458 2.021860 0.031246 -0.026284 -69553.100000 0 0 1
-21.567204 26.343993 -16.925435 38.021317 -0.884771 2.032145 0.033024 -0.030705 -64545.600000 0 0 1
-20.930304 25.747883 -18.169435 37.830668 -0.888242 2.071774 0.033701 -0.023045 -1131420.000000 0 0 1
-20.724504 24.371653 -18.020835 36.718293 -0.866097 2.083788 0.045715 -0.031403 170139.000000 0 0 1
-19.973704 23.777753 -19.061835 36.437397 -0.872127 2.121327 0.041739 -0.017127 50850.500000 0 0 1
-18.549904 24.291113 -19.353635 36.176239 -0.918616 2.135283 0.031150 -0.022363 -1071720.000000 0 0 1
-17.586804 23.911163 -18.355635 34.899408 -0.936636 2.124638 0.051049 -0.028098 335771.000000 0 0 1
-16.465904 24.769863 -18.503635 35.029368 -0.984118 2.127313 0.065381 -0.036616 -214956.000000 0 0 1
-16.584104 25.954013 -17.531835 35.440210 -1.002207 2.088272 0.066513 -0.043000 223246.000000 0 0 1
-17.612804 26.956693 -17.672935 36.731550 -0.992053 2.072748 0.051757 -0.035782 444846.000000 0 0 1
-17.137904 28.245223 -17.231935 37.261776 -1.025425 2.051560 0.055369 -0.045327 159247.000000 0 0 1
-18.129104 29.414453 -17.561835 38.759418 -1.018454 2.041034 0.050437 -0.032673 393498.000000 0 0 1
-18.108604 29.804913 -18.924235 39.678471 -1.024828 2.067966 0.028725 -0.032178 464933.000000 0 0 1
-19.107704 29.127283 -19.717535 40.028541 -0.990210 2.085856 0.035069 -0.032001 181860.000000 0 0 1
-19.205704 29.447143 -21.233835 41.071511 -0.992869 2.114135 0.031113 -0.026648 -26410.000000 0 0 1
-19.819504 30.707703 -21.411335 42.358246 -0.997644 2.100737 0.029548 -0.019141 3679.620000 0 0 1
-20.178604 30.874673 -22.778035 43.350437 -0.991919 2.124028 0.031189 -0.014928 -178710.000000 0 0 1
-20.824704 32.231073 -23.000135 44.738312 -0.997163 2.110759 0.026885 -0.008814 161290.000000 0 0 1
-19.977904 33.408437 -22.968935 45.197481 -1.031856 2.103879 0.018456 -0.006705 350110.000000 0 0 1
-20.615804 -34.155967 -23.660135 46.383655 1.027750 2.106093 0.020052 0.001972 237886.000000 0 0 1
-19.847004 -32.748663 -23.511835 44.935341 1.025947 2.121441 0.032952 0.000308 419025.000000 0 0 1
-19.813404 -32.120793 -22.232335 43.801747 1.018086 2.103155 0.043922 -0.002986 25298.300000 0 0 1
-19.079804 -32.805023 -21.239135 43.489186 1.044007 2.081026 0.042699 -0.017112 -561285.000000 0 0 1
-18.563404 -31.860013 -20.168535 42.028921 1.043228 2.071306 0.059834 -0.025544 252929.000000 0 0 1
-17.521004 -30.958523 -20.561635 41.087669 1.055789 2.094895 0.071190 -0.025819 441904.000000 0 0 1
-17.013104 -30.354663 -19.381235 39.830686 1.059945 2.078979 0.070995 -0.026247 -356290.000000 0 0 1
-15.834404 -29.388903 -19.560135 38.691535 1.076602 2.100805 0.088893 -0.026832 -875634.000000 0 0 1
-14.664404 -30.069993 -19.812135 38.881486 1.117057 2.105460 0.098420 -0.035793 -1086480.000000 0 0 1
-13.657104 -29.179173 -20.239035 38.046802 1.133040 2.131699 0.082575 -0.037497 400510.000000 0 0 1
-12.265504 -29.854833 -20.543535 38.259515 1.180982 2.137617 0.109607 -0.038626 1175550.000000 0 0 1
-11.522404 -30.394993 -19.418535 37.864243 1.208446 2.109293 0.098286 -0.029419 710518.000000 0 0 1
-11.016204 -29.497723 -18.396135 36.467660 1.213377 2.099542 0.068538 -0.029962 -348953.000000 0 0 1
-10.346304 -30.270943 -17.255135 36.347155 1.241454 2.065455 0.058299 -0.014850 -290986.000000 0 0 1
-11.186404 -30.842133 -16.272935 36.622141 1.222854 2.031241 0.080504 -0.024578 -225046.000000 0 0 1
-11.503504 -32.142063 -16.649435 37.982187 1.227105 2.024557 0.091751 -0.023084 148324.000000 0 0 1
-12.596004 -32.741593 -15.698735 38.433339 1.203540 1.991570 0.092733 -0.034133 -19035.100000 0 0 1
-12.166004 -33.001643 -14.399835 38.006254 1.217606 1.959383 0.080304 -0.026041 194876.000000 0 0 1
-13.188704 -33.552293 -13.573035 38.521754 1.196270 1.930874 0.085768 -0.019580 58692.400000 0 0 1
-12.566304 -34.189346 -12.281635 38.440369 1.218573 1.895996 0.068691 -0.014599 -99138.500000 0 0 1
-11.987604 -33.195763 -11.527335 37.128706 1.224251 1.886483 0.054192 -0.007691 -237795.000000 0 0 1
-11.644204 -33.713183 -10.265835 37.115409 1.238234 1.851043 0.060119 -0.009695 -842926.000000 0 0 1
-10.516004 -33.069453 -9.507535 35.980110 1.262911 1.838217 0.039928 -0.008915 -497560.000000 0 0 1
-9.271204 -33.218573 -10.130235 35.945104 1.298625 1.856492 0.018575 -0.006251 449459.000000 0 0 1
-8.114304 -32.706793 -9.426035 34.991805 1.327614 1.843544 0.008477 -0.002301 625187.000000 0 0 1
-6.780004 -33.266683 -9.858235 35.352871 1.369742 1.853395 0.004603 -0.003290 -548020.000000 0 0 1
-6.467304 34.080489 -9.294335 35.912260 -1.383261 1.832583 -0.004791 0.002412 -1989.250000 0 0 1
-5.458004 33.452980 -10.082035 35.362962 -1.409067 1.859909 -0.002904 0.000041 376230.000000 0 0 1
-4.741604 32.344913 -9.258335 33.976359 -1.425238 1.846780 -0.000600 -0.010122 199893.000000 0 0 1
-4.016504 32.800295 -8.126035 34.029753 -1.448950 1.811918 0.012080 -0.014783 172501.000000 0 0 1
-3.261504 31.821793 -7.421235 32.838067 -1.468660 1.798761 0.015398 -0.017426 204656.000000 0 0 1
-2.885604 32.416953 -6.048435 33.102403 -1.482015 1.754548 0.022092 -0.020866 1062270.000000 0 0 1
-1.685204 33.267228 -6.040335 33.853124 -1.520183 1.750185 0.016033 -0.019271 1233250.000000 0 0 1
-1.351404 33.855902 -4.788635 34.219576 -1.530901 1.711196 0.023112 -0.020060 49108.900000 0 0 1
-0.232104 33.152230 -3.979735 33.391054 -1.563795 1.690266 0.028606 -0.019662 146582.000000 0 0 1
1.042596 33.300611 -4.602235 33.633291 1.539498 1.708063 0.036292 -0.018888 246737.000000 0 0 1
1.990496 32.557993 -3.834635 32.843407 1.509735 1.687818 0.040936 -0.017804 835127.000000 0 0 1
3.458596 32.648090 -4.386535 33.122520 1.465254 1.703620 0.032120 -0.007145 776834.000000 0 0 1
4.049296 33.875771 -3.970335 34.347172 1.451827 1.686650 0.031261 -0.001015 -466702.000000 0 0 1
5.439096 33.925408 -4.182435 34.612279 1.411824 1.691929 0.045107 -0.003442 81784.100000 0 0 1
6.033196 -33.347253 -3.693535 34.089309 -1.391812 1.679358 0.037451 0.003575 -151489.000000 0 0 1
5.554796 -32.226363 -4.364535 32.991566 -1.400106 1.703478 0.041066 -0.003488 -269884.000000 0 0 1
5.896796 -31.044903 -3.721035 31.818302 -1.383088 1.688011 0.035601 -0.009105 -201316.000000 0 0 1
5.724496 -29.843413 -4.651435 30.741422 -1.381281 1.722688 0.035287 -0.009007 244557.000000 0 0 1
6.581296 -29.900313 -5.798835 31.160370 -1.354143 1.757984 0.048406 -0.015271 -36723.400000 0 0 1
6.444696 -28.776803 -6.699435 30.241047 -1.350477 1.794184 0.061279 -0.015018 228164.000000 0 0 1
6.987996 -27.355043 -6.307635 28.929513 -1.320690 1.790596 0.059589 -0.014849 615307.000000 0 0 1
6.230596 -26.839503 -5.189235 28.037607 -1.342694 1.756951 0.043225 -0.016889 90908.200000 0 0 1
6.802296 -25.685533 -4.610035 26.967949 -1.311910 1.742585 0.043733 -0.018355 -150487.000000 0 0 1
5.934096 -25.219363 -3.426835 26.133752 -1.339701 1.702302 0.036814 -0.016122 351818.000000 0 0 1
4.702896 -24.649273 -3.872335 25.390921 -1.382270 1.723902 0.036576 -0.019878 109834.000000 0 0 1
4.003296 -23.989373 -2.816535 24.483653 -1.405442 1.686089 0.032273 -0.017310 -532000.000000 0 1 0
2.836596 -23.184273 -3.311035 23.590671 -1.449051 1.711615 0.036987 -0.021843 -657247.000000 0 1 0
1.805996 -24.004273 -3.789035 24.368495 -1.495701 1.726919 0.041110 -0.019238 -597588.000000 0 1 0
0.662896 -23.226273 -4.098035 23.594344 -1.542263 1.745369 0.032868 -0.017439 318223.000000 0 1 0
-15.292504 23.613427 18.305145 33.563863 -0.996097 0.993951 0.000887 -0.008688 5034.750000 0 0 1
-15.449504 22.894427 19.537945 33.831542 -0.977174 0.955125 0.008926 -0.010423 154642.000000 0 0 1
-15.086504 23.645627 20.650045 34.830197 -1.002885 0.936169 0.011593 -0.021792 -1351870.000000 0 0 1
-15.148204 22.949627 22.011945 35.223276 -0.987379 0.895759 0.025510 -0.027484 -431097.000000 0 0 1
-14.086204 22.048827 22.249845 34.345706 -1.002289 0.866077 0.015396 -0.022605 1453830.000000 0 0 1
-12.713904 22.513527 22.147945 34.044584 -1.056720 0.862479 0.005251 -0.027283 530926.000000 0 0 1
-12.246004 23.620927 23.107845 35.240393 -1.092507 0.855660 0.017012 -0.022731 -954330.000000 0 0 1
-12.170504 23.253427 24.450305 35.870049 -1.088616 0.820801 0.000106 -0.013215 69167.400000 0 0 1
-11.863204 24.403327 25.245425 37.061968 -1.118306 0.821440 0.023901 -0.015839 -285619.000000 0 0 1
-11.413504 23.997127 26.653585 37.637000 -1.126843 0.783886 0.011026 -0.017504 1184290.000000 0 0 1
-10.059904 23.473227 26.725945 36.965797 -1.165906 0.762674 -0.018111 -0.009847 693011.000000 0 0 1
-9.777404 22.769227 27.907815 37.321327 -1.165194 0.726097 -0.037535 -0.000287 -1388660.000000 0 0 1
-8.293604 22.393027 27.924855 36.742741 -1.216095 0.707468 -0.031751 -0.007132 -107692.000000 0 0 1
-7.407904 23.429827 28.320035 37.494776 -1.264568 0.714675 -0.020117 -0.004971 -15952.900000 0 0 1
-7.251704 24.367827 27.341975 37.335798 -1.281549 0.749065 -0.018481 -0.007254 -1246580.000000 0 0 1
-6.161104 25.464827 27.600755 38.055463 -1.333412 0.759360 -0.020198 -0.010411 -90222.200000 0 0 1
-4.860704 24.938827 27.579865 37.499606 -1.378305 0.744435 -0.026735 -0.005976 -610725.000000 0 0 1
-3.975104 25.878427 28.167265 38.456329 -1.418381 0.748886 -0.017632 -0.004661 -8980.510000 0 0 1
-2.533804 25.332027 28.245955 38.025856 -1.471104 0.733540 -0.013870 -0.008038 66203.600000 0 0 1
-1.882404 25.424927 26.956955 37.103204 -1.496893 0.757524 -0.012495 -0.010509 171381.000000 0 0 1
-0.565604 24.894427 26.945175 36.689165 -1.548080 0.745988 -0.002192 -0.002739 374592.000000 0 0 1
-0.104004 24.595627 25.518175 35.441966 -1.566568 0.766996 -0.002425 -0.004180 -374482.000000 0 0 1
-0.720304 23.484427 24.933505 34.259551 -1.540134 0.755713 0.003845 0.001129 -280768.000000 0 0 1
-0.117304 23.195227 23.713845 33.171957 -1.565739 0.774349 0.002186 0.003611 -124850.000000 0 0 1
-0.498204 21.884227 22.969445 31.729529 -1.548035 0.761338 0.003442 0.006654 18264.100000 0 0 1
0.214996 20.775927 23.487265 31.358204 1.560448 0.724246 0.018347 0.008418 87606.200000 0 0 1
-0.080604 19.564427 22.794045 30.039004 -1.566676 0.709305 0.024831 0.008021 -584548.000000 0 0 1
0.939696 18.489227 23.123245 29.621259 1.520016 0.675123 0.032736 0.015079 -899216.000000 0 0 1
2.030996 18.646427 22.260645 29.109285 1.462303 0.700179 0.030682 0.013716 -1288630.000000 0 0 1
2.752696 17.504527 22.391545 28.554633 1.414817 0.669447 0.016966 0.012021 -753166.000000 0 0 1
4.148096 17.648527 21.741745 28.308668 1.339947 0.695046 0.026465 0.005363 -189112.000000 0 0 1
5.085796 18.308427 22.545845 29.485233 1.299843 0.700300 0.024932 0.014094 -452283.000000 0 0 1
6.228596 18.740027 21.835245 29.440821 1.249914 0.735246 0.041099 0.000566 -75718.400000 0 0 1
7.341096 19.336927 22.709945 30.717260 1.207963 0.738733 0.051890 -0.002115 -500646.000000 0 0 1
7.028196 20.470527 23.508505 31.954465 1.240074 0.744115 0.041296 0.005283 23241.500000 0 0 1
6.746196 21.682227 22.760645 32.150849 1.269151 0.784229 0.048882 0.000003 -639518.000000 0 0 1
5.467096 22.363927 23.191645 32.678537 1.331038 0.781738 0.026780 0.006146 -520232.000000 0 0 1
5.486696 23.714827 22.762745 33.326257 1.343435 0.818897 0.022088 0.002391 -121796.000000 0 0 1
4.310196 24.297827 23.235545 33.894730 1.395232 0.815477 -0.006294 0.007179 -457614.000000 0 0 1
3.938196 25.723527 22.726445 34.549971 1.418879 0.852922 0.001139 0.011102 95314.800000 0 0 1
3.773196 25.936127 21.293045 33.768527 1.426329 0.888523 0.005064 0.000944 -133777.000000 0 0 1
2.712596 25.260227 20.668945 32.751222 1.463820 0.887840 0.007281 0.000892 -504659.000000 0 0 1
2.582696 25.799627 19.237745 32.285940 1.471023 0.932466 0.017562 -0.006724 -1246120.000000 0 0 1
1.769896 26.914627 19.213945 33.116542 1.505131 0.951832 0.006432 -0.009015 -205921.000000 0 0 1
1.455296 27.169827 17.868845 32.551697 1.517285 0.989704 0.015398 -0.009391 -306489.000000 0 0 1
0.423696 28.287127 17.704545 33.373522 1.555819 1.011610 0.004549 0.001942 -117087.000000 0 0 1
0.829596 29.484827 18.299545 34.711908 1.542667 1.015514 0.002227 0.004208 817312.000000 0 0 1
-0.334104 30.326427 18.443145 35.495822 -1.559780 1.024430 -0.000229 0.005793 647015.000000 0 0 1
-0.107804 31.733427 18.998845 36.986188 -1.567399 1.031335 -0.001631 0.013465 71480.300000 0 0 1
0.548196 31.811627 20.271045 37.725262 1.553565 1.003524 -0.002496 0.010384 165418.000000 0 0 1
0.784396 33.088127 20.737145 39.057248 1.547094 1.011084 0.007224 0.014688 120905.000000 0 0 1
1.470596 32.988027 22.145845 39.759414 1.526246 0.980032 0.011659 0.000638 -321890.000000 0 0 1
0.562996 32.662127 23.131745 40.027604 1.553561 0.954650 0.007366 0.001176 -315256.000000 0 0 1
1.069396 32.939727 24.395365 41.003695 1.538342 0.933586 0.021616 -0.010668 -493138.000000 0 0 1
0.089796 32.672127 25.538765 41.469319 1.568048 0.907335 0.023567 -0.002824 -828115.000000 0 0 1
-0.987104 33.533427 25.640015 42.224110 -1.541368 0.918219 0.027657 -0.003143 -267483.000000 0 0 1
-1.873204 33.320127 26.733125 42.759791 -1.514637 0.895417 0.035504 -0.009750 -72797.000000 0 0 1
-1.381304 33.631827 28.127225 43.865118 -1.529748 0.874708 0.056714 -0.023984 -625570.000000 0 0 1
-0.483504 32.643027 28.635435 43.425673 -1.555986 0.850759 0.042181 -0.024239 227520.000000 0 0 1
0.067996 33.268627 29.784735 44.653517 1.568752 0.840596 0.043745 -0.024830 -625686.000000 0 0 1
1.054196 32.318527 30.515025 44.460828 1.538189 0.814359 0.029441 -0.024336 -592341.000000 0 0 1
2.356396 32.167927 30.056375 44.087570 1.497674 0.820654 0.019704 -0.022219 -527647.000000 0 0 1
2.527796 31.638527 28.774915 42.841357 1.491070 0.834346 0.015704 -0.021565 -330927.000000 0 0 1
4.022296 31.570427 28.317435 42.599857 1.444072 0.843663 0.007680 -0.015356 492334.000000 0 0 1
4.587796 30.326627 28.681675 41.992745 1.420655 0.818914 0.013478 -0.022013 593790.000000 0 0 1
6.004196 30.356627 28.452065 42.036831 1.375528 0.827340 0.032801 -0.029201 796255.000000 0 0 1
6.728396 29.137627 29.104265 41.729257 1.343856 0.798957 0.044818 -0.027618 50266.000000 0 0 1
6.727996 29.238327 30.533555 42.807052 1.344625 0.776625 0.038633 -0.031417 147259.000000 0 0 1
7.347096 28.109627 31.111805 42.568478 1.315143 0.751208 0.042060 -0.031145 2439.590000 0 0 1
7.343396 28.328427 32.661651 43.854403 1.317156 0.730599 0.043492 -0.024697 580811.000000 0 0 1
6.034696 28.213427 33.244863 44.018586 1.360077 0.714767 0.037227 -0.024784 315318.000000 0 0 1
6.065096 28.077027 -33.791425 44.350482 1.358049 2.437065 0.046311 -0.021277 -87181.500000 0 0 1
6.171496 26.617027 -33.258255 43.042595 1.342960 2.453852 0.045049 -0.016812 -181554.000000 0 0 1
7.396996 26.028227 -33.610905 43.149474 1.293905 2.463772 0.037835 -0.014355 -53105.600000 0 0 1
7.324196 24.642927 -33.348825 42.107741 1.281898 2.484855 0.047869 -0.012684 -131621.000000 0 0 1
8.729396 24.062627 -33.540055 42.191796 1.222783 2.489709 0.065793 -0.015970 -316405.000000 0 0 1
9.185696 23.906527 33.630130 42.271559 1.203955 0.650843 0.052538 -0.010279 759542.000000 0 0 1
10.388596 23.135427 33.428074 41.959588 1.148746 0.649026 0.064280 -0.019325 697527.000000 0 0 1
10.397296 21.630227 33.714696 41.384190 1.122721 0.618626 0.060084 -0.022390 -1143650.000000 0 0 1
9.610696 21.009827 32.734484 40.066504 1.141774 0.614601 0.054238 -0.020389 27425.900000 0 0 1
9.113096 19.767227 33.145366 39.653588 1.138816 0.581075 0.046882 -0.020515 -610046.000000 0 0 1
7.839396 19.828527 33.955424 40.094855 1.194297 0.560711 0.063396 -0.030169 -1301130.000000 0 0 1
8.051996 20.128727 -33.178475 39.633464 1.190268 2.562817 0.067492 -0.025393 1231060.000000 0 0 1
6.786496 20.503927 -32.558395 39.070662 1.251161 2.555884 0.079514 -0.031148 1060460.000000 0 0 1
6.925196 20.954227 -31.041755 38.087117 1.251605 2.523560 0.085511 -0.041870 467016.000000 0 0 1
7.884196 22.020327 -30.907565 38.759940 1.226975 2.493787 0.080057 -0.034586 427662.000000 0 0 1
7.865296 22.476627 -29.548015 37.949266 1.234182 2.463258 0.053813 -0.027046 -1248960.000000 0 0 1
9.171996 22.882827 -28.932365 38.010933 1.189579 2.435895 0.062433 -0.031073 -807548.000000 0 0 1
9.910996 21.715727 -28.669345 37.305924 1.142635 2.447279 0.064297 -0.033960 -184638.000000 0 0 1
11.305596 21.890227 -28.526615 37.693054 1.094061 2.429221 0.069361 -0.034579 737513.000000 0 0 1
12.155396 20.545527 -28.495345 37.173337 1.036552 2.444253 0.066425 -0.041625 240173.000000 0 0 1
12.224096 19.672827 -29.630675 37.608849 1.014812 2.478130 0.053120 -0.033429 -445172.000000 0 0 1
11.007396 19.219727 -30.145315 37.407228 1.050682 2.507938 0.066975 -0.029833 -639530.000000 0 0 1
11.120096 18.362927 -31.427915 38.060051 1.026289 2.542319 0.061021 -0.025723 -244091.000000 0 0 1
11.776796 17.111927 -31.219715 37.499088 0.968019 2.554484 0.053419 -0.021480 263885.000000 0 0 1
11.871496 16.345627 -32.377975 38.163401 0.942650 2.583759 0.040772 -0.015354 -76199.900000 0 0 1
12.838796 16.662827 -33.570195 39.616190 0.914300 2.581839 0.028188 0.004901 -225625.000000 0 0 1
12.510996 17.816527 34.198038 40.539604 0.958587 0.566898 0.042590 -0.003335 -71014.500000 0 0 1
13.096896 17.977127 32.931709 39.739190 0.941177 0.594022 0.047810 -0.006711 -19541.000000 0 0 1
12.510096 17.055027 31.816505 38.205581 0.937930 0.586702 0.060380 -0.025258 -642984.000000 0 0 1
12.869796 17.472627 30.542275 37.466717 0.935947 0.617749 0.060202 -0.020038 -140187.000000 0 0 1
12.101496 17.072527 29.413225 36.097856 0.954170 0.618379 0.063294 -0.023032 1376970.000000 0 0 1
10.544296 17.417927 29.354365 35.724573 1.026437 0.606434 0.046809 -0.029018 1468890.000000 0 0 1
9.827296 16.615127 30.309405 35.934638 1.036675 0.567106 0.051484 -0.027689 -569853.000000 0 0 1
8.534596 17.082027 30.519255 36.000832 1.107449 0.559091 0.056091 -0.022672 -109331.000000 0 0 1
7.699596 16.353527 31.611155 36.414101 1.130763 0.519430 0.057559 -0.021914 112596.000000 0 0 1
8.076696 16.849427 32.873620 37.812843 1.123808 0.516856 0.063181 -0.025123 243517.000000 0 0 1
8.289096 15.759327 33.771795 38.178523 1.086581 0.485213 0.092513 -0.028184 -252208.000000 0 0 1
8.092396 16.185927 -33.242405 37.848759 1.107177 2.643082 0.094553 -0.032754 -178527.000000 0 0 1
6.838096 16.603927 -32.752445 37.352009 1.180128 2.640085 0.081597 -0.034610 229435.000000 0 0 1
6.944096 16.716927 -31.314845 36.170369 1.177091 2.617463 0.089878 -0.046583 -122402.000000 0 0 1
5.740396 17.480227 -30.741085 35.826314 1.253498 2.602274 0.086542 -0.048093 -1069850.000000 0 0 1
5.904996 17.779427 -29.352775 34.821867 1.250133 2.573523 0.081196 -0.056909 676368.000000 0 0 1
4.926896 18.708027 -28.811905 34.704329 1.313286 2.550282 0.094161 -0.060472 1594790.000000 0 0 1
3.407996 18.335527 -28.985125 34.466556 1.387025 2.569858 0.103490 -0.053742 320067.000000 0 0 1
2.767196 17.500527 -27.938855 33.083310 1.413974 2.576427 0.117183 -0.054129 1077390.000000 0 0 1
1.378196 17.222327 -28.127255 33.009854 1.490943 2.590755 0.106035 -0.047773 920465.000000 0 0 1
0.342796 18.345127 -27.842825 33.344926 1.552113 2.558919 0.101556 -0.051345 -462112.000000 0 0 1
-0.008704 18.562727 -26.464015 32.325207 -1.570327 2.529906 0.110466 -0.059907 30639.400000 0 0 1
-0.704704 19.789027 -26.412115 33.010635 -1.535201 2.498274 0.109615 -0.051742 -201265.000000 0 0 1
-1.240704 20.181327 -25.025135 32.172701 -1.509396 2.462014 0.101530 -0.057061 -56405.800000 0 0 1
-2.207304 19.307827 -24.484335 31.259351 -1.456969 2.470696 0.088321 -0.044404 17459.400000 0 0 1
-2.712004 19.657027 -23.207435 30.534222 -1.433696 2.434181 0.085356 -0.042552 -87039.500000 0 0 1
-4.018004 19.023627 -22.722335 29.905639 -1.362644 2.433803 0.071190 -0.033700 -440714.000000 0 0 1
-5.208404 19.726127 -22.924335 30.688315 -1.312652 2.414342 0.060523 -0.024655 -976564.000000 0 0 1
-6.259804 18.993427 -22.399435 30.027822 -1.252430 2.412766 0.047980 -0.020681 -1096420.000000 0 0 1
-7.570504 19.742727 -22.350035 30.767058 -1.204631 2.383905 0.043142 -0.015477 -773986.000000 0 0 1
-7.770904 20.643627 -21.290635 30.656768 -1.210772 2.338499 0.028938 -0.022999 105242.000000 0 0 1
-7.110604 21.888727 -21.476535 31.478860 -1.256698 2.321636 0.033699 -0.019642 -114396.000000 0 0 1
-7.269204 22.920727 -20.379335 31.520126 -1.263685 2.273850 0.052376 -0.027268 -78518.400000 0 0 1
-6.392804 22.688627 -19.296735 30.463186 -1.296154 2.256793 0.068104 -0.025729 -87675.900000 0 0 1
-6.650604 23.586527 -18.256135 30.558816 -1.295965 2.211064 0.071707 -0.032026 -481620.000000 0 0 1
-5.700404 23.510927 -17.093235 29.621562 -1.332929 2.185913 0.058463 -0.026979 38483.900000 0 0 1
-4.375904 23.889527 -17.413135 29.884365 -1.389632 2.192823 0.042313 -0.026319 -783297.000000 0 0 1
-3.450404 23.507927 -16.449235 28.898187 -1.425061 2.176345 0.029156 -0.027977 -1007680.000000 0 0 1
-2.161904 24.230027 -16.763035 29.542636 -1.481808 2.174164 0.022537 -0.016895 -1224880.000000 0 0 1
-2.175204 25.634227 -16.621635 30.628807 -1.486144 2.144421 0.004021 -0.012075 -130208.000000 0 0 1
-1.315504 26.227727 -17.576435 31.599925 -1.520681 2.160624 0.000492 -0.006306 -80695.800000 0 0 1
-1.042104 27.678727 -17.300935 32.657622 -1.533164 2.129122 -0.006160 -0.016520 -323920.000000 0 0 1
-2.020004 28.603627 -17.665735 33.679758 -1.500293 2.122949 0.012092 -0.022849 -270766.000000 0 0 1
-1.432104 29.514627 -18.543835 34.886071 -1.522313 2.131231 0.025681 -0.020894 -956134.000000 0 0 1
-2.483804 30.244527 -19.380035 36.006755 -1.488856 2.139136 0.062701 -0.025952 22433.100000 0 0 1
-3.317204 31.134027 -18.652935 36.445349 -1.464651 2.108082 0.057817 -0.022932 189042.000000 0 0 1
-4.421604 30.415127 -18.067135 35.651815 -1.426432 2.102226 0.028896 -0.021304 -284505.000000 0 0 1
-5.311804 31.405227 -17.233035 36.214376 -1.403244 2.066740 0.055110 -0.014324 114050.000000 0 0 1
-5.969304 32.305327 -18.088435 37.502776 -1.388080 2.074100 0.081800 -0.024115 -264253.000000 0 0 1
-6.573504 33.305627 -17.308435 38.105874 -1.375932 2.042292 0.081810 -0.037042 -139678.000000 0 0 1
-7.094604 -34.092419 -18.059235 39.227062 1.365625 2.049216 0.083884 -0.023505 -304302.000000 0 0 1
-8.338604 34.267627 -18.633735 39.887575 -1.332098 2.056868 0.088446 -0.036216 -582617.000000 0 0 1
-8.950404 -33.206919 -19.193035 39.385046 1.307519 2.079812 0.122136 -0.039094 -67608.800000 0 0 1
29.519596 -20.907173 -26.143625 44.631890 -0.616240 2.196615 0.045938 0.006764 317456.000000 0 0 1
28.813396 -22.000073 -25.579465 44.368052 -0.652108 2.185270 0.045695 -0.003372 83881.500000 0 0 1
27.434696 -22.071073 -25.907175 43.714718 -0.677476 2.205131 0.038802 -0.005347 361999.000000 0 0 1
26.822896 -23.410373 -25.431445 43.752391 -0.717569 2.191071 0.045207 0.001579 -44788.000000 0 0 1
27.160996 -24.560373 -26.183685 45.016853 -0.735159 2.191542 0.047505 0.013850 -331393.000000 0 0 1
28.510696 -24.951173 -26.065785 45.987455 -0.718916 2.173415 0.048888 0.016653 -82707.800000 0 0 1
28.833196 -26.314193 -26.732695 47.312017 -0.739752 2.171266 0.043827 0.018028 90721.400000 0 0 1
28.239196 -27.391163 -26.002585 47.157846 -0.770155 2.154831 0.055454 0.005164 -69984.800000 0 0 1
28.483896 -28.676533 -26.621175 48.397963 -0.788768 2.153217 0.038891 0.010045 397811.000000 0 0 1
27.471096 -29.049903 -27.747005 48.666768 -0.813324 2.177476 0.057689 -0.001204 -417915.000000 0 0 1
27.578496 -28.295173 -28.939665 48.976469 -0.798224 2.202957 0.030127 -0.002143 500986.000000 0 0 1
28.708596 -28.416793 -29.840325 50.220938 -0.780290 2.207043 0.009439 0.004706 520218.000000 0 0 1
28.962496 -29.792153 -30.444815 51.510051 -0.799518 2.203151 0.015030 0.004955 -1031790.000000 0 0 1
29.342096 -30.814833 -29.605245 51.836118 -0.809875 2.178680 0.026767 0.006379 1090920.000000 0 0 1
30.661396 -30.848043 -28.981445 52.265162 -0.788433 2.158568 0.019661 0.015517 1839730.000000 0 0 1
31.962596 -30.679053 -29.826235 53.408016 -0.764911 2.163324 0.004445 0.014919 -115828.000000 0 0 1
31.975096 -29.329593 -30.229365 52.881437 -0.742272 2.179305 0.017480 0.003277 -501384.000000 0 0 1
33.062496 -28.996053 -31.045375 53.830429 -0.719966 2.185511 0.009454 -0.000895 -301032.000000 0 0 1
32.841696 -27.600343 -31.751565 53.371508 -0.698898 2.207957 0.007915 0.004274 -10991.100000 0 0 1
33.021896 -26.527213 -30.821635 52.384271 -0.676763 2.199845 0.005992 0.006774 -352574.000000 0 0 1
31.839596 -25.933773 -30.351985 51.064307 -0.683528 2.207300 0.021904 0.010338 -478860.000000 0 0 1
32.023296 -24.615173 -29.565145 50.054930 -0.655340 2.202665 0.015318 0.013016 5792.690000 0 0 1
32.744996 -24.681273 -28.340065 49.845354 -0.645892 2.175550 0.025127 0.009528 348576.000000 0 0 1
32.519596 -23.440073 -27.690855 48.721090 -0.624549 2.175301 0.020895 0.010350 453285.000000 0 0 1
33.506896 -23.314073 -26.481615 48.657312 -0.607901 2.146288 0.025514 0.010625 -106775.000000 0 0 1
33.013296 -24.071273 -25.368985 48.092508 -0.630016 2.126456 0.031210 0.008658 584754.000000 0 0 1
32.044996 -23.452073 -24.508035 46.663962 -0.631782 2.123750 0.053597 0.010291 301229.000000 0 0 1
32.550496 -22.272673 -23.669635 45.998461 -0.600077 2.111308 0.064681 0.003709 -212542.000000 0 0 1
32.568396 -21.041873 -24.361835 45.792574 -0.573616 2.131762 0.050445 0.004849 -141530.000000 0 0 1
32.717296 -19.929773 -23.552735 44.970531 -0.547121 2.122028 0.024678 -0.004870 -207932.000000 0 0 1
32.805996 -18.595173 -24.304535 44.863396 -0.515667 2.143308 0.023135 -0.013230 -44892.800000 0 0 1
31.701296 -18.320073 -25.140355 44.414353 -0.524008 2.172492 0.039378 -0.019585 119223.000000 0 0 1
31.851296 -17.107673 -25.834715 44.436585 -0.492894 2.191225 0.035611 -0.020068 -117002.000000 0 0 1
30.974496 -17.055073 -27.117285 44.560544 -0.503317 2.225027 0.024312 -0.006191 -351378.000000 0 0 1
29.625396 -17.146973 -26.759795 43.448469 -0.524680 2.234321 0.017524 -0.001752 -579617.000000 0 0 1
28.812196 -16.754373 -27.859825 43.439861 -0.526708 2.267043 0.000854 -0.002611 -10181.100000 0 0 1
27.379396 -16.394373 -27.434785 42.084133 -0.539526 2.280888 -0.000571 -0.003300 527794.000000 0 0 1
26.545596 -17.369673 -26.741985 41.491059 -0.579416 2.271197 0.012769 0.003816 546964.000000 0 0 1
26.776796 -17.461773 -25.372975 40.812966 -0.577866 2.241694 0.023435 -0.001818 -143693.000000 0 0 1
25.919696 -18.538673 -24.648635 40.287321 -0.620878 2.229157 0.036358 -0.006454 -98310.300000 0 0 1
26.133996 -18.554873 -23.243035 39.591764 -0.617399 2.198228 0.048236 -0.000230 355180.000000 0 0 1
25.155296 -19.383273 -22.592735 38.973477 -0.656520 2.189151 0.056260 -0.012586 350945.000000 0 0 1
24.974696 -18.895373 -21.073335 37.747265 -0.647699 2.163101 0.057525 -0.026278 -231854.000000 0 0 1
24.265396 -17.686873 -20.893035 36.580785 -0.629855 2.178700 0.050338 -0.028802 59504.200000 0 0 1
24.734496 -16.487873 -21.492735 36.682188 -0.587952 2.196808 0.052324 -0.028535 441070.000000 0 0 1
26.027596 -15.860073 -20.843835 36.924831 -0.547271 2.170616 0.053007 -0.024872 672358.000000 0 0 1
25.750296 -15.091473 -19.713235 35.769288 -0.530114 2.154504 0.052241 -0.028688 307000.000000 0 0 1
26.865696 -14.249673 -19.483235 36.116690 -0.487674 2.140583 0.051753 -0.025113 51425.300000 0 0 1
26.627196 -13.201673 -18.424335 34.967812 -0.460279 2.125738 0.050234 -0.018952 -153516.000000 0 0 1
26.904696 -13.599273 -17.087635 34.652420 -0.468007 2.086463 0.056295 -0.023779 214258.000000 0 0 1
26.762996 -12.495873 -16.195135 33.685119 -0.436826 2.072341 0.041736 -0.019998 12335.900000 0 0 1
27.408596 -12.801873 -14.844035 33.696654 -0.436963 2.026974 0.053622 -0.021066 -247735.000000 0 0 1
26.725996 -13.738073 -14.093035 33.190769 -0.474812 2.009324 0.064816 -0.021958 -47523.400000 0 0 1
27.481196 -14.118773 -12.964735 33.505824 -0.474596 1.968107 0.074508 -0.025337 69037.000000 0 0 1
26.922296 -15.375373 -12.236735 33.330914 -0.518900 1.946717 0.071110 -0.030649 349308.000000 0 0 1
25.621396 -15.263573 -11.676335 32.027635 -0.537278 1.943968 0.061321 -0.030411 445825.000000 0 0 1
25.165396 -16.534973 -11.214635 32.132080 -0.581317 1.927318 0.049065 -0.030285 186271.000000 0 0 1
23.706696 -16.423173 -10.694935 30.758896 -0.605854 1.925916 0.068513 -0.030501 42343.600000 0 0 1
23.492396 -16.008373 -9.357635 29.928682 -0.598152 1.888793 0.060635 -0.023708 1612550.000000 0 0 1
22.093596 -15.865273 -8.958235 28.637106 -0.622766 1.888956 0.066640 -0.024900 1196880.000000 0 0 1
21.881196 -15.477473 -7.471135 27.823673 -0.615636 1.842650 0.066763 -0.024818 -455077.000000 0 0 1
22.139996 -14.155173 -7.081735 27.215792 -0.568851 1.834033 0.071582 -0.014755 103714.000000 0 0 1
21.888496 -13.928373 -5.703435 26.563792 -0.566707 1.787188 0.071261 -0.017083 -453860.000000 0 0 1
22.747696 -14.632073 -4.626035 27.440034 -0.571604 1.740192 0.070636 -0.020018 -497454.000000 0 0 1
24.122796 -14.408773 -4.802435 28.505884 -0.538439 1.740075 0.071569 -0.018313 -648895.000000 0 0 1
24.809096 -15.062073 -3.824135 29.274243 -0.545638 1.701802 0.064735 -0.029915 -601847.000000 0 0 1
26.334696 -14.970273 -4.045235 30.561238 -0.516907 1.703551 0.077014 -0.028079 -202454.000000 0 0 1
26.848096 -13.696773 -3.778435 30.375952 -0.471741 1.695508 0.078445 -0.023931 -1037470.000000 0 0 1
28.197796 -13.557873 -3.969135 31.538638 -0.448181 1.696981 0.081924 -0.037077 -1351330.000000 0 0 1
28.799796 -12.228573 -3.555835 31.489843 -0.401537 1.683958 0.084600 -0.027107 -712204.000000 0 0 1
28.982796 -12.145773 -2.181035 31.500464 -0.396836 1.640090 0.097889 -0.041202 415033.000000 0 0 1
29.474996 -10.888173 -1.668135 31.466020 -0.353855 1.623835 0.087403 -0.034228 696972.000000 0 0 1
31.008996 -10.614273 -1.862435 32.828179 -0.329796 1.627560 0.088740 -0.030356 542756.000000 0 0 1
31.440596 -10.278273 -3.219735 33.234330 -0.315959 1.667828 0.086485 -0.018587 698130.000000 0 0 1
32.668796 -10.813473 -3.710235 34.611375 -0.319652 1.678200 0.088899 -0.027457 327065.000000 0 0 1
32.768296 -10.713273 -5.245435 34.871909 -0.315986 1.721789 0.090956 -0.022522 -404003.000000 0 0 1
31.752996 -11.493673 -5.860335 34.273909 -0.347300 1.742626 0.060906 -0.022448 349925.000000 0 0 1
31.627896 -11.273173 -7.288935 34.358941 -0.342393 1.784561 0.052402 -0.010327 1250320.000000 0 0 1
30.265996 -11.944073 -7.803835 33.460294 -0.375874 1.806191 0.063743 -0.007355 1352490.000000 0 0 1
30.254296 -13.362273 -7.643935 33.945582 -0.415901 1.797926 0.058470 -0.012484 485528.000000 0 0 1
28.971096 -13.829073 -8.064235 33.099843 -0.445356 1.816907 0.065935 -0.019588 531930.000000 0 0 1
28.893096 -15.399973 -8.232935 33.760205 -0.489697 1.817146 0.069503 -0.030576 100102.000000 0 0 1
29.475596 -15.911073 -9.430935 34.798212 -0.494982 1.845247 0.076957 -0.035571 326554.000000 0 0 1
29.648596 -17.334873 -9.384435 35.603437 -0.529077 1.837530 0.072343 -0.036125 -89017.600000 0 0 1
30.006396 -17.927773 -10.781835 36.579186 -0.538553 1.869994 0.061549 -0.036934 -282459.000000 0 0 1
31.311096 -17.633073 -11.216035 37.644514 -0.512889 1.873337 0.068086 -0.028836 33634.300000 0 0 1
31.711696 -18.164973 -12.434835 38.603407 -0.520192 1.898762 0.070390 -0.019566 -96520.100000 0 0 1
30.979996 -17.534773 -13.655535 38.127445 -0.515047 1.937087 0.066747 -0.025093 -15664.300000 0 0 1
31.440996 -16.188173 -14.000635 38.034340 -0.475476 1.947767 0.058774 -0.020978 272969.000000 0 0 1
30.713996 -15.672373 -15.085835 37.637153 -0.471828 1.983211 0.056412 -0.026113 -549086.000000 0 0 1
31.353996 -14.460073 -15.841035 37.988224 -0.432118 2.000937 0.059944 -0.016432 1287160.000000 0 0 1
32.506696 -14.707273 -16.693035 39.390946 -0.424880 2.008409 0.044473 -0.015594 1491580.000000 0 0 1
33.765796 -14.965173 -16.089335 40.285880 -0.417189 1.981636 0.054725 -0.015315 -329125.000000 0 0 1
34.725096 -15.670673 -17.032235 41.731275 -0.423916 1.991213 0.052262 -0.011007 491192.000000 0 0 1
36.065696 -15.736173 -16.501835 42.669335 -0.411419 1.967888 0.045645 -0.007724 669969.000000 0 0 1
-35.277201 -16.292973 -17.412735 42.581043 0.432669 1.992079 0.041470 -0.012624 -487481.000000 0 0 1
-33.815801 -16.321573 -16.965335 41.203456 0.449681 1.995165 0.030899 -0.001167 -669703.000000 0 0 1
-33.485001 -17.235073 -15.885335 40.873426 0.475346 1.969959 0.029445 -0.007182 171934.000000 0 0 1
-33.861001 -16.865173 -14.535135 40.524951 0.462103 1.937640 0.038440 -0.011665 -294872.000000 0 0 1
-33.090601 -17.704573 -13.510135 39.886885 0.491280 1.916343 0.040864 -0.019890 678719.000000 0 0 1
-31.723701 -17.321973 -13.253835 38.498158 0.499787 1.922260 0.040482 -0.019561 981963.000000 0 0 1
-31.231601 -17.912773 -12.034335 37.961897 0.520741 1.893372 0.038689 -0.012895 638308.000000 0 0 1
-29.691601 -17.794373 -11.790835 36.568493 0.539910 1.899093 0.060335 -0.016289 551135.000000 0 0 1
-29.275701 -16.427873 -11.782135 35.577527 0.511359 1.908337 0.051129 -0.024447 -89855.100000 0 0 1
-28.045601 -16.314473 -11.100435 34.291945 0.526864 1.900438 0.048211 -0.022406 89298.300000 0 0 1
-28.253401 -15.990073 -9.590335 33.851317 0.515008 1.858038 0.056798 -0.023650 -46111.100000 0 0 1
-28.371201 -17.203373 -8.930335 34.360326 0.545088 1.833718 0.060746 -0.019652 -152043.000000 0 0 1
-28.817601 -17.051473 -7.619735 34.340461 0.534297 1.794547 0.062337 -0.019829 2961.790000 0 0 1
-29.381001 -18.345673 -6.927435 35.324161 0.558172 1.768186 0.046759 -0.020600 1043770.000000 0 0 1
-30.544801 -18.971873 -7.521735 36.735451 0.555802 1.777009 0.044779 -0.022773 815062.000000 0 0 1
-30.240801 -19.726773 -8.683735 37.135682 0.578007 1.806820 0.038925 -0.022862 58738.000000 0 0 1
-31.504201 -20.457673 -9.178935 38.668902 0.575928 1.810457 0.040481 -0.028552 -398548.000000 0 0 1
-32.512701 -19.684373 -9.713035 39.228731 0.544407 1.820999 0.040646 -0.027988 -252197.000000 0 0 1
-33.698001 -20.474673 -9.730835 40.613504 0.545984 1.812746 0.042373 -0.031842 180335.000000 0 0 1
-35.001301 -19.767073 -10.114035 41.450235 0.514099 1.817289 0.043409 -0.039043 -382534.000000 0 0 1
-35.071501 -19.522673 -11.527035 41.761436 0.507937 1.850448 0.042256 -0.037520 -403057.000000 0 0 1
35.962596 -18.897973 -11.859535 42.321275 -0.483831 1.854826 0.059325 -0.041287 -421115.000000 0 0 1
35.532496 -19.087173 -13.342235 42.484041 -0.492944 1.890255 0.048849 -0.035183 -370575.000000 0 0 1
34.874396 -20.246773 -13.729535 42.598773 -0.526005 1.898953 0.025929 -0.027163 -212174.000000 0 0 1
34.481296 -20.168973 -15.043135 42.685398 -0.529261 1.930951 0.020754 -0.023210 182224.000000 0 0 1
33.163196 -20.953773 -15.289935 42.102735 -0.563502 1.942451 0.037210 -0.035123 660327.000000 0 0 1
31.976396 -20.404573 -14.680635 40.673795 -0.567974 1.940068 0.058605 -0.033984 313126.000000 0 0 1
30.797596 -21.074073 -15.025235 40.228922 -0.600095 1.953568 0.072478 -0.035176 -118064.000000 0 0 1
30.144796 -20.479373 -16.320735 39.930939 -0.596744 1.991852 0.075629 -0.040326 -302122.000000 0 0 1
29.484396 -19.174673 -16.180835 38.714560 -0.576609 2.001986 0.054350 -0.034078 482904.000000 0 0 1
28.711896 -19.005973 -17.351735 38.557525 -0.584733 2.037586 0.051101 -0.037643 114795.000000 0 0 1
27.787696 -17.747173 -17.246335 37.209600 -0.568369 2.052728 0.052914 -0.032220 320966.000000 0 0 1
26.755696 -17.780873 -16.267035 36.008932 -0.586546 2.039522 0.055144 -0.037789 318449.000000 0 0 1
26.147096 -16.504573 -16.185635 34.900521 -0.563060 2.053036 0.047968 -0.025696 -1248290.000000 0 0 1
24.798396 -16.416973 -15.442935 33.510621 -0.584777 2.049734 0.045484 -0.027079 983102.000000 0 0 1
23.663796 -16.880573 -16.240235 33.296760 -0.619630 2.080298 0.054568 -0.027154 1016060.000000 0 0 1
23.349596 -16.045173 -17.327535 33.209859 -0.602064 2.119708 0.052414 -0.028593 -1034840.000000 0 0 1
22.256996 -16.790073 -18.117635 33.249498 -0.646294 2.147066 0.037894 -0.021863 133946.000000 0 0 1
20.974196 -16.980373 -17.565335 32.199239 -0.680558 2.147806 0.036998 -0.007602 -314562.000000 0 0 1
20.145696 -17.576173 -18.520035 32.523263 -0.717386 2.176620 0.030958 -0.008296 661678.000000 0 0 1
18.659596 -17.822373 -18.094235 31.515375 -0.762453 2.182350 0.039451 -0.005895 807287.000000 0 0 1
17.857196 -16.638073 -17.979335 30.314377 -0.750071 2.205695 0.045028 -0.003053 942544.000000 0 0 1
16.476996 -17.071473 -17.948235 29.750055 -0.803116 2.218430 0.048323 -0.006465 1242710.000000 0 0 1
15.479496 -15.878073 -17.703635 28.375107 -0.798108 2.244538 0.048317 -0.003021 297891.000000 0 0 1
15.120196 -15.129773 -18.839735 28.503789 -0.785715 2.292888 0.043266 -0.000363 469041.000000 0 0 1
13.913196 -14.404173 -18.623535 27.347638 -0.802735 2.319913 0.043333 -0.005805 859941.000000 0 0 1
13.065996 -13.861173 -19.824235 27.492775 -0.814920 2.376143 0.032022 -0.004172 399825.000000 0 0 1
13.570996 -12.641773 -20.315835 27.508535 -0.749964 2.401681 0.040515 -0.005938 -356806.000000 0 0 1
12.666196 -12.023873 -21.163935 27.439355 -0.759389 2.451675 0.046015 -0.008582 -612379.000000 0 0 1
13.134296 -10.656473 -21.675935 27.493932 -0.681622 2.478983 0.049587 -0.002393 -261359.000000 0 0 1
14.269396 -10.678273 -22.500635 28.704003 -0.642434 2.471695 0.055851 -0.003004 -264946.000000 0 0 1
14.534696 -9.413273 -23.042435 28.823964 -0.574715 2.497124 0.067108 -0.007243 396408.000000 0 0 1
15.781596 -9.403473 -23.997135 30.221624 -0.537363 2.488221 0.066515 -0.005678 574484.000000 0 0 1
15.589096 -9.920773 -25.277065 31.310888 -0.566749 2.510347 0.079767 -0.005488 445068.000000 0 0 1
16.791696 -9.726073 -26.020695 32.459731 -0.524999 2.500813 0.083555 -0.008188 248537.000000 0 0 1
21.760596 4.903827 -6.787035 23.315980 0.221651 1.866162 0.053010 0.009266 -329368.000000 0 1 0
21.551596 6.224227 -7.119335 23.535021 0.281156 1.878110 0.053111 0.000638 828929.000000 0 1 0
21.475796 7.107527 -5.994735 23.402214 0.319609 1.829845 0.062835 0.000993 -497142.000000 0 1 0
21.458496 8.624827 -6.312735 23.973012 0.382170 1.837265 0.069180 0.000058 562094.000000 0 1 0
20.262696 8.895627 -7.099135 23.240197 0.413681 1.881226 0.041379 -0.004409 1696520.000000 0 1 0
19.971496 10.327927 -7.242335 23.621561 0.477260 1.882414 0.047316 0.002597 26113.400000 0 1 0
19.634296 11.226327 -6.050035 23.412367 0.519404 1.832174 0.068131 0.002876 -738988.000000 0 1 0
20.727996 11.455427 -5.219835 24.251254 0.504879 1.787734 0.074930 0.003317 -201841.000000 0 1 0
20.448296 12.408227 -4.268735 24.296481 0.545412 1.747407 0.094813 -0.005556 -325617.000000 0 1 0
21.494696 12.512327 -3.188435 25.074816 0.527163 1.698298 0.076497 -0.017572 131173.000000 0 0 1
22.822996 12.946127 -3.562235 26.479820 0.515983 1.705732 0.079140 -0.021712 1484610.000000 0 0 1
23.636796 13.196727 -2.434735 27.180502 0.509203 1.660493 0.081307 -0.027851 -404595.000000 0 0 1
24.315096 12.021427 -1.746335 27.180660 0.459159 1.635090 0.064328 -0.023760 -718032.000000 0 0 1
25.388896 11.547827 -2.561835 28.009130 0.426870 1.662389 0.048662 -0.016832 767245.000000 0 0 1
26.219096 10.655927 -1.779235 28.357635 0.386027 1.633580 0.072225 -0.020218 602163.000000 0 0 1
27.640796 10.407927 -2.359735 29.629494 0.360122 1.650522 0.054781 -0.010958 293653.000000 0 0 1
28.519596 11.489627 -2.145935 30.821809 0.382976 1.640477 0.040347 -0.017807 925086.000000 0 0 1
29.895696 11.167127 -2.416235 32.004618 0.357487 1.646365 0.043439 -0.012005 696462.000000 0 0 1
30.800696 12.335027 -2.035035 33.241197 0.380919 1.632055 0.022843 -0.005282 -925778.000000 0 0 1
30.660996 12.588027 -0.625035 33.150351 0.389572 1.589652 0.039796 -0.009182 288803.000000 0 0 1
31.461096 13.635427 -0.163735 34.289244 0.408969 1.575571 0.034800 -0.009181 740379.000000 0 0 1
33.021096 13.376727 -0.111635 35.627827 0.384892 1.573930 0.042338 -0.009334 744501.000000 0 0 1
33.861896 14.468427 0.218665 36.824057 0.403798 1.564858 0.048794 -0.009499 235356.000000 0 0 1
34.468996 15.138127 -0.885335 37.657116 0.413820 1.594309 0.045864 0.001143 -163788.000000 0 0 1
33.637896 16.197727 -1.693235 37.373004 0.448764 1.616118 0.013829 0.021339 313428.000000 0 0 1
32.628596 15.593827 -2.506135 36.250151 0.445827 1.639986 0.016117 0.020148 13359.200000 0 0 1
32.000596 16.536527 -3.328935 36.174255 0.476963 1.662952 0.011051 0.035965 487917.000000 0 0 1
30.618296 16.089727 -3.916435 34.809450 0.483834 1.683546 0.018822 0.018536 -11697.500000 0 0 1
30.746996 14.929027 -4.762735 34.509959 0.452016 1.709249 0.010557 0.015420 227073.000000 0 0 1
29.668396 14.644327 -5.634935 33.562219 0.458515 1.739490 0.012113 0.001067 531505.000000 0 0 1
28.342796 14.081027 -4.997935 32.040112 0.461094 1.727426 0.025026 -0.011206 -234655.000000 0 0 1
27.449196 13.709327 -5.992235 31.261972 0.463202 1.763668 0.034800 -0.019975 -639644.000000 0 0 1
26.353696 13.129027 -5.341835 29.923634 0.462195 1.750274 0.050636 -0.009183 -434567.000000 0 0 1
25.238996 12.680227 -6.328435 28.945538 0.465571 1.791209 0.054641 -0.008877 -435539.000000 0 0 1
25.612996 11.676527 -7.240535 29.065309 0.427735 1.822560 0.052492 -0.004021 867474.000000 0 0 1
24.613096 11.349627 -8.256935 28.333646 0.432064 1.866505 0.061746 -0.004014 560497.000000 0 0 1
24.363896 12.552927 -9.190935 28.907589 0.475755 1.894354 0.072592 -0.002615 -222558.000000 0 0 1
23.611296 13.621827 -8.674935 28.605978 0.523276 1.878904 0.073884 -0.011760 29316.900000 0 0 1
23.608296 14.709327 -9.559035 29.412431 0.557201 1.901808 0.060129 -0.014406 -752927.000000 0 0 1
22.902796 15.908027 -8.892335 29.269045 0.607085 1.879489 0.047375 -0.007258 80635.500000 0 0 1
21.514896 15.777527 -8.695335 28.061183 0.632747 1.885853 0.063037 -0.006470 186282.000000 0 0 1
21.120796 14.883527 -7.630535 26.941278 0.613864 1.857955 0.072582 -0.007495 -326029.000000 0 0 1
19.627296 14.459127 -7.858435 25.613514 0.634925 1.882634 0.086036 -0.012483 320332.000000 0 0 1
18.754496 15.484627 -7.451035 25.436641 0.690186 1.868081 0.105242 -0.022333 156713.000000 0 0 1
17.413596 15.008927 -7.546335 24.196041 0.711367 1.887971 0.104925 -0.027189 268188.000000 0 1 0
16.555896 15.304027 -6.318035 23.414280 0.746125 1.844020 0.107031 -0.014542 -275549.000000 0 1 0
16.735596 14.348727 -5.283835 22.669033 0.708762 1.806046 0.095995 -0.021269 194716.000000 0 1 0
16.218596 14.816727 -4.111435 22.349097 0.740259 1.755814 0.087439 -0.013830 -263984.000000 0 1 0
15.875796 13.693027 -3.114535 21.195288 0.711712 1.718275 0.070529 -0.005220 -295682.000000 0 1 0
17.032196 13.024527 -2.665835 21.606496 0.652843 1.694493 0.069240 -0.004889 377240.000000 0 1 0
16.846896 12.238027 -1.515135 20.877808 0.628242 1.643432 0.060127 -0.005670 -73027.500000 0 1 0
16.983096 12.998427 -0.204135 21.387527 0.653268 1.580341 0.072125 -0.007856 -169932.000000 0 1 0
15.895296 13.888027 -0.008935 21.107767 0.718104 1.571220 0.064762 -0.015028 403575.000000 0 1 0
16.061696 14.781827 1.073665 21.854822 0.743926 1.521649 0.061547 -0.009140 -945354.000000 0 1 0
14.857296 15.631427 1.394565 21.610774 0.810783 1.506220 0.058260 -0.010545 -770453.000000 0 1 0
14.579296 16.749227 0.576365 22.213164 0.854551 1.544846 0.062364 -0.011858 350919.000000 0 1 0
13.395296 17.386127 1.012465 21.971264 0.914330 1.524699 0.041530 -0.020680 22946.800000 0 1 0
13.162596 18.880327 0.574265 23.022825 0.961979 1.545850 0.026283 -0.020263 -353055.000000 0 1 0
13.081196 19.071427 -0.812735 23.140820 0.969593 1.605925 0.044595 -0.021167 192398.000000 0 1 0
12.515996 20.310227 -1.217735 23.888038 1.018520 1.621795 0.032728 -0.020901 1149560.000000 0 1 0
10.946596 20.475327 -1.104935 23.244093 1.079835 1.618350 0.027731 -0.020066 1128540.000000 0 1 0
10.478196 20.653727 0.261065 23.161114 1.101304 1.559524 0.022576 -0.021228 -280069.000000 0 1 0
9.112896 20.361927 0.405365 22.311819 1.149985 1.552627 0.016653 -0.023657 133522.000000 0 1 0
8.467896 20.591327 1.784865 22.335930 1.180641 1.490801 0.006179 -0.012254 138680.000000 0 1 0
8.317896 21.899427 2.353865 23.543852 1.207804 1.470651 0.003407 0.002008 478679.000000 0 1 0
7.359796 22.002327 3.419565 23.451277 1.247995 1.424459 -0.001754 0.006754 365430.000000 0 1 0
7.177596 23.426527 4.045865 24.833225 1.273490 1.407145 -0.000803 0.012890 -35630.300000 0 1 0
7.794396 23.747627 5.284165 25.546522 1.253657 1.362447 -0.006933 0.003562 106776.000000 0 0 1
7.341296 24.982527 5.774865 26.671527 1.284985 1.352550 -0.014631 0.002500 -86011.600000 0 0 1
7.795396 25.219827 7.262665 27.377987 1.271014 1.302308 -0.019757 -0.000691 50780.000000 0 0 1
7.435796 24.103627 8.032865 26.472680 1.271566 1.262496 -0.002734 -0.015000 187348.000000 0 0 1
8.082096 24.198727 9.272265 27.145415 1.248456 1.222201 -0.001770 -0.026178 -232171.000000 0 0 1
7.511896 23.122327 10.192965 26.362229 1.256676 1.173800 0.007259 -0.026996 -359349.000000 0 0 1
6.331896 23.466527 10.859665 26.621478 1.307246 1.150612 0.005289 -0.028378 -115441.000000 0 0 1
5.633896 22.311827 11.316565 25.644162 1.323459 1.113758 0.011343 -0.023044 -668483.000000 0 0 1
4.333496 22.626027 12.022865 25.985872 1.381561 1.089793 0.020717 -0.032371 -934217.000000 0 0 1
3.335796 22.899427 11.092765 25.662438 1.426142 1.123802 0.013901 -0.029114 666844.000000 0 0 1
2.051396 23.176627 11.730565 26.057061 1.482515 1.103821 0.027075 -0.032132 1322990.000000 0 0 1
0.931596 23.445927 10.694065 25.786477 1.531083 1.143166 0.036132 -0.024242 -331965.000000 0 0 1
1.075996 24.647927 9.958265 26.605359 1.527169 1.187159 0.032415 -0.021015 955148.000000 0 0 1
-0.025404 24.852227 9.013465 26.436270 -1.569774 1.222868 0.035268 -0.018025 1087730.000000 0 0 1
-1.233204 25.565427 9.653865 27.355236 -1.522597 1.210120 0.047916 -0.030367 -576639.000000 0 0 1
-2.112004 24.722427 10.328765 26.876427 -1.485575 1.176341 0.051335 -0.030572 -557393.000000 0 0 1
-3.385704 25.308327 10.245265 27.512540 -1.437808 1.189218 0.055773 -0.030201 -341195.000000 0 0 1
-4.597704 24.428927 10.690865 27.059304 -1.384765 1.164630 0.051199 -0.030785 426554.000000 0 0 1
-5.041204 24.549327 12.049765 27.807913 -1.368262 1.122621 0.053096 -0.021867 420469.000000 0 0 1
-5.864504 25.728427 12.201365 29.072627 -1.346687 1.137697 0.042188 -0.015659 -106795.000000 0 0 1
-6.367204 25.908027 13.645265 29.965987 -1.329811 1.098022 0.046348 -0.012277 -412976.000000 0 0 1
-7.396604 25.077927 14.053565 29.683579 -1.283984 1.077598 0.032088 -0.013053 -415932.000000 0 0 1
-7.728904 25.371927 15.416765 30.678124 -1.275103 1.044270 0.024544 0.003591 -45765.700000 0 0 1
-8.924104 24.563727 15.983565 30.634795 -1.222319 1.021901 0.020298 -0.009319 54954.100000 0 0 1
-10.136704 25.110827 15.514165 31.208904 -1.187123 1.050535 0.018420 -0.003257 -858990.000000 0 0 1
-11.163104 24.187927 15.678865 30.911122 -1.138407 1.038836 0.010935 -0.002521 -593647.000000 0 0 1
-12.549404 24.793327 15.411665 31.776029 -1.102232 1.064423 0.003535 -0.001735 -339811.000000 0 0 1
-12.958704 25.624427 16.480965 33.108329 -1.102586 1.049749 0.007975 -0.006717 -337341.000000 0 0 1
-13.947804 26.498727 16.050865 33.975786 -1.086286 1.078761 0.007985 -0.002592 -432240.000000 0 0 1
-14.674804 27.461527 17.054065 35.501077 -1.080027 1.069707 0.026174 0.004081 365266.000000 0 0 1
-15.541904 26.768027 17.956365 35.784201 -1.044753 1.045123 0.030049 -0.004016 149564.000000 0 0 1
-16.043604 27.632127 18.968165 37.158080 -1.044753 1.035063 0.044886 -0.013198 488248.000000 0 0 1
-17.310104 27.015427 19.700165 37.650624 -1.000952 1.020152 0.029045 -0.023606 1697300.000000 0 0 1
-18.453904 27.013327 18.798165 37.731120 -0.971475 1.049259 0.029587 -0.014268 161388.000000 0 0 1
-19.566404 26.379327 19.345865 38.117916 -0.932607 1.038484 0.037249 -0.030557 -111187.000000 0 0 1
-20.739904 26.331927 18.329965 38.203424 -0.903642 1.070371 0.037207 -0.029963 336378.000000 0 0 1
-21.562804 27.522927 18.233265 39.432448 -0.906229 1.090105 0.032831 -0.027899 591104.000000 0 0 1
-21.954204 27.680627 16.873465 39.152496 -0.900261 1.125231 0.031579 -0.027688 100017.000000 0 0 1
-23.005804 28.820527 16.684365 40.475397 -0.897127 1.145918 0.017887 -0.021978 623463.000000 0 0 1
-24.321804 28.529827 17.148765 41.225978 -0.864850 1.141787 0.023264 -0.034960 332509.000000 0 0 1
-25.106004 29.695927 17.075165 42.470234 -0.868958 1.157041 0.026590 -0.022767 447676.000000 0 0 1
-26.480274 29.551027 17.812965 43.494480 -0.840148 1.148841 0.039618 -0.018329 357494.000000 0 0 1
-27.370234 28.612827 17.263665 43.195575 -0.807590 1.159647 0.048533 -0.014766 600945.000000 0 0 1
-28.655804 28.627127 17.918865 44.291683 -0.784898 1.154293 0.066637 -0.019440 855825.000000 0 0 1
-28.922594 27.394227 18.806865 44.052903 -0.758266 1.129717 0.069680 -0.023330 -414069.000000 0 0 1
-29.201444 26.212327 18.057365 43.195819 -0.731509 1.139515 0.059376 -0.027381 -30400.400000 0 0 1
-29.710694 25.229427 18.884565 43.311385 -0.704012 1.119627 0.047290 -0.011500 -135263.000000 0 0 1
-29.843994 23.861827 18.194465 42.321263 -0.674468 1.126400 0.056705 -0.013787 -165094.000000 0 0 1
-30.855344 23.819727 17.209965 42.610028 -0.657421 1.155026 0.068628 -0.016570 -129460.000000 0 0 1
-30.636664 22.942327 16.157365 41.545348 -0.642766 1.171349 0.057458 -0.023404 -273937.000000 0 0 1
-31.091294 21.520527 16.460365 41.240093 -0.605453 1.160223 0.051815 -0.024045 586873.000000 0 0 1
-32.473874 21.261027 16.201565 42.060367 -0.579680 1.175374 0.045904 -0.021481 536326.000000 0 0 1
-32.714234 19.836227 16.078665 41.499644 -0.545074 1.172942 0.032895 -0.005663 16502.100000 0 0 1
-34.133607 19.499927 15.586965 42.288340 -0.519036 1.193307 0.032745 -0.011670 -225277.000000 0 0 1
-34.278127 19.829227 14.236365 42.081615 -0.524446 1.225683 0.036544 -0.014610 10404.500000 0 0 1
-35.636272 19.820327 13.853365 43.066285 -0.507579 1.243298 0.047562 -0.006271 156894.000000 0 0 1
-35.845865 20.257227 12.408465 43.002921 -0.514378 1.278085 0.053144 -0.007429 10847.100000 0 0 1
-35.399891 21.603427 12.144565 43.212854 -0.547935 1.285918 0.050382 -0.012286 113260.000000 0 0 1
-35.233835 21.956327 10.773965 42.890345 -0.557275 1.316879 0.037527 -0.014293 112890.000000 0 0 1
-33.996884 21.488227 9.984965 41.439492 -0.563663 1.327449 0.066313 -0.021957 -238938.000000 0 0 1
-34.262050 20.172127 9.525165 40.884368 -0.532114 1.335657 0.067364 -0.014878 2752.230000 0 0 1
-33.108844 19.658227 8.915465 39.523751 -0.535808 1.343266 0.095233 -0.019717 -75511.300000 0 0 1
-32.313564 18.707727 9.829265 38.610360 -0.524793 1.313387 0.079775 -0.023576 -138082.000000 0 0 1
-31.702034 19.270727 10.976565 38.689337 -0.546186 1.283135 0.081408 -0.024843 71912.300000 0 0 1
-31.322194 18.234227 11.872265 38.138137 -0.527191 1.254239 0.068901 -0.028898 -51675.000000 0 0 1
-30.667744 18.673227 13.181165 38.248438 -0.546929 1.218963 0.046069 -0.010411 28437.400000 0 0 1
-29.491504 19.432127 12.995965 37.633116 -0.582611 1.218203 0.052471 -0.013810 -104766.000000 0 0 1
-29.710344 20.850127 12.974465 38.545675 -0.611920 1.227493 0.041527 -0.010586 1305740.000000 0 0 1
-28.330334 21.579927 13.326665 38.025006 -0.650963 1.212722 0.066948 -0.021468 1174200.000000 0 0 1
-28.022644 21.380227 14.665665 38.176752 -0.651746 1.176507 0.068068 -0.017738 820326.000000 0 0 1
-26.947484 22.257927 15.152265 38.094269 -0.690379 1.161725 0.075285 -0.032675 791809.000000 0 0 1
-26.530934 21.803727 16.573565 38.131037 -0.687907 1.121149 0.078800 -0.031729 -793967.000000 0 0 1
-25.737324 20.698927 16.677265 36.999818 -0.677320 1.103203 0.094912 -0.029219 -401914.000000 0 0 1
-25.414204 20.336027 18.009165 37.199002 -0.674853 1.065427 0.083132 -0.020623 -947514.000000 0 0 1
-24.220804 19.425527 18.162465 35.970454 -0.675970 1.041499 0.085688 -0.018425 -692679.000000 0 0 1
-23.762204 19.460827 19.507865 36.385751 -0.686209 1.004938 0.082210 -0.020735 -260755.000000 0 0 1
-22.818304 18.452427 19.659665 35.322365 -0.680004 0.980535 0.075738 -0.019303 -322534.000000 0 0 1
-22.191804 18.302127 21.058865 35.649962 -0.689636 0.938855 0.081434 -0.020922 119311.000000 0 0 1
-23.002804 17.571227 21.952665 36.329003 -0.652321 0.921942 0.107627 -0.019155 182786.000000 0 0 1
-22.718404 17.969927 23.253465 37.145225 -0.669220 0.894364 0.111566 -0.023624 633360.000000 0 0 1
-23.581804 17.101727 24.272965 37.917639 -0.627445 0.876103 0.095360 -0.006258 710471.000000 0 0 1
-22.855404 15.942627 24.683365 37.226406 -0.609075 0.845896 0.105302 -0.025757 -178469.000000 0 0 1
-23.587204 15.136327 25.500665 37.891272 -0.570531 0.832545 0.094695 -0.031626 -250990.000000 0 0 1
20.703396 24.923227 33.903493 46.896105 0.877622 0.762735 0.050455 -0.011034 -164288.000000 0 0 1
21.582696 23.931827 33.475035 46.466365 0.836965 0.766397 0.066485 -0.020856 17462.500000 0 0 1
21.138196 22.611727 33.849961 45.868654 0.819066 0.740730 0.060587 -0.017578 69222.400000 0 0 1
19.955096 21.981727 33.108359 44.469828 0.833686 0.730991 0.057531 -0.015806 -7025.290000 0 0 1
20.444296 21.261827 31.963165 43.493430 0.804998 0.745282 0.074565 -0.013217 130374.000000 0 0 1
19.589496 20.216927 31.619335 42.335031 0.801159 0.727433 0.060185 -0.009469 -375000.000000 0 0 1
19.809696 19.556727 30.253435 41.111555 0.778972 0.743821 0.059535 0.004453 443504.000000 0 0 1
21.145896 19.068127 30.082015 41.420647 0.733776 0.757936 0.062304 0.001423 420610.000000 0 0 1
21.343596 18.247027 28.979815 40.352605 0.707342 0.769635 0.057991 0.000427 -94899.800000 0 0 1
22.587796 17.351127 29.100825 40.720120 0.655025 0.774666 0.059144 0.000218 -386948.000000 0 0 1
23.832596 17.996327 29.049665 41.662255 0.646766 0.799220 0.072711 -0.004472 -297186.000000 0 0 1
24.835996 17.087527 29.467565 42.156229 0.602637 0.796786 0.061710 0.005233 1184320.000000 0 0 1
26.296296 17.716027 29.485985 43.298685 0.592862 0.821682 0.048733 -0.006545 1184240.000000 0 0 1
27.024296 17.694127 28.243855 42.908158 0.579706 0.852318 0.043817 -0.006210 -58641.000000 0 0 1
28.335196 18.111327 28.535105 44.103920 0.568732 0.867157 0.044309 -0.010225 538554.000000 0 0 1
29.367796 17.830027 27.355335 43.916872 0.545645 0.898366 0.041240 -0.001698 492292.000000 0 0 1
29.558396 18.899727 26.438665 43.930644 0.568890 0.925009 0.048911 -0.009005 566969.000000 0 0 1
30.431696 18.636327 25.315845 43.752632 0.549486 0.953769 0.046912 -0.005597 128661.000000 0 0 1
30.969296 19.830827 24.566475 44.225227 0.569553 0.981850 0.053795 -0.010495 123658.000000 0 0 1
29.983096 20.486527 23.758605 43.395336 0.599409 0.991432 0.060456 -0.016047 305588.000000 0 0 1
30.486196 21.429927 22.865245 43.720354 0.612696 1.020443 0.056581 -0.025640 -154604.000000 0 0 1
31.112996 20.825727 21.574645 43.211049 0.589863 1.048023 0.051989 -0.011165 53019.500000 0 0 1
30.193596 20.043027 20.843245 41.806902 0.586027 1.048860 0.060851 -0.009541 126809.000000 0 0 1
30.719996 19.579927 19.609945 41.371991 0.567443 1.076979 0.058663 -0.006897 203541.000000 0 0 1
31.786996 18.445127 19.730645 41.712518 0.525788 1.078087 0.052335 -0.005287 121108.000000 0 0 1
31.280396 17.197327 20.111845 40.971912 0.502674 1.057709 0.063601 -0.002337 -286365.000000 0 0 1
32.278196 16.220827 20.183345 41.380727 0.465671 1.061289 0.043422 0.003454 -698420.000000 0 0 1
31.808996 14.753927 20.554845 40.644708 0.434294 1.040580 0.043432 0.002134 315536.000000 0 0 1
31.243396 14.582127 21.909645 40.851203 0.436676 1.004716 0.035261 0.001866 1217200.000000 0 0 1
29.924796 15.120327 22.057645 40.132997 0.467861 0.988895 0.030553 0.003678 -10390.700000 0 0 1
29.035496 14.599027 23.157945 39.905915 0.465885 0.951683 0.015466 0.001167 -119132.000000 0 0 1
28.699096 13.239427 22.953045 39.061014 0.432227 0.942682 0.022518 -0.003884 536007.000000 0 0 1
27.856896 12.697727 24.015865 38.910162 0.427683 0.905601 0.014757 0.006706 270810.000000 0 0 1
27.411896 11.291727 23.821455 38.031262 0.390747 0.893915 0.016576 0.007454 -88765.200000 0 0 1
26.350796 11.152027 22.880345 36.636626 0.400357 0.896278 0.025833 0.001749 330348.000000 0 0 1
26.086396 9.741627 22.787645 35.981608 0.357400 0.884969 0.014583 0.008601 757123.000000 0 0 1
24.819796 9.447627 21.879745 34.409347 0.363714 0.881666 0.013851 -0.004361 13326.800000 0 0 1
23.579096 9.646227 22.436345 33.947210 0.388327 0.848754 0.017788 -0.003198 -753056.000000 0 0 1
22.514496 9.387727 21.566045 32.559580 0.395044 0.846837 0.020605 0.000367 115455.000000 0 0 1
21.123296 9.497827 22.247045 32.114380 0.422552 0.805509 0.023633 -0.007588 103361.000000 0 0 1
20.857796 8.533527 23.262445 32.388425 0.388351 0.769536 0.030701 -0.006383 83970.500000 0 0 1
19.487296 8.647827 23.560565 31.774830 0.417659 0.735515 0.055024 -0.012060 -163397.000000 0 0 1
18.911996 7.882827 24.750625 32.130920 0.394919 0.691476 0.051449 -0.008128 -225441.000000 0 0 1
18.810296 6.501927 24.577245 31.625042 0.332801 0.680680 0.052488 -0.007537 6645.040000 0 0 1
18.458696 5.865027 25.786045 32.249684 0.307650 0.644209 0.050121 -0.014012 -174659.000000 0 0 1
18.735396 4.352927 25.861075 32.229773 0.228287 0.639495 0.050749 -0.017401 -26608.100000 0 0 1
20.111596 4.054027 25.874605 33.021306 0.198911 0.670400 0.060525 -0.011820 -349920.000000 0 0 1
20.354096 2.717427 25.709035 32.903315 0.132723 0.673969 0.061982 -0.009954 -195816.000000 0 0 1
21.764896 2.350227 25.207155 33.386149 0.107566 0.715114 0.062658 -0.009646 237232.000000 0 0 1
22.717696 2.784927 26.182765 34.776238 0.121980 0.718350 0.064259 -0.015720 -760886.000000 0 0 1
24.027496 2.498027 25.844445 35.376490 0.103593 0.751663 0.065306 -0.020874 -443670.000000 0 0 1
25.002896 3.051527 26.928045 36.872432 0.121446 0.752031 0.041484 -0.021348 -390617.000000 0 0 1
24.915196 2.255727 28.052895 37.587501 0.090290 0.728257 0.057189 -0.028190 81365.800000 0 0 1
25.678896 2.659327 29.170715 38.953926 0.103193 0.724469 0.055113 -0.024681 191723.000000 0 0 1
27.217396 2.468727 29.113605 39.930981 0.090456 0.753793 0.042879 -0.016767 -392100.000000 0 0 1
27.809996 3.530727 28.375805 39.887946 0.126283 0.779325 0.036108 0.000004 3911.860000 0 0 1
29.172196 3.337927 28.041045 40.601219 0.113926 0.808415 0.037461 0.002795 307867.000000 0 0 1
29.416696 2.308927 26.858555 39.900566 0.078330 0.832353 0.048263 0.000814 -442392.000000 0 0 1
29.093396 2.789127 25.594985 38.849816 0.095576 0.851549 0.042060 0.007609 -62085.800000 0 0 1
29.408396 1.808427 24.661475 38.422813 0.061416 0.873895 0.055194 0.007868 -349534.000000 0 0 1
29.004996 2.237427 23.247545 37.239015 0.076987 0.896588 0.054972 0.002261 -162085.000000 0 0 1
29.635296 3.299227 22.573145 37.398965 0.110871 0.922817 0.048148 0.002707 699390.000000 0 0 1
31.000396 3.010427 22.151145 38.219896 0.096806 0.952594 0.031349 0.002636 1430170.000000 0 0 1
31.666796 4.289927 21.497345 38.513962 0.134651 0.978618 0.032401 0.000030 -451107.000000 0 0 1
31.300796 4.598227 20.176945 37.523228 0.145861 1.003067 0.031849 -0.009308 -159815.000000 0 0 1
31.699696 5.927927 19.838845 37.862790 0.184867 1.019295 0.041817 -0.000697 989344.000000 0 0 1
33.247996 6.174327 19.568745 39.070287 0.183614 1.046204 0.030990 -0.001810 1448940.000000 0 0 1
34.085596 5.972627 20.736945 40.342546 0.173463 1.030930 0.028790 -0.006618 290912.000000 0 0 1
34.059896 7.084027 21.663145 40.982336 0.205064 1.013849 0.039130 -0.007895 -774873.000000 0 0 1
34.930096 6.825227 22.858845 42.299198 0.192965 0.999874 0.042565 -0.006236 -127991.000000 0 0 1
34.432396 5.703027 23.553875 42.105813 0.164140 0.977138 0.033328 -0.000393 104261.000000 0 0 1
35.192296 5.591827 24.692875 43.353250 0.157576 0.964809 0.040286 0.000324 -139576.000000 0 0 1
34.384396 4.686827 25.612435 43.130614 0.135472 0.934980 0.038864 0.004207 120291.000000 0 0 1
34.341896 3.355127 25.187005 42.720112 0.097389 0.940255 0.037859 0.001141 157393.000000 0 0 1
33.457496 2.572127 25.983615 42.440171 0.076727 0.911904 0.043004 -0.000007 205291.000000 0 0 1
33.463896 1.025227 25.636915 42.167936 0.030627 0.917293 0.026945 0.003116 -403418.000000 0 0 1
32.749496 0.731127 24.504475 40.908842 0.022321 0.928542 0.035427 0.001231 -433935.000000 0 0 1
32.888596 -0.583673 24.055505 40.751292 -0.017745 0.939365 0.030480 -0.000652 -1099140.000000 0 0 1
31.856396 -1.029373 23.103545 39.365764 -0.032302 0.943579 0.035446 0.000191 -1127360.000000 0 0 1
30.608796 -1.224873 23.724405 38.745917 -0.039996 0.911821 0.049252 0.006536 -483902.000000 0 0 1
29.771896 -1.952373 22.846745 37.578602 -0.065484 0.917292 0.057704 -0.004056 456441.000000 0 0 1
28.253696 -2.004673 23.176045 36.598076 -0.070834 0.885040 0.055512 0.009757 259140.000000 0 0 1
27.680496 -0.714773 22.960045 35.970605 -0.025817 0.878508 0.053564 0.006551 -330843.000000 0 0 1
26.311796 -0.730973 23.292145 35.147816 -0.027774 0.846390 0.065837 0.000237 267377.000000 0 0 1
25.599596 0.632527 22.945445 34.383613 0.024703 0.840169 0.071548 0.006905 163051.000000 0 0 1
25.755196 1.102227 21.624545 33.647674 0.042770 0.872811 0.061510 -0.005427 98397.300000 0 0 1
24.882096 2.211427 21.486245 32.949474 0.088643 0.860450 0.053280 -0.002943 75163.500000 0 0 1
24.969296 3.208127 20.259345 32.314067 0.127783 0.893163 0.047520 -0.010904 -220845.000000 0 0 1
24.389896 2.707327 19.085645 31.087916 0.110549 0.909773 0.061510 -0.011221 99546.900000 0 0 1
24.063796 3.805627 18.312545 30.477834 0.156848 0.926235 0.044667 -0.011030 -10766.900000 0 0 1
23.614996 3.446227 16.878445 29.230574 0.144911 0.955226 0.058325 -0.013374 144299.000000 0 0 1
24.684396 3.313427 15.953445 29.577198 0.133434 1.001092 0.059205 -0.015001 372081.000000 0 0 1
24.259296 3.308527 14.583245 28.497909 0.135546 1.033599 0.054409 -0.023855 -154589.000000 0 0 1
23.387396 2.176527 13.965245 27.326464 0.092797 1.034388 0.066562 -0.010964 -48121.800000 0 0 1
21.999996 2.234527 14.184145 26.271333 0.101222 1.000467 0.054259 -0.006995 152661.000000 0 0 1
21.550796 0.967327 13.757345 25.585877 0.044856 1.003098 0.056852 -0.007747 -46682.300000 0 0 1
20.029596 0.629927 13.926745 24.403601 0.031439 0.963458 0.046331 -0.014180 823125.000000 0 1 0
19.071896 1.263027 13.070345 23.155267 0.066128 0.971011 0.049896 -0.011924 768117.000000 0 1 0
19.211296 0.992327 11.649945 22.489550 0.051607 1.026267 0.056426 -0.014684 -1496160.000000 0 1 0
19.167596 -0.478073 11.167245 22.188571 -0.024937 1.043397 0.064932 -0.008150 -523819.000000 0 1 0
20.281096 -1.307073 11.320845 23.263552 -0.064359 1.062563 0.070474 -0.017095 732608.000000 0 1 0
21.456196 -0.943673 10.549445 23.928010 -0.043953 1.114214 0.075621 -0.018898 403985.000000 0 1 0
22.654096 -1.847573 10.924045 25.218175 -0.081376 1.122777 0.095287 -0.026166 -153346.000000 0 0 1
23.170396 -1.567373 12.245345 26.253998 -0.067543 1.085559 0.091984 -0.032350 678823.000000 0 0 1
24.111596 -2.533473 12.729945 27.383189 -0.104689 1.087295 0.088687 -0.024558 194216.000000 0 0 1
24.648596 -2.230073 14.160045 28.513741 -0.090229 1.051114 0.105232 -0.029800 -442087.000000 0 0 1
25.609896 -1.240373 14.175745 29.297731 -0.048396 1.065746 0.080940 -0.018616 -389864.000000 0 0 1
25.762296 -0.823873 15.515645 30.085045 -0.031969 1.028941 0.081722 -0.027345 475721.000000 0 0 1
27.029996 0.085727 15.721445 31.269664 0.003172 1.043996 0.095978 -0.018503 1078430.000000 0 0 1
28.252596 -0.639173 15.638445 32.298277 -0.022620 1.065361 0.081199 -0.020342 502522.000000 0 0 1
29.409596 0.181527 15.651545 33.315584 0.006172 1.081736 0.062725 -0.010626 323155.000000 0 0 1
30.737596 -0.607173 15.712545 34.526114 -0.019751 1.098321 0.058284 -0.008597 -39629.900000 0 0 1
31.143096 -1.171373 14.516245 34.380022 -0.037595 1.134893 0.071649 -0.010947 107079.000000 0 0 1
32.287596 -1.988873 14.686845 35.526721 -0.061521 1.144608 0.057170 -0.009263 130514.000000 0 0 1
32.773896 -2.604173 13.365845 35.490221 -0.079292 1.184666 0.066771 -0.014325 41981.000000 0 0 1
33.269296 -1.627973 12.439845 35.556239 -0.048894 1.213370 0.070490 -0.010775 194412.000000 0 0 1
33.690896 -2.150873 11.228945 35.577970 -0.063755 1.249691 0.077140 -0.017336 -68120.800000 0 0 1
32.931496 -1.472273 10.074045 34.469369 -0.044677 1.274206 0.091938 -0.017032 -83615.300000 0 0 1
33.307196 -0.150973 9.852745 34.734258 -0.004533 1.283187 0.088455 -0.014845 475493.000000 0 0 1
32.320296 0.494127 9.072645 33.573183 0.015287 1.297159 0.076516 -0.016231 -29283.800000 0 0 1
32.706996 1.955227 8.664045 33.891536 0.059709 1.312286 0.063056 -0.012544 52474.600000 0 0 1
33.702996 1.969527 7.661845 34.618996 0.058371 1.347629 0.076728 -0.017498 275693.000000 0 0 1
33.861396 3.289127 7.284845 34.791974 0.096831 1.359852 0.063623 -0.015144 -198808.000000 0 0 1
34.796196 3.351327 6.076745 35.481453 0.096017 1.398682 0.072249 -0.019492 -291576.000000 0 0 1
35.072396 4.709027 5.722845 35.846881 0.133468 1.410463 0.061293 -0.018416 92717.800000 0 0 1
35.621696 4.658027 4.391445 36.192365 0.130026 1.449160 0.077837 -0.022623 -41146.300000 0 0 1
36.020096 6.026527 3.752145 36.713008 0.165775 1.468416 0.074295 -0.028539 507694.000000 0 0 1
34.865696 6.839027 3.528645 35.704907 0.193694 1.471807 0.067594 -0.032625 485456.000000 0 0 1
35.252296 8.095227 2.941545 36.289252 0.225723 1.489649 0.064282 -0.028076 -243462.000000 0 0 1
34.149296 9.197627 2.907245 35.485530 0.263093 1.488777 0.082425 -0.023666 1316120.000000 0 0 1
32.998596 9.013727 2.042945 34.268473 0.266650 1.511145 0.082356 -0.031741 1371100.000000 0 0 1
32.076496 7.947927 2.340245 33.129261 0.242889 1.500098 0.094000 -0.030651 -3728.650000 0 0 1
30.883996 7.959227 1.345745 31.921490 0.252225 1.528626 0.107831 -0.035359 24439.300000 0 0 1
31.179196 7.574027 0.015845 32.085954 0.238303 1.570302 0.100864 -0.031828 623063.000000 0 0 1
29.987296 7.345727 -0.709155 30.882042 0.240231 1.593762 0.105145 -0.031558 416323.000000 0 0 1
30.531296 7.107327 -2.169255 31.422600 0.228715 1.639886 0.077942 -0.021077 -159202.000000 0 0 1
29.499896 6.926627 -3.078155 30.458120 0.230624 1.672031 0.092985 -0.018205 445417.000000 0 0 1
30.103196 6.630727 -4.334355 31.128052 0.216805 1.710493 0.074373 -0.012935 -532639.000000 0 0 1
29.137996 6.073327 -5.350655 30.241323 0.205491 1.748665 0.102907 -0.007202 -715866.000000 0 0 1
28.804496 4.727027 -5.062555 29.625551 0.162657 1.742524 0.105402 -0.015764 361493.000000 0 0 1
27.649896 4.407327 -5.783055 28.589946 0.158068 1.774478 0.105053 -0.021776 -667145.000000 0 0 1
27.435496 2.866827 -5.815855 28.191299 0.104115 1.778588 0.100132 -0.011761 -598987.000000 0 0 1
26.994396 2.341027 -4.594055 27.482416 0.086506 1.738748 0.090868 -0.015683 561335.000000 0 0 1
26.823496 0.926127 -4.562155 27.224455 0.034513 1.739166 0.070564 -0.010946 -329674.000000 0 0 1
26.730196 0.332327 -3.156455 26.917969 0.012432 1.688329 0.081148 -0.015168 -1073410.000000 0 0 1
27.909396 0.409027 -2.464255 28.020961 0.014654 1.658853 0.098966 -0.023919 -766124.000000 0 0 1
27.862196 -0.004773 -1.166155 27.886590 -0.000171 1.612626 0.100301 -0.017657 361030.000000 0 0 1
29.113196 0.401527 -0.299255 29.117503 0.013791 1.581074 0.110326 -0.018529 1762250.000000 0 0 1
30.343396 -0.307873 -0.658355 30.352099 -0.010146 1.592489 0.100924 -0.019010 1019570.000000 0 0 1
31.414796 0.219527 0.065945 31.415633 0.006988 1.568697 0.089009 -0.021529 -436891.000000 0 0 1
-3.231704 -21.432573 -8.409935 23.249217 1.421139 1.940919 0.010963 0.014932 324786.000000 0 1 0
-3.514804 -22.075873 -7.200135 23.484888 1.412907 1.882400 0.005271 0.011466 686239.000000 0 1 0
-2.435304 -22.999373 -6.957535 24.151794 1.465304 1.863013 0.009856 0.000804 1050340.000000 0 1 0
-2.880904 -23.643973 -5.612535 24.471159 1.449549 1.802209 0.007081 0.003991 47430.400000 0 1 0
-3.101204 -22.753273 -4.522435 23.404729 1.435334 1.765247 0.013479 -0.004215 -87461.800000 0 1 0
-3.429304 -23.423773 -3.364235 23.911323 1.425426 1.711961 0.012617 -0.003575 -193991.000000 0 1 0
-3.110504 -22.712673 -1.992935 23.011140 1.434693 1.657512 0.018210 -0.014084 473598.000000 0 1 0
-1.713904 -22.845873 -1.740335 22.976078 1.495916 1.646614 0.036345 -0.012536 -101619.000000 0 1 0
-1.480604 -22.438873 -0.448035 22.492131 1.504908 1.590717 0.039243 -0.020351 359533.000000 0 1 0
0.031296 -22.372373 -0.129935 22.372772 -1.569397 1.576604 0.046188 -0.023019 151725.000000 0 1 0
0.743096 -21.288673 -0.647935 21.311490 -1.535905 1.601204 0.030858 -0.024397 318505.000000 0 1 0
2.092596 -21.261573 -0.157835 21.364886 -1.472691 1.578184 0.028914 -0.021033 853835.000000 0 1 0
2.991596 -20.149973 -0.726135 20.383776 -1.423406 1.606427 0.028708 -0.018854 177795.000000 0 1 0
3.763796 -20.645973 -1.782635 21.061818 -1.390475 1.655536 0.021889 -0.011326 -801116.000000 0 1 0
4.655796 -19.683673 -2.292735 20.356327 -1.338534 1.683666 0.028332 -0.004116 32867.300000 0 1 0
5.519496 -20.332073 -3.428235 21.345042 -1.305717 1.732105 0.027542 0.000960 -154365.000000 0 1 0
6.445396 -21.303673 -2.873835 22.442116 -1.277003 1.699204 0.035587 -0.005881 488558.000000 0 1 0
7.414296 -21.876473 -3.738335 23.399295 -1.244029 1.731247 0.037850 -0.004489 399434.000000 0 1 0
8.468296 -20.939573 -4.375035 23.006927 -1.186489 1.762123 0.043308 -0.006234 -1051670.000000 0 1 0
8.091196 -20.028973 -5.385835 22.262849 -1.186868 1.815141 0.040796 -0.002736 -188954.000000 0 1 0
9.222596 -19.472373 -6.041935 22.377099 -1.128471 1.844195 0.046172 -0.001685 -286394.000000 0 1 0
8.903396 -18.353573 -7.068735 21.589144 -1.119136 1.904369 0.033600 0.002959 262630.000000 0 1 0
10.069596 -17.707773 -7.581335 21.735654 -1.053744 1.927084 0.039157 -0.003599 579415.000000 0 1 0
9.642896 -16.653673 -8.396535 20.996002 -1.045942 1.982216 0.031772 0.002028 48858.000000 0 1 0
10.356996 -16.473673 -9.767735 21.772871 -1.009541 2.036016 0.033387 -0.004498 -374498.000000 0 1 0
9.933696 -17.249173 -10.852335 22.671248 -1.048290 2.069950 0.041740 -0.002004 170982.000000 0 1 0
8.893596 -16.554673 -11.532735 22.048974 -1.077813 2.121223 0.018500 -0.009348 165797.000000 0 1 0
8.344196 -17.106073 -12.885535 22.984350 -1.116963 2.165933 0.027181 -0.015759 -33265.000000 0 1 0
7.382696 -18.107573 -12.615635 23.271069 -1.183658 2.143750 0.030513 -0.004748 45588.400000 0 1 0
6.733896 -18.526373 -13.786335 24.054831 -1.222167 2.181106 0.024076 -0.004087 -35379.800000 0 1 0
5.675196 -19.662673 -13.609035 24.577111 -1.289805 2.157631 0.029195 0.007368 202693.000000 0 1 0
6.017496 -20.810173 -12.848135 25.186269 -1.289313 2.106126 0.037689 -0.001724 241352.000000 0 0 1
4.798196 -21.512173 -12.614535 25.395330 -1.351343 2.090619 0.043841 0.003734 612247.000000 0 0 1
4.957796 -23.058473 -12.456935 26.672986 -1.359011 2.056719 0.032909 -0.001422 -313034.000000 0 0 1
5.450896 -23.717673 -13.583335 27.870186 -1.344895 2.079882 0.052102 -0.010050 -111119.000000 0 0 1
5.188596 -25.125593 -13.534335 29.006813 -1.367152 2.056230 0.043420 -0.010045 497577.000000 0 0 1
3.741596 -25.518313 -13.947235 29.320798 -1.425210 2.066530 0.045008 -0.012902 -56049.500000 0 0 1
2.708496 -24.960173 -13.168035 28.350368 -1.462707 2.053838 0.053425 -0.005626 -83332.500000 0 0 1
1.400396 -25.207053 -13.663735 28.706346 -1.515298 2.066878 0.046702 -0.009659 575977.000000 0 0 1
0.742896 -26.537503 -13.130635 29.617639 -1.542809 2.030116 0.037305 -0.011536 -976151.000000 0 0 1
1.295196 -27.687723 -13.770135 30.950027 -1.524052 2.031876 0.042874 -0.010018 262675.000000 0 0 1
0.718596 -28.938313 -13.411835 31.903286 -1.545969 2.004672 0.032174 -0.008019 171900.000000 0 0 1
-0.766404 -29.207363 -13.741435 32.287528 1.544562 2.010416 0.013877 -0.009967 504537.000000 0 0 1
-1.740604 -28.417133 -13.040435 31.314791 1.509621 2.000312 0.012637 -0.009223 695854.000000 0 0 1
-3.055004 -28.741713 -13.493835 31.898318 1.464902 2.007579 0.016434 -0.002577 636337.000000 0 0 1
-4.256904 -27.999253 -12.857435 31.102943 1.419915 1.996963 0.017525 -0.002506 288377.000000 0 0 1
-4.439304 -28.115923 -11.421635 30.670284 1.414196 1.952391 0.007480 -0.014738 10234.300000 0 0 1
-4.963804 -29.386943 -10.965835 31.756595 1.403464 1.923364 -0.000619 -0.012878 -414414.000000 0 0 1
-5.421704 -29.418443 -9.482435 31.380826 1.388545 1.877768 0.000514 -0.011193 100584.000000 0 0 1
-6.775504 -29.021423 -9.321535 31.225654 1.341439 1.873940 0.014782 -0.014111 -327798.000000 0 0 1
-6.867904 -27.636903 -9.095635 29.894767 1.327225 1.879953 0.018044 -0.014638 -12153.500000 0 0 1
-8.356804 -27.329913 -8.689035 29.870716 1.274050 1.865951 0.022490 -0.014551 1042880.000000 0 0 1
-9.379804 -27.439663 -9.661035 30.565527 1.241415 1.892387 0.044971 -0.018460 -76346.000000 0 0 1
-9.589204 -28.771633 -10.141135 31.978154 1.249088 1.893495 0.045625 -0.022584 -1086310.000000 0 0 1
-10.865204 -29.144243 -10.929335 32.968014 1.213949 1.908703 0.053529 -0.023197 -9949.880000 0 0 1
-10.804104 -28.546443 -12.230935 32.881968 1.208983 1.951921 0.064816 -0.026298 -38058.600000 0 0 1
-11.633004 -29.147493 -13.198335 34.045546 1.191059 1.968896 0.069413 -0.026508 -182214.000000 0 0 1
-11.931804 -28.214963 -14.384035 33.843058 1.170715 2.009782 0.069651 -0.024599 213218.000000 0 0 1
-13.063104 -27.343663 -14.331735 33.521922 1.125116 2.012559 0.063897 -0.032173 346322.000000 0 0 1
-12.822804 -26.162883 -13.554235 32.134686 1.115088 2.006220 0.065624 -0.028052 555991.000000 0 0 1
-13.813304 -24.962773 -13.857235 31.717036 1.065380 2.022948 0.092659 -0.024020 237720.000000 0 0 1
-13.466104 -24.288573 -15.073035 31.598530 1.064565 2.068054 0.087038 -0.015685 638140.000000 0 0 1
-14.460104 -23.320573 -15.420935 31.476165 1.015759 2.082799 0.099883 -0.015668 146916.000000 0 0 1
-14.067304 -22.638873 -16.718735 31.463053 1.014806 2.131021 0.089960 -0.006905 245773.000000 0 0 1
-13.059304 -21.620773 -16.655535 30.255745 1.027429 2.153749 0.078392 -0.002143 696094.000000 0 0 1
-12.915704 -20.860873 -17.866235 30.351174 1.016425 2.200185 0.054221 0.006110 -91406.700000 0 0 1
-13.362104 -19.365673 -17.859735 29.538877 0.966821 2.220082 0.063724 0.006487 331821.000000 0 0 1
-12.324104 -18.515973 -17.350535 28.209322 0.983537 2.233263 0.055755 0.012561 419570.000000 0 0 1
-12.386804 -17.147873 -17.720235 27.595094 0.945226 2.268098 0.055315 0.015049 -757286.000000 0 0 1
-11.058404 -16.444673 -17.862135 26.679045 0.978793 2.304358 0.055653 0.007776 -756910.000000 0 0 1
-10.479704 -16.119973 -16.635235 25.424570 0.994346 2.284050 0.052742 0.012015 880624.000000 0 0 1
-9.195004 -15.485073 -16.903135 24.699222 1.034950 2.324521 0.057006 0.010394 880729.000000 0 1 0
-8.497804 -14.855873 -15.639735 23.184282 1.051207 2.311197 0.042180 0.006979 77743.700000 0 1 0
-7.995004 -15.785973 -14.688535 22.997176 1.101992 2.263617 0.044756 0.012953 -754035.000000 0 1 0
-6.862004 -16.484073 -15.011535 23.327193 1.176334 2.269886 0.051981 0.011537 -1209140.000000 0 1 0
-6.382804 -17.453373 -13.854435 23.179857 1.220199 2.211417 0.037626 0.015720 -524153.000000 0 1 0
-6.053804 -16.657273 -12.710435 21.809825 1.222205 2.192948 0.037244 0.003836 289063.000000 0 1 0
-5.714204 -17.415173 -11.552135 21.665461 1.253748 2.133181 0.028272 0.002112 521976.000000 0 1 0
-4.632404 -18.584873 -11.615335 22.400283 1.326517 2.115933 0.034316 0.003627 1185570.000000 0 1 0
-3.290704 -18.084873 -11.767135 21.825601 1.390807 2.140216 0.027785 0.007737 840244.000000 0 1 0
-2.309404 -19.143173 -11.868335 22.641815 1.450738 2.122546 0.027582 0.014106 -247056.000000 0 1 0
-0.928404 -18.622173 -12.095735 22.225078 1.520983 2.146277 0.019124 0.015969 -2146620.000000 0 1 0
-0.664004 -18.108973 -13.403135 22.539295 1.534146 2.207634 0.030298 0.002426 -21869.200000 0 1 0
0.676896 -17.725673 -13.605135 22.355254 -1.532628 2.225076 0.034358 0.004341 -223501.000000 0 1 0
1.748196 -18.794173 -13.628535 23.281196 -1.478045 2.196155 0.029925 -0.002434 -1228650.000000 0 1 0
1.820696 -19.542573 -14.838235 24.604884 -1.477899 2.218129 0.044322 0.002467 294078.000000 0 1 0
1.114796 -20.758073 -14.645335 25.428846 -1.517144 2.184542 0.045456 0.002861 -546261.000000 0 0 1
1.258396 -21.683773 -15.863435 26.896434 -1.512827 2.201604 0.058857 0.002509 1077190.000000 0 0 1
2.516596 -22.346573 -16.092235 27.652534 -1.458652 2.191914 0.046726 0.001510 1560690.000000 0 0 1
3.687796 -21.553673 -16.384135 27.323992 -1.401339 2.213828 0.042496 -0.004513 533160.000000 0 0 1
4.945396 -22.358973 -16.754635 28.374256 -1.353119 2.202459 0.050666 -0.004984 8422.760000 0 0 1
4.972196 -22.725573 -18.112635 29.482910 -1.355398 2.232350 0.045705 -0.011015 428072.000000 0 0 1
6.151696 -23.511073 -18.280335 30.410271 -1.314882 2.215703 0.053736 -0.017525 491652.000000 0 0 1
6.531196 -23.610673 -19.785935 31.489739 -1.300924 2.250200 0.054658 -0.012432 69140.500000 0 0 1
6.997096 -22.317973 -20.208035 30.909804 -1.266984 2.283358 0.067832 -0.020248 -152937.000000 0 0 1
7.045096 -22.209073 -21.622435 31.786884 -1.263620 2.318875 0.065977 -0.022721 61404.600000 0 0 1
7.316596 -20.733373 -22.018635 31.116324 -1.231549 2.356925 0.058843 -0.026217 17799.900000 0 0 1
6.096496 -20.033173 -22.152035 30.482912 -1.275381 2.384307 0.058870 -0.021824 -47547.100000 0 0 1
6.221496 -18.630573 -22.464535 29.840587 -1.248500 2.423129 0.058844 -0.023158 -213247.000000 0 0 1
4.925896 -17.836073 -22.671635 29.264193 -1.301337 2.457073 0.052620 -0.016837 -701039.000000 0 0 1
4.142096 -18.184473 -23.800535 30.237353 -1.346835 2.476928 0.057317 -0.013873 -184126.000000 0 0 1
3.074996 -17.295073 -24.023935 29.761126 -1.394839 2.510232 0.049092 -0.009027 742207.000000 0 0 1
1.785296 -17.748973 -23.205635 29.269691 -1.470548 2.486221 0.034752 0.016297 85230.800000 0 0 1
1.723696 -17.160273 -21.919235 27.890840 -1.470685 2.474936 0.059352 0.006644 -348390.000000 0 0 1
1.069396 -15.941273 -21.937135 27.138638 -1.503813 2.512116 0.044327 -0.002888 -596616.000000 0 0 1
1.408996 -15.104773 -20.697235 25.661547 -1.477784 2.509083 0.045971 -0.013727 -405674.000000 0 0 1
2.492096 -14.240673 -20.727735 25.271453 -1.397552 2.532563 0.043541 -0.011350 -855583.000000 0 0 1
2.525896 -13.466573 -19.577035 23.895377 -1.385383 2.530953 0.040813 -0.019059 488050.000000 0 1 0
3.763496 -12.522573 -19.474735 23.457281 -1.278847 2.550301 0.040701 -0.018161 456829.000000 0 1 0
5.020796 -13.179073 -19.289835 23.895483 -1.206804 2.510289 0.035335 -0.015671 503450.000000 0 1 0
6.152096 -12.325873 -19.179535 23.614191 -1.107853 2.518716 0.037549 -0.021614 304724.000000 0 1 0
6.225996 -11.227373 -18.054735 22.153790 -1.064476 2.523479 0.032347 -0.021353 -800282.000000 0 1 0
5.279796 -10.161673 -18.022435 21.352846 -1.091608 2.575550 0.015679 -0.012015 -33329.400000 0 1 0
5.514896 -9.059173 -18.882335 21.656991 -1.023958 2.629828 0.027593 -0.020667 -225824.000000 0 1 0
4.871496 -9.006973 -20.294535 22.731590 -1.074999 2.674297 0.039077 -0.023533 1244590.000000 0 1 0
3.421296 -9.017573 -20.339135 22.510049 -1.208171 2.698799 0.036502 -0.029104 1056900.000000 0 1 0
2.937896 -9.165273 -21.688835 23.728444 -1.260598 2.723940 0.031398 -0.028674 576606.000000 0 1 0
1.386596 -9.167773 -21.760935 23.653943 -1.420687 2.738802 0.047449 -0.023742 436902.000000 0 1 0
0.832896 -7.884473 -21.462735 22.880289 -1.465549 2.787740 0.040609 -0.022879 -1007460.000000 0 1 0
-0.522804 -7.815273 -21.735635 23.103888 1.504001 2.795715 0.046493 -0.018488 -586791.000000 0 1 0
-0.875404 -6.765473 -22.866735 23.862639 1.442118 2.851667 0.053686 -0.018682 -16931.000000 0 1 0
-0.417204 -7.113873 -24.194535 25.222148 1.512217 2.855159 0.055004 -0.017125 -241265.000000 0 0 1
-1.009704 -6.408473 -25.255735 26.075663 1.414523 2.890155 0.050692 -0.020290 178928.000000 0 0 1
-0.372004 -5.040573 -25.687505 26.180024 1.497128 2.947314 0.056775 -0.017305 300275.000000 0 0 1
-1.217404 -4.474673 -26.676375 27.076443 1.305160 2.969476 0.056298 -0.014777 237598.000000 0 0 1
-0.651504 -3.287473 -27.225755 27.431254 1.375154 3.019112 0.038402 -0.006669 -262477.000000 0 0 1
-0.990804 -1.934173 -26.467575 26.556642 1.097387 3.059669 0.045071 -0.008435 220475.000000 0 0 1
-2.371704 -1.659773 -26.289615 26.448510 0.610607 3.031923 0.041288 -0.013014 1755.630000 0 0 1
-2.844704 -0.976773 -27.421955 27.586410 0.330752 3.032346 0.051827 -0.006653 -816042.000000 0 0 1
-4.372304 -1.013973 -27.420325 27.785237 0.227880 2.979345 0.053782 -0.009728 -707326.000000 0 0 1
-4.984004 -0.057873 -26.680875 27.142453 0.011611 2.956908 0.047469 -0.014390 -1334670.000000 0 0 1
-6.344604 -0.276773 -26.601965 27.349500 0.043596 2.907251 0.053249 -0.029467 -1402550.000000 0 0 1
-7.084104 0.758227 -25.781825 26.748120 -0.106626 2.871981 0.046477 -0.022255 -1132620.000000 0 0 1
-7.295804 2.044927 -26.385725 27.452085 -0.273276 2.861955 0.042894 -0.018727 743704.000000 0 0 1
-8.260504 2.064727 -27.468315 28.757735 -0.244933 2.841005 0.069534 -0.022545 993394.000000 0 0 1
-9.738204 1.713727 -27.076975 28.825892 -0.174196 2.791463 0.070983 -0.024189 199701.000000 0 0 1
-10.763104 2.167027 -27.962375 30.040553 -0.198682 2.767449 0.071858 -0.025060 508056.000000 0 0 1
-12.017204 1.606127 -27.696695 30.234082 -0.132865 2.728977 0.058563 -0.020269 -54510.100000 0 0 1
-13.229904 2.187027 -28.452745 31.454286 -0.163828 2.701177 0.048476 -0.010641 564697.000000 0 0 1
-14.484804 1.539327 -28.124955 31.673209 -0.105874 2.663715 0.034760 -0.012565 1558580.000000 0 0 1
-15.634404 2.075027 -28.788605 32.825662 -0.131951 2.640411 0.032049 -0.006803 624067.000000 0 0 1
-16.208104 3.411327 -28.305455 32.795405 -0.207443 2.612157 0.025453 0.001185 -622020.000000 0 0 1
-15.447704 4.582327 -28.662615 32.881222 -0.288367 2.629460 0.039773 0.003057 209410.000000 0 0 1
-15.508304 5.022527 -30.071745 34.205893 -0.313201 2.644849 0.031214 -0.004054 687341.000000 0 0 1
-16.975704 5.391127 -30.518175 35.335503 -0.307505 2.613300 0.012797 0.007513 726188.000000 0 0 1
-17.365504 6.609327 -29.867385 35.175341 -0.363672 2.585076 0.019595 0.010560 1267160.000000 0 0 1
-18.558704 7.241427 -30.438355 36.377977 -0.372021 2.562071 -0.000943 0.010414 1125870.000000 0 0 1
-18.975004 8.481627 -29.628295 36.191499 -0.420348 2.529859 0.015159 0.001177 -373682.000000 0 0 1
-17.981004 9.482527 -29.677925 35.972407 -0.485298 2.541032 0.010865 0.002284 102270.000000 0 0 1
-18.360204 10.723527 -29.095825 36.036900 -0.528619 2.510511 0.026652 -0.001968 -272809.000000 0 0 1
-8.649904 25.184827 31.017075 40.879766 -1.239962 0.709421 0.002399 -0.000407 -658683.000000 0 0 1
-9.466904 26.353527 31.174815 41.904650 -1.225925 0.731840 0.010511 0.002059 229925.000000 0 0 1
-8.969904 27.310327 32.091425 43.083323 -1.253453 0.730458 0.029982 -0.007091 -313466.000000 0 0 1
-7.636404 27.967627 31.716865 42.970482 -1.304249 0.740534 0.030480 -0.011238 -389244.000000 0 0 1
-7.656304 28.828527 30.569065 42.710311 -1.311208 0.773127 0.046546 -0.010193 585849.000000 0 0 1
-6.297004 29.019927 30.170635 42.332914 -1.357120 0.777458 0.045780 -0.008269 552625.000000 0 0 1
-6.036804 30.163727 29.155235 42.383029 -1.373271 0.812206 0.066071 -0.013898 -186189.000000 0 0 1
-6.250704 31.420027 29.798155 43.751793 -1.374420 0.821570 0.073728 -0.014842 442098.000000 0 0 1
-5.726504 32.525527 29.062995 43.992731 -1.396521 0.849136 0.088363 -0.012527 250041.000000 0 0 1
-6.299904 33.824527 29.677795 45.437418 -1.386654 0.859049 0.079344 -0.017202 -178484.000000 0 0 1
-5.647404 33.992327 30.913545 46.292750 -1.406162 0.839569 0.086654 -0.025615 129024.000000 0 0 1
-6.313504 -33.843019 31.909215 46.940476 1.386364 0.823333 0.081737 -0.028443 359773.000000 0 0 1
-7.473904 34.173027 32.770702 47.933015 -1.355479 0.818007 0.055915 -0.025318 261941.000000 0 0 1
-7.155304 33.245527 33.741704 47.905804 -1.358804 0.789311 0.069442 -0.021442 -229197.000000 0 0 1
-6.692604 31.981727 33.303800 46.655813 -1.364510 0.775860 0.077378 -0.018587 -80087.200000 0 0 1
-6.490204 30.979427 -33.955885 46.420359 -1.364283 2.391296 0.080263 -0.017243 150944.000000 0 0 1
-5.220004 31.172527 -33.357775 45.953411 -1.404880 2.383144 0.079462 -0.018827 171360.000000 0 0 1
-5.246904 30.509827 -32.077355 44.579549 -1.400488 2.373955 0.090554 -0.016831 -767483.000000 0 0 1
-3.804604 30.375527 -31.617785 44.009453 -1.446193 2.372341 0.078180 -0.021278 -236678.000000 0 0 1
-3.128704 29.167427 -31.928455 43.358434 -1.463938 2.398506 0.066804 -0.012469 178964.000000 0 0 1
-2.765504 28.945527 -33.273785 44.188644 -1.475544 2.423397 0.067736 -0.014960 -590083.000000 0 0 1
-2.150004 27.549827 -33.415125 43.361112 -1.492914 2.450616 0.049918 -0.012695 -789453.000000 0 0 1
-0.868004 27.405927 -32.835245 42.778401 -1.539135 2.445831 0.059552 -0.008561 262453.000000 0 0 1
-0.190404 26.180027 -33.011725 42.133170 -1.563524 2.471090 0.059111 -0.007412 422193.000000 0 0 1
0.227496 25.880027 33.986481 42.718947 1.562006 0.650827 0.033642 -0.002708 412710.000000 0 0 1
-0.969204 25.506727 33.244859 41.913639 -1.532817 0.654791 0.033375 -0.001074 1265680.000000 0 0 1
-0.759304 25.414827 31.864185 40.765381 -1.540929 0.673492 0.036767 -0.005209 -68511.800000 0 0 1
-0.404104 26.640327 31.035235 40.903009 -1.555629 0.709401 0.024720 -0.008852 -160517.000000 0 0 1
-1.543404 27.472927 30.902225 41.377425 -1.514676 0.727502 0.016451 -0.010416 482756.000000 0 0 1
-1.220604 28.590527 30.157765 41.574017 -1.528130 0.759182 0.017146 -0.012360 72299.100000 0 0 1
-2.235104 29.661427 30.597245 42.673028 -1.495585 0.771284 0.034891 -0.017500 160677.000000 0 0 1
-1.881704 30.223127 31.833585 43.935809 -1.508616 0.760419 0.062829 -0.020666 460938.000000 0 0 1
-2.807404 31.266427 32.192175 44.964509 -1.481247 0.772818 0.069698 -0.017015 453765.000000 0 0 1
-2.290804 32.076627 33.396632 46.362623 -1.499501 0.766511 0.095017 -0.021347 -786005.000000 0 0 1
-1.096304 32.679227 33.069937 46.505424 -1.537261 0.779737 0.064145 -0.029837 -963289.000000 0 0 1
-0.530904 33.406427 34.149556 47.775134 -1.554905 0.774462 0.059063 -0.022223 -918182.000000 0 0 1
0.913296 33.803527 33.964285 47.927917 1.543785 0.783208 0.060207 -0.028032 -911826.000000 0 0 1
1.069196 -33.906619 32.917154 47.268817 -1.539273 0.800453 0.079115 -0.042725 -247913.000000 0 0 1
2.351496 -33.359419 32.980440 46.969030 -1.500423 0.792350 0.051409 -0.032645 -526733.000000 0 0 1
2.470896 -31.893619 32.460376 45.573943 -1.493478 0.778087 0.063847 -0.036431 -283300.000000 0 0 1
1.756496 -31.015019 33.282689 45.527509 -1.514223 0.750943 0.064853 -0.031275 289843.000000 0 0 1
1.859196 -29.688419 32.785443 44.268997 -1.508254 0.736839 0.054254 -0.027321 -355293.000000 0 0 1
1.472996 -28.600719 33.805535 44.305587 -1.519340 0.702842 0.044575 -0.019878 225022.000000 0 0 1
0.068996 -28.590419 34.019614 44.438170 -1.568383 0.698902 0.036747 -0.016829 373409.000000 0 0 1
-0.248504 -27.920719 -33.274415 43.437484 1.561896 2.443438 0.037357 -0.007042 -893306.000000 0 0 1
-1.719604 -27.843519 -32.937725 43.163785 1.509115 2.438873 0.058888 -0.010789 -872557.000000 0 0 1
-1.962004 -27.282719 -31.658925 41.838783 1.499006 2.429029 0.055668 -0.014309 565387.000000 0 0 1
-3.184604 -26.544219 -31.655455 41.434347 1.451393 2.440272 0.056543 -0.015663 388094.000000 0 0 1
-3.625504 -25.914219 -30.282025 40.021145 1.431795 2.428971 0.060863 -0.021515 -105096.000000 0 0 1
-3.951804 -26.930119 -29.333185 40.016045 1.425093 2.393570 0.059323 -0.016077 -134565.000000 0 0 1
-4.404404 -26.406219 -28.108055 38.816877 1.405524 2.380553 0.057339 -0.009693 -108261.000000 0 0 1
-3.430104 -25.891619 -27.002055 37.566641 1.439084 2.372839 0.057053 -0.018888 18975.700000 0 0 1
-2.718404 -24.712119 -27.344785 36.956946 1.461234 2.403732 0.061013 -0.016781 18679.800000 0 0 1
-1.753804 -24.400619 -26.389295 35.984176 1.499044 2.394045 0.054749 -0.014781 -1338920.000000 0 0 1
-0.726504 -23.421819 -26.881705 35.661401 1.539788 2.424628 0.042924 -0.010106 -473253.000000 0 0 1
-0.098804 -23.769019 -28.102385 36.806522 1.566640 2.439537 0.027583 -0.014058 231049.000000 0 0 1
1.152096 -24.396219 -27.855525 37.046364 -1.523607 2.421751 0.025390 -0.016764 53213.100000 0 0 1
1.906696 -24.748319 -29.188595 38.315648 -1.493905 2.436873 0.017146 -0.019096 205946.000000 0 0 1
2.552396 -23.668919 -29.833685 38.167804 -1.463374 2.468096 0.021788 -0.013860 384956.000000 0 0 1
3.428596 -24.041419 -30.899925 39.300769 -1.429139 2.475500 0.029059 -0.011514 -638027.000000 0 0 1
4.384196 -22.879219 -31.299575 39.017217 -1.381468 2.501766 0.039450 -0.022043 -611611.000000 0 0 1
5.566796 -22.728919 -30.544535 38.478067 -1.330603 2.487856 0.033426 -0.029257 819841.000000 0 0 1
6.541096 -23.794919 -30.561095 39.280589 -1.302528 2.462305 0.034519 -0.015981 84687.600000 0 0 1
7.230896 -24.113019 -31.919965 40.652278 -1.279454 2.473807 0.050637 -0.012418 -660109.000000 0 0 1
6.319996 -24.842819 -32.730505 41.573958 -1.321681 2.477188 0.022505 -0.013428 199908.000000 0 0 1
6.586996 -24.905019 -34.143028 42.771426 -1.312232 2.495209 0.049294 -0.018962 -211349.000000 0 0 1
6.247996 -23.584919 33.710880 41.613812 -1.311830 0.626493 0.060237 -0.023978 415929.000000 0 0 1
4.838396 -23.368719 33.649616 41.252925 -1.366635 0.616875 0.069859 -0.027142 354112.000000 0 0 1
4.506196 -22.430319 32.704294 39.912352 -1.372538 0.610428 0.082851 -0.039292 -169306.000000 0 0 1
3.074296 -21.917819 32.981686 39.719438 -1.431441 0.591031 0.057460 -0.035771 1032620.000000 0 0 1
1.956396 -22.817819 32.749667 39.962746 -1.485266 0.610250 0.048188 -0.031286 754658.000000 0 0 1
1.594796 -23.566819 33.884020 41.304542 -1.503228 0.608780 0.047015 -0.029065 -585732.000000 0 0 1
0.190796 -24.146219 33.719735 41.474050 -1.562895 0.621455 0.044992 -0.026467 -232000.000000 0 0 1
0.116296 -25.066519 32.662448 41.172557 -1.566157 0.654576 0.054854 -0.030011 622178.000000 0 0 1
-1.236704 -25.406019 32.328275 41.135297 1.522157 0.666644 0.045934 -0.038145 697856.000000 0 0 1
-1.190504 -26.683219 31.493675 41.294831 1.526210 0.703390 0.051557 -0.038799 -278837.000000 0 0 1
-2.391804 -26.927219 30.825655 41.000206 1.482204 0.719946 0.041684 -0.045974 -307856.000000 0 0 1
-2.375304 -28.170819 30.266585 41.416220 1.486677 0.751317 0.054262 -0.045053 -865355.000000 0 0 1
-3.506504 -28.522019 29.350315 41.076053 1.448470 0.774836 0.054827 -0.035547 -267112.000000 0 0 1
-4.732404 -28.705919 30.072665 41.842450 1.407408 0.768848 0.043375 -0.030621 666914.000000 0 0 1
-5.795804 -28.928019 29.138795 41.466746 1.373062 0.791607 0.031530 -0.017688 -80316.700000 0 0 1
-7.102604 -29.348819 29.795905 42.421647 1.333355 0.792068 0.020782 -0.009670 -1308190.000000 0 0 1
-8.069704 -29.924219 28.972305 42.426094 1.307391 0.819087 0.048803 -0.007689 -365349.000000 0 0 1
-9.288204 -30.142319 29.632555 43.277228 1.271884 0.816584 0.044824 -0.007950 -295873.000000 0 0 1
-9.293104 -31.271519 30.741325 44.825202 1.281934 0.815088 0.032683 -0.004530 -956630.000000 0 0 1
-9.228704 -32.585019 30.261165 45.416853 1.294805 0.841563 0.051582 -0.003984 -478699.000000 0 0 1
-10.325304 -33.053319 29.553185 45.524988 1.268018 0.864311 0.034671 -0.001803 -679559.000000 0 0 1
-10.251204 34.035527 29.180275 45.989050 -1.278247 0.883429 0.050853 -0.005475 -170267.000000 0 0 1
-10.553904 33.132727 30.241705 46.083871 -1.262424 0.854982 0.051051 -0.005571 204672.000000 0 0 1
-10.144404 31.846427 29.870505 44.825784 -1.262417 0.841468 0.060683 -0.011218 -35721.200000 0 0 1
-10.541104 30.764127 30.847015 44.822814 -1.240691 0.811793 0.059292 -0.001290 631680.000000 0 0 1
-11.953504 30.541127 30.862725 45.035036 -1.197734 0.815774 0.037583 0.007625 641618.000000 0 0 1
-12.511104 29.380527 31.517275 44.867379 -1.168223 0.791957 0.031915 0.002806 123414.000000 0 0 1
-12.514304 29.258127 33.090617 45.908983 -1.166624 0.765859 0.043303 -0.003953 106908.000000 0 0 1
-13.459004 30.087127 33.795387 47.207077 -1.150161 0.772889 0.040155 0.008043 626779.000000 0 0 1
-13.534404 29.815327 -33.312355 46.710243 -1.144670 2.364807 0.047475 0.001898 -129014.000000 0 0 1
-14.943504 30.002427 -32.716825 46.838494 -1.108689 2.344100 0.030188 0.004023 -121464.000000 0 0 1
-15.008804 29.538327 -31.391385 45.642042 -1.100680 2.329214 0.027101 -0.002023 395909.000000 0 0 1
-16.279104 29.869727 -30.823235 45.905137 -1.071797 2.306967 0.033134 0.001985 441460.000000 0 0 1
-16.443304 29.234727 -29.439955 44.629166 -1.058439 2.291159 0.042915 -0.006813 -145499.000000 0 0 1
-16.664204 27.838727 -29.588505 43.910933 -1.031408 2.310176 0.036228 -0.013494 139933.000000 0 0 1
-16.727104 27.310827 -28.270925 42.719111 -1.021257 2.293995 0.038911 -0.012055 -376471.000000 0 0 1
-17.394204 25.961327 -28.067125 42.003718 -0.980487 2.302591 0.015118 -0.017913 -448172.000000 0 0 1
-18.778204 26.111227 -28.260215 42.814213 -0.947325 2.291703 0.016614 -0.015119 -468221.000000 0 0 1
-19.444604 24.886127 -28.115515 42.283497 -0.907536 2.298195 0.002108 -0.013807 -651296.000000 0 0 1
-20.929004 24.967927 -28.394945 43.216819 -0.873172 2.287675 0.035429 -0.010853 -769021.000000 0 0 1
-21.842104 25.185427 -27.351935 43.122054 -0.856372 2.257888 0.028023 -0.009598 -519279.000000 0 0 1
-23.151404 24.970527 -27.761665 43.934323 -0.823183 2.254786 0.026993 -0.019452 -992160.000000 0 0 1
-24.195604 25.066127 -26.690685 43.887705 -0.803068 2.224535 0.047229 -0.028518 -592676.000000 0 0 1
-24.471604 26.347527 -26.286725 44.542603 -0.822295 2.202038 0.026376 -0.009575 -208652.000000 0 0 1
-25.440334 26.444727 -25.262505 44.550290 -0.804754 2.173723 0.029274 -0.001725 -82536.400000 0 0 1
-25.093244 25.953127 -23.865335 43.275742 -0.802242 2.154923 0.026385 -0.003058 -620345.000000 0 0 1
-24.903004 24.546427 -23.757735 42.274302 -0.778187 2.167586 0.030841 -0.006560 560973.000000 0 0 1
-26.116554 23.763027 -23.639735 42.492269 -0.738249 2.160759 0.029608 -0.007905 599784.000000 0 0 1
-26.809004 23.826827 -22.259735 42.212986 -0.726572 2.126239 0.023454 -0.007493 -93917.000000 0 0 1
-26.048504 23.224427 -21.221535 40.844242 -0.728146 2.117147 0.019667 -0.011192 780329.000000 0 0 1
-25.083474 24.172027 -20.677935 40.509808 -0.766896 2.106496 0.029754 -0.006139 924964.000000 0 0 1
-24.186104 23.688527 -19.459935 39.048726 -0.775005 2.092491 0.031918 -0.012838 471223.000000 0 0 1
-24.817004 23.744027 -18.178235 38.860143 -0.763306 2.057581 0.032498 -0.017328 525413.000000 0 0 1
-23.881004 23.568627 -17.105535 37.661410 -0.778815 2.042262 0.039277 -0.023120 9004.970000 0 0 1
-24.549304 23.630827 -15.734735 37.532202 -0.766337 2.003397 0.036082 -0.021076 -196916.000000 0 0 1
-24.821404 24.971627 -15.363635 38.415173 -0.788415 1.982244 0.036804 -0.028786 -248225.000000 0 0 1
-25.300414 25.060327 -14.076735 38.292106 -0.780631 1.947239 0.004241 -0.025575 -231486.000000 0 0 1
-25.418314 26.485827 -13.610035 39.151280 -0.805962 1.925835 0.001564 -0.019507 -786445.000000 0 0 1
-24.210604 27.131427 -13.409235 38.756615 -0.842226 1.924086 0.028528 -0.023938 -915859.000000 0 0 1
-24.168404 28.102027 -12.430635 39.094198 -0.860512 1.894380 0.027387 -0.014849 691643.000000 0 0 1
-22.721504 28.565627 -11.989035 38.418729 -0.898858 1.888159 0.040281 -0.020196 1074270.000000 0 0 1
-21.876104 27.487027 -11.542435 36.977403 -0.898579 1.888250 0.036302 -0.025565 1018210.000000 0 0 1
-20.740204 28.066827 -10.839335 36.543043 -0.934400 1.871946 0.034956 -0.022943 427117.000000 0 0 1
-19.967904 26.983627 -10.145135 35.067892 -0.933726 1.864292 0.057972 -0.019593 -227720.000000 0 0 1
-19.307804 26.073727 -11.009835 34.261450 -0.933398 1.897949 0.054230 -0.028714 334761.000000 0 0 1
-18.629804 24.967127 -10.383235 32.836543 -0.929749 1.892528 0.062881 -0.016367 14850.200000 0 0 1
-18.057904 23.970627 -11.364435 32.090952 -0.925164 1.932782 0.053677 -0.019035 -242666.000000 0 0 1
-17.799604 22.664927 -10.840935 30.790431 -0.905060 1.930597 0.036435 -0.011553 28228.000000 0 0 1
-17.105104 21.855527 -11.748635 30.137668 -0.906728 1.971246 0.043979 -0.003889 158630.000000 0 0 1
-16.651004 20.463227 -11.225535 28.670755 -0.887755 1.973093 0.035144 0.003029 201392.000000 0 0 1
-17.796404 19.763227 -10.764435 28.690942 -0.837716 1.955394 0.031733 0.006530 294791.000000 0 0 1
-17.449104 18.450227 -10.305335 27.405876 -0.813278 1.956301 0.043564 -0.004796 -844363.000000 0 0 1
-18.644304 17.417627 -10.320935 27.522817 -0.751395 1.955188 0.035202 0.009081 318381.000000 0 0 1
-19.156404 16.970827 -11.555735 28.080452 -0.724975 1.994920 0.026865 0.006779 8764.540000 0 0 1
-19.641604 17.998027 -12.370135 29.372467 -0.741760 2.005506 0.025956 0.011216 -1457750.000000 0 0 1
-20.344704 17.522227 -13.597735 30.097073 -0.710999 2.039574 0.021704 0.008217 -580871.000000 0 0 1
-19.576304 17.028727 -14.651835 29.797407 -0.715914 2.084855 0.022530 0.003934 42994.400000 0 0 1
-20.428104 16.560927 -15.711035 30.633451 -0.681227 2.109323 0.034774 0.007382 493723.000000 0 0 1
-19.716704 16.405627 -17.069635 30.810151 -0.693991 2.157989 0.047192 0.000131 -179977.000000 0 0 1
-19.061204 17.564627 -17.559735 31.307984 -0.744560 2.166234 0.033292 -0.003192 456437.000000 0 0 1
-18.254704 17.221027 -18.703835 31.299064 -0.756269 2.211281 0.035291 0.000307 107645.000000 0 0 1
-17.284104 18.380527 -19.057035 31.618896 -0.816131 2.217690 0.023728 0.001521 129569.000000 0 0 1
-16.123404 18.487227 -18.222735 30.558301 -0.853590 2.209714 0.034002 -0.005568 -77091.100000 0 0 1
-15.365004 19.392727 -18.925935 31.150477 -0.900764 2.223787 0.036242 -0.006153 -566149.000000 0 0 1
32.966144 31.540327 1.868165 45.662336 0.763298 1.529872 0.060827 -0.000175 1115730.000000 0 0 1
34.331594 31.277327 1.471665 46.466066 0.738879 1.539119 0.069499 -0.001220 999524.000000 0 0 1
34.464854 31.556727 0.130165 46.729756 0.741378 1.568011 0.052922 0.004805 252521.000000 0 0 1
35.893934 31.271527 -0.426035 47.607399 0.716685 1.579745 0.030405 0.011247 41213.300000 0 0 1
-35.419174 32.128327 0.188365 47.820317 -0.736718 1.566857 0.017258 0.011143 -1054420.000000 0 0 1
-34.179055 31.943727 -0.420935 46.784470 -0.751605 1.579794 0.023893 0.015786 -1092920.000000 0 0 1
-33.291204 33.104527 -0.059035 46.949094 -0.782587 1.572054 0.021530 0.013165 -569927.000000 0 0 1
-32.674244 32.899127 1.206765 46.383349 -0.788828 1.544776 0.024282 0.005569 -16355.700000 0 0 1
-32.234354 34.080327 1.800265 46.944256 -0.813228 1.532438 0.015445 0.005231 -376249.000000 0 0 1
-31.299484 33.911927 2.987265 46.245002 -0.825438 1.506155 0.032825 0.013003 -445909.000000 0 0 1
-30.892494 -33.519119 3.580565 45.724151 0.826154 1.492408 0.030150 0.016248 105558.000000 0 0 1
-30.282994 -33.745819 4.849765 45.600003 0.839428 1.464240 0.029145 0.007705 -465416.000000 0 0 1
-30.073564 -32.484519 5.749265 44.639862 0.823919 1.441645 0.036157 0.003772 17203.300000 0 0 1
-31.168324 -31.930619 6.467965 45.087287 0.797479 1.426845 0.042976 -0.000385 390541.000000 0 0 1
-31.837024 -32.797919 7.382565 46.301208 0.800264 1.410666 0.040239 -0.020368 -759138.000000 0 0 1
-32.901284 -32.183019 8.355465 46.776650 0.774363 1.391208 0.055697 -0.022802 -545154.000000 0 0 1
-34.117193 -31.775619 7.879965 47.283894 0.749877 1.403363 0.062553 -0.018794 -922810.000000 0 0 1
-34.971197 -32.847119 7.572065 48.572153 0.754088 1.414265 0.061027 -0.019140 -157628.000000 0 0 1
35.746504 -32.636319 7.260165 48.945397 -0.739948 1.421915 0.058818 -0.013305 778336.000000 0 0 1
34.968194 -32.380719 8.386965 48.390358 -0.746998 1.396598 0.059616 -0.012568 -312204.000000 0 0 1
33.590684 -32.418619 8.134265 47.386361 -0.767644 1.398284 0.037883 -0.001479 -263601.000000 0 0 1
32.706864 -32.261619 9.392865 46.891118 -0.778545 1.369120 0.050602 -0.012765 699786.000000 0 0 1
31.314654 -32.486319 9.064665 46.023219 -0.803760 1.372542 0.049412 -0.014497 2219880.000000 0 0 1
30.371294 -32.457519 10.213565 45.609462 -0.818591 1.344946 0.063781 -0.011379 1038470.000000 0 0 1
30.265564 -31.179519 11.148765 44.860470 -0.800271 1.319643 0.073790 -0.010672 -351214.000000 0 0 1
29.596424 -30.033319 10.570165 43.470415 -0.792725 1.325176 0.058423 -0.016968 441964.000000 0 0 1
30.392534 -29.322619 9.646265 43.319425 -0.767483 1.346236 0.052643 -0.019696 -371019.000000 0 0 1
29.848814 -27.988619 9.297865 41.961468 -0.753247 1.347361 0.048484 -0.025764 -484067.000000 0 0 1
30.069614 -27.712719 7.964665 41.660682 -0.744632 1.378433 0.052281 -0.035097 4233.040000 0 0 1
29.467724 -26.481419 7.577065 40.336389 -0.732073 1.381827 0.051136 -0.034329 -103669.000000 0 0 1
29.738424 -26.030819 6.129865 39.994408 -0.719015 1.416922 0.045405 -0.020828 -218639.000000 0 0 1
31.075434 -25.773919 5.813565 40.789399 -0.692412 1.427783 0.051800 -0.022842 -637918.000000 0 0 1
31.082294 -24.939719 4.679765 40.124790 -0.676189 1.453900 0.046612 -0.014644 -397148.000000 0 0 1
32.423174 -24.338519 4.287465 40.767734 -0.643918 1.465433 0.059124 -0.020461 -134610.000000 0 0 1
33.352634 -25.302519 3.843465 42.040313 -0.649005 1.479245 0.051092 -0.008593 -267288.000000 0 0 1
34.691754 -24.895319 3.716265 42.861467 -0.622450 1.483983 0.048974 -0.011676 615122.000000 0 0 1
35.666084 -26.134219 3.795465 44.378740 -0.632368 1.485167 0.045181 -0.010385 192909.000000 0 0 1
35.452944 -26.904719 4.991965 44.784985 -0.649164 1.459099 0.034300 -0.009693 -291874.000000 0 0 1
-36.089694 -28.113819 4.839265 46.002949 0.661803 1.465407 0.035806 -0.010777 -1043480.000000 0 0 1
35.608604 -29.174019 5.787265 46.395997 -0.686397 1.445734 0.048710 -0.014007 -233762.000000 0 0 1
34.358904 -29.686619 5.437165 45.731744 -0.712575 1.451622 0.030706 -0.012161 -440975.000000 0 0 1
33.271544 -28.847319 5.764965 44.411691 -0.714296 1.440622 0.037461 -0.014578 -1295370.000000 0 0 1
31.899564 -29.513919 5.800665 43.844057 -0.746572 1.438105 0.040922 -0.013042 -348737.000000 0 0 1
31.385964 -29.913419 4.523265 43.593019 -0.761381 1.466848 0.018539 -0.013862 -668031.000000 0 0 1
30.388034 -29.073819 4.021965 42.248027 -0.763300 1.475453 0.027217 -0.010931 -640272.000000 0 0 1
29.077734 -29.869519 3.951465 41.872627 -0.798829 1.476287 0.037372 -0.011741 -458195.000000 0 0 1
29.142054 -31.128019 3.263565 42.765217 -0.818337 1.494409 0.041433 -0.006445 -585472.000000 0 0 1
27.923374 -31.835619 3.254965 42.471358 -0.850772 1.494082 0.058866 -0.005158 -411532.000000 0 0 1
27.891574 -33.276219 2.600965 43.497261 -0.873203 1.510965 0.064200 -0.000856 -238643.000000 0 0 1
27.830824 -33.329719 1.173065 43.437323 -0.875066 1.543787 0.062946 0.000482 220290.000000 0 0 1
27.580414 34.031527 0.647065 43.809163 0.889724 1.556026 0.066684 0.004764 -119601.000000 0 0 1
27.327024 34.094527 -0.864035 43.702970 0.895137 1.590568 0.060803 -0.001237 229493.000000 0 0 1
28.457524 -34.081919 -1.647935 44.431111 -0.875090 1.607895 0.059412 -0.001097 972868.000000 0 0 1
28.052564 -33.786819 -2.999635 44.016966 -0.877862 1.638996 0.059375 -0.005039 181842.000000 0 0 1
29.200714 -33.210719 -3.886735 44.393021 -0.849561 1.658461 0.055639 -0.007355 195444.000000 0 0 1
29.519034 -31.859019 -3.686735 43.588559 -0.823504 1.655478 0.037954 0.001932 -246035.000000 0 0 1
30.621504 -31.574719 -4.493635 44.213484 -0.800723 1.672607 0.038671 -0.002701 -463154.000000 0 0 1
30.945914 -30.078619 -4.500535 43.389259 -0.771187 1.674708 0.033200 0.005003 -641994.000000 0 0 1
29.965294 -29.256519 -5.072735 42.185251 -0.773431 1.691337 0.025018 0.000369 -26879.100000 0 0 1
30.245204 -27.860119 -4.875535 41.409292 -0.744374 1.688810 0.024152 -0.007492 272080.000000 0 0 1
31.303864 -27.251619 -5.836735 41.912410 -0.716305 1.710511 0.027599 -0.011256 145979.000000 0 0 1
32.635864 -27.690919 -5.653035 43.172253 -0.703612 1.702115 0.034003 -0.004239 181952.000000 0 0 1
33.533524 -27.105619 -6.608335 43.622035 -0.679790 1.722873 0.039965 -0.009457 245366.000000 0 0 1
33.609064 -27.855219 -8.011035 44.380842 -0.692057 1.752298 0.036489 -0.011788 -555567.000000 0 0 1
32.400884 -27.822319 -8.753535 43.594990 -0.709518 1.772963 0.024860 -0.008892 18279.400000 0 0 1
32.285664 -28.851919 -9.732635 44.379292 -0.729293 1.791899 0.015074 0.001136 56958.700000 0 0 1
32.221834 -30.367219 -9.275935 45.237789 -0.755775 1.777309 0.010414 -0.001663 491681.000000 0 0 1
33.446394 -30.966319 -8.824435 46.426769 -0.746914 1.762032 0.018330 0.003099 2442.950000 0 0 1
33.218154 -32.115919 -8.066035 46.903507 -0.768529 1.743626 0.027108 -0.001356 466956.000000 0 0 1
34.480874 -32.841419 -7.499135 48.205047 -0.761051 1.726998 0.026074 0.000306 366586.000000 0 0 1
34.268124 -34.095719 -6.937035 48.835897 -0.782876 1.713326 0.029947 -0.007586 -270473.000000 0 0 1
33.755504 -34.129619 -5.634935 48.332365 -0.790909 1.687649 0.030510 -0.000623 -12059.700000 0 0 1
33.741154 33.038527 -5.020035 47.489056 0.774877 1.676703 0.025683 -0.003436 755312.000000 0 0 1
32.586144 32.314327 -5.521435 46.222924 0.781210 1.690535 0.049120 -0.021487 930339.000000 0 0 1
32.638154 30.927127 -5.256635 45.269951 0.758487 1.687176 0.040527 -0.009382 -264031.000000 0 0 1
31.276634 30.328327 -5.602035 43.925141 0.770006 1.698681 0.055979 -0.019939 -452561.000000 0 0 1
30.984414 30.192927 -6.988235 43.823306 0.772461 1.730944 0.041005 -0.023982 -701619.000000 0 0 1
29.730324 29.667827 -7.243035 42.620813 0.784346 1.741566 0.028274 -0.021130 -814306.000000 0 0 1
29.511664 29.193127 -8.688935 42.410784 0.779972 1.777133 0.034300 -0.022902 -473860.000000 0 0 1
30.185624 28.009827 -9.080535 42.168453 0.748028 1.787836 0.046218 -0.024879 27193.200000 0 0 1
30.504124 28.043627 -10.502235 42.746269 0.743397 1.819025 0.038372 -0.024908 -19328.300000 0 0 1
31.832844 28.743727 -10.811635 44.231473 0.734447 1.817731 0.067469 -0.026799 -1154040.000000 0 0 1
32.981074 28.066327 -10.338735 44.523695 0.705064 1.805143 0.055079 -0.026861 256981.000000 0 0 1
34.208944 28.424927 -10.946435 45.804506 0.693313 1.812113 0.063872 -0.023580 394349.000000 0 0 1
34.723134 29.830127 -10.479935 46.961277 0.709745 1.795853 0.049218 -0.027093 -1029350.000000 0 0 1
35.101574 29.795527 -9.070235 46.927210 0.703819 1.765304 0.042817 -0.020241 -19306.400000 0 0 1
35.074954 31.089027 -8.550835 47.643434 0.725228 1.751250 0.038979 -0.018267 -1122270.000000 0 0 1
-36.044654 31.397327 -7.535835 48.392127 -0.716598 1.727157 0.034384 -0.008328 -137210.000000 0 0 1
-34.735378 31.511427 -8.012235 47.578487 -0.736771 1.740003 0.040590 -0.005124 -716806.000000 0 0 1
-34.141340 30.296927 -8.283435 46.391272 -0.725808 1.750315 0.041265 -0.011901 -2073070.000000 0 0 1
-32.712324 30.462027 -8.765435 45.550676 -0.749793 1.764437 0.040402 -0.005811 -1112080.000000 0 0 1
-32.007704 30.966627 -7.682735 45.193467 -0.768868 1.741623 0.014383 -0.003061 1211400.000000 0 0 1
-30.569434 31.193027 -7.854335 44.375509 -0.795494 1.748731 0.027731 -0.015354 2008140.000000 0 0 1
-30.099684 32.494327 -8.619935 45.124001 -0.823636 1.763005 0.003110 -0.009164 -158123.000000 0 0 1
-30.121514 33.781727 -8.041335 45.969269 -0.842613 1.746629 -0.008214 0.006081 242448.000000 0 0 1
-29.158394 33.990927 -6.990235 45.326134 -0.861775 1.725635 0.008528 0.004184 395746.000000 0 0 1
-29.144164 -33.185319 -6.387835 44.625689 0.850143 1.714432 0.004853 0.014372 277505.000000 0 0 1
-30.245054 -32.774619 -5.581335 44.945414 0.825516 1.695298 -0.000709 0.011908 27228.400000 0 0 1
-30.034794 -33.060419 -4.241035 44.867210 0.833315 1.665462 -0.005891 0.008690 63330.300000 0 0 1
-31.275954 -32.968819 -3.320835 45.564858 0.811742 1.643742 0.006301 0.007267 -84556.900000 0 0 1
-31.430164 -31.676919 -2.786435 44.710699 0.789308 1.633158 0.027729 0.006115 -498052.000000 0 0 1
-32.488974 -31.711519 -1.892135 45.439345 0.773289 1.612449 0.024959 0.007446 -374838.000000 0 0 1
-33.179764 -30.328819 -1.683235 44.984078 0.740538 1.608224 0.038830 0.009209 -148403.000000 0 0 1
-34.232517 -30.284819 -0.775135 45.712540 0.724286 1.587754 0.040455 0.016524 -700054.000000 0 0 1
-34.677348 -28.969219 -0.508235 45.188410 0.695953 1.582044 0.053042 0.006593 -14601.400000 0 0 1
-35.655979 -28.853619 0.665865 45.872906 0.680339 1.556280 0.046646 0.004443 -65608.600000 0 0 1
35.376184 -29.567119 0.434165 46.107239 -0.696187 1.561380 0.029723 0.011753 241811.000000 0 0 1
34.398974 -29.628519 1.460965 45.423265 -0.711029 1.538627 0.023643 0.003803 656377.000000 0 0 1
33.493814 -28.357819 1.556765 43.913836 -0.702551 1.535338 0.016132 0.006459 51004.900000 0 0 1
32.425864 -28.333819 0.587465 43.064917 -0.718152 1.557155 0.013324 0.005031 496430.000000 0 0 1
31.691034 -27.123319 0.657065 41.718435 -0.707890 1.555046 0.012024 0.003928 -19629.300000 0 0 1
30.412894 -27.124219 -0.228235 40.751926 -0.728303 1.576397 0.012737 -0.010995 561910.000000 0 0 1
29.442164 -28.053919 0.359265 40.669307 -0.761258 1.561962 0.015421 -0.002129 626790.000000 0 0 1
29.443714 -29.391819 -0.050735 41.603052 -0.784516 1.572016 0.014937 0.006180 -283023.000000 0 0 1
28.867454 -29.638119 -1.479035 41.399705 -0.798570 1.606530 0.028006 -0.003840 1929440.000000 0 0 1
27.422844 -29.438219 -1.718135 40.268761 -0.820827 1.613476 0.036873 0.004993 2130220.000000 0 0 1
27.097994 -29.916919 -3.012935 40.477168 -0.834800 1.645301 0.030879 0.008358 -209204.000000 0 0 1
25.606394 -30.205019 -3.225935 39.729552 -0.867608 1.652083 0.033412 0.004450 -13162.500000 0 0 1
24.747594 -29.088919 -3.268735 38.331362 -0.865863 1.656176 0.041353 0.009411 848072.000000 0 0 1
23.392294 -29.553519 -3.486835 37.851921 -0.901246 1.663045 0.045706 0.002753 1554780.000000 0 0 1
22.306194 -28.423719 -3.590235 36.309281 -0.905409 1.669837 0.056044 0.002547 426626.000000 0 0 1
22.384594 -27.775019 -4.838035 35.999005 -0.892453 1.705598 0.056672 0.004731 -35335.100000 0 0 1
21.801294 -26.496419 -4.703535 34.633508 -0.882306 1.707026 0.060481 -0.008408 -160072.000000 0 0 1
21.417294 -25.842319 -6.049835 34.104640 -0.878758 1.749130 0.063768 -0.027910 -1071860.000000 0 0 1
20.094494 -26.078619 -6.327535 33.524928 -0.914282 1.760676 0.068706 -0.029947 -1522720.000000 0 0 1
19.640294 -25.520519 -7.551535 33.076634 -0.914876 1.801132 0.081400 -0.029474 1330020.000000 0 0 1
18.078594 -25.805719 -7.603435 32.412697 -0.959691 1.807585 0.071872 -0.025358 1264460.000000 0 0 1
17.353994 -25.017419 -6.675135 31.170335 -0.964327 1.786618 0.069539 -0.026948 -667537.000000 0 0 1
15.981894 -25.260319 -6.818035 30.659261 -1.006688 1.795052 0.064891 -0.026133 -212006.000000 0 0 1
15.202594 -24.328019 -5.837835 29.275446 -1.012268 1.771553 0.055978 -0.017097 -94100.100000 0 0 1
15.148094 -24.847919 -4.512535 29.449055 -1.023324 1.724634 0.041254 -0.004870 -4861.630000 0 0 1
14.571194 -23.998319 -3.574035 28.302169 -1.025117 1.697416 0.041168 -0.008009 -189488.000000 0 0 1
14.526694 -24.741519 -2.233435 28.777697 -1.039888 1.648484 0.041350 -0.004730 277428.000000 0 0 1
13.676594 -25.887719 -2.224935 29.362792 -1.084762 1.646643 0.035339 0.000310 583344.000000 0 0 1
14.431794 -26.956719 -1.679235 30.622887 -1.079255 1.625660 0.037581 -0.002625 -93664.200000 0 0 1
13.823994 -28.354319 -1.893235 31.601496 -1.117163 1.630742 0.035023 0.007427 169364.000000 0 0 1
12.672294 -28.436719 -1.052235 31.150301 -1.151581 1.604582 0.042565 -0.004088 462078.000000 0 0 1
11.957694 -29.714619 -1.125235 32.050136 -1.188207 1.605912 0.037286 -0.005160 28974.000000 0 0 1
12.666494 -31.016419 -0.688835 33.510190 -1.183087 1.591354 0.032101 -0.002533 -211800.000000 0 0 1
13.717894 -31.299719 -1.597235 34.211171 -1.157735 1.617501 0.036776 0.002421 116804.000000 0 0 1
14.346394 -32.613119 -1.421135 35.657457 -1.156376 1.610662 0.033599 -0.001206 -791252.000000 0 0 1
15.776394 -32.665119 -1.865135 36.323317 -1.120862 1.622167 0.037236 0.002918 -760332.000000 0 0 1
16.618894 -31.859219 -1.026235 35.947888 -1.089991 1.599348 0.037710 0.013503 -118153.000000 0 0 1
17.955594 -31.901219 -1.468635 36.636704 -1.058141 1.610894 0.049678 0.008438 -265646.000000 0 0 1
18.782994 -30.809419 -0.776235 36.091879 -1.023311 1.592305 0.053040 0.011691 -301313.000000 0 0 1
18.594994 -29.559819 -1.403335 34.950337 -1.009281 1.610959 0.044896 0.005675 202628.000000 0 0 1
18.844194 -28.448419 -0.542035 34.127848 -0.985754 1.586679 0.047176 0.005169 41071.300000 0 0 1
18.339094 -27.152419 -1.208735 32.787761 -0.976763 1.607670 0.038433 0.002263 45323.100000 0 0 1
19.063994 -26.977919 -2.398835 33.120966 -0.955620 1.643286 0.049819 -0.008298 111818.000000 0 0 1
18.376794 -26.084719 -3.170935 32.065152 -0.957054 1.669849 0.060264 -0.001512 -302561.000000 0 0 1
32.583504 -29.519019 13.878065 46.104858 -0.736093 1.265044 0.075806 -0.020301 165607.000000 0 0 1
33.391894 -30.120119 14.848965 47.357491 -0.733929 1.251867 0.080679 -0.009374 -469291.000000 0 0 1
32.621334 -30.591719 15.878065 47.456482 -0.753302 1.229635 0.074926 -0.003425 -583739.000000 0 0 1
33.441464 -31.002219 17.087765 48.697647 -0.747565 1.212270 0.071932 -0.000971 -853473.000000 0 0 1
32.761354 -31.500519 18.225465 48.966893 -0.765780 1.189418 0.065784 -0.004293 -399938.000000 0 0 1
33.499004 -31.979119 19.309265 50.176639 -0.762190 1.175777 0.046827 -0.004929 -159551.000000 0 0 1
34.238364 -33.389719 19.074765 51.487723 -0.772850 1.191279 0.039660 0.000599 612161.000000 0 0 1
35.280184 -33.313119 18.078965 51.781312 -0.756729 1.214142 0.049076 0.010494 376403.000000 0 0 1
35.952114 34.031827 18.038765 52.688868 0.757966 1.221365 0.030685 0.002781 11797.000000 0 0 1
-35.238483 34.091027 16.890365 51.857817 -0.768849 1.239039 0.047775 0.002240 -602474.000000 0 0 1
-34.198010 -33.691019 17.238265 51.007317 0.777930 1.226051 0.044659 0.008530 -773980.000000 0 0 1
-33.293724 -33.422019 16.202365 49.880057 0.787321 1.239968 0.058996 0.002579 -50404.600000 0 0 1
-31.959404 -32.797619 16.709165 48.747139 0.798341 1.220930 0.039952 0.000706 593450.000000 0 0 1
-30.848924 -32.774519 15.829665 47.711671 0.815654 1.232609 0.047541 -0.005966 55042.000000 0 0 1
-30.932854 -31.882319 14.782165 46.817050 0.800512 1.249557 0.054011 -0.000531 -1169140.000000 0 0 1
-29.628164 -31.751219 14.015465 45.633335 0.819973 1.258618 0.035056 -0.006861 -369958.000000 0 0 1
-28.650434 -31.167519 14.848765 44.863654 0.827452 1.233459 0.046185 -0.011505 -325032.000000 0 0 1
-27.366574 -31.266419 14.298465 43.942740 0.851813 1.239374 0.031614 -0.004667 332979.000000 0 0 1
-26.098074 -30.718519 15.006065 43.010683 0.866542 1.214408 0.036194 -0.009223 5410.950000 0 0 1
-25.032584 -30.731819 14.154365 42.088253 0.887247 1.227809 0.036869 -0.003181 -1644140.000000 0 0 1
-23.856404 -30.176119 14.671065 41.169969 0.901830 1.206434 0.037696 -0.002874 -273902.000000 0 0 1
-22.773504 -30.179219 13.570365 40.169299 0.924352 1.226187 0.032280 0.001563 -205078.000000 0 0 1
-22.345704 -31.453819 13.231365 40.788997 0.953105 1.240434 0.020864 0.002579 272704.000000 0 0 1
-21.135304 -31.394419 12.467765 39.846654 0.978272 1.252558 0.011625 0.001158 824585.000000 0 0 1
-20.603704 -32.864519 12.243165 40.675353 1.010811 1.265058 0.015898 0.001360 -240441.000000 0 0 1
-21.425504 -33.534019 11.361165 41.384281 1.002251 1.292697 0.016157 0.003271 -257295.000000 0 0 1
-21.118304 33.728527 11.234565 41.349870 -1.011388 1.295642 0.027459 0.015163 28865.700000 0 0 1
-22.025504 33.054927 10.183565 41.005560 -0.983027 1.319824 0.012741 0.025460 -101456.000000 0 0 1
-21.751004 33.368927 8.790965 40.790593 -0.993133 1.353578 0.010382 0.024821 255852.000000 0 0 1
-22.963804 33.253127 8.038665 41.203481 -0.966423 1.374440 0.011097 0.021813 -39080.200000 0 0 1
-23.050604 33.847027 6.603965 41.479681 -0.972920 1.410906 0.022159 0.015288 -584942.000000 0 0 1
-22.347804 33.265527 5.540265 40.456324 -0.979248 1.433420 0.018095 0.017793 677389.000000 0 0 1
-20.929904 33.089027 5.635465 39.556327 -1.006798 1.427843 0.022177 0.016933 732516.000000 0 0 1
-19.941704 34.261427 5.390665 40.007202 -1.043683 1.435643 0.025142 0.013750 -145970.000000 0 0 1
-20.017804 -33.268019 6.309965 39.335598 1.029118 1.409687 0.023177 0.006523 190269.000000 0 0 1
-19.493304 -33.571819 7.629965 39.563522 1.044730 1.376727 0.022271 0.009627 -379508.000000 0 0 1
-19.276504 -32.363419 8.556365 38.628822 1.033599 1.347442 0.021638 0.000076 316698.000000 0 0 1
-18.276604 -31.448719 8.029865 37.249630 1.044348 1.353522 0.039515 -0.005276 558614.000000 0 0 1
-18.077704 -30.192419 8.710465 36.252693 1.031297 1.328151 0.038051 -0.006496 -60.881500 0 0 1
-17.839004 -30.206919 10.244465 36.546369 1.037347 1.286675 0.021135 0.003645 537225.000000 0 0 1
-16.569504 -30.833819 10.433365 36.525717 1.077693 1.281118 0.026366 -0.002051 134181.000000 0 0 1
-16.115404 -30.927819 11.750565 36.800979 1.090439 1.245805 0.029125 -0.006132 184502.000000 0 0 1
-14.715204 -31.603519 11.909465 36.839585 1.135030 1.241604 0.037587 -0.007070 368469.000000 0 0 1
-13.794904 -30.780019 11.254565 35.558040 1.149459 1.248746 0.038730 -0.001676 309635.000000 0 0 1
-12.627804 -31.497519 10.747465 35.595831 1.189502 1.264079 0.030001 0.008226 1116620.000000 0 0 1
-11.581404 -30.571719 10.085865 34.212331 1.208674 1.271548 0.040047 0.012512 -112449.000000 0 0 1
-10.948004 -29.765419 11.040965 33.581868 1.218345 1.235787 0.042254 0.004793 -246526.000000 0 0 1
-9.961804 -28.958919 10.389765 32.338889 1.239479 1.243718 0.042175 0.005878 891352.000000 0 0 1
-9.005304 -28.250819 11.407165 31.769918 1.262216 1.203541 0.037566 0.015891 408088.000000 0 0 1
-9.725004 -27.296719 12.122165 31.410722 1.228547 1.174587 0.043351 -0.001974 -387981.000000 0 0 1
-9.064604 -26.965119 13.285065 31.397096 1.246504 1.133899 0.036201 -0.001373 -80154.900000 0 0 1
-9.548104 -25.606219 13.801665 30.615857 1.213884 1.103134 0.026446 -0.011024 198936.000000 0 0 1
-9.097904 -24.492819 13.034565 29.198800 1.215140 1.108050 0.023427 -0.010944 227900.000000 0 0 1
-9.744304 -24.354919 11.740765 28.739504 1.190207 1.149960 0.028640 -0.012309 107945.000000 0 0 1
-9.229704 -23.111519 10.989365 27.204704 1.190846 1.154965 0.021586 -0.017506 769238.000000 0 0 1
-7.907004 -23.241419 10.443865 26.678804 1.242868 1.168571 0.009350 -0.014732 275019.000000 0 0 1
-7.491804 -21.965719 10.079565 25.302521 1.242101 1.161066 0.010256 -0.009449 61846.300000 0 0 1
-6.156504 -21.854819 9.312065 24.540787 1.296212 1.181592 0.016621 -0.006208 168534.000000 0 1 0
-4.972804 -22.098219 10.036165 24.774678 1.349452 1.153711 0.015285 -0.007462 -605789.000000 0 1 0
-3.936804 -22.299519 9.113765 24.409582 1.396055 1.188159 0.020992 -0.004182 -267239.000000 0 1 0
-2.884804 -23.290019 9.620865 25.363520 1.447560 1.181736 0.033309 -0.004672 -187180.000000 0 0 1
-2.088704 -22.802819 10.646765 25.252423 1.479453 1.135572 0.030002 0.001914 -1388980.000000 0 0 1
-0.965804 -23.551419 10.896165 25.967837 1.529811 1.137789 0.038217 -0.009007 -334092.000000 0 0 1
-0.095604 -22.851819 11.969365 25.796909 1.566613 1.088308 0.041602 -0.006079 -214636.000000 0 0 1
-0.787204 -22.744319 13.207565 26.312802 1.536199 1.044951 0.028747 0.000074 254404.000000 0 0 1
-0.025304 -22.340119 14.394465 26.575970 1.569664 0.998416 0.050565 -0.005016 379299.000000 0 0 1
0.603596 -20.905419 14.420165 25.403583 -1.541932 0.967156 0.045448 -0.010160 81132.500000 0 0 1
1.737596 -20.829619 13.593565 24.933457 -1.487570 0.994176 0.067893 -0.014645 -493012.000000 0 1 0
2.062596 -19.504319 13.267465 23.679071 -1.465437 0.976044 0.059142 -0.016169 1076620.000000 0 1 0
3.619896 -19.364019 13.017565 23.611986 -1.385990 0.986861 0.063546 -0.013959 1148880.000000 0 1 0
4.026296 -20.061619 11.885465 23.663134 -1.372731 1.044565 0.063660 -0.007171 -1057670.000000 0 1 0
5.405596 -20.040519 11.696665 23.825509 -1.307333 1.057639 0.076559 -0.016257 -338362.000000 0 1 0
5.885996 -20.919519 10.536265 24.151276 -1.296523 1.119357 0.078809 -0.022027 -271842.000000 0 1 0
5.576796 -20.427919 9.225565 23.097870 -1.304292 1.159921 0.066280 -0.020212 -315121.000000 0 1 0
5.814196 -21.416219 8.245265 23.673693 -1.305700 1.215052 0.062962 -0.023365 739505.000000 0 1 0
7.314796 -21.751119 7.886265 24.265420 -1.246382 1.239784 0.063159 -0.019163 923435.000000 0 1 0
8.108796 -20.803319 7.136165 23.440468 -1.199128 1.261448 0.060984 -0.024894 177835.000000 0 1 0
8.511496 -19.588219 7.765665 22.725524 -1.160889 1.222055 0.066923 -0.022282 -263074.000000 0 1 0
9.609696 -19.726319 8.804565 23.643060 -1.117481 1.189208 0.068422 -0.024118 -352106.000000 0 1 0
9.100296 -20.059919 10.059265 24.215792 -1.144906 1.142413 0.090777 -0.029711 -1256960.000000 0 1 0
10.050996 -19.837719 10.999465 24.810197 -1.101834 1.111470 0.087154 -0.022534 -456554.000000 0 1 0
9.468296 -19.965619 12.425765 25.351020 -1.127976 1.058536 0.084066 -0.016011 41942.200000 0 0 1
9.245196 -21.294419 12.911665 26.563830 -1.161192 1.063218 0.076675 -0.019678 -420615.000000 0 0 1
8.734196 -21.299419 14.183465 27.039270 -1.181641 1.018609 0.079146 -0.020830 -26096.600000 0 0 1
8.729396 -22.687219 14.907865 28.515903 -1.203486 1.020674 0.079451 -0.022058 15456.400000 0 0 1
8.089596 -23.656119 14.128765 28.717165 -1.241296 1.056414 0.088086 -0.024726 -319738.000000 0 0 1
7.943396 -24.822319 14.876265 30.009138 -1.261084 1.052127 0.092385 -0.020865 344266.000000 0 0 1
7.664496 -26.048619 13.978565 30.539734 -1.284634 1.095370 0.089397 -0.028509 570301.000000 0 0 1
8.867896 -26.494919 13.368565 30.973196 -1.247815 1.124511 0.078710 -0.015808 261034.000000 0 0 1
8.644596 -27.678219 12.685565 31.650220 -1.268071 1.158401 0.060609 -0.008933 145565.000000 0 0 1
9.925096 -28.181619 11.976765 32.189348 -1.232178 1.189556 0.040911 -0.007372 -1298.390000 0 0 1
10.891296 -28.775519 12.782365 33.317258 -1.208968 1.177044 0.032266 -0.007363 -785973.000000 0 0 1
12.043396 -29.111619 12.098765 33.747739 -1.178538 1.204129 0.031176 -0.008112 -21650.000000 0 0 1
13.065896 -29.991319 12.915965 35.171281 -1.159935 1.194767 0.024969 -0.011455 -482441.000000 0 0 1
13.692496 -29.291819 13.995165 35.232936 -1.133525 1.162313 0.028198 -0.009148 787638.000000 0 0 1
14.668696 -30.129119 14.678065 36.583877 -1.117715 1.157951 0.041787 -0.008045 1474060.000000 0 0 1
15.988696 -30.426119 13.859965 37.060569 -1.086963 1.187498 0.039533 -0.003126 -409717.000000 0 0 1
16.732196 -29.264319 13.630265 36.361393 -1.051400 1.186556 0.034515 -0.009949 -1296800.000000 0 0 1
17.937596 -29.496019 13.056265 36.908516 -1.024416 1.209223 0.030963 -0.012249 -1556030.000000 0 0 1
18.733496 -28.189719 12.955065 36.241383 -0.984260 1.205243 0.014305 -0.017475 281557.000000 0 0 1
20.046896 -28.401819 12.440465 36.922982 -0.956167 1.227142 0.004238 -0.016473 714678.000000 0 0 1
20.832996 -27.207019 12.425665 36.450416 -0.917309 1.222930 0.000206 -0.013106 310964.000000 0 0 1
22.230096 -27.353019 11.787865 37.166095 -0.888353 1.248055 0.010702 -0.015368 -181629.000000 0 0 1
23.202496 -28.014419 12.547065 38.478466 -0.879075 1.238642 0.019399 -0.020274 -26333.500000 0 0 1
24.297296 -28.277219 11.690165 39.071981 -0.860955 1.266947 0.024219 -0.025215 -1122350.000000 0 0 1
25.498496 -28.944319 12.289565 40.484322 -0.848606 1.262366 0.047370 -0.024262 -793394.000000 0 0 1
26.385196 -28.159519 13.051265 40.736625 -0.817916 1.244664 0.036587 -0.019132 228980.000000 0 0 1
27.539396 -27.901619 12.250565 41.073045 -0.791932 1.267924 0.031682 -0.019059 -540316.000000 0 0 1
28.747496 -27.366619 13.015665 41.770300 -0.760795 1.253919 0.061435 -0.023937 -464376.000000 0 0 1
28.764996 -25.998619 13.345365 41.005512 -0.734926 1.239306 0.071002 -0.019121 -129667.000000 0 0 1
28.036996 -25.654419 14.497665 40.674374 -0.741052 1.206350 0.060018 -0.019584 -422276.000000 0 0 1
28.905096 -25.569519 15.815565 41.706558 -0.724243 1.181853 0.053737 -0.007403 14920.500000 0 0 1
29.345296 -26.805819 16.370565 42.984809 -0.740203 1.180086 0.076102 -0.005757 313862.000000 0 0 1
29.825896 -26.626719 17.744265 43.742716 -0.728789 1.153106 0.081670 0.012311 220541.000000 0 0 1
30.173496 -28.044619 18.307565 45.078903 -0.748847 1.152589 0.073596 0.016843 425165.000000 0 0 1
28.983696 -28.774319 18.556665 44.859402 -0.781773 1.144323 0.045441 0.015871 537212.000000 0 0 1
29.348996 -29.877619 19.401765 46.156952 -0.794323 1.136973 0.057225 0.003109 753974.000000 0 0 1
28.053596 -30.576919 19.912265 46.026629 -0.828409 1.123394 0.039436 0.007265 -226075.000000 0 0 1
27.216596 -29.784219 20.774865 45.381030 -0.830413 1.095291 0.050300 0.008998 939378.000000 0 0 1
26.173296 -30.535419 21.420465 45.566321 -0.862169 1.081399 0.049275 0.002924 568600.000000 0 0 1
25.025596 -31.104519 20.571365 44.910496 -0.893278 1.094993 0.064885 0.000459 -1256480.000000 0 0 1
25.384196 -32.213619 19.814965 45.548958 -0.903418 1.120730 0.059863 -0.000041 -110770.000000 0 0 1
24.605496 -32.550619 18.668265 44.871788 -0.923520 1.141715 0.062271 0.000526 -323654.000000 0 0 1
24.844496 -31.514519 17.492165 43.776589 -0.903199 1.159740 0.053948 -0.003249 79649.700000 0 0 1
26.106996 -31.685819 16.856965 44.381569 -0.881631 1.181196 0.071495 -0.015124 227257.000000 0 0 1
26.358696 -30.614319 15.962465 43.437515 -0.859955 1.194497 0.059554 -0.026653 -85914.400000 0 0 1
27.839396 -30.576919 15.526965 44.170880 -0.832226 1.211602 0.072530 -0.015514 139711.000000 0 0 1
28.292496 -31.607619 14.628565 44.872061 -0.840686 1.238721 0.094524 -0.016459 353400.000000 0 0 1
28.659596 -32.833819 15.163865 46.145151 -0.853175 1.235962 0.098763 -0.021897 87847.000000 0 0 1
27.832896 -33.992219 14.488365 46.260716 -0.884695 1.252247 0.100696 -0.019327 405646.000000 0 0 1
28.275896 -34.194019 13.156265 46.280067 -0.879852 1.282546 0.105138 -0.012733 924381.000000 0 0 1
27.365396 33.539627 12.440265 45.039224 0.886428 1.290948 0.092912 -0.017667 450852.000000 0 0 1
27.766496 33.244227 10.982865 44.685347 0.874941 1.322470 0.094398 -0.018558 -35799.100000 0 0 1
29.026196 32.609027 10.892165 44.994533 0.843462 1.326290 0.087509 -0.012851 161779.000000 0 0 1
29.318296 31.890527 9.712665 44.394865 0.827397 1.350233 0.083034 -0.020764 499616.000000 0 0 1
30.813496 31.431127 9.746165 45.081870 0.795320 1.352888 0.066135 -0.018940 657251.000000 0 0 1
31.187896 30.508627 10.772165 44.938855 0.774389 1.328732 0.047376 -0.009217 -120616.000000 0 0 1
32.569996 30.351327 10.970265 45.851438 0.750152 1.329196 0.055520 -0.008996 6364.460000 0 0 1
32.934396 29.369727 12.103965 45.757636 0.728246 1.303087 0.047883 -0.000790 -56797.100000 0 0 1
32.561396 28.037227 11.857765 44.575074 0.710878 1.301537 0.044243 -0.011194 61301.100000 0 0 1
32.897696 27.256627 12.949165 44.641494 0.691895 1.276496 0.040560 -0.019408 -115853.000000 0 0 1
32.717596 25.714927 12.797865 43.537156 0.666125 1.272437 0.033964 -0.014675 97118.700000 0 0 1
33.672896 25.102427 11.947165 43.666126 0.640601 1.293660 0.037589 -0.004840 -464280.000000 0 0 1
33.525896 23.730527 11.900965 42.763964 0.615960 1.288779 0.035083 -0.002246 -182038.000000 0 0 1
32.436296 23.153027 10.965365 41.332980 0.619928 1.302288 0.022869 0.000816 350369.000000 0 0 1
31.203796 23.102527 11.662365 40.539048 0.637313 1.278990 0.032399 0.005291 -423756.000000 0 0 1
30.123696 22.717427 10.852865 39.259435 0.646144 1.290709 0.037834 0.007806 -173058.000000 0 0 1
28.955896 22.235627 11.735265 38.348187 0.654868 1.259788 0.046585 0.012312 19766.400000 0 0 1
28.422096 23.248627 12.598365 38.820523 0.685607 1.240283 0.051991 0.008396 -265481.000000 0 0 1
27.394696 22.850527 13.444665 38.123155 0.695204 1.210380 0.070957 0.005013 -202518.000000 0 0 1
24.177196 9.198127 25.835445 36.559712 0.363537 0.786024 0.002346 -0.002333 -279487.000000 0 0 1
23.832896 7.907527 26.276045 36.345102 0.320361 0.762720 0.002519 -0.010208 1513880.000000 0 0 1
22.404396 7.898327 26.563305 35.636354 0.338931 0.729663 0.022322 -0.014223 1222580.000000 0 0 1
21.839196 6.667027 27.299295 35.590044 0.296292 0.696568 0.041324 -0.024630 -134211.000000 0 0 1
22.255596 6.543527 28.666385 36.876699 0.285959 0.680342 0.041329 -0.029413 3380.610000 0 0 1
23.574096 6.087327 28.833155 37.737838 0.252701 0.701247 0.038171 -0.024532 -319214.000000 0 0 1
23.977096 5.798427 30.320525 39.087813 0.237276 0.682968 0.045915 -0.033797 -273510.000000 0 0 1
23.968596 7.024127 31.017375 39.823480 0.285073 0.677932 0.045962 -0.025163 217144.000000 0 0 1
24.076596 6.789227 32.452677 40.975021 0.274848 0.656700 0.048226 -0.026663 -298545.000000 0 0 1
23.808596 8.067527 33.270669 41.699780 0.326707 0.647056 0.055001 -0.015576 -410476.000000 0 0 1
24.866396 8.977927 33.186373 42.429662 0.346482 0.672687 0.044849 -0.018369 -228284.000000 0 0 1
25.081296 9.599927 -34.053775 43.369224 0.365550 2.473825 0.048671 -0.012842 -202569.000000 0 0 1
26.151096 10.676127 -33.882035 44.111810 0.387596 2.446656 0.034023 -0.007945 -336290.000000 0 0 1
25.710896 11.942127 34.171301 44.399802 0.434828 0.692539 0.028871 -0.011166 439395.000000 0 0 1
26.059296 12.968127 -33.379485 44.288252 0.461757 2.424451 0.031779 -0.008463 -361015.000000 0 0 1
25.601896 14.344927 -33.868065 44.813835 0.510722 2.427595 0.039783 -0.007238 -348211.000000 0 0 1
26.517596 14.924227 33.722866 45.421880 0.512621 0.734096 0.031812 -0.013315 271590.000000 0 0 1
26.232996 16.301127 33.533866 45.589659 0.556005 0.744305 0.042541 -0.006938 -92696.700000 0 0 1
26.813496 17.283227 -33.870435 46.528270 0.572550 2.386129 0.031610 -0.012531 -362566.000000 0 0 1
26.299196 17.170027 -32.567945 45.245205 0.578392 2.374325 0.031369 -0.017445 149644.000000 0 0 1
27.149096 16.534927 -31.592695 44.817135 0.547041 2.353113 0.018713 -0.016311 -242515.000000 0 0 1
26.378696 16.098527 -30.342255 43.308782 0.547948 2.347038 0.019470 -0.011169 -171989.000000 0 0 1
25.727296 14.916827 -30.698925 42.741426 0.525438 2.372077 0.033938 0.000310 -444778.000000 0 0 1
24.926896 14.433027 -29.664905 41.348144 0.524846 2.370920 0.048556 -0.012197 -217842.000000 0 0 1
24.330596 13.053127 -30.047385 40.806953 0.492412 2.398427 0.058972 -0.015944 -746466.000000 0 0 1
23.420796 13.193027 -31.093795 41.102479 0.513000 2.428732 0.057417 -0.013869 -260534.000000 0 0 1
22.935396 12.038827 -31.719545 40.952354 0.483370 2.456796 0.057876 -0.010024 384537.000000 0 0 1
21.821596 11.265927 -30.907055 39.475932 0.476582 2.470165 0.055655 -0.019317 262144.000000 0 0 1
20.654996 11.975727 -30.527545 38.755360 0.525433 2.477861 0.061712 -0.017727 562153.000000 0 0 1
19.832096 11.060027 -29.790155 37.457837 0.508723 2.490296 0.057161 -0.024870 -280625.000000 0 0 1
18.629996 11.642127 -29.060245 36.429572 0.558537 2.494285 0.063428 -0.022012 -447771.000000 0 0 1
17.581996 11.970227 -29.927815 36.716305 0.597739 2.523715 0.038092 -0.003708 -280846.000000 0 0 1
16.490596 12.531127 -29.228005 35.822412 0.649804 2.525104 0.032477 -0.014793 -161778.000000 0 0 1
15.297396 12.841927 -30.170115 36.182333 0.698357 2.556816 0.014754 -0.016254 -250634.000000 0 0 1
14.744996 11.720527 -30.776785 36.083184 0.671612 2.592388 0.002955 -0.003956 -47303.600000 0 0 1
13.373696 11.706127 -30.385965 35.202216 0.719005 2.612337 0.020499 -0.008461 -68744.300000 0 0 1
12.498896 11.317027 -31.558775 35.780634 0.735814 2.650901 0.014805 -0.013112 -462596.000000 0 0 1
12.312996 12.345627 -32.525355 36.904242 0.786721 2.649497 0.023872 -0.013563 -142771.000000 0 0 1
11.157996 12.059927 -33.269245 37.105059 0.824225 2.682879 0.050121 -0.013499 -112958.000000 0 0 1
10.866296 13.108127 34.130816 38.141998 0.878636 0.462734 0.065782 -0.008250 -135964.000000 0 0 1
11.568796 12.909827 32.912026 37.198147 0.840127 0.484783 0.036043 -0.000649 -114948.000000 0 0 1
10.835296 13.253527 31.796835 36.112302 0.885451 0.493883 0.053182 -0.016340 -727856.000000 0 0 1
11.650296 13.155627 30.513895 35.212181 0.846008 0.522504 0.041623 -0.014752 -186792.000000 0 0 1
12.063896 11.840527 30.200765 34.609563 0.776054 0.510269 0.034226 -0.013792 -98562.100000 0 0 1
11.962296 11.531827 28.817475 33.264492 0.767078 0.523023 0.051289 -0.011413 -235791.000000 0 0 1
12.345596 10.100027 28.457845 32.623201 0.685685 0.510871 0.057612 -0.011304 -982988.000000 0 0 1
11.513396 9.069527 28.745935 32.266754 0.667219 0.471509 0.055674 -0.017880 -246049.000000 0 0 1
12.157796 7.779827 28.489065 31.936884 0.569245 0.468951 0.031473 -0.016761 459283.000000 0 0 1
11.133696 6.594827 28.502825 31.302747 0.534761 0.426175 0.024876 -0.018574 173151.000000 0 0 1
10.297996 6.659927 27.376935 29.998332 0.574066 0.421160 0.031833 -0.017667 -420947.000000 0 0 1
9.346896 5.624827 27.246925 29.349584 0.541731 0.380825 0.019804 -0.021543 -302737.000000 0 0 1
9.855796 4.233527 26.843695 28.907498 0.405716 0.380156 0.009846 -0.014353 -510750.000000 0 0 1
10.544396 3.638927 27.901585 30.048703 0.332308 0.380321 0.011345 -0.011247 -15391.600000 0 0 1
10.927696 2.311327 27.553025 29.730892 0.208439 0.385136 -0.008586 -0.003694 -382029.000000 0 0 1
11.410096 1.498527 28.734985 30.953760 0.130586 0.380929 -0.011971 -0.003184 388907.000000 0 0 1
10.286896 1.236527 29.560555 31.323723 0.119630 0.337119 -0.016762 0.001342 99457.600000 0 0 1
10.470896 0.011927 30.262615 32.022893 0.001139 0.333108 -0.009058 0.000851 435344.000000 0 0 1
9.402196 -0.077073 31.378295 32.756749 -0.008197 0.291136 0.007114 0.000198 109616.000000 0 0 1
9.721296 0.839227 32.385845 33.823821 0.086115 0.292638 -0.000853 0.001415 -278432.000000 0 0 1
8.684896 1.097827 33.284655 34.416579 0.125740 0.257180 0.009096 -0.004275 -486822.000000 0 0 1
9.153796 2.180227 -34.187880 35.459223 0.233821 2.873004 0.017877 -0.006047 224717.000000 0 0 1
9.124896 3.552527 33.915186 35.300482 0.371268 0.281078 0.011240 -0.010696 293056.000000 0 0 1
10.043896 3.799927 32.844402 34.555376 0.361689 0.316000 -0.002173 -0.007228 -377880.000000 0 0 1
9.901696 5.139427 32.099545 33.982909 0.478767 0.334486 0.003301 -0.009713 -91476.000000 0 0 1
10.150496 6.284327 32.908043 35.006637 0.554356 0.348015 0.002796 -0.011295 -985.901000 0 0 1
10.352296 7.446827 32.135385 34.573230 0.623589 0.377775 0.007848 -0.014323 -214242.000000 0 0 1
10.439796 8.716227 33.020619 35.711668 0.695664 0.390694 0.036746 -0.025425 395561.000000 0 0 1
9.235796 9.161327 33.656270 36.082882 0.781350 0.368832 0.058297 -0.030396 230240.000000 0 0 1
8.781096 8.425227 -33.745915 35.873094 0.764719 2.795492 0.052338 -0.025623 -1179440.000000 0 0 1
7.551796 9.060327 -33.193055 35.226383 0.875959 2.800167 0.076013 -0.038373 -1099740.000000 0 0 1
6.903596 8.220627 -32.283935 34.021917 0.872260 2.820578 0.087783 -0.041282 685928.000000 0 0 1
5.619596 8.735127 -31.869715 33.519562 0.999122 2.826538 0.087827 -0.041439 986236.000000 0 0 1
4.927296 8.005627 -30.705235 32.111988 1.019073 2.844502 0.089363 -0.036589 -183962.000000 0 0 1
5.544596 8.326227 -29.446085 31.098883 0.983311 2.814105 0.095509 -0.034569 497705.000000 0 0 1
4.986996 7.605727 -28.335005 29.758859 0.990432 2.831003 0.079320 -0.030175 2036410.000000 0 0 1
3.457196 7.918927 -27.933105 29.239014 1.159164 2.841594 0.078423 -0.025886 2056990.000000 0 0 1
2.460496 7.402727 -28.814745 29.852034 1.249907 2.877204 0.070968 -0.025011 -111035.000000 0 0 1
1.165896 7.729127 -28.361985 29.419397 1.421081 2.872669 0.070361 -0.013095 147753.000000 0 0 1
0.068996 7.073127 -29.246745 30.089965 1.561042 2.904295 0.066194 -0.017321 -124563.000000 0 0 1
0.033596 7.614127 -30.546645 31.481321 1.566384 2.897306 0.075707 -0.019004 118259.000000 0 0 1
-0.454404 6.735027 -31.521535 32.236226 -1.503430 2.930629 0.075591 -0.016719 -569901.000000 0 0 1
-0.390204 7.471627 -32.920365 33.759856 -1.518619 2.918119 0.082088 -0.028326 733841.000000 0 0 1
0.917496 7.872627 -33.406135 34.333510 1.454777 2.908641 0.071522 -0.025542 1101080.000000 0 0 1
1.725196 6.799327 -33.886605 34.605045 1.322310 2.937468 0.081920 -0.031107 -98719.600000 0 0 1
1.485596 6.429827 33.119668 33.770728 1.343733 0.196678 0.097156 -0.037502 -32616.100000 0 0 1
0.226896 5.850327 32.790162 33.308746 1.532032 0.176689 0.092969 -0.038540 8718.060000 0 0 1
0.054496 5.595427 31.374075 31.869176 1.561057 0.176498 0.099239 -0.035761 146424.000000 0 0 1
0.967896 4.507427 30.747975 31.091666 1.359275 0.148826 0.103017 -0.032338 79929.200000 0 0 1
0.819996 4.364627 29.370795 29.704645 1.385088 0.150067 0.090291 -0.035535 -114233.000000 0 0 1
1.683596 3.405127 28.812315 29.061639 1.111615 0.131084 0.076639 -0.027294 905.798000 0 0 1
1.741696 3.494927 27.246995 27.525384 1.108470 0.142345 0.077078 -0.022899 17808.800000 0 0 1
2.390196 4.688627 26.862525 27.373190 1.099351 0.193463 0.078451 -0.021189 83242.900000 0 0 1
2.378196 4.893827 25.491885 26.066100 1.118445 0.210288 0.061036 -0.014445 -248428.000000 0 0 1
2.606396 6.404327 25.186065 26.117936 1.184292 0.267931 0.049126 -0.003260 376494.000000 0 0 1
3.917496 6.939227 25.383525 26.604943 1.056856 0.304188 0.036547 -0.002512 774893.000000 0 0 1
4.723196 6.864227 24.183175 25.578353 0.968109 0.331809 0.028881 -0.002982 869413.000000 0 0 1
6.282396 6.846927 24.357395 26.069745 0.828369 0.364459 0.027429 -0.003020 1014690.000000 0 0 1
6.928696 5.765227 25.062495 26.634063 0.693998 0.345241 0.026581 -0.012202 261065.000000 0 0 1
6.588496 4.397027 24.746585 25.983372 0.588496 0.309779 0.022471 -0.011089 -897573.000000 0 0 1
6.975096 3.775727 23.385145 24.693584 0.496151 0.326991 0.020562 -0.008673 -242637.000000 0 1 0
6.058996 3.988627 22.371145 23.517838 0.582187 0.313560 0.022371 -0.003936 -352165.000000 0 1 0
4.812796 3.322327 22.376645 23.128232 0.604194 0.255633 0.015053 -0.007881 89219.100000 0 1 0
3.895796 3.690127 21.194045 21.862795 0.758293 0.247975 0.007389 -0.005778 -158828.000000 0 1 0
3.495996 5.012327 21.323045 22.181471 0.961764 0.279114 0.006583 -0.010863 137298.000000 0 1 0
2.301096 5.228127 20.586645 21.364417 1.156174 0.270659 0.006036 -0.002513 277261.000000 0 1 0
1.674496 6.648527 20.670045 21.777456 1.324068 0.320275 0.009122 -0.002351 81092.000000 0 1 0
2.469196 7.633227 20.025645 21.572889 1.257940 0.381040 0.004991 0.001792 -118036.000000 0 1 0
2.133196 8.869227 20.479445 22.419219 1.334763 0.419047 0.014878 0.007058 398352.000000 0 1 0
3.018696 10.072827 19.930745 22.534617 1.279627 0.485482 0.021001 -0.001446 -164610.000000 0 1 0
2.907796 10.315227 18.526845 21.403345 1.296033 0.524439 0.008202 -0.002581 324461.000000 0 1 0
3.706196 11.404727 17.997845 21.626976 1.256591 0.587743 0.010586 -0.006402 1575110.000000 0 1 0
5.275896 11.192427 18.058145 21.890685 1.130305 0.600729 0.016862 -0.006007 635665.000000 0 1 0
5.792496 10.384327 17.057445 20.792876 1.061976 0.608773 0.023365 -0.006098 2815.810000 0 1 0
7.000696 9.723627 17.400345 21.126540 0.946795 0.603023 0.019129 -0.004270 35018.100000 0 1 0
6.807796 8.371327 18.097045 21.069605 0.888041 0.537645 0.022486 -0.000253 -305087.000000 0 1 0
6.522696 8.384627 19.504345 22.209615 0.909655 0.498724 0.034290 0.002566 -35658.100000 0 1 0
6.670096 7.080427 20.059845 22.293946 0.815230 0.451511 0.030853 -0.004909 912154.000000 0 1 0
8.081596 6.399127 20.293845 22.761836 0.669730 0.469989 0.040713 -0.014435 722649.000000 0 1 0
8.841796 6.205827 19.119245 21.959854 0.611983 0.514284 0.034404 -0.011009 -295627.000000 0 1 0
10.081296 5.579027 19.349145 22.519935 0.505453 0.537091 0.038270 -0.013367 -122646.000000 0 1 0
10.079996 4.035827 19.380445 22.214767 0.380834 0.510679 0.026969 -0.004382 -370903.000000 0 1 0
9.362496 3.559127 20.482045 22.799954 0.363276 0.454827 0.035781 -0.015339 23242.000000 0 1 0
9.578896 2.162427 20.468545 22.702262 0.222027 0.447323 0.028885 -0.013217 40427.500000 0 1 0
8.764496 1.271827 21.463645 23.219001 0.144105 0.391337 0.027051 -0.003365 14356.700000 0 1 0
9.157696 1.375127 22.835545 24.641763 0.149047 0.385260 0.032643 -0.006191 121200.000000 0 1 0
8.432896 0.443527 23.588635 25.054624 0.052546 0.343777 0.022280 -0.012118 -431796.000000 0 0 1
8.849196 0.420627 25.101535 26.619021 0.047497 0.339286 0.014241 -0.008475 -428279.000000 0 0 1
10.049396 -0.253773 25.416595 27.332363 -0.025247 0.376633 0.023461 -0.007677 153235.000000 0 0 1
10.061296 -1.639073 25.324485 27.299190 -0.161490 0.382688 0.033754 -0.007325 188224.000000 0 0 1
11.530596 -2.161373 25.263565 27.854513 -0.185297 0.434732 0.031928 -0.004612 535586.000000 0 0 1
11.711996 -3.586473 25.293165 28.102986 -0.297155 0.450988 0.038419 -0.000878 -144870.000000 0 0 1
13.051896 -4.030573 25.387835 28.829493 -0.299521 0.493627 0.040394 -0.002573 92668.500000 0 0 1
13.271996 -5.609073 25.437805 29.235073 -0.399857 0.515366 0.041017 -0.005456 -202891.000000 0 0 1
12.907596 -6.322273 24.246685 28.186502 -0.455463 0.535089 0.040060 -0.000185 266620.000000 0 0 1
12.852396 -7.688873 24.525275 28.736597 -0.539128 0.548225 0.057228 -0.003980 -418.321000 0 0 1
12.668996 -8.563673 23.271445 27.846007 -0.594406 0.581355 0.066222 -0.001830 237018.000000 0 0 1
12.111096 -9.849173 23.446715 28.167948 -0.682759 0.587390 0.060458 0.001881 -212132.000000 0 0 1
12.037596 -10.450573 22.198045 27.328948 -0.714944 0.622791 0.064306 -0.004225 -30726.700000 0 0 1
11.479596 -11.857073 22.222445 27.680469 -0.801572 0.638786 0.073294 -0.010485 681838.000000 0 0 1
10.066596 -11.748773 22.416345 27.237154 -0.862356 0.604113 0.057939 -0.006344 138391.000000 0 0 1
9.482296 -13.008173 22.676845 27.809456 -0.940904 0.617313 0.062305 -0.005625 -258330.000000 0 0 1
7.976696 -13.003873 22.952745 27.560060 -1.020575 0.586602 0.046156 -0.005446 -99535.900000 0 0 1
7.248496 -12.669973 21.751645 26.195476 -1.051144 0.591045 0.039383 -0.012072 36517.500000 0 0 1
5.869796 -12.616773 22.089345 26.107023 -1.135343 0.562157 0.017399 -0.011406 286286.000000 0 0 1
5.091096 -11.459273 21.426445 24.825929 -1.152711 0.529485 0.002290 0.002415 -93855.300000 0 1 0
5.369296 -10.168873 21.966845 24.794709 -1.084990 0.482260 0.004076 0.007123 -340630.000000 0 1 0
4.883796 -9.107273 21.219445 23.602092 -1.078569 0.453203 -0.001253 0.008160 -164568.000000 0 1 0
5.327696 -7.757973 21.781045 23.727293 -0.969026 0.407854 0.001197 -0.001634 -277688.000000 0 1 0
4.604696 -6.665773 21.338545 22.824751 -0.966274 0.362858 -0.009741 0.011528 -522888.000000 0 1 0
5.159196 -5.451773 21.713745 22.974461 -0.812964 0.332818 0.007001 0.006805 -324921.000000 0 1 0
-7.733304 -14.898673 -20.917035 26.819709 1.092017 2.465323 0.038695 0.016358 161702.000000 0 0 1
-7.527804 -14.307673 -19.630035 25.430604 1.086458 2.452630 0.044097 0.009159 264964.000000 0 0 1
-6.562604 -13.269073 -19.809135 24.729292 1.111495 2.499826 0.037791 -0.011370 480960.000000 0 1 0
-5.783504 -12.784673 -18.545735 23.255990 1.145967 2.493871 0.025648 -0.008308 512799.000000 0 1 0
-4.968304 -13.875773 -18.082335 23.327922 1.226963 2.457728 0.029717 0.004048 -174926.000000 0 1 0
-4.131604 -13.467073 -17.052535 22.118344 1.273119 2.451156 0.032836 -0.004034 46000.000000 0 1 0
-3.207504 -14.597373 -16.512235 22.271625 1.354502 2.405954 0.039425 0.006052 281644.000000 0 1 0
-2.008004 -14.796073 -17.234435 22.803105 1.435908 2.427661 0.032831 0.001368 339301.000000 0 1 0
-1.092904 -15.604673 -16.432635 22.687701 1.500874 2.380811 0.036328 0.001366 -1007650.000000 0 1 0
0.268296 -15.674173 -17.006835 23.129724 -1.553681 2.396877 0.036527 -0.008156 -1525430.000000 0 1 0
0.289596 -16.461273 -18.158335 24.510865 -1.553206 2.405099 0.056174 -0.014931 -89504.000000 0 1 0
0.158196 -17.890473 -18.077735 25.434201 -1.561954 2.361381 0.045986 0.000033 -382191.000000 0 0 1
-0.260904 -18.528573 -19.409835 26.835011 1.556716 2.379370 0.052913 -0.013909 971706.000000 0 0 1
-1.681304 -18.334473 -19.604735 26.894708 1.479350 2.387574 0.050239 -0.009225 868241.000000 0 0 1
-1.952204 -18.474073 -20.974035 28.018077 1.465514 2.416728 0.040848 -0.008575 20319.500000 0 0 1
-2.830404 -17.295873 -21.443835 27.694701 1.408588 2.456395 0.047388 -0.011356 147851.000000 0 0 1
-2.177204 -16.027973 -21.480135 26.889261 1.435785 2.496156 0.048062 0.009374 76439.700000 0 0 1
-2.810904 -15.215673 -20.523935 25.703109 1.388118 2.495596 0.044706 0.006392 83058.900000 0 0 1
-2.185104 -13.837273 -20.508035 24.835948 1.414175 2.542309 0.050405 -0.008806 -180526.000000 0 1 0
-2.284904 -13.128473 -21.695335 25.461052 1.398480 2.590779 0.053359 -0.017440 54559.000000 0 0 1
-1.418604 -12.032573 -21.797735 24.938655 1.453441 2.634282 0.038787 -0.001370 -130325.000000 0 1 0
-1.647704 -11.305473 -23.094535 25.765989 1.426071 2.682192 0.049078 0.008643 -50178.200000 0 0 1
-2.807704 -10.501373 -23.000935 25.440225 1.309542 2.700105 0.045255 -0.003774 120007.000000 0 0 1
-3.047504 -9.824673 -24.176135 26.273503 1.270018 2.739315 0.058644 -0.009491 228757.000000 0 0 1
-4.092004 -8.653973 -24.116135 25.946555 1.129106 2.763727 0.066646 -0.016108 418748.000000 0 0 1
-5.423904 -9.068673 -23.877535 26.111228 1.031781 2.724955 0.052815 -0.017146 597622.000000 0 0 1
-6.240104 -7.927573 -23.577035 25.644919 0.903947 2.737259 0.068443 -0.025284 -189357.000000 0 0 1
-7.762204 -8.156273 -23.464035 26.025709 0.810149 2.694184 0.033247 -0.024641 121440.000000 0 0 1
-8.393004 -8.555073 -24.667935 27.425149 0.794961 2.689338 0.023724 -0.015821 26721.800000 0 0 1
-8.840704 -7.425273 -25.409345 27.909273 0.698599 2.715110 0.023041 -0.016425 -395716.000000 0 0 1
-9.598304 -7.797273 -26.669345 29.396919 0.682232 2.707413 0.018322 -0.024313 373234.000000 0 0 1
-10.331204 -6.683373 -27.257395 29.905966 0.574201 2.717559 0.022666 -0.031396 374732.000000 0 0 1
-10.906504 -7.121273 -28.482995 31.320047 0.578438 2.712677 0.028569 -0.024004 15452.500000 0 0 1
-11.562704 -6.036573 -29.344415 32.112786 0.481150 2.723321 0.033799 -0.031457 282703.000000 0 0 1
-10.669904 -5.265373 -30.136075 32.399908 0.458417 2.765559 0.016337 -0.022071 -92083.400000 0 0 1
-11.391104 -4.745673 -31.222165 33.572343 0.394745 2.765200 0.037976 -0.028428 151110.000000 0 0 1
-10.675704 -3.693473 -32.168325 34.094186 0.333080 2.803875 0.032442 -0.023495 -138968.000000 0 0 1
-9.671804 -4.253973 -32.957265 34.609556 0.414367 2.831349 0.028724 -0.012432 107089.000000 0 0 1
-9.017204 -3.283773 -33.816685 35.151975 0.349240 2.865082 0.028311 -0.013857 -138325.000000 0 0 1
-7.925104 -3.833473 33.768427 34.897127 0.450533 0.255027 0.024742 -0.016064 -194554.000000 0 0 1
-6.783604 -4.285373 -34.030015 34.963175 0.563421 2.910035 0.023647 -0.020460 -184930.000000 0 0 1
-5.742204 -4.563773 33.570402 34.362375 0.671548 0.215113 0.013500 -0.015995 -1184970.000000 0 0 1
-4.334004 -4.291373 33.975462 34.518567 0.780456 0.177624 0.027865 -0.015907 -1007830.000000 0 0 1
-4.043304 -2.877573 33.847912 34.209792 0.618528 0.145581 0.045836 -0.019025 -317205.000000 0 0 1
-2.719704 -2.539973 34.181372 34.383345 0.751240 0.108443 0.047490 -0.021893 -39404.300000 0 0 1
-2.591104 -1.068673 -33.965345 34.080794 0.391184 3.059259 0.056421 -0.023329 129124.000000 0 0 1
-3.095504 -0.870873 -32.659095 32.817024 0.274246 3.043447 0.051837 -0.023900 85607.800000 0 0 1
-3.616204 0.382027 -32.404915 32.608302 -0.105253 3.029845 0.062586 -0.022332 -687562.000000 0 0 1
-4.047404 0.440627 -30.891425 31.158558 -0.108439 3.010553 0.076233 -0.021183 1095030.000000 0 0 1
-5.158304 -0.429673 -30.561625 30.996865 0.083106 2.973817 0.069592 -0.025194 1313270.000000 0 0 1
-6.457004 0.038527 -30.928085 31.594949 -0.005967 2.935771 0.073725 -0.027687 -10123.000000 0 0 1
-7.595704 -0.967073 -30.797045 31.734649 0.126637 2.897905 0.066199 -0.032270 -135775.000000 0 0 1
-7.989904 -1.146873 -29.419965 30.507183 0.142566 2.873817 0.065387 -0.027531 526356.000000 0 0 1
-9.091804 -2.065873 -29.356515 30.801521 0.223430 2.834071 0.035939 -0.023199 467557.000000 0 0 1
-9.383404 -2.688373 -27.982725 29.636270 0.279029 2.805970 0.033792 -0.025865 89896.600000 0 0 1
-9.934504 -1.751473 -27.030825 28.851820 0.174509 2.784407 0.043766 -0.028064 415231.000000 0 0 1
-10.368104 -2.457173 -25.878655 27.986426 0.232700 2.751006 0.042532 -0.027137 -189130.000000 0 0 1
-11.283904 -1.682973 -24.947335 27.432251 0.148057 2.712675 0.048544 -0.026245 -349125.000000 0 0 1
-10.661404 -0.672373 -24.271835 26.518665 0.062983 2.726983 0.054104 -0.030149 501381.000000 0 0 1
-11.654204 0.202427 -23.711135 26.421192 -0.017368 2.684702 0.057879 -0.026696 837364.000000 0 0 1
-10.838904 1.342027 -23.070035 25.524682 -0.123189 2.699439 0.051387 -0.023139 425267.000000 0 0 1
-10.331904 2.241827 -24.030635 26.253484 -0.213669 2.727126 0.038700 -0.018724 54618.300000 0 0 1
-9.568504 3.238127 -23.361935 25.452342 -0.326317 2.733476 0.028212 -0.015955 -459529.000000 0 0 1
-9.411304 4.565127 -24.206035 26.369398 -0.451631 2.733701 0.031416 -0.014796 500589.000000 0 0 1
-10.652604 5.251927 -24.452935 27.184678 -0.458047 2.689447 0.041715 -0.005944 551627.000000 0 0 1
-11.426404 4.630527 -25.460215 28.288284 -0.385022 2.690627 0.036797 -0.011328 450318.000000 0 0 1
-12.777804 5.419727 -25.732565 29.237144 -0.401152 2.646938 0.038044 0.002677 1028220.000000 0 0 1
-12.657104 6.750827 -26.294135 29.952587 -0.489980 2.642169 0.023552 0.009762 253502.000000 0 0 1
-13.987704 7.073227 -26.671325 30.936160 -0.468177 2.610276 0.038807 0.002820 479916.000000 0 0 1
-14.240804 8.580127 -26.940855 31.657996 -0.542258 2.588677 0.036445 0.009467 -95553.300000 0 0 1
-14.012104 9.363927 -25.759605 30.782778 -0.589115 2.562243 0.050697 0.009492 122814.000000 0 0 1
-14.627104 10.681727 -25.839925 31.555557 -0.630754 2.530237 0.035293 0.008807 70038.600000 0 0 1
-14.243204 11.627927 -24.680235 30.776477 -0.684652 2.501296 0.032502 0.003962 34194.700000 0 0 1
-14.903104 11.328427 -23.436435 29.995037 -0.649958 2.467612 0.056023 -0.001446 423769.000000 0 0 1
-14.286104 11.993527 -22.361135 29.119715 -0.698381 2.446358 0.053409 -0.002992 -244047.000000 0 0 1
-15.170804 11.948227 -21.118335 28.616385 -0.667122 2.400869 0.064396 -0.007213 1587290.000000 0 0 1
-16.499004 12.539027 -21.309135 29.724124 -0.649862 2.370138 0.054966 -0.006834 1618080.000000 0 0 1
-17.223204 12.894127 -20.140335 29.470839 -0.642636 2.323204 0.060264 -0.004004 701523.000000 0 0 1
-18.721804 13.230827 -20.412935 30.696069 -0.615213 2.298292 0.055033 -0.004823 540660.000000 0 0 1
-19.010704 14.531627 -21.010935 31.843907 -0.652648 2.291362 0.035868 0.000508 250840.000000 0 0 1
-20.394604 14.788027 -21.205535 32.928716 -0.627371 2.270490 0.030639 -0.001459 415191.000000 0 0 1
-20.666504 16.150327 -21.957435 34.206233 -0.663342 2.267787 0.026391 -0.002556 -100328.000000 0 0 1
-20.648704 16.015427 -23.360935 35.051336 -0.659694 2.300271 0.033697 -0.007138 107330.000000 0 0 1
-20.981504 17.302227 -23.874835 36.188372 -0.689587 2.291266 0.015704 0.006152 20922.600000 0 0 1
-20.848204 17.457827 -25.426255 37.227916 -0.697121 2.322643 0.012369 0.012236 529651.000000 0 0 1
-19.481604 17.510827 -25.834615 36.791157 -0.732173 2.349274 0.013608 0.002122 505923.000000 0 0 1
-19.273804 16.825327 -27.064125 37.242959 -0.717675 2.384289 0.005128 -0.006630 167747.000000 0 0 1
-18.432504 17.731327 -28.053645 37.962668 -0.766012 2.402351 -0.005915 0.009054 189355.000000 0 0 1
-19.107204 18.930227 -28.413515 39.125012 -0.780745 2.383609 -0.003443 -0.005661 471119.000000 0 0 1
-18.429904 20.061427 -27.888315 38.985642 -0.827760 2.367919 -0.008970 -0.010861 -908472.000000 0 0 1
-19.219404 21.362827 -27.969445 40.100445 -0.838166 2.342678 0.023895 -0.008592 498261.000000 0 0 1
-20.182904 21.652027 -26.938955 40.023333 -0.820501 2.309164 0.031934 0.001009 1008290.000000 0 0 1
-21.469204 21.048827 -27.036535 40.434565 -0.775511 2.303187 0.069376 -0.017674 375107.000000 0 0 1
-22.504704 21.505127 -25.966755 40.536459 -0.762689 2.266047 0.052366 0.000605 211102.000000 0 0 1
-22.304104 20.979927 -24.653935 39.312172 -0.754815 2.248662 0.009311 0.008841 459939.000000 0 0 1
-23.381704 21.339927 -23.791635 39.599728 -0.739775 2.215302 0.019371 -0.008590 421605.000000 0 0 1
-22.985404 20.858427 -22.347935 38.246999 -0.736924 2.194820 0.023686 0.005865 815462.000000 0 0 1
-21.980304 21.595727 -21.619235 37.641739 -0.776573 2.182597 0.028917 0.001557 165106.000000 0 0 1
-20.799604 20.973527 -21.219935 36.370290 -0.789562 2.193756 0.020010 0.006355 -328223.000000 0 0 1
-20.816504 20.059327 -20.021635 35.164887 -0.766876 2.176529 0.021925 -0.003963 -907519.000000 0 0 1
-21.574204 18.883827 -20.261035 35.107759 -0.718998 2.185982 0.028428 -0.004906 352088.000000 0 0 1
-22.136704 18.389327 -19.037535 34.505488 -0.693192 2.155227 0.018295 -0.004997 729083.000000 0 0 1
-23.332204 19.172327 -18.349835 35.336755 -0.687840 2.116810 0.032518 -0.007690 -155420.000000 0 0 1
-24.529604 19.173327 -19.077735 36.514078 -0.663445 2.120549 0.020329 -0.008193 -390670.000000 0 0 1
-25.410384 20.092527 -18.494735 37.302178 -0.669057 2.089562 0.032738 -0.015503 -1275320.000000 0 0 1
-26.779804 20.159627 -19.202735 38.630473 -0.645286 2.091036 0.030279 -0.002747 364007.000000 0 0 1
-27.700674 19.082727 -18.996835 38.631043 -0.603231 2.084895 0.019388 -0.006831 364217.000000 0 0 1
-28.136184 19.011227 -17.664435 38.276675 -0.594221 2.050474 0.012849 -0.006524 -1304180.000000 0 0 1
-29.201034 17.947927 -17.383135 38.431781 -0.551110 2.040152 0.009155 -0.011794 -446129.000000 0 0 1
-28.614764 16.721427 -17.146535 37.315070 -0.528843 2.048236 0.018522 -0.022344 349353.000000 0 0 1
-29.472814 15.840227 -16.393835 37.260131 -0.493159 2.026376 0.015504 -0.025692 257102.000000 0 0 1
-28.693454 14.675127 -15.790235 35.888789 -0.472762 2.026369 0.035697 -0.019041 186028.000000 0 0 1
-27.878544 15.001227 -14.644535 34.881405 -0.493655 2.004063 0.035840 -0.015853 547601.000000 0 0 1
-28.638464 14.980627 -13.439735 35.002961 -0.481952 1.964877 0.015960 -0.007511 523811.000000 0 0 1
-27.860624 15.673727 -12.247535 34.232765 -0.512447 1.936678 0.020279 -0.013020 194348.000000 0 0 1
-27.739474 17.065627 -12.319235 34.820649 -0.551529 1.932418 0.028612 -0.004538 624707.000000 0 0 1
-28.963314 17.815427 -12.159335 36.112496 -0.551451 1.914214 0.022976 -0.000662 670368.000000 0 0 1
-28.783114 19.374627 -12.395335 36.844106 -0.592460 1.913916 0.059595 -0.011586 -270100.000000 0 0 1
-28.121604 20.055127 -11.361435 36.360898 -0.619502 1.888581 0.009693 -0.023588 -837603.000000 0 0 1
-27.174284 20.863427 -11.909635 36.270700 -0.654773 1.905357 -0.005620 -0.018854 -837779.000000 0 0 1
-26.220304 21.473127 -10.903335 35.601716 -0.686190 1.882057 0.024398 -0.011816 -298408.000000 0 0 1
-26.861724 22.526227 -10.279035 36.532748 -0.697838 1.856013 0.032437 -0.019897 -323017.000000 0 0 1
-26.100354 23.718327 -10.197235 36.712002 -0.737621 1.852261 0.031181 -0.016788 -154942.000000 0 0 1
-26.669914 24.862127 -9.331635 37.636273 -0.750332 1.821352 0.062094 -0.009221 -196446.000000 0 0 1
-26.350694 24.739027 -7.940435 37.005797 -0.753863 1.787051 0.063522 -0.016105 619973.000000 0 0 1
-27.523084 24.949227 -7.141535 37.828370 -0.736386 1.760724 0.070028 -0.025010 579685.000000 0 0 1
-27.452124 24.308427 -5.713235 37.110103 -0.724737 1.725365 0.077693 -0.018333 -162046.000000 0 0 1
-27.651964 22.903927 -5.816735 36.373828 -0.691756 1.731401 0.083490 -0.025023 119156.000000 0 0 1
-27.223034 22.328927 -4.589035 35.506813 -0.686950 1.700403 0.082013 -0.020883 8309.860000 0 0 1
-27.237244 20.846027 -4.699735 34.619529 -0.653253 1.706971 0.083905 -0.015351 75886.000000 0 0 1
-26.354074 20.306427 -5.677335 33.750856 -0.656507 1.739813 0.075117 -0.025016 55903.400000 0 0 1
-26.723534 20.388027 -7.058335 34.345873 -0.651721 1.777779 0.059369 -0.017431 -597935.000000 0 0 1
-27.757184 19.344827 -7.486135 34.651490 -0.608663 1.788554 0.052711 -0.014088 -243080.000000 0 0 1
-27.182664 18.047827 -7.525935 33.485235 -0.586117 1.797487 0.047516 -0.006603 351925.000000 0 0 1
-26.791844 17.664627 -8.821735 33.281601 -0.582905 1.839066 0.023352 -0.005128 -44784.700000 0 0 1
-26.118114 16.293127 -8.796235 32.015552 -0.557754 1.849125 0.045505 -0.001838 20480.900000 0 0 1
-27.015424 15.390227 -8.167935 32.146654 -0.517829 1.827696 0.056989 -0.000663 352706.000000 0 0 1
-26.657644 14.017327 -8.339135 31.251505 -0.484096 1.840908 0.064274 -0.011709 -288700.000000 0 0 1
-27.565864 13.096727 -7.538135 31.436039 -0.443535 1.812949 0.084675 -0.011673 -920096.000000 0 0 1
-28.848984 12.943927 -8.038535 32.625560 -0.421755 1.819748 0.087254 -0.011370 -779322.000000 0 0 1
-29.557964 12.150827 -7.094835 32.736104 -0.390025 1.789258 0.104680 -0.018960 227105.000000 0 0 1
-30.499814 11.063427 -7.631735 33.329888 -0.347977 1.801822 0.080956 -0.010830 257877.000000 0 0 1
-29.708084 10.048427 -8.244635 32.427074 -0.326159 1.827870 0.081107 -0.013504 490151.000000 0 0 1
-30.476034 8.930027 -8.648535 32.913996 -0.285039 1.836680 0.067877 -0.012003 -151592.000000 0 0 1
-29.586124 7.710027 -9.002635 31.872099 -0.254926 1.857155 0.092447 -0.021752 -85968.800000 0 0 1
-28.986994 7.831727 -10.284535 31.738831 -0.263880 1.900789 0.082095 -0.028693 293337.000000 0 0 1
-28.110344 6.711627 -10.437635 30.727538 -0.234372 1.917377 0.089743 -0.036036 45116.600000 0 0 1
-27.386594 6.721727 -11.839235 30.583895 -0.240681 1.968288 0.072576 -0.032603 226454.000000 0 0 1
-26.453444 7.807927 -11.866135 30.025882 -0.287008 1.977079 0.075799 -0.031218 570975.000000 0 0 1
-25.573604 7.745127 -12.965435 29.700146 -0.294075 2.022551 0.070282 -0.015018 -36742.800000 0 0 1
-31.185764 25.992827 -33.962615 52.930503 -0.694827 2.267438 0.033592 -0.014875 -255520.000000 0 0 1
-31.807244 27.232927 -34.097125 53.999509 -0.708075 2.254197 0.035954 -0.023151 271571.000000 0 0 1
-31.661684 27.716027 33.060323 53.512852 -0.719046 0.904853 0.040970 -0.031254 -120300.000000 0 0 1
-32.082724 29.204227 32.991556 54.503493 -0.738465 0.920640 0.052981 -0.033358 -1431.290000 0 0 1
-32.090284 29.658927 31.667535 53.965461 -0.746044 0.943681 0.067746 -0.024977 92151.100000 0 0 1
-32.342264 31.036727 31.577975 54.831277 -0.764802 0.957077 0.082479 -0.032512 -88059.700000 0 0 1
-31.937074 31.484227 30.161695 54.045916 -0.778258 0.978732 0.089878 -0.036356 581114.000000 0 0 1
-30.562364 31.391427 29.789685 52.980233 -0.798779 0.973657 0.079831 -0.035254 547450.000000 0 0 1
-30.246034 32.317927 28.719865 52.764587 -0.818502 0.995240 0.062740 -0.021827 770774.000000 0 0 1
-28.831474 31.963527 28.132825 51.423504 -0.836871 0.991923 0.083909 -0.023425 245057.000000 0 0 1
-28.811134 30.694027 27.418525 50.239230 -0.817030 0.993501 0.108125 -0.027852 -106201.000000 0 0 1
-27.841964 30.652827 26.404035 49.111544 -0.833414 1.003168 0.063463 -0.014148 -625475.000000 0 0 1
-28.192184 31.328627 25.059215 49.033115 -0.838044 1.034370 0.069810 -0.018352 -225771.000000 0 0 1
-28.099904 32.774227 25.060675 49.917852 -0.862034 1.044842 0.062064 -0.022587 631355.000000 0 0 1
-29.253314 33.322827 24.407345 50.615073 -0.850340 1.067615 0.074555 -0.017917 433254.000000 0 0 1
-29.443944 -33.871519 24.763665 51.258802 0.855213 1.066593 0.074388 -0.015304 -170306.000000 0 0 1
-29.727504 -33.733619 26.134175 52.006506 0.848442 1.044288 0.073465 -0.027500 158390.000000 0 0 1
-29.880744 -32.415719 26.502755 51.439612 0.826068 1.029531 0.066945 -0.029837 -119511.000000 0 0 1
-30.181724 -32.217919 27.966085 52.259283 0.818018 1.006122 0.076748 -0.028269 -49378.900000 0 0 1
-31.506254 -32.528619 28.333965 53.418805 0.801363 1.011710 0.070055 -0.038289 -262580.000000 0 0 1
-31.740554 -32.535919 29.693855 54.293405 0.797772 0.992122 0.064658 -0.034546 521313.000000 0 0 1
-33.141764 -33.165619 29.983545 55.653821 0.785758 1.001843 0.072424 -0.041450 652855.000000 0 0 1
-33.342334 -33.604419 31.300685 56.751221 0.789313 0.986585 0.060833 -0.037679 266184.000000 0 0 1
-34.734909 -33.856219 31.500475 57.836298 0.772588 0.994826 0.050605 -0.041242 488905.000000 0 0 1
-35.083630 -34.168019 32.989096 59.047397 0.772177 0.977993 0.045417 -0.030935 -2985.100000 0 0 1
-34.582696 33.211527 33.427611 58.449752 -0.765175 0.961972 0.040456 -0.021488 754933.000000 0 0 1
-35.647593 32.598027 34.225017 59.200794 -0.740743 0.954377 0.041063 -0.016219 1176280.000000 0 0 1
-35.240366 31.240827 -33.748295 57.938071 -0.725310 2.192584 0.034590 -0.012866 423143.000000 0 0 1
-34.125180 31.311127 -32.868475 56.791295 -0.742420 2.188002 0.043202 -0.015559 -81901.100000 0 0 1
-33.899324 30.005527 -32.371835 55.654573 -0.724542 2.191560 0.033984 -0.017949 354962.000000 0 0 1
-33.038874 29.881327 -31.090975 54.324116 -0.735257 2.180133 0.027149 -0.013674 411299.000000 0 0 1
-33.822684 30.183227 -29.929005 54.320774 -0.728598 2.154320 0.024900 -0.018399 132682.000000 0 0 1
-33.927294 31.558727 -29.642915 55.006517 -0.749245 2.139925 0.025926 -0.006816 -460099.000000 0 0 1
-34.958972 31.724927 -28.561625 55.175784 -0.736938 2.114896 0.022909 -0.005409 -601047.000000 0 0 1
-34.525875 31.274027 -27.308735 53.998776 -0.736018 2.101023 0.017776 -0.017616 121137.000000 0 0 1
-35.543576 30.874227 -26.393085 53.973684 -0.715211 2.081738 0.033676 -0.020968 -118438.000000 0 0 1
-34.929145 30.518327 -25.040735 52.711022 -0.718105 2.065825 0.043540 -0.025655 -217300.000000 0 0 1
-34.551770 31.728127 -24.445635 52.896955 -0.742822 2.051200 0.039194 -0.027366 -11350.900000 0 0 1
-34.236949 31.592827 -23.044935 51.974459 -0.745254 2.030173 0.032333 -0.025709 398675.000000 0 0 1
-35.504523 31.364827 -22.139735 52.292364 -0.723570 2.007973 0.033983 -0.023846 529159.000000 0 0 1
35.710714 32.288027 -21.933935 52.904341 0.735106 1.998295 0.038438 -0.028387 182258.000000 0 0 1
-36.038114 33.430427 -21.212235 53.537818 -0.747878 1.978182 0.037166 -0.032365 -15674.500000 0 0 1
-35.784560 33.260727 -19.684235 52.671432 -0.748861 1.953810 0.030244 -0.024111 -102007.000000 0 0 1
-34.595156 32.571527 -19.418735 51.330463 -0.755279 1.958764 0.028063 -0.022766 -278008.000000 0 0 1
-34.465935 32.340427 -18.025635 50.583865 -0.753593 1.935156 0.036715 -0.012238 -323165.000000 0 0 1
-33.155154 31.620227 -17.741135 49.130956 -0.761706 1.940242 0.027525 -0.011014 -317745.000000 0 0 1
-33.093954 31.345227 -16.359135 48.428858 -0.758267 1.915372 0.034768 -0.004829 -486326.000000 0 0 1
-31.923774 30.632427 -16.079435 47.074634 -0.764758 1.919387 0.022674 -0.008288 -674315.000000 0 0 1
-31.505824 30.405427 -14.609035 46.157673 -0.767626 1.892837 0.026008 -0.004810 -631788.000000 0 0 1
-32.275924 29.421827 -13.967135 45.852590 -0.739172 1.880325 0.041459 -0.005625 150602.000000 0 0 1
-31.764684 29.193127 -12.658835 44.960871 -0.743237 1.856208 0.064905 -0.010409 121628.000000 0 0 1
-32.529954 28.025327 -11.954935 44.570588 -0.711146 1.842346 0.049739 -0.017055 232321.000000 0 0 1
-32.252834 27.835227 -10.626635 43.908661 -0.712011 1.815240 0.078766 -0.012101 522050.000000 0 0 1
-33.280564 26.904727 -10.273035 44.011311 -0.679855 1.806388 0.066844 -0.016294 550660.000000 0 0 1
-33.029234 26.213427 -8.949135 43.106392 -0.670853 1.779923 0.075571 -0.011442 131357.000000 0 0 1
-32.999884 27.077527 -7.869735 43.406422 -0.687137 1.753108 0.078333 -0.020683 -503028.000000 0 0 1
-31.701514 27.041227 -7.374335 42.315420 -0.706230 1.745961 0.079023 -0.029004 -751039.000000 0 0 1
-31.540424 27.485027 -5.886735 42.247824 -0.716800 1.710589 0.074817 -0.036472 -232124.000000 0 0 1
-30.217174 27.379227 -5.394035 41.131439 -0.736165 1.702317 0.080832 -0.025356 211962.000000 0 0 1
-30.165604 27.558827 -3.996935 41.053965 -0.740270 1.668309 0.079013 -0.020406 -49240.200000 0 0 1
-29.384764 26.422627 -3.318735 39.656444 -0.732370 1.654581 0.076564 -0.023477 -110161.000000 0 0 1
-30.173324 25.250327 -3.146835 39.470382 -0.696806 1.650608 0.069194 -0.015111 91850.100000 0 0 1
-29.559644 24.294827 -2.318735 38.332593 -0.687948 1.631323 0.059877 -0.017057 311722.000000 0 0 1
-30.538574 23.162827 -1.839635 38.373237 -0.648905 1.618755 0.054035 -0.017717 220794.000000 0 0 1
-30.813744 22.311327 -2.919235 38.155000 -0.626699 1.647381 0.061476 -0.012454 117797.000000 0 0 1
-31.999374 21.560227 -2.714435 38.680376 -0.592904 1.641030 0.089421 -0.010363 176764.000000 0 0 1
-32.235754 20.594327 -3.884335 38.449423 -0.568508 1.671993 0.072438 -0.000412 -472963.000000 0 0 1
-31.329454 19.567027 -4.029835 37.157002 -0.558281 1.679464 0.074137 -0.002081 -167498.000000 0 0 1
-31.783004 18.660927 -5.058835 37.201899 -0.530907 1.707202 0.074559 -0.002105 197442.000000 0 0 1
-30.606374 17.813327 -5.625135 35.856755 -0.527089 1.728325 0.060251 -0.005032 95796.500000 0 0 1
-30.151604 16.936327 -4.621335 34.890043 -0.511786 1.703641 0.081599 -0.007801 21417.100000 0 0 1
-29.408494 15.936327 -5.300035 33.866154 -0.496600 1.727942 0.076684 -0.007236 -216173.000000 0 0 1
-29.039384 14.672027 -4.431235 32.835804 -0.467835 1.706161 0.089079 -0.011126 478319.000000 0 0 1
-30.152554 13.896627 -3.943835 33.434212 -0.431863 1.689030 0.099035 -0.011177 798383.000000 0 0 1
-29.741964 12.673027 -3.338435 32.501310 -0.402801 1.673695 0.100814 -0.019291 453768.000000 0 0 1
-30.958224 11.882327 -2.714235 33.271134 -0.366479 1.652466 0.103491 -0.021026 41373.800000 0 0 1
-31.745894 11.410827 -3.734435 33.940459 -0.345062 1.681049 0.096738 -0.010078 -11461.600000 0 0 1
-32.886554 10.713827 -3.242335 34.739376 -0.314938 1.664266 0.074351 -0.005906 38280.800000 0 0 1
-33.788184 10.237627 -4.385235 35.576406 -0.294202 1.694373 0.053509 0.002888 -506715.000000 0 0 1
-33.246414 9.206427 -5.107035 34.873545 -0.270146 1.717769 0.059079 -0.002436 -215087.000000 0 0 1
-34.121768 8.676427 -6.079435 35.728629 -0.249001 1.741784 0.060828 -0.001567 -334289.000000 0 0 1
-33.574844 7.754327 -7.179735 35.198697 -0.226977 1.776215 0.069804 -0.013101 -561459.000000 0 0 1
-32.988194 6.528727 -6.785235 34.305752 -0.195386 1.769896 0.070151 -0.012366 408845.000000 0 0 1
-32.650644 5.730827 -7.954635 34.090807 -0.173750 1.806304 0.074573 -0.018515 -204501.000000 0 0 1
-31.569074 4.699827 -7.497835 32.785855 -0.147789 1.801529 0.084138 -0.021972 228968.000000 0 0 1
-30.293434 5.289027 -7.324335 31.611894 -0.172851 1.804617 0.088682 -0.021129 -82285.800000 0 0 1
-29.361564 4.331227 -6.921735 30.475750 -0.146457 1.799918 0.087331 -0.026782 -137000.000000 0 0 1
-27.931654 4.863027 -6.667535 29.125287 -0.172377 1.801771 0.108826 -0.031050 278531.000000 0 0 1
-27.113104 4.948527 -7.817235 28.648167 -0.180527 1.847172 0.104873 -0.033562 -593226.000000 0 0 1
-25.753064 4.959127 -7.570535 27.297000 -0.190236 1.851820 0.118479 -0.035985 -1017940.000000 0 0 1
-24.940404 5.034027 -8.841235 26.935712 -0.199166 1.905230 0.111857 -0.027897 -456640.000000 0 0 1
-25.202674 4.076127 -9.802435 27.347345 -0.160345 1.937395 0.104215 -0.038637 508676.000000 0 0 1
-24.245604 4.272927 -10.826835 26.894750 -0.174444 1.985112 0.093853 -0.031906 -99865.400000 0 0 1
-24.557704 3.477927 -12.124635 27.607672 -0.140687 2.025478 0.092459 -0.035889 -511077.000000 0 0 1
-25.680324 3.973027 -12.768335 28.953313 -0.153494 2.027506 0.084847 -0.027794 -260747.000000 0 0 1
-26.043634 3.217727 -13.891735 29.691833 -0.122928 2.057669 0.083702 -0.026231 271308.000000 0 0 1
-26.981654 4.060427 -14.801735 31.041715 -0.149368 2.067845 0.070506 -0.022313 354135.000000 0 0 1
-26.180854 5.143727 -15.355035 30.784284 -0.193998 2.093004 0.061465 -0.022167 1186540.000000 0 0 1
-26.856744 6.066827 -16.248135 31.970189 -0.222167 2.103922 0.082508 -0.023792 232111.000000 0 0 1
-27.647574 5.630727 -17.548335 33.227059 -0.200913 2.127198 0.043516 -0.014734 -317905.000000 0 0 1
-28.851394 5.055727 -17.157335 33.946096 -0.173472 2.100675 0.048495 -0.022538 -607184.000000 0 0 1
-29.481794 4.491727 -18.319235 34.999231 -0.151193 2.121654 0.057430 -0.013038 24207.600000 0 0 1
-30.901844 3.901927 -18.190235 36.069844 -0.125604 2.099374 0.052756 -0.021073 -210701.000000 0 0 1
-31.130764 2.832027 -17.275235 35.715243 -0.090722 2.075666 0.059337 -0.028042 241691.000000 0 0 1
-30.523594 1.606527 -17.648135 35.294863 -0.052584 2.094418 0.087387 -0.027757 -198655.000000 0 0 1
-30.747104 0.499427 -16.640235 34.964714 -0.016242 2.066801 0.086925 -0.023051 -577646.000000 0 0 1
-30.355584 -0.736773 -17.161635 34.878733 0.024267 2.085225 0.088346 -0.016048 308072.000000 0 0 1
-30.589104 -1.807873 -16.224435 34.672669 0.059033 2.057745 0.099512 -0.024398 -226191.000000 0 0 1
-30.217884 -3.157573 -16.835735 34.735180 0.104116 2.076803 0.092324 -0.017792 52702.400000 0 0 1
-31.093384 -3.560373 -17.883335 36.045644 0.114009 2.089932 0.089200 -0.017985 316617.000000 0 0 1
-30.881394 -4.906573 -18.353035 36.256983 0.157567 2.101561 0.081874 -0.018827 38683.600000 0 0 1
-31.710174 -5.116873 -19.626835 37.642133 0.159985 2.119294 0.091151 -0.020048 187929.000000 0 0 1
-31.514064 -6.343273 -20.231435 37.982684 0.198630 2.132524 0.082846 -0.018468 -195302.000000 0 0 1
-32.486494 -6.436073 -21.242535 39.345147 0.195583 2.141117 0.070843 -0.016301 -54916.800000 0 0 1
-32.304634 -7.675873 -22.155635 39.917171 0.233283 2.159208 0.076942 -0.021906 -101417.000000 0 0 1
-31.186634 -7.540673 -23.005335 39.480543 0.237239 2.192844 0.076379 -0.020190 82611.800000 0 0 1
-31.214244 -8.416073 -24.100235 40.323450 0.263360 2.211392 0.067886 -0.016308 209783.000000 0 0 1
-29.850474 -8.255173 -24.830035 39.695457 0.269807 2.246586 0.053137 -0.010673 117632.000000 0 0 1
-29.605824 -7.044773 -25.500995 39.704337 0.233608 2.268256 0.052960 -0.004780 -111993.000000 0 0 1
-29.607804 -7.120173 -26.930725 40.651972 0.236002 2.294908 0.045849 0.000107 830934.000000 0 0 1
-30.982634 -7.277673 -27.701925 42.193421 0.230713 2.287027 0.055791 -0.001188 931487.000000 0 0 1
-31.758484 -8.422173 -27.370955 42.763343 0.259227 2.265368 0.060168 -0.015080 -73548.600000 0 0 1
-33.112914 -8.266573 -27.743915 43.983248 0.244647 2.253359 0.055391 -0.009179 -143715.000000 0 0 1
-33.932264 -9.437073 -27.345795 44.589790 0.271260 2.230996 0.045690 -0.018480 -847816.000000 0 0 1
-33.503044 -10.590673 -28.116305 45.001588 0.306171 2.245652 0.049052 -0.016456 611797.000000 0 0 1
-34.328231 -11.775373 -27.968565 45.818418 0.330446 2.227389 0.031460 -0.014947 743577.000000 0 0 1
-35.807706 -11.747973 -28.433185 47.208608 0.317020 2.217161 0.037644 -0.016031 45760.900000 0 0 1
35.581094 -10.808173 -27.819685 46.440992 -0.294904 2.213089 0.025061 -0.014762 -306138.000000 0 0 1
34.567044 -10.445473 -28.720805 46.139713 -0.293456 2.242697 0.018155 -0.009500 32963.800000 0 0 1
33.490924 -9.509173 -28.107985 44.745114 -0.276652 2.250008 0.024488 -0.007564 423345.000000 0 0 1
32.411514 -10.076773 -27.374745 43.605324 -0.301427 2.249500 0.007835 0.001685 -20991.200000 0 0 1
31.593394 -9.058573 -26.877305 42.456917 -0.279233 2.256282 0.011090 -0.003045 -13428.400000 0 0 1
30.535194 -9.637273 -25.890595 41.177640 -0.305717 2.250746 0.008493 0.002706 -77148.000000 0 0 1
30.953904 -9.946673 -24.591835 40.765658 -0.310916 2.218365 0.011343 -0.000241 -471306.000000 0 0 1
29.910244 -10.484173 -23.850035 39.665662 -0.337139 2.215894 -0.003775 0.002459 -238192.000000 0 0 1
30.293714 -10.722873 -22.342835 39.139384 -0.340202 2.178341 -0.005737 -0.001450 887454.000000 0 0 1
31.344234 -11.700473 -22.115735 40.105708 -0.357270 2.154881 0.004180 -0.004978 660096.000000 0 0 1
31.580674 -11.802373 -20.761635 39.593945 -0.357649 2.122764 0.023366 -0.007918 -594818.000000 0 0 1
32.726034 -12.761773 -20.508635 40.675057 -0.371819 2.099259 0.046068 -0.012358 448464.000000 0 0 1
33.985264 -12.226573 -20.974435 41.766185 -0.345344 2.096922 0.047425 -0.011708 1005330.000000 0 0 1
35.107504 -13.008273 -20.565635 42.716476 -0.354843 2.073099 0.041487 -0.004739 1249490.000000 0 0 1
-35.877529 -12.866973 -21.528735 43.774907 0.344348 2.084958 0.042033 -0.018138 468934.000000 0 0 1
-35.158846 -11.654773 -21.527735 42.841820 0.320090 2.097277 0.050285 -0.009624 408529.000000 0 0 1
-35.818332 -10.642873 -22.274035 43.501221 0.288826 2.108346 0.066201 -0.025652 -779350.000000 0 0 1
-35.566157 -10.630473 -23.769735 44.079006 0.290441 2.140346 0.050311 -0.023310 8649.850000 0 0 1
-36.091004 -11.748773 -24.454435 45.151009 0.314713 2.143153 0.048258 -0.016993 550095.000000 0 0 1
34.720314 -11.839873 -24.486435 44.105196 -0.328641 2.159379 0.063150 -0.011539 15224.800000 0 0 1
34.205764 -13.002473 -25.374335 44.530388 -0.363256 2.177084 0.028017 -0.020497 -309146.000000 0 0 1
34.490654 -14.327073 -24.921435 44.899311 -0.393703 2.159221 0.027277 -0.021700 376643.000000 0 0 1
33.777854 -14.661473 -23.720635 43.801493 -0.409516 2.143074 0.033499 -0.025395 -75305.200000 0 0 1
-29.223314 8.157727 -19.879635 36.273275 -0.272222 2.150830 0.023066 -0.010458 70025.100000 0 0 1
-28.250304 7.432027 -20.610935 35.750879 -0.257249 2.185254 0.030911 -0.013658 373837.000000 0 0 1
-27.182614 8.306327 -20.986735 35.331751 -0.296564 2.206807 0.039662 -0.017995 90751.000000 0 0 1
-25.831144 7.598827 -21.156735 34.243212 -0.286102 2.236786 0.043165 -0.018019 -471988.000000 0 0 1
-25.053884 7.449727 -20.018935 32.923446 -0.289022 2.224392 0.050732 -0.017021 -182148.000000 0 0 1
-24.037804 6.478227 -20.109635 32.002826 -0.263247 2.250253 0.062877 -0.022738 -318193.000000 0 0 1
-22.718204 6.994027 -19.553135 30.779186 -0.298652 2.259156 0.060132 -0.019298 -444996.000000 0 0 1
-22.183004 8.067527 -20.325335 31.149476 -0.348810 2.281688 0.065921 -0.018989 7247.490000 0 0 1
-20.970804 8.592927 -19.819435 30.106860 -0.388889 2.289358 0.056481 -0.007453 -57343.500000 0 0 1
-20.334604 9.596827 -20.762835 30.605400 -0.440953 2.316385 0.052619 -0.003638 -627951.000000 0 0 1
-19.572504 9.011927 -21.760335 30.623682 -0.431500 2.361107 0.070476 -0.014435 -210040.000000 0 0 1
-19.034304 10.015927 -22.593635 31.194484 -0.484390 2.380790 0.063321 -0.009661 -335964.000000 0 0 1
-18.075504 9.443127 -23.587835 31.181444 -0.481428 2.428696 0.066941 0.000242 -72335.100000 0 0 1
-18.812404 8.673727 -24.550635 32.122792 -0.432017 2.440712 0.065210 -0.003401 292413.000000 0 0 1
-17.921304 8.098927 -25.447175 32.160915 -0.424446 2.483639 0.049484 0.002506 -410510.000000 0 0 1
-18.587204 7.095727 -26.393435 33.052184 -0.364678 2.495659 0.036281 0.005692 -158117.000000 0 0 1
-19.007004 5.940927 -25.684845 32.500339 -0.302944 2.482086 0.050879 0.003628 422665.000000 0 0 1
-19.726504 5.007027 -26.511285 33.422350 -0.248573 2.486876 0.042245 0.001431 -333557.000000 0 0 1
-20.052604 3.658427 -25.788635 32.871640 -0.180457 2.472727 0.044755 0.006710 384435.000000 0 0 1
-18.992204 2.714627 -25.595475 31.987518 -0.141972 2.498376 0.040564 0.005055 1167640.000000 0 0 1
-17.842004 3.196227 -24.849635 30.758045 -0.177260 2.511388 0.041406 -0.000081 97617.200000 0 0 1
-17.047804 1.994327 -24.323635 29.769853 -0.116455 2.527082 0.039651 -0.007968 -402524.000000 0 0 1
-17.568904 1.270327 -23.248635 29.168118 -0.072180 2.493201 0.028972 -0.007740 70733.000000 0 0 1
-18.752304 0.496927 -23.418935 30.005705 -0.026493 2.466234 0.021792 -0.006772 143330.000000 0 0 1
-19.053304 -0.253373 -22.126135 29.200316 0.013297 2.430633 0.040543 -0.010816 27433.400000 0 0 1
-18.471004 -1.540473 -21.974335 28.747564 0.083207 2.440890 0.030982 -0.017878 235780.000000 0 0 1
-19.109604 -2.155273 -20.867935 28.377683 0.112310 2.397000 0.034381 -0.013774 -132367.000000 0 0 1
-18.672004 -3.634673 -20.670835 28.091600 0.192255 2.397698 0.027349 -0.027096 -111744.000000 0 0 1
-18.908004 -4.456573 -21.766035 29.174200 0.231473 2.412939 0.027382 -0.031059 200770.000000 0 0 1
-19.034204 -5.782273 -21.281435 29.131342 0.294924 2.389900 0.030317 -0.023499 -426920.000000 0 0 1
-18.816004 -6.851973 -22.338235 29.999805 0.349230 2.410751 0.013843 -0.024837 497639.000000 0 0 1
-17.519704 -6.859173 -22.955835 29.680947 0.373168 2.455015 0.026855 -0.021946 598868.000000 0 0 1
-17.565104 -7.858873 -23.974635 30.742119 0.420701 2.465243 0.039746 -0.025682 268371.000000 0 0 1
-16.224204 -7.925073 -24.730035 30.620356 0.454383 2.510925 0.041199 -0.032528 -847656.000000 0 0 1
-16.265604 -8.723873 -25.907335 31.809839 0.492294 2.522567 0.038506 -0.048550 -241825.000000 0 0 1
-15.102604 -8.793473 -26.696385 31.907848 0.527265 2.561974 0.051836 -0.050794 334682.000000 0 0 1
-13.870604 -9.496573 -26.041215 30.995539 0.600353 2.568375 0.051309 -0.047465 -36633.200000 0 0 1
-13.321404 -8.918573 -24.824235 29.550692 0.589956 2.568183 0.039643 -0.042610 -428975.000000 0 0 1
-12.386304 -9.790873 -24.312135 28.988991 0.668897 2.565629 0.024055 -0.033560 -582296.000000 0 0 1
-11.818104 -9.224773 -22.979935 27.437956 0.662776 2.563531 0.032409 -0.025466 560810.000000 0 0 1
-12.776904 -9.161873 -21.914735 26.971185 0.622088 2.519265 0.038418 -0.024487 604543.000000 0 0 1
-12.017104 -8.809673 -20.781135 25.571013 0.632594 2.519539 0.037837 -0.026548 -821024.000000 0 0 1
-12.838504 -8.564673 -19.521035 24.884767 0.588308 2.472617 0.027209 -0.022660 -140741.000000 0 1 0
-13.591804 -7.362973 -19.480435 24.868411 0.496465 2.470818 0.019795 -0.008573 1178900.000000 0 1 0
-14.877804 -7.438573 -20.161935 26.137809 0.463630 2.451788 0.022494 -0.015550 632352.000000 0 0 1
-15.681804 -6.158573 -19.871435 26.052273 0.374216 2.438355 0.022767 -0.011689 -463581.000000 0 0 1
-15.915604 -5.833073 -18.557935 25.134202 0.351298 2.401423 0.021346 -0.009292 148162.000000 0 0 1
-15.445704 -4.561773 -18.289935 24.370089 0.287178 2.419626 0.015058 -0.004833 -594219.000000 0 1 0
-15.147404 -4.296573 -16.749935 22.988360 0.276391 2.387111 0.029057 0.003992 -327691.000000 0 1 0
-16.255304 -4.030973 -15.942335 23.122320 0.243076 2.331565 0.040047 -0.008360 -365751.000000 0 1 0
-16.711104 -2.687273 -15.967135 23.268688 0.159443 2.327058 0.010310 -0.012548 -213789.000000 0 1 0
-17.951904 -2.468773 -15.100335 23.587832 0.136664 2.265522 0.012792 -0.016485 -611346.000000 0 1 0
-17.749004 -2.745373 -13.730735 22.607461 0.153461 2.223522 0.038537 -0.013380 501685.000000 0 1 0
-18.678204 -2.157973 -12.849235 22.773559 0.115024 2.170281 0.029901 -0.021285 60499.300000 0 1 0
-17.923404 -1.061273 -12.010435 21.601510 0.059143 2.160362 0.018274 -0.023570 254677.000000 0 1 0
-17.658904 0.059227 -12.810935 21.816518 -0.003354 2.198407 0.035788 -0.026944 395480.000000 0 1 0
-16.797804 0.978227 -12.212635 20.791142 -0.058170 2.198634 0.044626 -0.018587 -882888.000000 0 1 0
-16.416104 2.202227 -13.140935 21.142905 -0.133354 2.241490 0.060149 -0.020121 459642.000000 0 1 0
-15.619804 1.964527 -14.337935 21.293520 -0.125115 2.309523 0.051688 -0.018798 1032440.000000 0 1 0
-14.349104 1.366927 -14.095535 20.160590 -0.094976 2.345022 0.041204 -0.015545 -560426.000000 0 1 0
-13.873904 0.433127 -15.203335 20.586748 -0.031209 2.401641 0.042116 -0.015969 -132199.000000 0 1 0
-13.397104 1.183427 -16.278535 21.115719 -0.088106 2.451081 0.037723 -0.028374 111675.000000 0 1 0
-13.011404 0.251027 -17.266635 21.621663 -0.019290 2.495729 0.027622 -0.016781 -167200.000000 0 1 0
-12.526804 0.835027 -18.591935 22.433861 -0.066561 2.547656 0.046490 -0.021013 778676.000000 0 1 0
-11.219804 1.422327 -18.384735 21.584844 -0.126097 2.590099 0.037475 -0.023829 557291.000000 0 1 0
-10.905604 2.187227 -19.520535 22.467030 -0.197934 2.623676 0.042275 -0.019903 -223705.000000 0 1 0
-9.473804 2.724227 -19.457035 21.811707 -0.279999 2.672647 0.031452 -0.013080 -122407.000000 0 1 0
-8.462804 1.734927 -19.641935 21.457740 -0.202204 2.727241 0.031877 -0.011102 1365.700000 0 1 0
-7.128904 2.077127 -19.388035 20.761301 -0.283518 2.775839 0.024372 -0.006610 556321.000000 0 1 0
-6.312104 3.152827 -20.183035 21.380783 -0.463239 2.805287 0.019040 -0.008548 -257240.000000 0 1 0
-6.247804 2.751727 -21.512635 22.569903 -0.414868 2.834300 0.019467 -0.011151 184147.000000 0 1 0
-5.899804 3.819627 -22.381035 23.458644 -0.574556 2.837315 0.011904 -0.006021 -557010.000000 0 1 0
-5.407404 3.240827 -23.711735 24.535471 -0.539928 2.881736 0.026218 -0.012971 -258012.000000 0 1 0
-4.095004 2.738827 -23.625235 24.133420 -0.589493 2.936012 0.032223 -0.018593 -252469.000000 0 1 0
-3.699204 2.300327 -24.928235 25.305978 -0.556326 2.968594 0.050155 -0.012364 904173.000000 0 0 1
-2.228804 1.724727 -24.907335 25.066264 -0.658582 3.028924 0.039166 -0.011706 734517.000000 0 0 1
-1.207704 2.674827 -24.610035 24.784412 -1.146690 3.022900 0.037113 -0.011587 982700.000000 0 1 0
0.124996 2.142527 -24.640035 24.733325 1.512522 3.054711 0.038447 -0.007715 884432.000000 0 1 0
0.576896 1.152527 -23.534835 23.570099 1.106709 3.086884 0.042897 -0.015683 -743417.000000 0 1 0
0.314096 -0.192373 -23.845635 23.848479 -0.549535 3.126148 0.039046 -0.014219 188746.000000 0 1 0
1.038596 -0.921973 -22.876235 22.918352 -0.725984 3.080959 0.041519 -0.008630 -506412.000000 0 1 0
0.625096 -2.383973 -22.769135 22.902131 -1.314361 3.033771 0.045117 -0.019120 323939.000000 0 1 0
-0.549204 -2.571573 -21.960135 22.117010 1.360390 3.022417 0.047237 -0.023723 1348900.000000 0 1 0
-1.755804 -2.777073 -22.759635 22.995564 1.007001 2.998223 0.052324 -0.026812 1004530.000000 0 1 0
-2.619304 -1.501973 -22.844035 23.042713 0.520650 3.010181 0.044784 -0.025538 -1850110.000000 0 1 0
-3.261604 -1.163773 -21.639635 21.914977 0.342729 2.982907 0.033059 -0.021819 -126089.000000 0 1 0
-4.102604 -0.042473 -21.769735 22.152980 0.010352 2.955313 0.025226 -0.014732 171672.000000 0 1 0
-5.404104 -0.320373 -22.559935 23.200380 0.059214 2.906081 0.027210 -0.009331 -910823.000000 0 1 0
-6.307804 -1.153873 -21.857835 22.779042 0.180927 2.856228 0.032146 -0.010436 -583322.000000 0 1 0
-7.644004 -0.847573 -22.097135 23.397276 0.110430 2.806658 0.023748 -0.008364 -183047.000000 0 1 0
-8.673604 -1.907873 -21.643335 23.394558 0.216515 2.752211 0.036248 -0.005918 -64173.600000 0 1 0
-8.652204 -3.095373 -22.428935 24.238380 0.343567 2.752749 0.054237 -0.018870 39518.000000 0 1 0
-9.195304 -4.185473 -21.644035 23.885896 0.427149 2.704870 0.041232 -0.029791 -219431.000000 0 1 0
-9.996604 -5.149173 -22.597635 25.240824 0.475648 2.679858 0.032550 -0.031196 809697.000000 0 0 1
-11.369904 -4.771773 -22.763335 25.888491 0.397360 2.645153 0.026780 -0.029044 329223.000000 0 0 1
-11.927104 -5.432273 -23.842835 27.207465 0.427382 2.638995 0.020783 -0.036028 138152.000000 0 0 1
-13.480004 -5.458373 -23.840835 27.926506 0.384744 2.593844 0.041050 -0.034133 82441.000000 0 0 1
-14.067404 -4.228473 -24.058235 28.188127 0.291995 2.593439 0.034421 -0.035051 -822082.000000 0 0 1
-15.462804 -4.373573 -24.051435 28.925732 0.275645 2.552579 0.031984 -0.033238 -177332.000000 0 0 1
-16.151904 -3.026673 -24.398435 29.416464 0.185240 2.548855 0.034508 -0.028762 -330106.000000 0 0 1
-15.893304 -2.470573 -25.643685 30.270438 0.154213 2.581400 0.036897 -0.033529 -220673.000000 0 0 1
-16.366604 -1.166373 -25.904535 30.663840 0.071145 2.576971 0.034410 -0.022121 1611660.000000 0 0 1
-17.892604 -1.140273 -26.440005 31.945569 0.063643 2.545718 0.032725 -0.019057 1778510.000000 0 0 1
-18.186004 -1.834573 -27.671455 33.163320 0.100538 2.557839 0.045419 -0.029354 -112084.000000 0 0 1
-17.681104 -1.100373 -28.771765 33.788263 0.062154 2.589695 0.031163 -0.020385 -145651.000000 0 0 1
-17.645104 -2.043773 -29.977535 34.845076 0.115313 2.606672 0.026651 -0.014737 332554.000000 0 0 1
-18.949504 -2.212173 -30.513475 35.986797 0.116214 2.582822 0.023712 -0.015376 375831.000000 0 0 1
-18.874604 -2.807773 -31.770465 37.060716 0.147676 2.600710 0.030486 -0.022395 -326219.000000 0 0 1
-20.272904 -3.119273 -32.358845 38.312078 0.152667 2.576637 0.004847 -0.017565 104287.000000 0 0 1
-21.061804 -1.990273 -32.670945 38.922377 0.094217 2.566951 0.014314 -0.024867 156715.000000 0 0 1
-21.851004 -1.445973 -31.650805 38.488059 0.066078 2.536332 0.009918 -0.007290 -1275.850000 0 0 1
-23.056104 -0.580473 -32.144855 39.562767 0.025171 2.519229 0.013316 -0.004464 225049.000000 0 0 1
-22.615104 0.584027 -32.798225 39.843539 -0.025819 2.537778 0.013429 -0.005000 36807.100000 0 0 1
-23.683504 1.456327 -33.037725 40.675798 -0.061414 2.518745 0.013490 -0.005443 -131926.000000 0 0 1
-23.245204 2.863227 -33.570305 40.932908 -0.122558 2.532434 0.011604 0.001266 -604510.000000 0 0 1
-22.739704 3.832627 -32.673065 39.991403 -0.166974 2.526989 0.008319 -0.002784 223829.000000 0 0 1
-23.641004 4.362327 -31.726155 39.805475 -0.182471 2.493158 0.004526 -0.008911 -262025.000000 0 0 1
-24.883604 5.110327 -32.254035 41.056448 -0.202553 2.474465 0.010158 -0.013967 -490518.000000 0 0 1
-25.979964 4.328227 -32.635445 41.937624 -0.165082 2.462575 0.022395 -0.016084 -255120.000000 0 0 1
-26.678424 4.892427 -33.697605 43.257401 -0.181370 2.463869 0.032658 -0.016889 -209817.000000 0 0 1
-27.906434 4.041827 -34.129281 44.270907 -0.143835 2.451079 0.043377 -0.010637 38598.900000 0 0 1
-27.653144 2.802127 33.746132 43.718986 -0.100987 0.688992 0.044339 -0.010115 220404.000000 0 0 1
-28.834724 2.426227 33.080627 43.950606 -0.083945 0.718677 0.051943 -0.008940 -30336.500000 0 0 1
-29.015094 0.909227 32.745064 43.760045 -0.031326 0.725321 0.056844 0.002724 -130558.000000 0 0 1
-29.234444 0.219627 33.986927 44.830928 -0.007512 0.710381 0.042779 0.007044 189632.000000 0 0 1
-29.328174 -1.114473 33.780472 44.749348 0.037982 0.715322 0.032729 0.004743 -836208.000000 0 0 1
-28.889934 -1.995973 -33.538665 44.310882 0.068979 2.429345 -0.001722 0.009266 797272.000000 0 0 1
-27.531764 -2.127273 -33.076545 43.088063 0.077113 2.445962 0.014320 0.004739 1035860.000000 0 0 1
-26.830314 -0.941873 -32.789875 42.378400 0.035090 2.455521 0.006837 0.012703 -806921.000000 0 0 1
-27.017034 -0.327173 -31.382495 41.411208 0.012109 2.430771 0.035146 0.008893 -706562.000000 0 0 1
-26.236864 -1.026873 -30.466205 40.219611 0.039119 2.430266 0.024072 -0.000604 170849.000000 0 0 1
-26.557994 -0.608873 -29.159775 39.446042 0.022922 2.402726 0.027706 -0.002629 -498292.000000 0 0 1
-25.594624 -0.991373 -28.064375 37.995746 0.038714 2.401816 0.033465 -0.000710 -432339.000000 0 0 1
-25.684594 -2.407673 -27.790315 37.918292 0.093467 2.393371 0.021497 0.013618 173453.000000 0 0 1
-24.631104 -2.807773 -26.946365 36.615317 0.113503 2.397838 0.034929 0.002924 -144471.000000 0 0 1
-24.796604 -4.219673 -26.327025 36.411392 0.168557 2.378994 0.025519 -0.000747 -284961.000000 0 0 1
-25.865064 -4.275373 -25.434765 36.526807 0.163814 2.341070 0.039226 0.000735 -481183.000000 0 0 1
-25.785184 -5.369473 -24.560135 36.012597 0.205305 2.321273 0.033505 -0.004199 875476.000000 0 0 1
-26.935074 -5.331773 -23.452535 36.110212 0.195423 2.277685 0.050553 -0.013020 1033360.000000 0 0 1
-26.894684 -6.333673 -22.442035 35.596128 0.231285 2.252946 0.036765 -0.012947 142019.000000 0 0 1
-28.169144 -6.265973 -21.820735 36.178827 0.218877 2.218223 0.065395 -0.014290 207653.000000 0 0 1
-28.551084 -7.464973 -20.912735 36.169499 0.255735 2.187301 0.054581 -0.017940 -283917.000000 0 0 1
-27.897834 -7.396773 -19.671435 34.928022 0.259175 2.169049 0.029161 -0.016533 89659.600000 0 0 1
-28.280384 -8.523673 -18.898135 35.065262 0.292740 2.139977 0.036092 -0.007306 138299.000000 0 0 1
-29.033494 -8.090873 -17.642635 34.923753 0.271778 2.100382 0.041282 -0.014718 77220.600000 0 0 1
-28.134264 -7.398273 -16.758135 33.572404 0.257142 2.093430 0.050199 -0.027156 448962.000000 0 0 1
-28.717294 -6.773773 -15.655135 33.401350 0.231644 2.058612 0.052798 -0.024841 -544189.000000 0 0 1
-27.655154 -6.131673 -14.755535 31.939486 0.218189 2.051027 0.060036 -0.029359 -154314.000000 0 0 1
-26.967004 -5.105573 -15.448635 31.495182 0.187112 2.083469 0.073183 -0.024329 28995.500000 0 0 1
-26.017494 -4.560373 -14.570135 30.166137 0.173518 2.074870 0.064060 -0.037024 -261190.000000 0 0 1
-13.954904 20.851827 -4.859035 25.556765 -0.981013 1.762088 0.059593 -0.015624 38646.000000 0 0 1
-14.019604 20.597727 -6.222535 25.681425 -0.973183 1.815529 0.077789 -0.023448 -16196.800000 0 0 1
-14.989204 19.605127 -6.460535 25.510306 -0.918045 1.826837 0.073867 -0.030426 -186333.000000 0 0 1
-15.127804 19.019627 -7.852735 25.539422 -0.898880 1.883335 0.076077 -0.027200 -84155.200000 0 0 1
-13.977304 18.287627 -8.326035 24.477033 -0.918203 1.917880 0.063622 -0.024006 432866.000000 0 1 0
-14.218604 17.346427 -9.368735 24.307209 -0.884167 1.966470 0.054374 -0.019966 -597079.000000 0 1 0
-14.730704 15.918627 -8.907135 23.446393 -0.824137 1.960478 0.050057 -0.028083 1427870.000000 0 1 0
-16.120704 16.089927 -8.499535 24.310593 -0.784443 1.927965 0.052291 -0.017343 1257500.000000 0 1 0
-16.384004 15.099727 -7.470835 23.500015 -0.744629 1.894318 0.059966 -0.011654 1385200.000000 0 1 0
-17.871504 15.388927 -6.949935 24.586812 -0.710896 1.857372 0.074802 -0.013281 1310260.000000 0 1 0
-18.838404 14.944027 -7.861335 25.298418 -0.670627 1.886772 0.068629 -0.010996 1029580.000000 0 0 1
-20.190604 15.235827 -7.388135 26.351004 -0.646439 1.854980 0.035377 -0.014350 1121640.000000 0 0 1
-21.253304 14.600427 -8.270935 27.079212 -0.601929 1.881191 0.038594 -0.002811 -473739.000000 0 0 1
-21.408404 13.225727 -8.022235 26.412040 -0.553392 1.879406 0.057160 -0.009993 126489.000000 0 0 1
-22.114204 12.549727 -9.063935 26.994232 -0.516177 1.913222 0.047708 -0.009320 115355.000000 0 0 1
-22.587004 11.120327 -8.566235 26.593510 -0.457495 1.898762 0.062158 -0.014738 -352592.000000 0 0 1
-21.581504 10.156827 -8.299835 25.254894 -0.439874 1.905662 0.068063 -0.012807 -182298.000000 0 0 1
-22.073804 8.942727 -7.868835 25.082738 -0.384920 1.889900 0.087140 -0.026386 -422268.000000 0 0 1
-20.912004 8.085827 -7.362235 23.598623 -0.368953 1.888070 0.075347 -0.010177 -270296.000000 0 1 0
-20.535404 7.029827 -8.236535 23.215550 -0.329823 1.933481 0.059782 -0.010822 484113.000000 0 1 0
-19.485104 6.323527 -7.577335 21.841984 -0.313808 1.925077 0.042993 -0.004621 15020.600000 0 1 0
-19.173204 5.124027 -8.440335 21.566331 -0.261146 1.972912 0.025658 -0.016755 -1010020.000000 0 1 0
-20.198204 4.175127 -8.301535 22.233187 -0.203837 1.953451 0.045242 -0.016556 311734.000000 0 1 0
-20.246104 3.279227 -9.396335 22.559901 -0.160574 2.000395 0.049641 -0.015627 -117554.000000 0 1 0
-21.284304 2.144627 -9.355735 23.348464 -0.100422 1.983077 0.052839 -0.020525 46828.200000 0 1 0
-20.893504 1.157727 -8.372635 22.538408 -0.055354 1.951402 0.050318 -0.023493 81665.100000 0 1 0
-21.842004 0.149127 -8.156435 23.315720 -0.006827 1.928181 0.064202 -0.021877 -377429.000000 0 1 0
-21.633504 -1.145073 -8.947735 23.438892 0.052881 1.962482 0.039844 -0.030881 -318574.000000 0 1 0
-20.600404 -1.977373 -8.492535 22.369841 0.095694 1.960206 0.040162 -0.023367 -127893.000000 0 1 0
-20.375404 -3.244673 -9.022835 22.518804 0.157919 1.983055 0.013744 -0.022075 -577956.000000 0 1 0
-21.329404 -4.395573 -8.561335 23.400021 0.203235 1.945362 0.013987 -0.019263 54900.900000 0 1 0
-21.273804 -4.501373 -7.146835 22.889175 0.208517 1.888343 0.029951 -0.018682 277149.000000 0 1 0
-22.331604 -5.254273 -6.584735 23.867690 0.231081 1.850307 0.045392 -0.014555 -202543.000000 0 1 0
-22.362604 -6.807973 -6.832435 24.353988 0.295521 1.855160 0.038632 -0.019694 171619.000000 0 1 0
-21.299804 -7.555173 -6.197435 23.434387 0.340861 1.838439 0.035295 -0.017508 1046980.000000 0 1 0
-21.297804 -8.928473 -6.490335 23.988300 0.396965 1.844774 0.032938 -0.010826 -203174.000000 0 1 0
-20.157504 -9.690173 -5.759635 23.095407 0.448107 1.822841 0.026222 -0.011276 639338.000000 0 1 0
-18.907104 -9.606673 -6.495535 22.180142 0.470105 1.868006 0.015112 -0.008058 -11445.100000 0 1 0
-17.999304 -10.377373 -5.849835 21.584378 0.522993 1.845251 0.021803 -0.001683 -1269610.000000 0 1 0
-17.556804 -11.652973 -6.599235 22.081283 0.585967 1.874295 0.030246 0.004894 270682.000000 0 1 0
-16.455704 -11.574273 -7.531135 21.481899 0.612977 1.928987 0.030795 0.002948 970413.000000 0 1 0
-16.798404 -11.022073 -8.779035 21.925873 0.580678 1.982745 0.032437 -0.001536 63182.600000 0 1 0
-15.655404 -11.239373 -9.807635 21.624174 0.622654 2.041540 0.027745 0.004734 421697.000000 0 1 0
-15.730204 -12.532973 -10.468035 22.673652 0.672754 2.050688 0.028733 0.006647 -340398.000000 0 1 0
-14.704404 -12.645373 -11.382035 22.487234 0.710255 2.101517 0.038900 0.015183 -410768.000000 0 1 0
-14.786804 -14.019473 -12.025735 23.660378 0.758767 2.103965 0.051252 0.006230 309792.000000 0 1 0
-15.841604 -14.020573 -13.017335 24.839160 0.724492 2.122413 0.057024 0.000346 719005.000000 0 1 0
-15.866404 -15.271273 -13.634135 25.900660 0.766288 2.125158 0.044293 0.000503 213638.000000 0 0 1
-16.408704 -15.159773 -15.108935 26.969320 0.745856 2.165456 0.062318 -0.000453 56347.100000 0 0 1
-16.520504 -16.471073 -15.651735 28.092706 0.783900 2.161741 0.064422 0.007309 80061.100000 0 0 1
-16.821204 -16.344673 -17.029735 28.984705 0.771031 2.198814 0.062788 0.005269 -29671.200000 0 0 1
-17.464404 -17.633073 -17.682835 30.473157 0.790204 2.189864 0.064730 -0.003202 414483.000000 0 0 1
-18.805404 -17.806273 -17.246035 31.114824 0.758115 2.158283 0.039154 -0.003409 52279.000000 0 0 1
-19.632404 -18.279373 -18.294535 32.469320 0.749724 2.169341 0.047918 0.000192 84591.500000 0 0 1
-21.132704 -18.357273 -17.945035 33.250638 0.715232 2.140865 0.042578 -0.002202 -59107.300000 0 0 1
-21.715804 -17.124973 -17.491435 32.722945 0.667748 2.134749 0.026686 0.016612 174622.000000 0 0 1
-21.728904 -17.090773 -16.107835 31.995346 0.666483 2.098375 0.023781 0.004636 -525631.000000 0 0 1
-21.420604 -15.749673 -15.474235 30.762744 0.633999 2.097884 0.019950 0.000934 -413855.000000 0 0 1
-22.504404 -14.893673 -15.374435 31.058702 0.584634 2.088645 0.019643 -0.001460 -101338.000000 0 0 1
-22.045204 -13.660673 -14.848435 29.884461 0.554755 2.090775 0.030249 0.001592 -96276.500000 0 0 1
-23.228504 -12.693373 -14.630535 30.244630 0.500119 2.075719 0.030142 -0.006575 -67322.600000 0 0 1
-24.027704 -13.200673 -13.554535 30.582899 0.502378 2.029969 0.026722 0.001369 -475896.000000 0 0 1
-24.922304 -12.193073 -13.268435 30.754571 0.455005 2.016873 0.053994 -0.008653 -1076640.000000 0 0 1
-25.847214 -12.783373 -12.179035 31.302108 0.459298 1.970429 0.054340 -0.012043 -410030.000000 0 0 1
-26.723774 -11.806273 -11.639635 31.448836 0.416005 1.949927 0.054390 -0.023581 -85627.100000 0 0 1
-27.353994 -12.365673 -10.537435 31.814908 0.424567 1.908383 0.051364 -0.023322 48045.300000 0 0 1
-28.343644 -11.326273 -9.888135 32.084604 0.380166 1.884086 0.067606 -0.024831 -350064.000000 0 0 1
-27.688344 -10.390473 -9.137235 30.953116 0.359003 1.870457 0.070746 -0.031168 -405716.000000 0 0 1
-28.504554 -9.459073 -8.457735 31.201233 0.320410 1.845301 0.093149 -0.030187 50477.900000 0 0 1
-27.708364 -8.231673 -7.853735 29.953214 0.288778 1.836098 0.086155 -0.027191 374448.000000 0 0 1
-26.932564 -8.629673 -6.725835 29.070107 0.310082 1.804278 0.078353 -0.030248 636915.000000 0 0 1
-26.137284 -7.611873 -6.033035 27.883610 0.283389 1.788886 0.080190 -0.031459 318831.000000 0 0 1
-26.874114 -6.613173 -5.129035 28.147097 0.241286 1.754043 0.086210 -0.033440 -343794.000000 0 0 1
-27.519804 -7.050173 -3.903835 28.675503 0.250792 1.707359 0.076168 -0.032038 675410.000000 0 0 1
-26.734544 -7.259273 -2.728535 27.836627 0.265139 1.668974 0.095561 -0.022669 141913.000000 0 0 1
-26.089294 -5.957473 -2.086735 26.842079 0.224500 1.648616 0.099667 -0.024125 472058.000000 0 0 1
-27.088404 -5.036373 -1.700435 27.605038 0.183825 1.632434 0.092005 -0.030827 581049.000000 0 0 1
-26.450644 -3.974773 -0.994635 26.766111 0.149155 1.607965 0.073509 -0.027938 -549776.000000 0 0 1
-27.420974 -2.906873 -0.506035 27.579264 0.105615 1.589146 0.079392 -0.032080 445731.000000 0 0 1
-28.422804 -3.263773 0.510065 28.614125 0.114329 1.552970 0.073055 -0.028115 839730.000000 0 0 1
-27.963414 -3.680573 1.790065 28.261342 0.130869 1.507414 0.070275 -0.025398 -346891.000000 0 0 1
-29.084254 -3.839373 2.849865 29.474673 0.131250 1.473956 0.054799 -0.018320 -202975.000000 0 0 1
-29.599494 -5.098773 2.853565 30.170687 0.170585 1.476074 0.058335 -0.012992 197538.000000 0 0 1
-30.583104 -5.201773 3.909965 31.267755 0.168474 1.445420 0.078090 -0.013994 672955.000000 0 0 1
-31.444374 -6.489573 3.759165 32.326375 0.203525 1.454245 0.068241 -0.013596 71866.500000 0 0 1
-30.622784 -7.631773 4.035965 31.816471 0.244243 1.443602 0.061179 -0.008647 758450.000000 0 0 1
-31.342394 -8.877473 3.892765 32.807145 0.276012 1.451860 0.079939 -0.015716 -242269.000000 0 0 1
-30.592984 -10.130473 4.289265 32.510843 0.319773 1.438477 0.059066 -0.010159 -252614.000000 0 0 1
-30.611244 -10.194173 5.675365 32.759414 0.321469 1.396674 0.049347 -0.005205 780685.000000 0 0 1
-29.588204 -11.137373 6.023565 32.183633 0.360009 1.382524 0.038030 -0.008663 226368.000000 0 0 1
-29.769794 -11.653873 7.446465 32.825344 0.373128 1.341953 0.043803 -0.017382 -102987.000000 0 0 1
-29.456654 -10.677073 8.379865 32.433262 0.347738 1.309459 0.054116 -0.012685 338461.000000 0 0 1
-29.425424 -11.155073 9.726765 32.937838 0.362357 1.271020 0.049562 -0.011890 -429533.000000 0 0 1
-29.536014 -9.970573 10.721265 32.965648 0.325562 1.239546 0.049150 -0.012350 -554641.000000 0 0 1
-28.549444 -8.982673 10.476365 31.709831 0.304829 1.234088 0.047958 -0.010137 294308.000000 0 0 1
-28.486304 -8.022773 11.480565 31.743311 0.274525 1.200739 0.049141 -0.012231 -625524.000000 0 0 1
-27.430994 -6.953173 11.313665 30.476303 0.248250 1.190465 0.063950 -0.009727 -555606.000000 0 0 1
-27.755024 -5.962173 10.426965 30.242527 0.211599 1.218794 0.064723 -0.009817 -36232.500000 0 0 1
-26.817254 -4.939673 10.552865 29.239159 0.182156 1.201547 0.067380 -0.012370 -339354.000000 0 0 1
-27.063144 -3.860273 9.488265 28.936873 0.141684 1.236721 0.072690 -0.016354 -205172.000000 0 0 1
-26.700084 -4.341273 8.248365 28.280323 0.161183 1.274830 0.062764 -0.015186 133174.000000 0 0 1
-27.113374 -3.574873 7.169165 28.272101 0.131093 1.314420 0.056111 -0.026176 -530155.000000 0 0 1
-26.463924 -3.963973 5.864165 27.394174 0.148682 1.355061 0.058292 -0.015569 -1056680.000000 0 0 1
-25.115754 -3.658173 5.810865 26.037463 0.144635 1.345728 0.098412 -0.032113 -601749.000000 0 0 1
-24.509004 -4.023373 4.629165 25.264757 0.162708 1.386529 0.117663 -0.018639 -888586.000000 0 0 1
-23.003204 -3.802673 4.613265 23.767413 0.163829 1.375456 0.123331 -0.022821 -583681.000000 0 1 0
-22.591204 -2.468073 4.492365 23.165388 0.108818 1.375634 0.082325 -0.018683 -188371.000000 0 1 0
-21.197204 -2.434973 4.335465 21.772616 0.114371 1.370332 0.077272 -0.013557 -390941.000000 0 1 0
-20.550104 -1.122973 4.752765 21.122420 0.054591 1.343843 0.045067 -0.021298 -513747.000000 0 1 0
-20.831004 -0.080473 3.799565 21.174841 0.003863 1.390381 0.056196 -0.014895 724030.000000 0 1 0
-22.016004 0.670427 4.016765 22.389468 -0.030442 1.390416 0.050623 -0.035126 81732.400000 0 1 0
-22.186004 1.833827 3.023765 22.466082 -0.082469 1.435794 0.072929 -0.022297 330751.000000 0 1 0
-21.281504 2.922527 3.330965 21.737960 -0.136473 1.416958 0.030249 -0.017527 648705.000000 0 1 0
-21.515304 4.016427 2.495565 22.028795 -0.184553 1.457266 0.051212 -0.007239 380676.000000 0 1 0
-20.496704 4.280627 1.305765 20.979601 -0.205885 1.508516 0.043047 -0.001949 119639.000000 0 1 0
-20.982804 5.089327 0.215365 21.592260 -0.237952 1.560822 0.072394 -0.000316 74451.200000 0 1 0
-21.886204 4.442727 -0.622435 22.341243 -0.200271 1.598660 0.093501 -0.008368 -555950.000000 0 1 0
-21.331204 3.364527 -1.620435 21.655625 -0.156439 1.645694 0.080279 -0.013301 -274217.000000 0 1 0
-21.049804 2.122727 -0.897435 21.175590 -0.100503 1.613190 0.043177 -0.013537 531906.000000 0 1 0
-20.432404 1.183927 -1.729435 20.539614 -0.057879 1.655096 0.027067 -0.011913 -382305.000000 0 1 0
-19.623604 0.163927 -0.886435 19.644298 -0.008353 1.615936 0.023795 -0.011083 -508878.000000 0 1 0
-20.441104 -0.786973 -0.249935 20.457774 0.038481 1.583014 0.036822 -0.015424 403088.000000 0 1 0
-19.833504 -1.563673 0.808565 19.911472 0.078677 1.530177 0.035069 -0.012956 -561588.000000 0 1 0
-18.653604 -2.449873 0.393165 18.817901 0.130588 1.549902 -0.005194 -0.011853 -501550.000000 0 1 0
-18.052404 -3.068173 1.540665 18.375979 0.168351 1.486857 0.010956 -0.010564 385475.000000 0 1 0
-17.336104 -4.228073 1.164865 17.882226 0.239218 1.505609 0.000380 -0.007887 -62392.500000 0 1 0
-18.269204 -5.415573 0.775065 19.070736 0.288180 1.530144 -0.000615 -0.007897 112509.000000 0 1 0
-18.923204 -5.919273 1.928965 19.921002 0.303163 1.473814 0.020204 -0.014110 419726.000000 0 1 0
-19.993104 -6.763473 1.551865 21.163106 0.326205 1.497402 0.031399 -0.016418 81487.100000 0 1 0
-20.868404 -7.279073 2.731765 22.269659 0.335613 1.447819 0.063333 -0.014422 -35595.200000 0 1 0
-20.176704 -8.169773 3.600765 22.063773 0.384733 1.406865 0.069541 -0.013313 877132.000000 0 1 0
-20.958404 -8.529373 4.763765 23.123545 0.386498 1.363297 0.075929 -0.015798 29278.900000 0 1 0
-20.257504 -9.492073 5.660465 23.076108 0.438190 1.322972 0.075506 -0.009737 -389822.000000 0 1 0
-19.886204 -10.697273 5.059665 23.140721 0.493525 1.350368 0.075829 -0.010353 223137.000000 0 1 0
-18.754604 -11.153773 5.768265 22.570217 0.536529 1.312359 0.084149 -0.019715 28501.300000 0 1 0
-18.078304 -12.452273 5.281665 22.578312 0.603167 1.334682 0.054774 -0.014279 -332968.000000 0 1 0
-18.804404 -13.599673 5.496565 23.848877 0.626139 1.338231 0.058325 -0.010180 -292758.000000 0 1 0
-18.222704 -14.673373 4.769665 23.877280 0.677919 1.369686 0.047458 -0.008319 -147549.000000 0 1 0
-18.691704 -16.018573 5.223765 25.164701 0.708537 1.361693 0.046063 -0.009370 -113203.000000 0 0 1
-18.154404 -17.027973 4.425965 25.280890 0.753392 1.394818 0.056205 -0.016717 72384.400000 0 0 1
-18.511904 -18.258873 5.028165 26.483192 0.778517 1.379774 0.053411 -0.010437 -105553.000000 0 0 1
-17.434904 -19.310873 4.770465 26.450766 0.836407 1.389451 0.053814 -0.012021 -968096.000000 0 0 1
-17.467304 -19.843273 3.488965 26.665241 0.848993 1.439577 0.057757 -0.016423 419310.000000 0 0 1
-16.707404 -21.060473 3.286265 27.082843 0.900150 1.449155 0.055882 -0.013743 -109233.000000 0 0 1
-15.216604 -21.052673 3.595465 26.223795 0.944940 1.433256 0.056140 -0.012136 -1122070.000000 0 0 1
-14.715304 -22.350673 3.711565 27.016078 0.988551 1.432977 0.055447 -0.013410 -806198.000000 0 0 1
-13.336604 -22.350073 3.913765 26.319353 1.032796 1.421540 0.059285 -0.012010 -641558.000000 0 0 1
-12.678304 -23.705873 4.109765 27.195551 1.079685 1.419096 0.054881 -0.008000 -389791.000000 0 0 1
-12.801304 -24.626173 3.024365 27.918964 1.091415 1.462257 0.056869 -0.010884 198119.000000 0 0 1
-12.295804 -25.938083 3.403565 28.905972 1.128128 1.452776 0.053413 -0.006549 -34992.700000 0 0 1
18.817896 19.022627 -24.241235 36.105554 0.790808 2.306891 0.072781 -0.009467 617749.000000 0 0 1
17.754496 19.307627 -25.168655 36.351998 0.827280 2.335550 0.064289 -0.020161 820420.000000 0 0 1
18.222896 19.022427 -26.495655 37.362366 0.806861 2.359093 0.069610 -0.019332 313038.000000 0 0 1
17.143896 19.415727 -27.522675 37.793932 0.847459 2.386532 0.055741 -0.018224 61684.700000 0 0 1
16.997696 20.769827 -27.682565 38.556864 0.884946 2.371674 0.053613 -0.012470 223171.000000 0 0 1
16.308496 21.066427 -28.883335 39.293873 0.912020 2.396551 0.030552 -0.012785 -171695.000000 0 0 1
15.980796 22.540927 -29.133475 40.152691 0.954077 2.382655 0.043949 -0.011397 71487.000000 0 0 1
14.864796 23.111827 -28.441875 39.548185 0.999239 2.373404 0.039703 -0.016103 597422.000000 0 0 1
14.888596 24.486227 -28.411505 40.354172 1.024486 2.351886 0.042284 -0.005633 489708.000000 0 0 1
13.909196 25.182527 -27.370645 39.708659 1.066162 2.331300 0.033442 -0.011094 260213.000000 0 0 1
12.552796 24.880527 -27.547545 39.185208 1.103537 2.350416 0.044321 -0.017341 -497047.000000 0 0 1
11.819996 25.561427 -26.552895 38.706008 1.137666 2.326794 0.029612 -0.010467 -781249.000000 0 0 1
10.320496 25.224727 -26.483285 38.002156 1.182434 2.341847 0.046366 -0.021710 315788.000000 0 0 1
9.615296 26.118427 -25.577005 37.799594 1.218051 2.313996 0.032483 -0.017803 435759.000000 0 0 1
9.432396 27.476227 -26.059325 39.025653 1.240109 2.301976 0.037073 -0.019190 -745615.000000 0 0 1
9.044296 28.414227 -24.910435 38.854824 1.262635 2.266747 0.045318 -0.021033 -432274.000000 0 0 1
10.107596 28.628827 -24.031135 38.720391 1.231401 2.240345 0.030057 -0.016213 73685.000000 0 0 1
9.584596 29.367127 -22.941735 38.478771 1.255324 2.209578 0.057662 -0.023777 291519.000000 0 0 1
10.687096 29.765127 -21.929435 38.484762 1.226084 2.177085 0.035871 -0.022522 -503042.000000 0 0 1
11.573396 30.727427 -22.317835 39.701436 1.210582 2.167770 0.018153 -0.023149 -644603.000000 0 0 1
12.178596 31.237427 -21.152035 39.642195 1.199051 2.133617 0.015523 -0.017206 128066.000000 0 0 1
13.462196 32.083127 -21.462635 40.880343 1.173505 2.123525 0.012473 -0.001110 405586.000000 0 0 1
14.523196 31.297827 -21.952635 40.894931 1.136335 2.137443 0.004384 0.003351 105323.000000 0 0 1
15.534996 32.138927 -22.542835 42.218789 1.120541 2.134065 0.003165 0.008404 218519.000000 0 0 1
16.716096 31.343127 -23.082235 42.362826 1.080845 2.147030 -0.008750 0.018990 -111788.000000 0 0 1
17.587596 30.788427 -22.102335 41.782340 1.051792 2.128203 -0.005480 0.024343 -311964.000000 0 0 1
18.760896 30.401227 -22.732435 42.343470 1.017891 2.137505 0.004998 0.025231 -589681.000000 0 0 1
19.877496 29.735027 -21.912835 41.945906 0.981534 2.120468 0.014411 0.025748 264705.000000 0 0 1
20.424696 30.557827 -20.867735 42.265960 0.981598 2.087164 0.019864 0.024773 122949.000000 0 0 1
21.413096 29.848227 -20.163835 41.904863 0.948488 2.072798 0.032838 0.019046 -187368.000000 0 0 1
21.985396 30.570927 -18.957435 42.158315 0.947327 2.037195 0.032330 0.007922 379119.000000 0 0 1
23.107996 31.391627 -19.339435 43.513532 0.936238 2.031353 0.047554 0.003272 686843.000000 0 0 1
23.739596 32.048927 -18.260935 43.865292 0.933255 2.000164 0.051962 0.007043 -247025.000000 0 0 1
25.067896 32.759827 -18.539835 45.225338 0.917636 1.993188 0.044624 0.003433 -92869.200000 0 0 1
26.092696 31.812927 -18.786635 45.230839 0.883864 1.999124 0.047615 0.005483 -278949.000000 0 0 1
27.337196 32.488327 -18.652235 46.375851 0.871289 1.984712 0.052976 0.000397 190361.000000 0 0 1
28.533296 31.619627 -19.115735 46.683628 0.836661 1.992674 0.058701 -0.018490 1747.550000 0 0 1
28.829596 30.570027 -18.263335 45.817263 0.814690 1.980800 0.055254 -0.015822 -43290.700000 0 0 1
30.016696 29.946927 -18.719335 46.349045 0.784235 1.986548 0.045790 -0.025505 -77618.500000 0 0 1
30.502296 28.836727 -17.770535 45.582220 0.757337 1.971272 0.046401 -0.028551 -382295.000000 0 0 1
31.037596 29.395227 -16.589435 45.854346 0.758228 1.940979 0.049220 -0.019888 48671.200000 0 0 1
31.237796 28.367127 -15.672335 45.012397 0.737274 1.926423 0.053916 -0.024896 -291894.000000 0 0 1
31.809696 28.883827 -14.323635 45.291266 0.737228 1.892577 0.068337 -0.025839 -117850.000000 0 0 1
33.119796 29.387227 -14.299535 46.529633 0.725755 1.883173 0.057775 -0.017664 -507156.000000 0 0 1
33.263396 30.701227 -14.781735 47.618469 0.745364 1.886431 0.054405 -0.018905 -226701.000000 0 0 1
34.734296 31.170027 -14.839035 48.971817 0.731368 1.878648 0.056118 -0.019492 -6388.520000 0 0 1
35.341296 31.220527 -13.614135 49.082310 0.723568 1.851856 0.054362 -0.019998 -587396.000000 0 0 1
-35.535301 31.552327 -13.774835 49.477804 -0.726098 1.852929 0.038917 -0.018506 358536.000000 0 0 1
-34.719301 31.791027 -12.450535 48.694097 -0.741399 1.829356 0.030849 -0.010102 236551.000000 0 0 1
-35.202801 32.935627 -11.720735 49.612180 -0.752137 1.809298 0.041505 -0.015418 169519.000000 0 0 1
-34.431101 33.205327 -10.586035 48.991414 -0.767277 1.788594 0.019108 -0.011388 -235418.000000 0 0 1
-34.981601 -34.173319 -9.759735 49.867631 0.773711 1.767781 0.024592 -0.005406 -35426.700000 0 0 1
-34.084501 -33.336219 -9.060035 48.529795 0.774300 1.758588 0.015528 0.004542 -305267.000000 0 0 1
-33.804701 -33.902919 -7.823835 48.511629 0.786849 1.732781 0.013759 0.003751 221890.000000 0 0 1
-33.207801 -32.830819 -6.935135 47.209288 0.779690 1.718232 0.027800 0.007524 68842.300000 0 0 1
-34.292001 -32.000919 -6.583935 47.363999 0.750852 1.710255 0.026738 0.005453 84888.900000 0 0 1
-34.022401 -31.163819 -5.460735 46.459951 0.741574 1.688605 0.032577 0.010027 296543.000000 0 0 1
-35.305001 -30.331219 -5.160335 46.830066 0.709765 1.681213 0.032734 0.006228 130453.000000 0 0 1
35.919396 -31.195419 -4.683035 47.804686 -0.715128 1.668916 0.031055 0.007909 221940.000000 0 0 1
34.667296 -30.590219 -4.387135 46.441683 -0.723003 1.665403 0.035663 0.006730 87668.400000 0 0 1
34.573896 -29.725819 -3.135535 45.703503 -0.710142 1.639456 0.030163 0.008730 -590188.000000 0 0 1
35.078096 -28.405019 -3.393935 45.264078 -0.680667 1.645848 0.043950 -0.005671 458516.000000 0 0 1
34.508596 -27.519319 -2.431235 44.204831 -0.673192 1.625823 0.033737 -0.004942 -7578.320000 0 0 1
34.782796 -26.018519 -2.746935 43.524153 -0.642238 1.633951 0.044910 -0.013984 -178870.000000 0 0 1
34.072696 -25.475719 -3.837435 42.716353 -0.642019 1.660753 0.051009 -0.018749 237028.000000 0 0 1
34.247296 -24.114319 -3.908535 42.067260 -0.613488 1.663842 0.046013 -0.024206 -229577.000000 0 0 1
33.829496 -23.639919 -5.302435 41.610052 -0.609918 1.698575 0.051590 -0.026322 284903.000000 0 0 1
34.866696 -23.766819 -6.307535 42.665363 -0.598303 1.719178 0.056765 -0.032481 638070.000000 0 0 1
34.443996 -23.317019 -7.571635 42.277677 -0.595091 1.750861 0.046070 -0.032758 -200399.000000 0 0 1
35.602996 -23.161619 -8.575735 43.331019 -0.576764 1.770024 0.038894 -0.038446 -156505.000000 0 0 1
36.049096 -24.383719 -9.109735 44.464485 -0.594713 1.777134 0.039936 -0.026555 -216746.000000 0 0 1
-34.903401 -24.234219 -9.674235 43.579074 0.606905 1.794654 0.038503 -0.029905 165690.000000 0 0 1
-34.427201 -25.532419 -10.370335 44.098532 0.638126 1.808182 0.026861 -0.028450 -357462.000000 0 0 1
-33.855701 -26.520019 -9.567835 44.057501 0.664490 1.789708 0.028134 -0.019277 -166979.000000 0 0 1
-34.729101 -27.325019 -8.834035 45.064480 0.666643 1.768105 0.029132 -0.013689 66157.900000 0 0 1
-33.889201 -28.553319 -8.350935 45.094436 0.700153 1.757059 0.017627 -0.004815 315057.000000 0 0 1
-33.290001 -29.185519 -9.435135 45.266329 0.719795 1.780772 0.014681 -0.007367 715867.000000 0 0 1
-32.275501 -30.107819 -8.905935 45.027819 0.750664 1.769897 0.005973 -0.001880 829333.000000 0 0 1
-31.805601 -31.054519 -10.048435 45.573572 0.773450 1.793111 -0.000220 0.004015 -98895.600000 0 0 1
-31.016001 -30.402619 -11.020335 44.808028 0.775412 1.819291 -0.012264 0.012005 110605.000000 0 0 1
-30.861901 -31.230619 -12.145335 45.555655 0.791336 1.840664 -0.001440 0.011168 -292808.000000 0 0 1
-30.963901 -30.498219 -13.478135 45.503458 0.777822 1.871508 -0.015531 0.014155 -330100.000000 0 0 1
-29.947901 -29.562519 -13.729035 44.264046 0.778922 1.886160 0.003075 0.012690 -338250.000000 0 0 1
-30.185901 -29.018619 -15.015835 44.483078 0.765685 1.915123 -0.015824 0.014768 634668.000000 0 0 1
-29.002601 -28.137319 -15.570135 43.304604 0.770256 1.938581 0.003148 0.006355 540248.000000 0 0 1
-27.847601 -28.875819 -15.862935 43.138551 0.803523 1.947353 0.026465 -0.004272 -557527.000000 0 0 1
-26.823801 -28.103719 -16.404435 42.171565 0.808696 1.970334 0.036966 0.002692 -130644.000000 0 0 1
-25.502101 -28.792219 -16.784835 41.965221 0.845922 1.982281 0.064554 -0.004833 -213290.000000 0 0 1
-25.611301 -29.547819 -17.948935 43.025303 0.856644 2.001127 0.056406 -0.007039 -61025.700000 0 0 1
-25.688601 -28.844919 -19.189135 43.129532 0.843212 2.031880 0.044364 0.004571 -6092.950000 0 0 1
-24.403701 -28.134919 -19.696335 42.131460 0.856298 2.057254 0.051229 0.002691 5431.930000 0 0 1
-24.153701 -26.923119 -19.014135 40.863100 0.839566 2.054785 0.064520 0.000401 38858.700000 0 0 1
-22.793701 -26.533419 -19.083135 39.846471 0.861068 2.070216 0.058948 -0.007290 204925.000000 0 0 1
-22.540501 -25.327619 -18.179535 38.471522 0.843557 2.062973 0.058837 -0.009852 -117228.000000 0 0 1
-22.668601 -25.690019 -16.852535 38.181809 0.847796 2.027928 0.064370 -0.004326 350660.000000 0 0 1
-22.147001 -24.674519 -15.980435 36.806194 0.839328 2.019922 0.049831 -0.004296 92517.000000 0 0 1
-22.525401 -24.946319 -14.510135 36.609515 0.836351 1.978333 0.042544 -0.001751 -139731.000000 0 0 1
-23.856601 -24.597519 -14.210935 37.096173 0.800688 1.963929 0.010337 0.011340 -131453.000000 0 0 1
-24.144401 -24.769819 -12.862135 36.904344 0.798183 1.926795 0.001616 0.008465 -270037.000000 0 0 1
-25.649701 -24.699219 -12.578035 37.764608 0.766523 1.910348 -0.013626 0.011422 -1069040.000000 0 0 1
-26.434701 -25.738319 -13.113135 39.156211 0.772051 1.912288 0.008100 0.006820 -312108.000000 0 0 1
-27.752101 -25.642819 -12.655635 39.848443 0.745915 1.893988 -0.004571 0.009016 -512226.000000 0 0 1
-28.724601 -24.587219 -13.207235 40.050782 0.707946 1.906848 0.007110 0.004094 -1284750.000000 0 0 1
-28.805401 -23.313119 -12.635635 39.152420 0.680405 1.899408 -0.001537 0.006269 298708.000000 0 0 1
-29.374501 -23.124419 -11.311935 39.058418 0.666904 1.864622 0.028153 -0.005754 952683.000000 0 0 1
-30.852801 -23.629919 -11.003635 40.389955 0.653595 1.846719 0.009769 -0.009684 1373740.000000 0 0 1
-31.973201 -22.873519 -11.440335 40.943434 0.620985 1.853984 0.036002 -0.026915 323789.000000 0 0 1
-32.151901 -22.825419 -12.860235 41.474452 0.617356 1.886069 0.036326 -0.017601 -1199570.000000 0 0 1
-33.567201 -22.400319 -13.247835 42.473950 0.588460 1.887994 0.016137 -0.025541 30192.600000 0 0 1
-34.519301 -23.333219 -12.737235 43.569008 0.594400 1.867476 0.023096 -0.027079 -679220.000000 0 0 1
-35.829001 -23.040319 -13.083135 44.561666 0.571483 1.868783 0.043087 -0.039936 -403466.000000 0 0 1
35.424896 -24.236119 -12.903735 44.819852 -0.600012 1.862832 0.029915 -0.022676 -176001.000000 0 0 1
35.654396 -25.317519 -13.826235 45.862594 -0.617460 1.877031 0.008136 -0.009481 115032.000000 0 0 1
34.965896 -26.515619 -13.491235 45.909753 -0.648810 1.869063 0.000728 -0.017710 25280.100000 0 0 1
34.837396 -27.623219 -14.561635 46.783840 -0.670408 1.887308 -0.008581 -0.013308 99579.700000 0 0 1
33.809396 -27.525719 -15.524435 46.279030 -0.683306 1.912882 0.000486 -0.016828 -120642.000000 0 0 1
33.654296 -28.685019 -16.235135 47.106492 -0.705853 1.922660 -0.009307 0.003113 -157223.000000 0 0 1
32.723596 -28.366819 -17.396035 46.670464 -0.714202 1.952758 -0.006781 0.002417 -218480.000000 0 0 1
31.352896 -28.419919 -17.098135 45.640357 -0.736369 1.954791 0.042432 -0.007105 91977.000000 0 0 1
30.512996 -28.211119 -18.244135 45.384564 -0.746220 1.984485 0.048253 -0.008615 250241.000000 0 0 1
29.003596 -28.296619 -18.019635 44.346528 -0.773061 1.989238 0.061900 -0.015534 -93093.000000 0 0 1
28.474196 -27.366319 -17.075135 43.026219 -0.765561 1.978883 0.057272 -0.019317 364931.000000 0 0 1
27.046096 -27.443519 -17.067135 42.141727 -0.792692 1.987768 0.075503 -0.015981 472671.000000 0 0 1
26.450496 -26.563819 -15.991835 40.755417 -0.787536 1.974020 0.057359 -0.016851 -480727.000000 0 0 1
26.480796 -25.189619 -16.359635 40.042317 -0.760415 1.991671 0.051385 -0.026819 11246.000000 0 0 1
26.284696 -24.361419 -15.208235 38.931407 -0.747442 1.972125 0.042427 -0.024360 -327713.000000 0 0 1
26.095396 -22.831419 -15.508435 37.983615 -0.718785 1.991379 0.042384 -0.027797 228913.000000 0 0 1
24.860196 -22.393719 -16.078035 37.121574 -0.733249 2.018746 0.045967 -0.022184 538810.000000 0 0 1
24.908796 -21.040419 -16.462735 36.526279 -0.701408 2.038356 0.043768 -0.027086 232697.000000 0 0 1
23.451596 -20.523919 -16.383635 35.208410 -0.718921 2.054807 0.051534 -0.021844 274684.000000 0 0 1
22.999696 -20.190619 -15.065535 34.111838 -0.720450 2.028235 0.062390 -0.023294 -1673530.000000 0 0 1
21.683196 -19.901719 -15.164535 33.108950 -0.742585 2.046562 0.057961 -0.018609 -1585060.000000 0 0 1
21.238196 -18.711419 -14.256135 31.692516 -0.722233 2.037367 0.056325 -0.011210 -38105.100000 0 0 1
20.742096 -19.054519 -12.985635 31.015093 -0.743019 2.002796 0.054112 -0.020983 226690.000000 0 0 1
20.298696 -17.852819 -12.303235 29.700670 -0.721376 1.997905 0.059962 -0.024247 417059.000000 0 0 1
19.420696 -17.984419 -10.978835 28.655499 -0.747019 1.963981 0.065826 -0.016428 289335.000000 0 0 1
20.129696 -18.422519 -9.843635 29.008465 -0.741145 1.917008 0.070786 -0.033355 -51597.600000 0 0 1
19.243596 -18.567619 -8.756035 28.137886 -0.767522 1.887234 0.068969 -0.038921 6050.850000 0 0 1
19.832796 -19.138619 -7.436035 28.546824 -0.767588 1.834321 0.073273 -0.041713 -169889.000000 0 0 1
20.924396 -18.446019 -6.880835 28.730330 -0.722531 1.812644 0.074785 -0.039754 -110327.000000 0 0 1
21.365296 -19.111419 -5.726835 29.232155 -0.729772 1.767980 0.066426 -0.032331 -389020.000000 0 0 1
22.684596 -18.535919 -5.167035 29.746756 -0.685090 1.745383 0.064033 -0.033777 111778.000000 0 0 1
23.731496 -18.862719 -6.090935 30.920634 -0.671586 1.769079 0.058545 -0.042574 134401.000000 0 0 1
24.514396 -17.700919 -6.224935 30.871151 -0.625380 1.773831 0.069492 -0.043572 -605739.000000 0 0 1
25.523396 -17.678319 -7.397835 31.916997 -0.605764 1.804707 0.076178 -0.051092 -198040.000000 0 0 1
26.528596 -18.629319 -7.272035 33.221988 -0.612225 1.791475 0.082729 -0.059211 -147932.000000 0 0 1
26.437096 -19.421419 -8.412235 33.865577 -0.633590 1.821825 0.079129 -0.058601 -176252.000000 0 0 1
27.360396 -20.664419 -8.306835 35.279073 -0.646864 1.808489 0.069002 -0.060617 1167150.000000 0 0 1
28.754096 -20.362419 -8.458635 36.234993 -0.616180 1.806409 0.064345 -0.050874 530313.000000 0 0 1
29.651496 -21.401119 -8.221735 37.480876 -0.625178 1.791953 0.054524 -0.047313 117293.000000 0 0 1
-29.650094 29.864527 3.628665 42.239617 -0.789001 1.484784 0.022653 -0.010443 303895.000000 0 0 1
-28.905654 30.775527 2.827165 42.316223 -0.816719 1.503936 0.019286 0.006915 195410.000000 0 0 1
-27.951654 31.482127 3.621565 42.255591 -0.844730 1.484985 0.019666 0.019058 223295.000000 0 0 1
-27.345754 32.696827 2.871565 42.721407 -0.874285 1.503530 0.022093 0.022239 266786.000000 0 0 1
-26.325654 32.225127 1.966165 41.657708 -0.885817 1.523581 0.011279 0.020254 550116.000000 0 0 1
-25.697144 33.226227 1.176665 42.020351 -0.912487 1.542790 0.018318 0.007087 386348.000000 0 0 1
-24.458004 33.960427 1.806265 41.889941 -0.946647 1.527664 0.012097 0.005756 702422.000000 0 0 1
-23.244704 33.297027 1.446265 40.633729 -0.961346 1.535196 0.016226 0.009270 -254598.000000 0 0 1
-22.124904 33.870627 2.050365 40.508452 -0.992162 1.520159 0.023911 0.009685 -411289.000000 0 0 1
-20.832904 33.587127 1.289765 39.544512 -1.015610 1.538175 0.034302 0.011268 -530987.000000 0 0 1
-20.546704 -34.272319 0.112565 39.959624 1.030735 1.567979 0.047346 -0.006853 -349756.000000 0 0 1
-19.241404 34.032827 -0.259435 39.096448 -1.056223 1.577432 0.058439 -0.010255 -482010.000000 0 0 1
-18.548004 -33.786819 -1.436735 38.569960 1.068743 1.608055 0.069981 -0.022262 268106.000000 0 0 1
-18.448704 -32.353419 -1.343035 37.267978 1.052559 1.606841 0.069129 -0.031513 495562.000000 0 0 1
-17.769004 -31.891919 -0.153735 36.508296 1.062470 1.575007 0.071944 -0.027147 -179877.000000 0 0 1
-17.649304 -30.368719 -0.027535 35.124889 1.044340 1.571580 0.066260 -0.030175 -85336.300000 0 0 1
-16.700804 -29.948719 -0.997135 34.305057 1.062101 1.599867 0.064554 -0.024163 291089.000000 0 0 1
-16.750104 -28.546719 -0.987235 33.112774 1.040168 1.600615 0.047199 -0.020947 126189.000000 0 0 1
-15.721504 -27.951819 -1.977235 32.130660 1.058445 1.632373 0.039690 -0.016461 218043.000000 0 0 1
-16.171104 -28.176819 -3.350435 32.659810 1.049778 1.673563 0.045348 -0.022912 346287.000000 0 0 1
-15.321304 -27.494219 -4.270235 31.763333 1.062400 1.705644 0.046786 -0.012832 -12555.900000 0 0 1
-15.863404 -27.676319 -5.666635 32.399645 1.050334 1.746599 0.082756 -0.030815 374664.000000 0 0 1
-17.126004 -27.029719 -5.828135 32.524958 1.006037 1.750959 0.082796 -0.024997 -109913.000000 0 0 1
-17.335004 -26.879019 -7.156835 32.775056 0.997996 1.790932 0.101492 -0.033797 -31393.500000 0 0 1
-17.994404 -25.542219 -7.518235 32.136076 0.957059 1.806935 0.076937 -0.029308 206669.000000 0 0 1
-17.187704 -24.428219 -7.133035 30.708879 0.957658 1.805217 0.056919 -0.014952 172597.000000 0 0 1
-17.822304 -23.213119 -7.411135 30.189540 0.916020 1.818818 0.031896 -0.009476 131852.000000 0 0 1
-16.809504 -22.079219 -7.100135 28.643730 0.920085 1.821285 0.044516 -0.008238 1059690.000000 0 0 1
-15.814004 -22.011719 -8.173235 28.309014 0.947804 1.863681 0.059596 -0.015037 1230070.000000 0 0 1
-14.698804 -21.211919 -7.653935 26.918081 0.964817 1.859116 0.070357 -0.019878 1248260.000000 0 0 1
-13.550904 -20.908119 -8.643435 26.372057 0.995746 1.904717 0.075508 -0.018854 265533.000000 0 0 1
-13.898404 -19.951619 -9.649535 26.160013 0.962352 1.948585 0.080866 -0.016483 -401765.000000 0 0 1
-13.043404 -20.037919 -10.747735 26.213783 0.993763 1.993254 0.072381 -0.007372 -37080.700000 0 0 1
-13.627604 -19.140619 -11.885935 26.331547 0.952080 2.039125 0.079942 -0.008990 -517674.000000 0 0 1
-14.739404 -19.779119 -12.423135 27.618796 0.930374 2.037346 0.069660 0.002543 -724385.000000 0 0 1
-15.154704 -19.060119 -13.563435 27.873284 0.899050 2.079002 0.077030 -0.004974 -743923.000000 0 0 1
-16.262704 -19.686019 -14.337235 29.284317 0.880340 2.082413 0.088062 -0.004341 -336469.000000 0 0 1
-17.510804 -19.714919 -13.644235 29.689585 0.844539 2.048299 0.070925 -0.001621 226995.000000 0 0 1
-18.509204 -20.123419 -14.549735 30.971558 0.827158 2.059835 0.056619 -0.003070 824883.000000 0 0 1
-20.009004 -20.032519 -14.072235 31.617872 0.785985 2.032051 0.032826 0.005972 756125.000000 0 0 1
-20.928904 -20.574519 -14.962835 32.942621 0.776860 2.042280 0.030783 -0.001311 -540886.000000 0 0 1
-22.240604 -20.458419 -14.478435 33.508453 0.743684 2.017598 0.002855 0.004418 201693.000000 0 0 1
-23.336404 -21.033519 -15.456635 35.012915 0.733543 2.028016 0.004319 0.000462 126835.000000 0 0 1
-23.538204 -20.381019 -16.650335 35.308167 0.713635 2.061869 0.010988 -0.013485 274051.000000 0 0 1
-23.940504 -21.200119 -17.729735 36.564139 0.724765 2.077038 0.019542 -0.014352 -252309.000000 0 0 1
-24.295904 -20.373619 -18.961535 36.944758 0.697816 2.109752 0.020997 -0.015164 129363.000000 0 0 1
-23.166804 -20.020019 -19.774435 36.449009 0.712662 2.144234 0.022330 -0.014795 398522.000000 0 0 1
-23.389704 -19.297619 -20.944635 36.853142 0.689828 2.175267 0.017587 -0.017308 -110431.000000 0 0 1
-22.084404 -18.686719 -21.529235 36.061369 0.702255 2.210573 0.013751 -0.004680 464936.000000 0 0 1
-21.259304 -19.638619 -22.181135 36.464176 0.745791 2.224713 0.026032 -0.000336 232939.000000 0 0 1
-20.106904 -19.029919 -22.760135 35.839212 0.757887 2.258886 0.036382 -0.009464 660775.000000 0 0 1
-18.855804 -19.952919 -22.875035 35.734123 0.813660 2.265484 0.052387 -0.006095 -54372.500000 0 0 1
-18.952004 -21.020619 -23.807235 36.984177 0.837103 2.270138 0.036447 -0.000352 210492.000000 0 0 1
-17.898604 -21.976319 -23.669035 36.926167 0.887307 2.266574 0.041586 0.000812 180163.000000 0 0 1
-17.895704 -23.155519 -24.615435 38.240736 0.912832 2.270115 0.048376 0.004733 -93039.600000 0 0 1
-17.719904 -22.880419 -25.989515 38.896831 0.911826 2.302536 0.047951 -0.002994 210874.000000 0 0 1
-17.927804 -24.119719 -26.572865 40.115884 0.931607 2.294818 0.050576 -0.004793 -131303.000000 0 0 1
-17.607304 -24.109919 -28.065715 40.975477 0.940028 2.325317 0.051341 0.004938 108441.000000 0 0 1
-16.233104 -23.930619 -28.336125 40.486099 0.974755 2.346051 0.032371 0.002559 139259.000000 0 0 1
-16.036204 -23.801319 -29.772205 41.352712 0.977904 2.374538 0.051060 -0.004045 4509.350000 0 0 1
-14.545604 -23.874119 -30.186045 41.142988 1.023594 2.394528 0.016819 -0.009143 161577.000000 0 0 1
-14.113404 -25.266619 -30.035625 41.710059 1.061390 2.374750 0.035192 -0.007306 -1203130.000000 0 0 1
-12.836804 -25.303519 -30.517255 41.669587 1.101315 2.392582 0.036207 -0.010673 -1466850.000000 0 0 1
-12.062904 -26.542719 -30.106365 41.909698 1.144230 2.372242 0.048383 -0.015932 -1117370.000000 0 0 1
-12.409104 -27.703119 -30.889085 43.308016 1.149664 2.364909 0.049811 -0.011272 155816.000000 0 0 1
-11.431104 -28.701719 -30.761915 43.597640 1.191780 2.354047 0.054840 -0.016409 448919.000000 0 0 1
-10.076304 -28.440819 -31.486005 43.609410 1.230305 2.377485 0.047814 -0.016957 183362.000000 0 0 1
-9.287004 -27.423119 -30.886425 42.334940 1.244263 2.388494 0.052149 -0.012979 108098.000000 0 0 1
-8.009604 -27.107919 -31.405755 42.252982 1.283500 2.408755 0.052982 -0.016002 366061.000000 0 0 1
-7.345704 -25.859619 -30.742815 40.838707 1.294026 2.423081 0.063707 -0.015404 152256.000000 0 0 1
-8.028704 -24.605119 -31.004405 40.387438 1.255387 2.446001 0.069259 -0.012639 614635.000000 0 0 1
-8.980804 -24.288719 -29.987465 39.621267 1.216635 2.429281 0.057768 -0.008851 137109.000000 0 0 1
-9.504604 -22.787919 -29.904415 38.780160 1.175645 2.451405 0.062545 -0.010787 335311.000000 0 0 1
-10.190904 -22.403419 -31.145025 39.696099 1.143890 2.472825 0.056630 -0.010463 290361.000000 0 0 1
-10.843704 -21.206719 -30.903575 39.017199 1.098123 2.484956 0.046281 -0.008104 -224756.000000 0 0 1
-11.230804 -20.473919 -32.152635 39.737945 1.069073 2.513444 0.042623 -0.006714 -111714.000000 0 0 1
-11.837904 -19.227519 -31.899985 39.082509 1.018931 2.525637 0.042522 -0.006611 122446.000000 0 0 1
-12.265804 -18.717419 -33.184385 40.024931 0.990694 2.548280 0.052631 -0.011048 54910.400000 0 0 1
-13.217504 -17.456419 -33.073455 39.664624 0.922721 2.556802 0.062856 -0.012647 168833.000000 0 0 1
-12.688304 -16.118919 -32.968625 38.829665 0.903929 2.584995 0.069219 -0.012537 63292.200000 0 0 1
-11.943104 -15.735219 -31.785335 37.423821 0.921557 2.585519 0.055710 -0.005342 539672.000000 0 0 1
-11.426404 -14.248719 -31.998265 36.843964 0.894883 2.622925 0.051206 -0.004878 190981.000000 0 0 1
-10.535404 -14.020619 -33.085775 37.446509 0.926386 2.654180 0.054104 -0.009733 179734.000000 0 0 1
-11.154404 -13.902719 34.123207 38.498047 0.894643 0.481369 0.062016 -0.015591 -157282.000000 0 0 1
-11.527404 -12.483519 33.592225 37.645144 0.825197 0.468296 0.066164 -0.015614 894220.000000 0 0 1
-12.686004 -11.872519 34.219667 38.378080 0.752286 0.469828 0.050260 -0.005120 324896.000000 0 0 1
-13.277404 -11.008119 33.338251 37.535411 0.692227 0.477424 0.039739 -0.017161 348282.000000 0 0 1
-14.524504 -10.319519 33.970103 38.359113 0.617732 0.483053 0.046690 -0.011971 311194.000000 0 0 1
-14.101304 -9.455319 -33.518605 37.573218 0.590671 2.672741 0.041523 -0.009478 -184936.000000 0 0 1
-15.143504 -8.891119 -32.758955 37.168896 0.530898 2.649517 0.048561 -0.014745 -493155.000000 0 0 1
-14.661704 -7.878919 -31.758345 35.855758 0.493103 2.658850 0.047142 -0.027483 -695238.000000 0 0 1
-14.265304 -6.646619 -32.316365 35.944734 0.436021 2.688407 0.045489 -0.029659 364766.000000 0 0 1
-15.291504 -5.651319 -32.333855 36.211126 0.354004 2.674599 0.046027 -0.026557 251714.000000 0 0 1
-15.630804 -4.997919 -30.953195 35.034290 0.309474 2.654103 0.041437 -0.036687 91069.300000 0 0 1
-16.201004 -5.918419 -29.994385 34.600048 0.350250 2.619723 0.044115 -0.041731 74052.600000 0 0 1
-16.583104 -5.440119 -28.699945 33.589895 0.316990 2.595234 0.046510 -0.044646 194129.000000 0 0 1
-15.451904 -4.823219 -27.824425 32.190424 0.302561 2.614692 0.045240 -0.048506 298646.000000 0 0 1
-15.132004 -3.529119 -28.363315 32.340530 0.229127 2.640422 0.044096 -0.035011 -146219.000000 0 0 1
-13.871604 -3.049119 -27.942185 31.344604 0.216369 2.671334 0.049907 -0.038369 -39687.800000 0 0 1
-13.464904 -1.765119 -28.709755 31.759555 0.130347 2.699766 0.040699 -0.020674 -67658.600000 0 0 1
-13.200004 -2.013119 -30.043695 32.877292 0.151343 2.723372 0.036640 -0.015874 150322.000000 0 0 1
-13.183904 -0.815119 -30.791675 33.505328 0.061748 2.736354 0.040215 -0.014990 -132797.000000 0 0 1
-13.309004 -0.997119 -32.315435 34.962997 0.074781 2.749929 0.028545 -0.016146 -320483.000000 0 0 1
-14.507104 -1.657119 -32.659885 35.775273 0.113735 2.721173 0.020509 -0.016379 137491.000000 0 0 1
-14.619604 -1.714119 -34.057855 37.102675 0.116715 2.733641 0.008417 -0.012223 -1101190.000000 0 0 1
-16.040304 -1.594119 33.977486 37.607208 0.099057 0.442968 0.011019 -0.015973 -1125900.000000 0 0 1
-16.019404 -1.570119 32.571288 36.331465 0.097702 0.458983 0.024320 -0.015238 -728389.000000 0 0 1
-17.257104 -1.619119 31.971875 36.367980 0.093549 0.496780 0.025513 -0.011810 -1017550.000000 0 0 1
-17.260104 -1.925119 30.440565 35.046330 0.111077 0.518465 0.039225 -0.011158 -60072.600000 0 0 1
-16.465604 -0.974119 29.803765 34.063608 0.059092 0.505475 0.032345 0.001524 44615.200000 0 0 1
-16.717004 -1.001119 28.422295 32.989200 0.059815 0.532455 0.037930 -0.007659 37023.100000 0 0 1
-16.207904 0.300881 27.661715 32.061771 -0.018562 0.530087 0.033438 -0.008447 1013.590000 0 0 1
-16.625404 1.604881 28.095215 32.685177 -0.096234 0.536368 0.027442 -0.007084 -72937.900000 0 0 1
-17.985304 1.878881 27.837265 33.195100 -0.104090 0.576096 0.028667 -0.011949 -83348.400000 0 0 1
-18.172604 2.743881 26.529905 32.273956 -0.149858 0.605843 0.044487 -0.021109 -224681.000000 0 0 1
-17.718004 4.129881 26.600975 32.227247 -0.229001 0.599853 0.030816 -0.013082 473787.000000 0 0 1
-18.373104 4.908881 25.588055 31.881289 -0.261079 0.639148 0.037571 -0.011441 -584026.000000 0 0 1
-18.142204 6.437881 25.780325 32.174695 -0.340995 0.641397 0.033952 -0.015653 -207790.000000 0 0 1
-16.878904 7.010881 25.558565 31.421173 -0.393680 0.620791 0.024699 -0.017403 -353836.000000 0 0 1
-16.386404 6.795881 24.266095 30.058968 -0.393137 0.631263 0.024475 -0.012468 -982270.000000 0 0 1
-15.376604 7.889881 23.935485 29.522832 -0.474080 0.625373 0.025170 -0.014454 -93654.700000 0 0 1
-14.136504 7.760881 24.600355 29.415123 -0.502072 0.580266 0.008182 -0.012745 130873.000000 0 0 1
-13.092204 8.379881 23.862265 28.478692 -0.569360 0.577374 0.026391 -0.017528 958361.000000 0 0 1
-11.666204 8.252881 24.507845 28.369787 -0.615687 0.527891 0.016310 -0.005744 872718.000000 0 0 1
-10.596404 8.648881 23.639065 27.311029 -0.684547 0.524549 0.013735 -0.015959 187529.000000 0 0 1
-9.361004 8.835881 24.269345 27.471845 -0.756548 0.487672 0.010398 -0.012335 -236878.000000 0 0 1
-9.139604 10.185881 25.014555 28.513374 -0.839485 0.500606 0.008842 -0.020559 -603522.000000 0 0 1
-10.019104 10.350881 26.140385 29.846991 -0.801684 0.503678 -0.003293 -0.019383 456771.000000 0 0 1
-9.999304 11.667881 26.764255 30.861803 -0.862256 0.521186 -0.003547 -0.014768 -164599.000000 0 0 1
-10.840804 12.762881 26.036185 30.956374 -0.866650 0.571556 -0.018783 -0.014526 483080.000000 0 0 1
-12.248804 12.646881 25.908155 31.324260 -0.801387 0.596876 -0.006281 -0.017079 281315.000000 0 0 1
-12.541404 11.908881 24.740385 30.186005 -0.759534 0.610088 0.000862 -0.017877 361559.000000 0 0 1
-14.074404 11.727881 24.422365 30.530050 -0.694705 0.643593 0.005521 -0.024533 611228.000000 0 0 1
-14.594604 12.921881 23.899335 30.840812 -0.724683 0.684199 0.006461 -0.018873 479911.000000 0 0 1
-15.903904 12.757881 23.327645 30.981877 -0.676072 0.718271 0.030457 -0.012213 683162.000000 0 0 1
-15.959804 12.184881 21.892545 29.706400 -0.652068 0.742229 0.029609 -0.006462 -335021.000000 0 0 1
-15.805704 10.746881 21.847945 29.028407 -0.597133 0.718734 0.031547 -0.012333 41745.900000 0 0 1
-15.847604 10.279881 20.509645 27.883114 -0.575440 0.744306 0.029414 -0.012784 -302958.000000 0 0 1
-16.282604 8.797881 20.393945 27.539769 -0.495384 0.736942 0.029089 -0.015730 -804711.000000 0 0 1
-17.610004 8.710881 20.753245 28.577768 -0.459363 0.758014 0.040846 -0.005647 -1178110.000000 0 0 1
-17.927904 7.324881 20.956945 28.535191 -0.387876 0.745978 0.032623 -0.006539 -727129.000000 0 0 1
-19.397204 7.127881 21.266745 29.653543 -0.352152 0.771058 0.049161 -0.011517 -709846.000000 0 0 1
-19.691904 7.372881 22.617945 30.882064 -0.358255 0.748960 0.043996 -0.018552 706296.000000 0 0 1
-21.113504 7.435881 22.817545 31.964241 -0.338621 0.775821 0.036989 -0.014788 672849.000000 0 0 1
-21.469404 8.159881 24.136645 33.318112 -0.363208 0.760589 0.049947 -0.015997 -507895.000000 0 0 1
-21.455904 9.627881 24.021755 33.616909 -0.421796 0.774782 0.055479 -0.021881 764443.000000 0 0 1
-20.219504 10.201881 23.552235 32.674370 -0.467286 0.765816 0.054238 -0.021067 538631.000000 0 0 1
-19.005104 10.257881 24.471305 32.638365 -0.494935 0.723080 0.051370 -0.020721 -434709.000000 0 0 1
-19.189104 11.137881 25.604855 33.880417 -0.525904 0.714010 0.060743 -0.023431 53816.100000 0 0 1
-19.698704 10.479881 26.741355 34.827674 -0.488925 0.695366 0.028012 -0.017445 -200469.000000 0 0 1
-30.473144 -14.232173 20.717245 39.501538 0.436934 1.018708 0.050924 -0.004613 -168955.000000 0 0 1
-29.956594 -15.531073 20.993445 39.740867 0.478300 1.014248 0.058998 -0.004041 4371.540000 0 0 1
-30.519174 -16.639473 20.281145 40.244464 0.499161 1.042632 0.058316 -0.001896 -120532.000000 0 0 1
-30.408964 -16.636673 18.717545 39.393279 0.500612 1.075667 0.054709 -0.005929 297404.000000 0 0 1
-31.172714 -15.613473 18.099445 39.282420 0.464343 1.091954 0.055734 -0.015440 46969.800000 0 0 1
-30.526134 -15.311873 16.888245 38.098702 0.464926 1.111546 0.056830 -0.016910 -1118690.000000 0 0 1
-31.092854 -14.057473 16.186445 37.767434 0.424609 1.127874 0.046208 -0.014736 -1056090.000000 0 0 1
-32.299274 -14.236073 15.562645 38.575961 0.415139 1.155536 0.065538 -0.016938 -227601.000000 0 0 1
-33.421754 -14.250073 16.484045 39.897393 0.403031 1.144874 0.064845 -0.018243 -254615.000000 0 0 1
-34.222798 -12.930473 16.639945 40.190606 0.361251 1.143924 0.056248 -0.018506 -175754.000000 0 0 1
-35.414439 -13.144973 17.353445 41.570601 0.355414 1.140164 0.036302 -0.009337 -296426.000000 0 0 1
-36.046234 -11.993473 17.786145 41.946648 0.321203 1.132919 0.038240 0.002490 451247.000000 0 0 1
35.196414 -12.080073 18.986445 41.775601 -0.330621 1.099001 0.045972 0.017178 312209.000000 0 0 1
35.899264 -12.494073 20.135145 43.014917 -0.334920 1.083661 0.037600 0.013742 83407.100000 0 0 1
35.208944 -12.194173 21.333545 42.935856 -0.333408 1.050808 0.029212 0.010835 -761691.000000 0 0 1
35.996574 -12.630973 22.581945 44.331017 -0.337471 1.036316 0.021710 0.002848 -358473.000000 0 0 1
-35.070544 -11.910073 22.764045 43.474069 0.327383 1.019698 0.028347 -0.000717 423815.000000 0 0 1
-33.902814 -12.512873 22.120545 42.370878 0.353571 1.021521 0.031930 -0.005063 1017890.000000 0 0 1
-32.588144 -11.684473 22.251545 41.153922 0.344271 0.999538 0.047343 -0.002907 292231.000000 0 0 1
-32.732004 -10.458873 21.592945 40.583585 0.309277 1.009763 0.058208 -0.005788 -107884.000000 0 0 1
-31.633704 -9.594373 21.752045 39.571387 0.294478 0.988802 0.064563 -0.004054 -214038.000000 0 0 1
-31.808154 -8.343373 20.847545 38.935725 0.256524 1.005774 0.067733 -0.006221 159118.000000 0 0 1
-31.976884 -8.448473 19.428845 38.358543 0.258303 1.039668 0.063870 -0.006026 395998.000000 0 0 1
-33.343204 -8.688873 19.132045 39.411939 0.254920 1.063932 0.061440 -0.008866 -73847.200000 0 0 1
-33.673714 -8.440673 17.647545 38.943546 0.245600 1.100493 0.062417 -0.012746 46909.900000 0 0 1
-35.075144 -8.588573 17.495845 40.126474 0.240137 1.119628 0.017532 -0.009595 221296.000000 0 0 1
-35.434385 -8.336573 16.143345 39.820870 0.231066 1.153381 0.025798 -0.009808 -628097.000000 0 0 1
35.299624 -8.318573 15.916845 39.605657 -0.231434 1.157224 0.029580 -0.008508 -542935.000000 0 0 1
34.796094 -9.635673 15.967645 39.478856 -0.270149 1.154407 0.026371 0.005682 241487.000000 0 0 1
33.385944 -9.631773 15.790045 38.166973 -0.280871 1.144271 0.013628 0.007239 493072.000000 0 0 1
32.587824 -10.935973 15.601745 37.748857 -0.323775 1.144717 0.016152 0.015573 196399.000000 0 0 1
32.603574 -11.737773 16.786745 38.504067 -0.345569 1.119677 0.007123 0.010902 10959.000000 0 0 1
31.619434 -12.750873 16.690745 37.959905 -0.383314 1.115538 0.014879 0.016393 -84659.000000 0 0 1
31.277134 -13.236973 18.099945 38.484862 -0.400358 1.081150 0.011701 0.016332 681076.000000 0 0 1
32.253124 -14.163373 18.692345 39.878176 -0.413779 1.082937 0.012435 0.011337 666865.000000 0 0 1
32.099984 -14.243273 20.095345 40.461126 -0.417616 1.051052 0.012522 0.015489 -243495.000000 0 0 1
32.973804 -15.365173 20.716845 41.863444 -0.436064 1.053114 0.010274 0.025322 200973.000000 0 0 1
32.861714 -15.397973 22.123145 42.502040 -0.438188 1.023337 0.002208 0.019088 -101544.000000 0 0 1
33.632084 -16.461573 22.664245 43.769493 -0.455180 1.026508 0.005400 0.030101 293521.000000 0 0 1
33.838184 -16.356973 24.229555 44.717386 -0.450270 0.998175 0.022690 0.021741 552551.000000 0 0 1
34.767304 -15.286573 24.481025 45.185898 -0.414241 0.998237 0.023713 0.018798 310797.000000 0 0 1
35.126564 -15.166573 25.877115 46.190102 -0.407590 0.976132 0.022602 0.013077 279902.000000 0 0 1
-35.867132 -14.263973 26.113825 46.603046 0.378513 0.975993 0.024758 0.003406 158903.000000 0 0 1
-34.616292 -14.763273 25.705005 45.573997 0.403126 0.971541 0.008443 0.007991 -89564.600000 0 0 1
-33.607264 -13.806373 25.974635 44.662577 0.389795 0.950133 0.012318 -0.000411 368471.000000 0 0 1
-32.179714 -14.399573 25.815635 43.695866 0.420751 0.938743 0.013877 0.004955 -240143.000000 0 0 1
-31.862524 -14.539773 24.424415 42.698682 0.428104 0.961832 0.017004 0.005730 -588064.000000 0 0 1
-30.620204 -15.072673 24.091755 41.775531 0.457425 0.956118 0.032765 -0.007454 -499454.000000 0 0 1
-30.362514 -16.551973 24.493345 42.376574 0.499108 0.954530 0.036120 -0.003660 -723158.000000 0 0 1
-30.104504 -16.606373 25.871895 43.027988 0.504089 0.925693 0.036082 -0.010632 -965.020000 0 0 1
-29.907014 -17.942373 26.339185 43.704815 0.540374 0.923965 0.044713 -0.020738 -341938.000000 0 0 1
-29.518114 -18.035573 27.809855 44.384558 0.548469 0.893657 0.040069 -0.025400 189548.000000 0 0 1
-28.220234 -17.528973 28.099255 43.511086 0.555825 0.868732 0.045215 -0.026070 266284.000000 0 0 1
-27.825134 -17.897973 29.404145 44.262617 0.571602 0.844225 0.052833 -0.027742 -369057.000000 0 0 1
-26.624884 -17.086473 29.848155 43.494188 0.570552 0.814467 0.041591 -0.029430 -719160.000000 0 0 1
-26.860164 -15.708673 30.116225 43.303785 0.529192 0.801731 0.049695 -0.034332 114103.000000 0 0 1
-25.680254 -14.921673 30.007545 42.220665 0.526374 0.780259 0.035761 -0.028582 -286561.000000 0 0 1
-25.607284 -13.620673 30.924315 42.397747 0.488846 0.753373 0.037549 -0.023361 -126746.000000 0 0 1
-25.199824 -13.762873 32.270705 43.195442 0.499882 0.727129 0.038978 -0.025458 60267.800000 0 0 1
-24.917804 -12.533773 32.802467 43.058034 0.466049 0.704678 0.044297 -0.015300 -428411.000000 0 0 1
-24.373004 -12.641473 34.232985 43.883339 0.478469 0.675986 0.047796 -0.018297 317470.000000 0 0 1
-22.975704 -12.895273 -34.077459 43.074868 0.511445 2.483437 0.027960 -0.014311 604670.000000 0 0 1
-22.653604 -14.266273 -34.182552 43.418420 0.562013 2.477185 0.021938 -0.017542 -457823.000000 0 0 1
-22.607704 -14.970073 -32.800775 42.557046 0.584881 2.450811 0.021549 -0.014590 -1183780.000000 0 0 1
-21.474904 -14.656173 -32.044255 41.265109 0.598870 2.459961 0.017209 -0.007477 -281428.000000 0 0 1
-21.370004 -15.555373 -30.940995 40.693880 0.629211 2.434626 0.030781 -0.012598 615359.000000 0 0 1
-20.009404 -15.288973 -30.190685 39.314201 0.652458 2.446405 0.036865 -0.008785 749761.000000 0 0 1
-19.865904 -14.112873 -29.421675 38.202909 0.617676 2.449860 0.040205 -0.013095 -37351.600000 0 0 1
-20.500304 -14.115373 -28.144655 37.571636 0.602996 2.417488 0.044496 -0.009103 -52824.400000 0 0 1
-20.115304 -12.960473 -27.220465 36.242972 0.572364 2.420455 0.043424 -0.009976 256717.000000 0 0 1
-18.787104 -13.028473 -26.709265 35.157947 0.606336 2.433638 0.048731 -0.012026 262922.000000 0 0 1
-18.587104 -11.935973 -25.845245 33.998891 0.570847 2.434385 0.039850 -0.017839 -343148.000000 0 0 1
-17.166304 -12.025173 -25.293865 32.849146 0.611068 2.449639 0.062645 -0.029089 -688721.000000 0 0 1
-16.974404 -12.990673 -24.255935 32.330146 0.653227 2.419248 0.072899 -0.032417 204309.000000 0 0 1
-15.660904 -13.054173 -23.737235 31.291080 0.694867 2.431949 0.077964 -0.035733 -91587.400000 0 0 1
-14.541704 -13.783573 -24.457835 31.616985 0.758639 2.455246 0.054287 -0.028858 -883197.000000 0 0 1
-14.068704 -13.024673 -25.512965 31.913664 0.746883 2.497154 0.045322 -0.033520 -58704.100000 0 0 1
-13.190004 -13.775073 -26.351295 32.528750 0.807092 2.515106 0.055610 -0.030852 -236551.000000 0 0 1
-12.274704 -12.907273 -27.196935 32.510603 0.810513 2.561763 0.061444 -0.026045 -646956.000000 0 0 1
-12.957904 -12.179973 -28.130105 33.280051 0.754461 2.577837 0.069813 -0.029867 -579507.000000 0 0 1
-12.104204 -11.512173 -28.991445 33.459614 0.760335 2.618865 0.063314 -0.026601 -212427.000000 0 0 1
-12.914804 -10.511073 -29.846785 34.177557 0.683146 2.632703 0.044564 -0.017079 52817.400000 0 0 1
-12.166904 -9.413673 -30.350035 34.026099 0.658505 2.672466 0.032202 -0.005939 80360.200000 0 0 1
-11.538404 -9.749873 -31.581165 35.008067 0.701580 2.695433 0.045565 -0.000606 -393611.000000 0 0 1
-10.868004 -8.638473 -32.395545 35.244972 0.671595 2.736723 0.043299 -0.006432 -795446.000000 0 0 1
-9.510104 -8.598773 -32.133415 34.596782 0.735116 2.761952 0.032123 -0.006864 -1239050.000000 0 0 1
-8.881304 -7.471173 -32.674265 34.674249 0.699378 2.800294 0.021680 -0.010411 -1672910.000000 0 0 1
-7.422204 -7.356573 -32.428665 34.070905 0.780957 2.829846 0.032337 -0.010615 -1719720.000000 0 0 1
-7.049704 -7.311873 -31.038515 32.658096 0.803651 2.825341 0.029034 -0.011682 -27659.400000 0 0 1
-7.365304 -6.063973 -30.327795 31.792996 0.688797 2.836817 0.035212 -0.011226 -541879.000000 0 0 1
-6.486904 -4.871073 -30.680045 31.734405 0.644083 2.883097 0.033193 -0.008232 -318420.000000 0 0 1
-5.130704 -4.918273 -30.293595 31.116160 0.764262 2.911147 0.063525 -0.015406 -104900.000000 0 0 1
-4.592304 -3.756773 -30.896645 31.461171 0.685656 2.951869 0.061668 -0.023983 -597020.000000 0 0 1
-3.123504 -3.526273 -30.566185 30.927052 0.845893 2.988680 0.039777 -0.008953 -1557590.000000 0 0 1
-2.207904 -4.417673 -31.092825 31.482605 1.107318 2.984072 0.033559 -0.013320 -309246.000000 0 0 1
-0.872304 -4.294673 -30.664015 30.975586 1.370409 2.999638 0.038753 -0.012251 202825.000000 0 0 1
-0.148804 -3.079873 -31.325885 31.477275 1.522519 3.043477 0.031349 -0.005617 -1105930.000000 0 0 1
0.777596 -2.384773 -30.482115 30.585146 -1.255599 3.059489 0.046935 -0.010651 460164.000000 0 0 1
1.221896 -1.206973 -31.131405 31.178746 -0.779254 3.086479 0.023080 0.003187 -67052.900000 0 0 1
1.364696 -0.115173 -30.086595 30.117750 -0.084195 3.096104 0.030646 -0.007142 -356647.000000 0 0 1
0.172796 0.443927 -29.628975 29.632804 1.199596 3.125516 0.042442 -0.005411 -532186.000000 0 0 1
0.450296 1.663527 -28.967295 29.018516 1.306444 3.082168 0.065268 -0.016688 -144763.000000 0 0 1
-0.769104 2.451627 -28.494695 28.610306 -1.266808 3.051663 0.047018 -0.007267 -885418.000000 0 0 1
-1.711804 2.769527 -29.425705 29.605281 -1.017185 3.031394 0.024542 -0.020050 -1099080.000000 0 0 1
-2.708704 3.545027 -28.854365 29.197237 -0.918341 2.988189 0.053715 -0.015501 552001.000000 0 0 1
-3.981504 3.688727 -29.799485 30.289741 -0.747246 2.961429 0.065904 -0.021079 1040260.000000 0 0 1
-3.636204 4.609027 -30.838105 31.391939 -0.902841 2.953472 0.061869 -0.025614 698903.000000 0 0 1
-4.803604 5.017627 -31.543685 32.299462 -0.807187 2.924840 0.073979 -0.022940 -182014.000000 0 0 1
-4.426904 5.754227 -32.803295 33.597095 -0.915038 2.923782 0.076270 -0.023568 -130799.000000 0 0 1
-4.036404 5.041127 -33.929225 34.538353 -0.895632 2.953506 0.091623 -0.027699 684948.000000 0 0 1
-2.847804 4.240327 -33.791185 34.175057 -0.979386 2.991569 0.081281 -0.025629 281925.000000 0 0 1
-2.358804 3.573127 33.347624 33.621351 -0.987318 0.127691 0.074660 -0.028441 368875.000000 0 0 1
-3.225404 2.444627 33.022072 33.269155 -0.648556 0.121951 0.070427 -0.030789 583423.000000 0 0 1
-3.281604 1.897227 31.677725 31.903709 -0.524191 0.119094 0.079154 -0.028129 -478196.000000 0 0 1
-3.208904 2.867627 30.449095 30.751711 -0.729294 0.140405 0.083822 -0.029431 67247.900000 0 0 1
-4.157304 3.940827 30.432365 30.966791 -0.758673 0.186053 0.057650 -0.022420 249572.000000 0 0 1
-3.920704 4.733027 29.281755 29.919803 -0.878994 0.206889 0.065379 -0.025043 463846.000000 0 0 1
-5.108804 5.723327 29.061615 30.057176 -0.842069 0.258096 0.069035 -0.020353 416440.000000 0 0 1
-5.014604 6.395927 27.821285 28.984100 -0.905869 0.284219 0.061052 -0.009301 -656441.000000 0 0 1
-6.177904 7.060027 27.460095 29.018396 -0.851936 0.329205 0.053042 -0.007605 -655406.000000 0 0 1
-5.944104 7.650227 26.065235 27.807460 -0.910248 0.355861 0.048033 -0.008708 -203266.000000 0 0 1
-5.170904 8.791327 26.058815 27.983701 -1.039112 0.373067 0.044808 -0.004541 -361810.000000 0 0 1
-5.309504 9.509227 24.875855 27.155559 -1.061563 0.412678 0.047454 -0.008289 -103994.000000 0 0 1
-4.786204 10.883527 25.127105 27.798027 -1.156486 0.441956 0.060036 -0.011557 -827405.000000 0 0 1
-4.729804 11.615327 23.922655 27.010744 -1.184095 0.482857 0.063051 -0.011829 262013.000000 0 0 1
-4.004404 12.838627 23.935165 27.454648 -1.268456 0.511916 0.043683 -0.002840 -667483.000000 0 0 1
-2.471404 12.675627 23.940135 27.201276 -1.378239 0.494701 0.036706 0.002274 -584805.000000 0 0 1
-1.775304 12.168327 25.057975 27.912757 -1.425923 0.456219 0.040773 0.003793 -48919.800000 0 0 1
-2.019504 12.838227 26.310885 29.345547 -1.414771 0.458791 0.050742 -0.001490 -1048100.000000 0 0 1
-1.247904 12.344027 27.546795 30.211888 -1.470045 0.423183 0.053650 -0.001462 68698.900000 0 0 1
0.108996 12.733227 27.458315 30.267243 1.562237 0.434226 0.047454 0.000306 -606563.000000 0 0 1
0.830196 12.394027 28.596875 31.178236 1.503913 0.409785 0.048608 -0.010058 467846.000000 0 0 1
2.362896 12.651927 28.455915 31.231292 1.386162 0.424767 0.055713 -0.007373 554383.000000 0 0 1
2.799096 13.952727 28.809475 32.132528 1.372812 0.458804 0.045532 -0.002825 -159222.000000 0 0 1
4.202796 13.976127 28.658135 32.160291 1.278686 0.471026 0.052716 -0.007109 -126047.000000 0 0 1
4.740596 15.437627 28.853975 33.065775 1.272856 0.510248 0.046301 -0.005368 -306753.000000 0 0 1
4.732196 15.949927 30.170155 34.453332 1.282378 0.503950 0.051283 -0.003510 344206.000000 0 0 1
3.632396 16.750427 30.602025 35.074992 1.357249 0.510553 0.034973 0.001780 241651.000000 0 0 1
3.453896 18.148427 29.935295 35.176934 1.382732 0.552925 0.041170 0.003938 -442100.000000 0 0 1
4.433696 18.983227 30.445865 36.152057 1.341351 0.569517 0.058808 0.003103 -280842.000000 0 0 1
4.560496 20.150027 29.690955 36.171460 1.348219 0.607917 0.043958 0.004000 -59131.800000 0 0 1
5.682396 21.093527 30.133085 37.218669 1.307653 0.627287 0.046722 0.005605 -195320.000000 0 0 1
5.348596 21.759027 31.358555 38.541169 1.329765 0.620414 0.037340 -0.018942 160620.000000 0 0 1
6.430396 22.524827 31.838675 39.527447 1.292713 0.634307 0.049225 -0.016169 -66308.400000 0 0 1
6.754696 23.922627 31.208795 39.898708 1.295604 0.672606 0.053284 -0.008616 -325973.000000 0 0 1
7.191596 23.743927 29.886505 38.841940 1.276698 0.692834 0.040295 -0.009826 187229.000000 0 0 1
7.640996 24.954727 29.276415 39.220297 1.273666 0.728069 0.042872 -0.015979 90667.100000 0 0 1
8.088996 24.805227 27.842335 38.156608 1.255569 0.752934 0.055501 -0.019000 630829.000000 0 0 1
6.975496 24.587027 26.933135 37.129142 1.294354 0.759194 0.041123 -0.011264 983630.000000 0 0 1
7.320396 24.577027 25.582545 36.222715 1.281308 0.786599 0.050959 -0.010711 -454778.000000 0 0 1
28.604914 2.164727 6.286465 29.367445 0.075533 1.355064 0.069183 -0.003395 71193.200000 0 0 1
29.060104 2.971827 7.379065 30.129255 0.101911 1.323366 0.066507 -0.000973 -251357.000000 0 0 1
28.046774 2.934127 8.302565 29.396653 0.104236 1.284468 0.070429 0.000426 -536411.000000 0 0 1
28.299894 3.874127 9.535265 30.113355 0.136050 1.248605 0.071859 0.004149 -8992.810000 0 0 1
28.131674 5.294527 9.349665 30.113773 0.186029 1.255100 0.066403 0.000362 723097.000000 0 0 1
29.284844 5.976227 8.815865 31.161464 0.201308 1.283970 0.081374 -0.012906 531612.000000 0 0 1
29.058024 7.515027 8.688165 31.246257 0.253076 1.289028 0.089661 -0.020635 146751.000000 0 0 1
28.069594 7.879327 7.748765 30.166691 0.273664 1.311019 0.082124 -0.020023 23562.200000 0 0 1
28.326934 9.187627 7.347265 30.672626 0.313637 1.328906 0.106611 -0.040475 238342.000000 0 0 1
27.347104 9.610327 6.209665 29.644265 0.337940 1.359761 0.096861 -0.032548 1837270.000000 0 0 1
25.940294 9.761627 6.556165 28.481073 0.359920 1.338520 0.083227 -0.020211 1723250.000000 0 0 1
25.129094 9.972927 5.393065 27.568384 0.377803 1.373902 0.100976 -0.027240 1062490.000000 0 0 1
23.650194 10.414127 5.670965 26.456484 0.414792 1.354769 0.043618 -0.016748 639959.000000 0 0 1
23.463094 11.737727 6.166665 26.950302 0.463858 1.339935 0.046280 -0.022858 443820.000000 0 0 1
22.136094 12.016127 6.603765 26.038504 0.497321 1.314380 0.039860 -0.007478 91139.000000 0 0 1
21.933794 13.478027 6.985865 26.674910 0.551004 1.305817 0.023813 0.000947 -299668.000000 0 0 1
21.736694 14.268827 5.844565 26.650370 0.580889 1.349694 0.026402 0.006986 199565.000000 0 0 1
21.646394 15.644527 6.150565 27.407062 0.625820 1.344453 0.035133 -0.006112 -351543.000000 0 0 1
21.433994 16.571227 4.977865 27.546339 0.658140 1.389089 0.045707 -0.007684 -459264.000000 0 0 1
20.137194 16.449627 4.456365 26.380978 0.684948 1.401059 0.046583 -0.004773 45750.700000 0 0 1
19.952394 17.349827 3.391165 26.657354 0.715741 1.443238 0.064309 -0.005118 -42380.900000 0 0 1
18.461594 17.503127 3.006365 25.616950 0.758754 1.453167 0.045820 -0.002861 -77842.800000 0 0 1
17.764794 18.205927 4.003465 25.750173 0.797661 1.414690 0.048669 -0.008308 -8823.270000 0 0 1
16.373794 18.054027 3.832565 24.672608 0.834164 1.414828 0.028259 -0.017783 -385993.000000 0 1 0
15.601194 19.285427 4.296765 25.175129 0.890614 1.399282 0.045274 -0.014622 233797.000000 0 0 1
14.196494 19.051127 4.290065 24.143126 0.930388 1.392155 0.049083 -0.019729 -194250.000000 0 1 0
13.406194 20.167527 4.461165 24.624321 0.984128 1.388621 0.032103 -0.025235 -42288.000000 0 1 0
11.978394 19.676527 4.054565 23.389894 1.023956 1.396569 0.032508 -0.022772 -31306.100000 0 1 0
11.407194 19.003027 5.138665 22.751813 1.030169 1.342973 0.026182 -0.028046 -425243.000000 0 1 0
10.014294 18.942527 4.935765 21.987887 1.084479 1.344390 0.027148 -0.019863 -187789.000000 0 1 0
9.213794 18.523727 6.149465 21.583289 1.109227 1.281876 0.016841 -0.017450 -885165.000000 0 1 0
9.235894 19.494627 7.199365 22.741439 1.128355 1.248680 0.024109 -0.017094 -321281.000000 0 1 0
8.602594 18.949027 8.293565 22.402086 1.144633 1.191557 0.023336 -0.015215 -980317.000000 0 1 0
7.515594 19.759527 8.947465 22.956049 1.207341 1.170420 0.022936 -0.019541 282444.000000 0 1 0
6.341494 20.010227 8.157265 22.520317 1.263896 1.200150 0.018248 -0.023556 422327.000000 0 1 0
6.478094 21.085227 7.231565 23.213100 1.272716 1.253994 0.016735 -0.017538 98597.000000 0 1 0
5.115394 21.486527 6.545165 23.036434 1.337073 1.282705 0.007189 -0.001229 747931.000000 0 1 0
3.974694 21.693327 7.338565 23.243346 1.389584 1.249573 0.007715 0.000091 -49748.700000 0 1 0
3.997294 22.910827 8.121765 24.634273 1.398063 1.234817 0.006242 -0.007374 -470455.000000 0 1 0
4.055394 24.265827 7.302065 25.663139 1.405203 1.282275 0.000112 -0.007699 -342252.000000 0 0 1
2.940194 24.395527 6.436565 25.401099 1.450853 1.314606 0.014370 -0.008381 13433.300000 0 0 1
3.053994 25.206527 5.261365 25.930249 1.450225 1.366473 0.015150 -0.004647 -107989.000000 0 0 1
1.777294 25.363727 4.409965 25.805527 1.500838 1.399061 0.025835 -0.008835 -446076.000000 0 0 1
0.648494 25.894427 4.982565 26.377411 1.545758 1.380759 0.041650 -0.009369 -944128.000000 0 0 1
-0.462106 26.009827 4.141665 26.341564 -1.553032 1.412912 0.045609 -0.015086 -214379.000000 0 0 1
-1.589306 26.803027 4.840565 27.282947 -1.511570 1.392431 0.052275 -0.010960 -602233.000000 0 0 1
-2.487306 27.152827 3.864865 27.539061 -1.479447 1.429990 0.074418 -0.016323 -194597.000000 0 0 1
-3.645306 27.835627 4.398765 28.415832 -1.440579 1.415372 0.062561 -0.019699 748040.000000 0 0 1
-4.559206 28.340127 3.232065 28.885903 -1.411288 1.458671 0.051550 -0.022372 -52918.800000 0 0 1
-4.038406 29.337527 2.411265 29.712176 -1.434003 1.489553 0.051548 -0.019811 492024.000000 0 0 1
-5.030806 29.711227 1.433165 30.168195 -1.403064 1.523273 0.065630 -0.025189 468971.000000 0 0 1
-4.429206 30.621327 0.329065 30.941748 -1.427148 1.560161 0.058625 -0.028956 -825634.000000 0 0 1
-4.026706 31.914227 0.763765 32.176320 -1.445287 1.547057 0.053671 -0.027546 1411510.000000 0 0 1
-2.709606 32.035927 1.384165 32.180094 -1.486417 1.527770 0.060460 -0.023088 725438.000000 0 0 1
-2.225606 33.459827 1.596065 33.571725 -1.504378 1.523236 0.047982 -0.024554 -865909.000000 0 0 1
-1.472606 33.921627 0.489865 33.957110 -1.527412 1.556370 0.028324 -0.022434 26242.600000 0 0 1
-0.712406 -33.565319 0.827165 33.583067 1.549575 1.546163 0.026584 -0.012894 979251.000000 0 0 1
0.593794 -33.732819 1.716165 33.781665 -1.553195 1.519973 0.022575 -0.004209 629121.000000 0 0 1
0.235894 -33.706319 3.130165 33.852172 -1.563798 1.478198 0.023226 -0.004726 467381.000000 0 0 1
1.428694 -33.840919 3.897765 34.094597 -1.528603 1.456224 0.015981 -0.006415 398026.000000 0 0 1
1.234294 -33.849519 5.398965 34.299596 -1.534348 1.412733 0.018646 -0.010075 -177244.000000 0 0 1
0.525094 33.637127 5.810065 34.139257 1.555187 1.399777 0.030105 -0.011186 145301.000000 0 0 1
-0.031606 33.778727 7.154065 34.528018 -1.569861 1.362089 0.031625 -0.012150 473602.000000 0 0 1
0.988194 33.354227 8.226365 34.367922 1.541178 1.329088 0.023327 -0.008917 91218.000000 0 0 1
1.436494 32.005427 8.197665 33.069814 1.525944 1.320295 0.021012 -0.014838 -172296.000000 0 0 1
2.509494 31.848527 9.084965 33.213895 1.492164 1.293736 0.033553 -0.010298 -391091.000000 0 0 1
2.942894 30.410927 9.179065 31.902043 1.474326 1.278944 0.019110 -0.013907 -136148.000000 0 0 1
2.020894 29.533327 9.821365 31.189110 1.502475 1.250448 0.034774 -0.024181 456119.000000 0 0 1
2.588194 28.256327 9.780765 30.013032 1.479454 1.238850 0.022490 -0.024850 -23216.900000 0 0 1
2.329094 27.402827 11.063365 29.643509 1.486005 1.188326 0.025086 -0.038474 -256929.000000 0 0 1
2.805494 28.027927 12.271565 30.725019 1.471032 1.159934 0.014449 -0.022692 -14708.800000 0 0 1
2.866794 27.133127 13.329165 30.365963 1.465530 1.116366 0.014710 -0.019560 41628.500000 0 0 1
1.497894 26.687927 13.966565 30.158814 1.514729 1.089306 0.026413 -0.027160 794193.000000 0 0 1
0.723694 27.721727 14.571865 31.326620 1.544697 1.086982 0.025711 -0.022393 444367.000000 0 0 1
0.045594 28.633727 13.665565 31.727591 1.569204 1.125511 0.029090 -0.027685 -543880.000000 0 0 1
-0.636806 29.790827 14.341965 33.069485 -1.549424 1.122210 0.022196 -0.018677 405898.000000 0 0 1
-1.870206 29.552827 15.027765 33.206941 -1.507597 1.101175 0.015894 -0.016671 491239.000000 0 0 1
-2.487206 30.706327 15.511665 34.491687 -1.489973 1.104342 0.016867 -0.006464 -183984.000000 0 0 1
-3.799806 30.514527 16.302565 34.804432 -1.446910 1.083312 0.023277 -0.008727 -335945.000000 0 0 1
-4.782406 29.997327 15.467065 34.087257 -1.412699 1.099828 0.025318 -0.016009 -708665.000000 0 0 1
-5.980706 29.831027 16.175065 34.457100 -1.372933 1.082156 0.021076 -0.010178 -281617.000000 0 0 1
-7.124106 29.297127 15.278865 33.801157 -1.332259 1.101766 0.023003 -0.014253 -239139.000000 0 0 1
-8.382306 29.115427 15.860765 34.198465 -1.290478 1.088533 0.022242 -0.006939 -262482.000000 0 0 1
-9.305106 28.770527 14.847865 33.686604 -1.257990 1.114346 0.014911 -0.004026 944318.000000 0 0 1
-10.718906 28.271727 15.361665 33.914101 -1.208402 1.100716 0.022628 0.000474 915654.000000 0 0 1
-11.498606 29.170027 16.121565 35.256393 -1.195306 1.095877 0.024257 -0.010832 318631.000000 0 0 1
-11.147306 29.123827 17.497565 35.757859 -1.205244 1.059469 0.032728 -0.013647 -361961.000000 0 0 1
-11.832506 30.167427 18.381965 37.255583 -1.197008 1.054800 0.037528 -0.015215 39475.900000 0 0 1
-13.119906 29.898827 18.911565 37.732202 -1.157287 1.045806 0.053681 -0.012617 215793.000000 0 0 1
-13.759906 31.101427 19.209065 39.059211 -1.154263 1.056648 0.050537 -0.010350 141571.000000 0 0 1
-14.841206 30.958227 20.296365 39.882523 -1.123769 1.036886 0.050756 -0.015303 299887.000000 0 0 1
-14.218706 30.642427 21.518965 40.052413 -1.136345 1.003599 0.056224 -0.024027 203707.000000 0 0 1
-15.198406 30.359527 22.484865 40.721758 -1.106658 0.985845 0.048887 -0.018124 -17548.500000 0 0 1
-14.588206 30.460927 23.894965 41.372130 -1.124158 0.955057 0.050883 -0.018334 -1143330.000000 0 0 1
-13.710806 29.417827 24.121265 40.437979 -1.134658 0.931663 0.048005 -0.024808 -71070.200000 0 0 1
-13.262006 29.282227 25.503965 41.033911 -1.145531 0.900097 0.047971 -0.021504 104102.000000 0 0 1
-12.736306 30.538427 26.246565 42.233768 -1.175672 0.900192 0.046434 -0.013033 -1007060.000000 0 0 1
-13.791206 31.352327 26.640965 43.392474 -1.156391 0.909737 0.042343 -0.008921 -196303.000000 0 0 1
-13.349506 32.616627 26.983765 44.386678 -1.182311 0.917352 0.039968 -0.006953 -4503.000000 0 0 1
-14.518606 33.415327 27.626265 45.722910 -1.160916 0.922022 0.042657 -0.008484 234895.000000 0 0 1
-15.092006 32.762327 28.757565 46.131727 -1.139120 0.897739 0.005269 -0.007424 360465.000000 0 0 1
-14.270906 32.766527 29.925465 46.613705 -1.160038 0.873707 0.029944 0.001905 -185941.000000 0 0 1
-14.998406 32.082327 31.095265 47.129008 -1.133487 0.850257 0.021025 0.003710 -251077.000000 0 0 1
-15.979506 32.960227 31.610465 48.383289 -1.119373 0.858816 0.012631 0.002885 -491815.000000 0 0 1
-16.727806 32.275827 32.579765 48.815874 -1.092635 0.840083 0.004019 0.006663 298707.000000 0 0 1
-18.150206 32.882127 32.732265 49.820331 -1.066436 0.853956 0.005018 0.005437 297259.000000 0 0 1
-18.151206 34.272827 33.187465 51.044106 -1.083743 0.862985 0.013552 -0.000788 -518377.000000 0 0 1
-19.473406 -33.876619 33.119065 51.222176 1.049087 0.867708 0.020920 0.000533 -235840.000000 0 0 1
-19.690906 -32.487019 33.618465 50.728093 1.025892 0.846353 0.027977 -0.004399 -289986.000000 0 0 1
-19.352806 -32.225419 -33.522515 50.366336 1.029976 2.299059 0.032605 -0.006114 307686.000000 0 0 1
-20.290306 -32.701519 -32.524115 50.387538 1.015461 2.272447 0.034026 -0.008861 493288.000000 0 0 1
-20.187106 -31.947819 -31.150215 48.974670 1.007267 2.260162 0.041638 -0.010744 -4244.640000 0 0 1
-20.484706 -30.562019 -31.294715 48.301339 0.980305 2.275628 0.058014 -0.017441 -264583.000000 0 0 1
-19.781906 -29.792519 -30.379115 46.923434 0.984650 2.274989 0.063208 -0.014586 -125685.000000 0 0 1
-20.058006 -28.263419 -30.517715 46.178733 0.953603 2.292761 0.067779 -0.022186 710981.000000 0 0 1
-21.371506 -27.823319 -30.143215 46.254641 0.915802 2.280593 0.069208 -0.022407 503416.000000 0 0 1
-21.552006 -26.417619 -30.218015 45.557744 0.886484 2.296003 0.070762 -0.019017 664480.000000 0 0 1
-22.903106 -25.913619 -29.594215 45.517969 0.846990 2.278599 0.068743 -0.021099 641700.000000 0 0 1
-22.989206 -26.030119 -28.148215 44.703386 0.847354 2.251920 0.063213 -0.013333 -124484.000000 0 0 1
-22.352306 -25.055619 -27.419415 43.350132 0.842359 2.255587 0.074093 -0.018554 -760445.000000 0 0 1
-22.133206 -25.368719 -25.894715 42.473368 0.853406 2.226440 0.065096 -0.013462 963797.000000 0 0 1
-23.377606 -25.260119 -25.150115 42.627625 0.824084 2.201850 0.047250 -0.012390 996112.000000 0 0 1
-23.241506 -25.727119 -23.832315 42.071742 0.836114 2.173010 0.050898 -0.001300 1442530.000000 0 0 1
-24.588806 -25.669019 -22.922815 42.296139 0.806888 2.143564 0.043444 0.002107 1858050.000000 0 0 1
-25.733906 -26.383019 -23.324215 43.615555 0.797852 2.135030 0.033047 0.004128 -109267.000000 0 0 1
-25.625506 -27.798619 -23.193515 44.355033 0.826052 2.121053 0.036340 0.009574 -1057450.000000 0 0 1
-26.959206 -28.529719 -22.985415 45.487064 0.813694 2.100546 0.011980 0.006802 144171.000000 0 0 1
-27.663306 -28.181019 -21.793615 45.104213 0.794669 2.075084 0.021981 0.010336 126938.000000 0 0 1
-28.549406 -27.091919 -21.979615 45.079310 0.759210 2.080108 0.017311 0.010394 -520729.000000 0 0 1
-29.386906 -26.684319 -20.780715 44.804924 0.737236 2.053081 0.024394 0.018245 -56327.200000 0 0 1
-30.312206 -27.664419 -20.303115 45.786094 0.739760 2.030223 0.002280 0.015693 345496.000000 0 0 1
-30.811406 -27.301819 -19.012515 45.345428 0.725079 2.003450 0.005422 0.013943 -551179.000000 0 0 1
-31.589006 -28.436519 -18.283215 46.268530 0.732927 1.977032 -0.012653 0.012017 184484.000000 0 0 1
-32.970406 -28.548819 -18.581015 47.406085 0.713648 1.973551 -0.019641 0.016092 695874.000000 0 0 1
-33.899206 -27.525319 -18.198115 47.307196 0.682000 1.965657 -0.032121 0.018957 -284879.000000 0 0 1
-34.110406 -27.185619 -16.670615 46.695686 0.672902 1.935856 -0.008790 0.013848 37888.000000 0 0 1
-33.070006 -26.327419 -16.140615 45.246854 0.672366 1.935555 -0.014009 0.013999 824421.000000 0 0 1
-33.357606 -25.885719 -14.824415 44.750012 0.659939 1.908447 -0.014950 0.007428 4800.530000 0 0 1
-33.028606 -26.850619 -13.654215 44.702149 0.682588 1.881206 -0.003356 0.013658 48386.900000 0 0 1
-33.923406 -27.957619 -13.639515 46.026757 0.689288 1.871653 -0.002563 0.010999 433365.000000 0 0 1
-33.850006 -28.578719 -12.416915 46.008107 0.701161 1.844070 -0.008665 0.001437 127387.000000 0 0 1
-34.833206 -29.809819 -12.513915 47.524474 0.707844 1.837253 0.001431 0.001896 165911.000000 0 0 1
-34.474506 -30.811319 -13.435215 48.149081 0.729347 1.853584 -0.015229 0.005466 88446.400000 0 0 1
-34.470706 -32.117619 -12.855015 48.836692 0.750075 1.837159 -0.011146 -0.001188 -409154.000000 0 0 1
-34.019806 -33.153919 -13.879715 49.489151 0.772509 1.855069 -0.013439 0.011422 -1009740.000000 0 0 1
-32.641206 -33.284719 -13.988515 48.672368 0.795159 1.862309 -0.014918 0.009451 -785343.000000 0 0 1
-32.383806 34.302727 -14.937515 49.482495 -0.814165 1.877455 0.006400 -0.008116 -594205.000000 0 0 1
-30.895006 34.275927 -15.217015 48.589074 -0.837229 1.889334 0.000473 -0.001424 -585186.000000 0 0 1
-30.511406 33.297727 -16.196215 47.979182 -0.829037 1.915128 0.012869 -0.003509 -662210.000000 0 0 1
-29.139006 32.991227 -16.220215 46.910533 -0.847321 1.923855 0.019694 -0.008555 -670812.000000 0 0 1
9.694796 19.874327 -8.746035 23.779636 1.116952 1.947433 0.047876 -0.018867 -197539.000000 0 1 0
8.285396 19.990527 -8.682335 23.316344 1.177882 1.952359 0.043663 -0.020130 324262.000000 0 1 0
7.639796 20.242327 -9.938235 23.809385 1.209908 2.001388 0.045886 -0.018034 314463.000000 0 1 0
7.464296 19.088427 -10.997835 23.260183 1.198040 2.063283 0.032114 -0.007351 -312723.000000 0 1 0
8.695796 18.566527 -11.431535 23.473661 1.132781 2.079441 0.049201 -0.012823 -138723.000000 0 1 0
8.436096 17.543627 -12.368735 23.063655 1.122574 2.136828 0.037450 -0.017207 635548.000000 0 1 0
9.781096 16.988827 -12.984735 23.513686 1.048408 2.155821 0.047582 -0.018893 849682.000000 0 1 0
9.562296 15.956927 -13.956035 23.255794 1.030924 2.214435 0.047600 -0.024705 177934.000000 0 1 0
10.712096 15.689927 -14.749635 24.051498 0.971750 2.230968 0.064858 -0.025519 -151254.000000 0 1 0
10.527896 14.429327 -15.598635 23.714120 0.940468 2.288662 0.070409 -0.026845 -628650.000000 0 1 0
10.503396 13.199327 -14.876935 22.491482 0.898651 2.293544 0.058696 -0.026289 450150.000000 0 1 0
11.731896 12.775727 -14.289635 22.473323 0.827965 2.259904 0.073101 -0.026961 658012.000000 0 1 0
12.784696 12.046327 -15.208335 23.234799 0.755671 2.284383 0.085897 -0.027324 80269.700000 0 1 0
13.373496 12.871627 -16.158635 24.609564 0.766278 2.287098 0.079392 -0.022718 84344.900000 0 1 0
14.402296 12.188427 -16.837935 25.288336 0.702333 2.299413 0.088747 -0.030610 -66713.600000 0 0 1
15.218896 12.918027 -17.929635 26.832108 0.703806 2.302604 0.069837 -0.026610 641581.000000 0 0 1
16.202996 13.879527 -17.464535 27.571513 0.708315 2.256770 0.048937 -0.018921 910421.000000 0 0 1
17.026196 14.275627 -18.581935 28.965034 0.697751 2.267287 0.042452 -0.012501 1575430.000000 0 0 1
18.320596 15.170527 -18.228435 29.967732 0.691617 2.224674 0.042496 -0.014359 864341.000000 0 0 1
18.037596 16.457627 -17.768035 30.197871 0.739628 2.199859 0.038271 -0.018069 126612.000000 0 0 1
17.237596 17.344627 -18.532135 30.682419 0.788493 2.219305 0.047504 -0.011476 -104433.000000 0 0 1
17.088496 18.766927 -17.901535 31.059285 0.832175 2.185072 0.043881 -0.005656 -513764.000000 0 0 1
18.247796 19.520727 -17.961535 32.197167 0.819089 2.162602 0.041623 -0.008490 -436925.000000 0 0 1
18.021696 20.767227 -17.298335 32.485253 0.856062 2.132345 0.029198 0.000409 641039.000000 0 0 1
19.204496 21.799827 -17.503935 33.918032 0.848608 2.113048 0.042258 -0.008319 1292050.000000 0 0 1
20.380796 21.764227 -16.726135 34.188039 0.818212 2.082014 0.044225 -0.011896 51265.600000 0 0 1
20.052696 22.401527 -15.489135 33.820886 0.840668 2.046513 0.046387 -0.004348 -40557.800000 0 0 1
21.232596 22.985927 -14.676835 34.562776 0.825029 2.009364 0.035339 -0.004939 -220917.000000 0 0 1
22.100696 22.071627 -14.030835 34.241230 0.784740 1.992992 0.048757 -0.008783 146503.000000 0 0 1
22.952196 22.823527 -13.142735 34.934913 0.782587 1.956495 0.038710 -0.001707 626256.000000 0 0 1
24.398196 22.903027 -13.714035 36.164836 0.753799 1.959738 0.044925 -0.006132 -112974.000000 0 0 1
24.511196 23.744127 -14.874035 37.226593 0.769503 1.981827 0.045116 -0.005657 -201255.000000 0 0 1
25.824296 23.816327 -15.363835 38.342654 0.744970 1.983075 0.042671 -0.000907 -354947.000000 0 0 1
25.917996 24.384127 -16.792335 39.348579 0.754914 2.011702 0.036070 -0.010591 32928.500000 0 0 1
26.738296 23.510527 -17.587135 39.711317 0.721251 2.029599 0.038105 -0.015634 318600.000000 0 0 1
26.821796 24.042127 -18.889835 40.672577 0.730803 2.053795 0.040173 -0.016512 -731202.000000 0 0 1
27.399396 23.117827 -19.958535 41.030525 0.700846 2.078797 0.035672 -0.019949 697846.000000 0 0 1
28.802896 22.832027 -19.891535 41.792122 0.670273 2.066856 0.037326 -0.017345 491647.000000 0 0 1
29.215896 21.992327 -20.962435 42.150382 0.645260 2.091309 0.037760 -0.015234 178281.000000 0 0 1
30.759496 21.949827 -21.086735 43.273455 0.619792 2.079780 0.057737 -0.012883 -108497.000000 0 0 1
31.145596 23.257427 -21.478335 44.410302 0.641407 2.075598 0.047123 -0.009871 -202487.000000 0 0 1
32.540396 23.374227 -21.642935 45.537331 0.622912 2.066077 0.057747 -0.007199 -62598.700000 0 0 1
32.857096 24.809227 -22.186035 46.768650 0.646735 2.065054 0.046883 -0.009168 -110281.000000 0 0 1
32.941696 24.941127 -23.599735 47.583218 0.648048 2.089745 0.044292 -0.008120 872534.000000 0 0 1
31.664596 24.826027 -24.247635 46.977932 0.664928 2.113146 0.033347 -0.014382 378346.000000 0 0 1
31.816496 25.209827 -25.731485 48.061774 0.670059 2.135758 0.038112 -0.014721 -33197.800000 0 0 1
31.658696 26.616427 -25.935665 48.819729 0.699088 2.130876 0.047140 -0.015326 719331.000000 0 0 1
30.326996 27.016127 -26.349735 48.413906 0.727724 2.146303 0.044919 -0.004200 994154.000000 0 0 1
30.055496 26.896927 -27.877495 49.029912 0.729995 2.175577 0.036557 -0.003620 -213906.000000 0 0 1
29.630196 25.589027 -28.101675 48.191814 0.712344 2.193362 0.023064 -0.006424 -170007.000000 0 0 1
29.326896 25.281927 -29.469065 48.658694 0.711461 2.221351 0.029682 -0.010594 -78880.500000 0 0 1
28.588996 23.947927 -29.701745 47.676279 0.697288 2.243353 0.024470 -0.010538 1437590.000000 0 0 1
27.223696 23.909027 -29.188885 46.527005 0.720664 2.248947 0.029814 -0.008278 1329680.000000 0 0 1
26.581396 22.684927 -29.598835 45.795934 0.706473 2.273548 0.041779 -0.017794 51979.600000 0 0 1
25.210596 22.612327 -28.891165 44.515064 0.731120 2.277092 0.036767 -0.014635 -256788.000000 0 0 1
25.291896 22.745627 -27.488875 43.734218 0.732442 2.250476 0.040046 -0.004641 115234.000000 0 0 1
24.040896 22.973727 -26.881695 42.759588 0.762703 2.250639 0.040716 -0.009271 -252214.000000 0 0 1
24.159996 23.364527 -25.381695 42.116944 0.768662 2.217612 0.040949 -0.004038 -626468.000000 0 0 1
24.549096 22.259527 -24.604935 41.274053 0.736524 2.209476 0.043256 -0.009480 227370.000000 0 0 1
24.789896 22.603027 -23.241735 40.811935 0.739287 2.176674 0.046993 -0.006103 -274529.000000 0 0 1
25.136296 21.347127 -22.487935 39.915416 0.704061 2.169279 0.060498 -0.006398 -1089420.000000 0 0 1
26.313996 20.766127 -22.855435 40.571287 0.668100 2.169219 0.037441 -0.007007 -1083030.000000 0 0 1
26.403096 19.458427 -22.253135 39.635286 0.635113 2.166930 0.066193 -0.015271 -248794.000000 0 0 1
27.592996 18.641127 -22.712235 40.307700 0.594144 2.169378 0.072665 -0.016687 68908.700000 0 0 1
28.879196 18.809327 -22.143635 40.965099 0.577296 2.141886 0.079265 -0.020575 622971.000000 0 0 1
29.916796 18.295127 -22.969035 41.920197 0.548857 2.150676 0.058294 -0.022757 908985.000000 0 0 1
31.287296 17.990827 -22.287935 42.418355 0.521849 2.124018 0.063199 -0.020041 668413.000000 0 0 1
32.009996 19.152827 -21.869035 43.240321 0.539197 2.101054 0.053978 -0.014254 434038.000000 0 0 1
33.216396 18.795427 -21.196035 43.656259 0.514929 2.077755 0.060795 -0.016999 397714.000000 0 0 1
33.636196 19.901327 -20.235035 44.010375 0.534268 2.048542 0.045426 -0.017639 -97474.600000 0 0 1
32.915696 19.903527 -19.005235 42.904457 0.543855 2.029701 0.059341 -0.018935 236573.000000 0 0 1
33.209196 21.100427 -18.256735 43.374959 0.566028 2.005239 0.046729 -0.004223 351783.000000 0 0 1
32.425196 21.104027 -16.908935 42.221859 0.576974 1.982835 0.054385 -0.015427 332471.000000 0 0 1
32.965396 20.021427 -16.188135 41.828586 0.545804 1.968184 0.061725 -0.028586 349245.000000 0 0 1
32.392596 19.912627 -14.918835 40.845620 0.551178 1.944697 0.053018 -0.023130 3003.300000 0 0 1
33.033396 18.670327 -14.208735 40.517583 0.514435 1.929094 0.058634 -0.024519 -276720.000000 0 0 1
34.439696 18.734827 -14.205835 41.700026 0.498217 1.918423 0.065665 -0.033369 71188.100000 0 0 1
35.078996 17.545127 -13.653035 41.530384 0.463776 1.905774 0.046547 -0.017374 430788.000000 0 0 1
35.082296 17.478727 -12.108335 41.022984 0.462223 1.870419 0.055010 -0.022250 -841958.000000 0 0 1
35.918796 18.511827 -11.678235 42.062202 0.475876 1.852135 0.051951 -0.021736 -131971.000000 0 0 1
35.611296 19.028227 -10.436935 41.703327 0.490734 1.823752 0.034785 -0.010776 343241.000000 0 0 1
34.324596 19.916927 -10.400535 41.024785 0.525773 1.827112 0.040825 -0.014141 -90311.200000 0 0 1
33.105196 19.356427 -10.714535 39.817415 0.529089 1.843246 0.055679 -0.031087 -923994.000000 0 0 1
32.047396 20.283027 -10.601735 39.380624 0.564265 1.843371 0.041259 -0.011500 545227.000000 0 0 1
30.622796 19.705727 -10.827635 37.990907 0.571791 1.859809 0.031680 -0.007461 375341.000000 0 0 1
30.589596 19.185027 -12.128335 38.090487 0.560162 1.894846 0.045902 -0.016552 99945.700000 0 0 1
29.319296 18.571027 -12.310635 36.824664 0.564621 1.911663 0.038809 -0.013289 210362.000000 0 0 1
29.093396 17.864527 -13.689235 36.782634 0.550680 1.952138 0.067728 -0.025247 -386592.000000 0 0 1
29.944696 16.757127 -13.827135 36.995619 0.510186 1.953846 0.066278 -0.025964 90467.500000 0 0 1
29.688796 15.930727 -14.930035 36.852661 0.492490 1.987915 0.057990 -0.029878 73044.500000 0 0 1
31.051696 15.472627 -15.496435 37.996704 0.462275 1.990879 0.073430 -0.040545 416306.000000 0 0 1
31.809096 14.548127 -14.722535 37.950226 0.428956 1.969195 0.057715 -0.035975 -66126.500000 0 0 1
32.859696 13.937027 -15.420235 38.881667 0.401140 1.978600 0.065991 -0.030569 -317897.000000 0 0 1
33.679596 13.114827 -14.397935 38.905198 0.371335 1.949889 0.043175 -0.040470 -452308.000000 0 0 1
34.558796 13.904127 -13.623235 39.663934 0.382516 1.921402 0.051188 -0.021265 13148.300000 0 0 1
35.131996 13.154827 -12.588635 39.569943 0.358280 1.894559 0.039132 -0.019113 -348436.000000 0 0 1
36.096696 13.951227 -11.726735 40.436673 0.368811 1.865026 0.060299 -0.008632 -813227.000000 0 0 1
-34.916701 14.175527 -12.338835 39.653101 -0.385652 1.887220 0.057490 -0.018754 -91633.000000 0 0 1
-33.948201 14.569827 -11.335535 38.642652 -0.405404 1.868518 0.050099 -0.010689 92339.300000 0 0 1
-32.490001 14.818027 -11.782735 37.603284 -0.427898 1.889508 0.065601 -0.019183 641259.000000 0 0 1
-31.656301 13.760127 -12.296135 36.642290 -0.410035 1.913009 0.051709 -0.020217 431064.000000 0 0 1
-31.530401 12.656127 -11.418835 35.843180 -0.381708 1.895025 0.072063 -0.009497 -295077.000000 0 0 1
-30.330901 11.690527 -11.712035 34.551465 -0.367886 1.916622 0.079314 -0.018365 344382.000000 0 0 1
-30.501101 11.022127 -12.932635 34.915004 -0.346766 1.950240 0.068749 -0.011177 242327.000000 0 0 1
-29.798601 9.774227 -12.987835 33.943718 -0.316952 1.963436 0.075108 -0.018517 -67192.000000 0 0 1
-29.923101 8.937927 -14.231835 34.319436 -0.290261 1.998395 0.064559 -0.021476 -229802.000000 0 0 1
-31.156401 8.294227 -14.414035 35.316851 -0.260178 1.991206 0.044242 -0.018145 157478.000000 0 0 1
-31.021601 7.557927 -15.573035 35.524378 -0.238979 2.024587 0.054614 -0.026947 261091.000000 0 0 1
-32.398401 7.066227 -16.093235 36.858923 -0.214741 2.022631 0.049100 -0.025507 183184.000000 0 0 1
-33.030001 6.039227 -15.359335 36.923738 -0.180843 1.999811 0.054880 -0.026969 -199652.000000 0 0 1
-33.831201 5.175627 -16.106335 37.825274 -0.151807 2.010652 0.052551 -0.030469 616033.000000 0 0 1
-35.219601 5.045927 -15.342135 38.746133 -0.142302 1.977915 0.050421 -0.029248 810956.000000 0 0 1
-36.106801 4.057527 -15.841535 39.637342 -0.111906 1.981944 0.061070 -0.029603 -342775.000000 0 0 1
35.184796 3.668727 -14.925535 38.395326 0.103895 1.970053 0.066700 -0.027341 15254.800000 0 0 1
34.074196 2.695727 -15.429535 37.501845 0.078949 1.994823 0.064746 -0.025016 229344.000000 0 0 1
34.618296 1.384527 -15.479735 37.946878 0.039973 1.990984 0.076367 -0.031223 960144.000000 0 0 1
33.613996 0.326727 -15.427935 36.986872 0.009720 2.001070 0.071269 -0.028834 1225490.000000 0 0 1
32.858596 0.132027 -14.084235 35.750111 0.004018 1.975736 0.084225 -0.032171 290344.000000 0 0 1
33.856096 -0.448273 -13.233935 36.353449 -0.013240 1.943393 0.102209 -0.033121 888496.000000 0 0 1
33.612396 -0.390273 -11.832035 35.636253 -0.011610 1.909243 0.100953 -0.029906 -368587.000000 0 0 1
33.770596 1.035127 -11.121035 35.569679 0.030642 1.888783 0.099355 -0.034018 302508.000000 0 0 1
32.689696 1.942627 -11.358935 34.661440 0.059356 1.904676 0.091783 -0.019496 828680.000000 0 0 1
32.992696 3.149927 -10.768435 34.848232 0.095185 1.884948 0.090988 -0.021357 -244563.000000 0 0 1
32.177496 4.324927 -11.326635 34.385883 0.133608 1.906462 0.078476 -0.024730 -145661.000000 0 0 1
32.443996 4.689627 -12.675335 35.146403 0.143551 1.939754 0.071239 -0.017089 658707.000000 0 0 1
31.437596 5.607927 -13.065935 34.503478 0.176526 1.959171 0.070386 -0.020534 32847.200000 0 0 1
31.726896 6.276427 -14.430635 35.415148 0.195305 1.990479 0.047328 -0.021008 -374829.000000 0 0 1
31.753296 5.358127 -15.521135 35.747545 0.167168 2.019932 0.048098 -0.014144 213212.000000 0 0 1
32.111196 5.832727 -16.789635 36.702064 0.179682 2.045930 0.035676 -0.010236 -955891.000000 0 0 1
31.138596 6.826627 -17.518235 36.374491 0.215819 2.073285 0.037068 -0.007249 368468.000000 0 0 1
29.980996 6.227827 -18.058635 35.549406 0.204813 2.103642 0.026724 -0.007656 363958.000000 0 0 1
28.983796 5.767227 -17.163035 34.174422 0.196416 2.096959 0.024225 -0.001048 -1692020.000000 0 0 1
27.641196 5.567227 -17.815335 33.352900 0.198751 2.134294 0.024202 0.000389 -988710.000000 0 0 1
27.540096 4.518027 -18.731135 33.611380 0.162604 2.161909 0.023055 0.000375 602894.000000 0 0 1
26.395196 4.812027 -19.542435 33.192902 0.180327 2.200312 0.014842 0.000769 401029.000000 0 0 1
26.001496 3.618827 -20.473935 33.291977 0.138289 2.233158 0.012222 0.012239 -81173.200000 0 0 1
25.273896 2.647727 -19.747535 32.182999 0.104381 2.231410 0.019665 0.001359 15721.500000 0 0 1
24.764596 1.640427 -20.559635 32.228478 0.066144 2.262609 0.023378 0.005242 -734869.000000 0 0 1
23.787996 0.719227 -19.777635 30.944158 0.030226 2.264175 0.027067 0.000853 94146.300000 0 0 1
22.564996 1.409627 -19.572035 29.903690 0.062389 2.284321 0.029136 -0.001940 144056.000000 0 0 1
21.598296 0.530927 -19.053935 28.806609 0.024577 2.293538 0.029091 -0.007238 696578.000000 0 0 1
20.171196 1.089427 -18.697735 27.525793 0.053957 2.317578 0.027845 -0.011490 26079.400000 0 0 1
19.532296 1.572427 -19.891035 27.921970 0.080331 2.363679 0.036607 -0.013616 766040.000000 0 0 1
18.344496 2.360527 -19.732735 27.045766 0.127974 2.388541 0.019624 -0.008483 997485.000000 0 0 1
17.133796 1.852427 -18.889835 25.569989 0.107697 2.402010 0.039629 -0.016917 -857938.000000 0 0 1
17.302296 1.734827 -17.469335 24.648666 0.099932 2.358498 0.031067 -0.019150 -72280.300000 0 1 0
16.086896 1.549327 -16.780335 23.297388 0.096014 2.374983 0.021356 -0.014362 24247.300000 0 1 0
15.259596 2.825827 -16.496735 22.649125 0.183109 2.386723 0.045092 -0.021337 -231110.000000 0 1 0
14.821896 3.510127 -17.632935 23.300858 0.232536 2.429124 0.051484 -0.014351 108284.000000 0 1 0
13.942496 4.559027 -17.298835 22.680997 0.316029 2.438277 0.073615 -0.023281 -169346.000000 0 1 0
-19.606204 -21.997573 -17.628435 34.337417 0.842815 2.109925 0.050893 -0.008991 6440.990000 0 0 1
-19.531904 -22.597573 -18.901235 35.346885 0.858038 2.134991 0.060788 -0.005284 217204.000000 0 0 1
-20.745704 -22.476673 -19.602635 36.329717 0.825425 2.140729 0.064778 -0.003318 -108855.000000 0 0 1
-20.482804 -23.095573 -20.970035 37.318804 0.845282 2.167497 0.059437 0.004938 100853.000000 0 0 1
-20.478604 -24.481273 -20.861135 38.129948 0.874192 2.149700 0.049660 0.001436 279683.000000 0 0 1
-19.733204 -25.143113 -21.883635 38.735887 0.905371 2.171163 0.052217 -0.003346 143348.000000 0 0 1
-19.498104 -26.643263 -21.515935 39.407804 0.939032 2.148357 0.054825 0.008443 -342283.000000 0 0 1
-20.717104 -27.338093 -21.516335 40.491016 0.922315 2.131031 0.053887 0.014825 -229345.000000 0 0 1
-20.549204 -28.746093 -21.571435 41.399692 0.950172 2.118881 0.068809 -0.008015 536298.000000 0 0 1
-21.882104 -29.533653 -21.846035 42.758770 0.933131 2.107044 0.058464 -0.004150 746643.000000 0 0 1
-22.599504 -29.334013 -23.083035 43.635403 0.914354 2.128216 0.032455 0.003127 302477.000000 0 0 1
-21.966804 -29.772603 -24.283735 44.256617 0.935137 2.151608 0.031116 -0.001194 -466329.000000 0 0 1
-22.572304 -29.132503 -25.553895 44.846552 0.911602 2.177068 0.018857 0.012624 -284341.000000 0 0 1
-23.881504 -29.583643 -25.802555 45.948776 0.891648 2.167055 0.014364 0.012270 167720.000000 0 0 1
-24.523104 -28.984173 -26.915755 46.539476 0.868579 2.187492 0.014511 0.017176 55128.400000 0 0 1
-23.853804 -29.305673 -28.307625 47.213855 0.887598 2.213750 0.032829 -0.005345 -343878.000000 0 0 1
-24.158904 -30.562963 -28.835725 48.469025 0.901897 2.207976 0.019538 0.001882 328954.000000 0 0 1
-23.614904 -30.695443 -30.158145 49.085513 0.915039 2.232422 0.049032 -0.008854 -20565.700000 0 0 1
-24.159604 -31.994533 -30.772325 50.539812 0.924029 2.225435 0.033119 -0.006626 -43893.600000 0 0 1
-23.582804 -33.178543 -30.275385 50.730300 0.952869 2.210292 0.026746 -0.007849 -297536.000000 0 0 1
-24.308204 34.271928 -30.644445 52.005152 -0.953873 2.200936 0.032450 -0.006753 30978.000000 0 0 1
-23.511504 32.930887 -30.772465 50.834818 -0.950759 2.220992 0.044173 -0.002957 147845.000000 0 0 1
-22.724804 32.883694 -31.958835 51.177350 -0.966092 2.245252 0.035599 -0.013668 -521274.000000 0 0 1
-22.016504 31.716213 -31.877425 50.068102 -0.963993 2.260983 0.032705 -0.001253 -559644.000000 0 0 1
-20.818104 31.676273 -32.837875 50.150830 -0.989366 2.284691 0.025845 -0.000698 -67022.300000 0 0 1
-21.226404 31.310593 -34.157406 50.967066 -0.975036 2.305255 0.020385 0.010060 229679.000000 0 0 1
-21.066904 29.934663 34.014257 49.968672 -0.957549 0.822063 0.006837 0.014716 -38502.700000 0 0 1
-21.193004 29.565583 32.493950 48.776264 -0.948875 0.841716 0.014247 0.006532 62552.900000 0 0 1
-20.341504 30.414263 31.740775 48.438424 -0.981308 0.856242 0.011746 0.004755 358791.000000 0 0 1
-20.446004 30.273553 30.313435 47.470321 -0.976789 0.878149 0.021609 0.003658 -134794.000000 0 0 1
-19.830204 31.477703 29.552745 47.512604 -1.008627 0.899505 0.017740 -0.011173 -249676.000000 0 0 1
-20.600804 32.623629 29.674625 48.675226 -1.007559 0.915183 0.023154 -0.009571 231723.000000 0 0 1
-19.925804 33.780266 29.140375 48.860060 -1.037862 0.931782 0.015909 -0.018742 636230.000000 0 0 1
-20.943304 -33.640653 29.171395 49.206563 1.013954 0.936221 0.025082 -0.025656 525735.000000 0 0 1
-21.206204 -33.280683 30.528055 49.892576 1.003477 0.912366 0.022310 -0.014000 -9613.470000 0 0 1
-22.191404 -32.258803 30.714645 49.764226 0.968225 0.905613 0.051000 -0.018990 -23803.100000 0 0 1
-21.893704 -30.769513 30.487955 48.534654 0.952368 0.891599 0.055943 -0.015903 -369117.000000 0 0 1
-21.919904 -30.506883 29.111815 47.525255 0.947747 0.911508 0.042849 -0.013231 -13275.000000 0 0 1
-21.813804 -29.158233 28.771425 46.409476 0.928501 0.902121 0.051836 -0.019184 -325020.000000 0 0 1
-23.138504 -28.606843 28.208155 46.362073 0.890685 0.916713 0.053848 -0.013382 -1232600.000000 0 0 1
-24.158704 -28.391623 29.149905 47.322766 0.865774 0.907166 0.057227 -0.011672 -274096.000000 0 0 1
-25.119024 -29.407873 29.171945 48.443686 0.863892 0.924564 0.050690 -0.003894 -1041060.000000 0 0 1
-26.106204 -29.376243 28.016055 48.263826 0.844268 0.951482 0.039118 -0.003478 -1668230.000000 0 0 1
-25.672394 -29.755803 26.728555 47.527837 0.858936 0.973539 0.045217 0.001252 221235.000000 0 0 1
-26.786294 -30.018793 25.859645 47.826297 0.842242 0.999528 0.038220 0.003718 417999.000000 0 0 1
-26.326364 -30.305583 24.423365 46.989430 0.855547 1.024223 0.048484 -0.004949 -275875.000000 0 0 1
-25.508954 -29.246463 23.949665 45.603166 0.853551 1.017875 0.034378 -0.002449 363777.000000 0 0 1
-25.166784 -29.458163 22.579345 44.843921 0.863798 1.043140 0.057059 -0.004893 477783.000000 0 0 1
-23.917404 -30.379413 22.321845 44.645445 0.903854 1.047220 0.050711 -0.010422 -139742.000000 0 0 1
-24.249904 -31.754773 22.193445 45.705278 0.918609 1.063773 0.046600 -0.019275 1392850.000000 0 0 1
-23.110704 -32.677403 22.172945 45.755402 0.955229 1.064894 0.053097 -0.009527 1736840.000000 0 0 1
-22.120504 -32.862913 23.389645 46.003948 0.978343 1.037439 0.047217 -0.009990 745891.000000 0 0 1
-21.177304 -31.874713 23.792645 45.061796 0.984370 1.014552 0.050277 -0.011112 403678.000000 0 0 1
-20.673704 -32.287563 25.034935 45.789046 1.001271 0.992324 0.039191 -0.020748 63192.200000 0 0 1
-19.484504 -31.645203 25.797165 45.238905 1.018900 0.963995 0.031716 -0.001625 -155824.000000 0 0 1
-18.217604 -31.827193 25.179235 44.484213 1.050925 0.969119 0.051848 -0.007061 135109.000000 0 0 1
-17.181004 -31.204123 25.894995 44.039016 1.067492 0.942211 0.075917 -0.004499 -35029.200000 0 0 1
-16.623204 -32.050713 27.098515 45.143201 1.092338 0.926946 0.048781 -0.022591 -529582.000000 0 0 1
-17.562004 -32.135303 28.194755 46.217377 1.070643 0.914677 0.035439 -0.016042 651889.000000 0 0 1
-17.001704 -32.587483 29.430345 47.086593 1.089920 0.895631 0.032341 -0.014160 -81410.800000 0 0 1
-17.650904 -31.888873 30.628835 47.608615 1.065260 0.871935 0.037599 -0.010683 -147875.000000 0 0 1
-17.095904 -30.615183 30.675215 46.588928 1.061517 0.852075 0.040681 -0.015351 308561.000000 0 0 1
-17.509704 -29.879083 31.844335 47.046902 1.040721 0.827303 0.041119 -0.014057 17209.600000 0 0 1
-17.264104 -28.360663 31.713615 45.914375 1.023979 0.808323 0.051813 -0.016522 -266576.000000 0 0 1
-18.097204 -27.626833 30.854875 45.197058 0.990873 0.819380 0.064667 -0.018750 -56218.600000 0 0 1
-18.055704 -27.819943 29.412195 44.328714 0.995110 0.845306 0.064589 -0.013110 -275272.000000 0 0 1
-16.745304 -27.387503 28.727395 43.078344 1.022021 0.840804 0.055667 -0.013617 -105119.000000 0 0 1
-16.661804 -26.002953 28.439445 41.982988 1.000940 0.826568 0.050895 -0.007410 348014.000000 0 0 1
-15.490904 -25.867553 27.637175 40.901245 1.031219 0.828876 0.050128 -0.004076 244283.000000 0 0 1
-15.375104 -24.494073 26.991685 39.558874 1.010253 0.819869 0.044017 0.004507 515435.000000 0 0 1
-16.469104 -24.365073 26.048185 39.286080 0.976407 0.845926 0.056341 0.000318 737756.000000 0 0 1
-16.355104 -23.178273 25.215545 37.954519 0.956307 0.844156 0.043602 0.002274 41186.700000 0 0 1
-16.711504 -21.829473 25.899495 37.770148 0.917419 0.815213 0.052519 -0.000827 -314101.000000 0 0 1
-16.650304 -20.823773 24.951515 36.516301 0.896311 0.818526 0.039760 -0.001749 187384.000000 0 0 1
-17.052004 -19.561273 25.535605 36.407161 0.853826 0.793451 0.047173 -0.001853 -38748.600000 0 0 1
-16.851604 -18.354073 24.617635 35.026797 0.828049 0.791438 0.033541 -0.008639 138003.000000 0 0 1
-15.463604 -18.080373 24.575835 34.205184 0.863251 0.769178 0.024055 -0.007839 -135614.000000 0 0 1
-15.148904 -16.960573 23.786575 32.908228 0.841760 0.762928 0.024152 -0.003581 442445.000000 0 0 1
-13.666104 -16.493373 23.893225 32.088627 0.878869 0.730859 0.034138 -0.010407 226563.000000 0 0 1
-12.699504 -17.465473 23.531035 31.937905 0.942100 0.742509 0.015431 -0.006134 105049.000000 0 0 1
-11.383104 -16.940073 23.595825 31.197822 0.979136 0.713113 0.017622 -0.011566 138666.000000 0 0 1
-10.863004 -16.080173 22.393245 29.631643 0.976667 0.714042 0.027893 -0.012546 -461519.000000 0 0 1
-10.672804 -16.767673 21.177645 29.044040 1.003962 0.753708 0.039013 -0.007028 -457734.000000 0 0 1
-9.331804 -17.171773 21.160345 28.804732 1.073005 0.745699 0.032387 -0.008543 -655072.000000 0 0 1
-8.814204 -18.331673 20.294745 28.733554 1.122612 0.786527 0.034607 -0.007577 17343.700000 0 0 1
-8.756904 -18.088673 18.941145 27.616126 1.119942 0.814994 0.032342 -0.011410 -181961.000000 0 0 1
-8.292904 -19.233673 18.239745 27.773994 1.163715 0.854335 0.032910 -0.010973 238147.000000 0 0 1
-7.880704 -18.926573 16.770745 26.487328 1.176247 0.885166 0.030356 -0.012231 289145.000000 0 0 1
-6.778604 -18.039173 16.649345 25.466879 1.211350 0.858247 0.029931 -0.007356 -136072.000000 0 0 1
-6.527304 -17.749273 15.295645 24.322811 1.218397 0.890710 0.038385 -0.014875 -365218.000000 0 1 0
-5.694504 -16.481873 15.221445 23.146747 1.238135 0.853159 0.035100 -0.017189 -530192.000000 0 1 0
-6.300104 -15.372673 15.757945 22.898105 1.181849 0.811823 0.043922 -0.025513 -736366.000000 0 1 0
-5.495404 -14.269273 15.831745 22.010356 1.203182 0.768022 0.039030 -0.023530 -715172.000000 0 1 0
-5.718004 -13.455273 17.106245 22.502524 1.168956 0.707187 0.031647 -0.003416 -150366.000000 0 1 0
-5.240204 -14.059873 18.310345 23.672949 1.214038 0.686497 0.029519 0.006477 300381.000000 0 1 0
-6.160204 -14.963973 18.938345 24.910430 1.180271 0.707087 0.048294 -0.007805 434018.000000 0 1 0
-7.487504 -14.545873 19.611745 25.539493 1.095418 0.695242 0.049805 -0.007812 125937.000000 0 0 1
-7.232504 -13.748273 20.737345 25.910647 1.086514 0.642933 0.048834 -0.007470 52916.100000 0 0 1
-8.403004 -13.099573 21.227645 26.321516 1.000440 0.632630 0.050049 -0.007670 416746.000000 0 0 1
-8.137104 -12.111673 22.380645 26.717005 0.979221 0.577751 0.057324 -0.005940 -455633.000000 0 0 1
-7.593304 -10.952773 21.850545 25.594293 0.964597 0.547695 0.046420 -0.007226 -53702.200000 0 0 1
-7.248404 -9.999173 22.851945 25.975647 0.943553 0.495471 0.044464 -0.012296 -322619.000000 0 0 1
-5.879204 -10.106173 23.524865 26.270117 1.043909 0.461245 0.052464 -0.012375 -453283.000000 0 0 1
-5.680104 -11.282373 24.246565 27.339558 1.104393 0.480276 0.061764 -0.014668 634217.000000 0 0 1
-4.353304 -11.394973 24.795345 27.633418 1.205870 0.457192 0.052014 -0.011393 679401.000000 0 0 1
-4.222304 -12.672273 25.642295 28.912656 1.249173 0.480231 0.058934 -0.014573 481775.000000 0 0 1
-2.870704 -13.007073 26.018835 29.230201 1.353575 0.473154 0.054895 -0.018027 785900.000000 0 0 1
-2.776604 -14.241573 26.704885 30.392151 1.378247 0.497712 0.057942 -0.023101 -205237.000000 0 0 1
-2.749804 -15.555473 25.895755 30.333551 1.395830 0.547747 0.055370 -0.039185 63863.100000 0 0 1
-1.557604 -15.963273 25.261125 29.922845 1.473530 0.565709 0.053169 -0.033339 -176028.000000 0 0 1
-1.894904 -17.218173 24.642205 30.121328 1.461185 0.612700 0.053623 -0.028917 -334696.000000 0 0 1
-0.653704 -18.147273 24.544995 30.532076 1.534790 0.636958 0.051068 -0.032205 461016.000000 0 0 1
-0.024004 -18.509473 25.757335 31.718157 1.569499 0.623107 0.059173 -0.038793 -138128.000000 0 0 1
0.689196 -17.475473 26.335305 31.613533 -1.531379 0.586218 0.070016 -0.041059 -1626140.000000 0 0 1
1.113096 -17.707873 27.815595 32.992652 -1.508020 0.567803 0.067481 -0.033825 -182425.000000 0 0 1
2.127196 -18.708973 27.922745 33.678336 -1.457583 0.593298 0.068086 -0.039430 338466.000000 0 0 1
2.713896 -18.832873 29.225805 34.873916 -1.427677 0.577112 0.061593 -0.043621 341200.000000 0 0 1
3.840196 -17.813973 29.475145 34.653556 -1.358473 0.553735 0.082523 -0.040310 -564124.000000 0 0 1
3.301496 -16.496773 29.694335 34.129122 -1.373276 0.515475 0.064856 -0.045365 254985.000000 0 0 1
4.221696 -15.581973 30.272975 34.308507 -1.306214 0.489910 0.070412 -0.047538 -99007.100000 0 0 1
3.437996 -14.443173 30.955585 34.331812 -1.337109 0.447206 0.057071 -0.044222 222214.000000 0 0 1
2.796896 -14.906473 32.128995 35.528832 -1.385323 0.441041 0.052387 -0.042331 163492.000000 0 0 1
1.986096 -13.937073 32.794691 35.688631 -1.429245 0.405484 0.036387 -0.031997 13405.300000 0 0 1
1.227296 -14.521573 34.045946 37.033887 -1.486481 0.404451 0.025518 -0.024098 95583.000000 0 0 1
2.031296 -14.887173 -33.376625 36.602639 -1.435188 2.718598 0.030703 -0.025206 -545377.000000 0 0 1
1.203096 -15.306073 -32.345795 35.804661 -1.492355 2.698421 0.016334 -0.030176 -29869.300000 0 0 1
1.999596 -15.662673 -31.088865 34.868829 -1.443817 2.671651 0.017325 -0.017477 264301.000000 0 0 1
1.286896 -16.521473 -30.176305 34.427091 -1.493061 2.639397 0.024854 -0.017848 -69264.600000 0 0 1
1.819396 -16.386773 -28.899415 33.271801 -1.460221 2.623138 0.020055 -0.013425 -224748.000000 0 0 1
1.489096 -17.679873 -28.112605 33.243253 -1.486769 2.578603 0.030173 -0.017135 34758.100000 0 0 1
2.271596 -18.838273 -28.421005 34.173004 -1.450792 2.552923 0.034670 -0.014939 164779.000000 0 0 1
1.803796 -19.962473 -27.741465 34.224887 -1.480682 2.515911 0.034030 -0.007686 -157102.000000 0 0 1
2.910096 -21.059573 -27.819375 35.012739 -1.433482 2.489063 0.036405 -0.015669 259198.000000 0 0 1
4.096996 -20.792873 -27.097655 34.400754 -1.376250 2.477872 0.044004 -0.019019 124721.000000 0 0 1
4.034696 -21.118573 -25.705975 33.512237 -1.382021 2.445046 0.046193 -0.018550 -794604.000000 0 0 1
5.405696 -21.579973 -25.164695 33.588371 -1.325351 2.417663 0.043010 -0.024508 -27562.100000 0 0 1
5.783696 -22.942973 -25.493905 34.781753 -1.323851 2.393471 0.043247 -0.024329 322241.000000 0 0 1
5.980896 -23.221273 -26.906645 36.041174 -1.318714 2.413662 0.033363 -0.017909 -947740.000000 0 0 1
5.388996 -24.593773 -27.174835 37.045467 -1.355085 2.394332 0.022318 -0.015320 -388027.000000 0 0 1
5.941896 -25.664163 -26.480325 37.351881 -1.343280 2.358794 0.035797 -0.009531 -386711.000000 0 0 1
5.463396 -26.915943 -26.903925 38.446559 -1.370537 2.345878 0.028503 -0.007453 -198106.000000 0 0 1
5.548396 -28.069113 -25.857255 38.564977 -1.375643 2.305659 0.034750 -0.007900 -18582.900000 0 0 1
6.886796 -28.279713 -25.447415 38.661881 -1.331922 2.289227 0.050220 -0.009883 -16443.400000 0 0 1
7.174696 -29.580583 -25.050535 39.421016 -1.332844 2.259402 0.044663 -0.008652 768909.000000 0 0 1
8.638596 -30.114513 -25.308905 40.274681 -1.291439 2.250300 0.042957 -0.010670 845405.000000 0 0 1
9.044496 -30.108513 -26.632195 41.201933 -1.278976 2.273630 0.049109 -0.011194 424237.000000 0 0 1
10.343496 -30.643113 -26.898605 42.065702 -1.245258 2.264569 0.064906 -0.001855 599596.000000 0 0 1
10.808396 -30.482353 -28.361255 43.015765 -1.230048 2.290713 0.065752 -0.013231 217367.000000 0 0 1
10.175696 -31.419113 -29.245535 44.113567 -1.257587 2.295562 0.058167 -0.015269 453442.000000 0 0 1
10.503796 -30.982063 -30.566365 44.771873 -1.243929 2.322266 0.065726 -0.006627 215306.000000 0 0 1
-34.641904 -4.714373 -5.901435 35.455800 0.135258 1.738019 0.141507 -0.031490 84091.500000 0 0 1
-34.163536 -4.088373 -4.702535 34.727162 0.119104 1.706627 0.133797 -0.043984 323754.000000 0 0 1
-33.507104 -2.843273 -4.856335 33.976377 0.084653 1.714220 0.139921 -0.049166 -325148.000000 0 0 1
-34.348621 -1.629773 -5.277935 34.789948 0.047412 1.723093 0.150794 -0.043335 357383.000000 0 0 1
-35.306724 -1.160273 -4.309935 35.587730 0.032851 1.692202 0.128645 -0.041721 1756380.000000 0 0 1
35.879734 -0.307673 -4.887035 36.212333 -0.008575 1.706164 0.140179 -0.044404 1581900.000000 0 0 1
35.100594 0.605727 -3.864235 35.317856 0.017255 1.680429 0.125615 -0.039467 556728.000000 0 0 1
36.010504 1.603127 -3.380135 36.204305 0.044489 1.664295 0.118305 -0.030500 542484.000000 0 0 1
35.447814 2.456627 -2.439635 35.616490 0.069192 1.639347 0.110180 -0.030120 -266673.000000 0 0 1
-35.923227 3.719127 -2.379935 36.193566 -0.103162 1.636600 0.090171 -0.029572 -205826.000000 0 0 1
-35.938657 4.491527 -3.597335 36.396451 -0.124333 1.669795 0.096339 -0.032255 1135050.000000 0 0 1
-34.620788 4.773827 -4.125535 35.191027 -0.137025 1.688299 0.077460 -0.020463 916487.000000 0 0 1
-33.904374 6.029227 -3.535035 34.617259 -0.175991 1.673092 0.067489 -0.017187 -86926.700000 0 0 1
-33.388564 5.832527 -2.209735 33.966123 -0.172941 1.635899 0.084299 -0.023722 453931.000000 0 0 1
-32.932614 7.096127 -1.770435 33.734945 -0.212229 1.623301 0.086391 -0.031736 -210193.000000 0 0 1
-32.481234 7.149427 -0.295535 33.260069 -0.216655 1.579682 0.093138 -0.032856 -283472.000000 0 0 1
-31.136634 6.699727 -0.147935 31.849618 -0.211940 1.575441 0.094825 -0.025302 627167.000000 0 0 1
-30.540124 7.127927 1.064165 31.378957 -0.229291 1.536876 0.097185 -0.028700 63847.400000 0 0 1
-30.214254 8.661327 1.218865 31.454814 -0.279177 1.532037 0.097302 -0.030247 -262060.000000 0 0 1
-31.391624 9.466927 1.305965 32.814056 -0.292901 1.530987 0.080491 -0.032867 307679.000000 0 0 1
-31.141324 10.793627 1.630465 32.999134 -0.333644 1.521367 0.075091 -0.020306 148969.000000 0 0 1
-32.386094 11.707527 1.461665 34.468271 -0.346882 1.528378 0.080483 -0.028353 -430960.000000 0 0 1
-32.814104 11.971127 0.093765 34.929673 -0.349813 1.568112 0.072772 -0.022022 881365.000000 0 0 1
-34.011804 12.749927 -0.024135 36.323051 -0.358655 1.571461 0.058251 -0.011230 681792.000000 0 0 1
-35.315819 11.994127 0.331765 37.298474 -0.327402 1.561901 0.066118 -0.020484 -587041.000000 0 0 1
-35.664334 10.991927 -0.632935 37.325163 -0.298967 1.587754 0.063072 -0.014921 -1048390.000000 0 0 1
35.309364 10.518327 -0.388135 36.844770 0.289520 1.581331 0.062300 -0.022679 -914341.000000 0 0 1
34.909604 9.252927 -1.228835 36.135954 0.259096 1.604809 0.056478 -0.019645 114924.000000 0 0 1
34.543854 9.482427 -2.548935 35.912273 0.267905 1.641833 0.053129 -0.009335 71385.100000 0 0 1
34.245984 8.344427 -3.258435 35.398224 0.239004 1.662978 0.043115 -0.015290 -60648.300000 0 0 1
33.633774 8.616827 -4.670835 35.032801 0.250801 1.704522 0.034630 -0.002782 273431.000000 0 0 1
32.283894 9.051227 -4.576835 33.839650 0.273346 1.706463 0.050138 -0.012871 372413.000000 0 0 1
32.033424 9.716127 -5.842035 33.980476 0.294493 1.743578 0.036966 -0.003388 -122868.000000 0 0 1
30.615734 10.286627 -6.032135 32.856118 0.324141 1.755436 0.052108 -0.002841 321829.000000 0 0 1
29.566474 9.302827 -6.057235 31.581784 0.304834 1.763787 0.058075 -0.001750 935226.000000 0 0 1
28.330414 9.944527 -6.309435 30.680856 0.337583 1.777921 0.075618 -0.002206 -413166.000000 0 0 1
27.117394 9.052927 -6.496435 29.317439 0.322208 1.794240 0.095528 -0.002451 -591814.000000 0 0 1
27.241104 8.253327 -7.725535 29.493712 0.294182 1.835826 0.096638 -0.012330 516361.000000 0 0 1
26.118694 7.387527 -7.773235 28.234463 0.275644 1.849709 0.108100 -0.015500 17689.800000 0 0 1
26.127194 6.365127 -8.885235 28.321238 0.238966 1.889916 0.093730 -0.015483 67685.400000 0 0 1
27.094894 5.324127 -8.712035 28.954778 0.194027 1.876416 0.089471 -0.017443 827285.000000 0 0 1
27.074794 4.412427 -9.757735 29.115758 0.161551 1.912546 0.082181 -0.017561 -452536.000000 0 0 1
27.907284 3.178727 -9.443435 29.632740 0.113414 1.895135 0.075309 -0.015529 403387.000000 0 0 1
29.310804 3.475027 -9.328135 30.955018 0.118007 1.876899 0.097499 -0.015946 1244860.000000 0 0 1
30.107144 2.819227 -8.381735 31.379000 0.093368 1.841192 0.074060 -0.019980 -420999.000000 0 0 1
30.189474 1.243227 -8.332635 31.342986 0.041158 1.839885 0.080474 -0.027164 193801.000000 0 0 1
29.073614 0.566227 -7.679035 30.075958 0.019473 1.828976 0.088398 -0.027905 1211130.000000 0 0 1
29.330634 -0.810273 -7.458235 30.274873 -0.027618 1.819709 0.080966 -0.029410 -255877.000000 0 0 1
29.086864 -1.780373 -8.643335 30.396096 -0.061133 1.859132 0.066361 -0.022030 -949566.000000 0 0 1
30.014104 -1.742873 -9.673335 31.582550 -0.058003 1.882087 0.083019 -0.029154 -200810.000000 0 0 1
29.884904 -2.800773 -10.573935 31.823889 -0.093446 1.909499 0.060939 -0.035641 -444482.000000 0 0 1
31.013224 -2.981173 -11.598035 33.244878 -0.095831 1.927158 0.077436 -0.032654 -307353.000000 0 0 1
32.252894 -3.352973 -11.033335 34.252388 -0.103587 1.898763 0.109005 -0.028707 865016.000000 0 0 1
33.178964 -4.006473 -11.956335 35.494358 -0.120172 1.914368 0.092541 -0.035332 1388130.000000 0 0 1
34.670554 -4.140973 -11.511235 36.765521 -0.118875 1.889250 0.119164 -0.034290 523171.000000 0 0 1
34.796574 -5.194373 -10.608335 36.746699 -0.148184 1.863653 0.107269 -0.032751 -805505.000000 0 0 1
36.101514 -5.310273 -10.194835 37.887372 -0.146046 1.843237 0.125249 -0.030104 -1035230.000000 0 0 1
-35.919468 -6.557373 -9.314635 37.682486 0.180569 1.820573 0.109191 -0.029762 -98885.900000 0 0 1
35.711984 -6.463373 -8.033235 37.170605 -0.179048 1.788633 0.095922 -0.023560 254469.000000 0 0 1
35.399824 -7.767873 -7.688935 37.048713 -0.216009 1.779852 0.083977 -0.016106 -233633.000000 0 0 1
35.344304 -8.091873 -6.210435 36.786788 -0.225065 1.740431 0.081178 -0.012604 18918.000000 0 0 1
-35.621027 -7.937473 -5.570035 36.917290 0.219249 1.722253 0.080478 -0.015996 775478.000000 0 0 1
-35.655118 -8.580773 -4.331135 36.927981 0.236169 1.688353 0.086499 -0.017917 -423774.000000 0 0 1
-35.406547 -10.087073 -4.480735 37.087054 0.277540 1.691909 0.081245 -0.021088 -150004.000000 0 0 1
35.852464 -10.783673 -5.292335 37.811316 -0.292171 1.711224 0.057663 -0.022542 92538.600000 0 0 1
-35.909975 -11.915173 -5.924235 38.296138 0.320376 1.726115 0.044218 -0.016756 -473895.000000 0 0 1
35.666664 -12.233273 -7.273035 38.401314 -0.330415 1.761343 0.037760 -0.011274 -101598.000000 0 0 1
35.899754 -11.283373 -8.323735 38.540776 -0.304526 1.788484 0.067603 -0.014422 28239.900000 0 0 1
35.496064 -11.897573 -9.510735 38.626117 -0.323412 1.819580 0.062728 -0.006620 -107648.000000 0 0 1
35.832024 -11.215273 -10.846435 39.081472 -0.303336 1.852023 0.055566 -0.012479 48161.200000 0 0 1
35.121474 -9.962273 -10.974535 38.120929 -0.276392 1.862816 0.064919 -0.011028 487726.000000 0 0 1
35.263814 -9.419573 -12.240335 38.497932 -0.261023 1.894361 0.071530 -0.019700 44760.400000 0 0 1
34.188784 -8.338273 -12.571835 37.369116 -0.239219 1.913912 0.075105 -0.016919 29366.000000 0 0 1
34.279994 -7.882773 -13.894835 37.819605 -0.226023 1.947006 0.090196 -0.015458 177143.000000 0 0 1
33.223554 -7.000773 -14.157835 36.786678 -0.207679 1.965856 0.085844 -0.026677 -234887.000000 0 0 1
33.454204 -6.057373 -15.380435 37.315323 -0.179124 1.995636 0.082973 -0.031796 394134.000000 0 0 1
34.476514 -5.056773 -15.203935 38.017899 -0.145635 1.982221 0.089684 -0.024004 562184.000000 0 0 1
34.224754 -3.864073 -15.907735 37.938383 -0.112427 2.003475 0.100249 -0.033286 -751231.000000 0 0 1
35.326724 -2.846573 -15.811235 38.808189 -0.080405 1.990424 0.102439 -0.034407 -1963130.000000 0 0 1
-35.978219 -3.088473 -16.793335 39.824452 0.085633 2.006098 0.100386 -0.031181 67435.100000 0 0 1
-34.698464 -2.470973 -16.584835 38.537590 0.071093 2.015682 0.101129 -0.025564 588458.000000 0 0 1
-34.634620 -0.954073 -16.347735 38.310776 0.027540 2.011652 0.094690 -0.017444 -1128470.000000 0 0 1
-34.880313 -0.142273 -17.530035 39.037912 0.004079 2.036500 0.077794 -0.020029 279823.000000 0 0 1
-34.598065 1.200227 -17.209635 38.660550 -0.034677 2.032135 0.073107 -0.025914 -19387.300000 0 0 1
-34.971718 2.226227 -18.333035 39.548418 -0.063572 2.052804 0.059931 -0.023818 208064.000000 0 0 1
-34.036899 2.220427 -19.398835 39.239719 -0.065144 2.087903 0.050422 -0.017740 369678.000000 0 0 1
-34.244523 3.423327 -20.192735 39.901793 -0.099636 2.101408 0.037881 -0.015068 188763.000000 0 0 1
-33.314774 3.594327 -21.465835 39.794163 -0.107474 2.140546 0.039872 -0.013260 1506840.000000 0 0 1
-31.890964 3.792027 -21.268835 38.519818 -0.118350 2.155741 0.049792 -0.017535 1337120.000000 0 0 1
-31.306074 4.462427 -22.340035 38.717705 -0.141588 2.185845 0.043321 -0.011472 -1683010.000000 0 0 1
-29.899694 4.856527 -22.057035 37.471193 -0.161021 2.200172 0.062026 -0.011347 -1405860.000000 0 0 1
-29.062384 3.790327 -21.744735 36.494140 -0.129688 2.209110 0.070700 -0.007428 914159.000000 0 0 1
-27.661984 4.168327 -21.707335 35.408596 -0.149563 2.230715 0.060021 -0.005948 1129090.000000 0 0 1
-26.894794 3.097627 -20.921435 34.214495 -0.114670 2.228724 0.082989 -0.005833 -279010.000000 0 0 1
-26.468364 3.438627 -19.639635 33.137799 -0.129191 2.205161 0.072705 -0.003605 -59758.800000 0 0 1
-26.034834 2.312527 -18.932235 32.273671 -0.088592 2.197670 0.075846 -0.011512 54128.600000 0 0 1
-25.195684 2.642527 -17.637035 30.868599 -0.104498 2.178956 0.078613 -0.013493 -279352.000000 0 0 1
-23.927604 3.162127 -17.903735 30.051173 -0.131393 2.209026 0.065218 -0.017044 -311313.000000 0 0 1
-23.229804 3.306727 -16.661335 28.777740 -0.141399 2.188256 0.071592 -0.018821 -88648.300000 0 0 1
-22.104204 4.353027 -16.814135 28.111560 -0.194444 2.211952 0.074421 -0.023294 -758062.000000 0 0 1
-21.097704 3.893327 -17.627635 27.766970 -0.182485 2.258600 0.077247 -0.028583 -723545.000000 0 0 1
-20.019104 4.820827 -17.614935 27.097801 -0.236312 2.278447 0.064033 -0.027962 551145.000000 0 0 1
-18.720604 4.164027 -18.211335 26.447171 -0.218867 2.330343 0.072446 -0.026322 113262.000000 0 0 1
-18.210204 3.105227 -17.408835 25.383488 -0.168897 2.326544 0.080211 -0.028449 57414.800000 0 0 1
-17.241704 2.389227 -18.156935 25.152714 -0.137696 2.377294 0.058798 -0.027235 -719214.000000 0 0 1
-16.956504 1.010827 -17.508035 24.394181 -0.059542 2.371310 0.038510 -0.025409 45152.500000 0 1 0
-17.930804 0.101327 -17.920535 25.350928 -0.005651 2.355900 0.038133 -0.027612 1412060.000000 0 0 1
-19.294304 0.292527 -17.437035 26.007805 -0.015160 2.305617 0.048543 -0.031107 727485.000000 0 0 1
-20.304404 -0.716273 -17.990335 27.137318 0.035262 2.295531 0.041253 -0.027201 -492629.000000 0 0 1
-20.182204 -2.006973 -17.398335 26.721739 0.099117 2.279820 0.025546 -0.030223 -394512.000000 0 0 1
-21.311404 -2.777373 -17.572735 27.761317 0.129593 2.256210 0.044722 -0.025607 -799456.000000 0 0 1
-21.370704 -4.048473 -16.644335 27.388519 0.187222 2.223973 0.056857 -0.033146 -133569.000000 0 0 1
-21.716704 -3.637673 -15.330935 26.830681 0.165965 2.179002 0.045961 -0.033022 348248.000000 0 0 1
-21.934704 -4.686373 -14.429035 26.670028 0.210486 2.142447 0.039879 -0.040906 -207277.000000 0 0 1
-22.199304 -4.186973 -12.999335 26.063817 0.186418 2.092953 0.049207 -0.039483 -809361.000000 0 0 1
-23.328004 -3.394073 -12.868035 26.857063 0.144480 2.070460 0.038919 -0.037559 -85321.600000 0 0 1
-23.518604 -2.913173 -11.526535 26.352842 0.123239 2.023493 0.043546 -0.044637 -469357.000000 0 0 1
-24.549604 -1.773873 -11.577135 27.200363 0.072131 2.010448 0.086036 -0.044032 -376342.000000 0 0 1
-24.844404 -1.353873 -10.304535 26.930667 0.054440 1.963440 0.079085 -0.042519 362062.000000 0 0 1
-25.623364 -0.187173 -10.325835 27.626340 0.007305 1.953864 0.097141 -0.043997 -215104.000000 0 0 1
-26.167104 0.145527 -8.876535 27.632071 -0.005561 1.897835 0.104844 -0.035293 25993.100000 0 0 1
-25.151534 0.633727 -8.017535 26.406100 -0.025191 1.879291 0.086123 -0.032388 499489.000000 0 0 1
-25.642354 0.853727 -6.711535 26.519877 -0.033281 1.826654 0.092202 -0.039081 13403.900000 0 0 1
-24.550204 1.186827 -5.653835 25.220763 -0.048305 1.796892 0.070629 -0.033604 -93307.200000 0 0 1
-23.965504 2.414627 -5.952335 24.811410 -0.100415 1.813062 0.079568 -0.030551 -227859.000000 0 1 0
-22.693404 2.556327 -5.377935 23.461619 -0.112173 1.802075 0.070240 -0.019514 -265341.000000 0 1 0
-22.179404 3.998027 -5.586735 23.218996 -0.178343 1.813791 0.078156 -0.017779 -338170.000000 0 1 0
-22.722304 4.963627 -4.684835 23.725268 -0.215069 1.769564 0.079312 -0.016743 621554.000000 0 1 0
-22.326304 6.283927 -4.863535 23.698218 -0.274361 1.777493 0.084315 -0.019627 -585584.000000 0 1 0
-22.745004 7.194827 -3.645535 24.132771 -0.306366 1.722438 0.081760 -0.021481 -184243.000000 0 1 0
-22.007904 7.025827 -2.440435 23.230708 -0.309014 1.676043 0.060880 -0.013298 706177.000000 0 1 0
-20.656704 7.443127 -2.360635 22.083300 -0.345843 1.677898 0.063906 -0.010686 -78765.000000 0 1 0
-20.316804 8.960127 -2.495835 22.344699 -0.415362 1.682727 0.063162 -0.015923 -851012.000000 0 1 0
-20.356604 9.446727 -3.828135 22.765908 -0.434486 1.739751 0.063422 -0.013657 582109.000000 0 1 0
-19.929504 10.785527 -3.967935 23.005591 -0.496049 1.744140 0.079690 -0.010268 -662047.000000 0 1 0
-19.814904 11.340827 -5.392335 23.458944 -0.519832 1.802733 0.081052 -0.012586 53552.800000 0 1 0
-18.630604 11.037827 -6.126635 22.504859 -0.534855 1.846512 0.042486 -0.004373 509805.000000 0 1 0
-18.774404 11.532627 -7.462535 23.263042 -0.550849 1.897359 0.054223 -0.001800 -356666.000000 0 1 0
-17.461804 11.619327 -8.279135 22.549222 -0.587135 1.946748 0.047695 0.007272 28139.600000 0 1 0
-16.950704 10.363727 -8.712535 21.694272 -0.548763 1.984065 0.028818 0.007635 333825.000000 0 1 0
-17.755304 9.554227 -9.574635 22.320567 -0.493665 2.014138 0.031264 0.003878 -126765.000000 0 1 0
-17.788204 10.010027 -11.075735 23.222677 -0.512567 2.067962 0.030516 0.007321 638050.000000 0 1 0
-16.550004 9.925227 -11.789035 22.614024 -0.540207 2.119188 0.026941 0.005813 607877.000000 0 1 0
-16.764204 10.352427 -13.116835 23.669867 -0.553211 2.158147 0.035306 0.008037 98035.100000 0 1 0
-15.668804 9.934627 -14.124235 23.317423 -0.565073 2.221489 0.032873 0.009812 -312054.000000 0 1 0
-15.748004 8.633127 -14.722135 23.222225 -0.501464 2.257469 0.037058 -0.007790 15799.800000 0 1 0
-15.403104 7.546227 -13.890535 22.071432 -0.455548 2.251506 0.027047 -0.003185 -366066.000000 0 1 0
-15.427904 6.154127 -14.598735 22.113719 -0.379554 2.291837 0.029204 -0.008439 185768.000000 0 1 0
-14.378704 5.894227 -15.545335 21.980593 -0.389035 2.356369 0.030612 -0.016323 626698.000000 0 1 0
-14.395004 4.547127 -16.033135 22.021669 -0.305963 2.386287 0.028935 -0.021111 7884.910000 0 1 0
32.497114 -15.960673 28.712835 46.208575 -0.456536 0.900300 0.019555 0.006795 -243141.000000 0 0 1
31.504194 -14.974773 28.896365 45.296335 -0.443715 0.878975 0.013340 0.006311 -124440.000000 0 0 1
30.535484 -15.194973 29.894645 45.354083 -0.461739 0.851123 0.010640 0.003607 51860.500000 0 0 1
30.897044 -15.103573 31.398295 46.568210 -0.454676 0.830857 0.010018 -0.003509 -299204.000000 0 0 1
31.264954 -13.794273 31.719235 46.624985 -0.415516 0.822617 0.011372 -0.008890 -11010.500000 0 0 1
31.222264 -13.617373 33.122641 47.511809 -0.411271 0.799388 0.002327 -0.007511 -304764.000000 0 0 1
31.516774 -12.106073 33.519762 47.575608 -0.366738 0.788997 0.022876 -0.009988 -2725.920000 0 0 1
31.193534 -11.857673 -33.660595 47.399121 -0.363263 2.360511 0.013472 -0.010992 25589.800000 0 0 1
31.354034 -10.503873 -33.323975 46.945651 -0.323258 2.360070 0.009684 -0.007174 -76839.300000 0 0 1
31.108884 -10.218673 -31.809285 45.651008 -0.317377 2.341712 0.019401 -0.007493 761340.000000 0 0 1
29.761614 -10.472373 -31.385425 44.502463 -0.338344 2.353574 0.040019 -0.010444 628734.000000 0 0 1
29.516444 -10.144073 -30.036935 43.316742 -0.331029 2.337029 0.045493 -0.014751 -245126.000000 0 0 1
28.064054 -10.484873 -29.669715 42.164152 -0.357547 2.351348 0.032259 0.002148 -134222.000000 0 0 1
27.825024 -10.275673 -28.301005 40.997174 -0.353761 2.332722 0.031223 -0.000585 -652270.000000 0 0 1
26.921294 -11.211273 -27.857575 40.329805 -0.394603 2.333314 0.043276 -0.003232 -1357030.000000 0 0 1
26.464094 -10.844773 -26.388785 38.914334 -0.388919 2.316005 0.039335 -0.000229 -1271080.000000 0 0 1
25.653794 -9.673573 -26.175115 37.905564 -0.360594 2.333025 0.038191 0.001910 1496410.000000 0 0 1
24.349994 -9.636273 -26.813945 37.480230 -0.376829 2.368015 0.036457 -0.001638 1021180.000000 0 0 1
23.404094 -10.819173 -26.596945 37.043267 -0.433016 2.371716 0.047909 -0.002367 -1699220.000000 0 0 1
23.915594 -11.916673 -27.292425 38.194754 -0.462271 2.366791 0.039216 -0.005673 -660795.000000 0 0 1
23.054394 -13.028473 -27.266215 38.009113 -0.514377 2.370802 0.042531 -0.021538 69294.700000 0 0 1
23.687694 -14.253473 -28.025195 39.365974 -0.541687 2.363016 0.039600 -0.008439 293719.000000 0 0 1
23.757694 -14.150173 -29.452245 40.399136 -0.537181 2.387702 0.037706 -0.015685 750726.000000 0 0 1
24.989894 -14.684173 -29.963675 41.688626 -0.531255 2.372798 0.031603 -0.005068 459709.000000 0 0 1
25.153994 -14.926573 -31.514925 42.996703 -0.535558 2.393461 0.038216 -0.012398 284385.000000 0 0 1
24.145494 -15.844773 -32.055285 43.146298 -0.580736 2.408254 0.056294 -0.012798 820914.000000 0 0 1
24.218694 -16.201573 -33.413255 44.333754 -0.589595 2.424433 0.058487 -0.014739 -99714.300000 0 0 1
24.338594 -15.035773 33.996536 44.432039 -0.553387 0.699544 0.031423 -0.007851 174202.000000 0 0 1
23.141594 -14.284273 33.849780 43.420979 -0.553011 0.676814 0.048601 -0.014045 201458.000000 0 0 1
23.254994 -13.345473 32.810349 42.372343 -0.520989 0.685134 0.041609 -0.012671 -827337.000000 0 0 1
22.491994 -12.033373 32.916806 41.643823 -0.491259 0.659275 0.067523 -0.022097 237285.000000 0 0 1
21.066494 -12.111573 32.882433 40.886939 -0.521775 0.636420 0.059150 -0.015930 770165.000000 0 0 1
20.531494 -12.251673 31.571825 39.603357 -0.538009 0.648152 0.056467 -0.005966 -434918.000000 0 0 1
18.996494 -12.432673 31.538415 38.860131 -0.579513 0.623931 0.069599 -0.003085 373407.000000 0 0 1
18.260594 -11.239473 31.796165 38.350635 -0.551742 0.593316 0.065502 -0.008850 334818.000000 0 0 1
17.070394 -11.483473 32.537591 38.496277 -0.592177 0.563831 0.059574 0.002067 894039.000000 0 0 1
16.128794 -10.222373 32.812341 37.964255 -0.564900 0.527048 0.068097 -0.007857 20546.600000 0 0 1
15.301294 -9.901673 31.661415 36.532423 -0.574343 0.522316 0.073238 -0.012202 1259400.000000 0 0 1
14.401194 -8.769073 31.950505 36.126525 -0.546947 0.485577 0.078174 -0.010718 688586.000000 0 0 1
13.371594 -8.879773 33.052235 36.743709 -0.586208 0.452093 0.079230 -0.012438 -2414080.000000 0 0 1
12.535494 -9.993573 32.928025 36.623284 -0.673045 0.453085 0.064977 -0.006160 -219053.000000 0 0 1
11.474394 -10.042773 33.840982 37.117800 -0.718962 0.423349 0.044187 -0.004378 -259784.000000 0 0 1
10.286794 -9.137273 33.435037 36.155354 -0.726287 0.390391 0.046575 -0.004795 -1366570.000000 0 0 1
10.524694 -7.699573 33.409852 35.864618 -0.631603 0.372131 0.067441 -0.010588 232508.000000 0 0 1
9.493494 -7.005573 32.715147 34.777656 -0.635734 0.346125 0.059668 -0.006916 -10152.000000 0 0 1
9.756894 -5.500973 32.471385 34.348923 -0.513379 0.332163 0.052269 -0.005796 -78380.200000 0 0 1
9.789494 -4.767373 33.702361 35.417668 -0.453185 0.312496 0.045145 -0.012313 347739.000000 0 0 1
10.248494 -3.463473 33.358409 35.068658 -0.325899 0.313593 0.018686 -0.010561 -88788.900000 0 0 1
10.312394 -2.440573 -33.994745 35.608209 -0.232388 2.839407 0.017678 -0.005912 -409925.000000 0 0 1
9.017294 -2.175573 -33.534705 34.793982 -0.236742 2.871730 0.017124 0.004442 -380233.000000 0 0 1
8.939194 -1.562573 -32.291755 33.542634 -0.173052 2.867635 0.015213 0.001004 447581.000000 0 0 1
7.468394 -1.267973 -31.858895 32.747120 -0.168175 2.908152 0.014595 0.006409 472747.000000 0 0 1
6.811994 -0.276373 -32.638125 33.342568 -0.040549 2.935669 0.019047 0.005883 -23237.100000 0 0 1
5.506894 0.007427 -32.195845 32.663410 0.001349 2.972188 0.021863 0.004744 -434955.000000 0 0 1
4.814294 0.978327 -33.082315 33.445091 0.200483 2.994171 0.042659 0.003467 -285350.000000 0 0 1
5.460794 2.249527 -33.089905 33.612832 0.390758 2.964970 0.031749 -0.006547 65929.900000 0 0 1
4.840794 3.123727 -34.036575 34.520710 0.573059 2.973918 0.051687 -0.009968 352879.000000 0 0 1
5.617894 4.489727 -34.246718 34.993658 0.674243 2.934608 0.044438 -0.017324 278583.000000 0 0 1
5.165194 5.288227 33.209776 34.022548 0.797167 0.219020 0.073309 -0.033319 -20841.100000 0 0 1
6.015194 6.405427 32.998822 34.148709 0.816806 0.260245 0.067944 -0.034891 -182245.000000 0 0 1
5.452794 7.411827 32.048185 33.342980 0.936518 0.279595 0.089563 -0.035740 840135.000000 0 0 1
4.176694 7.998927 32.483676 33.713748 1.089581 0.270961 0.104789 -0.036770 1381960.000000 0 0 1
3.765094 9.177627 31.773235 33.285781 1.181488 0.302621 0.111826 -0.041400 45513.800000 0 0 1
3.520094 9.049327 30.307185 31.824626 1.199818 0.310049 0.094691 -0.038500 -654371.000000 0 0 1
2.280194 8.476827 30.012375 31.269770 1.308025 0.284547 0.095699 -0.038648 -464436.000000 0 0 1
2.149794 8.252027 28.568295 29.813840 1.315944 0.290074 0.074600 -0.019824 360041.000000 0 0 1
0.774694 7.696127 28.093845 29.139229 1.470474 0.268671 0.077634 -0.015974 833464.000000 0 0 1
-0.342706 8.517227 28.413375 29.664465 -1.530581 0.291460 0.077217 -0.013746 331608.000000 0 0 1
-1.562706 8.109727 27.787385 28.988765 -1.380434 0.288903 0.070365 -0.014029 623086.000000 0 0 1
-2.773106 8.576427 28.599775 29.986536 -1.258066 0.305310 0.048068 -0.014181 -442854.000000 0 0 1
-3.028006 9.952727 28.572175 30.407150 -1.275455 0.349181 0.059538 -0.009348 -774234.000000 0 0 1
-4.295806 10.168727 29.097495 31.121073 -1.171085 0.362601 0.046823 -0.006274 -780452.000000 0 0 1
-4.584006 11.562627 29.673095 32.174524 -1.193354 0.396924 0.031221 -0.005595 -142004.000000 0 0 1
-4.692906 12.740727 28.880075 31.912509 -1.217878 0.439472 0.032603 -0.008652 -87820.300000 0 0 1
-5.784306 12.678427 28.008245 31.283582 -1.142772 0.461688 0.020401 -0.009049 -449203.000000 0 0 1
-6.045806 14.008127 27.290765 31.266040 -1.163355 0.509771 0.006389 -0.002293 503888.000000 0 0 1
-5.040706 14.382927 26.326645 30.419887 -1.233708 0.524765 0.015184 -0.003605 509460.000000 0 0 1
-5.357906 15.684927 25.813245 30.676501 -1.241628 0.570805 0.004925 -0.000591 63323.400000 0 0 1
-4.151506 16.374827 25.148845 30.295781 -1.322498 0.591491 0.031394 0.001205 -56819.300000 0 0 1
-3.759006 15.885027 23.883445 28.928933 -1.338432 0.599549 0.029960 -0.000838 -594861.000000 0 0 1
-2.820106 16.768227 23.406145 28.930504 -1.404174 0.628267 0.031036 0.006559 -532620.000000 0 0 1
-2.514906 16.481927 21.875345 27.504716 -1.419379 0.651243 0.023831 0.004876 179640.000000 0 0 1
-1.860106 15.216527 21.682645 26.554468 -1.449157 0.615414 0.032326 0.003841 133594.000000 0 0 1
-1.837706 14.957427 20.310145 25.290389 -1.448547 0.638354 0.025601 -0.005166 -349229.000000 0 0 1
-1.000606 13.744027 19.976345 24.268371 -1.498122 0.603872 0.032092 -0.005823 -481488.000000 0 1 0
-1.646406 12.519727 19.780345 23.467345 -1.440042 0.568168 0.031967 -0.006220 66543.400000 0 1 0
-0.728606 11.583127 19.260345 22.486898 -1.507977 0.542319 0.037694 -0.008927 -14740.000000 0 1 0
-1.486206 10.228227 19.085745 21.704633 -1.426502 0.496323 0.015260 -0.007234 -64318.100000 0 1 0
-1.911706 9.515127 20.194445 22.405532 -1.372524 0.448000 0.021439 -0.012261 119914.000000 0 1 0
-2.732906 10.141427 21.174145 23.636026 -1.307570 0.460474 0.038367 -0.007818 -161954.000000 0 1 0
-4.240706 10.156427 20.833245 23.561848 -1.175262 0.486031 0.034253 -0.008682 -67840.500000 0 1 0
-4.914806 8.914627 21.053145 23.385055 -1.066941 0.450379 0.028199 -0.007489 -67696.000000 0 1 0
-6.316506 9.058927 20.959445 23.690942 -0.961906 0.484940 0.032086 -0.006815 200204.000000 0 1 0
-6.980906 7.647727 20.999845 23.413976 -0.830950 0.458102 0.029444 -0.011063 -233891.000000 0 1 0
-6.905706 7.158227 22.315545 24.431793 -0.803351 0.419282 0.033076 -0.013002 54120.300000 0 1 0
-7.358006 5.815227 22.367745 24.254343 -0.668815 0.397023 0.024759 -0.011417 -1354.350000 0 1 0
-7.540506 5.200827 23.730365 25.436943 -0.603792 0.368387 0.022769 -0.009030 -313433.000000 0 0 1
-8.605506 5.695627 24.481255 26.567400 -0.584666 0.398930 0.011599 -0.012126 -234719.000000 0 0 1
-8.771706 4.962227 25.675015 27.582112 -0.514823 0.374044 0.011740 0.001593 -280801.000000 0 0 1
-9.859206 5.553227 26.546895 28.857926 -0.512961 0.402928 0.005509 0.000953 -379430.000000 0 0 1
-9.362706 6.703927 27.226035 29.561121 -0.621400 0.400136 0.004050 -0.005378 175617.000000 0 0 1
-10.361906 7.230627 28.058785 30.772495 -0.609254 0.423116 0.009859 -0.000516 102053.000000 0 0 1
-9.725206 8.271727 28.989035 31.675941 -0.704810 0.414854 0.018140 -0.004982 158171.000000 0 0 1
-8.831306 7.762627 29.959265 32.183970 -0.721085 0.373995 0.015469 -0.007116 115173.000000 0 0 1
-8.321806 8.799327 30.753575 33.052428 -0.813282 0.375162 0.020851 -0.012421 -56104.700000 0 0 1
-7.318806 8.402127 31.842995 33.736286 -0.854199 0.336610 0.038296 -0.017170 452498.000000 0 0 1
-5.975906 8.086427 31.459515 33.027304 -0.934370 0.309354 0.040222 -0.017792 117467.000000 0 0 1
-5.296606 7.684327 32.627385 33.935957 -0.967305 0.278605 0.064342 -0.023882 -461905.000000 0 0 1
-3.790106 7.596127 32.397855 33.491597 -1.107987 0.256267 0.049970 -0.021644 -442615.000000 0 0 1
-3.213206 8.832227 32.094325 33.442168 -1.221877 0.284877 0.037259 -0.021922 -1256990.000000 0 0 1
-1.829706 8.754527 32.188095 33.407529 -1.364761 0.271020 0.053558 -0.022228 -638297.000000 0 0 1
-1.170706 10.048027 31.693455 33.268731 -1.454808 0.308961 0.055816 -0.023113 -125975.000000 0 0 1
-1.490806 11.135927 32.546043 34.430746 -1.437714 0.332403 0.055031 -0.025514 -130124.000000 0 0 1
-1.526206 12.285527 31.760045 34.087592 -1.447202 0.371680 0.042787 -0.016373 -341954.000000 0 0 1
-1.519406 13.627627 32.518060 35.290863 -1.459760 0.399051 0.037459 -0.026063 -1412250.000000 0 0 1
-0.325706 13.975627 33.076418 35.909242 -1.547495 0.399870 0.074883 -0.028815 -1557210.000000 0 0 1
-0.459906 14.791027 34.196804 37.261339 -1.539713 0.408404 0.070654 -0.027734 -753687.000000 0 0 1
0.790894 15.180027 -33.558025 36.840192 1.518742 2.716276 0.061872 -0.029625 -669427.000000 0 0 1
1.613494 16.113327 -34.226882 37.864523 1.470995 2.699668 0.062688 -0.024460 176069.000000 0 0 1
2.801594 16.421727 -33.523485 37.434557 1.401820 2.680400 0.073260 -0.030512 64823.300000 0 0 1
3.640794 17.510827 -34.184416 38.580549 1.365800 2.659557 0.085348 -0.023732 -87585.000000 0 0 1
3.193494 18.842627 -33.971785 38.978522 1.402909 2.629154 0.061550 -0.015126 -100776.000000 0 0 1
3.943494 19.737927 33.720014 39.270552 1.373600 0.538149 0.049524 -0.002099 -174662.000000 0 0 1
3.442294 21.193027 33.790447 40.034836 1.409777 0.566050 0.048662 -0.006388 -396655.000000 0 0 1
3.808094 21.849427 -33.491455 40.169349 1.398242 2.556673 0.050721 -0.019856 147333.000000 0 0 1
3.273994 23.153527 -33.333245 40.717442 1.430324 2.529849 0.035308 -0.018632 185176.000000 0 0 1
3.683194 23.747727 -31.932485 39.965035 1.416926 2.496444 0.041972 -0.008559 41807.600000 0 0 1
3.121994 25.025927 -31.825185 40.606480 1.446687 2.471472 0.037655 -0.015101 102060.000000 0 0 1
3.214294 25.521327 -30.480315 39.883824 1.445511 2.440639 0.050509 -0.016673 -207479.000000 0 0 1
2.941494 27.017927 -30.362555 40.749301 1.462352 2.411490 0.055442 -0.011752 -189456.000000 0 0 1
4.075994 27.792527 -30.629815 41.559883 1.425177 2.399424 0.042803 -0.011971 -100428.000000 0 0 1
3.741094 29.133027 -30.332405 42.223025 1.443081 2.372275 0.038921 -0.009161 -800366.000000 0 0 1
4.978794 29.977927 -30.156395 42.812062 1.406217 2.352360 0.056561 -0.019718 -193844.000000 0 0 1
5.739494 29.721527 -28.965055 41.896126 1.380035 2.334158 0.034806 -0.025396 197173.000000 0 0 1
6.277294 30.874527 -28.390465 42.410604 1.370214 2.304223 0.035548 -0.022704 -1263700.000000 0 0 1
7.405094 30.647327 -27.413235 41.780133 1.333717 2.286477 0.037334 -0.025410 -1063800.000000 0 0 1
8.644894 30.211827 -27.876205 42.006803 1.292101 2.296433 0.042092 -0.013209 -216887.000000 0 0 1
9.586194 31.254927 -28.081565 43.096866 1.273195 2.280477 0.056090 -0.024669 -430637.000000 0 0 1
9.357994 32.386327 -29.154845 44.569622 1.289509 2.283844 0.050550 -0.021306 -1025850.000000 0 0 1
8.379094 33.334927 -28.780945 44.830451 1.324537 2.267894 0.039098 -0.018809 47205.200000 0 0 1
8.208894 -34.303719 -29.757245 46.147857 -1.335913 2.271589 0.042173 -0.015568 157705.000000 0 0 1
6.900894 34.259727 -30.594815 46.447755 1.372027 2.289877 0.017563 -0.004369 213472.000000 0 0 1
7.077494 33.398927 -31.687745 46.579957 1.361978 2.318951 0.008174 -0.000678 147360.000000 0 0 1
5.919094 33.453827 -32.475765 46.998612 1.395675 2.333660 0.014409 0.001681 -264538.000000 0 0 1
5.966794 32.418427 -33.632655 47.092595 1.388778 2.366250 0.017209 -0.008858 -62653.000000 0 0 1
6.801394 32.741027 33.777643 47.530653 1.365976 0.780375 0.031509 -0.004233 -26469.900000 0 0 1
6.570094 31.960427 32.669901 46.173125 1.368051 0.784768 0.030316 -0.003833 -585236.000000 0 0 1
5.596894 32.628827 31.697325 45.833241 1.400917 0.807123 0.035553 -0.012272 -260984.000000 0 0 1
6.016994 33.862527 31.129825 46.389017 1.394943 0.835158 0.038485 -0.014358 -235722.000000 0 0 1
5.040194 -34.217419 30.300935 45.982410 -1.424549 0.851350 0.039528 -0.028994 -293446.000000 0 0 1
17.964596 -22.184373 29.737515 41.221268 -0.890117 0.764957 0.063721 -0.000473 -581136.000000 0 0 1
16.945696 -21.236573 29.884965 40.388857 -0.897307 0.737829 0.063671 -0.002187 295106.000000 0 0 1
15.615496 -21.669573 30.110255 40.249740 -0.946366 0.725624 0.064772 -0.003294 546112.000000 0 0 1
15.297596 -22.262773 31.543015 41.528416 -0.968755 0.708171 0.052490 -0.007678 -126073.000000 0 0 1
16.188596 -23.341673 31.924795 42.732855 -0.964413 0.727140 0.055754 -0.014202 579525.000000 0 0 1
15.905296 -23.796073 33.163897 43.807255 -0.981595 0.712024 0.054793 -0.017422 127650.000000 0 0 1
16.842096 -24.937973 33.657532 45.148513 -0.976800 0.729534 0.052604 -0.022819 -332751.000000 0 0 1
16.423696 -26.215063 33.248418 45.413926 -1.011120 0.749368 0.062096 -0.024535 -90035.100000 0 0 1
16.973996 -27.218193 34.053090 46.782043 -1.013185 0.755528 0.066342 -0.023609 -151155.000000 0 0 1
16.583796 -28.644593 33.660306 47.207534 -1.045998 0.776988 0.057440 -0.022014 -52398.600000 0 0 1
17.281496 -29.128673 32.528427 46.959858 -1.035332 0.805590 0.050405 -0.026270 52576.700000 0 0 1
16.763996 -30.384583 32.163605 47.315452 -1.066628 0.823348 0.053549 -0.025446 -307753.000000 0 0 1
17.554996 -31.215643 31.121315 47.446080 -1.058499 0.855382 0.053069 -0.021298 -95785.800000 0 0 1
18.760696 -31.755443 31.600535 48.569185 -1.037179 0.862383 0.066792 -0.027483 -145170.000000 0 0 1
19.453696 -32.428533 30.562145 48.622019 -1.030454 0.891088 0.055528 -0.027131 -82700.900000 0 0 1
20.902996 -32.776203 31.007015 49.725745 -1.003082 0.897507 0.064562 -0.036384 174685.000000 0 0 1
21.786996 -31.673553 31.013315 49.393450 -0.968264 0.891966 0.063005 -0.033438 -270844.000000 0 0 1
23.007196 -32.028493 31.603605 50.536554 -0.947871 0.895202 0.062562 -0.035447 -566267.000000 0 0 1
23.946896 -30.812143 31.628435 50.231463 -0.910119 0.889689 0.054142 -0.033055 412487.000000 0 0 1
24.980796 -30.846163 30.627445 50.135480 -0.890077 0.913608 0.051000 -0.032048 108255.000000 0 0 1
25.712196 -29.626963 30.575985 49.736957 -0.856022 0.908723 0.040110 -0.024984 107167.000000 0 0 1
26.636696 -29.655753 29.346795 49.499613 -0.838978 0.936179 0.033368 -0.022389 -405155.000000 0 0 1
27.660296 -30.598563 29.505965 50.714555 -0.835790 0.949851 0.020424 -0.020858 -817693.000000 0 0 1
28.591596 -30.389493 28.485905 50.521752 -0.815871 0.971775 0.013325 -0.028985 327120.000000 0 0 1
29.911696 -31.212663 28.684635 51.882061 -0.806679 0.984978 -0.016436 -0.010139 415869.000000 0 0 1
29.559796 -32.571283 28.777715 52.562600 -0.833830 0.991430 -0.015210 -0.014041 218630.000000 0 0 1
30.635896 -33.437883 29.090555 53.878665 -0.829101 1.000446 -0.012632 -0.014473 -437291.000000 0 0 1
29.994396 33.890969 29.657565 54.109452 0.846316 0.990702 -0.011280 -0.010516 32318.500000 0 0 1
29.463696 33.872313 31.016455 54.566138 0.854893 0.966213 0.006738 -0.004476 -161796.000000 0 0 1
28.497896 -33.830783 31.384855 54.237082 -0.870751 0.953711 0.000669 0.008706 266380.000000 0 0 1
27.040196 -34.030333 30.813625 53.279595 -0.899362 0.954106 0.011092 0.001410 504650.000000 0 0 1
26.592496 33.287189 31.067895 52.729611 0.896738 0.940737 0.001028 -0.003513 1070110.000000 0 0 1
25.203596 33.214832 30.618785 51.729646 0.921683 0.937382 0.025095 -0.008874 2028980.000000 0 0 1
24.387396 31.899743 30.855945 50.640182 0.918079 0.915597 0.036609 -0.014932 343510.000000 0 0 1
24.436696 31.047963 29.696455 49.426790 0.903994 0.926274 0.038928 -0.013788 -239300.000000 0 0 1
23.708196 29.900193 29.936875 48.500687 0.900393 0.905558 0.064620 -0.023116 -468710.000000 0 0 1
23.195796 29.184703 28.736875 47.070159 0.899238 0.914090 0.064066 -0.025145 -314684.000000 0 0 1
22.113596 29.839963 28.116835 46.583162 0.933033 0.922808 0.082665 -0.033281 -205706.000000 0 0 1
21.653496 29.234343 26.959705 45.280751 0.933282 0.933045 0.075569 -0.022418 -478738.000000 0 0 1
20.215696 29.663233 26.692925 44.733589 0.972590 0.931403 0.086948 -0.010733 -527149.000000 0 0 1
20.173896 30.944023 26.013145 45.179668 0.993053 0.957249 0.086799 -0.024966 152078.000000 0 0 1
18.862796 31.436683 25.781145 44.818942 1.030358 0.957913 0.069542 -0.020048 -23626.400000 0 0 1
18.804796 32.878856 25.152085 45.467207 1.051263 0.984606 0.075954 -0.020364 26796.700000 0 0 1
19.375896 32.969486 23.826165 45.056614 1.039476 1.013604 0.073130 -0.013555 -598479.000000 0 0 1
20.633396 33.523689 23.766105 45.982633 1.019067 1.027630 0.070229 -0.007453 -887974.000000 0 0 1
21.066796 33.700675 22.247845 45.546811 1.012114 1.060471 0.070872 -0.009488 142480.000000 0 0 1
20.516996 -33.757893 21.618945 45.032447 -1.024684 1.070056 0.055373 0.001405 348855.000000 0 0 1
21.097796 -33.645583 20.356545 44.626575 -1.010717 1.097129 0.057391 -0.003747 -108981.000000 0 0 1
20.887896 -32.235813 19.725545 43.180424 -0.995848 1.096383 0.056125 -0.008769 -719168.000000 0 0 1
21.544496 -31.246133 20.400845 43.089217 -0.967146 1.077586 0.049839 0.005008 -211922.000000 0 0 1
21.299896 -29.882173 20.073245 41.827802 -0.951534 1.070253 0.053814 -0.003947 -314618.000000 0 0 1
22.109696 -29.328173 18.891345 41.302098 -0.924822 1.095734 0.041067 -0.002225 -199861.000000 0 0 1
21.642196 -29.935413 17.672945 40.949318 -0.944825 1.124552 0.027522 -0.018890 330201.000000 0 0 1
22.142596 -29.213993 16.589545 40.236364 -0.922230 1.145817 0.030548 -0.019412 -377090.000000 0 0 1
21.726496 -29.810243 15.224745 39.905941 -0.940985 1.179361 0.025335 -0.015903 -17475.200000 0 0 1
22.443696 -31.000003 14.907545 41.072553 -0.944150 1.199358 0.045267 -0.019596 185816.000000 0 0 1
22.536596 -31.345993 13.510845 40.902474 -0.947457 1.234155 0.051655 -0.022626 168638.000000 0 0 1
21.261596 -31.724133 12.685445 40.241727 -0.980350 1.250096 0.046507 -0.022817 111686.000000 0 0 1
20.611896 -32.914573 13.048245 40.969209 -1.011317 1.246661 0.048679 -0.022256 -120478.000000 0 0 1
19.468596 -33.119083 12.254745 40.324666 -1.039369 1.262011 0.054096 -0.013081 677303.000000 0 0 1
18.298696 -33.906513 12.991745 40.660538 -1.075910 1.245576 0.058203 -0.008674 623703.000000 0 0 1
17.719496 -33.269843 14.131645 40.256259 -1.081411 1.212112 0.048476 -0.007898 628323.000000 0 0 1
18.510996 -33.290083 15.343245 41.064605 -1.063319 1.187870 0.039284 -0.009260 -735351.000000 0 0 1
18.020696 -32.254173 16.327545 40.393885 -1.061291 1.154683 0.036208 -0.011896 -451335.000000 0 0 1
16.709696 -32.266093 16.796745 40.030555 -1.092954 1.137794 0.047013 -0.022317 -460746.000000 0 0 1
16.099796 -33.446693 17.303445 40.954779 -1.122174 1.134593 0.047587 -0.013114 -762098.000000 0 0 1
16.591896 -34.116034 18.613445 42.257013 -1.118139 1.114661 0.041179 -0.020150 -61900.600000 0 0 1
17.378496 33.317143 18.435945 41.856042 1.090012 1.114684 0.037025 -0.013140 154255.000000 0 0 1
17.864796 32.945345 19.721945 42.349756 1.073918 1.086380 0.030849 -0.009661 26594.000000 0 0 1
18.632996 31.600773 19.729145 41.653770 1.038031 1.077370 0.042682 -0.011996 65717.500000 0 0 1
17.850596 30.468013 19.412245 40.296139 1.040824 1.068158 0.034242 -0.010151 -122276.000000 0 0 1
18.722096 29.370253 19.255645 39.798348 1.003294 1.065770 0.035657 -0.011834 28863.900000 0 0 1
17.993796 28.101463 18.865845 38.332611 1.001259 1.056225 0.037983 -0.002575 -410525.000000 0 0 1
17.651396 27.273603 19.961545 38.129837 0.996394 1.019825 0.044232 -0.009164 -28775.100000 0 0 1
17.270096 25.969013 19.540245 36.803085 0.983930 1.011086 0.047404 -0.011292 -246630.000000 0 0 1
16.903396 24.974823 20.710945 36.584284 0.975799 0.969010 0.061648 -0.007684 351881.000000 0 0 1
15.735096 25.394423 21.414245 36.756494 1.016069 0.948875 0.072469 -0.005225 240588.000000 0 0 1
14.696296 24.454763 21.165045 35.524297 1.029672 0.932547 0.071406 -0.004827 250168.000000 0 0 1
13.402096 24.809423 21.957545 35.738739 1.075507 0.909183 0.081708 -0.014659 94162.000000 0 0 1
12.733196 25.888113 21.377045 35.906918 1.113686 0.933100 0.094410 -0.016948 215407.000000 0 0 1
11.435196 26.083613 21.941545 35.952051 1.157626 0.914357 0.075552 -0.021974 451100.000000 0 0 1
10.703496 27.333023 21.393245 36.322581 1.197556 0.941001 0.064115 -0.027228 175818.000000 0 0 1
11.373796 28.592773 21.662445 37.632053 1.192200 0.957412 0.064832 -0.032109 214383.000000 0 0 1
11.037396 29.530163 20.643145 37.682809 1.213107 0.991048 0.059729 -0.029994 -39573.200000 0 0 1
11.585896 30.932753 20.887545 39.081424 1.212419 1.006925 0.060878 -0.030271 -376866.000000 0 0 1
10.953996 31.679113 21.879545 40.028374 1.237886 0.992497 0.055066 -0.028019 -285643.000000 0 0 1
11.243096 31.349733 23.249445 40.617110 1.226450 0.961360 0.057240 -0.025799 194698.000000 0 0 1
10.545596 32.362673 24.211095 41.769957 1.255790 0.952523 0.046781 -0.021365 541313.000000 0 0 1
9.160096 32.292933 24.484875 41.548165 1.294400 0.940588 0.037322 -0.017734 -137448.000000 0 0 1
8.834896 32.911431 25.679965 42.669407 1.308535 0.924999 0.044818 -0.011518 752464.000000 0 0 1
7.419896 32.738240 26.387715 42.698463 1.347919 0.904598 0.085380 -0.024884 1826690.000000 0 0 1
6.267596 33.359549 25.762255 42.612628 1.385081 0.921572 0.061589 -0.018559 1105950.000000 0 0 1
5.798196 32.851244 24.499765 41.389151 1.396097 0.937336 0.057630 -0.024900 55062.700000 0 0 1
4.837696 31.626813 24.514455 40.306539 1.419011 0.917005 0.035318 -0.024316 131776.000000 0 0 1
5.548296 30.489553 24.988525 39.809833 1.390792 0.892205 0.042689 -0.021778 -100978.000000 0 0 1
4.738696 29.343673 25.005495 38.843032 1.410689 0.871398 0.022949 -0.015434 -948049.000000 0 0 1
5.542096 28.118673 25.429115 38.314677 1.376194 0.845054 0.045819 -0.023927 764230.000000 0 0 1
6.480596 27.611953 24.413365 37.422326 1.340266 0.860083 0.072201 -0.024717 1851290.000000 0 0 1
7.643296 28.442583 24.119835 38.067925 1.308271 0.884599 0.081232 -0.032852 610545.000000 0 0 1
8.932496 28.073133 24.900735 38.573785 1.262739 0.869073 0.058844 -0.033278 -351947.000000 0 0 1
8.910796 28.339623 26.343645 39.705467 1.266155 0.845341 0.061397 -0.027448 468522.000000 0 0 1
10.081496 27.879793 27.052355 40.134142 1.223820 0.831121 0.069120 -0.017284 972527.000000 0 0 1
11.244296 28.911953 27.017335 41.137229 1.199882 0.854281 0.055859 -0.014698 -103771.000000 0 0 1
10.956696 30.010633 27.832995 42.371723 1.220739 0.854127 0.056636 -0.023192 -307131.000000 0 0 1
12.080096 30.819383 28.010575 43.363065 1.197236 0.868523 0.062675 -0.011482 -444721.000000 0 0 1
11.946796 32.029783 28.964295 44.805840 1.213789 0.867887 0.042122 -0.015245 -175766.000000 0 0 1
11.766096 31.753493 30.344825 45.470141 1.215937 0.840142 0.039024 -0.034878 573705.000000 0 0 1
10.395596 31.698173 30.740865 45.363459 1.253893 0.826225 0.060423 -0.028246 293550.000000 0 0 1
10.195796 31.599123 32.267995 46.299917 1.258682 0.799683 0.075693 -0.022219 -190391.000000 0 0 1
10.562496 30.294063 32.814990 45.892485 1.235311 0.774114 0.059753 -0.024833 298312.000000 0 0 1
10.448296 30.345303 34.202787 46.902398 1.239196 0.753596 0.080462 -0.017577 -169001.000000 0 0 1
10.620496 28.941123 -33.714185 45.684021 1.219085 2.400878 0.060954 -0.014976 -90527.100000 0 0 1
11.901196 28.410823 -33.979605 45.863132 1.174107 2.405193 0.072188 -0.013892 -98745.400000 0 0 1
11.944396 27.034783 -33.582435 44.736205 1.154769 2.419882 0.074865 -0.015297 -267316.000000 0 0 1
13.079396 26.252703 34.210282 45.062384 1.108581 0.708750 0.085047 -0.018535 64281.000000 0 0 1
13.256196 24.925183 -33.921035 44.131940 1.082003 2.447490 0.070714 -0.019089 -112626.000000 0 0 1
13.609496 24.721553 -32.561375 43.088475 1.067561 2.427498 0.075978 -0.019902 -601817.000000 0 0 1
13.549796 23.231973 -32.073635 41.857372 1.042792 2.443797 0.054986 -0.026768 -247332.000000 0 0 1
14.510396 22.420373 -32.694645 42.215691 0.996394 2.456668 0.046495 -0.011063 -203384.000000 0 0 1
14.475896 21.058773 -32.260845 41.155627 0.968574 2.471678 0.040634 0.000195 -291786.000000 0 0 1
15.645596 20.143773 -32.706115 41.475851 0.910427 2.479257 0.055808 -0.001279 3205.750000 0 0 1
16.771196 20.436373 -31.917795 41.444710 0.883588 2.449841 0.046919 -0.008261 47530.700000 0 0 1
17.959396 19.815373 -32.408075 42.017523 0.834491 2.451676 0.046228 -0.005717 561434.000000 0 0 1
19.258596 20.043273 -31.599435 42.085040 0.805361 2.420140 0.041422 -0.005866 45367.800000 0 0 1
19.764996 21.325073 -31.873525 43.143197 0.823347 2.402061 0.031045 -0.006672 -269616.000000 0 0 1
20.777596 21.723073 -30.968435 43.158364 0.807641 2.371080 0.027322 -0.001436 10012.200000 0 0 1
20.350396 22.262973 -29.572335 42.240994 0.830250 2.346314 0.036196 -0.013054 -25278.500000 0 0 1
19.714396 23.536473 -29.601515 42.648243 0.873539 2.337945 0.024697 -0.000009 188075.000000 0 0 1
19.307196 23.999283 -28.297545 41.826839 0.893323 2.313851 0.028446 0.006893 420506.000000 0 0 1
20.496896 24.623963 -27.484055 42.211794 0.876611 2.279828 0.023639 0.001264 468311.000000 0 0 1
21.159396 25.729973 -28.059585 43.555618 0.882567 2.270805 0.024283 0.005773 -515039.000000 0 0 1
20.442396 26.922093 -28.228935 44.040475 0.921359 2.266567 0.027104 0.007253 -427993.000000 0 0 1
21.185996 27.894393 -29.174205 45.585939 0.921238 2.265272 0.021807 0.011726 -249694.000000 0 0 1
21.210796 27.592893 -30.607835 46.347656 0.915431 2.292143 0.034239 0.008698 166672.000000 0 0 1
21.786196 26.347083 -31.130675 46.237712 0.879871 2.309425 0.034095 0.004940 -313236.000000 0 0 1
23.241296 26.076543 -30.780245 46.557141 0.842824 2.293118 0.038166 -0.000166 -788754.000000 0 0 1
24.186296 26.979253 -31.286265 47.871572 0.839931 2.283056 0.029180 0.008857 -115818.000000 0 0 1
25.485196 26.424583 -31.216935 48.189738 0.803493 2.275479 0.034164 0.001193 788615.000000 0 0 1
26.703996 27.397953 -31.454125 49.528913 0.798224 2.258890 0.019785 0.009511 615795.000000 0 0 1
26.698396 28.402073 -30.425075 49.448633 0.816308 2.233546 0.012693 0.013112 -58851.100000 0 0 1
27.704196 29.335063 -30.734775 50.721739 0.813982 2.221754 0.018421 0.008757 116578.000000 0 0 1
27.733596 30.536693 -29.808665 50.893993 0.833466 2.196541 0.015631 0.015203 4225.740000 0 0 1
28.178196 30.204293 -28.469165 50.167753 0.820088 2.174238 0.029493 0.002069 189900.000000 0 0 1
27.593896 31.018143 -27.465925 49.778764 0.843754 2.155269 0.017898 0.001951 -493003.000000 0 0 1
28.134596 30.897743 -26.028565 49.231212 0.832171 2.127865 0.039858 -0.005008 -282220.000000 0 0 1
28.096596 29.616263 -25.426145 48.093977 0.811724 2.127837 0.036909 0.005333 244059.000000 0 0 1
26.829696 29.032203 -25.137545 46.846532 0.824805 2.137191 0.039139 0.003443 248514.000000 0 0 1
26.192996 29.303523 -23.746735 45.920332 0.841389 2.114290 0.040497 0.005256 11221.800000 0 0 1
25.675996 30.602363 -23.512435 46.352950 0.872711 2.102785 0.063051 0.003187 153627.000000 0 0 1
25.152796 30.692743 -22.220235 45.480177 0.884276 2.081246 0.047415 0.012635 29236.500000 0 0 1
3.379696 -26.050383 -19.562435 32.752613 -1.441780 2.210900 0.046693 -0.010895 -225887.000000 0 0 1
3.350296 -27.170403 -18.700835 33.153831 -1.448109 2.170094 0.054757 -0.006680 188786.000000 0 0 1
3.336296 -26.794273 -17.368335 32.104875 -1.446919 2.142407 0.061306 -0.007005 -33667.700000 0 0 1
3.202696 -28.075743 -16.468435 32.706482 -1.457214 2.098467 0.055759 -0.012420 525997.000000 0 0 1
4.505796 -28.553483 -16.125235 33.100254 -1.414285 2.079635 0.050670 -0.010951 450994.000000 0 0 1
4.520296 -29.593153 -15.136635 33.545574 -1.419220 2.038935 0.056600 -0.015121 145700.000000 0 0 1
5.970396 -30.048973 -14.830635 34.037247 -1.374662 2.021632 0.076848 -0.015465 -60360.200000 0 0 1
6.668796 -29.045893 -14.136035 32.984303 -1.345112 2.013704 0.068847 -0.007899 206943.000000 0 0 1
8.081996 -29.209683 -14.036635 33.399871 -1.300861 2.004528 0.072875 -0.010341 608107.000000 0 0 1
8.562596 -30.235353 -13.026035 34.017234 -1.294824 1.963756 0.071146 -0.015070 -1061810.000000 0 0 1
8.511596 -29.796863 -11.661435 33.110261 -1.292552 1.930717 0.073053 -0.022862 -81337.200000 0 0 1
8.545296 -30.835913 -10.657935 33.726358 -1.300459 1.892319 0.081161 -0.019761 613540.000000 0 0 1
9.877296 -31.667863 -10.683735 34.850491 -1.268456 1.882372 0.064784 -0.020464 542668.000000 0 0 1
10.955796 -30.965213 -10.092235 34.361710 -1.230732 1.868898 0.074443 -0.026952 -585773.000000 0 0 1
12.092696 -31.765813 -10.065535 35.448769 -1.207053 1.858703 0.066114 -0.026698 -447803.000000 0 0 1
13.166896 -31.292683 -9.072735 35.141339 -1.172517 1.831933 0.059840 -0.022509 -126660.000000 0 0 1
13.846196 -30.101743 -9.436535 34.451129 -1.139674 1.848253 0.061784 -0.032813 770764.000000 0 0 1
15.085996 -30.062903 -8.705535 34.744090 -1.105698 1.824057 0.054798 -0.026707 1015470.000000 0 0 1
16.266696 -29.304153 -9.417635 34.814231 -1.064047 1.844720 0.058617 -0.033076 459854.000000 0 0 1
16.148496 -27.856443 -9.549435 33.584923 -1.045434 1.859111 0.064594 -0.034177 202383.000000 0 0 1
15.661196 -27.430933 -10.853335 33.399462 -1.052025 1.901761 0.055750 -0.033231 -307329.000000 0 0 1
15.425596 -25.890073 -10.920535 32.054688 -1.033462 1.918441 0.070416 -0.034554 -56701.700000 0 0 1
14.332296 -25.511153 -10.025135 30.931165 -1.058935 1.900868 0.054833 -0.031801 1038470.000000 0 0 1
13.716696 -24.256873 -10.170335 29.664446 -1.056149 1.920741 0.045840 -0.019057 217209.000000 0 0 1
13.296296 -23.842473 -11.624335 29.671201 -1.062081 1.973353 0.029122 -0.010469 354592.000000 0 0 1
14.419596 -23.563973 -12.488035 30.317266 -1.021648 1.995347 0.046702 -0.015365 764014.000000 0 0 1
13.836496 -23.554173 -13.776535 30.594781 -1.039669 2.037887 0.051854 -0.017163 171771.000000 0 0 1
14.667196 -22.883573 -14.862335 30.978599 -1.000810 2.071179 0.048998 -0.019447 12338.200000 0 0 1
15.733796 -23.708873 -15.320635 32.316944 -0.984903 2.064709 0.044310 -0.018907 102594.000000 0 0 1
16.290496 -23.184573 -16.487935 32.783482 -0.958298 2.097787 0.056301 -0.021610 -888278.000000 0 0 1
17.096196 -24.295973 -17.225335 34.340740 -0.957616 2.096244 0.055323 -0.019682 118778.000000 0 0 1
18.287396 -24.722973 -16.621435 34.956063 -0.933925 2.066323 0.061608 -0.021211 207279.000000 0 0 1
19.388196 -23.817073 -16.800935 35.006093 -0.887549 2.071386 0.050315 -0.022679 121198.000000 0 0 1
20.789896 -24.370173 -16.439935 36.005508 -0.864512 2.044961 0.047312 -0.021868 422443.000000 0 0 1
21.195396 -25.327433 -17.430135 37.343451 -0.873983 2.056411 0.053004 -0.020856 -90876.400000 0 0 1
22.292696 -26.132273 -17.033135 38.340419 -0.864522 2.031145 0.068920 -0.020379 273167.000000 0 0 1
22.964296 -26.891223 -18.197435 39.769881 -0.864002 2.046055 0.078110 -0.012501 63907.800000 0 0 1
23.934296 -26.148713 -18.935635 40.189103 -0.829584 2.061406 0.079781 -0.018138 28336.800000 0 0 1
24.578796 -26.833403 -19.967635 41.507291 -0.829224 2.072664 0.078507 -0.014119 -617722.000000 0 0 1
25.707196 -25.954493 -20.440835 41.860762 -0.790185 2.080943 0.064165 -0.018210 -888663.000000 0 0 1
25.292896 -24.840473 -21.122435 41.266657 -0.776374 2.108136 0.070038 -0.016805 -71413.700000 0 0 1
24.927296 -23.691973 -20.312635 39.940992 -0.759996 2.104315 0.075795 -0.013042 199881.000000 0 0 1
23.612396 -22.976573 -20.779935 38.952200 -0.771752 2.133497 0.115503 -0.020664 -7103.260000 0 0 1
23.666496 -22.268973 -22.014635 39.251170 -0.754984 2.166227 0.097204 -0.012203 -25854.800000 0 0 1
23.670896 -23.009173 -23.187635 40.341044 -0.771223 2.183144 0.061028 -0.015149 125061.000000 0 0 1
22.903796 -22.268473 -24.349835 40.166942 -0.771335 2.222090 0.047104 -0.013526 556582.000000 0 0 1
23.757596 -21.389473 -25.087885 40.636620 -0.732993 2.236193 0.046232 -0.002173 375512.000000 0 0 1
23.016096 -20.633473 -26.055615 40.427416 -0.730867 2.271170 0.036967 -0.003612 -67506.500000 0 0 1
23.816296 -19.988773 -27.208605 41.316767 -0.698243 2.289669 0.037165 0.000629 -422250.000000 0 0 1
23.068596 -19.093873 -27.992595 40.991725 -0.691404 2.322500 0.036463 0.002763 419376.000000 0 0 1
23.717296 -18.782473 -29.249235 42.080984 -0.669802 2.339314 0.048925 0.001376 39478.800000 0 0 1
22.820396 -17.797773 -29.994445 41.679707 -0.662368 2.374082 0.074045 -0.005075 -850518.000000 0 0 1
21.576696 -18.323973 -30.293495 41.461038 -0.704058 2.390069 0.073286 -0.004962 -973955.000000 0 0 1
20.762196 -17.374273 -30.881295 41.068096 -0.696794 2.421817 0.081641 -0.011559 -45334.400000 0 0 1
19.454396 -18.033373 -31.411785 41.114186 -0.747510 2.440307 0.066382 -0.007706 157248.000000 0 0 1
19.574096 -18.560573 -32.712755 42.400053 -0.758827 2.452033 0.064330 -0.006922 844064.000000 0 0 1
18.371096 -19.220773 -33.140325 42.487839 -0.807997 2.465455 0.068089 -0.011280 626264.000000 0 0 1
18.676996 -20.143273 34.113870 43.798833 -0.823151 0.677924 0.083161 -0.014154 450437.000000 0 0 1
19.521396 -21.276273 -34.101505 44.684196 -0.828386 2.438996 0.082098 -0.013638 348389.000000 0 0 1
19.837696 -21.979873 33.236078 44.511638 -0.836580 0.727735 0.076055 -0.017698 466280.000000 0 0 1
20.607196 -23.347873 33.523898 45.756218 -0.847669 0.748569 0.063691 -0.015574 347669.000000 0 0 1
19.820096 -24.183273 -34.157457 46.307654 -0.884231 2.400335 0.067930 -0.019735 54154.700000 0 0 1
19.959196 -23.951173 -32.758385 45.223224 -0.876061 2.380918 0.077543 -0.025383 93963.000000 0 0 1
18.956596 -24.884373 -32.007865 44.755871 -0.919794 2.367658 0.079364 -0.024560 -95971.300000 0 0 1
19.228996 -26.283813 -32.001175 45.658168 -0.939182 2.347435 0.075181 -0.032935 1069210.000000 0 0 1
20.448496 -26.624483 -31.275585 45.882092 -0.915853 2.320813 0.065448 -0.034126 1160680.000000 0 0 1
20.685496 -28.124913 -31.106685 46.760307 -0.936649 2.298607 0.060939 -0.040521 204245.000000 0 0 1
19.587996 -28.684163 -30.396585 46.156508 -0.971649 2.289693 0.064654 -0.036968 201347.000000 0 0 1
19.579896 -30.070133 -30.390215 47.022871 -0.993619 2.273503 0.065765 -0.029348 230625.000000 0 0 1
18.172696 -30.632993 -30.027205 46.586052 -1.035363 2.271236 0.085180 -0.024493 882973.000000 0 0 1
17.086996 -30.488013 -30.940675 46.677722 -1.059966 2.295425 0.088530 -0.029071 179205.000000 0 0 1
17.126096 -31.432683 -31.990995 48.007713 -1.071916 2.300129 0.089861 -0.030141 -702102.000000 0 0 1
15.746196 -31.925003 -32.421085 48.148471 -1.112584 2.309536 0.079458 -0.030312 -477370.000000 0 0 1
14.976196 -31.094453 -33.214445 47.899382 -1.121948 2.337023 0.073894 -0.024927 560206.000000 0 0 1
13.750296 -31.783533 -33.594105 48.247565 -1.162486 2.341006 0.047585 -0.015332 940901.000000 0 0 1
12.793196 -30.961373 33.998971 47.730520 -1.178964 0.778011 0.045766 -0.002641 -68140.000000 0 0 1
12.188696 -29.956743 -33.718095 46.721309 -1.184376 2.377031 0.066370 -0.011600 -399552.000000 0 0 1
11.440696 -29.158263 33.937742 46.182943 -1.196889 0.745344 0.053478 -0.008850 -333711.000000 0 0 1
10.637396 -28.017473 -33.879295 45.232064 -1.207938 2.417364 0.065365 -0.015199 421828.000000 0 0 1
9.635996 -28.512973 -32.988205 44.654941 -1.244895 2.401989 0.063470 -0.007951 72735.200000 0 0 1
8.812596 -27.431043 -32.522275 43.449078 -1.259948 2.416616 0.043053 -0.004180 570769.000000 0 0 1
7.691296 -27.983613 -31.547295 42.865726 -1.302570 2.397874 0.022657 -0.000195 1305980.000000 0 0 1
6.553896 -28.663323 -32.096915 43.528745 -1.346010 2.399969 0.024280 -0.002768 563271.000000 0 0 1
6.940496 -29.886953 -32.632595 44.791592 -1.342616 2.386989 0.023382 -0.001968 -1160500.000000 0 0 1
5.777796 -30.700743 -33.148585 45.549394 -1.384775 2.385832 0.025392 -0.004118 -323906.000000 0 0 1
5.101396 -31.297793 -32.064415 45.096594 -1.409222 2.361739 0.027024 -0.008723 -937556.000000 0 0 1
3.976496 -32.011303 -32.383405 45.707997 -1.447208 2.358145 0.046416 -0.018175 -1312110.000000 0 0 1
3.196296 -32.397603 -31.069225 45.001308 -1.472456 2.332848 0.033781 -0.025787 285134.000000 0 0 1
2.057496 -31.614803 -30.783675 44.174243 -1.505808 2.341819 0.043273 -0.025512 -83326.700000 0 0 1
0.858396 -31.924113 -31.410165 44.793798 -1.543914 2.347899 0.034985 0.002040 -752237.000000 0 0 1
-0.369104 -31.056953 -31.128105 43.973054 1.558912 2.357303 0.027067 0.004858 -142382.000000 0 0 1
-0.914604 -31.192163 -29.801305 43.149801 1.541483 2.333180 0.025525 -0.005518 222072.000000 0 0 1
-1.625904 -29.990673 -29.485815 42.089159 1.516636 2.346973 0.045846 -0.000986 459663.000000 0 0 1
-2.318504 -30.135513 -28.024685 41.217807 1.494012 2.318446 0.040860 -0.007576 -549339.000000 0 0 1
-1.447904 -30.016143 -26.970655 40.379221 1.522596 2.302226 0.029738 -0.002840 -225647.000000 0 0 1
-2.077004 -30.082503 -25.672845 39.602600 1.501862 2.276095 0.039899 -0.007494 -22712.100000 0 0 1
-1.002404 -30.091393 -24.585235 38.870690 1.537497 2.255557 0.025674 -0.006007 -368829.000000 0 0 1
-1.483704 -30.225533 -23.286735 38.184503 1.521748 2.226665 0.048704 -0.014280 -305650.000000 0 0 1
-0.524904 -30.817783 -22.454335 38.134085 1.553765 2.200402 0.048788 -0.007971 89663.800000 0 0 1
-0.982004 -30.846353 -20.930135 37.289843 1.538972 2.166731 0.018662 -0.008442 106360.000000 0 0 1
-1.135104 -29.597623 -20.180535 35.840783 1.532464 2.168881 0.023174 -0.013767 695556.000000 0 0 1
0.088696 -28.929143 -19.805435 35.059356 -1.567730 2.171122 0.036762 -0.025367 357902.000000 0 0 1
-0.137604 -27.564453 -19.114035 33.543470 1.565804 2.177094 0.038615 -0.023233 23116.700000 0 0 1
-0.892404 -27.581643 -17.906135 32.896399 1.538453 2.146373 0.038897 -0.022435 245543.000000 0 0 1
-0.735404 -26.319183 -17.225635 31.463673 1.542862 2.150143 0.048728 -0.017875 49264.100000 0 0 1
-1.710904 -26.254633 -16.024035 30.805887 1.505723 2.117836 0.038715 -0.009475 -216977.000000 0 0 1
-1.796504 -25.013573 -15.438335 29.449083 1.499098 2.122617 0.028112 0.003671 -178228.000000 0 0 1
-2.756104 -25.030073 -14.432335 29.024007 1.461126 2.091228 0.023304 0.003852 -449568.000000 0 0 1
-2.582904 -23.874973 -13.393335 27.496675 1.463031 2.079550 0.020729 0.010278 -191569.000000 0 0 1
-1.421504 -23.918373 -12.594535 27.069015 1.511435 2.054742 0.022086 0.002972 -272207.000000 0 0 1
-1.326604 -22.853573 -11.644335 25.683384 1.512813 2.041350 0.026927 0.003817 -240059.000000 0 0 1
0.072896 -22.775873 -11.041035 25.311068 -1.567596 2.022183 0.029257 0.003383 -245497.000000 0 0 1
0.157696 -21.662473 -10.157135 23.926032 -1.563517 2.009231 0.020665 0.003452 -498373.000000 0 1 0
1.430996 -21.423173 -9.629035 23.531222 -1.504099 1.992376 0.017490 -0.000689 -103549.000000 0 1 0
1.791596 -19.957873 -9.238835 22.065416 -1.481267 2.002812 0.020279 -0.000127 -1313890.000000 0 1 0
2.089796 -19.150173 -10.394835 21.889472 -1.462100 2.065622 0.014861 0.004739 257797.000000 0 1 0
3.117396 -18.186273 -10.194535 21.080494 -1.401031 2.075560 0.010118 0.001531 -197114.000000 0 1 0
4.526496 -18.685073 -9.902135 21.625758 -1.333123 2.046412 0.023996 -0.004553 -1155680.000000 0 1 0
4.588596 -19.299873 -8.636435 21.636274 -1.337377 1.981402 0.026656 0.001155 414597.000000 0 1 0
5.853996 -19.950673 -8.381935 22.417749 -1.285384 1.954004 0.037521 -0.001189 580537.000000 0 1 0
5.677796 -21.079973 -7.344735 23.033623 -1.307695 1.895334 0.037110 -0.004165 58210.800000 0 1 0
4.739396 -22.046473 -7.786235 23.856536 -1.359046 1.903265 0.041654 -0.012136 111539.000000 0 1 0
4.527696 -23.149373 -6.935835 24.586568 -1.377648 1.856777 0.043812 -0.016474 314464.000000 0 1 0
3.268596 -23.982473 -7.302635 25.281836 -1.435340 1.863821 0.035749 -0.021189 199477.000000 0 0 1
3.531196 -24.679773 -8.453135 26.325198 -1.428680 1.897692 0.040950 -0.018397 -503681.000000 0 0 1
2.527996 -25.538323 -8.873935 27.154069 -1.472129 1.903711 0.027236 -0.012079 -387195.000000 0 0 1
2.922796 -26.341013 -10.105035 28.363770 -1.460288 1.935064 0.040059 -0.013867 -330675.000000 0 0 1
3.794196 -27.366723 -9.799435 29.314883 -1.433032 1.911640 0.038690 -0.018792 -468203.000000 0 0 1
4.410496 -27.914973 -10.941635 30.305405 -1.414094 1.940185 0.055163 -0.014219 128294.000000 0 0 1
4.535996 -29.451293 -10.904335 31.731033 -1.417980 1.921596 0.065653 -0.017819 -65990.400000 0 0 1
3.328896 -30.170493 -10.967235 32.274145 -1.460905 1.917516 0.068186 -0.012821 -100338.000000 0 0 1
3.611296 -31.550123 -11.130635 33.650301 -1.456830 1.907920 0.074481 -0.013627 187593.000000 0 0 1
2.418096 -32.426233 -11.595935 34.522073 -1.496362 1.913356 0.061991 -0.018303 122345.000000 0 0 1
2.241996 -32.339823 -13.051235 34.946036 -1.501581 1.953541 0.066975 -0.022395 826098.000000 0 0 1
1.069096 -33.070183 -13.429535 35.708996 -1.538479 1.956361 0.052117 -0.015251 342971.000000 0 0 1
0.696796 -32.944583 -14.938935 36.180145 -1.549649 1.996437 0.053443 -0.008809 -72403.000000 0 0 1
-0.081704 -31.828263 -15.306435 35.317587 1.568229 2.019052 0.044827 -0.014803 107538.000000 0 0 1
-0.472104 -31.784063 -16.693835 35.904508 1.555944 2.054376 0.031040 -0.017328 -475584.000000 0 0 1
-1.697404 -30.930493 -16.998135 35.334306 1.515973 2.072667 0.030743 -0.008533 -587443.000000 0 0 1
-2.849104 -31.394923 -16.349335 35.511398 1.480294 2.049239 0.034475 -0.013715 -196849.000000 0 0 1
-3.985504 -30.992003 -17.108435 35.624248 1.442900 2.071733 0.042512 -0.010357 815928.000000 0 0 1
-5.404504 -31.171863 -16.501735 35.681942 1.399125 2.051572 0.040191 -0.009421 395597.000000 0 0 1
-5.603304 -30.084513 -15.561235 34.331137 1.386654 2.041225 0.026991 -0.002622 -288205.000000 0 0 1
-6.941804 -29.889933 -15.184935 34.237100 1.342596 2.030322 0.043386 -0.008511 -16597.300000 0 0 1
-7.554704 -30.752093 -14.047635 34.642472 1.329902 1.988326 0.028781 -0.009150 126919.000000 0 0 1
-7.787004 -32.159833 -14.310435 36.051087 1.333234 1.978986 0.029826 -0.004096 -197568.000000 0 0 1
-8.474004 -32.759983 -13.234335 36.334183 1.317675 1.943612 0.036484 -0.006125 106122.000000 0 0 1
-8.924104 -34.174576 -13.452035 37.795483 1.315367 1.934691 0.060984 -0.018826 205244.000000 0 0 1
-7.823504 33.539550 -13.577435 37.019662 -1.341632 1.946323 0.045907 -0.016565 243553.000000 0 0 1
-8.225304 32.355203 -14.243035 36.295713 -1.321851 1.974054 0.067386 -0.022868 -102453.000000 0 0 1
-7.367504 -21.852673 -3.344335 23.302447 1.245620 1.714812 0.029369 -0.004536 163730.000000 0 1 0
-6.991404 -20.695073 -4.037235 22.214073 1.245005 1.753554 0.017988 -0.014066 105224.000000 0 1 0
-6.026504 -21.005773 -5.038235 22.426437 1.291403 1.797386 0.012036 -0.002093 356101.000000 0 1 0
-6.026904 -19.934273 -6.168635 21.719827 1.277195 1.858769 0.015089 -0.001986 666115.000000 0 1 0
-7.073404 -20.168773 -7.137635 22.533493 1.233489 1.893104 0.025666 -0.007952 227923.000000 0 1 0
-7.265204 -19.140873 -8.062535 22.003652 1.208030 1.945953 0.015391 -0.008662 65008.100000 0 1 0
-8.025504 -19.434673 -9.380935 23.024274 1.179178 1.990442 0.023438 -0.004122 568589.000000 0 1 0
-7.244704 -20.194773 -10.308635 23.802995 1.226355 2.018705 0.025320 0.000747 143660.000000 0 1 0
-8.120304 -20.800673 -11.277335 25.015708 1.198605 2.038469 0.031886 0.011795 1363.910000 0 0 1
-7.529504 -21.563273 -12.427535 26.002150 1.234851 2.069107 0.032109 0.010346 -17745.900000 0 0 1
-6.744204 -20.704673 -13.309135 25.520597 1.255901 2.119411 0.039391 0.010401 176744.000000 0 0 1
-6.396304 -21.359573 -14.491135 26.592049 1.279836 2.147117 0.027797 0.011525 -33599.500000 0 0 1
-5.416904 -20.513373 -15.353135 26.188931 1.312623 2.197213 0.031937 0.010281 -590347.000000 0 0 1
-4.086004 -20.658873 -14.896635 25.795236 1.375532 2.186454 0.026154 0.010070 -171946.000000 0 0 1
-3.136704 -19.946773 -15.646035 25.544297 1.414820 2.230023 0.032405 0.018600 -43828.500000 0 0 1
-3.308604 -18.357073 -15.774735 24.428902 1.392475 2.272789 0.038843 0.020121 -1441920.000000 0 1 0
-4.435404 -17.879373 -16.445935 24.694404 1.327631 2.299601 0.046043 0.024059 -851177.000000 0 1 0
-4.397704 -17.867773 -17.870135 25.650319 1.329468 2.341559 0.050252 0.013744 -1114670.000000 0 0 1
-5.710804 -17.797173 -18.600535 26.369159 1.260293 2.353769 0.038257 0.027897 -501951.000000 0 0 1
-6.545504 -18.902173 -18.256735 27.082174 1.237437 2.310574 0.039080 0.030797 -373957.000000 0 0 1
-7.795804 -18.890473 -18.882035 27.823655 1.179403 2.316695 0.033931 0.027009 -198146.000000 0 0 1
-8.776804 -19.867873 -18.211835 28.344940 1.154817 2.268562 0.047690 0.016486 -105500.000000 0 0 1
-8.395404 -21.165673 -18.593235 29.396886 1.193180 2.255560 0.043922 0.022515 534632.000000 0 0 1
-9.133004 -22.162073 -17.871335 29.899061 1.179902 2.211453 0.053086 0.016930 119640.000000 0 0 1
-8.677504 -23.515673 -18.312735 31.042587 1.217288 2.201760 0.058273 -0.004000 -895146.000000 0 0 1
-8.828704 -23.687273 -19.740035 32.073383 1.214027 2.233772 0.044635 -0.010086 325412.000000 0 0 1
-8.017004 -24.707873 -20.350035 32.998110 1.257042 2.235344 0.054392 -0.028377 -974925.000000 0 0 1
-6.525204 -24.498873 -20.272835 32.461684 1.310492 2.245308 0.052619 -0.019739 -1694990.000000 0 0 1
-6.028604 -23.376973 -20.965435 31.974621 1.318409 2.285892 0.058938 -0.019738 -276792.000000 0 0 1
-5.841604 -22.181273 -20.292335 30.625350 1.313286 2.295080 0.050415 -0.011738 -544657.000000 0 0 1
-4.762104 -22.066973 -19.202235 29.637051 1.358253 2.275638 0.061427 0.002412 -202632.000000 0 0 1
-3.435104 -22.329173 -19.578535 29.894999 1.418154 2.284860 0.052085 -0.010624 -607153.000000 0 0 1
-2.585004 -22.147473 -18.506535 28.977313 1.454604 2.263547 0.025831 -0.003383 -120003.000000 0 0 1
-1.214304 -22.859373 -18.681635 29.547064 1.517726 2.255272 0.049254 -0.005977 981171.000000 0 0 1
-0.305304 -22.092473 -19.522935 29.484158 1.556978 2.294481 0.055688 -0.013370 973302.000000 0 0 1
1.061296 -22.519173 -19.428635 29.760903 -1.523703 2.282103 0.043116 -0.016598 1656990.000000 0 0 1
1.993796 -21.967973 -20.610035 30.188419 -1.480285 2.322266 0.047595 -0.016876 663071.000000 0 0 1
1.532196 -22.335873 -21.860835 31.291132 -1.502306 2.344273 0.045526 -0.027903 -113043.000000 0 0 1
1.114596 -21.239073 -22.652535 31.072140 -1.518366 2.387701 0.052252 -0.020569 -278914.000000 0 0 1
0.511896 -21.545573 -24.052735 32.295632 -1.547042 2.410983 0.056653 -0.023870 156544.000000 0 0 1
-0.043004 -20.470973 -24.832635 32.182641 1.568696 2.452174 0.051589 -0.019458 616681.000000 0 0 1
-1.357804 -20.089273 -24.409135 31.642193 1.503310 2.451852 0.046538 -0.017834 407983.000000 0 0 1
-1.923904 -18.929473 -25.232365 31.602193 1.469509 2.495491 0.037609 -0.010033 4366.490000 0 0 1
-1.049204 -17.830473 -25.081435 30.791313 1.512021 2.522770 0.033671 -0.007864 152243.000000 0 0 1
-1.435404 -16.615573 -25.736285 30.667475 1.484621 2.566615 0.032205 -0.003623 -192474.000000 0 0 1
-0.909704 -15.343873 -25.013535 29.358797 1.511578 2.590580 0.036670 -0.000172 77451.400000 0 0 1
0.497996 -15.225473 -25.151275 29.404926 -1.538100 2.597007 0.036607 -0.015934 141121.000000 0 0 1
1.017696 -13.922273 -24.799335 28.458257 -1.497828 2.628903 0.038114 -0.012583 269780.000000 0 0 1
0.582096 -12.725873 -25.688905 28.674144 -1.525087 2.681229 0.035367 -0.009651 -266453.000000 0 0 1
1.265196 -11.539273 -25.356425 27.887342 -1.461590 2.712263 0.022583 -0.006918 217229.000000 0 0 1
0.750796 -10.416773 -26.103205 28.114946 -1.498845 2.761003 0.022353 -0.007315 -346327.000000 0 0 1
1.559196 -9.102173 -25.947485 27.541834 -1.401144 2.799670 0.032823 -0.013990 675480.000000 0 0 1
2.923896 -9.058673 -26.368385 28.033916 -1.258580 2.795156 0.042998 -0.011792 328920.000000 0 0 1
3.250696 -9.374973 -27.717915 29.440448 -1.237027 2.797823 0.035973 -0.011786 -246519.000000 0 0 1
4.672196 -8.988073 -28.203925 29.967921 -1.091417 2.796775 0.024045 -0.004168 -619674.000000 0 0 1
4.762196 -7.618873 -28.517935 29.899805 -1.012159 2.836381 0.021446 -0.004507 328089.000000 0 0 1
6.034196 -7.205373 -29.004145 30.488840 -0.873629 2.828234 0.019710 -0.005294 -143639.000000 0 0 1
7.200196 -7.139073 -27.995015 29.774655 -0.781136 2.794101 0.023264 -0.008816 -362696.000000 0 0 1
7.698296 -8.440873 -27.537895 29.813550 -0.831377 2.748348 0.016523 -0.005635 693060.000000 0 0 1
8.534396 -9.147673 -28.476275 31.103281 -0.820068 2.727643 0.025382 -0.013782 -290211.000000 0 0 1
8.888396 -10.582573 -28.037355 31.258402 -0.872190 2.683628 0.040404 -0.011204 -163820.000000 0 0 1
7.794296 -11.467973 -28.041465 31.282411 -0.973854 2.682370 0.027804 -0.012644 -89078.000000 0 0 1
7.880496 -12.562573 -27.085355 30.879393 -1.010545 2.640657 0.040515 -0.014520 -366985.000000 0 0 1
8.923996 -13.664973 -27.348695 31.848396 -0.992276 2.603553 0.040094 -0.018997 -333213.000000 0 0 1
8.685296 -14.397173 -28.537615 33.122627 -1.027980 2.609160 0.046961 -0.027331 279132.000000 0 0 1
9.529196 -15.512873 -28.827555 34.095201 -1.019945 2.578301 0.042702 -0.028462 305187.000000 0 0 1
8.784096 -16.319373 -29.937465 35.209858 -1.077010 2.587272 0.049147 -0.033720 200718.000000 0 0 1
8.581296 -15.644173 -31.183475 35.927537 -1.069083 2.621865 0.045053 -0.033362 682283.000000 0 0 1
7.772696 -16.372573 -32.135125 36.893661 -1.127561 2.628072 0.055951 -0.038578 -521467.000000 0 0 1
6.660996 -15.581373 -32.782995 36.903561 -1.166812 2.664519 0.068760 -0.038920 -517498.000000 0 0 1
7.010196 -14.511573 -33.651005 37.311108 -1.120779 2.694952 0.062690 -0.033193 493498.000000 0 0 1
5.821996 -14.021473 34.196224 37.414958 -1.177238 0.417829 0.052074 -0.037990 584031.000000 0 0 1
5.959096 -12.820673 33.296114 36.173356 -1.135700 0.401541 0.075756 -0.030015 -699840.000000 0 0 1
6.649196 -13.018273 32.120365 35.290298 -1.098579 0.427089 0.070303 -0.030961 -183857.000000 0 0 1
6.732596 -11.742273 31.527895 34.310596 -1.050192 0.405522 0.065717 -0.027595 25461.200000 0 0 1
7.420396 -11.677973 30.150455 33.173593 -1.004740 0.430232 0.047705 -0.024690 348478.000000 0 0 1
6.612296 -12.354973 29.186115 32.375873 -1.079392 0.447626 0.045989 -0.024628 713825.000000 0 0 1
7.249796 -12.243173 27.922725 31.339008 -1.036169 0.471277 0.033763 -0.024185 -32516.000000 0 0 1
6.500296 -13.014973 26.780535 30.476884 -1.107591 0.497630 0.029979 -0.041255 -42940.200000 0 0 1
6.603896 -14.438073 26.780755 31.133234 -1.141810 0.535138 0.042940 -0.035824 -255466.000000 0 0 1
6.002496 -14.969973 25.670645 30.316861 -1.189455 0.560960 0.033263 -0.033831 -171230.000000 0 0 1
4.498896 -15.327873 25.707305 30.266306 -1.285304 0.556005 0.024820 -0.040212 -28877.500000 0 0 1
3.727096 -14.114473 25.652065 29.515048 -1.312627 0.517380 0.005800 -0.041985 84921.400000 0 0 1
2.388396 -14.524373 25.393675 29.351330 -1.407814 0.525322 0.007803 -0.035586 107021.000000 0 0 1
1.419696 -13.374273 25.129585 28.502329 -1.465041 0.491411 0.021543 -0.031563 -619564.000000 0 0 1
1.610096 -12.835173 23.837155 27.120915 -1.446004 0.497200 0.001262 -0.009189 -244174.000000 0 0 1
0.788396 -11.728273 23.579625 26.347157 -1.503675 0.462457 0.009801 0.003204 899124.000000 0 0 1
-0.677804 -12.107073 23.137345 26.122354 1.514871 0.482733 0.031377 0.000841 469096.000000 0 0 1
-0.756404 -12.631373 21.821145 25.224712 1.510985 0.525506 0.032102 -0.008892 -332084.000000 0 0 1
-1.949504 -13.355773 21.634545 25.499623 1.425853 0.557792 0.041542 -0.011313 65390.600000 0 0 1
-2.335504 -13.760973 20.178545 24.535538 1.402679 0.605142 0.055766 -0.015793 -141237.000000 0 1 0
-1.488404 -14.717273 19.623945 24.574635 1.470006 0.645923 0.057421 -0.028386 -615044.000000 0 1 0
-1.886304 -15.098473 18.359245 23.844998 1.446507 0.692047 0.052304 -0.031438 125703.000000 0 1 0
-2.879804 -16.291973 18.323845 24.687749 1.395841 0.734413 0.027293 -0.032182 -128161.000000 0 1 0
-2.368804 -17.548673 17.891445 25.172822 1.436623 0.780240 0.010611 -0.014949 -170680.000000 0 0 1
-3.386304 -18.554673 17.913145 26.011992 1.390279 0.811171 0.015947 -0.004813 424191.000000 0 0 1
-3.064204 -19.918873 17.228645 26.513715 1.418159 0.863473 0.013151 -0.003089 595673.000000 0 0 1
-2.034904 -20.672673 17.888345 27.413375 1.472678 0.859864 0.020663 -0.003622 85722.300000 0 0 1
-2.157404 -22.100073 17.651145 28.366010 1.473485 0.899165 0.012312 -0.012488 -111337.000000 0 0 1
-1.004004 -22.933873 18.293145 29.353189 1.527046 0.897958 0.031183 -0.005753 550745.000000 0 0 1
0.194396 -22.819973 17.574445 28.803647 -1.562278 0.914551 0.046576 -0.015394 -530727.000000 0 0 1
1.256496 -23.675773 17.939345 29.731147 -1.517775 0.923057 0.068537 -0.013664 763432.000000 0 0 1
2.493696 -23.422173 16.997045 29.046794 -1.464729 0.945718 0.084363 -0.025838 808793.000000 0 0 1
3.184996 -22.180073 17.379245 28.357327 -1.428174 0.911114 0.083827 -0.020127 -333842.000000 0 0 1
4.228196 -21.864973 16.535745 27.737800 -1.379776 0.932106 0.080240 -0.020995 -381201.000000 0 0 1
4.882796 -20.493673 16.817745 26.956797 -1.336898 0.897102 0.072611 -0.015417 -347761.000000 0 0 1
5.792096 -20.607673 17.894945 27.900782 -1.296800 0.874503 0.073840 -0.012366 283577.000000 0 0 1
6.433096 -19.374673 18.375045 27.466434 -1.250213 0.837934 0.069687 -0.011500 831719.000000 0 0 1
7.502596 -18.783073 17.422645 26.695343 -1.190778 0.859723 0.081406 -0.018308 -424980.000000 0 0 1
6.920696 -17.918173 16.459945 25.295983 -1.202209 0.862298 0.065067 -0.024088 197841.000000 0 0 1
7.908796 -17.370573 15.641145 24.676533 -1.143545 0.884280 0.069508 -0.019131 -135036.000000 0 1 0
7.189396 -16.588673 14.550245 23.207351 -1.161839 0.893142 0.045006 -0.016058 199420.000000 0 1 0
6.419196 -17.363873 13.639145 22.994270 -1.216692 0.935825 0.049445 -0.016632 308677.000000 0 1 0
5.724496 -16.532073 12.703545 21.620809 -1.237452 0.942755 0.035653 -0.015447 124446.000000 0 1 0
6.297396 -16.639273 11.256645 21.053139 -1.208991 1.006670 0.047903 -0.016287 -391199.000000 0 1 0
7.557396 -16.072073 11.150045 20.970200 -1.131256 1.010179 0.045587 -0.018232 -713104.000000 0 1 0
8.171796 -16.361073 9.924545 20.807681 -1.107576 1.073597 0.056526 -0.022625 -826182.000000 0 1 0
9.471796 -15.638073 9.715045 20.703776 -1.026205 1.082366 0.045954 -0.024597 -1375910.000000 0 1 0
10.173996 -16.313273 8.759145 21.127132 -1.013159 1.143302 0.050646 -0.021986 -1776740.000000 0 1 0
11.475196 -15.862273 8.823045 21.474123 -0.944520 1.147390 0.043716 -0.019017 -913089.000000 0 1 0
12.441696 -16.643973 7.897245 22.230253 -0.928885 1.207617 0.050852 -0.031470 29430.100000 0 1 0
12.755896 -17.932573 8.449645 23.573005 -0.952510 1.204194 0.058309 -0.031805 234.885000 0 1 0
13.690096 -18.665673 7.673645 24.386696 -0.937980 1.250692 0.058304 -0.025531 14882.800000 0 1 0
14.137096 -19.892373 8.506345 25.844185 -0.952939 1.235404 0.052020 -0.026271 306052.000000 0 0 1
13.167096 -20.883973 8.890845 26.240425 -1.008260 1.225131 0.057520 -0.028083 576783.000000 0 0 1
13.856596 -22.085473 9.235545 27.659875 -1.010467 1.230362 0.047413 -0.019338 94253.100000 0 0 1
12.864596 -22.932773 9.993445 28.129680 -1.059570 1.207601 0.061016 -0.019365 10008.100000 0 0 1
12.649596 -22.434773 11.287445 28.120060 -1.057390 1.157749 0.065604 -0.025201 -407160.000000 0 0 1
11.593396 -23.073173 11.986745 28.468583 -1.105181 1.136192 0.075747 -0.026233 -85295.400000 0 0 1
11.878796 -24.543273 12.501845 29.996236 -1.120035 1.140896 0.055999 -0.023199 -275000.000000 0 0 1
12.769096 -24.725373 13.557145 30.954646 -1.094086 1.117459 0.034638 -0.020672 -429598.000000 0 0 1
12.852896 -26.064213 14.061345 32.284076 -1.112664 1.120147 0.031128 -0.021692 -664047.000000 0 0 1
14.077596 -26.331693 14.887445 33.364244 -1.079833 1.108271 0.033702 -0.013469 -763083.000000 0 0 1
13.972796 -25.773573 16.193545 33.492492 -1.074010 1.066150 0.036565 -0.010220 197135.000000 0 0 1
14.983996 -26.254403 17.059245 34.710685 -1.052182 1.057020 0.044982 -0.010253 -545503.000000 0 0 1
14.850396 -25.711483 18.540645 35.005288 -1.047027 1.012605 0.053173 -0.010109 -136549.000000 0 0 1
15.276696 -24.404073 18.829445 34.401806 -1.011486 0.991615 0.026192 -0.009595 1165750.000000 0 0 1
16.718996 -24.357473 18.982245 35.116050 -0.969256 0.999697 0.033502 -0.010657 772805.000000 0 0 1
17.203696 -22.926173 19.344145 34.579944 -0.927042 0.977130 0.032884 -0.013294 -285288.000000 0 0 1
17.117296 -21.866673 18.338845 33.278619 -0.906630 0.987150 0.027416 -0.016796 -406597.000000 0 0 1
15.850796 -21.321373 18.156045 32.179041 -0.931518 0.971309 0.038339 -0.014207 -1022790.000000 0 0 1
15.790496 -20.258773 17.024545 30.815464 -0.908718 0.985475 0.022804 -0.011453 161438.000000 0 0 1
16.478096 -19.041573 17.326545 30.566621 -0.857444 0.968125 0.031243 -0.007288 845772.000000 0 0 1
17.903396 -19.097873 17.216645 31.331665 -0.817669 0.989035 0.030947 -0.008959 494944.000000 0 0 1
18.703996 -17.823673 17.624345 31.275235 -0.761303 0.972151 0.037555 -0.012944 -11670.400000 0 0 1
18.806196 -17.542473 19.003845 31.977453 -0.750645 0.934415 0.038649 -0.010352 408045.000000 0 0 1
19.521296 -16.319773 19.250545 31.906104 -0.696309 0.923101 0.046306 -0.015892 -11269.500000 0 0 1
20.006096 -16.215373 20.698845 33.039740 -0.681124 0.893763 0.035898 -0.013025 60108.600000 0 0 1
21.138196 -17.051173 20.876145 34.254624 -0.678784 0.915442 0.029231 -0.007722 59864.000000 0 0 1
21.703996 -16.951673 22.182145 35.361989 -0.663072 0.892731 0.030381 -0.001282 117045.000000 0 0 1
33.480504 -1.444873 -8.000635 34.453476 -0.043129 1.805151 0.131417 -0.038907 279534.000000 0 0 1
34.744204 -0.917673 -8.410035 35.759342 -0.026406 1.808204 0.133159 -0.043354 23132.000000 0 0 1
35.682574 -1.937873 -8.223535 36.669169 -0.054255 1.796983 0.153757 -0.050622 -525935.000000 0 0 1
-35.177338 -1.485873 -8.768235 36.284085 0.042214 1.814867 0.123726 -0.040565 -333119.000000 0 0 1
-34.271504 -2.519573 -8.596435 35.422915 0.073386 1.815924 0.123055 -0.026591 849182.000000 0 0 1
-32.948674 -2.307473 -9.155935 34.274928 0.069918 1.841212 0.156488 -0.031317 1478200.000000 0 0 1
-31.792024 -3.265473 -8.745835 33.134359 0.102355 1.837912 0.140889 -0.027253 73899.200000 0 0 1
-31.386074 -3.127473 -7.420035 32.402525 0.099317 1.801842 0.133336 -0.029440 705835.000000 0 0 1
-30.390484 -4.138873 -7.145335 31.492342 0.135357 1.799681 0.124451 -0.034209 453751.000000 0 0 1
-29.960524 -4.181973 -5.665835 30.776997 0.138687 1.755946 0.111362 -0.043050 -555073.000000 0 0 1
-29.293864 -3.101173 -5.195835 29.912279 0.105471 1.745384 0.113902 -0.039185 101329.000000 0 0 1
-29.493634 -3.003173 -3.797335 29.888346 0.101475 1.698191 0.109592 -0.041755 -243044.000000 0 0 1
-29.212974 -1.567473 -3.419035 29.454110 0.053605 1.687139 0.126838 -0.044044 -239134.000000 0 0 1
-27.907354 -1.039073 -3.515135 28.147047 0.037216 1.696008 0.104875 -0.035694 350976.000000 0 0 1
-27.868874 0.216327 -2.885935 28.018735 -0.007762 1.673980 0.108320 -0.039593 375947.000000 0 0 1
-26.399664 0.657827 -2.583535 26.533934 -0.024913 1.668318 0.105257 -0.021844 393355.000000 0 0 1
-25.903384 0.072227 -1.389835 25.940743 -0.002788 1.624399 0.078434 -0.025404 -57232.200000 0 0 1
-24.525904 0.323527 -1.286935 24.561776 -0.013190 1.623216 0.078911 -0.023625 -345454.000000 0 1 0
-23.931804 -0.439373 -0.087135 23.935995 0.018357 1.574437 0.066617 -0.028082 -182592.000000 0 1 0
-23.978704 -1.838873 -0.207135 24.050002 0.076538 1.579409 0.072675 -0.029613 379879.000000 0 1 0
-23.366104 -2.436973 0.949565 23.512025 0.103920 1.530399 0.066010 -0.022636 -195161.000000 0 1 0
-23.242704 -3.955973 0.963765 23.596649 0.168587 1.529942 0.058525 -0.012466 402295.000000 0 1 0
-24.494304 -4.556373 1.333265 24.950131 0.183916 1.517334 0.062128 -0.016743 786306.000000 0 1 0
-24.379704 -5.988173 1.274365 25.136670 0.240853 1.520077 0.046491 -0.007154 -536960.000000 0 0 1
-25.627564 -6.758573 1.684065 26.557229 0.257852 1.507341 0.051253 -0.004482 -464574.000000 0 0 1
-25.901174 -6.772273 3.050465 26.945126 0.255741 1.457343 0.058286 -0.002629 731598.000000 0 0 1
-27.049194 -7.611973 3.290765 28.291874 0.274318 1.454218 0.063911 -0.001277 529758.000000 0 0 1
-27.455914 -7.728473 4.753165 28.916242 0.274387 1.405670 0.065680 -0.014443 250464.000000 0 0 1
-26.574414 -8.673473 5.421465 28.474917 0.315484 1.379232 0.071135 0.001225 629013.000000 0 0 1
-26.859104 -8.843273 6.777965 29.078441 0.318068 1.335540 0.044771 -0.003462 -35105.700000 0 0 1
-26.125454 -7.798573 7.658065 28.319658 0.290084 1.296972 0.053035 0.000775 432148.000000 0 0 1
-24.708804 -7.805273 7.711965 27.035563 0.305971 1.281526 0.074196 -0.016677 378408.000000 0 0 1
-24.149304 -6.635573 8.226565 26.360881 0.268155 1.253420 0.070903 -0.017763 -569872.000000 0 0 1
-22.781504 -6.152973 7.791965 24.850970 0.263792 1.251869 0.089427 -0.022618 -467999.000000 0 1 0
-21.690504 -6.821073 8.384365 24.234326 0.304681 1.217523 0.095810 -0.031285 261234.000000 0 1 0
-20.470504 -6.308373 7.850765 22.813847 0.298934 1.219492 0.091939 -0.028688 687481.000000 0 1 0
-19.218504 -6.701073 8.691365 22.131315 0.335497 1.167211 0.102313 -0.029957 177501.000000 0 1 0
-19.195504 -6.021473 9.930165 22.435099 0.303970 1.112281 0.092802 -0.016447 -3074.590000 0 1 0
-18.036104 -6.211273 10.698065 21.870746 0.331659 1.059682 0.081268 -0.022953 -351755.000000 0 1 0
-17.836404 -4.967773 11.617765 21.858374 0.271635 1.010424 0.074840 -0.014515 1123100.000000 0 1 0
-18.927204 -4.749373 12.577765 23.216282 0.245852 0.998261 0.088030 -0.016335 1093950.000000 0 1 0
-18.707804 -3.564973 13.305965 23.232298 0.188303 0.960957 0.070007 -0.004942 -160632.000000 0 1 0
-19.821504 -3.208673 14.281265 24.640254 0.160486 0.952570 0.067308 -0.010794 -140768.000000 0 1 0
-19.797404 -4.161673 15.331865 25.383514 0.207196 0.922275 0.083556 -0.011207 549388.000000 0 0 1
-20.938704 -3.928373 16.156465 26.737479 0.185457 0.921956 0.084634 -0.004678 302535.000000 0 0 1
-21.067304 -5.067873 17.192265 27.660235 0.236071 0.900074 0.077310 0.005075 55103.600000 0 0 1
-21.736004 -4.476173 18.327765 28.781886 0.203094 0.880480 0.071809 0.002901 548234.000000 0 0 1
-21.734004 -5.264773 19.478665 29.656418 0.237659 0.854214 0.072733 0.014899 -456481.000000 0 0 1
-22.540104 -4.691973 20.610965 30.901177 0.205230 0.840627 0.064305 0.007883 -443287.000000 0 0 1
-22.030504 -3.457073 21.106965 30.705023 0.155653 0.812878 0.063623 -0.011160 176931.000000 0 0 1
-22.789604 -2.993773 22.206165 31.960014 0.130618 0.802639 0.070654 -0.003446 92047.500000 0 0 1
-22.832904 -1.504673 22.494965 32.087832 0.065804 0.793937 0.071182 -0.008890 -276372.000000 0 0 1
-23.926404 -0.981273 21.795865 32.380479 0.040989 0.832380 0.083500 -0.019392 -285418.000000 0 0 1
-23.991904 0.420627 21.905765 32.490782 -0.017530 0.830895 0.079928 -0.019861 338904.000000 0 0 1
-25.383524 1.034627 21.508365 33.286686 -0.040737 0.868260 0.085973 -0.024482 352892.000000 0 0 1
-26.345624 0.644727 22.458465 34.624994 -0.024467 0.865026 0.085363 -0.021139 -345348.000000 0 0 1
-27.551004 1.316327 22.128265 35.361711 -0.047742 0.894679 0.079197 -0.015547 729351.000000 0 0 1
-28.636424 1.365427 23.258765 36.917195 -0.047645 0.889211 0.065866 -0.010071 361154.000000 0 0 1
-28.044884 2.098527 24.269765 37.147555 -0.074688 0.858816 0.062508 -0.007116 597121.000000 0 0 1
-28.932604 2.210227 25.400965 38.564098 -0.076244 0.851748 0.059509 -0.006723 264734.000000 0 0 1
-28.294474 3.022227 26.499965 38.883920 -0.106410 0.820966 0.068785 -0.005566 -20522.100000 0 0 1
-27.267564 2.352627 27.207565 38.591534 -0.086066 0.788354 0.059427 -0.004802 332132.000000 0 0 1
-26.860424 3.176527 28.333465 39.170881 -0.117714 0.762184 0.048748 -0.004197 -197913.000000 0 0 1
-25.647684 2.729127 29.150765 38.923244 -0.106009 0.724351 0.051286 0.001639 -303962.000000 0 0 1
-25.951834 1.725127 30.063465 39.752807 -0.066377 0.713218 0.051464 0.000744 132003.000000 0 0 1
-24.847704 1.425027 30.887265 39.666891 -0.057288 0.678259 0.038738 -0.005547 46336.800000 0 0 1
-25.138724 0.326027 31.908265 40.622643 -0.012968 0.667325 0.038170 -0.016469 -98229.800000 0 0 1
-25.282584 -0.938773 31.284165 40.234181 0.037114 0.680033 0.041729 -0.019592 -228494.000000 0 0 1
-25.625434 -1.961373 32.181465 41.184421 0.076391 0.673892 0.050952 -0.021220 -713217.000000 0 0 1
-26.321554 -3.164673 31.493765 41.166693 0.119657 0.699708 0.043848 -0.023245 985258.000000 0 0 1
-27.656314 -2.886973 31.017665 41.656954 0.104011 0.730865 0.048146 -0.017375 941929.000000 0 0 1
-27.618914 -2.078873 29.871065 40.735815 0.075128 0.747652 0.046623 -0.018173 -574283.000000 0 0 1
-28.980834 -1.797673 29.144965 41.140604 0.061950 0.783535 0.050172 -0.014889 725336.000000 0 0 1
-29.865634 -1.114773 30.022565 42.362167 0.037309 0.783126 0.058807 -0.006312 -533493.000000 0 0 1
-31.126804 -0.903373 29.428865 42.845678 0.029014 0.813640 0.039898 -0.007524 -333558.000000 0 0 1
-32.120044 -0.465073 30.487565 44.287754 0.014478 0.811519 0.032873 -0.010842 -516544.000000 0 0 1
-32.465904 -1.565473 31.347265 45.156801 0.048182 0.803506 0.036791 -0.006516 -130864.000000 0 0 1
-33.117824 -1.245073 32.537365 46.443736 0.037578 0.794592 0.055354 -0.001980 -191897.000000 0 0 1
-33.441804 -2.437273 33.503365 47.400106 0.072752 0.785803 0.056255 -0.000422 -332443.000000 0 0 1
-34.455863 -3.211673 32.955865 47.787136 0.092943 0.809806 0.054267 -0.013756 -595392.000000 0 0 1
-34.410728 -4.478373 33.628165 48.321915 0.129417 0.801097 0.041196 -0.004815 -225492.000000 0 0 1
-35.542317 -5.471273 33.239865 48.970192 0.152738 0.824700 0.039203 0.002565 -664522.000000 0 0 1
35.616234 -5.057273 34.000465 49.498725 -0.141051 0.813587 0.055423 -0.006536 -1711050.000000 0 0 1
34.440374 -5.478473 33.392365 48.282534 -0.157750 0.807090 0.052255 -0.015372 -333481.000000 0 0 1
33.146554 -4.889373 34.066665 47.782190 -0.146452 0.777090 0.073664 -0.020040 63395.900000 0 0 1
32.823234 -5.427873 -33.147615 46.963719 -0.163884 2.354367 0.075053 -0.014092 132514.000000 0 0 1
32.320074 -6.743273 -33.092215 46.745627 -0.205690 2.357347 0.072585 -0.013242 284068.000000 0 0 1
30.891354 -6.967073 -33.723515 46.261121 -0.221823 2.387630 0.054184 -0.013388 537754.000000 0 0 1
29.840594 -6.653773 -32.839915 44.868628 -0.219388 2.391921 0.055375 -0.014239 131307.000000 0 0 1
28.563594 -7.028273 -33.337415 44.459631 -0.241264 2.418610 0.041081 -0.007437 680385.000000 0 0 1
27.384804 -6.865473 -32.332315 42.923663 -0.245641 2.423788 0.048055 -0.016176 782464.000000 0 0 1
26.130194 -7.373173 -32.764215 42.551669 -0.275020 2.449616 0.032333 -0.015021 876638.000000 0 0 1
25.007494 -7.105773 -31.904915 41.155685 -0.276849 2.457868 0.045459 -0.016108 1203960.000000 0 0 1
23.691794 -7.702973 -32.565415 41.001746 -0.314352 2.488560 0.050161 -0.019682 569838.000000 0 0 1
23.497694 -9.070373 -32.585115 41.184985 -0.368389 2.483547 0.043575 -0.024865 158394.000000 0 0 1
23.440494 -9.684373 -31.313315 40.295999 -0.391788 2.460813 0.047775 -0.021815 -586054.000000 0 0 1
23.208994 -11.223573 -31.407015 40.632827 -0.450431 2.454269 0.048670 -0.019769 -696518.000000 0 0 1
21.901994 -11.499273 -31.792415 40.282605 -0.483473 2.480357 0.059327 -0.026688 -392284.000000 0 0 1
21.661994 -12.886673 -31.925915 40.676435 -0.536659 2.473291 0.051431 -0.023138 -633271.000000 0 0 1
20.446794 -13.228873 -32.776515 40.833496 -0.574256 2.502583 0.061940 -0.020296 207112.000000 0 0 1
19.132394 -12.892073 -32.353315 39.736520 -0.592949 2.522139 0.073567 -0.014394 419966.000000 0 0 1
18.791694 -11.536873 -32.625015 39.377898 -0.550603 2.547239 0.076917 -0.018801 -278913.000000 0 0 1
17.455194 -11.169173 -31.929615 38.064873 -0.569226 2.565910 0.079678 -0.021207 755379.000000 0 0 1
16.280594 -11.629573 -32.591015 38.242371 -0.620273 2.591015 0.072841 -0.010866 -42667.200000 0 0 1
15.082094 -11.360073 -31.931315 37.096222 -0.645556 2.607577 0.072251 -0.018440 202771.000000 0 0 1
13.813594 -11.886773 -32.659315 37.399754 -0.710566 2.632628 0.057359 -0.009217 -784592.000000 0 0 1
13.716794 -13.255173 -32.793915 37.937988 -0.768285 2.614769 0.064662 -0.009170 459452.000000 0 0 1
12.547694 -13.716773 -33.491515 38.305040 -0.829881 2.634864 0.044956 -0.016569 613469.000000 0 0 1
11.288094 -13.670373 -32.589815 37.099814 -0.880560 2.643376 0.026898 -0.017458 -617154.000000 0 0 1
10.570594 -12.443573 -32.612815 36.471574 -0.866603 2.677433 0.057319 -0.021827 908209.000000 0 0 1
9.432594 -12.547073 -31.698315 35.372108 -0.926159 2.681787 0.043524 -0.022636 576509.000000 0 0 1
8.369794 -11.496273 -31.947515 34.969436 -0.941496 2.722808 0.034862 -0.018059 -339100.000000 0 0 1
8.852494 -10.172273 -31.775515 34.518475 -0.854659 2.740248 0.037886 -0.006716 2092890.000000 0 0 1
7.672294 -9.289073 -31.964615 34.159736 -0.880432 2.781146 0.029900 -0.010171 1714930.000000 0 0 1
8.085394 -7.857873 -32.299415 34.210700 -0.771128 2.805747 0.041375 -0.005791 -240603.000000 0 0 1
8.472394 -7.077273 -31.201215 33.096602 -0.695917 2.801524 0.027479 -0.009860 294671.000000 0 0 1
8.862094 -5.788573 -31.705015 33.425324 -0.578610 2.819366 0.030949 -0.000473 -191426.000000 0 0 1
9.293994 -4.870473 -30.559015 32.310265 -0.482698 2.810842 0.033228 -0.000763 -531264.000000 0 0 1
8.169194 -4.460773 -29.848815 31.266372 -0.499804 2.839318 0.033625 -0.003851 -93186.600000 0 0 1
8.459894 -3.431873 -28.929515 30.335860 -0.385379 2.835907 0.033987 -0.004206 -172388.000000 0 0 1
7.135394 -2.948873 -28.307115 29.341139 -0.391897 2.875321 0.033643 -0.002892 -490367.000000 0 0 1
6.368094 -2.266073 -29.303815 30.073265 -0.341875 2.914896 0.026174 0.007951 657402.000000 0 0 1
5.079894 -1.840473 -28.850615 29.352183 -0.347595 2.956461 0.039201 0.002173 241981.000000 0 0 1
3.983494 -2.881273 -28.735815 29.153336 -0.626195 2.972147 0.024428 0.000046 -1129380.000000 0 0 1
4.124394 -3.788873 -27.711615 28.271891 -0.743024 2.942177 0.024526 -0.006706 -510626.000000 0 0 1
3.128294 -4.749973 -27.659315 28.238027 -0.988405 2.938790 0.048555 -0.010553 -438212.000000 0 0 1
3.365894 -5.673773 -26.467115 27.276897 -1.035364 2.897316 0.042162 -0.021454 -229902.000000 0 0 1
3.034294 -5.127373 -25.245215 25.938731 -1.036440 2.909831 0.054441 -0.025219 90046.100000 0 0 1
3.149294 -6.093673 -24.183315 25.137296 -1.093788 2.865211 0.050054 -0.033831 -300844.000000 0 0 1
3.020394 -5.448673 -22.764515 23.601567 -1.064630 2.874469 0.053802 -0.038581 141227.000000 0 1 0
4.189894 -4.714973 -22.477715 23.345960 -0.844295 2.868012 0.042756 -0.032146 105152.000000 0 1 0
3.980294 -3.919573 -21.306815 22.026942 -0.777712 2.885184 0.041750 -0.032745 136912.000000 0 1 0
5.034094 -2.802073 -21.196315 21.965370 -0.507911 2.876193 0.055030 -0.025650 1371740.000000 0 1 0
6.376894 -3.152873 -20.746215 21.931959 -0.459175 2.811263 0.050053 -0.031035 919277.000000 0 1 0
7.039594 -1.960973 -20.371115 21.642172 -0.271676 2.797167 0.060056 -0.020836 -415501.000000 0 1 0
8.506194 -2.248073 -20.049715 21.895211 -0.258379 2.728073 0.054086 -0.022503 -1033760.000000 0 1 0
9.227294 -2.633973 -21.218815 23.287741 -0.278060 2.716882 0.057605 -0.028968 1192290.000000 0 1 0
10.535994 -3.223473 -21.035915 23.746740 -0.296905 2.659107 0.053721 -0.029136 1591490.000000 0 1 0
11.663494 -2.419873 -20.326815 23.559972 -0.204572 2.611517 0.045984 -0.029741 -575506.000000 0 1 0
11.496294 -2.302573 -18.930415 22.267178 -0.197673 2.587064 0.050586 -0.022458 255356.000000 0 1 0
12.510394 -1.529573 -18.293315 22.214746 -0.121660 2.538307 0.044401 -0.024485 33594.300000 0 1 0
12.407394 0.011627 -18.527515 22.298259 0.000937 2.551511 0.025654 -0.018258 -6712.980000 0 1 0
13.135294 0.499227 -19.639315 23.632348 0.037988 2.551763 0.031725 -0.024065 133933.000000 0 1 0
13.117794 1.896427 -19.640915 23.694693 0.143574 2.547964 0.051635 -0.033133 -230533.000000 0 1 0
13.529794 2.612927 -20.900515 25.034261 0.190775 2.558705 0.044670 -0.029633 146229.000000 0 0 1
14.911794 2.506627 -21.230815 26.065155 0.166540 2.522713 0.042592 -0.020889 441179.000000 0 0 1
15.190094 3.363227 -22.305815 27.195581 0.217894 2.532557 0.051035 -0.023838 -753509.000000 0 0 1
16.659894 3.263327 -22.667515 28.319915 0.193430 2.498774 0.034344 -0.015753 -703786.000000 0 0 1
16.882394 2.153927 -23.512215 29.025487 0.126899 2.515041 0.026789 -0.014849 277081.000000 0 0 1
18.163494 1.561727 -23.310915 29.593078 0.085771 2.477887 0.014245 -0.013625 36385.400000 0 0 1
9.091996 26.975827 3.152465 28.640839 1.245711 1.460504 -0.020973 0.009231 64665.000000 0 0 1
9.058296 27.404527 4.467465 29.206490 1.251562 1.417232 -0.022807 0.006533 -375637.000000 0 0 1
10.374896 27.649127 4.865265 29.929642 1.211820 1.407515 -0.008193 0.001405 -481702.000000 0 0 1
10.459096 28.422227 6.221965 30.918094 1.218185 1.368172 -0.014475 -0.004048 -111525.000000 0 0 1
10.290796 27.569927 7.310765 30.322411 1.213551 1.327296 -0.017603 -0.003229 -470.549000 0 0 1
10.306096 28.222127 8.576965 31.245294 1.220665 1.292722 -0.001128 -0.008892 -369268.000000 0 0 1
9.972696 27.278427 9.756965 30.639282 1.220302 1.246706 0.001527 -0.018800 -597355.000000 0 0 1
10.989896 26.476827 10.221665 30.434891 1.177361 1.228285 0.025402 -0.014558 -565779.000000 0 0 1
11.636896 25.571327 9.347865 29.608997 1.143729 1.249591 0.021667 -0.011143 -981683.000000 0 0 1
12.892896 24.913027 9.856065 29.732603 1.093234 1.232914 0.027653 -0.016134 -558765.000000 0 0 1
13.965796 25.845627 9.946265 31.015610 1.075389 1.244343 0.038947 -0.015829 1010130.000000 0 0 1
15.145196 25.172527 10.482165 31.191487 1.029160 1.228067 0.043874 -0.012663 115744.000000 0 0 1
16.230496 26.150627 10.827365 32.626923 1.015328 1.232528 0.047066 -0.011513 -1250910.000000 0 0 1
16.837396 26.801927 9.713565 33.108829 1.009888 1.273033 0.057408 -0.026404 -373726.000000 0 0 1
18.207396 26.589427 9.595965 33.624239 0.970371 1.281385 0.077325 -0.032676 -234855.000000 0 0 1
19.133096 27.379827 10.575665 35.036766 0.960874 1.264169 0.068012 -0.025765 -530062.000000 0 0 1
19.231696 28.823027 10.503165 36.206926 0.982401 1.276478 0.067719 -0.034054 1617520.000000 0 0 1
17.991096 29.432427 11.013865 36.211221 1.022133 1.261744 0.057067 -0.019160 1571240.000000 0 0 1
18.236196 30.924427 11.300465 37.637475 1.037983 1.265847 0.046149 -0.003762 -519327.000000 0 0 1
18.516696 31.800527 10.224065 38.192578 1.043511 1.299794 0.067599 -0.031047 210710.000000 0 0 1
17.557296 31.937027 9.165565 37.579781 1.068147 1.324415 0.062741 -0.033961 -623942.000000 0 0 1
16.238896 32.541827 9.539765 37.598928 1.107936 1.314268 0.054025 -0.026801 -1263410.000000 0 0 1
16.368896 33.855927 9.955865 38.900948 1.120446 1.311988 0.053262 -0.027012 333669.000000 0 0 1
15.105096 -34.198219 10.295765 38.777376 -1.154872 1.302064 0.050091 -0.015953 543681.000000 0 0 1
15.164196 -32.669719 10.521565 37.522883 -1.136224 1.286581 0.044749 -0.011317 537215.000000 0 0 1
15.827696 -32.060619 9.348765 36.956714 -1.112217 1.315052 0.047157 -0.015650 566484.000000 0 0 1
15.943396 -30.628119 9.548365 35.825199 -1.090846 1.301009 0.036655 -0.005992 40600.400000 0 0 1
16.693396 -29.911719 8.388165 35.266723 -1.061764 1.330645 0.025821 -0.006085 -1947.910000 0 0 1
15.977396 -29.772119 7.184065 34.543698 -1.078255 1.361297 0.023297 -0.012080 -19954.200000 0 0 1
16.807996 -29.267019 6.143065 34.304583 -1.049490 1.390751 0.024428 -0.014437 22964.100000 0 0 1
16.267496 -29.399019 4.673265 33.923048 -1.065397 1.432596 0.033267 -0.011019 -506267.000000 0 0 1
16.408196 -30.702419 4.166165 35.060297 -1.079988 1.451686 0.036171 -0.015388 -46969.300000 0 0 1
16.028996 -30.829019 2.793465 34.859154 -1.091330 1.490575 0.044283 -0.006256 -97821.400000 0 0 1
16.308496 -32.269219 2.261865 36.226863 -1.102847 1.508320 0.026233 -0.005325 -132255.000000 0 0 1
17.664196 -32.648019 2.295765 37.191229 -1.074851 1.509028 0.051738 0.001715 -59793.200000 0 0 1
17.746196 -33.972219 1.845765 38.372464 -1.089410 1.522676 0.057264 0.004941 -420781.000000 0 0 1
19.184996 34.149627 1.965565 39.218931 1.058945 1.520658 0.068844 -0.002679 -396318.000000 0 0 1
19.524696 33.813327 3.282565 39.183288 1.047141 1.486923 0.072613 -0.033872 1184140.000000 0 0 1
20.937596 33.486127 3.371765 39.636756 1.012009 1.485627 0.074636 -0.018288 1236640.000000 0 0 1
21.444096 33.170527 4.765265 39.784933 0.996899 1.450732 0.080379 -0.023167 -522569.000000 0 0 1
20.833996 32.072327 5.327665 38.614422 0.994706 1.432384 0.073545 -0.032726 -4360.050000 0 0 1
21.713996 30.969727 5.676965 38.247216 0.959308 1.421818 0.066119 -0.035855 148675.000000 0 0 1
21.107596 29.931427 6.594265 37.214315 0.956590 1.392659 0.076209 -0.041036 -41594.400000 0 0 1
20.075296 29.245727 5.865265 35.954574 0.969232 1.406934 0.082024 -0.041282 -161578.000000 0 0 1
19.125996 28.842027 6.822265 35.273355 0.985247 1.376158 0.080203 -0.049751 -741019.000000 0 0 1
17.706896 28.975527 6.268365 34.531257 1.022256 1.388257 0.079594 -0.044021 -456889.000000 0 0 1
17.105496 30.288227 6.328365 35.355663 1.056694 1.390835 0.071394 -0.043299 444561.000000 0 0 1
17.568896 31.130227 5.232165 36.126620 1.056989 1.425457 0.079304 -0.041520 -217138.000000 0 0 1
17.476596 32.619627 5.485565 37.410732 1.078944 1.423635 0.081323 -0.035427 914790.000000 0 0 1
16.116796 33.094727 5.599665 37.233967 1.117611 1.419832 0.054546 -0.031366 627937.000000 0 0 1
16.086996 -34.091819 5.700165 38.125260 -1.129903 1.420722 0.051358 -0.028600 10387.300000 0 0 1
14.674396 -33.474919 5.807465 37.008577 -1.157656 1.413223 0.036746 -0.026462 148689.000000 0 0 1
13.854396 -33.716519 4.698165 36.753513 -1.180922 1.442617 0.025045 -0.015440 319793.000000 0 0 1
12.626596 -32.965619 4.783965 35.623718 -1.205010 1.436098 0.006587 -0.009909 458912.000000 0 0 1
11.970796 -32.836219 3.419465 35.117090 -1.221209 1.473269 0.015773 -0.005163 427429.000000 0 0 1
10.886496 -31.869319 3.541565 33.863136 -1.241626 1.466020 0.013121 -0.013435 633646.000000 0 0 1
10.337696 -31.662819 2.249765 33.383582 -1.255214 1.503354 0.017402 -0.002184 -228183.000000 0 0 1
9.407696 -30.414019 2.134665 31.907274 -1.270810 1.503844 0.022359 -0.004745 130477.000000 0 0 1
9.216596 -29.978919 0.796565 31.373807 -1.272532 1.545404 0.032272 0.000139 472306.000000 0 0 1
8.104596 -30.637219 0.144065 31.691394 -1.312186 1.566250 0.026455 0.000128 26495.900000 0 0 1
8.389796 -31.282119 -1.265735 32.412370 -1.308765 1.609857 0.041932 -0.005565 1190660.000000 0 0 1
9.591996 -32.142219 -1.175135 33.563516 -1.280786 1.605816 0.034022 -0.005884 1277790.000000 0 0 1
9.640696 -33.050719 -2.255535 34.501891 -1.286977 1.636217 0.037175 0.003623 -633052.000000 0 0 1
10.757996 -34.048619 -2.063735 35.767331 -1.264763 1.628527 0.022219 0.004741 -708156.000000 0 0 1
10.808896 33.839227 -0.846335 35.533671 1.261620 1.594616 0.013280 0.008462 -848521.000000 0 0 1
11.871096 32.947627 -0.812935 35.030414 1.224973 1.594005 0.031885 0.001340 -541023.000000 0 0 1
12.017996 32.291027 0.632765 34.460746 1.214502 1.552433 0.011300 -0.001189 -712851.000000 0 0 1
12.511996 33.059327 1.713465 35.389336 1.208986 1.522360 0.021388 -0.007331 2124620.000000 0 0 1
13.972196 33.236327 1.846365 36.101035 1.172837 1.519630 0.036859 -0.006457 2189800.000000 0 0 1
14.838096 31.941727 1.959565 35.274394 1.135920 1.515216 0.045380 -0.012167 -794207.000000 0 0 1
15.178596 31.342027 0.765965 34.832444 1.119796 1.548805 0.049745 -0.010073 -133138.000000 0 0 1
16.106496 30.323827 1.032865 34.351426 1.082540 1.540724 0.062955 -0.007959 -364556.000000 0 0 1
17.004896 29.923827 -0.146535 34.418358 1.054032 1.575054 0.052259 -0.004090 -311596.000000 0 0 1
18.024596 30.815627 -0.488835 35.703332 1.041541 1.584488 0.036619 0.004984 -427528.000000 0 0 1
17.642496 31.869227 -1.324735 36.450792 1.065201 1.607147 0.050248 -0.008718 -16279.300000 0 0 1
18.817696 32.618927 -2.030735 37.712385 1.047539 1.624670 0.047345 -0.003977 663104.000000 0 0 1
19.552896 33.539927 -1.195435 38.841621 1.042990 1.601578 0.042655 0.007624 182976.000000 0 0 1
20.604896 34.148627 -1.893735 39.928395 1.027889 1.618242 0.041012 0.007852 -759520.000000 0 0 1
21.822896 -33.917419 -1.090635 40.346247 -0.999066 1.597832 0.049229 0.009637 -175580.000000 0 0 1
22.750996 33.755127 -0.604535 40.710955 0.977733 1.585646 0.052618 0.011568 579670.000000 0 0 1
23.450096 32.901427 -1.545335 40.432647 0.951572 1.609026 0.057784 0.008556 -296506.000000 0 0 1
24.321496 33.585727 -2.627035 41.550422 0.944038 1.634064 0.053383 0.004498 -957534.000000 0 0 1
23.554396 34.237127 -3.619235 41.714378 0.968184 1.657668 0.036738 -0.008054 479378.000000 0 0 1
24.456096 -33.753219 -4.546235 41.929092 -0.943779 1.679437 0.040893 -0.008249 88872.000000 0 0 1
23.824296 -33.275919 -5.859635 41.342705 -0.949438 1.713008 0.035957 -0.012934 -153972.000000 0 0 1
22.838896 -32.282219 -5.576235 39.935589 -0.955070 1.710885 0.041311 -0.005861 249125.000000 0 0 1
22.475196 -31.718919 -6.790635 39.463110 -0.954339 1.743733 0.043241 -0.010533 225971.000000 0 0 1
21.446596 -30.522719 -6.716335 37.903853 -0.958298 1.748931 0.050807 -0.011737 335312.000000 0 0 1
20.183096 -30.810219 -6.180635 37.347386 -0.990860 1.737052 0.063158 -0.009221 -458214.000000 0 0 1
19.474596 -29.591719 -6.119535 35.949666 -0.988741 1.741854 0.068461 -0.016977 217872.000000 0 0 1
18.290896 -29.554019 -5.120835 35.131466 -1.016598 1.717080 0.054555 -0.005991 1058410.000000 0 0 1
17.075396 -30.153119 -5.615835 35.104378 -1.055533 1.731462 0.060154 -0.014490 -80300.700000 0 0 1
16.046596 -29.973819 -4.701835 34.322447 -1.079267 1.708219 0.038348 -0.004376 -107463.000000 0 0 1
14.711496 -30.606219 -5.155335 34.347435 -1.122732 1.721459 0.037177 -0.001993 -184510.000000 0 0 1
14.693796 -32.022019 -5.135335 35.604621 -1.140594 1.715533 0.028728 0.017799 -1217850.000000 0 0 1
13.490696 -32.641019 -5.366035 35.724353 -1.178873 1.721574 0.032708 0.013192 -908164.000000 0 0 1
13.696396 -34.172319 -5.549235 37.230803 -1.189597 1.720403 0.028356 0.003695 -207507.000000 0 0 1
14.127596 33.805327 -4.369335 36.898241 1.174946 1.689491 0.027901 -0.009041 -87521.500000 0 0 1
14.479196 32.447627 -4.483435 35.813361 1.151080 1.696315 0.029119 -0.011353 -289686.000000 0 0 1
13.392296 31.434227 -4.879035 34.514768 1.168044 1.712632 0.028432 -0.012123 -212132.000000 0 0 1
12.518196 30.997227 -3.856335 33.651220 1.186976 1.685646 0.027190 -0.004185 63370.200000 0 0 1
13.033596 29.923527 -3.113735 32.787001 1.160012 1.665908 0.038262 -0.009750 -12154.100000 0 0 1
11.923096 29.116527 -2.343635 31.550356 1.182131 1.645147 0.023004 -0.003660 578000.000000 0 0 1
11.181596 29.853427 -1.365735 31.907999 1.212420 1.613612 0.025223 -0.007755 16769.800000 0 0 1
10.094696 29.005027 -1.010235 30.728082 1.235875 1.603679 0.006486 0.000427 534658.000000 0 0 1
8.974396 29.695127 -0.167635 31.022064 1.277306 1.576200 -0.007988 0.013088 991480.000000 0 0 1
8.026196 28.801627 0.445365 29.902372 1.299020 1.555902 -0.008610 0.005496 497760.000000 0 0 1
6.858496 29.426627 0.935065 30.229781 1.341813 1.539859 0.004419 0.009689 505930.000000 0 0 1
5.896596 28.551727 1.791265 29.209238 1.367136 1.509433 0.002940 0.011093 611136.000000 0 0 1
5.216596 27.499527 1.077665 28.010680 1.383326 1.532313 0.008231 0.001467 -93748.000000 0 0 1
3.963296 27.164127 1.598865 27.498252 1.425917 1.512619 0.009508 -0.003609 51263.900000 0 0 1
3.251396 26.109227 0.685865 26.319835 1.446904 1.544735 0.014366 -0.011130 -636875.000000 0 0 1
2.089896 25.551427 1.161865 25.663067 1.489186 1.525507 0.027861 -0.014634 -707442.000000 0 0 1
1.561796 24.564227 0.274665 24.615359 1.507302 1.559638 0.027844 -0.012583 258924.000000 0 1 0
0.211196 23.982727 0.783965 23.996466 1.561990 1.538120 0.029660 -0.008602 717499.000000 0 1 0
-0.874704 24.913827 0.557765 24.935416 -1.535702 1.548426 0.033944 -0.018840 -222885.000000 0 1 0
-1.981204 24.321727 1.175065 24.430562 -1.489518 1.522680 0.028232 -0.011060 -575648.000000 0 1 0
-3.299604 25.098027 1.001865 25.333813 -1.440077 1.531239 0.056114 -0.026086 161250.000000 0 0 1
-4.469104 24.354027 1.379365 24.799076 -1.389310 1.515146 0.046926 -0.022243 307151.000000 0 1 0
-5.431104 25.114827 2.067465 25.778398 -1.357825 1.490509 0.053214 -0.024217 33189.800000 0 0 1
-6.621304 25.452627 1.141565 26.324533 -1.316295 1.527418 0.065236 -0.027306 -455170.000000 0 0 1
-6.292304 26.503227 0.257765 27.241156 -1.337696 1.561334 0.061594 -0.028657 -795794.000000 0 0 1
-7.090404 26.599527 -0.818235 27.540482 -1.310292 1.600511 0.053545 -0.022993 -763934.000000 0 0 1
-6.835004 27.873027 -1.694635 28.748821 -1.330322 1.629777 0.051742 -0.020280 99394.000000 0 0 1
-7.336404 29.047227 -1.091635 29.979257 -1.323402 1.607217 0.064604 -0.026290 -3208.860000 0 0 1
-7.306404 30.092227 -2.064435 31.035263 -1.332605 1.637364 0.057780 -0.027592 -214294.000000 0 0 1
-7.280804 31.544927 -1.416435 32.405228 -1.343961 1.614520 0.049446 -0.027334 -874950.000000 0 0 1
-7.335804 32.663327 -2.259235 33.553108 -1.349874 1.638180 0.042774 -0.016835 -54545.600000 0 0 1
-6.411604 32.836027 -3.342135 33.622659 -1.377961 1.670362 0.028493 -0.013493 422981.000000 0 0 1
-4.992204 33.213227 -2.821035 33.704581 -1.421605 1.654593 0.035592 -0.028117 -339370.000000 0 0 1
-4.941004 -34.020319 -2.542535 34.471149 1.426568 1.644622 0.035575 -0.024663 153979.000000 0 0 1
-3.982304 -33.704219 -1.542235 33.973690 1.453187 1.616207 0.038680 -0.026089 151134.000000 0 0 1
-3.941504 -32.173519 -1.384735 32.443617 1.448896 1.613491 0.045043 -0.024529 -140975.000000 0 0 1
-5.184904 -31.691519 -0.960535 32.127220 1.408628 1.600699 0.038608 -0.024888 -430914.000000 0 0 1
-5.366704 -30.446419 -1.570335 30.955644 1.396321 1.621547 0.043534 -0.017508 -433176.000000 0 0 1
-6.796704 -29.910919 -1.509235 30.710521 1.347359 1.619960 0.056057 -0.016833 -346170.000000 0 0 1
-6.936904 -29.478319 -0.175635 30.284035 1.339679 1.576596 0.040487 -0.013243 393478.000000 0 0 1
-8.190204 -28.809119 0.008165 29.950707 1.293812 1.570524 0.015206 -0.004379 465907.000000 0 0 1
-8.435704 -28.033119 1.373365 29.307047 1.278496 1.523918 0.025269 -0.002138 -449773.000000 0 0 1
-7.589004 -26.962119 1.547665 28.052524 1.296426 1.515598 0.024042 -0.000922 -671140.000000 0 0 1
-7.312204 -26.543219 2.860065 27.680152 1.301981 1.467286 0.035772 0.006962 246527.000000 0 0 1
-8.246004 -25.468219 3.520065 27.000327 1.257672 1.440053 0.025711 0.006651 443996.000000 0 0 1
-7.918504 -24.160519 3.155465 25.620116 1.254083 1.447319 0.024808 0.003507 -121442.000000 0 0 1
-8.917604 -23.378119 3.785865 25.305985 1.206382 1.420629 0.027314 0.001597 159894.000000 0 0 1
-8.507404 -21.942919 4.158565 23.898981 1.200933 1.395900 0.007021 0.010162 137283.000000 0 1 0
-7.547604 -21.961619 5.187865 23.794810 1.239770 1.351006 0.005246 0.009602 -502211.000000 0 1 0
-6.898104 -20.768319 5.465465 22.556113 1.250115 1.326055 -0.006406 0.012324 -331853.000000 0 1 0
-7.682904 -19.618419 6.161165 21.951523 1.197538 1.286303 -0.000728 0.005803 -86039.900000 0 1 0
-8.259504 -20.007119 7.375665 22.867109 1.179280 1.242380 0.005574 0.001553 62970.200000 0 1 0
-8.913904 -18.908819 8.003065 22.384150 1.130277 1.205172 0.004493 -0.004750 -290549.000000 0 1 0
-27.489124 28.838127 -6.257735 40.329254 -0.809343 1.726592 0.051067 -0.017846 418798.000000 0 0 1
-26.533244 29.560627 -5.457235 40.095200 -0.839316 1.707327 0.047956 -0.018310 -123100.000000 0 0 1
-25.811354 28.710027 -4.665235 38.887736 -0.838514 1.691053 0.032007 -0.013205 -343648.000000 0 0 1
-24.818104 29.507027 -3.806935 38.743976 -0.871497 1.669214 0.027926 -0.006943 -212365.000000 0 0 1
-25.459934 30.174727 -2.719535 39.574212 -0.869942 1.639570 0.028881 -0.009121 123500.000000 0 0 1
-24.775604 31.321327 -2.265535 39.999859 -0.901559 1.627465 0.024056 -0.001151 611039.000000 0 0 1
-23.565504 31.024027 -1.276035 38.980142 -0.921187 1.603538 0.017128 0.013323 1927420.000000 0 0 1
-22.358804 30.625727 -2.010735 37.972283 -0.940175 1.623774 0.036948 -0.004456 688455.000000 0 0 1
-21.300904 30.424127 -1.129835 37.156864 -0.959982 1.601208 0.048116 -0.002474 -407706.000000 0 0 1
-20.052904 29.861527 -1.840135 36.016882 -0.979435 1.621909 0.041306 -0.007805 369523.000000 0 0 1
-18.887904 29.931627 -1.008435 35.407233 -1.007869 1.599281 0.057370 -0.004521 424837.000000 0 0 1
-17.759004 29.416827 -1.696435 34.403631 -1.027659 1.620126 0.064442 -0.006260 -251056.000000 0 0 1
-16.440504 30.013827 -1.225435 34.243564 -1.069671 1.606590 0.060364 -0.011622 -648972.000000 0 0 1
-16.008804 29.400227 -0.075635 33.476273 -1.072176 1.573056 0.054180 -0.001152 -227253.000000 0 0 1
-14.830904 30.045427 0.357265 33.508372 -1.112269 1.560134 0.055986 -0.004545 168959.000000 0 0 1
-14.169204 29.402727 1.623165 32.679066 -1.121732 1.521106 0.070610 -0.009042 -270681.000000 0 0 1
-14.932004 29.618527 2.765165 33.284651 -1.103839 1.487624 0.046710 0.003883 -295740.000000 0 0 1
-14.530604 28.768527 3.841565 32.458037 -1.103088 1.452163 0.051297 -0.012819 103101.000000 0 0 1
-13.306704 29.216027 4.672165 32.441851 -1.143412 1.426277 0.067003 -0.010539 102653.000000 0 0 1
-13.445804 30.375627 5.477665 33.667093 -1.154071 1.407369 0.056363 -0.019114 -475468.000000 0 0 1
-13.443204 31.559527 4.742865 34.629730 -1.168110 1.433405 0.070091 -0.020501 -190374.000000 0 0 1
-13.120804 32.790027 5.531365 35.748249 -1.190164 1.415441 0.063987 -0.009245 171760.000000 0 0 1
-14.110804 33.140927 6.497765 36.601322 -1.168264 1.392322 0.055359 -0.006190 147730.000000 0 0 1
-13.731604 34.229327 7.271165 37.590871 -1.189286 1.376140 0.064140 -0.010108 120244.000000 0 0 1
-14.923504 -33.812319 8.080665 37.832275 1.155148 1.355546 0.045950 -0.003814 232210.000000 0 0 1
-15.166204 33.829727 9.053865 38.163289 -1.149349 1.331272 0.039448 -0.006383 34524.600000 0 0 1
-16.312104 34.261027 9.789065 39.188372 -1.126441 1.318328 0.039407 -0.006256 -480985.000000 0 0 1
-16.606804 33.499627 11.070365 38.994409 -1.110570 1.282941 0.042291 -0.007890 199435.000000 0 0 1
-15.846904 33.684127 12.281165 39.199130 -1.131062 1.252128 0.042753 -0.010263 -405919.000000 0 0 1
-14.493104 33.353727 12.131065 38.336456 -1.160884 1.248825 0.051992 -0.009845 -776314.000000 0 0 1
-13.787204 33.431327 13.508665 38.603428 -1.179643 1.213295 0.046545 -0.006288 -295379.000000 0 0 1
-14.141604 32.456627 14.504465 38.259601 -1.159891 1.181966 0.044945 -0.001460 648299.000000 0 0 1
-13.298004 31.269627 14.467965 36.931673 -1.168698 1.168264 0.036047 -0.004040 507506.000000 0 0 1
-13.997404 30.084527 13.704165 35.900003 -1.135317 1.179127 0.040452 -0.011862 278153.000000 0 0 1
-13.973104 30.279327 12.303665 35.545259 -1.138442 1.217342 0.038048 -0.008207 1708590.000000 0 0 1
-15.137504 29.567127 11.734865 35.228767 -1.097618 1.231202 0.028699 -0.002493 1420030.000000 0 0 1
-14.849904 29.489327 10.251265 34.572076 -1.104298 1.269751 0.027251 -0.003973 -46505.500000 0 0 1
-13.970604 28.447527 9.956765 33.220125 -1.114293 1.266396 0.010490 -0.000528 -90773.300000 0 0 1
-14.029804 28.241627 8.561465 32.676039 -1.109730 1.305691 0.028803 0.001690 -221529.000000 0 0 1
-13.298604 26.953627 8.119165 31.133129 -1.112452 1.306957 0.029087 -0.001686 70315.400000 0 0 1
-11.896304 27.016527 8.294465 30.662891 -1.156009 1.296879 0.019417 -0.004780 277119.000000 0 0 1
-11.232004 25.792227 7.970765 29.239185 -1.160082 1.294696 0.034966 -0.004993 -43209.500000 0 0 1
-10.146804 25.989827 6.891565 28.738865 -1.198581 1.328637 0.054985 -0.013638 -633113.000000 0 0 1
-10.636804 26.348927 5.679265 28.976915 -1.187113 1.373527 0.064546 -0.014075 243309.000000 0 0 1
-9.679804 26.133127 4.645365 28.252758 -1.216061 1.405625 0.088403 -0.010765 168220.000000 0 0 1
-10.184804 26.542327 3.222065 28.611310 -1.204403 1.457942 0.089795 -0.019196 35885.900000 0 0 1
-9.982004 27.939927 3.003565 29.821155 -1.227663 1.469906 0.093969 -0.019975 91651.500000 0 0 1
-10.564004 28.329827 1.791865 30.288414 -1.213874 1.511602 0.093953 -0.018363 -172816.000000 0 0 1
-10.214704 29.751427 1.311465 31.483448 -1.240072 1.529129 0.111661 -0.022470 -46137.000000 0 0 1
-10.710604 30.823227 2.059565 32.696026 -1.236364 1.507763 0.096180 -0.030428 -292357.000000 0 0 1
-10.144504 32.050027 1.660865 33.658188 -1.264252 1.521431 0.093766 -0.028898 -5544.620000 0 0 1
-10.823904 33.275427 2.336965 35.069536 -1.256309 1.504109 0.077740 -0.025125 293428.000000 0 0 1
-12.177004 33.494527 2.000665 35.695453 -1.222100 1.514719 0.079530 -0.022143 -250360.000000 0 0 1
-12.342304 -34.212519 0.949965 36.383119 1.224573 1.544683 0.074997 -0.025211 1138790.000000 0 0 1
-13.834804 -33.978719 0.446565 36.689979 1.184132 1.558625 0.082702 -0.027381 1335930.000000 0 0 1
-14.551704 33.612927 -0.226935 36.628301 -1.162237 1.576992 0.073424 -0.025016 20757.800000 0 0 1
-14.415604 33.500827 -1.635635 36.507401 -1.164440 1.615614 0.078370 -0.025352 -650081.000000 0 0 1
-13.067604 33.175627 -2.264035 35.728285 -1.195567 1.634207 0.068596 -0.019295 -609628.000000 0 0 1
-12.800104 31.784427 -2.205635 34.335947 -1.187951 1.635077 0.068374 -0.015836 -859241.000000 0 0 1
-11.486804 31.506727 -2.519635 33.629883 -1.221190 1.645789 0.056838 -0.012168 -932053.000000 0 0 1
-11.250504 29.988227 -2.576635 32.132641 -1.211882 1.651070 0.057413 -0.018297 93837.500000 0 0 1
-11.432704 29.430027 -3.888535 31.811223 -1.200268 1.693341 0.050391 -0.016259 -251192.000000 0 0 1
-10.264004 29.573427 -4.658035 31.648612 -1.236736 1.718513 0.042509 -0.013696 -282698.000000 0 0 1
-10.380104 29.073027 -6.109135 31.469175 -1.227868 1.766168 0.047254 -0.016882 -516521.000000 0 0 1
-10.657804 27.708727 -6.256235 30.339789 -1.203604 1.778492 0.051461 -0.007503 54317.100000 0 0 1
-10.575504 27.120827 -7.563235 30.076287 -1.198992 1.824993 0.044011 -0.010055 41129.000000 0 0 1
-11.143404 25.676527 -7.665635 29.021051 -1.161334 1.838109 0.066104 -0.020720 -54660.000000 0 0 1
-10.463004 24.696927 -6.910235 27.697725 -1.170065 1.822947 0.041037 -0.014543 -299235.000000 0 0 1
-11.088804 23.471627 -6.947535 26.872794 -1.129443 1.832301 0.056404 -0.016902 -152214.000000 0 0 1
-10.417804 22.379727 -6.020135 25.409148 -1.135126 1.809999 0.053485 -0.016333 852994.000000 0 0 1
-9.010004 22.131727 -6.216035 24.690739 -1.184177 1.825290 0.045013 -0.022284 1057580.000000 0 1 0
-8.479004 20.984627 -5.540135 23.301098 -1.186797 1.810858 0.051131 -0.023540 -199853.000000 0 1 0
-8.461204 21.017927 -3.978835 23.003833 -1.188076 1.744635 0.049489 -0.024075 -177407.000000 0 1 0
-9.737504 20.946227 -3.365635 23.342898 -1.135636 1.715483 0.060145 -0.022464 62461.400000 0 1 0
-10.174304 19.585127 -3.366935 22.325544 -1.091678 1.722185 0.056645 -0.028010 -325201.000000 0 1 0
-11.453804 19.452827 -2.506235 22.713065 -1.038654 1.681365 0.059201 -0.030109 -185000.000000 0 1 0
-11.339704 19.458227 -1.102235 22.548312 -1.043141 1.619699 0.059914 -0.028956 82276.400000 0 1 0
-11.036804 18.200027 -0.592635 21.293267 -1.025672 1.598632 0.056131 -0.028080 -53237.800000 0 1 0
-10.710404 18.288727 0.907165 21.213515 -1.041011 1.528020 0.051508 -0.024159 1259920.000000 0 1 0
-11.972604 18.397027 1.624765 22.009854 -0.993866 1.496909 0.065296 -0.024639 1516720.000000 0 1 0
-11.731704 18.644527 2.996365 22.231272 -1.009161 1.435603 0.058482 -0.015388 48502.700000 0 1 0
-13.048904 18.496327 3.779765 22.949392 -0.956398 1.405342 0.057616 -0.023927 12336.800000 0 1 0
-13.518304 17.182627 3.822065 22.194490 -0.904192 1.397726 0.038762 -0.022503 854936.000000 0 1 0
-14.787704 17.152427 4.515565 23.092688 -0.859299 1.373987 0.051877 -0.035154 841645.000000 0 1 0
-15.091204 15.765827 5.133265 22.419994 -0.807258 1.339788 0.033424 -0.032665 -185591.000000 0 1 0
-14.275704 15.413827 6.298665 21.932965 -0.823714 1.279517 0.024345 -0.021912 551151.000000 0 1 0
-14.745304 16.039127 7.471365 23.032561 -0.827402 1.240437 0.024726 -0.019314 -1483110.000000 0 1 0
-13.700104 16.012227 8.553665 22.743118 -0.863059 1.185214 0.014936 -0.003842 317202.000000 0 1 0
-12.548404 16.832227 8.403865 22.614403 -0.930182 1.190048 0.014635 -0.024104 217860.000000 0 1 0
-11.720504 16.594027 7.269265 21.577167 -0.955849 1.227178 0.015702 -0.016708 -1038160.000000 0 1 0
-10.598404 17.690427 7.253265 21.860632 -1.031036 1.232590 0.028463 -0.020424 124799.000000 0 1 0
-9.726104 17.479527 8.346765 21.674857 -1.063031 1.175491 0.019551 -0.016031 -271577.000000 0 1 0
-8.901104 18.595827 8.547865 22.318163 -1.124365 1.177754 0.020034 -0.017092 -596510.000000 0 1 0
-7.801904 18.436427 9.608465 22.205723 -1.170469 1.123308 0.028020 -0.018077 -478317.000000 0 1 0
-6.812504 17.649627 8.971765 20.938293 -1.202429 1.127980 0.022020 -0.016578 222723.000000 0 1 0
-5.492704 17.806027 9.501165 20.916417 -1.271583 1.099272 0.024484 -0.019980 833440.000000 0 1 0
-4.589004 18.864327 8.844165 21.334035 -1.332168 1.143341 0.024048 -0.024598 -1179570.000000 0 1 0
-4.984404 20.177327 9.089865 22.684674 -1.328615 1.158510 0.032507 -0.028326 237598.000000 0 1 0
-4.369504 21.210727 8.238165 23.170128 -1.367634 1.207293 0.037413 -0.028446 1053700.000000 0 1 0
-2.885604 21.594927 8.600765 23.423081 -1.437959 1.194808 0.046576 -0.025916 958666.000000 0 1 0
-1.874204 20.635027 8.299565 22.320389 -1.480219 1.189808 0.026559 -0.015012 -719317.000000 0 1 0
-0.683604 21.332527 8.151265 22.847038 -1.538762 1.205982 0.015048 -0.016138 -1238660.000000 0 1 0
0.501296 20.425227 8.011065 21.945805 1.546258 1.197122 0.007860 -0.010054 -634807.000000 0 1 0
0.975896 19.979627 9.231965 22.031047 1.521991 1.138405 0.013105 -0.010548 -184978.000000 0 1 0
2.305196 19.488227 9.240965 21.691020 1.453057 1.130699 0.011341 -0.015659 267597.000000 0 1 0
2.846996 19.140927 10.637765 22.082629 1.423140 1.068174 0.004650 -0.024589 -381465.000000 0 1 0
4.173396 18.684927 10.636165 21.901409 1.351047 1.063703 0.025453 -0.014052 -168958.000000 0 1 0
4.605296 18.287227 11.941365 22.321013 1.324095 1.006309 0.020004 -0.017030 271300.000000 0 1 0
6.147096 18.266327 12.120465 22.767327 1.246175 1.009408 0.020948 -0.017264 -84302.900000 0 1 0
6.835396 17.370627 11.338665 21.840940 1.195903 1.024943 0.013317 -0.016043 -396030.000000 0 1 0
7.761396 16.718927 12.178965 22.092736 1.136173 0.986916 0.017053 -0.009089 -519485.000000 0 1 0
9.051796 16.192727 11.556465 21.856150 1.061067 1.013668 0.030125 -0.009899 -305280.000000 0 1 0
9.785796 17.172627 10.889465 22.566377 1.052842 1.067230 0.041994 -0.022750 -849424.000000 0 1 0
11.037196 16.703027 10.513865 22.613097 0.986873 1.087223 0.043233 -0.015077 -347777.000000 0 1 0
11.854896 17.669027 9.598065 23.342149 0.979840 1.147037 0.040783 -0.007337 -315554.000000 0 1 0
12.933596 17.027927 8.994965 23.197793 0.921210 1.172606 0.045890 -0.008402 -753736.000000 0 1 0
13.624096 17.932827 8.218765 23.973952 0.921097 1.220878 0.043570 -0.007064 183749.000000 0 1 0
14.766796 17.326027 7.343465 23.920200 0.864974 1.258759 0.038057 -0.017198 1057430.000000 0 1 0
15.891196 16.837027 8.125365 24.536445 0.814290 1.233269 0.048954 -0.012804 929609.000000 0 1 0
16.977796 16.685427 7.238165 24.880516 0.776713 1.275611 0.071862 -0.006008 -429789.000000 0 1 0
18.372396 16.493527 7.838465 25.904110 0.731562 1.263382 0.047255 -0.007118 -567697.000000 0 0 1
18.591996 15.254527 8.554965 25.525484 0.687110 1.229028 0.051133 -0.005446 110265.000000 0 0 1
19.606796 15.467627 9.483265 26.713410 0.667930 1.207882 0.044937 -0.005564 -718287.000000 0 0 1
19.882496 14.321227 10.477865 26.649519 0.624216 1.166717 0.036699 -0.006762 -260181.000000 0 0 1
20.404796 13.148427 9.930465 26.226913 0.572414 1.182474 0.031320 -0.017064 306205.000000 0 0 1
20.681296 12.104827 10.850165 26.305302 0.529543 1.145632 0.042756 -0.022860 -360964.000000 0 0 1
21.511796 11.023227 10.166865 26.222777 0.473540 1.172649 0.039074 -0.019627 11723.700000 0 0 1
22.920696 11.273427 10.113565 27.472398 0.457102 1.193793 0.040484 -0.025090 1366560.000000 0 0 1
23.710096 10.363927 9.331365 27.507345 0.412083 1.224696 0.055169 -0.024622 14201.500000 0 0 1
23.808796 8.857327 9.823665 27.236289 0.356155 1.201796 0.061263 -0.027061 -467110.000000 0 0 1
22.620896 8.130127 9.579265 25.875978 0.345031 1.191573 0.059380 -0.024944 555640.000000 0 0 1
22.733796 6.783827 10.014565 25.751453 0.289991 1.171366 0.065292 -0.023798 32558.000000 0 0 1
23.834996 5.877327 9.378965 26.279555 0.241761 1.205858 0.082464 -0.024332 426672.000000 0 0 1
23.464696 5.603027 8.044965 25.430441 0.234396 1.248915 0.061398 -0.014360 853623.000000 0 0 1
24.542596 5.009327 7.312965 26.094288 0.201342 1.286740 0.073456 -0.010790 336452.000000 0 0 1
24.164396 4.814227 5.815565 25.316311 0.196653 1.339010 0.064219 -0.015053 -429041.000000 0 0 1
23.344296 3.713727 5.634765 24.300175 0.157763 1.336785 0.074953 -0.018462 124759.000000 0 1 0
23.153996 3.491027 4.236065 23.795778 0.149647 1.391825 0.076660 -0.015300 154752.000000 0 1 0
22.210796 2.274027 3.964565 22.676165 0.102028 1.395059 0.065221 -0.012389 -237218.000000 0 1 0
22.804696 1.058827 4.382465 23.246103 0.046397 1.381137 0.077405 -0.014487 130598.000000 0 1 0
22.068496 -0.008073 3.922865 22.414448 -0.000366 1.394875 0.062846 -0.016408 -398229.000000 0 1 0
22.671596 -1.396773 4.315665 23.120926 -0.061531 1.383039 0.071847 -0.016777 -665614.000000 0 1 0
22.361296 -1.738873 5.670565 23.134532 -0.077606 1.323161 0.062393 -0.017062 734650.000000 0 1 0
22.525296 -3.192473 5.873765 23.496425 -0.140791 1.318131 0.060114 -0.016603 -660610.000000 0 1 0
22.220796 -3.615673 7.311265 23.670477 -0.161302 1.256784 0.074205 -0.017715 -251811.000000 0 1 0
22.209696 -5.005473 7.489865 23.967133 -0.221670 1.252967 0.060916 -0.017592 616826.000000 0 1 0
22.153896 -5.220173 8.925365 24.448057 -0.231411 1.197083 0.083051 -0.019026 -218495.000000 0 1 0
22.031396 -6.690573 9.344765 24.848960 -0.294833 1.185253 0.078957 -0.016534 164186.000000 0 1 0
20.672196 -7.072573 9.363765 23.770593 -0.329646 1.165901 0.059222 0.000805 484967.000000 0 1 0
20.620596 -8.462173 9.624565 24.278584 -0.389418 1.163180 0.073281 -0.007804 -173523.000000 0 1 0
-26.098694 -32.927219 5.077265 42.321652 0.900573 1.450538 0.022792 -0.003787 175417.000000 0 0 1
-26.861784 -34.038919 5.539365 43.713705 0.902707 1.443736 0.021499 0.001215 278325.000000 0 0 1
-26.747334 -34.065419 6.942065 43.864164 0.905160 1.411865 0.006517 0.020335 -367295.000000 0 0 1
-27.459924 33.279627 7.515365 43.795681 -0.880921 1.398342 0.009676 0.013796 37687.100000 0 0 1
-28.816074 33.272927 7.129965 44.590247 -0.857057 1.410207 0.030300 -0.001987 -257859.000000 0 0 1
-29.482364 32.065627 7.503265 44.200828 -0.827345 1.400216 0.041080 -0.005360 538214.000000 0 0 1
-31.014284 32.310027 7.629365 45.431606 -0.805857 1.402066 0.062369 -0.013219 408006.000000 0 0 1
-31.690724 32.422227 6.384765 45.785019 -0.796807 1.430889 0.050528 -0.016642 596607.000000 0 0 1
-33.102554 32.548027 6.576965 46.887201 -0.776952 1.430060 0.048139 -0.014475 637024.000000 0 0 1
-33.938964 32.613027 5.283065 47.364264 -0.765477 1.459023 0.054971 -0.007367 -203559.000000 0 0 1
-34.006354 31.395427 4.634265 46.514313 -0.745498 1.471000 0.050956 -0.009292 307665.000000 0 0 1
-34.809054 31.336627 3.454265 46.963670 -0.732950 1.497178 0.054745 -0.001231 203855.000000 0 0 1
-34.675529 30.045527 2.581165 45.954199 -0.713982 1.514599 0.051303 -0.007327 46445.000000 0 0 1
-34.790477 28.830727 3.358565 45.308587 -0.691995 1.496602 0.065769 -0.019711 402802.000000 0 0 1
-34.068188 27.801327 2.699365 44.054986 -0.684451 1.509485 0.050907 -0.011677 -179659.000000 0 0 1
-34.326731 26.480627 3.467965 43.492239 -0.657075 1.490974 0.076424 -0.020282 -383920.000000 0 0 1
-35.618871 25.982527 3.225565 44.206333 -0.630225 1.497765 0.080295 -0.019262 -329194.000000 0 0 1
-36.075824 25.129827 4.265665 44.172040 -0.608429 1.474076 0.087329 -0.020573 285706.000000 0 0 1
34.662214 24.761927 4.248065 42.809674 0.620311 1.471401 0.081406 -0.020973 34222.800000 0 0 1
34.064374 23.901727 3.271965 41.741824 0.611842 1.492330 0.066902 -0.010621 160240.000000 0 0 1
34.387544 22.548627 3.407665 41.262040 0.580386 1.488116 0.055466 -0.011590 -618576.000000 0 0 1
33.617084 21.629027 2.438465 40.048336 0.571717 1.509871 0.047680 -0.010149 -37907.900000 0 0 1
32.271714 21.386927 2.810065 38.817015 0.585261 1.498340 0.055172 -0.024518 214095.000000 0 0 1
31.942044 20.383027 3.724665 38.074074 0.567982 1.472813 0.040842 -0.002622 -428995.000000 0 0 1
32.460944 18.993427 3.425065 37.764987 0.529404 1.479977 0.039241 -0.010628 -773653.000000 0 0 1
31.894274 18.407327 2.333565 36.898779 0.523438 1.507512 0.035804 -0.014943 -11536.800000 0 0 1
32.304244 17.069527 2.052465 36.594338 0.486108 1.514680 0.024806 -0.012112 -339476.000000 0 0 1
31.779754 15.984627 3.041065 35.703069 0.466030 1.485516 0.042628 -0.018778 -951421.000000 0 0 1
30.395204 16.012727 3.120065 34.496531 0.484871 1.480227 0.053777 -0.011701 -728677.000000 0 0 1
29.945404 14.753927 3.592965 33.575512 0.457786 1.463580 0.078688 -0.016424 -92084.100000 0 0 1
28.417694 14.798327 3.815365 32.266280 0.480104 1.452273 0.076952 -0.018376 -40644.500000 0 0 1
27.636374 14.746627 2.632365 31.435037 0.490161 1.486958 0.062837 -0.017973 499599.000000 0 0 1
26.297994 15.165827 2.912865 30.497075 0.523104 1.475138 0.044608 -0.009040 641040.000000 0 0 1
25.298294 14.650327 1.825365 29.291086 0.524913 1.508438 0.055516 -0.016544 -292175.000000 0 0 1
25.463294 15.138927 0.489465 29.627791 0.536395 1.554275 0.054880 -0.012737 276374.000000 0 0 1
26.565894 14.513827 -0.145835 30.272416 0.500024 1.575614 0.055100 -0.010054 -637286.000000 0 0 1
26.915494 15.177527 -1.530435 30.937734 0.513449 1.620285 0.057415 -0.010203 8312.870000 0 0 1
27.515184 16.454527 -1.466635 32.093423 0.538960 1.616511 0.036779 -0.007372 597405.000000 0 0 1
28.767734 16.609427 -0.823635 33.228511 0.523608 1.595586 0.043417 -0.015585 -280676.000000 0 0 1
29.203124 18.106527 -0.694135 34.367872 0.555010 1.590995 0.044646 -0.002649 19419.400000 0 0 1
29.459634 18.781727 -1.948035 34.991687 0.567567 1.626496 0.031960 0.006528 505402.000000 0 0 1
30.364264 19.853727 -1.723435 36.319819 0.579078 1.618266 0.020785 0.018047 174337.000000 0 0 1
30.527994 20.826027 -2.947835 37.072517 0.598676 1.650396 0.028125 0.013256 -597137.000000 0 0 1
31.576354 21.719927 -2.872335 38.432690 0.602528 1.645603 -0.014266 0.022435 -313732.000000 0 0 1
31.493284 22.790827 -3.795535 39.059632 0.626438 1.668123 0.007000 0.016565 353346.000000 0 0 1
32.558344 23.921327 -3.475635 40.550656 0.633651 1.656613 -0.014105 0.019141 -10736.300000 0 0 1
32.359554 24.636727 -2.288235 40.735059 0.650721 1.627000 0.009201 0.016067 178894.000000 0 0 1
32.960414 24.078227 -1.140735 40.834436 0.630917 1.598736 0.017481 0.026023 -283425.000000 0 0 1
32.716994 25.007027 0.132565 41.179736 0.652618 1.567577 0.018705 0.001937 203993.000000 0 0 1
33.278984 26.342527 0.047165 42.443159 0.669577 1.569685 0.028743 0.003852 142860.000000 0 0 1
34.484284 26.473327 0.776665 43.481100 0.654728 1.552933 0.045351 -0.007689 686524.000000 0 0 1
35.511764 27.555627 0.276365 44.949687 0.659908 1.564648 0.033407 -0.003726 326602.000000 0 0 1
36.044264 27.526227 -1.031535 45.364592 0.652198 1.593537 0.016500 0.002411 -378540.000000 0 0 1
35.068704 27.756027 -1.993135 44.768109 0.669522 1.615332 0.011643 -0.003377 -586668.000000 0 0 1
35.461794 27.314927 -3.396235 44.890739 0.656344 1.646524 0.015138 -0.001470 637837.000000 0 0 1
-35.780818 28.175327 -4.016635 45.719244 -0.667037 1.658764 0.010446 -0.000096 607324.000000 0 0 1
-35.408153 27.786027 -5.358335 45.326728 -0.665364 1.689289 0.013065 -0.005229 -178321.000000 0 0 1
35.810704 27.902227 -6.506935 45.861542 0.661903 1.713159 0.014346 -0.007740 -295544.000000 0 0 1
34.693794 27.071327 -6.426035 44.472576 0.662608 1.715798 0.011851 0.003146 -902239.000000 0 0 1
33.634034 27.498927 -7.220735 44.040643 0.685376 1.735496 0.005627 -0.003485 231373.000000 0 0 1
32.414804 26.510127 -7.093335 42.471423 0.685525 1.738597 0.002815 0.010940 -16279.700000 0 0 1
32.544254 25.137127 -7.456335 41.792350 0.657683 1.750171 0.005744 0.010678 -51182.400000 0 0 1
33.623054 24.296727 -7.023735 42.073430 0.625747 1.738522 0.001173 0.010016 31122.900000 0 0 1
33.552734 22.814227 -7.398635 41.243360 0.597143 1.751162 -0.004793 0.016778 -309233.000000 0 0 1
32.576434 22.059927 -6.764635 39.920229 0.595242 1.741072 -0.010214 0.022882 -211323.000000 0 0 1
32.859424 20.709927 -7.048635 39.475639 0.562372 1.750316 0.014286 0.012308 -29532.500000 0 0 1
31.907004 19.690127 -6.403235 38.036291 0.552905 1.739947 0.026132 0.012041 -614703.000000 0 0 1
30.596584 19.762727 -6.865035 37.065416 0.573497 1.757086 0.021116 0.002872 -676805.000000 0 0 1
29.770744 19.007627 -5.995435 35.826419 0.568225 1.738934 0.054763 -0.002755 280901.000000 0 0 1
28.401794 18.707427 -6.681135 34.659303 0.582446 1.764777 0.036692 -0.004920 242377.000000 0 0 1
28.529094 17.765827 -7.703235 34.480047 0.556963 1.796109 0.033967 -0.006793 -46788.300000 0 0 1
27.443074 17.835927 -8.590935 33.838540 0.576322 1.827486 0.041363 -0.013429 -217127.000000 0 0 1
27.478294 16.669627 -9.634135 33.552193 0.545293 1.862035 0.049635 -0.012836 -95796.800000 0 0 1
26.590494 16.739627 -10.731835 33.203038 0.561853 1.899925 0.057739 -0.013336 205122.000000 0 0 1
26.726694 15.568227 -11.519335 33.005771 0.527450 1.927310 0.063770 -0.017837 -12724.000000 0 0 1
25.884494 15.619027 -12.822335 32.838595 0.542925 1.971933 0.062940 -0.014442 -311683.000000 0 0 1
24.488794 15.522727 -12.665135 31.639560 0.564953 1.982634 0.056624 -0.014026 -106859.000000 0 0 1
23.775594 15.454127 -13.853535 31.559933 0.576375 2.025237 0.052942 -0.014544 -445550.000000 0 0 1
23.736494 14.094127 -14.604035 31.230488 0.535829 2.057394 0.057941 -0.019286 -166916.000000 0 0 1
25.025594 13.701427 -15.081535 32.271693 0.500919 2.057065 0.063932 -0.025238 624856.000000 0 0 1
25.424694 14.203327 -16.308335 33.378307 0.509455 2.081270 0.066228 -0.029457 -792412.000000 0 0 1
26.773194 13.671727 -16.776135 34.426135 0.472131 2.079801 0.086668 -0.029722 -511784.000000 0 0 1
26.865894 12.267127 -17.161335 34.158016 0.428334 2.097180 0.090299 -0.030238 372905.000000 0 0 1
28.197684 11.888927 -17.511435 35.257713 0.399011 2.090554 0.076647 -0.024409 517570.000000 0 0 1
28.405884 10.429127 -17.975435 35.196267 0.351868 2.106818 0.053481 -0.015938 -401796.000000 0 0 1
27.692764 10.082927 -19.159035 35.151433 0.349180 2.147236 0.058862 -0.017429 35255.100000 0 0 1
27.944094 8.816627 -19.675035 35.294650 0.305624 2.162109 0.039639 -0.012375 280630.000000 0 0 1
29.312564 8.685427 -20.416035 36.762447 0.288062 2.159580 0.038561 -0.007384 -457985.000000 0 0 1
29.586514 9.637027 -21.440435 37.787913 0.314886 2.174128 0.042510 -0.014454 197782.000000 0 0 1
30.174944 9.025227 -22.584835 38.756377 0.290628 2.192891 0.028560 -0.006147 -881382.000000 0 0 1
31.599684 8.528527 -22.511035 39.724331 0.263612 2.173269 0.025904 -0.005667 -958611.000000 0 0 1
32.602854 9.540727 -22.419635 40.701494 0.284686 2.154156 0.032558 -0.008801 -11973.700000 0 0 1
33.884884 8.974827 -22.444935 41.623407 0.258917 2.140329 0.016903 -0.007431 -152264.000000 0 0 1
35.000124 10.033727 -22.294435 42.693398 0.279189 2.120223 0.034182 -0.013395 -29877.700000 0 0 1
34.873754 10.731727 -21.050735 42.124602 0.298534 2.094078 0.026656 -0.017998 238771.000000 0 0 1
35.910454 11.686627 -20.921035 43.172070 0.314628 2.076698 0.010691 -0.011753 -24657.200000 0 0 1
35.876954 12.559127 -19.637135 42.784396 0.336729 2.047642 0.008086 -0.011584 -274289.000000 0 0 1
-36.088134 11.773827 -18.511635 42.233364 -0.315364 2.024523 0.006691 -0.009236 235379.000000 0 0 1
36.107364 12.529527 -17.316535 41.959423 0.334006 1.996210 0.021902 -0.013566 -154312.000000 0 0 1
-35.528852 11.707827 -16.158435 40.748835 -0.318324 1.978538 0.018298 -0.009985 -1197790.000000 0 0 1
35.816874 10.720127 -15.842835 40.604987 0.290818 1.971612 0.017188 -0.015058 44969.400000 0 0 1
-35.933110 9.812127 -14.820535 40.088832 -0.266568 1.949474 0.011266 -0.024411 673204.000000 0 0 1
35.393884 8.498427 -14.714835 39.261644 0.235649 1.954966 0.044754 -0.023509 1475810.000000 0 0 1
34.144084 8.533427 -14.002035 37.877366 0.244907 1.949448 0.065327 -0.020200 1500160.000000 0 0 1
34.374914 8.114227 -12.680735 37.527009 0.231808 1.915491 0.059882 -0.015672 -476046.000000 0 0 1
33.343974 8.798327 -11.751635 36.432569 0.257985 1.899228 0.061103 -0.014518 -188927.000000 0 0 1
33.386144 10.227027 -11.652335 36.810374 0.297250 1.892887 0.067940 -0.017329 155142.000000 0 0 1
32.368704 10.758827 -10.839735 35.790854 0.320896 1.878492 0.050010 -0.014501 -709990.000000 0 0 1
32.602404 10.540827 -9.347135 35.516119 0.312707 1.837113 0.045714 -0.004920 -651438.000000 0 0 1
33.651094 11.288127 -8.809735 36.570881 0.323651 1.814084 0.042767 0.006929 -250842.000000 0 0 1
33.524434 12.713027 -8.733035 36.902231 0.362462 1.809716 0.041531 0.000017 -796471.000000 0 0 1
33.120614 13.186027 -7.330235 36.394762 0.378886 1.773593 0.032485 0.000680 -129674.000000 0 0 1
34.112914 12.935227 -6.341335 37.030036 0.362438 1.742893 0.055615 0.005428 474909.000000 0 0 1
33.722294 13.310427 -5.039835 36.602739 0.375935 1.708925 0.042974 0.009976 -579079.000000 0 0 1
34.817414 12.991927 -4.022435 37.379439 0.357143 1.678616 0.064215 0.006937 356699.000000 0 0 1
35.897434 13.942027 -4.217135 38.740032 0.370454 1.679870 0.066579 0.013226 102507.000000 0 0 1
-35.247752 13.565227 -3.419735 37.922473 -0.367381 1.661096 0.056463 0.004070 -318858.000000 0 0 1
-34.160013 14.647927 -3.393835 37.322732 -0.405088 1.661854 0.073174 -0.003918 39087.400000 0 0 1
-34.619347 15.792027 -2.676235 38.145111 -0.427966 1.641013 0.060321 0.000954 169091.000000 0 0 1
-33.680324 16.832527 -2.658735 37.746086 -0.463466 1.641292 0.078446 0.000289 -33498.000000 0 0 1
-34.036345 17.765427 -1.477735 38.422218 -0.481057 1.609266 0.065073 0.007804 564895.000000 0 0 1
-35.183944 18.606727 -1.622235 39.834054 -0.486454 1.611532 0.037911 0.015090 497207.000000 0 0 1
-35.389355 19.361627 -0.412635 40.341657 -0.500616 1.581025 0.016590 0.020113 602159.000000 0 0 1
35.585944 20.317527 -0.379935 40.979332 0.518780 1.580068 0.006758 0.014977 709378.000000 0 0 1
35.745524 21.507527 -1.134535 41.732522 0.541657 1.597986 0.028947 0.017810 -11746.400000 0 0 1
35.584044 21.326927 -2.522235 41.562287 0.539934 1.631519 0.002371 0.024283 -182109.000000 0 0 1
35.845914 22.607627 -3.363935 42.512944 0.562680 1.650006 0.033042 -0.006978 -399482.000000 0 0 1
-35.046892 22.759827 -3.755435 41.957093 -0.575961 1.660423 0.046025 0.006153 -245010.000000 0 0 1
-34.931227 23.850527 -4.627235 42.549378 -0.599079 1.679762 0.061492 -0.009830 206101.000000 0 0 1
-33.506594 24.304527 -5.051335 41.700334 -0.627548 1.692229 0.068043 -0.018673 156844.000000 0 0 1
-32.986494 23.377027 -5.949435 40.865510 -0.616531 1.716901 0.046846 -0.005476 69556.200000 0 0 1
-31.622644 23.729227 -6.222135 40.022278 -0.643749 1.726896 0.060018 0.001991 744245.000000 0 0 1
-30.953014 22.772627 -7.261435 39.107672 -0.634296 1.757558 0.053634 -0.017447 72147.900000 0 0 1
-31.502964 22.848927 -8.599235 39.855452 -0.627501 1.788267 0.062987 -0.024857 -215339.000000 0 0 1
-30.526004 22.553927 -9.559435 39.139485 -0.636322 1.817532 0.033879 -0.026453 131322.000000 0 0 1
-31.126494 22.261827 -10.981935 39.812692 -0.620858 1.850260 0.031330 -0.005263 15505.900000 0 0 1
-31.703314 23.442427 -11.456535 41.059709 -0.636703 1.853571 0.033316 -0.008484 -82945.900000 0 0 1
-32.176094 23.220727 -12.783035 41.688237 -0.625126 1.882451 0.007791 -0.005936 -226404.000000 0 0 1
-32.694304 24.546527 -13.386835 43.019261 -0.644006 1.887233 0.034997 -0.010326 294036.000000 0 0 1
-31.675234 25.499627 -13.674935 42.901693 -0.677803 1.895207 0.027684 -0.012210 -277722.000000 0 0 1
-30.886284 25.209727 -14.809535 42.530168 -0.684548 1.926460 0.022588 -0.009725 -52879.700000 0 0 1
-29.521794 25.943427 -14.642335 41.940382 -0.720972 1.927431 0.011530 -0.007731 800619.000000 0 0 1
-28.514734 25.380127 -13.749735 40.574574 -0.727302 1.916518 0.019941 -0.013985 538206.000000 0 0 1
-28.830724 25.213327 -12.396035 40.256480 -0.718564 1.883809 0.035911 -0.008727 -966375.000000 0 0 1
-29.115854 26.460427 -11.495035 40.988083 -0.737655 1.855057 0.051203 -0.005510 -554583.000000 0 0 1
-27.941194 27.127927 -11.151235 40.509070 -0.770631 1.849675 0.040598 -0.009358 -772811.000000 0 0 1
-28.145604 28.309427 -10.457735 41.266971 -0.788300 1.827007 0.032697 -0.016356 -873505.000000 0 0 1
-26.972494 29.186327 -10.220135 41.034233 -0.824799 1.822510 0.042443 -0.021528 -946397.000000 0 0 1
-27.385904 30.411227 -9.627135 42.041791 -0.837694 1.801836 0.018458 -0.019069 268606.000000 0 0 1
-26.279884 31.238227 -9.270135 41.861611 -0.871390 1.794095 0.028455 -0.014984 115435.000000 0 0 1
34.103194 -25.131643 33.889306 54.250460 -0.635083 0.896072 -0.007741 0.000194 -108350.000000 0 0 1
33.844954 -23.799373 34.233605 53.701311 -0.612863 0.879571 -0.007361 -0.005877 135945.000000 0 0 1
33.139064 -23.680973 -33.027775 52.438726 -0.620454 2.252138 -0.004951 0.000105 46944.700000 0 0 1
32.805034 -22.190573 -32.646375 51.326188 -0.594737 2.260174 -0.006858 0.005171 -275029.000000 0 0 1
31.807484 -21.666573 -33.455785 50.994568 -0.597982 2.286390 -0.007409 -0.003156 -340883.000000 0 0 1
31.612644 -20.248573 -33.234115 50.138512 -0.569683 2.295410 -0.012203 0.002538 173705.000000 0 0 1
31.237434 -19.530173 33.960279 50.104945 -0.558755 0.826053 -0.017050 0.007670 629399.000000 0 0 1
32.436124 -19.345173 33.198498 50.283975 -0.537774 0.849684 0.001450 -0.003744 595320.000000 0 0 1
32.240404 -18.546873 32.030705 49.085601 -0.522036 0.859854 0.007378 0.005046 456123.000000 0 0 1
33.436004 -18.549373 30.978895 49.211153 -0.506500 0.889874 0.000977 0.012128 429921.000000 0 0 1
34.456844 -17.649473 31.329165 49.802556 -0.473375 0.890443 -0.001565 -0.006469 -172752.000000 0 0 1
35.320514 -17.538573 30.230225 49.689101 -0.460888 0.916769 0.008481 0.001110 -1082850.000000 0 0 1
-35.853200 -16.487573 30.313105 49.761193 0.431026 0.915781 0.011444 -0.006467 -1533520.000000 0 0 1
-34.959055 -16.534673 29.256035 48.491716 0.441793 0.923138 0.024196 -0.002485 634099.000000 0 0 1
-33.830104 -15.656073 29.418865 47.487453 0.433435 0.902680 0.027690 -0.013637 1443170.000000 0 0 1
-32.677614 -16.046873 30.416435 47.439310 0.456475 0.874781 0.047189 -0.025268 -124208.000000 0 0 1
-31.673614 -15.121873 30.763325 46.671951 0.445428 0.851122 0.045900 -0.028101 87963.000000 0 0 1
-30.636584 -15.832473 31.408345 46.644953 0.476984 0.832067 0.048952 -0.032471 -384030.000000 0 0 1
-29.564294 -14.888173 31.897915 45.969361 0.466513 0.803912 0.050687 -0.034997 -505519.000000 0 0 1
-30.028734 -14.254273 33.024422 46.856393 0.443194 0.788654 0.060038 -0.037358 393451.000000 0 0 1
-29.038464 -13.332073 33.416272 46.234444 0.430410 0.763013 0.053803 -0.034512 -67887.000000 0 0 1
-29.324354 -12.642973 -33.749765 46.462987 0.407062 2.383836 0.049102 -0.017917 -239620.000000 0 0 1
-29.204244 -13.538573 -32.676495 45.868662 0.434091 2.363698 0.062310 -0.019267 271225.000000 0 0 1
-29.382804 -12.853273 -31.434895 44.907777 0.412362 2.346177 0.062956 -0.010440 -331460.000000 0 0 1
-29.598144 -13.892973 -30.275895 44.561134 0.438858 2.317773 0.064161 -0.013265 -282968.000000 0 0 1
-30.744144 -14.684473 -30.408235 45.667241 0.445596 2.299449 0.064684 -0.013823 -354402.000000 0 0 1
-31.144824 -15.218173 -29.177055 45.308866 0.454507 2.270458 0.054581 -0.005615 -408032.000000 0 0 1
-32.413604 -16.021473 -29.242105 46.501936 0.459063 2.250852 0.053006 -0.014141 -741774.000000 0 0 1
-32.095194 -17.285673 -29.796565 47.082175 0.494029 2.256042 0.053958 -0.016634 380623.000000 0 0 1
-33.169524 -18.209773 -29.719585 48.115142 0.502068 2.236581 0.043081 -0.012403 95471.600000 0 0 1
-32.884364 -19.483873 -30.544025 48.927908 0.534884 2.244988 0.036541 -0.013324 770837.000000 0 0 1
-33.982614 -20.411873 -30.476145 50.002580 0.540902 2.226215 0.018492 -0.014311 753198.000000 0 0 1
-33.500634 -21.626473 -31.016435 50.517483 0.573243 2.231882 0.010109 -0.014703 375812.000000 0 0 1
-34.629824 -22.665073 -31.327925 51.907313 0.579529 2.218725 -0.004752 -0.010508 -29563.500000 0 0 1
-35.350114 -23.093273 -30.212465 51.920351 0.578673 2.191860 0.001194 -0.004216 -150763.000000 0 0 1
35.904994 -24.062573 -30.566835 52.938714 -0.590426 2.186337 0.006169 -0.008405 14971.500000 0 0 1
-35.840127 -25.446413 -31.158315 53.878337 0.617404 2.187450 0.003048 -0.006614 -67035.100000 0 0 1
-35.394773 -25.390783 -32.517975 54.358997 0.622282 2.212059 -0.003406 -0.007398 51826.500000 0 0 1
-34.670943 -26.606673 -32.830535 54.661077 0.654548 2.215073 -0.005268 -0.007552 311549.000000 0 0 1
-35.276496 -27.473703 -34.004875 56.174434 0.661686 2.220995 0.000238 -0.011274 264048.000000 0 0 1
35.690624 -28.014613 -33.688825 56.511734 -0.665484 2.209479 0.003975 -0.002374 -207670.000000 0 0 1
35.490384 -29.269603 34.227792 57.339505 -0.689633 0.931125 0.008672 -0.002310 -302172.000000 0 0 1
-36.101104 -30.498663 -33.625025 58.000866 0.701475 2.189197 0.014519 -0.006956 -158923.000000 0 0 1
35.486134 -30.924913 -32.476755 57.187023 -0.716824 2.174754 0.010882 -0.003157 -9573.910000 0 0 1
-35.764915 -31.232353 -31.485765 56.973173 0.717848 2.156327 0.011935 -0.016177 135851.000000 0 0 1
35.937774 -31.765473 -30.155345 56.656101 -0.723850 2.132055 0.007632 -0.005922 -332500.000000 0 0 1
35.334284 -32.998733 -30.324385 57.070100 -0.751233 2.130994 0.025641 -0.005838 -13728.000000 0 0 1
34.870734 -33.467003 -29.057935 56.394787 -0.764860 2.112106 0.027369 -0.008634 -130556.000000 0 0 1
33.867214 33.957870 -29.070205 56.082100 0.786735 2.115718 0.036715 -0.014820 27910.300000 0 0 1
32.580994 -34.132526 -29.353205 55.571226 -0.808651 2.127286 0.034247 -0.004736 -188491.000000 0 0 1
31.602304 33.531700 -28.907655 54.394237 0.815011 2.131104 0.034581 -0.008836 -619128.000000 0 0 1
30.311764 33.846333 -29.612985 54.233810 0.840434 2.148408 0.020276 0.006018 -1043040.000000 0 0 1
30.198594 33.495321 -30.948765 54.696597 0.837111 2.172231 0.023784 0.014732 -236073.000000 0 0 1
28.953434 33.941647 -31.446255 54.582082 0.864543 2.184780 0.010950 0.012915 40673.600000 0 0 1
28.648754 33.396563 -32.822615 54.894495 0.861771 2.211702 0.015738 0.004087 -117006.000000 0 0 1
28.249314 32.069733 -32.940555 53.958981 0.848651 2.227455 0.012985 0.010389 -142759.000000 0 0 1
28.011024 31.832733 34.197530 54.473952 0.849173 0.892101 0.015155 0.008870 10054.500000 0 0 1
27.847354 30.359863 33.851579 53.320970 0.828536 0.882963 0.020069 0.002267 -323603.000000 0 0 1
29.031714 29.621743 33.952739 53.601087 0.795457 0.884814 0.022604 0.007901 -547350.000000 0 0 1
28.849184 28.256003 34.004179 52.791678 0.775011 0.870924 0.024721 0.004474 -169012.000000 0 0 1
30.168384 27.517683 -34.245268 53.292520 0.739480 2.268671 0.036532 -0.007017 -73869.600000 0 0 1
30.710534 27.806383 -32.978295 52.951863 0.735810 2.243110 0.037287 -0.000863 -1041600.000000 0 0 1
31.831424 27.036223 -32.753915 53.075567 0.704120 2.235872 0.043568 -0.013387 -440041.000000 0 0 1
32.435744 27.248493 -31.322695 52.684619 0.698704 2.207480 0.047518 -0.011985 -158544.000000 0 0 1
33.197464 28.450303 -31.134405 53.673481 0.708545 2.189612 0.027734 -0.010686 -111780.000000 0 0 1
32.635274 29.741213 -31.101835 54.008564 0.739035 2.184463 0.052344 -0.006193 -728643.000000 0 0 1
31.764384 29.987883 -29.914035 52.944298 0.756638 2.171241 0.051037 0.002717 -610985.000000 0 0 1
32.482754 30.227733 -28.768695 52.881783 0.749454 2.146016 0.030296 -0.004748 -659057.000000 0 0 1
31.653994 30.276593 -27.665445 51.807570 0.763161 2.134126 0.038051 -0.006545 -552281.000000 0 0 1
32.386884 30.642873 -26.396005 51.813560 0.757736 2.105333 0.050969 -0.019031 -156201.000000 0 0 1
32.845134 31.990663 -26.286565 52.850628 0.772220 2.091366 0.053496 -0.014023 75651.400000 0 0 1
33.366054 32.148703 -24.988335 52.642659 0.766819 2.065395 0.044959 -0.027181 28115.900000 0 0 1
33.738024 33.621089 -24.700735 53.654060 0.783662 2.049209 0.049360 -0.026142 192613.000000 0 0 1
32.555304 -34.220012 -24.571835 53.241264 -0.810323 2.050503 0.050632 -0.019974 328216.000000 0 0 1
32.724964 -32.793693 -24.475835 52.396718 -0.786447 2.056833 0.038899 -0.018113 -730256.000000 0 0 1
33.285774 -32.050013 -25.721145 52.884056 -0.766486 2.078725 0.031014 -0.014686 -234269.000000 0 0 1
34.612584 -32.267463 -26.116195 54.048828 -0.750348 2.075098 0.041661 -0.016796 -1281960.000000 0 0 1
35.434704 -31.400903 -25.472445 53.763188 -0.725117 2.064386 0.037221 -0.014426 -333981.000000 0 0 1
-35.315886 -31.691073 -25.971645 54.093089 0.731355 2.071598 0.018360 -0.014749 931240.000000 0 0 1
-34.751179 -32.997973 -25.754245 54.403969 0.759526 2.063931 0.018854 -0.017629 49994.600000 0 0 1
-34.585780 -33.347183 -24.428735 53.897810 0.767168 2.041195 0.021151 -0.013772 663051.000000 0 0 1
-33.272874 -32.770853 -23.717735 52.378850 0.777797 2.040712 0.002547 -0.009421 942222.000000 0 0 1
-33.323934 -31.356953 -23.484635 51.432200 0.754997 2.044981 -0.022011 -0.002655 -311907.000000 0 0 1
-32.797684 -30.897923 -22.271135 50.263040 0.755581 2.029841 -0.004220 -0.006713 -493619.000000 0 0 1
-32.629074 -29.373493 -22.196735 49.195057 0.732939 2.038904 -0.008658 0.006187 835407.000000 0 0 1
-33.892614 -28.712913 -22.395435 49.746318 0.702851 2.037778 -0.026437 0.014911 441534.000000 0 0 1
-34.268166 -28.487073 -23.775335 50.508287 0.693536 2.060905 -0.016770 0.006683 -289571.000000 0 0 1
-35.330633 -27.443373 -24.095635 50.813305 0.660408 2.064851 -0.021015 0.013286 12023.200000 0 0 1
-35.006914 -26.070053 -23.701535 49.667842 0.640108 2.068263 -0.036000 0.019163 -430288.000000 0 0 1
-35.971060 -25.209853 -24.272735 50.185850 0.611288 2.075624 -0.008152 0.018948 1590.730000 0 0 1
-35.678710 -24.613173 -25.635695 50.358390 0.603885 2.104895 0.002991 0.011455 -429660.000000 0 0 1
-34.541664 -23.771773 -25.665885 49.162601 0.602766 2.120062 -0.006919 0.004405 -123540.000000 0 0 1
-34.418173 -23.158173 -26.924285 49.455320 0.592269 2.146489 0.013627 -0.005543 310434.000000 0 0 1
-33.186004 -22.197673 -26.987615 48.191067 0.589538 2.165198 0.011954 -0.012917 158070.000000 0 0 1
-33.243244 -21.112973 -25.991285 47.184932 0.565833 2.154165 0.023438 -0.002370 687524.000000 0 0 1
-34.218033 -20.064273 -26.283385 47.584295 0.530334 2.155982 0.016529 -0.003184 139256.000000 0 0 1
-35.514912 -20.044473 -25.507275 48.101049 0.513829 2.129733 0.015774 -0.002950 -519486.000000 0 0 1
-35.424794 -19.556573 -24.168735 47.132826 0.504423 2.109215 0.018391 -0.005663 -10748.400000 0 0 1
-34.567998 -20.246373 -23.256935 46.322210 0.529836 2.096786 0.002736 0.002197 49273.400000 0 0 1
-35.212512 -21.484573 -22.605035 47.037171 0.547842 2.072110 0.016504 0.004263 60668.800000 0 0 1
-36.095154 -21.101673 -21.588935 47.055529 0.529028 2.047437 0.010056 0.000836 -205122.000000 0 0 1
35.660394 -22.185073 -20.766635 46.851834 -0.556526 2.030007 0.003231 0.014194 -414348.000000 0 0 1
34.579694 -21.806073 -19.783635 45.416432 -0.562619 2.021507 0.007462 0.000919 871277.000000 0 0 1
33.297934 -21.501073 -20.413635 44.584359 -0.573359 2.046389 0.056034 0.000978 1864900.000000 0 0 1
32.166204 -21.601873 -19.509835 43.381324 -0.591390 2.037258 0.054411 -0.006414 1368650.000000 0 0 1
30.802144 -21.149273 -20.103835 42.429094 -0.601687 2.064422 0.043144 -0.009869 44168.500000 0 0 1
30.277564 -21.916773 -21.206435 42.974280 -0.626562 2.086869 0.043651 -0.006501 107866.000000 0 0 1
29.082294 -21.467573 -21.791435 42.207857 -0.635885 2.113308 0.068348 -0.011891 -74741.600000 0 0 1
29.129684 -20.093673 -22.589135 41.982892 -0.603848 2.138925 0.066255 -0.022576 -553701.000000 0 0 1
29.557534 -19.032073 -21.766735 41.348016 -0.572074 2.125190 0.066618 -0.019707 83862.100000 0 0 1
29.379084 -17.795873 -22.419635 41.017846 -0.544624 2.149074 0.062904 -0.026885 215070.000000 0 0 1
30.217464 -16.731973 -21.612535 40.745009 -0.505694 2.129909 0.061963 -0.031461 -89070.000000 0 0 1
29.613124 -16.363273 -20.295835 39.453957 -0.504813 2.111125 0.058262 -0.028525 718930.000000 0 0 1
30.550224 -15.989073 -19.292435 39.511577 -0.482168 2.080906 0.041672 -0.023378 918131.000000 0 0 1
31.815534 -16.936273 -19.072735 40.777871 -0.489174 2.057509 0.047650 -0.025239 125981.000000 0 0 1
32.833774 -16.798673 -20.015735 41.962862 -0.472907 2.068020 0.042898 -0.023398 -780143.000000 0 0 1
33.750704 -17.818473 -19.798735 42.995324 -0.485752 2.049339 0.042763 -0.021272 -368538.000000 0 0 1
34.888864 -17.953073 -20.823535 44.420325 -0.475243 2.058710 0.025613 -0.019288 -56367.800000 0 0 1
35.828764 -16.912773 -20.781835 44.739545 -0.441034 2.053874 0.035353 -0.015953 10711.300000 0 0 1
-35.304434 -17.223373 -21.610635 44.833773 0.453883 2.073752 0.025019 0.001730 275221.000000 0 0 1
-34.335910 -16.030373 -21.858735 43.746221 0.436793 2.094016 0.019979 0.001633 186750.000000 0 0 1
-33.574914 -15.725873 -20.702335 42.463686 0.438035 2.080055 0.017446 -0.001473 -333521.000000 0 0 1
-32.659324 -14.703373 -20.843235 41.439849 0.423024 2.097835 0.014147 -0.004306 -687439.000000 0 0 1
-31.613574 -14.662373 -19.728535 40.045203 0.434271 2.085936 0.017222 -0.012495 432138.000000 0 0 1
-30.513134 -15.593173 -19.877335 39.614477 0.472434 2.096440 0.007920 -0.005762 675523.000000 0 0 1
-30.731904 -16.910673 -19.412535 40.090738 0.503046 2.076262 0.002420 -0.005475 -406265.000000 0 0 1
-29.755794 -18.005673 -19.850535 40.045665 0.544172 2.089434 -0.004526 -0.013567 -442339.000000 0 0 1
-30.198314 -19.278373 -19.455535 40.769004 0.568172 2.068278 0.004033 -0.013984 -90334.900000 0 0 1
-29.273394 -20.331373 -19.617935 40.683654 0.607048 2.073968 0.003979 -0.016983 -362068.000000 0 0 1
-29.842884 -21.724173 -19.236335 41.624200 0.629240 2.051207 0.011298 -0.002604 453343.000000 0 0 1
-30.851064 -22.163873 -20.201635 43.024777 0.622979 2.059560 -0.002451 -0.000089 789768.000000 0 0 1
-31.249804 -23.473073 -19.902635 43.859438 0.644232 2.041802 -0.001482 0.011932 180084.000000 0 0 1
-32.225444 -24.129773 -20.913935 45.366484 0.642720 2.049918 -0.020808 0.016975 164157.000000 0 0 1
-31.564664 -24.188673 -22.145935 45.517715 0.653865 2.078915 -0.014212 0.009454 146782.000000 0 0 1
-32.170304 -25.184903 -22.964435 46.867612 0.664203 2.082869 -0.016636 0.005988 -251704.000000 0 0 1
-31.616054 -25.168673 -24.424335 47.218483 0.672342 2.114445 -0.013872 0.008216 511668.000000 0 0 1
-30.233894 -25.501933 -24.529835 46.541914 0.700701 2.125920 -0.011166 -0.004410 47052.200000 0 0 1
-30.014964 -26.144403 -25.766125 47.416464 0.716586 2.145279 -0.004308 0.002646 -224903.000000 0 0 1
-28.545844 -26.351703 -26.139635 46.824758 0.745452 2.163064 0.011830 -0.006607 -1576.680000 0 0 1
-27.840854 -25.150283 -26.473815 45.918545 0.734668 2.185282 0.019066 -0.013315 -243253.000000 0 0 1
-26.467944 -25.352833 -26.686585 45.337534 0.763883 2.200147 0.025063 -0.009525 -128321.000000 0 0 1
-25.719124 -24.018773 -26.863215 44.271968 0.751225 2.222796 0.039424 -0.003502 -508436.000000 0 0 1
-25.976254 -23.478373 -28.160705 44.933563 0.734933 2.248132 0.031775 -0.008435 -55847.400000 0 0 1
-25.238924 -22.321073 -28.395585 44.062942 0.724124 2.271077 0.041567 -0.017309 -88414.800000 0 0 1
-25.256574 -22.096973 -29.925795 44.963585 0.718773 2.299035 0.036511 -0.013196 159286.000000 0 0 1
-24.565904 -23.122273 -30.675125 45.597000 0.755135 2.308708 0.051408 -0.018308 446609.000000 0 0 1
-24.293404 -22.755673 -31.994505 46.169671 0.752726 2.336406 0.055870 -0.016367 -177463.000000 0 0 1
-23.965004 -23.997873 -32.839265 47.208438 0.786083 2.340083 0.046700 -0.017063 -325901.000000 0 0 1
-25.072314 -24.801273 -33.093355 48.362115 0.779964 2.324416 0.021889 -0.015444 -467582.000000 0 0 1
-24.710504 -25.791693 -33.982365 49.301334 0.806804 2.331289 0.056147 -0.013682 184070.000000 0 0 1
-19.481504 -14.471373 -12.041435 27.091434 0.638894 2.031383 0.012553 0.020242 94044.900000 0 0 1
-19.939804 -14.100173 -10.807335 26.705976 0.615500 1.987424 0.007708 0.017930 -194430.000000 0 0 1
-19.240304 -14.789973 -9.816835 26.178290 0.655361 1.955192 0.007754 0.004930 -92860.000000 0 0 1
-19.601904 -14.138573 -8.429235 25.596599 0.624869 1.906370 0.031827 -0.007099 356643.000000 0 0 1
-20.812104 -14.630273 -7.858435 26.625994 0.612716 1.870400 0.036751 -0.010576 377262.000000 0 0 1
-21.166604 -13.929673 -6.655735 26.198468 0.582046 1.827662 0.049734 -0.022068 91100.400000 0 0 1
-22.338104 -14.552073 -5.861135 27.296641 0.577391 1.787201 0.038015 -0.024629 -235691.000000 0 0 1
-22.128504 -15.894873 -5.470735 27.789326 0.622902 1.768955 0.027848 -0.021293 420009.000000 0 0 1
-21.382704 -16.099573 -4.272735 27.104843 0.645371 1.729094 0.040181 -0.019315 -269294.000000 0 0 1
-21.327204 -17.593073 -3.920635 27.923775 0.689748 1.711667 0.023032 -0.010937 414123.000000 0 0 1
-22.516804 -18.246573 -3.448335 29.186211 0.681022 1.689222 0.025009 -0.006660 626561.000000 0 0 1
-22.265104 -19.236373 -2.481635 29.528485 0.712548 1.654938 0.019811 -0.000064 312154.000000 0 0 1
-23.492304 -20.187673 -2.315135 31.061074 0.709887 1.645400 0.006182 -0.009893 275003.000000 0 0 1
-23.575304 -21.148573 -3.312235 31.843806 0.731191 1.675000 -0.005233 -0.022190 154939.000000 0 0 1
-24.658504 -22.060773 -3.204135 33.241330 0.729852 1.667336 0.010058 -0.017981 42998.400000 0 0 1
-24.595604 -23.124973 -4.277535 34.029479 0.754590 1.696831 0.006479 -0.011470 -20644.500000 0 0 1
-23.525904 -24.081573 -4.155335 33.921337 0.797070 1.693604 0.006404 -0.010767 203541.000000 0 0 1
-23.425904 -24.893373 -5.307835 34.592284 0.815759 1.724845 0.009218 -0.017390 -159834.000000 0 0 1
-22.005904 -24.867173 -5.897035 33.725526 0.846365 1.746554 0.020173 -0.016699 -2540.490000 0 0 1
-21.542004 -23.623273 -6.484035 32.621460 0.831447 1.770895 0.006288 -0.011755 200733.000000 0 0 1
-21.108804 -22.639673 -5.556235 31.448500 0.820376 1.748406 0.006390 -0.007536 -726857.000000 0 0 1
-21.350704 -21.220073 -6.056035 30.705368 0.782330 1.769328 0.007339 0.001725 -398460.000000 0 0 1
-20.295504 -20.703173 -6.812635 29.781552 0.795341 1.801593 0.004771 0.005644 -376160.000000 0 0 1
-20.621604 -19.519673 -7.542735 29.379602 0.757954 1.830437 -0.002113 0.000496 73293.800000 0 0 1
-19.475904 -18.984273 -8.426535 28.473144 0.772616 1.871243 0.011634 -0.000007 -422506.000000 0 0 1
-19.310704 -19.905973 -9.457935 29.301938 0.800576 1.899456 -0.004048 0.001265 316836.000000 0 0 1
-18.124604 -19.811573 -10.270835 28.748735 0.829838 1.936131 0.057860 0.002039 754028.000000 0 0 1
-17.751504 -18.392673 -10.843135 27.766525 0.803136 1.971983 0.048766 0.008084 -474660.000000 0 0 1
-17.354604 -17.378073 -9.983335 26.511256 0.786074 1.956887 0.036963 0.000857 -317260.000000 0 0 1
-15.997504 -17.388973 -9.603935 25.505530 0.827052 1.956858 0.069398 -0.001585 -366738.000000 0 0 1
-15.744204 -16.261073 -8.684635 24.243047 0.801546 1.937170 0.055220 0.003836 -280880.000000 0 1 0
-16.462204 -16.345073 -7.485235 24.376101 0.781828 1.882912 0.042160 0.001383 -88643.700000 0 1 0
-16.414204 -15.165473 -6.692935 23.328374 0.745877 1.861787 0.040394 -0.004523 -152006.000000 0 1 0
-17.481004 -15.264873 -5.591235 23.871819 0.717825 1.807212 0.067294 -0.010630 -106209.000000 0 1 0
-17.338404 -14.231373 -4.672335 22.912506 0.687296 1.776157 0.033464 -0.006192 418083.000000 0 1 0
-18.095504 -14.527873 -3.485335 23.466016 0.676473 1.719875 0.047786 -0.008668 179752.000000 0 1 0
-18.824504 -13.256273 -2.916935 23.207741 0.613541 1.696818 0.048142 -0.010647 1079800.000000 0 1 0
-20.110904 -12.990673 -3.529635 24.200503 0.573524 1.717168 0.069133 -0.025691 1172690.000000 0 1 0
-20.739904 -11.895973 -2.833235 24.076649 0.520766 1.688745 0.071027 -0.013498 -112729.000000 0 1 0
-22.276504 -11.814073 -2.967035 25.389333 0.487622 1.687925 0.058911 -0.014677 -112662.000000 0 0 1
-22.669204 -11.351673 -4.244835 25.705484 0.464250 1.736690 0.067706 -0.029088 -664004.000000 0 0 1
-24.056104 -11.349873 -4.177635 26.925237 0.440841 1.726583 0.062062 -0.018111 -889380.000000 0 0 1
-24.696204 -10.885473 -5.492535 27.542040 0.415156 1.771566 0.075798 -0.025046 -268608.000000 0 0 1
-24.181004 -11.561073 -6.604335 27.604286 0.445979 1.812390 0.063050 -0.032945 194320.000000 0 0 1
-24.675504 -10.990373 -7.819035 28.121275 0.419019 1.852557 0.076942 -0.034969 -204673.000000 0 0 1
-23.913404 -11.427373 -9.090235 28.019067 0.445783 1.901206 0.082559 -0.038197 242123.000000 0 0 1
-22.706204 -10.685873 -9.213135 26.732778 0.439864 1.922650 0.071607 -0.029892 455095.000000 0 0 1
-21.805304 -11.164473 -10.227335 26.546471 0.473207 1.966288 0.051496 -0.021168 807929.000000 0 0 1
-20.461404 -10.379173 -10.014835 25.033841 0.469436 1.982370 0.043114 -0.019454 153001.000000 0 0 1
-20.517304 -9.095473 -10.609435 24.824333 0.417274 2.012390 0.053964 -0.026008 245887.000000 0 1 0
-19.517904 -8.266373 -10.073435 23.468182 0.400623 2.014445 0.048487 -0.018187 -128889.000000 0 1 0
-19.317604 -7.029573 -10.929635 23.281788 0.348999 2.059464 0.030093 -0.023210 -162628.000000 0 1 0
-18.800804 -7.262073 -12.231635 23.575853 0.368609 2.116267 0.037322 -0.015808 553860.000000 0 1 0
-18.530004 -6.011773 -12.852335 23.338487 0.313720 2.153990 0.039785 -0.027071 -320328.000000 0 1 0
-18.124704 -6.078473 -14.368835 23.914768 0.323582 2.215342 0.049881 -0.018197 257426.000000 0 1 0
-19.146704 -6.554573 -15.246235 25.337845 0.329829 2.216447 0.062206 -0.031458 936165.000000 0 0 1
-18.532104 -6.689773 -16.527335 25.716624 0.346425 2.268776 0.066630 -0.034603 116194.000000 0 0 1
-19.330004 -7.656273 -17.416535 27.122007 0.377125 2.268103 0.050119 -0.029223 -116122.000000 0 0 1
-20.481804 -7.080473 -18.003635 28.173893 0.332835 2.264018 0.050637 -0.037327 210536.000000 0 0 1
-21.059404 -7.976273 -18.932835 29.420599 0.362055 2.269889 0.043110 -0.032013 -939293.000000 0 0 1
-22.460704 -7.624973 -19.359935 30.617487 0.327273 2.255336 0.042418 -0.028401 -1221090.000000 0 0 1
-22.529404 -6.411673 -20.133935 30.887844 0.277261 2.280805 0.045305 -0.027956 1600000.000000 0 0 1
-23.841804 -6.236073 -20.758435 32.221621 0.255829 2.270825 0.035851 -0.019491 2176850.000000 0 0 1
-25.056384 -5.726573 -19.904635 32.508622 0.224688 2.229747 0.046696 -0.020028 80520.500000 0 0 1
-24.983104 -4.372473 -19.487035 31.984661 0.173262 2.225926 0.052743 -0.024180 -265243.000000 0 0 1
-26.021894 -4.213573 -18.571735 32.245969 0.160531 2.184550 0.073282 -0.016534 -637722.000000 0 0 1
-26.036934 -2.759573 -18.007335 31.777370 0.105593 2.173257 0.066529 -0.016692 151506.000000 0 0 1
-26.430534 -1.616773 -18.869835 32.515500 0.061095 2.189935 0.083345 -0.018246 334568.000000 0 0 1
-27.708894 -1.798973 -19.439135 33.895414 0.064833 2.181572 0.094590 -0.013424 -213808.000000 0 0 1
-28.280204 -0.763973 -20.403835 34.880798 0.027008 2.195626 0.090655 -0.011520 118758.000000 0 0 1
-27.585254 -0.746973 -21.664235 35.083376 0.027072 2.236366 0.086177 -0.010797 108196.000000 0 0 1
-28.002514 -1.680173 -22.617035 36.034623 0.059929 2.249324 0.085019 0.000328 -84149.800000 0 0 1
-27.273004 -1.605073 -23.997135 36.362831 0.058784 2.291530 0.076794 0.001977 -400571.000000 0 0 1
-27.397794 -0.348173 -24.691035 36.883703 0.012707 2.304237 0.084628 0.005310 734511.000000 0 0 1
-26.592914 0.829127 -24.317535 36.044598 -0.031168 2.311289 0.075701 -0.000486 529242.000000 0 0 1
-25.082894 0.697227 -24.044435 34.753022 -0.027790 2.334867 0.075257 -0.002743 -256866.000000 0 0 1
-24.276104 0.450527 -25.164965 34.968667 -0.018556 2.374085 0.060901 0.006114 193015.000000 0 0 1
-22.900104 0.451427 -24.771235 33.737703 -0.019710 2.395328 0.041392 0.003375 391326.000000 0 0 1
-22.010104 0.014527 -25.935565 34.016149 -0.000660 2.437885 0.037533 0.004084 -399473.000000 0 0 1
-22.031504 1.006627 -26.997515 34.860669 -0.045659 2.456627 0.020699 0.007020 -47966.500000 0 0 1
-21.618204 0.450827 -28.173565 35.514782 -0.020851 2.486992 0.002759 0.007766 -191135.000000 0 0 1
-21.520804 1.547727 -29.247745 36.345165 -0.071794 2.506003 0.009453 0.008297 332822.000000 0 0 1
-20.313504 2.333027 -29.266905 35.702005 -0.114350 2.531780 0.015962 0.010380 850748.000000 0 0 1
-20.242404 3.205427 -30.406565 36.668636 -0.157048 2.548517 0.004847 0.009696 -222682.000000 0 0 1
-19.693204 2.513327 -31.692565 37.397296 -0.126938 2.581971 -0.000138 0.010230 -987467.000000 0 0 1
-18.301604 2.580027 -31.671725 36.670198 -0.140050 2.613344 -0.010547 0.010979 -620694.000000 0 0 1
-17.756004 1.690927 -32.664655 37.217128 -0.094945 2.641792 -0.012484 0.019182 938211.000000 0 0 1
-16.191004 1.753427 -32.606925 36.447698 -0.107876 2.678382 -0.000118 -0.000008 621980.000000 0 0 1
-15.544004 2.906427 -33.062625 36.649700 -0.184846 2.695467 0.008764 0.007268 -353032.000000 0 0 1
-14.161204 2.686527 -33.223215 36.215178 -0.187482 2.732253 0.016692 -0.002738 -165165.000000 0 0 1
-13.545104 4.063027 -33.587305 36.442902 -0.291423 2.743087 0.022701 0.000794 -545198.000000 0 0 1
-13.309204 4.905827 -32.502875 35.463205 -0.353152 2.730098 0.032193 -0.008023 394987.000000 0 0 1
-12.740604 6.167927 -32.943335 35.855678 -0.450860 2.735765 0.031693 -0.004138 -80573.400000 0 0 1
-12.311004 7.115327 -31.835835 34.867020 -0.524060 2.721533 0.031763 -0.007839 -378167.000000 0 0 1
-11.177004 6.765727 -31.067035 33.702539 -0.544326 2.743497 0.061018 -0.018534 125512.000000 0 0 1
-11.319504 5.796027 -30.109855 32.685294 -0.473232 2.741962 0.061862 -0.022659 -476784.000000 0 0 1
-9.987004 5.106027 -29.762485 31.805931 -0.472621 2.781184 0.070604 -0.027834 -205574.000000 0 0 1
-9.404704 4.238127 -30.774335 32.457200 -0.423385 2.818164 0.065038 -0.026217 489733.000000 0 0 1
-10.054604 2.999427 -30.966465 32.695773 -0.289909 2.814901 0.066046 -0.023893 -223848.000000 0 0 1
-9.711704 2.341727 -32.345825 33.853408 -0.236608 2.842036 0.060248 -0.027940 -20128.100000 0 0 1
-10.492904 1.194827 -32.589045 34.257474 -0.113382 2.828214 0.064235 -0.026313 265221.000000 0 0 1
-10.120204 0.563427 -33.758355 35.247163 -0.055616 2.849908 0.048883 -0.016457 -373450.000000 0 0 1
-10.545604 1.206827 33.393968 35.040309 -0.113943 0.307756 0.046036 -0.012202 -1331480.000000 0 0 1
-11.885404 1.097727 33.148264 35.231736 -0.092098 0.345625 0.029139 -0.011552 -1566280.000000 0 0 1
-12.213904 1.122027 31.768505 34.054020 -0.091608 0.368453 0.018292 -0.004688 489723.000000 0 0 1
-13.710404 1.108727 31.333055 34.219363 -0.080692 0.413667 0.019334 -0.001744 492999.000000 0 0 1
-14.470904 2.259527 31.579535 34.810624 -0.154892 0.434262 0.008375 0.009867 305348.000000 0 0 1
-15.769604 2.029027 31.039605 34.874840 -0.127964 0.473388 0.001529 0.002773 528641.000000 0 0 1
-16.700304 3.258627 30.795605 35.183634 -0.192703 0.504777 -0.001164 0.011715 84537.600000 0 0 1
-17.280604 3.902427 31.948465 36.531529 -0.222101 0.506300 -0.006324 0.010383 238521.000000 0 0 1
-16.408704 4.689927 32.728658 36.910785 -0.278397 0.480646 -0.005262 0.012646 -732209.000000 0 0 1
-17.022004 5.257427 33.999517 38.384324 -0.299566 0.482655 -0.008746 0.014472 -490212.000000 0 0 1
-18.166704 6.016827 33.707968 38.761559 -0.319830 0.516357 -0.012524 0.014081 -4923.440000 0 0 1
-19.187504 5.669227 -33.844425 39.315970 -0.287291 2.607698 -0.018118 0.016995 788412.000000 0 0 1
-20.519804 6.484127 -33.900595 40.154160 -0.306064 2.575981 -0.018457 0.014686 412393.000000 0 0 1
-20.443204 7.794927 -33.405965 39.932993 -0.364280 2.561753 -0.017478 0.008334 12316.500000 0 0 1
-20.054404 8.690627 34.060464 40.470005 -0.408924 0.570516 -0.013524 0.003878 -198942.000000 0 0 1
-20.035504 10.143927 -33.943595 40.699979 -0.468673 2.557106 0.004101 -0.003154 -789535.000000 0 0 1
-18.873704 10.352327 -33.193315 39.562400 -0.501695 2.566261 -0.002817 -0.001780 -249664.000000 0 0 1
-18.590304 11.702827 -32.841355 39.510886 -0.561838 2.552055 0.017677 -0.013943 25055.000000 0 0 1
-17.922704 12.468627 -34.029705 40.431557 -0.607827 2.571150 0.008403 -0.020586 -623561.000000 0 0 1
-18.763504 12.571227 33.326335 40.258532 -0.590295 0.595607 0.028122 -0.019311 -38275.100000 0 0 1
-18.143004 12.854527 32.085315 39.036840 -0.616416 0.606016 0.030760 -0.015818 -479398.000000 0 0 1
-18.954504 12.393227 30.894555 38.305859 -0.579070 0.632549 0.032742 -0.015742 -493022.000000 0 0 1
-19.161304 10.992527 30.781965 37.888264 -0.520844 0.622470 0.012387 -0.004348 528603.000000 0 0 1
-17.940804 10.265027 30.634635 36.955704 -0.519698 0.593559 0.003124 -0.007452 451736.000000 0 0 1
-18.140604 8.780827 30.848285 36.848353 -0.450800 0.578711 0.004081 0.010281 166834.000000 0 0 1
-18.805604 8.118027 29.754775 36.123396 -0.407516 0.602894 0.008415 -0.003671 322574.000000 0 0 1
-18.825104 6.775127 30.002535 36.061600 -0.345466 0.588129 0.007712 -0.002204 -100875.000000 0 0 1
-19.417904 5.988427 28.828655 35.270492 -0.299143 0.613984 0.017676 -0.001548 -231805.000000 0 0 1
-20.818504 6.041827 28.704365 35.970187 -0.282455 0.646820 0.046449 -0.007933 -292745.000000 0 0 1
-21.328004 5.141227 27.771285 35.391528 -0.236542 0.668605 0.043698 -0.010306 -930410.000000 0 0 1
-22.844704 5.068827 27.714475 36.272105 -0.218345 0.701196 0.044681 -0.008582 -729704.000000 0 0 1
-23.259904 6.007627 26.719565 35.931182 -0.252759 0.732310 0.046704 -0.015371 -245147.000000 0 0 1
-24.637604 6.240627 26.676905 36.845817 -0.248079 0.761192 0.052084 -0.013975 -627080.000000 0 0 1
-25.044324 6.978827 25.377975 36.331306 -0.271765 0.797476 0.052712 -0.017936 -229308.000000 0 0 1
-25.083314 6.293927 24.128445 35.369026 -0.245845 0.820041 0.054282 -0.018448 1132250.000000 0 0 1
-26.174304 5.333327 24.038285 35.935744 -0.201010 0.838036 0.057256 -0.015791 454777.000000 0 0 1
-26.352974 4.731927 22.632345 35.058428 -0.177666 0.869039 0.062373 -0.015342 -317970.000000 0 0 1
-26.978684 5.579727 21.729745 35.087954 -0.203944 0.902954 0.058363 -0.006999 -170606.000000 0 0 1
-27.235554 4.907927 20.516945 34.450082 -0.178289 0.932839 0.075409 -0.008330 423979.000000 0 0 1
-28.212064 5.623327 19.520045 34.764558 -0.196745 0.974608 0.076206 -0.010613 683765.000000 0 0 1
-29.571674 5.698227 19.922045 36.108746 -0.190359 0.986367 0.081855 -0.005026 223533.000000 0 0 1
-30.346364 6.350527 18.930645 36.326303 -0.206291 1.022625 0.087139 0.001586 -1166170.000000 0 0 1
-31.827844 6.349227 19.133545 37.675149 -0.196902 1.038102 0.080445 0.005516 -1124870.000000 0 0 1
-32.205374 7.369427 20.028645 38.634715 -0.224953 1.025805 0.073619 -0.020212 415548.000000 0 0 1
-33.606364 7.417827 20.287845 39.950075 -0.217243 1.038132 0.064359 -0.013822 465332.000000 0 0 1
-34.005644 8.338727 21.465345 41.069200 -0.240471 1.020825 0.070569 -0.016326 -50746.900000 0 0 1
-33.461164 7.990527 22.727745 41.231643 -0.234410 0.986969 0.074433 -0.017035 114490.000000 0 0 1
-33.678204 8.956627 23.707585 42.148454 -0.259931 0.973416 0.084148 -0.006640 -103438.000000 0 0 1
-0.598504 32.173927 11.518465 34.178865 -1.552196 1.227062 0.045371 -0.001877 47980.100000 0 0 1
-0.916404 32.394027 12.856665 34.864116 -1.542515 1.193116 0.027343 -0.002924 84423.200000 0 0 1
-0.507704 33.717127 13.208265 36.215475 -1.555740 1.197471 0.027887 -0.001037 -52516.100000 0 0 1
-0.392804 33.886827 14.710165 36.944015 -1.559205 1.161270 0.015700 0.009904 233610.000000 0 0 1
-1.638004 33.900427 15.373465 37.259434 -1.522516 1.145483 0.008001 0.019762 52798.000000 0 0 1
-1.384204 34.300527 16.738865 38.192038 -1.530463 1.117110 0.000433 0.004998 -310735.000000 0 0 1
-2.659204 -34.007019 17.494265 38.335337 1.492759 1.096909 0.007405 0.010206 -682912.000000 0 0 1
-3.341104 33.452027 17.949165 38.110020 -1.471249 1.080392 0.007401 0.004672 103890.000000 0 0 1
-4.039704 33.803427 19.164365 39.067426 -1.451855 1.058080 0.012731 0.004250 41523.600000 0 0 1
-5.054904 32.684627 19.527865 38.407999 -1.417355 1.037433 0.009188 -0.001240 -262103.000000 0 0 1
-6.082504 32.663427 18.569965 38.062316 -1.386688 1.061133 0.010761 -0.004389 -606366.000000 0 0 1
-7.179904 31.979127 19.112965 37.941020 -1.349940 1.042857 0.022825 -0.018062 253422.000000 0 0 1
-8.396404 31.962327 18.111565 37.684462 -1.313904 1.069445 0.012377 -0.018151 146749.000000 0 0 1
-9.077904 33.151627 17.833265 38.722914 -1.303518 1.092198 0.024160 -0.010530 -274399.000000 0 0 1
-9.828204 32.995727 16.648365 38.242380 -1.281301 1.120383 0.025235 -0.006811 62377.900000 0 0 1
-10.903204 34.116027 16.548665 39.454296 -1.261464 1.137969 0.043073 -0.009814 293432.000000 0 0 1
-12.025604 34.024927 17.402665 40.064492 -1.231065 1.121462 0.040526 -0.004920 -28181.300000 0 0 1
-13.026904 -33.674319 17.049865 39.929412 1.201677 1.129624 0.020515 0.000353 659031.000000 0 0 1
-14.320504 -33.819019 17.945465 40.875942 1.170243 1.116286 0.045656 0.004102 746084.000000 0 0 1
-14.103504 -33.491019 19.303365 41.148233 1.172223 1.082505 0.041047 0.008797 -211813.000000 0 0 1
-15.266304 -33.627719 20.076165 42.034937 1.144638 1.072868 0.029722 -0.000465 -221203.000000 0 0 1
-15.051404 -33.088119 21.482965 42.224237 1.143885 1.037026 0.036236 -0.008225 -24652.300000 0 0 1
-14.982404 -31.696319 21.460265 41.105621 1.129238 1.021513 0.050307 -0.000155 64618.200000 0 0 1
-15.185304 -31.251219 22.785465 41.550085 1.118484 0.990364 0.037961 0.000199 59174.000000 0 0 1
-14.881304 -29.787919 22.994865 40.466494 1.107489 0.966425 0.048999 0.001486 -189251.000000 0 0 1
-15.033204 -29.445419 24.377065 41.076407 1.098749 0.935450 0.046226 -0.010974 -192404.000000 0 0 1
-14.883304 -28.067319 24.605565 40.183591 1.083226 0.911794 0.032704 -0.004069 445141.000000 0 0 1
-16.180704 -27.232019 24.350865 39.954508 1.034668 0.915411 0.054608 -0.003175 109039.000000 0 0 1
-17.188204 -27.411019 25.295865 41.069199 1.010721 0.907227 0.071687 -0.005828 -442186.000000 0 0 1
-18.304204 -26.647319 24.916465 40.816096 0.968912 0.914159 0.075509 -0.004282 125348.000000 0 0 1
-19.489204 -26.562019 25.976665 41.954226 0.937793 0.903115 0.066749 0.001320 1105560.000000 0 0 1
-20.292904 -27.744319 26.196665 43.218219 0.939289 0.919587 0.071495 0.000951 560336.000000 0 0 1
-21.049804 -28.288319 25.125765 43.296967 0.931071 0.951684 0.068910 0.003686 -187493.000000 0 0 1
-22.373204 -27.584019 24.754965 43.292571 0.889328 0.962090 0.059392 0.013413 -261135.000000 0 0 1
-22.268804 -26.361519 24.085265 42.082411 0.869360 0.961445 0.065411 0.012443 -51122.400000 0 0 1
-23.553804 -26.120719 23.571165 42.339975 0.837027 0.980374 0.066024 0.009406 -237868.000000 0 0 1
-23.879204 -24.623419 23.365765 41.502869 0.800741 0.972795 0.057267 0.020526 -66004.800000 0 0 1
-24.370604 -24.049519 24.561765 42.137703 0.778767 0.948512 0.051525 0.016476 195343.000000 0 0 1
-24.884404 -22.754519 24.316465 41.572733 0.740719 0.946023 0.040965 0.013285 113816.000000 0 0 1
-25.297664 -21.956019 25.560265 42.135089 0.714799 0.918986 0.048006 0.010624 1061220.000000 0 0 1
-26.508094 -22.435119 26.213865 43.510692 0.702371 0.924205 0.036770 0.009853 1271200.000000 0 0 1
-27.027534 -21.477019 27.114565 43.897034 0.671461 0.905000 0.027936 0.004320 671361.000000 0 0 1
-28.322254 -21.950919 27.931165 45.432839 0.659336 0.908690 0.022988 0.006124 1393100.000000 0 0 1
-29.645394 -21.754419 27.452065 45.888125 0.633066 0.929495 0.017013 -0.003094 733361.000000 0 0 1
-29.997254 -22.433019 26.253365 45.741827 0.642115 0.959479 0.010527 0.004854 287844.000000 0 0 1
-31.544464 -22.711219 26.121465 46.831438 0.624006 0.979092 0.004009 0.002618 1049490.000000 0 0 1
-32.082794 -23.314419 24.923865 46.840867 0.628419 1.009721 0.001632 -0.000049 6630.970000 0 0 1
-31.546814 -24.514519 24.543065 46.888433 0.660611 1.019919 0.002076 -0.002407 -785824.000000 0 0 1
-32.001114 -24.954219 23.105865 46.697595 0.662297 1.053194 0.005272 -0.001114 -96044.800000 0 0 1
-33.308654 -25.466119 23.041165 47.842292 0.652748 1.068309 0.012573 0.001712 -315319.000000 0 0 1
-33.551544 -26.006819 21.725165 47.686933 0.659391 1.097774 0.020544 0.005373 514416.000000 0 0 1
-34.832169 -26.883619 21.504365 48.973939 0.657310 1.116202 0.038301 0.003283 161691.000000 0 0 1
-34.956882 -28.018619 22.364865 50.072086 0.675667 1.107775 0.025764 0.008311 468793.000000 0 0 1
-34.030605 -29.098519 22.120065 49.940997 0.707430 1.111939 0.008722 0.015019 -150867.000000 0 0 1
-34.429863 -30.060319 21.017365 50.306738 0.717746 1.139791 0.023838 0.014528 -213366.000000 0 0 1
-34.396697 -29.652419 19.680165 49.494521 0.711461 1.161871 0.018355 0.016821 349214.000000 0 0 1
-34.874172 -30.673419 18.805065 50.106856 0.721399 1.186077 0.033115 0.019226 -103688.000000 0 0 1
-35.141516 -30.102119 17.408165 49.437920 0.708312 1.210959 0.034716 0.018168 -418725.000000 0 0 1
-33.958174 -29.842619 16.685465 48.188632 0.720981 1.217222 0.030812 0.018025 -32702.800000 0 0 1
-34.141552 -29.305519 15.397265 47.555597 0.709324 1.241081 0.036698 0.013648 24890.300000 0 0 1
-34.822640 -30.269119 14.332065 48.314014 0.715557 1.269620 0.048228 0.001181 188006.000000 0 0 1
-34.048960 -31.305519 13.753765 48.254878 0.743445 1.281766 0.050703 -0.006752 -202280.000000 0 0 1
-34.769118 -32.103719 12.821065 49.029787 0.745562 1.306225 0.073633 -0.012287 152097.000000 0 0 1
-34.956056 -31.448719 11.407165 48.384617 0.732630 1.332796 0.075094 -0.017363 300659.000000 0 0 1
-35.882152 -30.366819 11.529165 48.400353 0.702338 1.330280 0.077634 -0.023431 245121.000000 0 0 1
36.067654 -29.841719 10.214065 47.913787 -0.691216 1.355972 0.067875 -0.018000 -443216.000000 0 0 1
34.861404 -28.920019 10.182465 46.425937 -0.692514 1.349672 0.092107 -0.015754 -514597.000000 0 0 1
35.006334 -27.889619 9.252765 45.704354 -0.672727 1.366939 0.092735 -0.044835 108063.000000 0 0 1
33.885714 -27.032619 9.172965 44.307419 -0.673373 1.362258 0.076883 -0.040481 -24267.500000 0 0 1
33.988584 -25.979719 8.114165 43.543189 -0.652632 1.383353 0.072606 -0.042894 223969.000000 0 0 1
34.839864 -24.917819 8.518665 43.672434 -0.620861 1.374480 0.082002 -0.045216 94878.400000 0 0 1
34.995034 -24.132219 7.352165 43.140129 -0.603705 1.399535 0.074442 -0.044580 42881.400000 0 0 1
35.585174 -22.717219 7.586265 42.894383 -0.568170 1.393002 0.074693 -0.046643 -411720.000000 0 0 1
34.766854 -21.897319 8.349965 41.927898 -0.562067 1.370305 0.071625 -0.044898 -285966.000000 0 0 1
35.143304 -20.556719 8.068165 41.505732 -0.529272 1.375164 0.073387 -0.036477 558165.000000 0 0 1
34.378464 -19.476619 8.968165 40.517225 -0.515450 1.347606 0.078385 -0.030975 430516.000000 0 0 1
34.751784 -19.481819 10.351365 41.162830 -0.510944 1.316594 0.071889 -0.045052 -142990.000000 0 0 1
33.821544 -18.829219 11.211265 40.300482 -0.507990 1.288885 0.094552 -0.033323 78427.500000 0 0 1
34.307254 -18.830919 12.696165 41.143454 -0.501991 1.257093 0.083181 -0.048486 241134.000000 0 0 1
35.444744 -17.984019 12.796865 41.755414 -0.469536 1.259312 0.039533 -0.032162 134392.000000 0 0 1
35.911194 -18.072319 14.122065 42.610507 -0.466244 1.232986 0.039941 -0.026742 -917953.000000 0 0 1
-35.089338 -17.244619 14.410465 41.668934 0.456783 1.217671 0.060743 -0.037103 -71017.100000 0 0 1
-33.910724 -17.795619 13.805065 40.708735 0.483273 1.224817 0.045209 -0.030381 455088.000000 0 0 1
-32.791974 -17.562419 14.638065 39.975306 0.491698 1.195898 0.034005 -0.030427 649647.000000 0 0 1
-31.368404 -17.606219 13.969365 38.588844 0.511456 1.200378 0.050691 -0.022483 649103.000000 0 0 1
-31.093714 -18.882619 13.547265 38.818819 0.545756 1.214306 0.032774 -0.018721 -1736300.000000 0 0 1
-29.938404 -18.843819 12.883665 37.648192 0.561771 1.221526 0.013683 -0.007643 -1642860.000000 0 0 1
-29.224884 -20.173419 12.490865 37.644155 0.604174 1.232570 0.012874 -0.011773 -301924.000000 0 0 1
-30.015894 -20.975119 11.676865 38.435123 0.609920 1.262110 0.012907 -0.009914 -323571.000000 0 0 1
-29.215364 -21.550219 10.648065 37.832932 0.635539 1.285492 0.015058 -0.001076 -162047.000000 0 0 1
-29.943244 -22.502519 9.716765 38.695953 0.644464 1.316974 0.015705 -0.005365 -112669.000000 0 0 1
-30.485304 -23.709919 10.150565 39.931792 0.661025 1.313778 0.022657 -0.008243 707410.000000 0 0 1
-31.803724 -23.559719 10.720065 41.005573 0.637577 1.306293 0.039228 -0.019400 590240.000000 0 0 1
-32.598574 -24.894019 10.794065 42.413336 0.652182 1.313469 0.064556 -0.026775 -131627.000000 0 0 1
-32.996384 -25.353119 9.513665 42.685499 0.655149 1.346030 0.061922 -0.018543 -166999.000000 0 0 1
-33.467944 -26.688219 9.531165 43.854389 0.673170 1.351711 0.073423 -0.020130 319950.000000 0 0 1
-33.587784 -27.520719 8.186865 44.187713 0.686439 1.384445 0.067546 -0.017722 104822.000000 0 0 1
-32.296094 -27.832419 7.735765 43.330397 0.711299 1.391304 0.050688 -0.018130 -328849.000000 0 0 1
-32.309894 -28.662219 6.600865 43.692373 0.725644 1.419140 0.045203 -0.017559 480669.000000 0 0 1
-30.942264 -28.643819 5.851465 42.569140 0.746844 1.432902 0.046863 -0.008850 639522.000000 0 0 1
-30.609764 -27.447319 5.146065 41.434224 0.730981 1.446276 0.044717 -0.003232 -1747250.000000 0 0 1
-29.347784 -27.523119 4.663365 40.503845 0.753325 1.455407 0.041267 -0.005475 -1257280.000000 0 0 1
-28.751534 -26.208219 4.017865 39.110928 0.739155 1.467885 0.020646 -0.003959 270812.000000 0 0 1
-29.155124 -26.040419 2.694165 39.183966 0.729028 1.501985 0.037174 -0.007753 -105583.000000 0 0 1
-28.309014 -25.043519 2.136265 37.856859 0.724268 1.514336 0.026591 -0.014389 -114508.000000 0 0 1
-28.500504 -24.531819 0.686565 37.610640 0.710702 1.552541 0.031489 -0.011343 -653138.000000 0 0 1
-27.977324 -25.370019 -0.329435 37.768731 0.736563 1.579519 0.037435 -0.017948 -243368.000000 0 0 1
-28.280484 -24.930319 -1.635335 37.735671 0.722521 1.614146 0.038930 -0.024445 35394.200000 0 0 1
-29.740924 -24.803419 -2.141135 38.785521 0.695121 1.626029 0.061180 -0.019713 -31120.800000 0 0 1
-30.337214 -23.598119 -1.731235 38.473562 0.661095 1.615810 0.056005 -0.006951 -123998.000000 0 0 1
-31.688454 -23.674419 -2.182835 39.615666 0.641642 1.625925 0.073281 -0.015616 278973.000000 0 0 1
-32.523994 -22.412619 -1.994035 39.548854 0.603380 1.621237 0.065734 -0.015443 -140932.000000 0 0 1
-32.888084 -22.097719 -0.664135 39.627974 0.591621 1.587556 0.072895 -0.019588 85516.900000 0 0 1
-33.493474 -20.841819 -0.485835 39.451619 0.556630 1.583111 0.074916 -0.013269 -223030.000000 0 0 1
-33.746714 -20.418819 0.996265 39.455816 0.544132 1.545543 0.064990 -0.014070 -17996.200000 0 0 1
-34.730943 -21.186819 1.656965 40.716891 0.547760 1.530090 0.077931 -0.020836 185400.000000 0 0 1
-34.875381 -20.665819 2.993365 40.648844 0.534932 1.497090 0.071410 -0.023445 -872507.000000 0 0 1
-35.894971 -21.590619 3.698465 42.050950 0.541518 1.482731 0.094955 -0.013200 831417.000000 0 0 1
34.984414 -21.517519 3.255965 41.200900 -0.551420 1.491687 0.073558 -0.016930 437266.000000 0 0 1
34.337974 -20.342119 3.730365 40.085083 -0.534819 1.477600 0.078036 -0.024649 -171811.000000 0 0 1
33.030774 -20.064119 2.887365 38.754842 -0.545870 1.496224 0.068826 -0.014197 1087860.000000 0 0 1
32.061574 -21.098219 3.119265 38.507262 -0.582016 1.489703 0.059579 -0.008405 -891662.000000 0 0 1
30.812594 -20.685919 2.713465 37.211371 -0.591235 1.497811 0.057967 -0.018660 -130923.000000 0 0 1
29.640564 -21.697419 3.001565 36.855806 -0.631893 1.489265 0.040976 -0.000854 567055.000000 0 0 1
29.528294 -22.798519 2.126965 37.365982 -0.657490 1.513843 0.022822 -0.005137 341486.000000 0 0 1
28.349504 -23.569819 2.382065 36.944621 -0.693597 1.506275 0.018342 0.004084 479616.000000 0 0 1
28.044364 -24.725719 1.474265 37.416855 -0.722592 1.531385 0.016260 0.007181 -51972.800000 0 0 1
27.870164 -24.308619 0.146465 36.982110 -0.717247 1.566836 0.019414 -0.001790 404913.000000 0 0 1
27.182794 -25.268719 -0.677635 37.119694 -0.748922 1.589053 0.020696 -0.003159 -472987.000000 0 0 1
26.494094 -24.670619 -1.862635 36.249771 -0.749774 1.622202 0.045919 -0.008896 -503983.000000 0 0 1
27.282604 -24.120719 -2.924035 36.533540 -0.723964 1.650919 0.022572 -0.022584 73328.500000 0 0 1
27.550674 -24.971819 -4.033835 37.401915 -0.736338 1.678858 0.022780 -0.019190 -1066690.000000 0 0 1
26.395794 -25.482919 -4.911435 37.016744 -0.767804 1.703870 0.025194 -0.016052 -238079.000000 0 0 1
25.835094 -24.584819 -5.855235 36.140686 -0.760606 1.733526 0.031664 -0.032239 224995.000000 0 0 1
24.949994 -23.698319 -5.219935 34.804601 -0.759675 1.721343 0.046876 -0.039289 -607057.000000 0 0 1
24.240594 -22.657219 -6.167935 33.749065 -0.751649 1.754588 0.056546 -0.043051 136079.000000 0 0 1
23.451294 -23.185319 -7.217235 33.758121 -0.779695 1.786252 0.049265 -0.038905 622345.000000 0 0 1
22.495494 -22.258519 -7.767635 32.585658 -0.780103 1.811490 0.056897 -0.044517 322707.000000 0 0 1
23.042694 -21.029519 -8.498835 32.333213 -0.739751 1.836773 0.061556 -0.040286 -407560.000000 0 0 1
23.787794 -21.250619 -9.706435 33.341608 -0.729124 1.866194 0.059670 -0.036912 362099.000000 0 0 1
23.385594 -20.320919 -10.685135 32.771907 -0.715393 1.902914 0.055990 -0.038846 44378.400000 0 0 1
24.268994 -20.304019 -11.981935 33.834953 -0.696677 1.932779 0.038204 -0.031872 -1052710.000000 0 0 1
25.582094 -20.021919 -11.722435 34.536014 -0.664074 1.917103 0.046423 -0.033585 -1085240.000000 0 0 1
26.204294 -19.552919 -12.948635 35.166018 -0.641047 1.947884 0.043415 -0.034833 -167886.000000 0 0 1
27.699364 -19.849819 -13.125835 36.517909 -0.621791 1.938459 0.039936 -0.039144 -329115.000000 0 0 1
27.942194 -21.244419 -13.390735 37.568649 -0.650060 1.935245 0.029595 -0.036397 100911.000000 0 0 1
28.370754 -21.897019 -12.200835 37.858150 -0.657318 1.898931 0.045902 -0.043810 -251273.000000 0 0 1
28.627614 -23.442119 -12.454535 39.040859 -0.686138 1.895484 0.033503 -0.024011 -652098.000000 0 0 1
29.728154 -23.724319 -13.257835 40.278737 -0.673546 1.906202 0.025360 -0.037246 -158084.000000 0 0 1
29.884264 -25.113619 -13.286035 41.234474 -0.698872 1.898856 0.019314 -0.019750 -282953.000000 0 0 1
-5.024304 -9.005473 -27.627195 29.489050 1.061895 2.784345 0.091783 -0.009616 500738.000000 0 0 1
-4.218604 -7.848873 -27.280245 28.698662 1.077617 2.825881 0.055708 -0.006027 774779.000000 0 0 1
-4.765904 -6.698173 -27.931505 29.116118 0.952379 2.855359 0.046375 -0.005128 -64240.200000 0 0 1
-4.502404 -5.422473 -27.085905 27.987874 0.877837 2.887027 0.044596 -0.015840 318396.000000 0 0 1
-5.326304 -5.291273 -25.921545 26.986915 0.782099 2.859671 0.036971 -0.014481 407247.000000 0 0 1
-4.967504 -4.102473 -25.296225 26.103743 0.690313 2.892210 0.036889 -0.022946 156933.000000 0 0 1
-5.599204 -3.973173 -23.890635 24.857587 0.617137 2.861755 0.032432 -0.021206 70328.700000 0 1 0
-5.134804 -4.925973 -22.956835 24.034302 0.764644 2.841028 0.039450 -0.030087 129296.000000 0 1 0
-5.661204 -4.614273 -21.705935 22.901711 0.683862 2.817018 0.043193 -0.019578 -496496.000000 0 1 0
-5.067604 -5.539373 -20.631035 21.954609 0.829846 2.792587 0.039643 -0.020957 -511121.000000 0 1 0
-5.446304 -6.855173 -20.753135 22.524392 0.899430 2.742368 0.032761 -0.022756 -161338.000000 0 1 0
-4.581004 -7.696573 -20.064035 21.972445 1.033913 2.721731 0.036089 -0.028160 -1099190.000000 0 1 0
-5.188504 -9.143773 -19.940535 22.542274 1.054665 2.656398 0.038442 -0.028922 1392890.000000 0 1 0
-6.370104 -9.224273 -19.079135 22.128688 0.966420 2.610373 0.039201 -0.023069 1224960.000000 0 1 0
-7.516504 -8.701673 -19.725435 22.832208 0.858345 2.613819 0.028120 -0.010317 -1015430.000000 0 1 0
-8.891004 -8.819873 -19.046335 22.794802 0.781382 2.559940 0.038756 -0.005469 -368978.000000 0 1 0
-9.467104 -10.082373 -19.172035 23.639950 0.816860 2.516658 0.065359 0.002402 -65443.900000 0 1 0
-9.893704 -10.458973 -17.884335 22.959201 0.813165 2.463804 0.036049 0.003827 -327261.000000 0 1 0
-10.460904 -11.865473 -17.876735 23.870434 0.848226 2.417207 0.033537 0.005562 -110282.000000 0 1 0
-11.622104 -12.138373 -18.625635 25.086404 0.807123 2.407530 0.042274 -0.012179 52348.300000 0 0 1
-11.325404 -12.593473 -19.908135 26.137983 0.838364 2.436660 0.041185 -0.015520 99030.600000 0 0 1
-12.569204 -12.492273 -20.866335 27.376006 0.782329 2.437521 0.046632 -0.029673 1012720.000000 0 0 1
-13.694604 -13.323373 -20.742235 28.200971 0.771659 2.397223 0.053506 -0.021959 50513.500000 0 0 1
-14.429904 -13.381073 -19.523335 27.720676 0.747703 2.352216 0.051154 -0.013156 -754148.000000 0 0 1
-15.620804 -14.328173 -19.672135 28.918834 0.742264 2.318905 0.043033 -0.005091 -400972.000000 0 0 1
-15.410404 -15.718973 -19.775035 29.590855 0.795310 2.302693 0.058930 0.002329 -44345.000000 0 0 1
-16.053304 -16.236073 -20.965435 30.997872 0.791058 2.313593 0.079765 -0.000629 311760.000000 0 0 1
-15.744304 -17.711373 -21.287235 31.854705 0.844127 2.302664 0.058656 -0.001300 -141650.000000 0 0 1
-16.223604 -18.696973 -20.361135 32.052425 0.856109 2.259122 0.067860 0.004677 320547.000000 0 0 1
-15.842604 -20.019573 -20.825935 32.946790 0.901349 2.255067 0.061179 0.004467 -185315.000000 0 0 1
-16.268104 -21.241873 -19.980235 33.392786 0.917228 2.212224 0.055547 0.005855 -149110.000000 0 0 1
-15.948404 -22.461673 -20.609835 34.404122 0.953372 2.213112 0.050122 0.006245 75655.700000 0 0 1
-16.338804 -23.573373 -19.845335 34.878328 0.964713 2.176071 0.055132 0.007635 186687.000000 0 0 1
-15.802604 -24.966473 -20.438335 35.927324 1.006498 2.175940 0.058703 -0.008801 450080.000000 0 0 1
-16.321204 -25.251673 -21.784635 37.129490 0.996997 2.197799 0.055563 -0.003671 406068.000000 0 0 1
-15.621504 -26.362573 -22.314135 37.906955 1.035863 2.200191 0.059654 -0.005473 34380.600000 0 0 1
-16.134504 -26.736133 -23.739235 39.226194 1.027828 2.220799 0.068185 -0.005160 153809.000000 0 0 1
-17.365704 -27.430933 -23.848035 40.283403 1.006415 2.204343 0.080104 -0.005374 61703.600000 0 0 1
-17.240604 -28.826863 -23.739935 41.131630 1.031794 2.186055 0.083434 0.000486 34710.600000 0 0 1
-18.244004 -29.513033 -24.726735 42.606035 1.017125 2.189964 0.075471 -0.000176 -75203.800000 0 0 1
-17.937304 -29.342093 -26.130745 43.191679 1.022097 2.220556 0.070871 -0.004422 108008.000000 0 0 1
-18.073904 -28.053823 -26.712145 42.746014 0.998468 2.245805 0.088569 -0.012188 -413177.000000 0 0 1
-16.907804 -27.709693 -27.632675 42.629399 1.022928 2.276024 0.092541 -0.016325 -441746.000000 0 0 1
-16.898904 -28.323573 -28.931705 43.873013 1.032853 2.290873 0.088710 -0.012856 313294.000000 0 0 1
-15.681504 -28.076413 -29.626695 43.725686 1.061428 2.315234 0.055256 -0.006384 210900.000000 0 0 1
-15.896404 -28.336503 -31.126645 44.994679 1.059557 2.334754 0.061273 -0.014038 47876.400000 0 0 1
-15.946304 -29.787653 -31.338335 46.083404 1.079284 2.318607 0.043099 -0.013657 234871.000000 0 0 1
-16.425404 -30.088073 -32.649725 47.340158 1.071098 2.331848 0.040842 -0.012047 23730.300000 0 0 1
-16.207404 -31.538433 -33.104285 48.510271 1.096096 2.321862 0.030757 -0.012493 -136348.000000 0 0 1
-15.016604 -31.771803 -33.803945 48.761179 1.129276 2.336793 0.032977 -0.010278 -30478.800000 0 0 1
-15.342904 -32.825543 33.793035 49.546849 1.133561 0.820245 0.021519 -0.005514 85032.400000 0 0 1
-14.082904 -33.399793 33.140015 49.113491 1.171770 0.830151 0.018253 -0.008255 144853.000000 0 0 1
-13.199104 -34.150538 33.951301 49.931618 1.201984 0.823094 0.029034 -0.004066 277914.000000 0 0 1
-12.089004 33.932900 33.238296 49.013978 -1.228554 0.825569 0.037789 -0.003736 -17387.300000 0 0 1
-11.160804 33.149470 34.135536 48.874182 -1.246036 0.797585 0.048731 -0.004205 -392691.000000 0 0 1
-10.415404 33.922055 -33.458435 48.771439 -1.272894 2.326808 0.061134 -0.011693 -455691.000000 0 0 1
-9.639804 33.135583 -32.614085 47.482325 -1.287690 2.327967 0.067750 -0.019172 -245385.000000 0 0 1
-8.822304 34.002136 -31.622805 47.264998 -1.316931 2.303731 0.064447 -0.022532 -86463.700000 0 0 1
-9.583804 -33.875543 -30.693355 46.706357 1.295089 2.287836 0.070518 -0.021248 -377091.000000 0 0 1
-8.902604 -32.731503 -30.256905 45.454240 1.305232 2.299169 0.066913 -0.023838 -28180.200000 0 0 1
-9.707904 -31.835343 -29.231195 44.296673 1.274813 2.291477 0.071763 -0.017552 314011.000000 0 0 1
-9.835404 -32.234393 -27.873405 43.734631 1.274648 2.261825 0.093850 -0.014145 -144796.000000 0 0 1
-10.496804 -33.416283 -27.494535 44.528422 1.266434 2.236306 0.096051 -0.015445 -176332.000000 0 0 1
-10.654004 -33.505773 -25.943185 43.694319 1.262931 2.206499 0.090539 -0.018811 534322.000000 0 0 1
-9.468704 -33.748123 -25.177275 43.156545 1.297259 2.193698 0.096253 -0.023655 275501.000000 0 0 1
-9.755204 -33.707293 -23.767435 42.382031 1.289084 2.166136 0.090658 -0.025853 -37135.200000 0 0 1
-8.530604 -33.951863 -22.880335 41.821166 1.324636 2.149691 0.097799 -0.030727 -228656.000000 0 0 1
-8.092604 33.332970 -22.787835 41.180852 -1.332624 2.157189 0.092127 -0.031343 -103111.000000 0 0 1
-7.318304 33.050829 -21.644735 40.179714 -1.352887 2.139687 0.095291 -0.028324 1259.900000 0 0 1
-6.545004 31.697693 -21.595535 38.909484 -1.367176 2.159183 0.093625 -0.034218 320902.000000 0 0 1
-5.320204 31.683853 -22.317935 39.118555 -1.404433 2.177936 0.079147 -0.039815 205821.000000 0 0 1
-4.761304 30.402213 -22.317735 38.013759 -1.415448 2.198263 0.056945 -0.033032 -177909.000000 0 0 1
-3.308204 30.398933 -22.835135 38.163893 -1.462397 2.212229 0.058935 -0.035532 -254095.000000 0 0 1
-3.055804 30.432803 -24.198435 39.000739 -1.470720 2.240127 0.074565 -0.033119 -184152.000000 0 0 1
-2.300304 31.590123 -24.449735 40.012708 -1.498107 2.228182 0.058944 -0.041346 -83043.700000 0 0 1
-2.014204 31.740323 -25.985685 41.070195 -1.507422 2.255849 0.073173 -0.014315 564497.000000 0 0 1
-1.075404 32.781469 -26.364345 42.081586 -1.538003 2.247858 0.071300 -0.030200 435748.000000 0 0 1
-1.622104 34.087765 -26.303125 43.086672 -1.523246 2.227450 0.057735 -0.017221 199936.000000 0 0 1
-0.686804 -33.359003 -26.784305 42.786608 1.550211 2.247206 0.032712 -0.003436 964140.000000 0 0 1
0.585996 -33.225873 -26.123525 42.269855 -1.553161 2.237015 0.030662 -0.004338 629855.000000 0 0 1
1.307096 -32.192383 -26.759165 41.882108 -1.530216 2.263885 0.008608 0.005389 254685.000000 0 0 1
2.579996 -31.795083 -25.947085 41.119763 -1.489829 2.253654 0.010678 -0.005783 -47543.600000 0 0 1
2.359996 -31.148733 -24.669335 39.804387 -1.495175 2.239239 0.017435 -0.007408 447240.000000 0 0 1
3.559396 -30.548183 -24.175935 39.119517 -1.454802 2.236995 0.002728 -0.005627 -66777.300000 0 0 1
3.515296 -29.695323 -22.870635 37.646188 -1.452966 2.223725 0.017588 -0.010315 -330254.000000 0 0 1
3.351096 -30.492183 -21.696535 37.573165 -1.461335 2.186395 0.026070 -0.006108 536720.000000 0 0 1
3.587596 -29.792183 -20.475135 36.327348 -1.450953 2.169569 0.029508 -0.005819 -681545.000000 0 0 1
3.546896 -30.668073 -19.180535 36.345620 -1.455654 2.126718 0.037983 -0.005296 -487045.000000 0 0 1
2.282996 -31.169393 -18.834835 36.489645 -1.497682 2.113169 0.043224 -0.013142 -168731.000000 0 0 1
1.989996 -32.459203 -19.288635 37.810202 -1.509565 2.106148 0.047721 -0.011779 -617767.000000 0 0 1
2.627396 -33.636023 -18.541235 38.497567 -1.492842 2.073300 0.028302 -0.014245 625635.000000 0 0 1
3.977996 -33.875233 -18.978035 39.032316 -1.453901 2.078548 0.032107 -0.008354 603524.000000 0 0 1
4.438396 33.650869 -18.200035 38.513915 1.439658 2.062987 0.042319 -0.018731 -5553.190000 0 0 1
5.458496 32.740234 -18.912635 38.202171 1.405594 2.088708 0.050155 -0.010212 39039.800000 0 0 1
6.709096 33.381190 -19.056035 39.018563 1.372454 2.081033 0.073089 -0.008968 -70453.900000 0 0 1
7.685296 32.450383 -19.538335 38.650196 1.338249 2.100778 0.050314 -0.019472 260663.000000 0 0 1
9.050796 33.061153 -19.899835 39.635340 1.303584 2.096790 0.051484 -0.023520 31531.900000 0 0 1
9.736296 33.406155 -18.676135 39.491324 1.287200 2.063395 0.050072 -0.020792 562479.000000 0 0 1
10.964596 34.100550 -18.964035 40.530291 1.259700 2.057707 0.044103 -0.016192 784604.000000 0 0 1
11.794596 -34.159760 -17.690335 40.236174 -1.238335 2.026019 0.029457 -0.013207 177288.000000 0 0 1
12.597196 33.376730 -17.217135 39.612185 1.209902 2.020437 0.024895 -0.013942 -75923.600000 0 0 1
13.211796 33.749552 -16.010135 39.622068 1.197669 1.986760 0.021359 -0.022187 -29479.800000 0 0 1
14.357696 32.841704 -15.485635 39.045177 1.158656 1.978615 0.021221 -0.017416 222513.000000 0 0 1
13.985796 31.570213 -15.129935 37.698750 1.153774 1.983773 0.025534 -0.007600 -467572.000000 0 0 1
15.135896 30.764813 -15.187235 37.499616 1.113579 1.987772 0.014777 -0.003997 47122.900000 0 0 1
15.024196 29.464103 -14.369435 36.060234 1.099248 1.980660 0.022962 -0.006677 -326278.000000 0 0 1
15.119096 29.653313 -12.989435 35.729980 1.099290 1.942866 0.023139 -0.010609 342435.000000 0 0 1
13.901996 29.828013 -12.237035 35.110125 1.134658 1.926802 0.027581 -0.011379 740966.000000 0 0 1
13.152696 28.513913 -11.901335 33.580923 1.138607 1.933077 0.032213 -0.007650 -427465.000000 0 0 1
12.447596 27.919113 -12.954635 33.200031 1.151403 1.971645 0.027728 -0.008792 -267371.000000 0 0 1
12.164996 26.538713 -12.762735 31.861855 1.140990 1.982929 0.041358 -0.008692 -194175.000000 0 0 1
11.383796 26.059863 -11.542735 30.691074 1.158946 1.956374 0.054818 -0.001877 199910.000000 0 0 1
10.047996 26.598383 -11.599235 30.707954 1.209602 1.958137 0.058302 -0.007525 654878.000000 0 0 1
9.543496 26.710323 -10.278235 30.168888 1.227636 1.918447 0.051383 -0.002286 205001.000000 0 0 1
8.354796 27.698863 -10.158635 30.663129 1.277845 1.908475 0.052723 -0.005766 454270.000000 0 0 1
8.834296 28.991553 -10.507235 32.077358 1.275015 1.904515 0.055159 -0.012173 777946.000000 0 0 1
7.756896 29.946643 -10.556935 32.686690 1.317343 1.899666 0.055926 -0.011945 1067640.000000 0 0 1
8.375096 31.351383 -10.875635 34.224712 1.309755 1.894174 0.079064 -0.023335 461904.000000 0 0 1
9.292596 31.968603 -9.955935 34.748591 1.287913 1.861382 0.058930 -0.020086 114200.000000 0 0 1
9.750296 33.205239 -10.452135 36.151117 1.285187 1.864107 0.075232 -0.019783 432838.000000 0 0 1
10.915496 33.197940 -11.510335 36.793193 1.253131 1.888977 0.053462 -0.021852 -97084.500000 0 0 1
12.180596 33.231833 -10.899435 37.034029 1.219468 1.869528 0.036346 -0.015400 -428780.000000 0 0 1
13.162096 33.486784 -11.889935 37.894274 1.196293 1.889953 0.048225 -0.014939 -311334.000000 0 0 1
14.575396 33.583761 -11.314335 38.318734 1.161326 1.870533 0.029454 -0.020512 -285172.000000 0 0 1
14.907496 -34.017763 -10.404735 38.570717 -1.157776 1.843937 0.038969 -0.019473 -31503.600000 0 0 1
16.315996 -33.951773 -10.295035 39.050255 -1.122818 1.837585 0.033892 -0.025285 191202.000000 0 0 1
16.930596 -33.174623 -9.142935 38.350932 -1.098905 1.811516 0.046832 -0.027046 -189739.000000 0 0 1
16.694596 -33.912063 -7.961935 38.628098 -1.113335 1.778402 0.041182 -0.023402 232333.000000 0 0 1
17.158396 -33.141483 -6.862235 37.945471 -1.093064 1.752642 0.040463 -0.016258 -1296870.000000 0 0 1
17.433196 -33.856353 -5.539735 38.481913 -1.095287 1.715255 0.042790 -0.010169 137739.000000 0 0 1
18.531696 33.867409 -5.572035 39.006060 1.070118 1.714137 0.022983 -0.017772 767144.000000 0 0 1
19.838296 -34.158576 -5.794235 39.924172 -1.044636 1.716442 0.037228 -0.012351 -341071.000000 0 0 1
20.484896 33.577258 -6.907235 39.934610 1.022996 1.744634 0.015115 -0.005844 -237084.000000 0 0 1
20.866596 32.250483 -6.525135 38.962621 0.996521 1.739061 0.020303 0.000745 441223.000000 0 0 1
21.844196 32.168273 -5.463135 39.265921 0.974263 1.710381 0.027377 -0.002846 -183518.000000 0 0 1
22.108696 30.767133 -4.894035 38.201603 0.947708 1.699260 0.022805 -0.009584 21455.500000 0 0 1
22.957896 29.933033 -5.697835 38.151236 0.916519 1.720706 0.021504 -0.009339 373320.000000 0 0 1
23.073496 28.600993 -5.194435 37.113140 0.891961 1.711220 0.018006 -0.000874 -495938.000000 0 0 1
23.977596 27.787833 -6.174035 37.218376 0.858871 1.737453 0.015803 0.006361 182268.000000 0 0 1
25.314396 28.232083 -5.991335 38.389650 0.839833 1.727503 0.043383 -0.007082 474447.000000 0 0 1
26.267696 27.350933 -6.654935 38.501345 0.805598 1.744518 0.027089 -0.005248 585944.000000 0 0 1
27.035696 26.407823 -5.700735 38.220418 0.773650 1.720509 0.024642 -0.003220 -243316.000000 0 0 1
28.125996 27.084723 -5.100735 39.378565 0.766540 1.700692 0.024861 -0.007918 142213.000000 0 0 1
28.853996 26.255073 -4.201135 39.236864 0.738273 1.678073 0.019419 0.001662 -445529.000000 0 0 1
30.197296 26.836923 -3.808235 40.578317 0.726548 1.664784 0.024079 0.007809 -702894.000000 0 0 1
30.072196 27.957493 -2.961235 41.167066 0.748973 1.642791 0.045966 -0.004989 -378127.000000 0 0 1
31.179996 28.107813 -2.141235 42.033632 0.733626 1.621759 0.056466 -0.011509 -536976.000000 0 0 1
31.086396 29.486143 -1.352535 42.867540 0.758986 1.602353 0.057931 -0.006377 194536.000000 0 0 1
31.279696 30.589603 -2.295635 43.811108 0.774245 1.623219 0.048837 -0.009303 36604.800000 0 0 1
30.840096 31.840483 -1.808635 44.364389 0.801357 1.611575 0.071315 -0.006545 146901.000000 0 0 1
33.580924 23.014627 19.053645 44.948781 0.600825 1.133053 0.044462 0.002398 206430.000000 0 0 1
34.006734 22.689627 20.382745 45.680777 0.588379 1.108282 0.033638 0.003746 -211515.000000 0 0 1
34.785704 23.727327 20.878745 46.999503 0.598611 1.110478 0.024226 -0.001870 -277901.000000 0 0 1
34.777914 23.724627 22.394145 47.684997 0.598662 1.081928 0.033268 -0.000222 237605.000000 0 0 1
33.484314 23.992327 22.908745 47.134294 0.621730 1.063253 0.039504 -0.003532 266023.000000 0 0 1
33.430184 23.910927 24.323995 47.759464 0.620887 1.036423 0.034818 -0.002922 -94589.300000 0 0 1
32.072824 24.433627 24.853025 47.363921 0.651021 1.018405 0.045602 -0.010330 179958.000000 0 0 1
31.778964 25.785627 24.557365 47.726987 0.681657 1.030327 0.020123 -0.000247 -934329.000000 0 0 1
30.567744 26.169127 25.071185 47.410700 0.708026 1.013600 0.017306 -0.017914 -930746.000000 0 0 1
30.488244 27.651727 25.564925 48.453239 0.736649 1.014999 0.005528 -0.009571 -142155.000000 0 0 1
30.238044 28.555227 24.521615 48.280947 0.756783 1.038058 0.006937 -0.015383 277771.000000 0 0 1
29.772844 29.783327 25.083395 49.016788 0.785574 1.033598 -0.006484 -0.005251 -62505.300000 0 0 1
29.478504 30.808627 23.942545 48.901934 0.807458 1.059162 0.009651 -0.016345 -661343.000000 0 0 1
30.709134 31.031327 23.361045 49.514973 0.790617 1.079468 0.002533 -0.018515 -649988.000000 0 0 1
30.571634 31.933427 22.300245 49.514336 0.807182 1.103606 0.011202 -0.019462 -490872.000000 0 0 1
31.868664 32.566427 21.812745 50.517123 0.796227 1.124321 0.001527 -0.026127 -518498.000000 0 0 1
32.580054 33.291327 22.774445 51.850243 0.796196 1.116049 -0.000909 -0.005811 -429331.000000 0 0 1
33.910414 33.382127 22.330445 52.563593 0.777548 1.132025 0.003143 0.008149 -59952.200000 0 0 1
34.718274 -34.111019 23.022845 53.842099 -0.776576 1.128961 0.017096 0.010178 -215876.000000 0 0 1
34.347074 -32.874619 22.456945 52.581142 -0.763497 1.129523 0.009118 0.008800 367718.000000 0 0 1
35.011094 -31.843019 23.176045 52.696145 -0.738046 1.115414 0.018248 0.002632 -196881.000000 0 0 1
34.197974 -30.493719 23.111945 51.317934 -0.728200 1.103619 0.024145 0.004338 1400950.000000 0 0 1
32.811934 -30.489819 23.554195 50.606840 -0.748731 1.086670 0.020284 0.000003 1742570.000000 0 0 1
31.906524 -30.844119 22.503645 49.757412 -0.768469 1.101491 0.033929 0.005968 -462181.000000 0 0 1
31.127924 -32.125819 22.666245 50.147528 -0.801173 1.101800 0.021857 0.004388 -534049.000000 0 0 1
30.122394 -32.116119 23.654905 49.983580 -0.817421 1.077816 0.019912 0.001279 125721.000000 0 0 1
29.712784 -33.430919 23.937775 50.729607 -0.844214 1.079386 0.001225 0.002651 -56100.800000 0 0 1
28.814714 -33.606119 25.202315 50.939333 -0.862008 1.053247 -0.007216 0.003632 -51923.100000 0 0 1
28.612094 33.645127 25.646975 51.072633 0.866065 1.044694 -0.011609 -0.001853 -182479.000000 0 0 1
27.776874 33.654727 26.755845 51.186625 0.880789 1.020768 -0.005269 0.003345 -1143170.000000 0 0 1
27.312914 32.215427 27.108775 50.186798 0.867569 1.000172 -0.001371 0.006401 -127035.000000 0 0 1
26.463294 31.585627 26.234415 48.848770 0.873412 1.003856 0.003345 0.006532 -539486.000000 0 0 1
25.148194 32.096927 26.173355 48.452955 0.906193 1.000144 0.016340 -0.004256 -589967.000000 0 0 1
24.404194 31.568027 24.941505 47.055113 0.912695 1.012138 0.048878 -0.002476 -122194.000000 0 0 1
24.512394 32.236227 23.666785 46.905741 0.920673 1.041923 0.048698 -0.013117 39420.400000 0 0 1
25.805094 32.130627 23.112445 47.248970 0.894149 1.059667 0.024781 -0.009652 -144188.000000 0 0 1
25.991994 32.735227 21.714345 47.102989 0.899720 1.091678 0.031990 -0.005183 422732.000000 0 0 1
27.336944 32.945727 21.285145 47.809903 0.878172 1.109395 0.041106 -0.009072 628328.000000 0 0 1
27.281764 33.495127 19.996645 47.603403 0.887277 1.137277 0.044059 -0.016791 -1415060.000000 0 0 1
28.555454 34.152127 19.666445 48.667759 0.874413 1.154806 0.063790 -0.029924 -1265250.000000 0 0 1
29.614794 33.273527 19.376645 48.575899 0.843511 1.160486 0.066186 -0.042862 127609.000000 0 0 1
30.612424 33.884427 18.552745 49.289748 0.836086 1.184887 0.064917 -0.032328 -202657.000000 0 0 1
31.600954 32.965127 17.888545 49.044061 0.806523 1.197438 0.046632 -0.022626 -1022660.000000 0 0 1
32.532824 32.364827 18.753245 49.573691 0.782810 1.182848 0.024078 -0.031020 -356628.000000 0 0 1
33.114374 31.359727 17.983745 49.024579 0.758190 1.195196 0.044608 -0.031858 -57095.900000 0 0 1
34.182954 30.575727 18.798845 49.565573 0.729753 1.181787 0.044636 -0.034294 159108.000000 0 0 1
35.303304 31.298327 19.247145 50.954501 0.725337 1.183451 0.043271 -0.021701 -201255.000000 0 0 1
36.048524 30.489327 20.137745 51.328588 0.702042 1.167633 0.048432 -0.021605 390745.000000 0 0 1
-34.984937 31.298427 20.736745 51.318125 -0.729838 1.154821 0.076204 -0.011625 409455.000000 0 0 1
-34.040342 31.700027 19.747145 50.533022 -0.749814 1.169321 0.076438 -0.011632 886109.000000 0 0 1
-32.893664 32.427027 20.275545 50.444057 -0.778255 1.157160 0.066046 0.000009 995239.000000 0 0 1
-33.118084 33.827027 20.990045 51.784720 -0.795988 1.153453 0.059077 0.007354 -481508.000000 0 0 1
-33.285034 33.662427 22.336945 52.344929 -0.791035 1.129927 0.068658 0.003083 137791.000000 0 0 1
-33.507434 -33.655719 22.962845 52.751756 0.787606 1.120425 0.046763 0.011293 -40851.900000 0 0 1
-33.518264 -33.628019 24.534485 53.443977 0.787033 1.093849 0.058677 -0.001448 51009.300000 0 0 1
-34.716158 -34.094919 25.120305 54.760431 0.776370 1.094230 0.058127 -0.003005 -32730.500000 0 0 1
-34.695995 -33.951819 26.539905 55.325443 0.774558 1.070478 0.065282 -0.007876 -342542.000000 0 0 1
-35.968921 34.108427 27.144545 56.515258 -0.758855 1.069794 0.048551 -0.018854 -475635.000000 0 0 1
-35.983231 33.792627 28.529875 57.014808 -0.754014 1.046742 0.070462 -0.026271 -56223.100000 0 0 1
34.964284 33.424527 29.025425 56.410774 0.762887 1.030329 0.067644 -0.037141 194996.000000 0 0 1
34.934984 32.307727 30.138435 56.325550 0.746347 1.006199 0.067154 -0.028161 -210522.000000 0 0 1
34.995184 30.967227 29.618475 55.325275 0.724409 1.005872 0.053940 -0.028486 606566.000000 0 0 1
-35.997119 30.528727 29.054225 55.425118 -0.703383 1.019013 0.057925 -0.028759 398388.000000 0 0 1
36.118104 29.047127 28.716255 54.524089 0.677313 1.016117 0.052333 -0.019388 125873.000000 0 0 1
35.109434 28.836327 27.714545 53.219377 0.687611 1.023055 0.050669 -0.017398 509811.000000 0 0 1
34.953684 27.521427 27.250105 52.170463 0.666991 1.021217 0.048127 -0.017024 -23091.400000 0 0 1
34.527594 26.381027 28.190585 51.795969 0.652437 0.995287 0.045086 -0.014390 108641.000000 0 0 1
35.541034 26.117027 29.180495 52.884454 0.633729 0.986301 0.041324 -0.015149 511283.000000 0 0 1
35.375524 24.794627 29.694315 52.420927 0.611328 0.968593 0.036202 -0.014012 -103936.000000 0 0 1
35.806194 23.605427 28.804935 51.662598 0.582854 0.979354 0.028218 -0.010982 -195118.000000 0 0 1
34.977124 23.414827 27.665125 50.368765 0.589915 0.989328 0.025477 -0.003978 62806.000000 0 0 1
35.394194 22.397927 26.716255 49.680724 0.564198 1.003020 0.018980 -0.003822 -302401.000000 0 0 1
35.156144 20.993827 27.196785 49.156488 0.538328 0.984512 0.021084 -0.011025 -433051.000000 0 0 1
33.870104 20.521527 26.855295 47.848970 0.544738 0.974899 0.027116 -0.008024 -124134.000000 0 0 1
33.556394 19.250627 27.469225 47.446565 0.520842 0.953355 0.029106 -0.010681 -177372.000000 0 0 1
33.528324 19.152027 29.037855 48.312997 0.518988 0.925999 0.025074 -0.022740 208831.000000 0 0 1
32.375034 19.748227 29.652795 48.139626 0.547728 0.907174 0.025200 -0.023061 665704.000000 0 0 1
32.391014 21.179327 29.575965 48.708104 0.579087 0.918254 0.031719 -0.021790 -309042.000000 0 0 1
31.121814 21.854427 30.236765 48.584414 0.612216 0.899048 0.036173 -0.025589 1177980.000000 0 0 1
29.874104 21.576627 29.566525 47.246083 0.625505 0.894642 0.051928 -0.036180 693809.000000 0 0 1
29.688884 22.196527 28.299735 46.636795 0.641987 0.918754 0.059620 -0.029675 -405682.000000 0 0 1
29.374764 23.726627 28.364435 47.226801 0.679431 0.926545 0.054671 -0.022542 -416448.000000 0 0 1
30.592694 24.403727 28.556765 48.445264 0.673336 0.940401 0.040170 -0.019491 -283950.000000 0 0 1
30.502214 25.686327 29.085695 49.357371 0.699898 0.940619 0.024510 -0.011260 -85745.800000 0 0 1
30.897314 25.776427 30.594365 50.547832 0.695286 0.920709 0.028935 -0.017025 1381960.000000 0 0 1
32.318744 25.486827 30.769185 51.388932 0.667756 0.928855 0.029987 -0.015930 1428490.000000 0 0 1
32.726524 25.298927 32.139675 52.383392 0.658085 0.910252 0.040517 -0.014629 23485.800000 0 0 1
32.133544 23.999927 32.812580 51.819172 0.641502 0.885099 0.048966 -0.019895 -106447.000000 0 0 1
32.413694 23.969427 34.205012 52.869309 0.636737 0.867188 0.035910 -0.021920 243635.000000 0 0 1
31.786904 22.848027 -33.682445 51.642489 0.623224 2.281310 0.017493 -0.017335 -188749.000000 0 0 1
32.284584 22.591027 -32.234275 50.908716 0.610556 2.256448 0.017545 -0.016976 -327776.000000 0 0 1
31.956154 23.578427 -31.242115 50.529276 0.635671 2.237371 0.002136 -0.016353 401962.000000 0 0 1
32.413574 23.258427 -29.884675 49.846645 0.622409 2.213713 0.029499 -0.024085 -314778.000000 0 0 1
33.750484 23.903727 -29.505515 50.804121 0.616240 2.190471 0.028524 -0.003634 -19415.900000 0 0 1
34.366424 23.350927 -28.356295 50.303045 0.596814 2.169666 0.017692 -0.008203 708216.000000 0 0 1
35.550794 24.054927 -27.885605 51.186965 0.594872 2.146922 0.032940 0.000713 889073.000000 0 0 1
-36.053544 23.355527 -26.696585 50.577132 -0.574828 2.126851 0.019280 0.002584 -370018.000000 0 0 1
-35.166012 22.337127 -27.109105 49.704116 -0.565894 2.147674 0.014351 0.001633 198560.000000 0 0 1
-35.260168 21.296027 -26.130525 48.781190 -0.543332 2.136095 -0.003899 -0.001762 67730.700000 0 0 1
-34.321114 20.122527 -26.554295 47.832891 -0.530286 2.159336 0.012543 0.005231 1117940.000000 0 0 1
-32.948854 20.339027 -26.164105 46.731824 -0.553036 2.165034 0.019177 -0.000709 584819.000000 0 0 1
-32.209044 19.152527 -26.234955 45.744012 -0.536463 2.181589 -0.000929 -0.008453 -517219.000000 0 0 1
-30.808934 19.197227 -25.661175 44.454694 -0.557236 2.186145 0.011978 -0.010785 -694629.000000 0 0 1
-30.851084 19.545327 -24.270435 43.850464 -0.564715 2.157335 0.019010 -0.012831 214511.000000 0 0 1
-29.603974 19.516327 -23.594235 42.590729 -0.582848 2.157929 0.025026 -0.007511 163376.000000 0 0 1
-29.883044 19.819527 -22.122735 42.133423 -0.585624 2.123586 0.014662 -0.011909 220738.000000 0 0 1
-30.595774 18.840227 -21.396135 41.819255 -0.551941 2.107881 0.009188 -0.018502 -145051.000000 0 0 1
-31.213134 19.450427 -20.294235 42.005176 -0.557267 2.075030 0.023074 -0.014133 -1164160.000000 0 0 1
-32.138414 18.469227 -19.541935 41.903188 -0.521592 2.055967 0.026145 -0.015285 -168982.000000 0 0 1
-32.843034 19.024527 -18.465935 42.208864 -0.525027 2.023601 0.028452 -0.018080 -75111.500000 0 0 1
-33.815814 19.971327 -18.846035 43.560718 -0.533473 2.018213 0.017586 -0.018274 -655468.000000 0 0 1
-35.012360 20.089627 -17.832935 44.130172 -0.520922 1.986789 0.029084 -0.017078 418167.000000 0 0 1
-34.615569 20.637527 -16.594635 43.583564 -0.537615 1.961408 0.036848 -0.021659 -449226.000000 0 0 1
-35.643895 20.519527 -15.676435 44.014643 -0.522346 1.934956 0.046376 -0.012181 -743473.000000 0 0 1
-35.433464 21.368827 -14.384935 43.807345 -0.542673 1.905372 0.054562 -0.011983 -157102.000000 0 0 1
-35.738550 22.760627 -14.372235 44.742052 -0.567086 1.897818 0.075360 -0.026692 76294.900000 0 0 1
35.201224 23.164727 -14.743735 44.644243 0.582025 1.907364 0.073569 -0.019230 -225306.000000 0 0 1
35.060804 24.715727 -15.068635 45.466371 0.614033 1.908609 0.075902 -0.027537 120389.000000 0 0 1
35.302594 25.624827 -13.962935 45.802494 0.627873 1.880578 0.083646 -0.020979 -127540.000000 0 0 1
34.995384 26.943727 -14.344135 46.437006 0.656130 1.884827 0.077261 -0.020459 -144288.000000 0 0 1
-36.064114 27.851027 -14.793135 47.907586 -0.657599 1.884711 0.079592 -0.010565 173075.000000 0 0 1
-35.716018 27.546527 -16.120635 47.899060 -0.656973 1.914052 0.073433 -0.006423 137852.000000 0 0 1
-34.469457 28.084227 -16.543435 47.439988 -0.683674 1.927005 0.054954 -0.003511 -156354.000000 0 0 1
-34.252152 27.777427 -18.049035 47.650425 -0.681394 1.959274 0.042631 -0.009084 -95549.900000 0 0 1
-33.924144 26.417327 -18.365435 46.754806 -0.661628 1.974474 0.041298 -0.017377 301228.000000 0 0 1
-32.580304 26.087627 -18.054635 45.475381 -0.675178 1.979064 0.040146 -0.008198 19354.600000 0 0 1
-32.338954 24.626727 -18.537535 44.675763 -0.650833 1.998668 0.034138 -0.008747 -360333.000000 0 0 1
-32.169334 24.563827 -19.948835 45.124313 -0.652135 2.028719 0.020509 -0.008275 182769.000000 0 0 1
-31.935114 23.262227 -20.436035 44.481616 -0.629547 2.048146 0.020936 -0.006286 -320860.000000 0 0 1
-31.421964 23.254927 -21.923035 44.819091 -0.637125 2.081906 0.012131 0.001163 736378.000000 0 0 1
-32.496424 23.622227 -22.793435 46.190560 -0.628564 2.086866 0.021850 0.003035 836695.000000 0 0 1
-31.999024 23.468627 -24.102535 46.428937 -0.632803 2.116626 0.021291 0.001541 -180311.000000 0 0 1
-32.807554 24.142227 -25.184285 47.889779 -0.634399 2.124546 0.003217 0.008771 -628577.000000 0 0 1
-32.619794 25.539527 -25.237175 48.510137 -0.664255 2.117935 0.004288 0.010140 -145917.000000 0 0 1
-33.532584 26.200727 -26.089475 49.915658 -0.663266 2.120777 0.017998 -0.000630 -286377.000000 0 0 1
-33.088984 27.639627 -26.495085 50.604539 -0.695905 2.121834 0.017833 -0.002429 244222.000000 0 0 1
-31.939224 27.527227 -27.322745 50.243354 -0.711341 2.145765 -0.004789 -0.003800 -191217.000000 0 0 1
-31.411584 28.806727 -27.609135 50.781684 -0.742168 2.145615 0.006018 -0.008869 -1044760.000000 0 0 1
-30.012984 28.827727 -28.096895 50.212075 -0.765257 2.164657 0.022415 -0.009361 -768813.000000 0 0 1
-28.953284 28.461727 -27.163555 48.848964 -0.776837 2.160449 -0.004303 -0.002077 846410.000000 0 0 1
-27.690554 28.514227 -27.820405 48.516006 -0.800052 2.181480 0.014682 0.010025 435375.000000 0 0 1
-26.823864 29.765127 -27.625295 48.668669 -0.837327 2.174408 0.010919 -0.001872 -734647.000000 0 0 1
-26.354464 30.064727 -26.376185 47.897272 -0.851066 2.153978 0.004708 -0.002977 331238.000000 0 0 1
-27.320574 30.317227 -25.333385 48.034658 -0.837343 2.126331 -0.001220 0.001145 275072.000000 0 0 1
-26.613324 30.650127 -24.014035 47.163261 -0.855777 2.105014 -0.017516 -0.007807 192002.000000 0 0 1
-26.169744 31.980627 -23.855635 47.714854 -0.884996 2.094352 -0.006294 0.000881 -285430.000000 0 0 1
-25.342254 32.130227 -22.736435 46.813745 -0.902962 2.077936 -0.002541 0.018218 -194502.000000 0 0 1
-24.535504 33.439727 -22.921635 47.387842 -0.937794 2.075677 -0.006294 0.022725 -180723.000000 0 0 1
-25.221954 -33.998119 -22.527035 47.952960 0.932523 2.059831 -0.018123 0.008397 106863.000000 0 0 1
-24.627704 -32.897719 -23.155535 47.169508 0.928183 2.083919 -0.000759 0.010633 -884.887000 0 0 1
16.776896 8.760427 -25.110505 31.444344 0.481228 2.495712 0.036957 -0.019840 9052.230000 0 0 1
15.526796 8.103127 -25.154245 30.650907 0.480998 2.533377 0.041454 -0.024776 176256.000000 0 0 1
15.673996 6.698727 -25.090595 30.332904 0.403883 2.544857 0.044189 -0.030745 102481.000000 0 0 1
14.307296 5.956727 -25.076535 29.479042 0.394514 2.588029 0.070937 -0.033740 216063.000000 0 0 1
13.711796 6.086627 -23.751035 28.092206 0.417767 2.578235 0.079509 -0.046863 343807.000000 0 0 1
12.432896 5.511527 -23.949435 27.541410 0.417270 2.625146 0.074405 -0.044357 -728071.000000 0 0 1
11.411396 5.716527 -22.867735 26.188393 0.464406 2.632529 0.074971 -0.043431 -683920.000000 0 0 1
11.619596 4.888627 -21.732135 25.123682 0.398242 2.615959 0.065742 -0.035668 -41569.600000 0 0 1
11.030496 5.374727 -20.539435 23.925466 0.453404 2.603087 0.069342 -0.029758 -639573.000000 0 1 0
11.667396 6.597227 -19.788635 23.900661 0.514621 2.546245 0.076673 -0.037829 -178079.000000 0 1 0
10.955696 6.788027 -18.551735 22.589189 0.554699 2.534423 0.055427 -0.024799 -117947.000000 0 1 0
11.197296 8.002227 -17.917235 22.592972 0.620495 2.486587 0.053992 -0.026359 948614.000000 0 1 0
12.673096 8.389227 -17.508435 23.184732 0.584745 2.426711 0.052880 -0.025242 796039.000000 0 1 0
13.155396 7.752327 -16.329335 22.356435 0.532506 2.389716 0.061144 -0.027439 533027.000000 0 1 0
14.542596 8.035427 -16.175035 23.188078 0.504794 2.342780 0.054713 -0.021698 224734.000000 0 1 0
15.109196 7.431227 -14.879935 22.470501 0.457094 2.294545 0.052408 -0.021710 -515695.000000 0 1 0
16.514696 7.426327 -14.761035 23.361800 0.422588 2.254728 0.049633 -0.026995 378376.000000 0 1 0
16.920196 7.666727 -13.428735 22.921664 0.425438 2.196729 0.043163 -0.026721 -355417.000000 0 1 0
17.210696 9.143227 -13.084635 23.473695 0.488336 2.162068 0.056907 -0.029290 -551873.000000 0 1 0
16.176896 10.103127 -13.213735 23.202757 0.558269 2.176681 0.053025 -0.018827 518290.000000 0 1 0
16.740396 11.404227 -13.089135 24.116855 0.598024 2.144490 0.085056 -0.027262 209068.000000 0 1 0
15.618196 12.469227 -12.951935 23.815169 0.673751 2.145817 0.084506 -0.021926 -56487.500000 0 1 0
15.006996 12.506127 -11.712335 22.777005 0.694750 2.110891 0.095186 -0.014315 197141.000000 0 1 0
15.617896 13.429727 -10.799035 23.257158 0.710210 2.053676 0.101136 -0.016363 -81344.200000 0 1 0
15.250696 14.927727 -10.991535 24.004887 0.774697 2.046414 0.096615 -0.017003 436380.000000 0 1 0
14.009396 15.207727 -10.336135 23.116527 0.826390 2.034353 0.097324 -0.021459 722252.000000 0 1 0
13.781296 16.598527 -10.436535 23.965736 0.877867 2.021365 0.087898 -0.016838 -39351.500000 0 1 0
12.647796 17.087527 -9.516435 23.291905 0.933612 1.991686 0.071818 -0.016907 -44336.000000 0 1 0
12.986696 16.839827 -8.173335 22.782393 0.913871 1.937732 0.083114 -0.022341 -2803.790000 0 1 0
11.962996 17.160927 -7.276035 22.148394 0.962015 1.905525 0.075755 -0.019429 -198582.000000 0 1 0
12.453496 17.109727 -5.772135 21.935128 0.941616 1.837078 0.073886 -0.013959 -105099.000000 0 1 0
13.275996 18.149627 -5.396235 23.125319 0.939257 1.806315 0.076242 -0.008461 -294164.000000 0 1 0
13.833496 17.875927 -4.129135 22.977470 0.912198 1.751482 0.080758 -0.008321 -302222.000000 0 1 0
14.819196 18.961527 -3.727735 24.352496 0.907413 1.724475 0.067340 -0.008399 -172151.000000 0 1 0
16.107896 19.011727 -4.322035 25.290118 0.867894 1.742538 0.068191 -0.011260 494095.000000 0 0 1
16.815996 20.212127 -4.057035 26.603897 0.876860 1.723891 0.038977 -0.006559 -306099.000000 0 0 1
18.245596 20.284227 -4.587335 27.665778 0.838259 1.737378 0.042540 -0.009229 -66531.200000 0 0 1
19.137296 19.212827 -4.248635 27.448492 0.787368 1.726207 0.040567 -0.023922 444088.000000 0 0 1
19.050896 18.059527 -5.018535 26.725809 0.758690 1.759696 0.044942 -0.020167 -252254.000000 0 0 1
20.062496 16.984427 -4.515135 26.671351 0.702503 1.740903 0.064330 -0.023189 631093.000000 0 0 1
21.421396 17.254227 -4.811935 27.923812 0.678066 1.743985 0.051293 -0.021748 602185.000000 0 0 1
22.363296 16.459527 -4.101435 28.068752 0.634485 1.717442 0.051970 -0.023804 -47154.200000 0 0 1
23.827096 16.771427 -4.418235 29.470868 0.613326 1.721282 0.046437 -0.019621 -362906.000000 0 0 1
24.288596 17.910827 -3.711635 30.405754 0.635399 1.693172 0.053070 -0.017152 -144986.000000 0 0 1
25.678796 17.996527 -3.896235 31.598358 0.611284 1.694416 0.045484 -0.008237 -328899.000000 0 0 1
26.311096 19.253927 -3.302235 32.770295 0.631738 1.671737 0.055422 -0.006793 -242489.000000 0 0 1
26.187496 20.349427 -4.177135 33.426525 0.660600 1.696089 0.060173 -0.015491 308782.000000 0 0 1
26.562696 21.554827 -3.499535 34.386540 0.681696 1.672743 0.069686 -0.000835 -245511.000000 0 0 1
26.365096 22.864527 -4.289135 35.161080 0.714411 1.693086 0.042394 0.001455 110847.000000 0 0 1
27.413996 23.336427 -5.135435 36.366038 0.705225 1.712485 0.031032 0.009171 559435.000000 0 0 1
27.873596 22.492127 -6.213135 36.351564 0.678954 1.742558 0.042426 0.004637 379955.000000 0 0 1
28.873496 23.250427 -7.162135 37.756553 0.677935 1.761645 0.022614 0.007228 114272.000000 0 0 1
28.307496 24.067627 -8.094535 38.027444 0.704622 1.785298 0.023630 0.005811 281813.000000 0 0 1
29.321796 24.902227 -8.668435 39.433874 0.704072 1.792428 0.014819 0.003909 305639.000000 0 0 1
30.143496 24.348927 -9.853735 39.982455 0.679459 1.819813 0.017248 -0.006330 239863.000000 0 0 1
29.398396 23.988027 -11.031035 39.514236 0.684399 1.853722 0.019864 -0.003919 55037.300000 0 0 1
30.286096 23.390027 -11.937235 40.085391 0.657623 1.873179 0.007278 -0.006046 -25271.800000 0 0 1
29.686496 22.993027 -13.300035 39.835390 0.659015 1.911208 0.027434 -0.002648 -93842.200000 0 0 1
29.693996 24.040227 -14.331335 40.805062 0.680567 1.929664 0.025215 -0.011345 111342.000000 0 0 1
29.567196 23.497627 -15.614735 40.867805 0.671513 1.962841 0.040190 -0.012953 -316970.000000 0 0 1
29.788096 24.649127 -16.621135 42.085297 0.691275 1.976798 0.043886 -0.015068 -76639.000000 0 0 1
31.167696 24.828727 -16.873335 43.273553 0.672675 1.971344 0.042332 -0.012540 39391.500000 0 0 1
31.354796 25.402827 -18.151135 44.248057 0.680914 1.993484 0.056100 -0.020299 91498.500000 0 0 1
32.851096 25.659327 -18.426535 45.575572 0.663097 1.987018 0.052020 -0.024486 190647.000000 0 0 1
33.637196 24.482227 -18.628035 45.583375 0.629162 1.991780 0.046014 -0.017988 -924199.000000 0 0 1
34.962796 24.860127 -18.752635 46.819700 0.618100 1.982890 0.054872 -0.019455 -402927.000000 0 0 1
36.021096 23.691727 -18.735235 47.008790 0.581782 1.980729 0.046283 -0.025773 293021.000000 0 0 1
36.045596 22.705327 -19.772835 46.965752 0.562119 2.005350 0.040331 -0.016035 -39876.100000 0 0 1
-35.424201 23.120227 -20.877135 47.172807 -0.578248 2.029256 0.024790 -0.010209 -552892.000000 0 0 1
-35.546401 22.092727 -21.998835 47.281962 -0.556091 2.054735 0.022102 -0.006434 -153612.000000 0 0 1
-34.966301 20.873527 -21.721535 46.153780 -0.538182 2.060805 0.015505 -0.012946 -35354.600000 0 0 1
-35.166001 19.986927 -22.757135 46.411336 -0.516829 2.083271 0.011805 -0.013069 -85220.300000 0 0 1
-34.453201 18.636227 -22.607435 45.226410 -0.495841 2.094248 0.010640 -0.016017 -149254.000000 0 0 1
-35.191101 17.632827 -21.952035 45.069081 -0.464495 2.079534 0.018706 -0.017791 105067.000000 0 0 1
-34.877601 16.346927 -22.477035 44.596930 -0.438291 2.099025 0.011735 -0.019781 -621044.000000 0 0 1
-35.990001 15.378527 -22.083535 44.938422 -0.403817 2.084513 0.005821 -0.013102 -295015.000000 0 0 1
35.156296 15.724827 -22.934235 44.824262 0.420592 2.107898 0.047465 -0.011264 -169836.000000 0 0 1
34.064696 14.843827 -22.864035 43.629197 0.410944 2.122400 0.062989 -0.012819 -248173.000000 0 0 1
34.210696 13.484527 -23.677935 43.736127 0.375463 2.142876 0.031607 -0.017924 -592407.000000 0 0 1
34.287496 13.569027 -25.112805 44.613942 0.376831 2.168676 0.036207 -0.009164 230838.000000 0 0 1
34.771396 12.365827 -25.697425 44.970227 0.341683 2.179046 0.031501 -0.007086 -65973.400000 0 0 1
34.576796 12.436227 -27.221075 45.729657 0.345263 2.208387 0.042508 -0.009962 592696.000000 0 0 1
33.197596 12.273627 -27.583145 44.872622 0.354129 2.232800 0.037992 -0.006669 638319.000000 0 0 1
32.613396 13.389827 -28.202545 45.147587 0.389578 2.245511 0.043476 -0.006802 -175250.000000 0 0 1
32.833696 13.572827 -29.672765 46.289807 0.391988 2.266625 0.047536 -0.012246 132558.000000 0 0 1
34.182996 13.898827 -30.012655 47.564841 0.386184 2.253617 0.034586 -0.005158 555890.000000 0 0 1
34.379396 13.698427 -31.393435 48.529759 0.379168 2.274296 0.039421 -0.011461 1371310.000000 0 0 1
35.918196 13.937027 -31.785835 49.946940 0.370137 2.260608 0.050081 -0.015042 2074980.000000 0 0 1
-35.314901 13.057527 -31.304635 48.965513 -0.354156 2.264410 0.046609 -0.011460 157269.000000 0 0 1
-34.830001 13.357127 -30.013875 47.878748 -0.366197 2.248329 0.032175 -0.017199 -84689.200000 0 0 1
-33.664701 12.383227 -29.655285 46.541297 -0.352479 2.261633 0.035923 -0.018232 352826.000000 0 0 1
-34.078301 10.986527 -29.745635 46.549299 -0.311870 2.264012 0.040796 -0.022343 267971.000000 0 0 1
-33.002901 10.189527 -29.343545 45.321756 -0.299462 2.275029 0.039669 -0.030055 -109290.000000 0 0 1
-33.315801 8.762127 -29.845105 45.579028 -0.257178 2.284713 0.053703 -0.019188 -285320.000000 0 0 1
-33.228401 8.601327 -31.243725 46.414220 -0.253295 2.309256 0.055975 -0.018600 166471.000000 0 0 1
-33.511201 7.331527 -31.783335 46.764648 -0.215385 2.318074 0.058228 -0.009302 -900990.000000 0 0 1
-34.801201 6.578127 -31.484985 47.388814 -0.186816 2.297483 0.061039 0.005571 -585238.000000 0 0 1
-34.819401 5.901727 -30.265285 46.510306 -0.167900 2.279331 0.064093 -0.003928 -897005.000000 0 0 1
36.101796 5.710927 -29.939875 47.247757 0.156890 2.257095 0.055905 0.008386 -1142210.000000 0 0 1
35.965096 4.951127 -28.580605 46.204467 0.136805 2.237715 0.054078 0.003931 -192321.000000 0 0 1
-35.660801 3.705827 -28.583225 45.852226 -0.103547 2.243851 0.066447 0.007721 127548.000000 0 0 1
-36.042301 2.985527 -27.440705 45.397722 -0.082645 2.219873 0.058123 0.007490 -450515.000000 0 0 1
-35.435401 1.608127 -27.473455 44.866964 -0.045351 2.229803 0.075503 0.010701 231735.000000 0 0 1
-34.071701 1.616927 -27.037505 43.526107 -0.047421 2.241043 0.067340 0.009010 314927.000000 0 0 1
-33.569501 0.312327 -27.066525 43.123146 -0.009304 2.249336 0.079127 0.013770 250554.000000 0 0 1
-32.268301 0.136227 -26.259345 41.603065 -0.004222 2.253880 0.073785 0.007176 112760.000000 0 0 1
-32.682001 0.154427 -24.913635 41.095332 -0.004725 2.222121 0.068887 0.005552 757187.000000 0 0 1
-31.613201 0.501327 -24.015635 39.703861 -0.015857 2.220398 0.096100 0.001064 586412.000000 0 0 1
-32.040701 0.264127 -22.514235 39.160785 -0.008243 2.183300 0.095991 -0.002619 -258218.000000 0 0 1
-32.177701 -1.123673 -22.240835 39.132108 0.034907 2.175299 0.110643 -0.012379 329233.000000 0 0 1
-32.550101 -1.199673 -20.858335 38.678398 0.036840 2.140374 0.084288 -0.008920 817936.000000 0 0 1
-34.054501 -1.120373 -20.390335 39.708060 0.032888 2.110062 0.076801 -0.008403 357088.000000 0 0 1
-34.740201 -2.300273 -20.571935 40.439799 0.066117 2.104476 0.070688 -0.013123 195461.000000 0 0 1
-36.047001 -2.254173 -20.003435 41.286863 0.062453 2.076586 0.063977 -0.008630 380223.000000 0 0 1
35.508996 -3.647973 -19.923535 40.879625 -0.102375 2.079873 0.066154 -0.016459 -90160.100000 0 0 1
35.087996 -4.290673 -21.109835 41.172837 -0.121679 2.109138 0.049531 -0.011524 538718.000000 0 0 1
-36.065201 -4.754973 -21.895335 42.458382 0.131088 2.112608 0.045312 -0.018160 185957.000000 0 0 1
35.582196 -5.583773 -23.052735 42.763300 -0.155657 2.140138 0.044722 -0.016888 -488111.000000 0 0 1
35.135096 -6.874673 -22.668535 42.374504 -0.193223 2.135253 0.053312 -0.015783 142906.000000 0 0 1
34.596996 -7.683673 -23.684335 42.625564 -0.218544 2.159925 0.048654 -0.013472 258620.000000 0 0 1
33.174596 -7.243673 -24.158635 41.673304 -0.214976 2.189175 0.033211 -0.007183 -180991.000000 0 0 1
33.142596 -6.179673 -25.073435 42.015440 -0.184340 2.210262 0.037381 -0.007382 -1009360.000000 0 0 1
31.849996 -5.758373 -25.287575 41.073624 -0.178864 2.234025 0.024824 -0.007728 -893744.000000 0 0 1
31.802396 -4.552373 -26.284195 41.508739 -0.142180 2.256504 0.051523 -0.028591 91334.400000 0 0 1
32.050496 -4.794573 -27.682055 42.620634 -0.148493 2.277722 0.061915 -0.020076 219608.000000 0 0 1
31.463396 -3.771173 -28.426585 42.570386 -0.119290 2.301985 0.063981 -0.024863 -101867.000000 0 0 1
31.295296 -4.009373 -29.898325 43.467005 -0.127420 2.329305 0.076913 -0.019093 -153974.000000 0 0 1
30.603496 -2.998873 -30.533285 43.334152 -0.097679 2.352657 0.064669 -0.028509 -152964.000000 0 0 1
30.048296 -3.542373 -31.726055 43.840519 -0.117348 2.379901 0.063942 -0.027536 -582170.000000 0 0 1
29.724396 -2.504873 -32.836655 44.362823 -0.084071 2.404140 0.068159 -0.028625 -62542.500000 0 0 1
28.721396 -1.545473 -32.515905 43.411878 -0.053757 2.417362 0.061736 -0.028256 1800680.000000 0 0 1
27.353596 -1.993373 -32.251275 42.336007 -0.072746 2.436873 0.066276 -0.034980 1291080.000000 0 0 1
26.544796 -2.533073 -33.455975 42.782531 -0.095138 2.468666 0.067751 -0.038079 -952137.000000 0 0 1
26.888596 -3.817973 -33.891995 43.430874 -0.141049 2.466048 0.069744 -0.031337 -50677.900000 0 0 1
26.220596 -4.098473 33.389065 42.651458 -0.155053 0.671587 0.049888 -0.027696 -452349.000000 0 0 1
26.826496 -5.261473 32.524387 42.487407 -0.193671 0.698968 0.030974 -0.029081 -329783.000000 0 0 1
28.096596 -5.066673 31.968885 42.861399 -0.178413 0.728961 0.036576 -0.029048 -428323.000000 0 0 1
28.172596 -4.083873 30.922015 42.030277 -0.143956 0.744085 0.055822 -0.032416 -750392.000000 0 0 1
28.775996 -2.730973 31.305885 42.609560 -0.094621 0.745550 0.052234 -0.030631 -1178610.000000 0 0 1
30.093196 -2.773373 31.716595 43.809068 -0.091900 0.761251 0.048497 -0.026588 -1030970.000000 0 0 1
30.480896 -1.479973 32.015825 44.229949 -0.048516 0.761431 0.048131 -0.023028 -281382.000000 0 0 1
31.920596 -1.495973 32.561330 45.622392 -0.046831 0.776010 0.045841 -0.023956 -109768.000000 0 0 1
32.905096 -1.887073 31.599285 45.659843 -0.057286 0.806459 0.054518 -0.019835 -351845.000000 0 0 1
34.137996 -1.767273 32.282335 47.017818 -0.051722 0.813997 0.057798 -0.016645 -308645.000000 0 0 1
35.259096 -2.380773 31.424695 47.290416 -0.067420 0.843966 0.052848 -0.006885 -446671.000000 0 0 1
35.484196 -1.800073 30.142025 46.593027 -0.050685 0.867256 0.037679 -0.001790 -329690.000000 0 0 1
-35.555901 -2.315973 29.629095 46.340793 0.065044 0.877113 0.034866 -0.005792 -65535.400000 0 0 1
-35.193501 -1.752573 28.216655 45.142371 0.049757 0.895589 0.035348 -0.004007 615026.000000 0 0 1
36.053996 -2.010873 27.192415 45.203558 -0.055716 0.925350 0.039761 -0.018368 534517.000000 0 0 1
-35.682301 -1.486773 25.947385 44.144127 0.041643 0.942474 0.040192 -0.010838 126870.000000 0 0 1
-26.595314 15.318927 11.940865 32.932727 -0.522586 1.199758 0.066163 -0.014091 -689963.000000 0 0 1
-27.707914 14.725527 12.500365 33.776156 -0.488494 1.191686 0.037793 0.005606 -664280.000000 0 0 1
-28.490744 15.644027 13.206865 35.083890 -0.502145 1.184849 0.052096 -0.008780 163099.000000 0 0 1
-29.832684 14.965327 13.637465 36.054549 -0.464960 1.182896 0.057009 -0.008159 329386.000000 0 0 1
-30.760534 15.795527 14.303465 37.420559 -0.474389 1.178582 0.049645 -0.014335 -22876.400000 0 0 1
-31.837054 14.967127 14.737065 38.141761 -0.439456 1.174097 0.048892 -0.009801 306749.000000 0 0 1
-32.894894 15.590127 15.663065 39.629001 -0.442581 1.164465 0.047419 -0.010222 -122046.000000 0 0 1
-32.387984 15.965527 16.915865 39.875130 -0.457988 1.132695 0.039702 -0.001873 -497694.000000 0 0 1
-33.379014 16.255927 17.862265 41.200415 -0.453202 1.122372 0.035265 0.001949 -118832.000000 0 0 1
-32.805934 16.531127 19.329365 41.510623 -0.466768 1.086429 0.030771 0.004141 109017.000000 0 0 1
-32.107924 15.404927 19.779165 40.736297 -0.447346 1.063814 0.031263 -0.000381 -30864.400000 0 0 1
-31.082954 15.673427 20.735665 40.518812 -0.467038 1.033571 0.040873 -0.003043 342760.000000 0 0 1
-31.488714 16.197127 22.105165 41.743554 -0.475084 1.012730 0.037540 -0.010013 -477117.000000 0 0 1
-31.941924 17.561327 22.162465 42.659835 -0.502681 1.024512 0.034597 -0.002428 -56001.300000 0 0 1
-31.986674 18.182827 23.425165 43.617667 -0.516898 1.003852 0.035986 -0.002558 -1120310.000000 0 0 1
-32.914114 17.543927 24.454265 44.599768 -0.489714 0.990461 0.014808 -0.007436 -27250.400000 0 0 1
-34.265308 17.439927 24.038765 45.344510 -0.470796 1.012035 0.031515 -0.003628 154472.000000 0 0 1
-35.056683 18.603227 24.116565 46.439852 -0.487875 1.024756 0.026274 -0.001808 -669776.000000 0 0 1
35.691084 18.277227 23.877165 46.669364 0.473277 1.033723 0.002712 -0.006120 34328.800000 0 0 1
35.169844 17.464627 24.929465 46.512464 0.460908 1.005135 0.015515 -0.006944 23452.400000 0 0 1
34.358594 16.410627 24.441665 45.246178 0.445590 1.000130 0.026811 -0.004245 29981.600000 0 0 1
33.839984 15.458627 25.513965 45.111817 0.428507 0.969670 0.033146 -0.001860 465867.000000 0 0 1
32.914574 16.039727 26.480065 45.186678 0.453447 0.944664 0.024702 -0.010684 769469.000000 0 0 1
32.915614 15.301827 27.685465 45.651599 0.435159 0.919207 0.019454 -0.009501 -319869.000000 0 0 1
31.668604 14.394227 27.760465 44.505479 0.426612 0.897260 0.018792 0.008063 -489271.000000 0 0 1
31.866384 13.241827 27.026565 43.832039 0.393833 0.906387 0.017960 -0.000222 -350484.000000 0 0 1
30.923904 12.252627 27.217265 42.978997 0.377242 0.885027 0.016378 0.005642 -907646.000000 0 0 1
31.392754 10.856527 26.716065 42.627659 0.332954 0.893446 0.033142 0.012378 -239405.000000 0 0 1
32.400914 10.189827 27.401465 43.640487 0.304699 0.891956 0.037106 0.007570 -462160.000000 0 0 1
32.736544 9.003627 26.738265 43.216680 0.268397 0.903706 0.031779 0.005589 -127748.000000 0 0 1
33.819584 8.175427 27.485065 44.339944 0.237186 0.902217 0.056360 0.001566 -339866.000000 0 0 1
35.015494 8.895427 27.518665 45.414649 0.248780 0.919846 0.080206 -0.005441 -920018.000000 0 0 1
35.968514 8.096427 28.156165 46.390255 0.221407 0.918590 0.066393 -0.004198 842061.000000 0 0 1
-34.965932 8.854227 28.667665 46.074383 -0.248011 0.899241 0.057803 -0.006810 1284240.000000 0 0 1
-34.060704 9.307827 27.679665 44.865700 -0.266759 0.905941 0.056831 -0.013366 703640.000000 0 0 1
-32.840384 9.847027 28.236265 44.415554 -0.291315 0.881843 0.085641 -0.013594 665420.000000 0 0 1
-32.007714 10.288827 27.035065 43.142189 -0.311016 0.893549 0.089775 -0.018483 -417115.000000 0 0 1
-31.350324 9.306427 26.260365 41.941139 -0.288567 0.894224 0.074210 -0.018021 526719.000000 0 0 1
-30.438994 9.928427 25.346665 40.835762 -0.315294 0.901164 0.056623 -0.023915 233336.000000 0 0 1
-29.427964 8.993427 24.649565 39.426994 -0.296594 0.895415 0.060107 -0.027017 264950.000000 0 0 1
-28.538304 9.640627 23.742365 38.354613 -0.325777 0.903299 0.052311 -0.026911 14911.800000 0 0 1
-27.879994 8.667727 22.973065 37.150845 -0.301421 0.904126 0.049458 -0.016785 -399017.000000 0 0 1
-26.780494 9.218127 22.087265 35.916792 -0.331508 0.908466 0.048808 -0.013306 -1767290.000000 0 0 1
-25.598654 9.617427 22.731265 35.559758 -0.359385 0.877285 0.050010 -0.020533 217063.000000 0 0 1
-24.638004 10.246927 21.895765 34.517463 -0.394137 0.883643 0.043411 -0.013149 255031.000000 0 0 1
-24.064504 9.442027 20.737965 33.140842 -0.373906 0.894700 0.036318 -0.008764 -1147380.000000 0 0 1
-25.027924 9.149127 19.717165 33.149209 -0.350466 0.933779 0.041242 -0.008693 523513.000000 0 0 1
-24.539904 8.400127 18.566565 31.898062 -0.329803 0.949537 0.039834 -0.009174 -130820.000000 0 0 1
-24.104404 6.945327 18.661365 31.265099 -0.280536 0.931195 0.052910 -0.002480 -24272.700000 0 0 1
-22.850804 6.724427 19.303265 30.659308 -0.286197 0.889751 0.041426 -0.006334 714616.000000 0 0 1
-22.621304 5.387727 19.852265 30.575536 -0.233814 0.864151 0.051178 -0.009562 -303885.000000 0 0 1
-22.818104 4.136727 18.953665 29.950289 -0.179344 0.885584 0.070315 -0.013365 -1065470.000000 0 0 1
-24.183904 4.053527 18.679665 30.825674 -0.166069 0.919802 0.080417 -0.019002 -58430.500000 0 0 1
-24.575404 3.211627 17.552665 30.370398 -0.129948 0.954578 0.085898 -0.014217 -55932.500000 0 0 1
-24.496704 1.655927 17.726365 30.282909 -0.067495 0.945474 0.088311 -0.011138 -643208.000000 0 0 1
-23.229904 1.083127 17.861265 29.322796 -0.046593 0.915839 0.082995 -0.015365 -174785.000000 0 0 1
-23.249904 -0.168673 18.536065 29.735033 0.007255 0.897745 0.092686 -0.024159 443786.000000 0 0 1
-21.831904 -0.853473 18.579765 28.680448 0.039073 0.866077 0.082056 -0.015779 360538.000000 0 0 1
-20.891504 -0.234373 19.395465 28.507787 0.011218 0.822547 0.071854 -0.022218 -456596.000000 0 0 1
-19.830204 -1.131873 19.605065 27.908362 0.057016 0.791920 0.062994 -0.011192 -39273.000000 0 0 1
-18.797904 -0.743373 20.700865 27.972122 0.039525 0.737647 0.064127 -0.017617 159924.000000 0 0 1
-19.221504 -0.837573 22.016365 29.238469 0.043547 0.718197 0.067461 -0.024570 -939302.000000 0 0 1
-18.221504 -0.488473 22.901765 29.270337 0.026801 0.672250 0.065500 -0.024705 -913505.000000 0 0 1
-18.621604 -0.667173 24.380865 30.686085 0.035813 0.652571 0.064458 -0.017982 306252.000000 0 0 1
-19.412404 0.414327 24.890465 31.568154 -0.021340 0.662483 0.058065 -0.028720 450032.000000 0 0 1
-20.803704 0.095227 24.959065 32.492431 -0.004577 0.694849 0.073293 -0.022536 196932.000000 0 0 1
-21.510504 1.268027 25.693065 33.532719 -0.058881 0.697876 0.058294 -0.026980 -380016.000000 0 0 1
-21.558604 2.529027 25.013165 33.118391 -0.116776 0.714738 0.057530 -0.027058 249245.000000 0 0 1
-22.777504 2.819127 24.354765 33.465157 -0.123142 0.755739 0.058903 -0.025557 -512495.000000 0 0 1
-22.560104 3.885927 23.294665 32.660375 -0.170574 0.776687 0.064085 -0.027159 794531.000000 0 0 1
-21.738804 3.568127 22.100265 31.204628 -0.162686 0.783799 0.060951 -0.022048 2345620.000000 0 0 1
-20.380504 3.066627 22.254565 30.332075 -0.149348 0.747049 0.058991 -0.022246 813597.000000 0 0 1
-19.864104 2.498827 20.937465 28.969021 -0.125139 0.763018 0.057497 -0.020093 -356244.000000 0 0 1
-19.411004 3.374327 19.893665 27.998769 -0.172116 0.780560 0.057902 -0.012523 282982.000000 0 0 1
-19.167804 2.611427 18.777665 26.959691 -0.135407 0.800276 0.066597 -0.021623 -78611.400000 0 0 1
-18.568804 3.375427 17.589965 25.799241 -0.179816 0.820574 0.042331 -0.012933 1118060.000000 0 0 1
-17.156104 3.710527 17.559765 24.828315 -0.213000 0.785199 0.040255 -0.017145 1205750.000000 0 1 0
-16.956304 4.522327 16.385665 24.009533 -0.260638 0.819667 0.039429 -0.016354 -232318.000000 0 1 0
-15.474304 4.885427 16.209265 22.936036 -0.305809 0.785951 0.041780 -0.012320 -314100.000000 0 1 0
-14.822504 5.735127 17.160665 23.389885 -0.369180 0.747076 0.027477 -0.016606 -12281.700000 0 1 0
-15.251004 7.041927 17.350565 24.150030 -0.432570 0.769226 0.021686 -0.022291 -726254.000000 0 1 0
-14.732204 8.040327 16.205065 23.329998 -0.499586 0.802930 0.007857 -0.011183 -194471.000000 0 1 0
-15.235904 7.937927 14.937965 22.765901 -0.480307 0.855084 0.014630 -0.007502 1324210.000000 0 1 0
-16.673504 8.131627 14.780865 23.719255 -0.453757 0.898021 0.019045 -0.005453 1587030.000000 0 1 0
-17.270604 7.536027 13.477565 23.167007 -0.411445 0.949909 0.019678 -0.000736 23530.300000 0 1 0
-17.165404 6.073327 13.575065 22.711644 -0.340067 0.930150 0.020588 -0.002559 438018.000000 0 1 0
-17.801104 5.471827 12.414965 22.381947 -0.298220 0.982810 0.023689 -0.008923 511475.000000 0 1 0
-17.475004 3.963227 12.384165 21.781884 -0.223021 0.966050 0.023942 -0.007930 -113005.000000 0 1 0
-18.184304 3.300927 13.385065 22.819399 -0.179571 0.943985 0.033147 -0.008213 43932.500000 0 1 0
-17.846804 1.911927 13.496265 22.456915 -0.106723 0.926064 0.037367 -0.014695 -88766.400000 0 1 0
-18.802204 1.093827 14.413465 23.716393 -0.058110 0.917581 0.054749 -0.017783 584914.000000 0 1 0
-20.149904 0.965327 13.975065 24.540842 -0.047871 0.964946 0.068946 -0.010738 151690.000000 0 1 0
-20.923604 0.490827 15.038465 25.771952 -0.023454 0.947739 0.066206 -0.016001 -225986.000000 0 0 1
-22.343704 0.159127 14.517565 26.646315 -0.007122 0.994617 0.073611 -0.013202 -219874.000000 0 0 1
-22.487604 -1.018073 13.728365 26.366585 0.045242 1.023157 0.085569 -0.017561 850110.000000 0 0 1
-23.755604 -1.142173 13.088665 27.146757 0.048043 1.067695 0.087299 -0.020662 436748.000000 0 0 1
-23.554204 -2.272873 12.092565 26.574360 0.096198 1.098372 0.087184 -0.028681 -7702.340000 0 0 1
-23.336904 -3.504873 12.782365 26.838108 0.149072 1.074381 0.089342 -0.023647 269660.000000 0 0 1
-23.051404 -4.510973 11.812365 26.291597 0.193250 1.104834 0.092417 -0.027118 -149634.000000 0 0 1
-23.080404 -5.920773 12.399765 26.861027 0.251113 1.090968 0.096942 -0.029525 784389.000000 0 0 1
-24.295804 -6.297173 13.084165 28.304343 0.253607 1.090246 0.080847 -0.023809 838818.000000 0 0 1
-24.340704 -7.686073 13.458765 28.856263 0.305862 1.085572 0.086006 -0.028795 379974.000000 0 0 1
-25.297014 -8.005173 14.682365 30.324801 0.306477 1.065382 0.083531 -0.020056 912107.000000 0 0 1
-26.687064 -7.829873 14.433665 31.334278 0.285387 1.092086 0.078975 -0.022008 542176.000000 0 0 1
-27.432444 -8.077073 15.631265 32.590099 0.286344 1.070561 0.071918 -0.015296 -1304120.000000 0 0 1
-28.846884 -7.540973 15.558065 33.631271 0.255692 1.089863 0.067604 -0.021451 -603034.000000 0 0 1
-29.785594 -8.120573 14.648465 34.171667 0.266165 1.127773 0.056890 -0.017526 782992.000000 0 0 1
-29.988884 -9.559273 14.710165 34.743371 0.308578 1.133607 0.055823 -0.023290 -787566.000000 0 0 1
-30.493264 -10.204673 16.034265 35.931492 0.322938 1.108231 0.059506 -0.023630 -566345.000000 0 0 1
-29.381924 -10.417473 16.845765 35.434460 0.340726 1.075371 0.064485 -0.013985 -158221.000000 0 0 1
-29.748944 -10.766573 18.117965 36.457913 0.347249 1.050709 0.067986 -0.003068 -243728.000000 0 0 1
-28.506094 -10.932073 18.991765 35.955455 0.366201 1.014314 0.079061 0.002137 28992.800000 0 0 1
-27.660814 -12.001173 18.565265 35.409290 0.409359 1.018898 0.079266 0.001316 -51118.900000 0 0 1
-26.449844 -11.872673 19.291065 34.823839 0.421918 0.983681 0.064710 0.000453 740114.000000 0 0 1
-25.319904 -12.825273 18.706265 33.992786 0.468857 0.988072 0.070132 0.001186 701525.000000 0 0 1
-24.844004 -12.419773 17.399965 32.775510 0.463576 1.011154 0.057458 0.002944 446974.000000 0 0 1
-23.662704 -13.106873 17.005565 31.951571 0.505836 1.009565 0.053994 -0.007554 280099.000000 0 0 1
-23.358004 -12.989873 15.492265 30.892449 0.507530 1.045476 0.049563 -0.015009 -210557.000000 0 0 1
-23.076404 -11.703573 15.106865 29.961832 0.469364 1.042337 0.040235 -0.011069 -62219.800000 0 0 1
-22.954204 -11.513973 13.761765 29.135086 0.464932 1.078849 0.030094 -0.016846 610968.000000 0 0 1
-21.492504 -11.081173 13.399165 27.645212 0.476036 1.064796 0.050689 -0.024730 369789.000000 0 0 1
-21.165504 -9.698773 13.564265 26.945019 0.429681 1.043261 0.070867 -0.025180 -241816.000000 0 0 1
-19.869504 -9.290173 13.229965 25.615161 0.437360 1.028050 0.082435 -0.025632 -66715.200000 0 0 1
-19.346004 -9.394873 11.702065 24.484073 0.452080 1.072481 0.087982 -0.021732 -252378.000000 0 1 0
-19.036604 -10.716673 11.300365 24.595480 0.512732 1.093422 0.089124 -0.029136 73002.800000 0 1 0
-18.728904 -10.689773 9.975565 23.760366 0.518645 1.137527 0.099759 -0.030282 -833724.000000 0 1 0
-17.992704 -11.956273 9.449365 23.579236 0.586506 1.158462 0.075074 -0.022329 1199220.000000 0 1 0
-16.563204 -12.021273 9.605565 22.607910 0.627821 1.131971 0.079885 -0.032838 1150140.000000 0 1 0
-16.045204 -11.982073 10.928865 22.813565 0.641431 1.071223 0.076400 -0.027092 141122.000000 0 1 0
-14.515504 -12.279373 11.142365 22.037131 0.702137 1.040698 0.063141 -0.018616 895326.000000 0 1 0
-14.167004 -13.563973 10.702465 22.343413 0.763656 1.071283 0.048910 -0.027783 -491903.000000 0 1 0
-12.836404 -13.886273 10.931265 21.842491 0.824666 1.046668 0.056504 -0.019563 -646813.000000 0 1 0
-12.436004 -15.341773 10.909265 22.561832 0.889627 1.066116 0.055662 -0.018649 -114514.000000 0 1 0
-12.657104 -15.959273 9.648165 22.538584 0.900284 1.128437 0.035948 -0.018627 108919.000000 0 1 0
-12.378004 -17.312373 9.695865 23.386813 0.950087 1.143308 0.037027 -0.016013 88268.900000 0 1 0
-12.779304 -18.220873 8.486665 23.818781 0.959161 1.206490 0.032434 -0.010199 245254.000000 0 1 0
-12.110504 -17.824873 7.263965 22.741055 0.974019 1.245678 0.027388 -0.016820 183475.000000 0 1 0
-12.512204 -18.620473 6.143665 23.259877 0.979138 1.303493 0.017354 -0.006080 123010.000000 0 1 0
-11.650404 -18.331473 4.888765 22.263756 1.004653 1.349408 0.015293 -0.009085 236241.000000 0 1 0
-11.906904 -19.286673 3.885065 22.996605 1.017707 1.401041 0.027101 -0.007991 -66779.400000 0 1 0
-11.028104 -18.960673 2.857865 22.119982 1.043993 1.441236 0.026345 -0.016808 -30550.900000 0 1 0
-11.158804 -19.754673 1.576565 22.743165 1.056609 1.501420 0.024220 -0.011722 32562.800000 0 1 0
-10.930004 -21.112573 1.750565 23.838419 1.093088 1.497296 0.018735 -0.013290 -19204.100000 0 1 0
-11.452004 -22.067073 0.768665 24.873579 1.092093 1.539889 0.026326 -0.005505 456823.000000 0 1 0
-10.489504 -22.343973 -0.450235 24.687761 1.131881 1.589035 0.030792 0.000852 391533.000000 0 1 0
-10.436804 -21.237073 -1.385735 23.703595 1.114018 1.629291 0.031332 -0.013478 -184144.000000 0 1 0
-11.464604 -21.247773 -2.376035 24.260061 1.075998 1.668894 0.043561 -0.011658 1009820.000000 0 1 0
-12.593804 -20.115273 -2.209635 23.835071 1.011420 1.663635 0.051871 -0.016210 818581.000000 0 1 0
-13.498704 -20.551673 -1.207235 24.617955 0.989643 1.619855 0.053146 -0.007907 -379473.000000 0 1 0
-14.590004 -19.660373 -1.277235 24.515909 0.932369 1.622918 0.068021 -0.001796 -108150.000000 0 1 0
26.471496 -19.826673 -4.101635 33.326573 -0.642849 1.694183 0.070883 -0.043251 -204548.000000 0 0 1
25.372796 -19.998573 -3.249535 32.469697 -0.667498 1.671043 0.082427 -0.042146 -278945.000000 0 0 1
25.373996 -21.300273 -2.714535 33.240187 -0.698339 1.652552 0.063986 -0.030968 -1005660.000000 0 0 1
24.136496 -21.718473 -1.997035 32.530765 -0.732715 1.632224 0.059161 -0.024917 -852698.000000 0 0 1
22.968696 -21.839573 -2.779135 31.815901 -0.760205 1.658258 0.064245 -0.032638 321244.000000 0 0 1
21.923396 -22.530473 -2.114835 31.507619 -0.799054 1.637968 0.060123 -0.026356 664579.000000 0 0 1
20.785796 -23.095773 -3.019135 31.218252 -0.837991 1.667658 0.064668 -0.031422 823708.000000 0 0 1
19.946996 -22.155373 -3.715935 30.042493 -0.837803 1.694803 0.067577 -0.038190 118854.000000 0 0 1
19.077296 -22.758773 -4.649035 30.058585 -0.873170 1.726085 0.069516 -0.031232 -503152.000000 0 0 1
18.063396 -21.793873 -5.163435 28.773604 -0.878722 1.751224 0.061853 -0.023826 -627701.000000 0 0 1
17.010796 -21.342873 -4.313235 27.631312 -0.897872 1.727537 0.054926 -0.016603 371625.000000 0 0 1
17.323396 -20.388873 -3.358135 26.964482 -0.866506 1.695660 0.049120 -0.024723 -650255.000000 0 0 1
16.150196 -20.101373 -2.421235 25.898966 -0.893963 1.664421 0.043308 -0.012298 -229056.000000 0 0 1
15.794096 -21.164073 -1.605435 26.456547 -0.929687 1.631516 0.051297 -0.015434 -107072.000000 0 0 1
15.142896 -20.629273 -0.494235 25.595283 -0.937582 1.590107 0.053536 -0.006613 -417945.000000 0 0 1
14.796796 -21.627473 0.625765 26.212294 -0.970776 1.546921 0.053102 -0.001468 576667.000000 0 0 1
13.638896 -22.485473 0.507165 26.303483 -1.025564 1.551514 0.046525 -0.003067 638729.000000 0 0 1
13.119496 -22.729773 1.802065 26.306106 -1.047315 1.502239 0.050838 -0.000635 7759.810000 0 0 1
12.264496 -24.015573 1.850765 27.029446 -1.098634 1.502271 0.046635 0.001646 -313968.000000 0 0 1
12.909996 -25.213523 2.040965 28.399917 -1.097574 1.498869 0.033594 -0.004203 -646553.000000 0 0 1
12.069396 -26.291783 1.833865 28.987778 -1.140437 1.507491 0.027342 0.002796 -125749.000000 0 0 1
12.694296 -27.658363 2.329565 30.521420 -1.140510 1.494396 0.016803 0.005801 171083.000000 0 0 1
12.820796 -27.706613 3.715965 30.754473 -1.137403 1.449674 0.029854 -0.001858 108110.000000 0 0 1
12.649596 -29.025133 4.223965 31.942331 -1.159801 1.438171 0.027861 -0.003350 -196294.000000 0 0 1
12.666896 -29.120043 5.767565 32.275254 -1.160495 1.391132 0.044689 0.003041 -114154.000000 0 0 1
12.254296 -30.346773 6.321965 33.332592 -1.187011 1.379977 0.020428 -0.009875 -192281.000000 0 0 1
12.470596 -30.365063 7.692465 33.715380 -1.181109 1.340610 0.031067 -0.007154 640.899000 0 0 1
11.831896 -31.630043 8.291865 34.773674 -1.212840 1.330024 0.011387 -0.007245 56068.100000 0 0 1
11.894496 -31.784973 9.663165 35.286546 -1.212712 1.293404 0.009743 -0.004185 -101103.000000 0 0 1
11.052596 -32.878843 9.977865 36.093434 -1.246503 1.290703 0.010884 -0.003491 121940.000000 0 0 1
10.849296 -33.058143 11.521665 36.651014 -1.253683 1.251012 0.010304 -0.003435 -18488.400000 0 0 1
11.943896 -33.731603 12.150865 37.790491 -1.230486 1.243449 0.015131 -0.008013 210169.000000 0 0 1
11.851796 -34.072742 13.520465 38.525574 -1.236049 1.212213 0.022554 -0.005919 503042.000000 0 0 1
10.704096 33.513306 13.878365 37.819683 1.261639 1.195056 0.026574 -0.001928 716422.000000 0 0 1
10.893896 32.265183 13.252665 36.542470 1.245178 1.199671 0.038331 -0.007393 -111399.000000 0 0 1
9.630696 31.663453 13.329465 35.679114 1.275529 1.187917 0.028533 -0.005114 -295438.000000 0 0 1
9.444196 30.644803 12.198765 34.308988 1.271850 1.207288 0.026565 -0.006207 -356208.000000 0 0 1
9.251696 31.252103 10.906065 34.369028 1.282982 1.247892 -0.014090 -0.003011 -265801.000000 0 0 1
10.434296 31.724623 10.309465 34.951557 1.253039 1.271378 0.004785 -0.008400 71651.200000 0 0 1
10.128496 32.071633 8.782465 34.760722 1.264900 1.315373 0.003466 -0.008848 -218939.000000 0 0 1
9.300196 33.121959 8.528565 35.444241 1.297059 1.327793 -0.000420 -0.007351 -623562.000000 0 0 1
8.851596 33.178605 7.177165 35.081081 1.310082 1.364754 -0.002529 -0.011279 164123.000000 0 0 1
9.140596 -34.099660 6.470965 35.891653 -1.308898 1.389513 0.000482 0.000114 832548.000000 0 0 1
8.286296 -32.985143 6.926565 34.708208 -1.324676 1.369882 0.005984 0.005859 806164.000000 0 0 1
8.686596 -31.796643 6.238565 33.547029 -1.304112 1.383743 0.022650 -0.007013 44807.900000 0 0 1
8.013796 -30.603363 6.894565 32.377798 -1.314687 1.356212 0.015355 -0.006598 -123560.000000 0 0 1
8.459496 -30.508493 8.245365 32.715704 -1.300309 1.316018 0.018553 -0.002962 -28629.300000 0 0 1
8.459596 -29.195843 8.769865 31.636570 -1.288766 1.289911 0.042875 -0.004991 524415.000000 0 0 1
9.544396 -28.164143 8.209865 30.849900 -1.244058 1.301428 0.038150 -0.013845 371250.000000 0 0 1
9.646196 -27.098983 9.122465 30.176537 -1.228820 1.263688 0.046781 -0.008442 -69363.800000 0 0 1
10.351296 -25.965953 8.635865 29.256764 -1.191455 1.271158 0.042384 -0.016983 -131407.000000 0 0 1
9.579196 -24.932773 7.814065 27.829190 -1.203984 1.286183 0.048157 -0.014154 -178530.000000 0 0 1
9.231796 -25.348563 6.507465 27.751087 -1.221533 1.334098 0.047321 -0.011719 -470757.000000 0 0 1
8.375296 -24.486973 5.827465 26.527661 -1.241239 1.349315 0.058289 -0.011258 -22911.200000 0 0 1
8.242496 -24.879773 4.320665 26.563321 -1.250883 1.407415 0.050662 -0.003672 120657.000000 0 0 1
7.391696 -25.981183 4.048865 27.313959 -1.293618 1.422014 0.037625 -0.005884 -64584.900000 0 0 1
7.940896 -27.289223 4.297865 28.744237 -1.287626 1.420713 0.033219 -0.002362 -155208.000000 0 0 1
7.011696 -28.393353 3.840465 29.497382 -1.328692 1.440229 0.033261 -0.007370 3002.730000 0 0 1
5.800996 -28.585233 4.568265 29.523485 -1.370579 1.415439 0.031784 -0.004786 511433.000000 0 0 1
4.821796 -29.416813 3.962665 30.071603 -1.408328 1.438638 0.033767 0.000796 339689.000000 0 0 1
5.110696 -30.905453 4.206065 31.606285 -1.406914 1.437324 0.021866 0.001864 564464.000000 0 0 1
6.142396 -31.507903 3.360165 32.276427 -1.378263 1.466501 0.023923 -0.001596 748012.000000 0 0 1
6.246996 -32.849193 3.731565 33.645491 -1.382868 1.459659 0.014123 -0.002138 -84209.700000 0 0 1
7.308896 -33.595583 2.894265 34.503043 -1.356579 1.486813 0.014129 -0.003078 -80225.700000 0 0 1
7.027896 -33.727763 1.501065 34.484874 -1.365365 1.527254 0.016895 -0.001521 -418206.000000 0 0 1
7.897396 33.917640 0.978865 34.838676 1.342032 1.542696 0.009423 0.000190 -761000.000000 0 0 1
7.551296 33.364452 -0.421435 34.210910 1.348219 1.583115 0.020593 0.004634 328362.000000 0 0 1
6.523296 32.375503 -0.429135 33.028938 1.371970 1.583789 0.011133 0.004824 1074850.000000 0 0 1
5.186996 32.867613 -0.201535 33.274998 1.414272 1.576853 0.012464 -0.001158 797201.000000 0 0 1
4.036096 31.856433 0.059165 32.111149 1.444771 1.568954 0.017871 -0.003270 403442.000000 0 0 1
3.729496 30.961853 -0.998735 31.201650 1.450919 1.602811 0.030725 0.000871 -435169.000000 0 0 1
2.590396 30.242263 -0.653135 30.360026 1.485350 1.592311 0.030785 -0.014051 -323970.000000 0 0 1
2.272196 29.023503 -1.619935 29.157345 1.492668 1.626383 0.031440 -0.010179 -192551.000000 0 0 1
1.885396 29.451583 -2.901435 29.654153 1.506867 1.668796 0.044049 -0.015202 46555.900000 0 0 1
2.102896 28.453783 -3.841235 28.788800 1.497025 1.704624 0.053956 -0.027604 -210480.000000 0 0 1
1.883996 29.080463 -5.202335 29.602146 1.506101 1.747456 0.050954 -0.031869 -1215300.000000 0 0 1
0.574296 29.479453 -5.300735 29.957733 1.551318 1.748673 0.046517 -0.029549 -986836.000000 0 0 1
0.290096 30.401473 -6.369835 31.062976 1.561254 1.777323 0.042302 -0.019583 -253246.000000 0 0 1
0.323196 29.910303 -7.819535 30.917241 1.559991 1.826492 0.040443 -0.021407 -227562.000000 0 0 1
-0.850404 29.236053 -8.267135 30.394333 -1.541717 1.846263 0.037895 -0.019686 316593.000000 0 0 1
-0.968104 28.951333 -9.628135 30.525692 -1.537370 1.891686 0.029010 -0.021222 -107854.000000 0 0 1
-1.407204 30.043543 -10.580235 31.883163 -1.523992 1.909054 0.019398 -0.019552 -161006.000000 0 0 1
-0.307304 30.808793 -11.034435 32.726670 -1.560822 1.914705 0.028348 -0.017566 109215.000000 0 0 1
-0.689804 32.104103 -11.525435 34.117223 -1.549313 1.915395 0.017843 -0.015486 58377.600000 0 0 1
-0.824904 33.189463 -10.392435 34.788268 -1.545947 1.874162 0.015515 -0.015856 171957.000000 0 0 1
0.379196 33.442041 -9.694435 34.820913 1.559458 1.852933 0.024025 -0.024954 -17435.100000 0 0 1
0.110896 34.164970 -8.515235 35.210321 1.567550 1.815057 0.021954 -0.015862 -697218.000000 0 0 1
1.331496 -34.156212 -7.680035 35.034307 -1.531834 1.791806 0.032595 -0.019444 -520857.000000 0 0 1
2.244796 -33.181003 -8.160235 34.243357 -1.503246 1.811413 0.044614 -0.013419 102581.000000 0 0 1
3.152696 -32.908513 -7.077535 33.808301 -1.475286 1.781699 0.048382 -0.020146 -44084.800000 0 0 1
4.417596 -32.147573 -7.641635 33.337310 -1.434235 1.802074 0.033964 -0.018346 985187.000000 0 0 1
5.314296 -32.950623 -8.430535 34.424689 -1.410893 1.818211 0.055180 -0.015194 430495.000000 0 0 1
6.030496 -33.936513 -7.716835 35.321429 -1.394933 1.791047 0.059090 -0.002852 -1251930.000000 0 0 1
6.404196 33.404530 -8.567435 35.075309 1.381378 1.817551 0.058182 -0.003147 -3474.910000 0 0 1
5.417296 32.455543 -8.916535 34.091259 1.405407 1.835423 0.041874 -0.002559 -121267.000000 0 0 1
4.359496 32.925173 -9.750235 34.614149 1.439156 1.856345 0.056867 -0.009061 46175.700000 0 0 1
3.263396 31.913043 -9.960335 33.590182 1.468892 1.871848 0.056773 -0.020845 -102109.000000 0 0 1
3.882396 30.878543 -10.750135 32.926020 1.445721 1.903388 0.059592 -0.016367 223280.000000 0 0 1
3.241896 29.659503 -10.531135 31.640177 1.461925 1.910111 0.038571 -0.022189 -5013.920000 0 0 1
3.769596 28.433783 -11.371135 30.854377 1.438990 1.948237 0.042920 -0.018459 37570.100000 0 0 1
3.741696 28.676143 -12.783435 31.618629 1.441048 1.987010 0.041724 -0.013932 -161776.000000 0 0 1
4.990896 28.460713 -13.380035 31.842528 1.397201 2.004455 0.049801 -0.022941 -445431.000000 0 0 1
4.987896 29.065523 -14.798835 32.995291 1.400843 2.035898 0.054237 -0.017926 -95819.400000 0 0 1
4.119996 28.406453 -15.703735 32.718622 1.426763 2.071409 0.033732 -0.009040 67364.200000 0 0 1
4.044596 29.074183 -17.012435 33.927715 1.432570 2.096049 0.058993 -0.011161 356239.000000 0 0 1
2.966496 28.380723 -17.910535 33.690545 1.466649 2.131307 0.043021 -0.008914 152432.000000 0 0 1
3.281296 27.112293 -18.408235 32.934882 1.450356 2.163889 0.052368 -0.001939 -392867.000000 0 0 1
2.276696 26.577603 -19.220135 32.878046 1.485343 2.195169 0.040470 -0.014079 -387230.000000 0 0 1
2.863296 25.559923 -20.193735 32.700077 1.459239 2.236413 0.052584 -0.012057 101337.000000 0 0 1
3.140296 24.392463 -19.485435 31.377315 1.442760 2.240819 0.037789 -0.011982 42138.300000 0 0 1
4.078796 23.525873 -20.095135 31.207655 1.399128 2.270403 0.051122 -0.008813 208429.000000 0 0 1
4.661696 22.362373 -19.240535 29.866458 1.365278 2.270798 0.052384 -0.010351 563755.000000 0 0 1
3.739996 21.269273 -18.948635 28.730129 1.396735 2.291001 0.053610 -0.007722 264147.000000 0 0 1
4.373196 20.379673 -18.085035 27.595732 1.359416 2.285450 0.041109 0.001413 87181.200000 0 0 1
3.452996 19.202273 -17.648735 26.308332 1.392876 2.306140 0.037394 -0.006622 132378.000000 0 0 1
2.417396 19.500873 -16.739535 25.813560 1.447462 2.276380 0.032800 -0.011091 -778291.000000 0 0 1
1.658996 18.396473 -16.398035 24.699758 1.480859 2.296811 0.030620 -0.006871 -361396.000000 0 1 0
2.240296 17.239773 -15.520735 23.304976 1.441571 2.299608 0.019048 0.002077 -182937.000000 0 1 0
3.314496 16.441373 -15.986435 23.170471 1.371868 2.332214 0.012331 -0.011633 -163401.000000 0 1 0
2.998596 15.385273 -16.904835 23.053669 1.378309 2.393932 0.024728 -0.017719 -156184.000000 0 1 0
2.964796 15.691273 -18.434935 24.389606 1.384052 2.427751 0.034031 -0.017222 -108720.000000 0 1 0
4.220796 16.037773 -18.987935 25.210453 1.313453 2.423675 0.039110 -0.014709 -231805.000000 0 0 1
4.143896 16.461273 -20.346035 26.497293 1.324184 2.446280 0.049929 -0.018932 -514921.000000 0 0 1
4.495996 15.346173 -21.387135 26.704467 1.285800 2.499564 0.043021 -0.021226 18879.300000 0 0 1
3.551696 14.369473 -21.766835 26.322830 1.328483 2.544402 0.043214 -0.017604 568840.000000 0 0 1
2.312296 14.869173 -22.322935 26.921227 1.416523 2.548462 0.063445 -0.024966 1282890.000000 0 0 1
1.407796 13.664973 -22.846335 26.658364 1.468136 2.600224 0.074836 -0.021737 386197.000000 0 0 1
1.068196 12.650373 -21.903835 25.317009 1.486556 2.616311 0.062747 -0.012890 610084.000000 0 0 1
0.074596 11.767873 -22.447535 25.345221 1.564457 2.658734 0.053693 -0.009400 290602.000000 0 0 1
-0.618704 10.730273 -21.567835 24.097574 -1.513200 2.679275 0.036797 -0.007166 -661954.000000 0 1 0
-1.518604 11.233273 -20.608535 23.520295 -1.436423 2.638721 0.034737 -0.008597 -19866.500000 0 1 0
-1.872304 10.328173 -19.556235 22.195112 -1.391463 2.648991 0.018929 -0.005399 350866.000000 0 1 0
-3.074404 9.429473 -19.936435 22.267204 -1.255622 2.679962 0.016272 -0.006914 -127208.000000 0 1 0
-2.641004 8.268873 -20.671935 22.420483 -1.261646 2.744040 0.017712 -0.010813 -575015.000000 0 1 0
-3.687004 7.411273 -20.935635 22.512702 -1.109162 2.765067 0.017599 -0.005199 -664150.000000 0 1 0
-3.127004 6.158973 -21.631235 22.707299 -1.100996 2.832505 0.016152 -0.014861 -118797.000000 0 1 0
-2.368304 5.280273 -20.886835 21.673717 -1.149175 2.871305 0.017717 -0.016392 -90835.400000 0 1 0
-1.992504 4.147473 -21.666735 22.149921 -1.122940 2.932336 0.024286 -0.013922 -99368.400000 0 1 0
-1.099804 3.046373 -21.037835 21.285687 -1.224337 2.988840 0.025437 -0.011388 -190652.000000 0 1 0
0.281596 3.301273 -21.025535 21.284990 1.485703 2.985295 0.028797 -0.006962 -323913.000000 0 1 0
0.826996 2.397873 -20.061435 20.221150 1.238683 3.015825 0.028559 -0.009185 401135.000000 0 1 0
2.375596 2.323373 -19.911635 20.186994 0.774285 2.976235 0.025926 -0.016939 294985.000000 0 1 0
2.954896 1.702873 -21.037735 21.312379 0.522802 2.980880 0.038566 -0.020653 1163280.000000 0 1 0
4.405296 1.769373 -20.957535 21.488499 0.381925 2.918830 0.054543 -0.017706 1586680.000000 0 1 0
5.155196 1.104173 -22.149235 22.768045 0.210998 2.907914 0.051251 -0.009999 -419109.000000 0 1 0
6.537496 1.172773 -22.029835 23.009300 0.177504 2.848766 0.055434 -0.018171 -263265.000000 0 1 0
7.257496 0.613873 -23.174235 24.291835 0.084384 2.837079 0.046915 -0.015564 802838.000000 0 1 0
8.806896 0.684873 -23.108735 24.739525 0.077609 2.776475 0.054921 -0.024925 452540.000000 0 1 0
9.225596 2.028473 -23.432235 25.264520 0.216431 2.758401 0.054731 -0.027917 1468340.000000 0 0 1
10.658296 2.065973 -23.694835 26.063628 0.191463 2.711951 0.049517 -0.027596 1274420.000000 0 0 1
13.582196 -21.054773 22.802545 33.878247 -0.997881 0.832440 0.079994 -0.013508 -375782.000000 0 0 1
12.571896 -21.907373 23.312745 34.372513 -1.049815 0.825434 0.071601 -0.009376 364883.000000 0 0 1
11.234596 -21.460773 23.159145 33.513086 -1.088530 0.807859 0.072084 -0.023592 492843.000000 0 0 1
10.605896 -21.252273 21.716745 32.183244 -1.107911 0.830124 0.082261 -0.021939 -614815.000000 0 0 1
11.002096 -20.022873 21.137745 31.125003 -1.068355 0.824227 0.092207 -0.024391 4642.810000 0 0 1
10.589496 -20.050873 19.772745 30.085485 -1.084898 0.853674 0.088893 -0.020795 109267.000000 0 0 1
10.947596 -18.766273 19.031945 28.883175 -1.042698 0.851403 0.082985 -0.019429 160835.000000 0 0 1
10.409996 -17.537873 19.620945 28.300645 -1.035116 0.804733 0.097575 -0.017804 101986.000000 0 0 1
10.686696 -16.444873 18.789345 27.160243 -0.994527 0.806823 0.091620 -0.019155 -97521.000000 0 0 1
9.770996 -15.280073 19.209745 26.419071 -1.001866 0.756684 0.081068 -0.019113 1005710.000000 0 0 1
8.397696 -15.483073 18.853545 25.801221 -1.073823 0.751416 0.067693 -0.018301 314563.000000 0 0 1
7.569996 -14.342373 19.112845 25.066100 -1.085152 0.703631 0.040755 -0.017124 858037.000000 0 0 1
6.110296 -14.611073 18.618645 24.443263 -1.174703 0.704850 0.010120 -0.010514 248654.000000 0 1 0
6.015196 -14.878373 17.243545 23.556070 -1.186596 0.749512 0.016740 -0.006858 244072.000000 0 1 0
4.694996 -15.055973 16.739245 22.998427 -1.268516 0.755625 0.005545 -0.010897 164528.000000 0 1 0
3.963296 -16.368273 17.055945 23.969425 -1.333236 0.779065 0.005241 -0.000994 -272150.000000 0 1 0
2.671296 -16.318373 16.482845 23.347576 -1.408537 0.786995 0.009202 -0.001011 83545.900000 0 1 0
1.846996 -17.434973 16.919645 24.365223 -1.465254 0.803186 0.007616 -0.002270 833560.000000 0 1 0
0.422196 -17.216173 16.339945 23.739601 -1.546278 0.811655 0.017219 -0.008147 24968.400000 0 1 0
0.242096 -17.527373 14.974345 23.054250 -1.556985 0.863835 0.019329 -0.000849 -246848.000000 0 1 0
-1.109804 -17.288073 14.644145 22.683918 1.506690 0.869022 0.013307 -0.006115 -71169.600000 0 1 0
-1.532204 -17.835973 13.290545 22.295923 1.485101 0.932164 0.012352 -0.011485 -299685.000000 0 1 0
-2.918104 -17.896773 13.087645 22.362832 1.409167 0.945619 0.006999 -0.014377 -410447.000000 0 1 0
-3.322904 -19.165073 12.540345 23.143076 1.399120 0.998146 0.020399 -0.014411 -1195950.000000 0 1 0
-4.802804 -19.384473 12.515445 23.568222 1.327922 1.010980 0.014312 -0.014966 -1161660.000000 0 1 0
-5.292104 -19.920773 13.746545 24.775211 1.311136 0.982613 0.009865 -0.014459 -180628.000000 0 1 0
-5.607104 -21.332573 13.615645 25.921113 1.313768 1.017761 -0.016693 -0.006029 23599.300000 0 0 1
-6.353204 -21.993073 14.798245 27.258880 1.289579 0.996936 -0.002300 -0.006528 61972.700000 0 0 1
-7.721804 -21.670473 14.852445 27.383038 1.228495 0.997510 0.010642 -0.010729 -328527.000000 0 0 1
-8.439704 -22.563773 15.677045 28.742342 1.212870 0.993890 0.000527 -0.009804 -11218.900000 0 0 1
-9.945704 -22.267973 15.736645 29.024501 1.150742 0.997761 0.026741 -0.011734 -30674.500000 0 0 1
-10.280404 -21.049773 16.424945 28.610461 1.116483 0.959305 0.020194 -0.016382 -370162.000000 0 0 1
-11.589604 -20.651273 16.087145 28.628486 1.059391 0.974082 0.041179 -0.012721 -148985.000000 0 0 1
-12.074504 -19.372573 16.837945 28.365589 1.013436 0.935266 0.042658 -0.008220 -144887.000000 0 0 1
-12.127404 -19.548673 18.231545 29.353258 1.015534 0.900641 0.041014 -0.010357 -230555.000000 0 0 1
-12.601804 -18.365873 18.810845 29.154050 0.969424 0.869482 0.036774 -0.017548 -283779.000000 0 0 1
-13.027404 -18.644273 20.239945 30.446306 0.960920 0.843604 0.029689 -0.011307 263750.000000 0 0 1
-14.209404 -19.453673 20.263145 31.479320 0.939943 0.871477 0.032565 -0.009514 283132.000000 0 0 1
-14.435704 -20.005373 21.525245 32.740505 0.945726 0.853367 0.029349 -0.003845 -115903.000000 0 0 1
-15.725804 -20.835773 21.642545 33.909145 0.924262 0.878572 0.036612 -0.007609 -592740.000000 0 0 1
-15.794904 -21.958973 20.735045 34.082511 0.947240 0.916781 0.037391 -0.013140 193565.000000 0 0 1
-16.999004 -22.084173 19.987745 34.295580 0.914783 0.948616 0.044514 -0.005162 426840.000000 0 0 1
-18.149904 -22.761873 20.787945 35.772343 0.897654 0.950695 0.047058 -0.001007 -327819.000000 0 0 1
-18.706004 -21.873273 21.732045 36.064337 0.863292 0.924053 0.052946 -0.000303 -299450.000000 0 0 1
-19.498704 -22.514773 22.682445 37.438052 0.857063 0.919942 0.065381 -0.003255 -124263.000000 0 0 1
-20.059204 -21.546473 23.784605 37.846131 0.821130 0.891230 0.054979 0.002844 -300082.000000 0 0 1
-21.128404 -20.799873 23.303045 37.710424 0.777563 0.904667 0.060520 0.012599 -342604.000000 0 0 1
-21.445204 -19.732873 24.166685 37.859103 0.743839 0.878467 0.051898 0.004059 341375.000000 0 0 1
-22.421204 -18.745273 23.460325 37.476426 0.696340 0.894380 0.060665 0.002690 60776.100000 0 0 1
-21.784504 -18.003273 22.483645 36.113664 0.690648 0.898761 0.053925 0.007672 -749368.000000 0 0 1
-22.628604 -17.168873 21.785645 35.797182 0.649061 0.916520 0.059031 0.003711 -354477.000000 0 0 1
-21.948104 -16.589073 20.520145 34.321902 0.647223 0.929951 0.055248 0.009465 368279.000000 0 0 1
-21.024104 -15.516473 20.563245 33.250879 0.635798 0.904057 0.057126 0.009412 -346121.000000 0 0 1
-21.096904 -14.917873 19.277145 32.237100 0.615483 0.929818 0.053091 0.000024 183180.000000 0 0 1
-19.879104 -14.037673 18.923345 30.827391 0.614843 0.909870 0.037798 -0.004647 121658.000000 0 0 1
-19.795204 -13.844173 17.496445 29.826780 0.610303 0.943940 0.031892 -0.004836 -298781.000000 0 0 1
-18.751204 -12.982073 17.167545 28.545866 0.605562 0.925541 0.047527 -0.017153 -949986.000000 0 0 1
-18.728304 -12.642673 15.636945 27.479094 0.593789 0.965448 0.043140 -0.014213 272270.000000 0 0 1
-18.013004 -11.475473 15.189945 26.208571 0.567229 0.952584 0.047506 -0.018891 -115897.000000 0 0 1
-16.653004 -11.424473 15.525045 25.472890 0.601289 0.915400 0.044467 -0.028688 -581352.000000 0 0 1
-16.024404 -10.101473 14.947545 24.129865 0.562459 0.902739 0.048513 -0.027764 82555.600000 0 1 0
-16.556804 -8.909473 15.490145 24.360851 0.493673 0.881671 0.050581 -0.019947 -8245.690000 0 1 0
-16.219304 -7.828973 14.644845 23.212715 0.449708 0.888087 0.043520 -0.013805 -393551.000000 0 1 0
-16.555304 -6.502973 15.427345 23.545057 0.374287 0.856314 0.063530 -0.005827 579953.000000 0 1 0
-15.758404 -6.241273 16.567145 23.701288 0.377105 0.796801 0.046893 -0.005404 19800.100000 0 1 0
-14.370304 -6.016973 16.464245 22.666737 0.396530 0.757783 0.038337 -0.010266 -156900.000000 0 1 0
-13.606604 -6.091073 17.803445 23.220756 0.420903 0.697105 0.035128 -0.005482 -31075.700000 0 1 0
-13.683804 -7.272473 18.602645 24.211438 0.488502 0.694551 0.031520 -0.014223 -609.214000 0 1 0
-13.186404 -8.423773 17.936745 23.802689 0.568478 0.717336 0.027808 -0.012084 -476495.000000 0 1 0
-13.226004 -9.736273 18.795045 24.959485 0.634576 0.718153 0.029674 -0.011651 1149050.000000 0 1 0
-14.513504 -10.376073 19.000745 26.064017 0.620673 0.753932 0.035483 -0.011964 929216.000000 0 0 1
-15.385404 -9.732673 19.888945 26.963043 0.564040 0.741232 0.033803 -0.008059 -1052990.000000 0 0 1
-16.800704 -10.294173 20.138045 28.174004 0.549722 0.774495 0.037599 -0.002655 140197.000000 0 0 1
-17.722204 -10.282173 19.089845 28.003960 0.525723 0.820735 0.046778 -0.008770 -6884.370000 0 0 1
-18.058004 -9.010773 18.580645 27.432206 0.462840 0.826670 0.050852 -0.006103 -999242.000000 0 0 1
-19.172904 -9.002673 17.512545 27.483406 0.438994 0.879931 0.071279 -0.001930 808180.000000 0 0 1
-20.467604 -9.231673 18.091945 28.835136 0.423717 0.892552 0.067934 0.005305 72097.900000 0 0 1
-21.498904 -9.225073 17.149645 29.007157 0.405334 0.938224 0.089040 -0.006579 -956686.000000 0 0 1
-22.869104 -9.401173 17.729445 30.425502 0.390027 0.948729 0.081098 0.001494 -996352.000000 0 0 1
-23.393304 -8.351873 18.521145 30.984403 0.342915 0.930096 0.083027 0.004053 906486.000000 0 0 1
-24.801704 -8.567373 18.675845 32.207322 0.332602 0.952235 0.073275 0.008146 669384.000000 0 0 1
-25.562264 -7.416173 19.418145 32.946825 0.282370 0.940507 0.076609 0.004718 18347.800000 0 0 1
-25.511874 -7.407273 20.805645 33.743122 0.282577 0.906393 0.080366 0.005654 406141.000000 0 0 1
-26.189064 -6.280473 21.396145 34.396314 0.235368 0.899441 0.073666 0.000695 -356802.000000 0 0 1
-26.094644 -6.383973 22.993745 35.360965 0.239934 0.862873 0.072039 0.000239 -233003.000000 0 0 1
-24.975704 -5.890373 23.668375 34.909515 0.231612 0.825769 0.069516 -0.001152 -1204600.000000 0 0 1
-23.890404 -6.728373 23.573305 34.230441 0.274524 0.811150 0.071466 0.003777 -963344.000000 0 0 1
-22.841604 -6.485673 24.689455 34.254518 0.276660 0.765891 0.065863 0.002556 289683.000000 0 0 1
-22.066504 -5.294473 24.498965 33.394031 0.235481 0.747143 0.062110 0.000011 -197505.000000 0 0 1
-21.341804 -4.984773 25.597755 33.698154 0.229455 0.708069 0.064846 -0.004318 -392080.000000 0 0 1
-20.699904 -3.617073 25.649595 33.158271 0.172992 0.686372 0.059114 -0.014301 247634.000000 0 0 1
-19.830004 -3.281873 26.750785 33.460488 0.164014 0.644378 0.047610 -0.010668 94572.600000 0 0 1
-20.392804 -3.261473 28.035345 34.820744 0.158590 0.634896 0.042322 -0.018308 8142.080000 0 0 1
-21.280204 -2.039373 28.435335 35.574912 0.095543 0.644652 0.052279 -0.025469 218934.000000 0 0 1
-22.559804 -2.149773 27.870045 35.920825 0.095005 0.682697 0.072598 -0.029046 -724415.000000 0 0 1
-23.435004 -1.186573 28.457525 36.884117 0.050589 0.689540 0.061796 -0.022918 421699.000000 0 0 1
-24.674804 -0.874373 27.596825 37.029653 0.035421 0.729867 0.065890 -0.024095 -423077.000000 0 0 1
-24.310004 -0.461273 26.285495 35.806652 0.018972 0.746463 0.056330 -0.022522 1218220.000000 0 0 1
-25.499984 -0.180073 25.484785 36.052127 0.007062 0.785709 0.059238 -0.020129 1593780.000000 0 0 1
-26.432674 -1.390573 25.074795 36.460462 0.052560 0.812445 0.057504 -0.022432 25898.500000 0 0 1
-27.127134 -1.998573 26.121685 37.712307 0.073541 0.805630 0.049043 -0.018472 -296794.000000 0 0 1
-27.508044 -3.373773 25.873855 37.914789 0.122037 0.819726 0.041901 -0.012725 -114762.000000 0 0 1
-26.451164 -4.473573 26.042125 37.388089 0.167540 0.800239 0.050263 -0.018078 -116403.000000 0 0 1
-26.186374 -4.745373 27.395495 38.193689 0.179270 0.770908 0.055685 -0.022587 83633.500000 0 0 1
-25.340574 -5.897873 27.559565 37.900649 0.228673 0.756631 0.060548 -0.022625 336990.000000 0 0 1
-24.993504 -6.286673 29.027015 38.817072 0.246420 0.726069 0.055054 -0.022805 490852.000000 0 0 1
-26.187674 -6.665673 29.724765 40.171969 0.249242 0.737818 0.061159 -0.022341 761017.000000 0 0 1
-25.953524 -7.272073 31.006245 41.083521 0.273190 0.715581 0.071443 -0.013231 -935606.000000 0 0 1
-27.245494 -7.745273 31.656305 42.478557 0.276971 0.729916 0.036621 -0.021595 -767086.000000 0 0 1
-27.832104 -8.717473 30.860735 42.461810 0.303537 0.757162 0.025420 -0.025315 -102022.000000 0 0 1
-29.084894 -9.084273 31.404895 43.757542 0.302736 0.770299 0.034639 -0.021413 -55379.700000 0 0 1
-29.975894 -9.796673 30.367045 43.779978 0.315876 0.804282 0.020856 -0.028181 -155537.000000 0 0 1
-29.544954 -11.153173 30.140695 43.655000 0.360959 0.808714 0.029401 -0.026561 494637.000000 0 0 1
-30.483384 -11.823473 29.302325 43.905096 0.370003 0.840082 0.014485 -0.019398 -349124.000000 0 0 1
-29.872084 -13.065573 28.591075 43.364734 0.412313 0.850887 0.021556 -0.020199 -427843.000000 0 0 1
-28.863034 -12.603073 27.745855 41.973142 0.411698 0.848595 0.029963 -0.018341 -1364340.000000 0 0 1
-28.085484 -13.648073 27.279175 41.463450 0.452343 0.852758 0.033340 -0.012322 -64177.000000 0 0 1
-26.733784 -12.993473 26.796065 40.019428 0.452411 0.837158 0.051734 -0.016505 141729.000000 0 0 1
-25.925924 -12.384873 27.797525 39.978006 0.445651 0.801931 0.047474 -0.014312 -17239.600000 0 0 1
-26.374124 -11.200273 28.474875 40.396275 0.401590 0.788530 0.049323 -0.012923 -1133570.000000 0 0 1
-26.372704 -9.861373 27.609685 39.434260 0.357827 0.795196 0.056729 -0.007441 663169.000000 0 0 1
-25.072644 -9.405573 27.203565 38.172454 0.358887 0.777529 0.057453 -0.006262 461000.000000 0 0 1
-24.431904 -10.082273 26.149935 37.180496 0.391379 0.790734 0.062912 -0.007694 -75661.700000 0 0 1
-25.082714 -10.122873 24.695975 36.626579 0.383588 0.830829 0.067801 0.001876 585774.000000 0 0 1
-26.329784 -10.817373 24.539805 37.582910 0.389818 0.859322 0.059718 -0.006506 593015.000000 0 0 1
-26.893894 -10.564673 23.262245 37.094823 0.374308 0.892969 0.067756 0.001543 267992.000000 0 0 1
-28.100644 -11.551773 22.932545 38.065618 0.390026 0.924232 0.069119 -0.007387 1988420.000000 0 0 1
-29.356694 -11.095773 23.524185 39.221409 0.361367 0.927571 0.056336 -0.004549 905424.000000 0 0 1
-29.504014 -11.149673 24.917395 40.195505 0.361314 0.902175 0.057056 -0.010172 -1377430.000000 0 0 1
-30.917964 -10.979473 25.458335 41.528257 0.341225 0.910898 0.022476 -0.006427 -743535.000000 0 0 1
-31.394954 -9.621673 25.326815 41.468871 0.297384 0.913798 0.025594 -0.013295 1019280.000000 0 0 1
-32.770264 -9.344373 25.692525 42.676848 0.277776 0.924762 0.027522 -0.006438 979780.000000 0 0 1
-33.092254 -9.490573 27.211305 43.881925 0.279295 0.901923 0.013451 -0.006490 -654374.000000 0 0 1
-33.197744 -10.838373 27.685515 44.565101 0.315569 0.900475 0.007300 -0.010878 145944.000000 0 0 1
-33.808734 -10.779073 28.975495 45.812642 0.308637 0.886048 0.013449 -0.009529 -1301100.000000 0 0 1
-34.482129 -12.095173 29.426235 46.917094 0.337357 0.892848 0.019103 -0.013151 1310480.000000 0 0 1
-35.735139 -12.465973 28.761095 47.535263 0.335644 0.920971 0.012246 -0.007138 1606540.000000 0 0 1
35.412914 -11.642373 29.146325 47.319421 -0.317630 0.907207 0.019873 -0.006535 -1256180.000000 0 0 1
34.071914 -12.010873 28.560385 46.052709 -0.338914 0.901840 0.023531 -0.007013 -709849.000000 0 0 1
33.909334 -11.703873 27.151725 44.989329 -0.332349 0.922894 0.023556 0.000325 406319.000000 0 0 1
32.771564 -12.410073 26.629035 44.012394 -0.361997 0.920987 0.030348 0.005575 262447.000000 0 0 1
32.495084 -12.027573 25.098755 42.784816 -0.354499 0.943908 0.034597 0.006413 77046.100000 0 0 1
32.094764 -10.668573 24.945875 42.026052 -0.320918 0.935295 0.040726 -0.006687 65680.300000 0 0 1
32.331354 -10.151673 23.595015 41.292828 -0.304240 0.962577 0.032914 -0.000142 -270017.000000 0 0 1
31.838294 -8.693873 23.441025 40.481379 -0.266565 0.953225 0.034203 0.008332 -304132.000000 0 0 1
30.441614 -8.634473 23.441875 39.379785 -0.276381 0.933186 0.047130 0.003556 -793275.000000 0 0 1
30.053884 -7.425173 22.881145 38.495661 -0.242212 0.934299 0.045552 0.009486 164004.000000 0 0 1
28.528664 -7.137673 22.879845 37.260144 -0.245160 0.909606 0.053391 0.015363 213773.000000 0 0 1
27.858334 -8.060573 22.061945 36.438840 -0.281650 0.920463 0.048591 0.020627 -217491.000000 0 0 1
26.461794 -8.007273 22.245945 35.485561 -0.293838 0.893227 0.048230 0.003835 -257655.000000 0 0 1
14.699396 -16.925973 26.603315 34.789326 -0.855687 0.700224 0.076361 -0.019176 6817.270000 0 0 1
14.246996 -18.257773 26.242855 35.000152 -0.908168 0.723048 0.081629 -0.013991 252708.000000 0 0 1
15.091296 -19.322373 26.674475 36.230222 -0.907732 0.743285 0.052704 -0.004522 -876789.000000 0 0 1
14.524596 -20.696673 26.375785 36.537627 -0.958874 0.764281 0.044691 -0.014666 701608.000000 0 0 1
13.638096 -21.266973 27.405615 37.273980 -1.000575 0.744764 0.037719 -0.010830 1336570.000000 0 0 1
12.354596 -20.634173 27.466195 36.507493 -1.031301 0.719183 0.056299 -0.011904 40284.600000 0 0 1
11.525896 -21.053273 28.718475 37.427763 -1.069903 0.696170 0.043380 -0.005746 336062.000000 0 0 1
12.131796 -20.670273 29.956895 38.364779 -1.040050 0.674781 0.048755 -0.011853 -14426.000000 0 0 1
11.357496 -19.719873 30.632385 38.160308 -1.048255 0.638939 0.061683 -0.013205 -12731.400000 0 0 1
11.130196 -18.264873 30.154855 36.970287 -1.023510 0.616943 0.060787 -0.015530 -368951.000000 0 0 1
12.307896 -17.531773 30.145335 36.980922 -0.958707 0.617793 0.048114 -0.001007 -738808.000000 0 0 1
12.132896 -16.296173 29.471505 35.795838 -0.930809 0.603557 0.047774 -0.003197 -17003.600000 0 0 1
12.962896 -15.129373 30.019925 36.029578 -0.862366 0.585923 0.046386 -0.003515 42347.500000 0 0 1
12.506396 -13.846373 29.639155 35.023014 -0.836202 0.561840 0.063654 -0.006247 -96911.400000 0 0 1
13.193896 -12.869473 30.329795 35.490826 -0.772951 0.546052 0.060487 -0.000261 -275790.000000 0 0 1
12.648996 -11.481673 29.863625 34.404390 -0.737061 0.519600 0.058085 0.000594 104721.000000 0 0 1
12.983196 -10.952473 28.581155 33.247594 -0.700760 0.536220 0.071158 -0.005093 -1632310.000000 0 0 1
14.274296 -11.011773 28.180335 33.453639 -0.657083 0.569131 0.080197 -0.003965 -1952650.000000 0 0 1
14.659396 -10.061873 27.058565 32.377541 -0.601524 0.581353 0.071411 -0.010483 -11314.100000 0 0 1
14.881996 -8.699973 27.285885 32.275112 -0.529017 0.563453 0.070215 -0.009029 885342.000000 0 0 1
16.108496 -8.320673 27.963235 33.326563 -0.476791 0.575229 0.073544 -0.015032 562135.000000 0 0 1
16.335996 -6.793373 27.878265 33.018364 -0.394098 0.565490 0.060923 -0.019264 -143517.000000 0 0 1
17.662896 -6.451173 28.216935 33.908568 -0.350185 0.587827 0.059403 -0.026252 16257.800000 0 0 1
17.975696 -5.116273 27.948235 33.621507 -0.277289 0.589425 0.066543 -0.025991 1010790.000000 0 0 1
19.509396 -4.952273 27.582155 34.145524 -0.248590 0.630416 0.068982 -0.022516 558355.000000 0 0 1
19.890096 -5.621873 26.403695 33.531724 -0.275461 0.664177 0.066529 -0.022679 770631.000000 0 0 1
21.224996 -5.392273 25.936175 33.944989 -0.248790 0.701206 0.060450 -0.016375 1426980.000000 0 0 1
22.473396 -5.842573 26.780605 35.445592 -0.254347 0.714316 0.074148 -0.024671 269655.000000 0 0 1
22.943696 -4.757973 27.600165 36.205257 -0.204478 0.703899 0.067757 -0.023701 -299781.000000 0 0 1
23.974096 -5.191073 28.440665 37.557635 -0.213237 0.711698 0.072851 -0.036078 -323170.000000 0 0 1
24.693996 -4.046573 29.167385 38.430516 -0.162425 0.709075 0.072868 -0.031742 -476453.000000 0 0 1
25.483596 -3.334073 28.267645 38.204574 -0.130093 0.737871 0.062254 -0.022123 -297860.000000 0 0 1
25.869096 -2.102373 28.851145 38.807457 -0.081091 0.732592 0.053128 -0.027688 -320715.000000 0 0 1
26.914796 -1.333473 28.015405 38.872192 -0.049504 0.765977 0.056231 -0.027553 76094.100000 0 0 1
28.241496 -1.777773 28.127865 39.898864 -0.062866 0.788403 0.066515 -0.022940 -471975.000000 0 0 1
29.122896 -1.117873 27.243435 39.894830 -0.038366 0.819097 0.058339 -0.005784 894559.000000 0 0 1
30.613996 -1.276273 27.709555 41.311803 -0.041665 0.835588 0.046489 -0.010763 589660.000000 0 0 1
30.920996 -0.271973 28.612485 42.129043 -0.008796 0.824175 0.041229 -0.003618 -512061.000000 0 0 1
32.275896 -0.233473 28.953725 43.360191 -0.007234 0.839616 0.048447 -0.008019 -195815.000000 0 0 1
32.809596 0.983527 29.775495 44.317232 0.029968 0.834063 0.043940 -0.012117 -104890.000000 0 0 1
33.047596 2.208927 29.033215 44.044870 0.066741 0.851077 0.033778 0.001353 149150.000000 0 0 1
33.221396 3.340127 29.876205 44.804076 0.100205 0.840864 0.038072 0.002316 -214233.000000 0 0 1
33.438296 4.729727 29.265675 44.687467 0.140514 0.856750 0.032524 0.004059 83036.400000 0 0 1
33.293996 5.884427 30.149595 45.300273 0.174935 0.842566 0.046767 0.010629 -949071.000000 0 0 1
31.981896 6.229827 30.369465 44.541630 0.192383 0.820546 0.028105 0.006730 -1080520.000000 0 0 1
31.802896 7.152127 31.598715 45.398854 0.221209 0.800951 0.037302 0.003645 -89984.800000 0 0 1
32.004696 6.467527 32.825379 46.299406 0.199395 0.782745 0.049516 0.008769 53969.700000 0 0 1
32.142096 7.421527 33.888733 47.293125 0.226921 0.771927 0.045448 0.008853 -256628.000000 0 0 1
32.558696 6.756227 -33.265015 47.034844 0.204605 2.356386 0.052303 0.009089 480911.000000 0 0 1
31.615996 5.891727 -32.564755 45.768405 0.184239 2.362444 0.048255 0.002463 586271.000000 0 0 1
31.764396 4.525727 -32.992205 46.021133 0.141525 2.370131 0.061307 -0.003990 155512.000000 0 0 1
32.069896 3.474527 -31.891505 45.360982 0.107921 2.350488 0.060349 -0.003318 -2550.250000 0 0 1
32.103296 2.129927 -32.355485 45.629329 0.066249 2.359009 0.057826 -0.005224 104006.000000 0 0 1
32.429696 1.245927 -31.264105 45.063087 0.038400 2.337528 0.051380 -0.004025 -193918.000000 0 0 1
33.053996 -0.036673 -31.742165 45.827209 -0.001109 2.335951 0.057919 -0.013918 -356238.000000 0 0 1
34.305796 0.020827 -32.424105 47.203927 0.000607 2.328003 0.073701 -0.004010 611601.000000 0 0 1
35.048596 -1.223273 -32.391735 47.740182 -0.034888 2.316516 0.082763 -0.003530 726733.000000 0 0 1
35.767496 -1.485873 -31.035075 47.378239 -0.041519 2.285044 0.074875 0.000242 -718525.000000 0 0 1
34.842096 -1.731573 -29.979645 45.997273 -0.049657 2.280712 0.060653 -0.001668 280859.000000 0 0 1
35.414496 -1.800573 -28.662745 45.595850 -0.050799 2.250582 0.055283 -0.001814 284717.000000 0 0 1
34.339496 -1.420473 -27.596695 44.077163 -0.041342 2.247337 0.063056 -0.005167 238078.000000 0 0 1
34.107096 -0.011573 -27.437885 43.773641 -0.000339 2.248252 0.043115 -0.003271 -375008.000000 0 0 1
33.089296 0.083227 -26.506375 42.396891 0.002515 2.246179 0.051848 -0.004879 -575046.000000 0 0 1
32.519896 1.491727 -26.307515 41.855158 0.045839 2.250467 0.033607 -0.006691 -413226.000000 0 0 1
31.628196 1.818827 -27.302095 41.821709 0.057443 2.282099 0.053401 -0.021849 129913.000000 0 0 1
30.789396 2.973927 -27.045675 41.088924 0.096291 2.289252 0.033617 -0.009769 416188.000000 0 0 1
30.014596 3.327927 -28.296835 41.384320 0.110426 2.323696 0.053320 -0.009853 437739.000000 0 0 1
28.898696 4.241927 -28.158695 40.571427 0.145745 2.337899 0.040484 -0.008989 1007130.000000 0 0 1
28.444296 4.789327 -29.406725 41.191882 0.166811 2.365843 0.025911 -0.012356 -127495.000000 0 0 1
27.154496 5.594227 -29.169075 40.242974 0.203172 2.381575 0.016440 -0.008363 729409.000000 0 0 1
25.959896 4.776227 -28.980025 39.199112 0.181950 2.402831 0.024125 -0.006572 1411170.000000 0 0 1
25.009396 5.583327 -28.242765 38.135249 0.219647 2.404751 0.023968 -0.014791 -228598.000000 0 0 1
23.747596 4.805627 -27.859995 36.921832 0.199666 2.425790 0.045731 -0.007878 -700031.000000 0 0 1
23.010596 4.697427 -29.050075 37.355859 0.201375 2.461728 0.056229 -0.009728 -683714.000000 0 0 1
21.714396 4.274627 -28.761695 36.290805 0.194371 2.485749 0.055714 -0.007525 -401784.000000 0 0 1
20.890696 3.901627 -30.024655 36.784831 0.184637 2.525641 0.050449 -0.001726 52586.900000 0 0 1
21.296896 2.618227 -30.510765 37.300398 0.122326 2.528677 0.056006 -0.014871 702901.000000 0 0 1
20.436696 2.046327 -31.536745 37.635253 0.099797 2.564326 0.046746 -0.015279 217631.000000 0 0 1
20.420996 2.707827 -32.967055 38.873849 0.131831 2.583095 0.056940 -0.021729 -822669.000000 0 0 1
21.672196 2.503127 -33.520525 39.994691 0.114990 2.564632 0.059196 -0.020512 -905693.000000 0 0 1
21.968096 3.378927 33.919351 40.552889 0.152615 0.580073 0.056025 -0.040000 63446.900000 0 0 1
23.433096 3.131127 33.463628 40.972288 0.132833 0.615061 0.066452 -0.034040 239092.000000 0 0 1
23.574596 1.827827 32.893085 40.509969 0.077379 0.623268 0.066254 -0.038042 447189.000000 0 0 1
24.976696 1.635827 32.679760 41.164038 0.065401 0.653615 0.052236 -0.041595 455383.000000 0 0 1
25.396796 0.126927 32.527215 41.267822 0.004998 0.662921 0.050359 -0.044125 -341829.000000 0 0 1
24.956096 -0.572573 31.368355 40.088755 -0.022939 0.672169 0.056987 -0.046223 1444130.000000 0 0 1
23.523596 -0.778973 31.222365 39.099904 -0.033102 0.645951 0.067951 -0.048754 1211870.000000 0 0 1
22.751996 -1.791473 32.109245 39.393735 -0.078577 0.617920 0.069451 -0.045830 -311378.000000 0 0 1
22.870096 -3.146173 31.676275 39.195996 -0.136709 0.629791 0.069562 -0.050844 68288.700000 0 0 1
22.331296 -3.978173 32.647038 39.753512 -0.176294 0.607221 0.075190 -0.044212 -200390.000000 0 0 1
22.182596 -5.455673 32.217725 39.494478 -0.241157 0.616767 0.074229 -0.036820 -138509.000000 0 0 1
23.435396 -6.083673 32.231805 40.312754 -0.253987 0.644261 0.057087 -0.029206 -269928.000000 0 0 1
23.325596 -7.388873 31.778225 40.106539 -0.306771 0.656153 0.075482 -0.036978 -289858.000000 0 0 1
24.710296 -8.067573 31.798875 41.071315 -0.315576 0.685290 0.045739 -0.028252 13660.900000 0 0 1
25.384896 -7.664573 30.631905 40.514840 -0.293231 0.713515 0.064469 -0.028872 -887477.000000 0 0 1
26.528096 -8.393773 30.327485 41.157644 -0.306444 0.742380 0.040995 -0.018883 -127224.000000 0 0 1
27.071696 -8.264373 28.874475 40.434044 -0.296291 0.775440 0.041277 -0.021816 -144359.000000 0 0 1
26.167596 -8.772473 27.962735 39.288853 -0.323467 0.778850 0.036334 -0.016941 -582420.000000 0 0 1
26.547696 -8.411273 26.692485 38.574842 -0.306830 0.806587 0.047853 -0.014416 253162.000000 0 0 1
25.733696 -9.196173 25.615905 37.456205 -0.343216 0.817716 0.033358 -0.012572 331080.000000 0 0 1
24.332996 -8.980673 25.654115 36.481239 -0.353565 0.790888 0.045172 -0.020548 134182.000000 0 0 1
23.689596 -9.717973 24.616335 35.519008 -0.389287 0.805089 0.053679 -0.016278 228035.000000 0 0 1
22.353396 -9.178873 24.082125 34.115609 -0.389633 0.787107 0.042516 -0.011135 280747.000000 0 0 1
21.278696 -9.227473 25.005255 34.105600 -0.409173 0.747822 0.039581 -0.006470 33968.000000 0 0 1
20.018696 -8.884573 24.446195 32.822253 -0.417698 0.730553 0.051790 -0.002943 -50104.000000 0 0 1
19.044896 -8.709273 25.583815 33.061928 -0.428910 0.685954 0.055297 -0.005343 -430917.000000 0 0 1
18.381096 -9.866973 26.162915 33.462217 -0.492652 0.673146 0.069631 -0.008826 336749.000000 0 0 1
19.246396 -10.715673 26.877795 34.751479 -0.508020 0.686564 0.058815 -0.008485 -567878.000000 0 0 1
18.438796 -11.709573 27.675815 35.256972 -0.565794 0.668142 0.060693 -0.006210 -43059.900000 0 0 1
17.754796 -12.603273 26.816425 34.542668 -0.617307 0.681978 0.067896 -0.007061 68005.400000 0 0 1
17.021396 -13.657173 27.431885 35.053597 -0.676174 0.672013 0.067357 -0.005245 -23925.500000 0 0 1
17.777796 -14.792873 28.255235 36.513524 -0.694009 0.685932 0.070645 0.001177 83653.200000 0 0 1
16.892296 -15.774673 28.766145 36.900963 -0.751199 0.676849 0.059861 0.001215 276311.000000 0 0 1
17.587396 -16.669573 29.592805 38.248206 -0.758612 0.686129 0.063658 0.000620 -69264.700000 0 0 1
18.080596 -17.986773 28.925625 38.563244 -0.782797 0.722609 0.061143 0.007567 -463513.000000 0 0 1
19.048196 -17.869473 27.948635 38.252818 -0.753481 0.751553 0.056190 0.007385 -257653.000000 0 0 1
19.300896 -19.102373 27.313845 38.515859 -0.780229 0.782493 0.045016 0.009960 -363694.000000 0 0 1
20.445496 -18.868473 26.335365 38.309125 -0.745306 0.812833 0.031013 0.008083 -502264.000000 0 0 1
21.685796 -18.511073 26.887115 39.189929 -0.706582 0.814720 0.037002 0.010297 -516247.000000 0 0 1
22.451096 -17.847273 25.918805 38.656970 -0.671648 0.835938 0.025268 0.007194 496343.000000 0 0 1
23.892696 -17.566773 26.473975 39.753287 -0.633985 0.842021 0.025811 0.006049 727458.000000 0 0 1
24.669796 -18.767173 26.576465 40.830309 -0.650336 0.862026 0.028435 0.008290 197036.000000 0 0 1
26.012396 -18.488973 26.917825 41.749925 -0.617921 0.870114 0.018388 0.006170 210333.000000 0 0 1
26.878796 -19.788973 27.029115 42.949345 -0.634630 0.890111 0.005733 0.012768 -122701.000000 0 0 1
26.487596 -20.592073 28.101505 43.764379 -0.660822 0.873550 0.013675 0.015704 -450246.000000 0 0 1
27.264896 -21.687973 28.411295 44.954916 -0.671963 0.886671 0.016265 0.012899 -324223.000000 0 0 1
26.556296 -22.716373 29.346515 45.634290 -0.707623 0.872282 0.024300 0.007208 -169427.000000 0 0 1
26.406596 -22.267273 30.671075 46.193664 -0.700560 0.844685 0.022025 0.003584 9187.910000 0 0 1
25.837696 -23.369273 31.388315 46.892812 -0.735276 0.837445 0.039382 -0.003331 -124038.000000 0 0 1
25.671296 -23.198873 32.925359 47.762773 -0.734850 0.810202 0.033161 -0.002339 57691.000000 0 0 1
25.107596 -24.362573 33.479103 48.422894 -0.770339 0.807385 0.041658 -0.014254 -51075.400000 0 0 1
24.941196 -24.369173 -33.608965 48.430181 -0.773798 2.337781 0.044474 -0.015288 -361502.000000 0 0 1
24.799696 -25.815873 -33.063095 48.730406 -0.805472 2.316502 0.051128 -0.022067 564326.000000 0 0 1
23.604296 -26.593783 -33.265185 48.692552 -0.844882 2.322888 0.071863 -0.027916 338465.000000 0 0 1
23.339696 -26.875153 33.859316 49.127066 -0.855689 0.810385 0.056888 -0.024417 -1054350.000000 0 0 1
21.957896 -27.412203 33.610231 48.613020 -0.895430 0.807394 0.069350 -0.030021 -865367.000000 0 0 1
21.745196 -28.706963 34.070363 49.575528 -0.922520 0.813111 0.071292 -0.029909 384488.000000 0 0 1
20.387996 -29.144163 34.082016 49.260902 -0.960368 0.806724 0.073881 -0.029718 43796.800000 0 0 1
20.248796 -30.669913 34.230113 50.223082 -0.987272 0.820902 0.067516 -0.032566 140903.000000 0 0 1
20.774496 -31.424023 -33.065655 50.123712 -0.986656 2.291190 0.045184 -0.032845 -388593.000000 0 0 1
22.116496 -31.717223 -33.174525 50.947726 -0.961883 2.279893 0.045573 -0.014490 -1218390.000000 0 0 1
22.589896 -32.773243 -32.088365 51.127801 -0.967302 2.249277 0.036315 -0.010787 -630229.000000 0 0 1
23.816596 -33.361723 -32.380565 52.237303 -0.950809 2.239379 0.026234 0.001426 185325.000000 0 0 1
24.506996 -33.943123 -31.221775 52.225738 -0.945456 2.211580 0.023746 0.009721 993035.000000 0 0 1
25.625096 -33.110663 -30.506285 51.803427 -0.912160 2.200475 0.024543 0.002633 250039.000000 0 0 1
26.071596 -33.646483 -29.263785 51.654458 -0.911568 2.173085 0.031391 0.011089 -635253.000000 0 0 1
26.782196 -32.772943 -28.525195 51.039579 -0.885653 2.163836 0.023310 0.010962 -608844.000000 0 0 1
27.077696 -33.134643 -27.067945 50.633782 -0.885654 2.134810 0.022442 0.001847 512120.000000 0 0 1
28.157596 -34.066978 -27.033645 51.809528 -0.880083 2.119743 0.022783 0.009630 420200.000000 0 0 1
29.125796 -33.846333 -26.016695 51.679345 -0.860221 2.098355 0.029091 0.000839 492757.000000 0 0 1
-26.043734 -30.756219 9.765565 41.467908 0.868175 1.333066 0.026739 0.001532 -28523.600000 0 0 1
-26.315794 -32.078519 10.184465 42.723246 0.883766 1.330097 0.013074 0.005591 -131462.000000 0 0 1
-25.400494 -32.406719 11.195065 42.669779 0.906010 1.305324 0.006864 0.007046 154997.000000 0 0 1
-25.733504 -33.751119 11.830365 44.060286 0.919375 1.298957 -0.007148 0.012014 72278.900000 0 0 1
-25.586624 33.788127 10.942065 43.772613 -0.922661 1.318142 -0.012770 0.020040 50771.700000 0 0 1
-25.568294 32.607727 11.708565 43.059168 -0.905815 1.295411 -0.016538 0.023756 -42162.200000 0 0 1
-25.500924 31.390727 10.704065 41.836011 -0.888557 1.312062 -0.013955 0.015461 839288.000000 0 0 1
-26.696714 31.259927 9.889665 42.281237 -0.863971 1.334707 -0.004755 0.005593 894333.000000 0 0 1
-26.766794 30.010227 9.183665 41.248208 -0.842462 1.346271 0.002536 -0.002395 -438063.000000 0 0 1
-25.960874 29.781427 7.909965 40.292281 -0.853831 1.373198 0.005655 0.005052 -406680.000000 0 0 1
-24.570704 29.699527 8.108265 39.389406 -0.879624 1.363465 0.015755 0.008371 -383561.000000 0 0 1
-23.945704 29.688727 6.871065 38.756016 -0.892069 1.392564 0.016958 0.012542 -46669.100000 0 0 1
-22.621404 28.868127 6.910065 37.320847 -0.906128 1.384569 0.030230 0.011961 -40090.600000 0 0 1
-22.623904 27.459927 7.099765 36.280784 -0.881658 1.373836 0.044903 0.004922 185063.000000 0 0 1
-23.140504 26.761727 5.941565 35.874436 -0.857838 1.404409 0.035103 0.003375 -221232.000000 0 0 1
-23.353204 25.238227 6.084465 34.919349 -0.824172 1.395659 0.047718 0.006220 -458443.000000 0 0 1
-24.423504 25.015427 6.975765 35.650251 -0.797370 1.373853 0.050274 -0.004108 112991.000000 0 0 1
-24.547804 23.608427 7.248565 34.820887 -0.765894 1.361096 0.055224 -0.018606 -217182.000000 0 0 1
-25.110144 22.660127 6.162265 34.379851 -0.734156 1.390582 0.049618 -0.031525 -655937.000000 0 0 1
-26.476184 22.871427 5.899465 35.480898 -0.712479 1.403749 0.050065 -0.034558 -247604.000000 0 0 1
-26.872474 22.311227 4.669665 35.238139 -0.692924 1.437888 0.053566 -0.033518 -56914.300000 0 0 1
-26.652764 23.225927 3.360565 35.512067 -0.716803 1.476023 0.045434 -0.032667 -434294.000000 0 0 1
-25.350264 23.737027 3.260765 34.881441 -0.752545 1.477178 0.045218 -0.027033 -98191.500000 0 0 1
-25.144854 24.448127 2.056265 35.131222 -0.771350 1.512232 0.029816 -0.015239 -290985.000000 0 0 1
-23.737204 25.039227 1.992565 34.559919 -0.812086 1.513109 0.038915 -0.006240 -409234.000000 0 0 1
-23.217804 25.336027 0.741765 34.373404 -0.828997 1.549215 0.018688 -0.006885 -710059.000000 0 0 1
-22.039704 26.046627 0.933565 34.132783 -0.868534 1.543442 0.029450 0.001408 -940282.000000 0 0 1
-21.461204 26.683427 -0.365335 34.245029 -0.893445 1.581465 0.036087 -0.000221 237874.000000 0 0 1
-21.132804 25.854527 -1.479235 33.425141 -0.885551 1.615066 0.037253 -0.001460 -271375.000000 0 0 1
-20.084504 24.972527 -1.237935 32.070966 -0.893461 1.609406 0.046727 -0.005377 -709020.000000 0 0 1
-19.846704 23.951927 -2.372735 31.196415 -0.878855 1.646928 0.052917 -0.021236 80027.700000 0 0 1
-20.988804 23.167827 -2.712235 31.378883 -0.834706 1.657339 0.035572 -0.023678 420221.000000 0 0 1
-20.619104 22.109427 -3.607335 30.446462 -0.820263 1.689557 0.036972 -0.019185 752181.000000 0 0 1
-21.960004 21.669027 -4.285135 31.147245 -0.778729 1.708811 0.044425 -0.018728 917713.000000 0 0 1
-22.387704 22.545327 -5.366235 32.222624 -0.788906 1.738112 0.043719 -0.014865 -382651.000000 0 0 1
-23.613404 22.189927 -5.918235 32.939508 -0.754330 1.751447 0.053584 -0.011088 -661525.000000 0 0 1
-23.730004 22.734327 -7.362335 33.677391 -0.763973 1.791190 0.040880 -0.009074 -370403.000000 0 0 1
-23.004004 22.019227 -8.301635 32.908170 -0.763529 1.825818 0.040446 -0.010362 -611632.000000 0 0 1
-22.077904 22.832627 -8.919235 32.989626 -0.802202 1.844568 0.037448 -0.020837 -603190.000000 0 0 1
-21.356904 22.124227 -10.077635 32.359813 -0.803044 1.887488 0.034286 -0.026111 -276826.000000 0 0 1
-22.154504 22.053427 -11.226235 33.214515 -0.783112 1.915579 0.025594 -0.012749 607093.000000 0 0 1
-21.436604 21.441027 -12.339535 32.733923 -0.785501 1.957313 0.021106 -0.005849 122931.000000 0 0 1
-22.388904 21.198427 -13.484835 33.652297 -0.758092 1.983089 0.010030 -0.011105 -542438.000000 0 0 1
-23.196304 20.091927 -13.390335 33.482161 -0.713807 1.982231 -0.001419 -0.001399 446056.000000 0 0 1
-24.230304 20.139127 -14.404435 34.643611 -0.693451 1.999607 0.007773 -0.010518 894503.000000 0 0 1
-25.126174 18.871327 -14.537235 34.623443 -0.644181 2.004095 0.036111 -0.011748 201207.000000 0 0 1
-24.603804 17.963127 -15.453035 34.158709 -0.630640 2.040239 0.028963 -0.013105 -380985.000000 0 0 1
-25.386524 16.827527 -15.530135 34.188102 -0.585358 2.042333 0.054001 -0.020899 -522248.000000 0 0 1
-25.064694 15.879627 -16.668735 34.033045 -0.564721 2.082635 0.055675 -0.019266 -109602.000000 0 0 1
-23.858504 15.166427 -16.569835 32.769012 -0.566244 2.100938 0.053778 -0.013723 -108514.000000 0 0 1
-23.624904 14.517327 -17.773035 32.935841 -0.551008 2.140789 0.055037 -0.020807 -156412.000000 0 0 1
-22.889304 13.159427 -17.739335 31.808407 -0.521771 2.162401 0.053827 -0.015662 -591764.000000 0 0 1
-21.534504 13.433527 -17.509935 30.834920 -0.557746 2.174701 0.058036 -0.024995 -703519.000000 0 0 1
-20.926704 12.166327 -17.307335 29.757189 -0.526614 2.191513 0.060540 -0.011899 -816887.000000 0 0 1
-19.672504 12.320227 -16.483035 28.469033 -0.559509 2.188275 0.056070 -0.013612 -259478.000000 0 0 1
-18.604704 13.093427 -17.068635 28.441363 -0.613251 2.214465 0.048038 -0.005971 350472.000000 0 0 1
-17.625504 13.254427 -16.076235 27.290723 -0.644782 2.200708 0.047385 0.007014 -636597.000000 0 0 1
-16.770904 14.493927 -16.232135 27.473975 -0.712698 2.202869 0.028097 0.008666 -706389.000000 0 0 1
-15.892804 14.396627 -17.306335 27.556366 -0.736042 2.249821 0.048812 -0.001830 17464.700000 0 0 1
-15.031904 15.543827 -17.404435 27.757576 -0.802139 2.248513 0.036668 0.006286 297413.000000 0 0 1
-14.223304 15.433727 -18.743235 28.139139 -0.826190 2.299752 0.035543 0.001828 -295194.000000 0 0 1
-13.223304 14.473327 -18.648335 27.057224 -0.830500 2.331206 0.034534 0.001808 -439386.000000 0 0 1
-12.346504 14.480827 -19.778735 27.446837 -0.864789 2.375492 0.036219 0.000355 -80366.400000 0 0 1
-11.349304 13.352627 -19.695635 26.363182 -0.866321 2.414468 0.027504 -0.005153 -123414.000000 0 0 1
-11.909904 12.037227 -20.002935 26.207977 -0.790715 2.439107 0.036673 -0.004454 552017.000000 0 0 1
-10.873304 11.063927 -19.897135 25.229649 -0.794087 2.479392 0.020399 0.008189 367719.000000 0 0 1
-11.121604 9.873427 -20.830435 25.594563 -0.726017 2.521564 0.021673 0.002599 59586.300000 0 0 1
-11.008804 10.220927 -22.173935 26.783288 -0.748303 2.546153 0.030858 -0.002223 244756.000000 0 0 1
-11.640104 9.175827 -22.950835 27.320846 -0.667562 2.568169 0.031040 0.017128 236371.000000 0 0 1
-11.360004 9.307227 -24.442635 28.515199 -0.686398 2.600564 0.024879 0.008138 -3227.750000 0 0 1
-10.003704 8.960927 -24.771635 28.178116 -0.730468 2.644786 0.007874 0.013998 616586.000000 0 0 1
-9.815104 8.653727 -26.143765 29.235590 -0.722598 2.677537 -0.008435 0.003917 -238516.000000 0 0 1
-9.831604 9.801027 -27.183135 30.522834 -0.783841 2.669423 0.017881 -0.000503 481665.000000 0 0 1
-8.535704 10.375927 -27.380315 30.499176 -0.882399 2.685407 0.000400 -0.003625 672655.000000 0 0 1
-8.073804 11.283427 -26.410855 29.833459 -0.949713 2.657884 -0.008972 0.002380 -387131.000000 0 0 1
-6.586004 11.644227 -26.542565 29.723244 -1.056053 2.674742 0.008710 -0.004849 -451656.000000 0 0 1
-6.146904 12.299627 -27.693995 30.919615 -1.107338 2.680748 0.007486 -0.011362 -1235820.000000 0 0 1
-4.788304 12.433127 -27.533275 30.587444 -1.203179 2.690909 0.035591 -0.024381 -1331270.000000 0 0 1
-4.220404 12.894527 -28.915025 31.939933 -1.254484 2.702867 0.038979 -0.019749 554817.000000 0 0 1
-2.787504 12.833527 -28.935165 31.775987 -1.356914 2.715526 0.060578 -0.030043 670011.000000 0 0 1
-2.328804 12.771427 -30.294705 32.959093 -1.390433 2.736741 0.060395 -0.030176 -187539.000000 0 0 1
-0.825904 12.529227 -30.413285 32.903367 -1.504973 2.750050 0.085307 -0.042161 -457163.000000 0 0 1
-0.378904 11.252127 -29.908655 31.957496 -1.537135 2.781569 0.071303 -0.024294 566154.000000 0 0 1
1.027896 11.028327 -30.032075 32.009469 1.477860 2.788260 0.099423 -0.034851 729364.000000 0 0 1
1.475696 10.451827 -31.397915 33.124725 1.430533 2.817278 0.103480 -0.041673 -385141.000000 0 0 1
1.602596 11.423527 -32.408325 34.400070 1.431417 2.799637 0.106985 -0.044461 134383.000000 0 0 1
1.718696 10.842427 -33.692415 35.435730 1.413589 2.826616 0.110030 -0.041600 -31899.500000 0 0 1
2.015896 11.827727 33.667323 35.741399 1.401980 0.342345 0.102074 -0.038481 -560102.000000 0 0 1
3.353596 12.209227 33.580430 35.888119 1.302730 0.360565 0.105628 -0.046078 -601511.000000 0 0 1
3.435096 13.150227 32.541224 35.265558 1.315286 0.395645 0.096552 -0.035926 603136.000000 0 0 1
4.949796 13.432927 32.281645 35.313575 1.217752 0.417408 0.093306 -0.032092 438156.000000 0 0 1
5.590096 12.256227 31.891105 34.619458 1.142879 0.399668 0.095616 -0.040002 -164076.000000 0 0 1
6.998996 12.341427 31.985085 34.990605 1.054909 0.417501 0.074658 -0.027236 215661.000000 0 0 1
7.662696 10.980127 31.648105 34.363973 0.961502 0.400240 0.049781 -0.024655 -56370.000000 0 0 1
7.359996 10.544427 30.357225 32.968403 0.961415 0.400676 0.053821 -0.025547 469363.000000 0 0 1
8.246996 9.467127 29.991265 32.513311 0.854169 0.396469 0.042708 -0.012087 499865.000000 0 0 1
7.705196 8.706027 28.719075 30.983063 0.846307 0.384654 0.036693 -0.016046 -48862.300000 0 0 1
6.664196 7.848927 29.061725 30.831818 0.866849 0.340497 0.047570 -0.023110 -474487.000000 0 0 1
6.114796 7.220827 27.930835 29.490043 0.868147 0.326634 0.053563 -0.021767 156053.000000 0 0 1
5.229796 6.007427 28.362515 29.459671 0.854489 0.273774 0.058728 -0.024478 -255043.000000 0 0 1
6.024696 4.956327 28.737305 29.777422 0.688411 0.265085 0.039551 -0.026401 -364484.000000 0 0 1
5.573896 4.363527 29.929655 30.755372 0.664196 0.232245 0.044535 -0.029578 328536.000000 0 0 1
6.624596 3.318727 30.422335 31.311622 0.464424 0.238900 0.065223 -0.023871 415624.000000 0 0 1
6.417896 2.009327 29.865345 30.613161 0.303415 0.221486 0.047013 -0.018106 -233034.000000 0 0 1
7.226196 1.693027 28.741555 29.684360 0.230139 0.252708 0.029252 -0.013227 -295707.000000 0 0 1
7.097196 0.268827 28.108525 28.991924 0.037860 0.247494 0.012653 -0.009175 -212322.000000 0 0 1
7.552396 -0.778173 28.912165 29.892433 -0.102674 0.256803 0.003379 -0.002861 -113735.000000 0 0 1
7.503896 -2.071073 28.283615 29.335315 -0.269295 0.268579 0.021164 -0.005697 -559500.000000 0 0 1
7.951996 -3.223873 29.213735 30.447823 -0.385167 0.285685 0.021973 0.003886 145835.000000 0 0 1
9.316696 -3.088273 29.532385 31.120733 -0.320079 0.320869 0.017435 -0.003238 -393258.000000 0 0 1
10.191696 -3.823473 28.736655 30.729220 -0.358907 0.362093 0.032496 -0.000502 199502.000000 0 0 1
11.626496 -3.989973 29.337195 31.808274 -0.330586 0.396772 0.026410 -0.007608 735261.000000 0 0 1
12.562896 -4.758973 28.612175 31.609030 -0.362108 0.438970 0.044908 -0.012610 99369.300000 0 0 1
12.950396 -5.904673 29.370585 32.637543 -0.427787 0.451252 0.059156 -0.015172 -177786.000000 0 0 1
12.211496 -7.274473 29.090175 32.377104 -0.537257 0.454502 0.064015 -0.013266 -33934.700000 0 0 1
10.835296 -7.128773 29.379955 32.115492 -0.581924 0.415730 0.049148 -0.008422 -223905.000000 0 0 1
10.236696 -8.391873 29.085615 31.956009 -0.686688 0.427086 0.055315 -0.007846 -589165.000000 0 0 1
8.749396 -8.288773 28.820635 31.239153 -0.758370 0.396080 0.044933 -0.003881 -645875.000000 0 0 1
7.936496 -7.927673 29.895455 31.930772 -0.784842 0.358972 0.053590 -0.010587 -659077.000000 0 0 1
6.626396 -7.611473 29.555825 31.231242 -0.854475 0.329035 0.040613 -0.000988 -532458.000000 0 0 1
5.851196 -6.915873 30.674675 31.984394 -0.868598 0.287163 0.033427 -0.004418 -161620.000000 0 0 1
5.595496 -7.821173 31.772415 33.195884 -0.949790 0.293908 0.035784 -0.012015 172801.000000 0 0 1
5.018396 -7.200873 32.944405 34.093558 -0.962144 0.260373 0.030514 -0.008409 47980.000000 0 0 1
5.821996 -6.072873 33.651698 34.687349 -0.806486 0.244976 0.030014 -0.001212 -105121.000000 0 0 1
5.914696 -4.849373 32.933539 33.810029 -0.686749 0.228196 0.040080 -0.002094 -294339.000000 0 0 1
6.318596 -3.806473 33.716809 34.514303 -0.542200 0.215387 0.036202 0.000531 -644336.000000 0 0 1
6.419896 -2.481873 32.899472 33.611754 -0.368894 0.206236 0.033354 -0.003285 -334347.000000 0 0 1
5.230696 -1.913673 32.407965 32.883104 -0.350729 0.170201 0.032258 -0.005522 -482685.000000 0 0 1
5.416596 -0.611173 31.863455 32.326349 -0.112358 0.169433 0.026324 -0.007409 303911.000000 0 0 1
4.116696 0.078727 31.297075 31.566759 0.019121 0.130809 0.042140 -0.015181 512935.000000 0 0 1
3.288796 0.406227 32.362965 32.532180 0.122896 0.102039 0.046210 -0.011847 -240534.000000 0 0 1
2.012496 0.912527 31.974805 32.051069 0.425703 0.068998 0.053962 -0.014644 378234.000000 0 0 1
1.103096 1.120127 33.176568 33.213795 0.793058 0.047351 0.060887 -0.019032 -181331.000000 0 0 1
1.606196 2.096427 34.087953 34.190107 0.917033 0.077322 0.058474 -0.010654 -406868.000000 0 0 1
0.724696 2.349627 -33.376385 33.466834 1.271623 3.068055 0.045334 -0.011102 -629635.000000 0 0 1
1.141096 3.482427 -32.466215 32.672381 1.254149 3.029194 0.048083 -0.006679 57467.500000 0 0 1
2.362096 3.194127 -31.806785 32.053916 0.934041 3.017337 0.035951 0.006434 70168.800000 0 0 1
2.674696 4.197327 -30.827105 31.226302 1.003445 2.981522 0.040269 0.001252 142170.000000 0 0 1
3.919396 3.850727 -29.976115 30.475519 0.776561 2.960308 0.042657 0.001091 -79805.000000 0 0 1
3.598596 2.999627 -28.970475 29.346824 0.694869 2.981270 0.038496 0.002706 -349333.000000 0 0 1
4.592296 2.830027 -28.013005 28.527648 0.552286 2.951358 0.053682 -0.004615 -797904.000000 0 0 1
4.140196 2.103327 -26.723125 27.123617 0.470048 2.969535 0.040993 -0.006162 -88487.900000 0 0 1
3.893196 0.723527 -26.894875 27.184826 0.183748 2.995408 0.042914 -0.001659 65907.300000 0 0 1
3.688496 0.182127 -25.610085 25.874981 0.049337 2.998379 0.054195 -0.004536 -187244.000000 0 0 1
3.889296 -1.284273 -25.332765 25.661741 -0.318934 2.981298 0.041837 -0.010811 574393.000000 0 0 1
5.179696 -1.444173 -24.726735 25.304670 -0.271909 2.927459 0.038116 -0.019739 562154.000000 0 0 1
5.592996 -2.810073 -24.803635 25.581212 -0.465587 2.894402 0.036780 -0.020977 429064.000000 0 0 1
6.992496 -3.132773 -24.181135 25.366051 -0.421206 2.834734 0.041470 -0.029701 1384650.000000 0 0 1
8.050096 -2.656973 -25.035335 26.431639 -0.318797 2.815100 0.031418 -0.017743 -486373.000000 0 0 1
9.351696 -2.996073 -24.734735 26.612737 -0.310045 2.763667 0.022045 -0.016439 -539380.000000 0 0 1
-29.575614 -4.227373 17.296445 34.521799 0.141973 1.046008 0.091631 -0.016099 94623.900000 0 0 1
-30.892354 -3.978173 17.749345 35.849723 0.128071 1.052842 0.076119 -0.010417 -1654.370000 0 0 1
-31.219314 -4.928673 18.783845 36.766428 0.156580 1.034569 0.076044 -0.012865 1466840.000000 0 0 1
-32.738994 -4.731673 19.213645 38.254341 0.143533 1.044585 0.057559 -0.009917 1500000.000000 0 0 1
-33.686444 -4.925973 18.180745 38.595093 0.145201 1.080300 0.047625 -0.008813 -176693.000000 0 0 1
-34.999866 -4.700973 18.607045 39.916311 0.133515 1.085861 0.042305 -0.002445 -59193.300000 0 0 1
-36.053634 -4.645173 17.468445 40.330989 0.128135 1.122837 0.041812 -0.003627 740710.000000 0 0 1
34.827734 -4.684373 17.902445 39.438711 -0.133699 1.099624 0.033034 -0.001289 803648.000000 0 0 1
33.870154 -4.676373 16.832645 38.110284 -0.137200 1.113323 0.021723 -0.006499 484212.000000 0 0 1
32.450954 -5.165173 17.151245 37.066274 -0.157845 1.089737 0.016431 0.005590 -486347.000000 0 0 1
31.800104 -4.408673 18.088945 36.849599 -0.137759 1.057690 0.024290 0.000432 -623815.000000 0 0 1
30.677744 -5.168373 18.466645 36.178074 -0.166906 1.035103 0.040985 -0.002007 -242591.000000 0 0 1
29.899574 -4.542173 19.656245 36.069154 -0.150762 0.994455 0.046522 -0.001038 473586.000000 0 0 1
29.073294 -3.369173 19.378345 35.101681 -0.115371 0.985960 0.057962 -0.003278 1153570.000000 0 0 1
29.832114 -2.143573 19.117145 35.496692 -0.071731 1.002068 0.047609 -0.008104 523440.000000 0 0 1
28.928984 -0.922673 19.370245 34.827343 -0.031884 0.981015 0.063272 -0.000189 294629.000000 0 0 1
29.588644 0.282627 19.040245 35.186626 0.009552 0.999026 0.048662 -0.007895 196760.000000 0 0 1
28.717274 1.383227 19.300245 34.627945 0.048130 0.979593 0.066206 -0.010811 97991.700000 0 0 1
29.086744 2.710427 18.776945 34.726917 0.092916 0.999524 0.049914 -0.013482 -464620.000000 0 0 1
28.884564 2.734327 17.405645 33.834170 0.094383 1.030442 0.060204 -0.007829 68050.000000 0 0 1
28.735044 4.041027 16.909645 33.585246 0.139714 1.043170 0.061693 -0.008901 101229.000000 0 0 1
28.114534 3.961127 15.496145 32.345758 0.139971 1.071192 0.063465 -0.003359 59071.000000 0 0 1
27.831124 5.235427 14.902845 32.001187 0.185941 1.086375 0.063193 -0.012603 99251.000000 0 0 1
27.205494 5.157827 13.654345 30.873666 0.187364 1.112674 0.061527 -0.005831 -291424.000000 0 0 1
26.792294 6.543427 13.085045 30.526413 0.239539 1.127802 0.064188 0.002631 688815.000000 0 0 1
25.658094 7.053227 13.826145 29.987466 0.268267 1.091602 0.047353 -0.000554 738382.000000 0 0 1
25.151394 8.325427 13.387845 29.683998 0.319660 1.102897 0.057233 -0.017383 -185430.000000 0 0 1
23.812794 8.761127 14.041545 28.999508 0.352546 1.065348 0.044019 -0.017979 237988.000000 0 0 1
22.657194 7.993627 13.757445 27.685986 0.339174 1.050762 0.050084 -0.011386 628125.000000 0 0 1
22.663594 6.712727 14.384245 27.669581 0.287958 1.024112 0.052045 -0.017804 -434400.000000 0 0 1
21.383094 5.855027 14.054445 26.249676 0.267265 1.005798 0.060485 -0.012046 354405.000000 0 0 1
21.247494 5.507527 12.637045 25.327530 0.253626 1.048415 0.069422 -0.015206 49013.000000 0 0 1
20.148494 4.702427 12.407445 24.125077 0.229284 1.030609 0.068489 -0.010933 -771294.000000 0 1 0
19.750394 4.589427 10.921545 23.030872 0.228319 1.076726 0.071782 -0.011275 -387874.000000 0 1 0
20.637894 3.774627 10.179345 23.319296 0.180898 1.119069 0.074487 -0.018328 375735.000000 0 1 0
20.277894 3.499427 8.856845 22.402738 0.170890 1.164351 0.082223 -0.016274 -439463.000000 0 1 0
21.388694 2.854927 8.018945 23.020216 0.132694 1.214993 0.086132 -0.011410 -1182180.000000 0 1 0
21.664694 1.551027 8.467145 23.312169 0.071470 1.199089 0.088683 -0.015227 1074400.000000 0 1 0
22.486594 0.806927 7.512145 23.721939 0.035869 1.248574 0.081939 -0.013996 -193691.000000 0 1 0
23.969094 1.129327 7.284045 25.076885 0.047081 1.276080 0.077330 -0.011862 -563073.000000 0 0 1
24.879794 0.876627 8.355945 26.260130 0.035220 1.246967 0.077574 0.003703 567595.000000 0 0 1
24.596094 1.405527 9.676845 26.468560 0.057082 1.196521 0.082967 -0.003403 -815894.000000 0 0 1
25.377294 0.661627 10.831245 27.600012 0.026066 1.167518 0.072107 -0.004013 -739677.000000 0 0 1
26.715894 1.003227 10.881045 28.864210 0.037534 1.184270 0.079001 -0.006484 -697880.000000 0 0 1
27.332964 0.406027 12.015645 29.860199 0.014854 1.156663 0.081140 -0.009028 303567.000000 0 0 1
28.875194 0.583127 12.042045 31.291017 0.020192 1.175762 0.087292 -0.009925 367020.000000 0 0 1
29.385134 1.833127 12.438945 31.962068 0.062302 1.171057 0.078074 0.003764 231216.000000 0 0 1
30.802574 1.834027 12.401645 33.256022 0.059471 1.188648 0.065068 0.003374 374745.000000 0 0 1
31.449464 3.147027 12.917245 34.144220 0.099734 1.182822 0.055567 0.003107 -227669.000000 0 0 1
31.414224 4.182127 12.009145 33.890459 0.132350 1.208576 0.061814 0.005379 340204.000000 0 0 1
32.374554 5.146027 12.384945 35.042549 0.157634 1.209565 0.047639 -0.007901 1103570.000000 0 0 1
33.834694 5.060127 11.804945 36.190443 0.148454 1.238526 0.054245 -0.004994 567645.000000 0 0 1
34.613524 4.010027 12.353645 36.970108 0.115337 1.230091 0.053335 -0.002593 254058.000000 0 0 1
35.948164 4.094027 11.904945 38.088834 0.113398 1.252912 0.061019 0.002550 794928.000000 0 0 1
-35.253994 3.088327 12.625445 37.573710 -0.087379 1.228110 0.076626 0.004237 372137.000000 0 0 1
-35.300221 1.711127 12.173745 37.379588 -0.048436 1.239067 0.070305 0.001387 891407.000000 0 0 1
35.751494 0.927327 12.451145 37.868988 0.025932 1.235769 0.068538 0.002638 465173.000000 0 0 1
35.456764 0.668027 13.949245 38.107871 0.018838 1.196039 0.062073 0.001097 -214296.000000 0 0 1
-35.923599 -0.129973 14.733345 38.827739 0.003618 1.181590 0.046381 0.000077 168621.000000 0 0 1
35.759974 -0.092873 16.038845 39.192205 -0.002597 1.149180 0.038650 -0.002545 155610.000000 0 0 1
-35.721554 -1.093673 16.972645 39.563824 0.030607 1.127417 0.031003 -0.004767 550233.000000 0 0 1
-34.357860 -0.695273 17.074945 38.373163 0.020233 1.109654 0.046530 0.000280 737620.000000 0 0 1
-33.478294 -1.301873 18.063345 38.062783 0.038868 1.076324 0.040241 -0.002850 680523.000000 0 0 1
-33.755624 -1.065873 19.571145 39.033421 0.031566 1.045586 0.042838 -0.003881 212466.000000 0 0 1
-34.812962 -1.904273 20.069845 40.228935 0.054646 1.048478 0.036030 -0.016344 469095.000000 0 0 1
-34.867450 -1.840073 21.481245 40.994741 0.052724 1.019256 0.040140 -0.016110 -52100.300000 0 0 1
-35.247655 -3.148873 22.173145 41.760758 0.089099 1.011067 0.027200 -0.012579 239455.000000 0 0 1
-34.169801 -4.115073 22.223245 40.968057 0.119853 0.997442 0.045221 -0.009270 545780.000000 0 0 1
-34.369965 -5.350773 22.955845 41.676085 0.154442 0.987455 0.048918 -0.012257 -267923.000000 0 0 1
-34.473507 -5.174873 24.498215 42.607095 0.148999 0.958217 0.049053 -0.014812 -515837.000000 0 0 1
-33.312964 -4.623073 24.995915 41.903724 0.137896 0.931653 0.054510 -0.017651 -1074590.000000 0 0 1
-33.335134 -4.622773 26.401445 42.774262 0.137797 0.905583 0.054155 -0.024861 325794.000000 0 0 1
-32.193484 -3.808073 27.101415 42.254095 0.117740 0.874486 0.043648 -0.020045 153583.000000 0 0 1
-32.134804 -2.424973 26.884155 41.967653 0.075320 0.875527 0.047990 -0.014630 -209433.000000 0 0 1
-31.774004 -2.046973 25.551165 40.824496 0.064334 0.894539 0.052066 -0.014263 -253589.000000 0 0 1
-31.803184 -0.484373 25.341845 40.668000 0.015229 0.898046 0.052058 -0.008959 261004.000000 0 0 1
-33.115894 0.053027 25.274195 41.658735 -0.001601 0.918898 0.047978 -0.014932 13038.800000 0 0 1
-33.138994 1.432727 25.091395 41.591149 -0.043207 0.923180 0.047212 -0.001246 -375646.000000 0 0 1
-34.570027 1.774027 24.686665 42.516648 -0.051272 0.951288 0.035710 -0.006808 -378593.000000 0 0 1
-34.769334 1.293827 23.363345 41.909742 -0.037195 0.979463 0.038766 0.000691 -151286.000000 0 0 1
-35.998907 1.795827 22.881645 42.693278 -0.049844 1.005159 0.031068 0.010421 130038.000000 0 0 1
-35.839273 3.244127 22.260945 42.314625 -0.090273 1.016810 0.032693 0.005735 -48532.500000 0 0 1
-35.098651 3.255327 21.057245 41.059957 -0.092483 1.032305 0.034629 -0.002425 -358615.000000 0 0 1
-35.935751 3.105927 19.970045 41.228966 -0.086216 1.065154 0.023969 0.003369 187708.000000 0 0 1
-35.114338 2.489127 18.772645 39.895172 -0.070768 1.080883 0.038673 -0.002502 990621.000000 0 0 1
-34.066657 3.260427 18.140045 38.732786 -0.095417 1.083387 0.063803 0.002093 536118.000000 0 0 1
-33.641944 2.601227 16.983845 37.775624 -0.077167 1.104481 0.072109 0.003590 34951.600000 0 0 1
-32.731754 3.483227 16.044845 36.618815 -0.106018 1.117247 0.078237 0.004778 127289.000000 0 0 1
-33.266914 4.707927 15.626045 37.054357 -0.140586 1.135470 0.074787 -0.000134 422866.000000 0 0 1
-32.364364 5.424627 14.731445 35.970739 -0.166067 1.148847 0.088350 -0.000754 323549.000000 0 0 1
-33.029604 6.694327 14.197245 36.569530 -0.199968 1.172090 0.094825 -0.011055 -478127.000000 0 0 1
-32.296624 7.300727 13.214445 35.651004 -0.222316 1.191075 0.113083 -0.010742 -383150.000000 0 0 1
-32.545544 8.677327 13.019645 36.111211 -0.260560 1.201946 0.090391 -0.015126 -138677.000000 0 0 1
-31.742024 9.367327 11.880245 35.163093 -0.286963 1.226153 0.098306 -0.012951 252814.000000 0 0 1
-32.151414 10.730027 11.601845 35.825266 -0.322111 1.241005 0.080195 -0.007053 -226320.000000 0 0 1
-31.234214 11.330727 10.766745 34.926842 -0.348003 1.257427 0.082556 -0.022346 -414875.000000 0 0 1
-31.575884 12.822527 10.632645 35.700235 -0.385742 1.268376 0.065241 -0.009287 144367.000000 0 0 1
-30.897324 13.525927 9.607245 35.069851 -0.412637 1.293303 0.064574 -0.011571 -55913.000000 0 0 1
-30.973554 14.925627 9.927145 35.786640 -0.449049 1.289711 0.049163 -0.007973 120361.000000 0 0 1
-30.233854 15.797027 8.868045 35.245910 -0.481481 1.316458 0.057026 -0.010416 -665418.000000 0 0 1
-28.858514 15.587927 8.889045 33.982531 -0.495249 1.306141 0.058017 -0.007669 -756748.000000 0 0 1
-28.258484 16.609527 8.090845 33.762110 -0.531379 1.328798 0.057666 -0.029869 1287290.000000 0 0 1
-26.665934 16.649427 8.139145 32.473391 -0.558147 1.317455 0.067971 -0.021066 1689880.000000 0 0 1
-26.025434 17.063827 9.351745 32.495423 -0.580344 1.278882 0.060316 -0.015334 365765.000000 0 0 1
-26.270824 18.453227 9.670045 33.528906 -0.612350 1.278231 0.056682 -0.029158 -557011.000000 0 0 1
-26.444584 18.734027 11.155545 34.274275 -0.616359 1.239278 0.074370 -0.015481 763527.000000 0 0 1
-25.237754 18.829327 11.962745 33.683750 -0.640986 1.207723 0.067845 -0.006316 797058.000000 0 0 1
-25.346444 19.351827 13.293045 34.549102 -0.652081 1.175851 0.081607 -0.024589 -270632.000000 0 0 1
-25.774924 18.321827 14.393145 34.744764 -0.617964 1.143674 0.064450 -0.015655 20312.600000 0 0 1
-24.878404 17.240627 14.578145 33.596079 -0.606010 1.121953 0.072023 -0.016566 54193.200000 0 0 1
-25.299424 16.435127 15.632345 33.978588 -0.576111 1.092728 0.067524 -0.012777 -345133.000000 0 0 1
-24.167004 15.548127 16.110345 32.944370 -0.571694 1.059834 0.072289 -0.007238 -690096.000000 0 0 1
-23.139704 16.185327 16.822145 32.869366 -0.610364 1.033532 0.075737 -0.006274 202691.000000 0 0 1
-22.024004 15.366127 17.182245 31.881094 -0.609180 1.001609 0.066172 -0.020316 395327.000000 0 0 1
-22.261604 14.116827 18.031345 31.937332 -0.565140 0.970866 0.076398 -0.010869 -809019.000000 0 0 1
-22.557004 14.482327 19.368445 33.071028 -0.570754 0.945100 0.080483 -0.016511 88879.000000 0 0 1
-22.841104 13.334427 20.120945 33.232144 -0.528416 0.920445 0.074088 -0.019050 -575862.000000 0 0 1
-22.623504 13.457627 21.656445 34.087127 -0.536625 0.882365 0.079541 -0.026423 1424090.000000 0 0 1
-21.200204 13.597727 21.924245 33.391905 -0.570303 0.854529 0.082499 -0.024442 1258960.000000 0 0 1
-20.660204 14.878527 21.821745 33.532121 -0.624124 0.862196 0.077566 -0.009007 -1066690.000000 0 0 1
-19.213804 14.879527 22.306545 32.987157 -0.658947 0.828178 0.082290 -0.015186 347544.000000 0 0 1
-18.197104 14.638827 21.314245 31.618458 -0.677454 0.831040 0.053556 -0.012032 496768.000000 0 0 1
-17.644704 15.766327 20.649845 31.405871 -0.729237 0.853280 0.047980 -0.013775 -981374.000000 0 0 1
-16.467804 15.367527 19.755345 29.960359 -0.750850 0.850799 0.048309 -0.005918 725259.000000 0 0 1
-15.283104 14.908827 20.436145 29.554736 -0.773002 0.807278 0.036163 0.003697 762125.000000 0 0 1
-14.458104 15.946827 20.957445 30.042512 -0.834322 0.798764 0.024148 0.002135 -463116.000000 0 0 1
-13.325504 15.394427 21.845745 29.862920 -0.857312 0.750227 -0.012664 0.003877 220770.000000 0 0 1
-12.314504 14.643427 21.159745 28.527386 -0.871575 0.735144 0.008599 0.004797 111567.000000 0 0 1
-11.519704 13.986527 22.160145 28.625138 -0.881813 0.685425 0.008738 0.003321 212265.000000 0 0 1
-10.191304 13.468927 21.571145 27.396879 -0.923051 0.664285 0.005686 0.003597 -979919.000000 0 0 1
-9.488304 12.574227 22.391145 27.377043 -0.924368 0.613079 0.012267 -0.000637 932425.000000 0 0 1
-8.197704 12.182027 21.900145 26.367034 -0.978467 0.590633 0.022886 -0.000349 285680.000000 0 0 1
-7.040104 13.129127 21.876945 26.467674 -1.078594 0.597840 0.026159 0.003338 -1485210.000000 0 0 1
-6.961204 13.979427 20.793045 26.004489 -1.108782 0.644177 0.015877 0.003998 -393682.000000 0 0 1
-6.316604 15.173427 21.124945 26.765569 -1.176323 0.661196 0.012210 0.011131 -142117.000000 0 0 1
-7.105404 16.222327 22.028445 28.264873 -1.157965 0.677156 0.016143 0.006756 1078740.000000 0 0 1
-8.200104 16.835927 21.314945 28.372822 -1.117554 0.720850 -0.017589 0.005728 424889.000000 0 0 1
-7.749004 18.034127 20.688945 28.518577 -1.164964 0.759101 -0.006299 0.010526 -963649.000000 0 0 1
-8.726804 18.510227 19.578045 28.321113 -1.130242 0.807526 0.000927 0.017610 510260.000000 0 0 1
-9.892004 19.199627 19.921345 29.382604 -1.095048 0.825761 -0.011789 0.010759 -112824.000000 0 0 1
-10.866304 18.534727 20.743145 29.864539 -1.040536 0.802968 -0.012418 0.012624 -437363.000000 0 0 1
-12.229304 19.227127 20.610045 30.724782 -1.004294 0.835515 -0.019068 0.002089 59805.700000 0 0 1
-12.940804 19.064827 19.370045 30.102004 -0.974455 0.871760 -0.011066 0.005981 362417.000000 0 0 1
-14.040404 19.971027 19.275545 31.105007 -0.958034 0.902445 -0.011242 -0.006336 515786.000000 0 0 1
-14.911204 19.745527 17.997945 30.596664 -0.923995 0.941925 0.014436 0.009746 166265.000000 0 0 1
-15.701604 18.548227 18.022245 30.255221 -0.868321 0.932692 0.033451 0.008008 203016.000000 0 0 1
-16.281604 18.317527 16.764445 29.692912 -0.844174 0.970855 0.043836 -0.004689 -1491910.000000 0 0 1
-17.137404 17.048927 16.648345 29.351727 -0.782810 0.967692 0.048202 -0.012461 1405460.000000 0 0 1
-18.256504 16.961227 17.605045 30.510994 -0.748636 0.955737 0.059152 -0.011828 1636100.000000 0 0 1
-19.216304 18.038427 17.507345 31.641086 -0.753792 0.984463 0.068249 -0.015602 -725947.000000 0 0 1
34.483404 -9.356673 11.608065 37.568600 -0.264959 1.256673 0.026766 -0.010953 -474982.000000 0 0 1
33.152574 -9.671173 11.302465 36.336902 -0.283841 1.254502 0.038058 -0.015214 -221716.000000 0 0 1
32.879594 -10.857673 11.995965 36.645054 -0.318951 1.237293 0.026441 -0.008902 1109400.000000 0 0 1
31.342124 -11.271273 11.857665 35.354979 -0.345220 1.228778 0.049381 -0.007238 1341450.000000 0 0 1
30.548254 -10.540273 12.774465 34.748815 -0.332246 1.194345 0.045324 -0.003718 1248250.000000 0 0 1
29.155514 -10.949073 12.849165 33.690166 -0.359244 1.179495 0.054582 -0.011366 1467020.000000 0 0 1
28.759504 -12.044373 13.888565 34.133096 -0.396604 1.151745 0.041745 -0.002144 -725801.000000 0 0 1
28.851994 -11.590273 15.284465 34.646600 -0.381984 1.113913 0.051867 -0.002681 360791.000000 0 0 1
27.891644 -12.071173 16.249765 34.463196 -0.408449 1.079793 0.054703 -0.005089 519963.000000 0 0 1
26.463294 -11.496073 16.039665 33.011157 -0.409819 1.063420 0.046160 -0.020339 -29925.500000 0 0 1
26.422694 -10.104573 16.298365 32.648091 -0.365260 1.048106 0.024885 -0.003667 -194491.000000 0 0 1
25.239694 -9.517373 15.801765 31.262091 -0.360593 1.040880 0.053442 -0.018368 74856.400000 0 0 1
24.993994 -8.044373 16.255765 30.881412 -0.311382 1.016443 0.090390 -0.025622 1029450.000000 0 0 1
26.024694 -7.130273 15.737865 31.237892 -0.267419 1.042796 0.068096 -0.020600 1108870.000000 0 0 1
25.855894 -5.874073 16.403165 31.178451 -0.223393 1.016781 0.075269 -0.017822 -406894.000000 0 0 1
27.076494 -5.031873 16.113165 31.907528 -0.183743 1.041419 0.077708 -0.018968 -533185.000000 0 0 1
27.262864 -4.759273 14.750065 31.360467 -0.172828 1.081121 0.091002 -0.018132 -335129.000000 0 0 1
28.312354 -3.877773 14.528265 32.057714 -0.136117 1.100455 0.082295 -0.011739 -528844.000000 0 0 1
28.482774 -3.378173 13.060465 31.515968 -0.118053 1.143504 0.093337 -0.015939 -263305.000000 0 0 1
29.098634 -4.288873 12.211865 31.847364 -0.146337 1.177268 0.074057 -0.023165 163528.000000 0 0 1
29.364634 -3.683373 10.948965 31.555171 -0.124784 1.216449 0.076893 -0.024818 7612.510000 0 0 1
29.956554 -4.653373 9.886465 31.887164 -0.154106 1.255556 0.083902 -0.022004 -407834.000000 0 0 1
31.330354 -4.865773 10.009465 33.248402 -0.154075 1.265002 0.075312 -0.021702 -422798.000000 0 0 1
31.783624 -5.609773 8.897565 33.478874 -0.174700 1.301797 0.078844 -0.023349 361557.000000 0 0 1
33.275494 -6.047473 8.971065 34.990148 -0.179777 1.311513 0.065210 -0.024176 322881.000000 0 0 1
34.276834 -5.043173 8.953465 35.784068 -0.146083 1.317901 0.081755 -0.028506 -163972.000000 0 0 1
35.461534 -5.761973 8.685665 36.961622 -0.161077 1.333587 0.075116 -0.018333 78860.000000 0 0 1
-35.562341 -4.854773 8.338065 36.847961 0.135676 1.342536 0.077185 -0.021540 83875.500000 0 0 1
-35.700896 -4.445773 7.021965 36.655516 0.123891 1.378038 0.090799 -0.022854 362005.000000 0 0 1
-34.726615 -3.480773 6.652265 35.528948 0.099900 1.382450 0.088055 -0.018367 -45028.800000 0 0 1
-34.900549 -2.969073 5.169265 35.406002 0.084868 1.424273 0.096930 -0.024708 -189057.000000 0 0 1
-34.238788 -3.688373 4.149565 34.685985 0.107311 1.450877 0.098497 -0.017755 85993.800000 0 0 1
-34.132795 -2.820473 3.000765 34.380334 0.082445 1.483404 0.097551 -0.016434 -26637.800000 0 0 1
-33.358964 -3.439473 1.818065 33.585053 0.102742 1.516637 0.110442 -0.018547 -54455.500000 0 0 1
-33.895294 -4.662473 1.368465 34.241821 0.136697 1.530821 0.108188 -0.017601 282778.000000 0 0 1
-35.042442 -4.511873 0.517065 35.335493 0.128050 1.556163 0.104025 -0.028029 311282.000000 0 0 1
-34.769886 -4.688173 -1.012935 35.099145 0.134026 1.599660 0.123799 -0.031056 -1167510.000000 0 0 1
-34.703908 -6.026473 -1.389035 35.250660 0.171939 1.610211 0.116010 -0.035646 70076.700000 0 0 1
-33.833104 -6.332873 -2.447435 34.507595 0.185039 1.641780 0.098925 -0.032000 923028.000000 0 0 1
-32.300484 -5.969673 -2.238035 32.923655 0.182755 1.638825 0.090707 -0.034378 529473.000000 0 0 1
-31.694384 -6.807073 -1.241335 32.440886 0.211558 1.609070 0.073999 -0.030272 138363.000000 0 0 1
-30.371844 -6.452173 -0.900135 31.062673 0.209327 1.599778 0.083914 -0.036023 117660.000000 0 0 1
-29.685344 -7.323873 0.152665 30.575841 0.241886 1.565803 0.063869 -0.026545 -309128.000000 0 0 1
-29.381494 -8.575373 -0.333035 30.609151 0.283975 1.581677 0.084725 -0.015968 369313.000000 0 0 1
-28.782884 -9.443973 0.590065 30.298370 0.317043 1.551320 0.073471 -0.013251 -215791.000000 0 0 1
-28.361014 -10.764973 -0.068735 30.335400 0.362771 1.573062 0.069814 -0.016377 93544.200000 0 0 1
-27.300434 -10.728973 -1.027035 29.350968 0.374454 1.605795 0.073966 -0.014590 547306.000000 0 0 1
-26.765674 -11.949173 -1.529335 29.351710 0.419887 1.622924 0.055599 -0.004139 -109746.000000 0 0 1
-27.566334 -12.929873 -2.435235 30.545290 0.438579 1.650606 0.052014 -0.003877 291176.000000 0 0 1
-28.692774 -13.602173 -1.848235 31.807395 0.442683 1.628936 0.057864 -0.008224 901233.000000 0 0 1
-29.110674 -14.750673 -2.596435 32.737672 0.469001 1.650190 0.046943 -0.010817 115803.000000 0 0 1
-29.920554 -15.761973 -1.756435 33.863910 0.484852 1.622687 0.050082 -0.012620 103758.000000 0 0 1
-29.088114 -16.305673 -0.744435 33.354873 0.510916 1.593117 0.029384 0.000937 89304.800000 0 0 1
-29.717604 -17.077173 0.241465 34.275707 0.521570 1.563751 0.028220 0.006975 -225714.000000 0 0 1
-29.998244 -18.581973 -0.041735 35.287195 0.554588 1.571979 0.039270 0.000687 484907.000000 0 0 1
-28.835764 -19.368473 0.204265 34.737311 0.591467 1.564916 0.037655 0.001773 599396.000000 0 0 1
-29.108084 -20.785573 -0.087035 35.767697 0.620115 1.573230 0.049600 -0.003758 610445.000000 0 0 1
-30.101674 -21.508973 0.903465 37.007606 0.620421 1.546381 0.057259 -0.008494 -131313.000000 0 0 1
-29.587554 -21.521473 2.193965 36.652566 0.628868 1.510902 0.053042 -0.006717 -144620.000000 0 0 1
-30.540354 -21.971473 3.139565 37.753354 0.623644 1.487540 0.055546 -0.004760 26263.000000 0 0 1
-30.028014 -22.078373 4.575565 37.550925 0.634000 1.448643 0.039896 -0.002305 -95642.300000 0 0 1
-29.633134 -20.827073 5.162765 36.586114 0.612623 1.429211 0.026519 -0.001798 81225.200000 0 0 1
-28.758864 -21.044273 6.242365 36.178734 0.631718 1.397386 0.025817 -0.004012 173074.000000 0 0 1
-28.086884 -19.796873 6.891665 35.046887 0.613970 1.372865 0.029128 -0.000339 306128.000000 0 0 1
-27.180794 -20.008973 7.953465 34.675815 0.634574 1.339370 0.037470 -0.005687 -136573.000000 0 0 1
-26.811514 -18.850173 8.683565 33.905613 0.612778 1.311801 0.036531 -0.009668 450929.000000 0 0 1
-25.844084 -19.035073 9.904265 33.590849 0.634828 1.271498 0.041978 -0.008950 -41541.600000 0 0 1
-26.458444 -19.485073 11.056165 34.669239 0.634766 1.246223 0.038971 -0.006705 -579057.000000 0 0 1
-25.544524 -19.925573 12.010465 34.551446 0.662447 1.215774 0.041327 -0.002929 -543453.000000 0 0 1
-24.994004 -18.759873 12.862965 33.794806 0.643869 1.180330 0.037303 0.000895 -482619.000000 0 0 1
-24.126804 -17.891973 12.092465 32.379825 0.638091 1.188064 0.028113 -0.000773 371794.000000 0 0 1
-23.711804 -16.754373 12.847565 31.749308 0.615131 1.154193 0.026806 -0.000526 127780.000000 0 0 1
-22.803004 -16.958073 14.054165 31.702883 0.639442 1.111510 0.031612 0.003819 -311957.000000 0 0 1
-23.550304 -17.432373 15.185165 33.001419 0.637212 1.092647 0.041105 -0.000215 909613.000000 0 0 1
-22.627904 -17.904373 16.184565 33.083663 0.669384 1.059623 0.051190 0.006024 279852.000000 0 0 1
-23.372904 -18.655173 17.287665 34.542314 0.673614 1.046646 0.050792 0.013354 17084.100000 0 0 1
-24.263404 -17.773073 17.907465 35.003888 0.632210 1.033768 0.049612 0.017832 30303.400000 0 0 1
-25.251984 -18.404673 18.713965 36.422619 0.629821 1.031187 0.050550 0.019271 486551.000000 0 0 1
-26.263484 -17.400873 19.340465 36.967750 0.585147 1.020228 0.053991 0.014812 22921.700000 0 0 1
-25.737154 -16.798573 20.468765 36.926460 0.578269 0.983261 0.060476 0.011771 -199499.000000 0 0 1
-26.618364 -15.853373 21.013465 37.435711 0.537163 0.974815 0.060620 0.000021 -181565.000000 0 0 1
-25.966884 -15.043773 22.151165 37.299709 0.525093 0.934936 0.059394 0.000727 165594.000000 0 0 1
-24.846304 -14.313873 21.677865 35.946566 0.522658 0.923467 0.062222 0.002462 -102925.000000 0 0 1
-24.130804 -13.777873 22.755965 35.916005 0.518797 0.884614 0.058843 0.001985 -461051.000000 0 0 1
-22.959204 -12.953673 22.216865 34.474799 0.513683 0.870508 0.057349 0.009181 -558584.000000 0 0 1
-23.275904 -11.800973 21.415165 33.758554 0.469235 0.883613 0.064710 0.012298 -32749.100000 0 0 1
-22.166904 -11.117273 20.888965 32.423976 0.464867 0.870761 0.060679 0.015139 -662674.000000 0 0 1
-21.906904 -9.791073 21.600265 32.285430 0.420306 0.837879 0.068643 0.012364 202634.000000 0 0 1
-21.288904 -9.828673 22.912065 32.783883 0.432525 0.796963 0.061869 0.008432 541959.000000 0 0 1
-19.897504 -10.099373 22.874665 31.955567 0.469685 0.772988 0.039763 0.004692 -215512.000000 0 0 1
-19.365104 -10.072973 24.334065 32.689735 0.479646 0.731168 0.032227 0.009475 -85676.900000 0 0 1
-19.625604 -11.205473 25.147465 33.810086 0.518794 0.732080 0.033973 0.007762 -44134.600000 0 0 1
-19.129204 -11.117273 26.469265 34.498437 0.526457 0.696239 0.035155 0.006317 -743452.000000 0 0 1
-19.291604 -12.304873 27.511965 35.783852 0.567776 0.693775 0.037620 -0.010059 250558.000000 0 0 1
-20.591404 -12.582373 28.001265 36.964752 0.548505 0.711302 0.035218 -0.007033 186936.000000 0 0 1
-21.539604 -13.092673 27.059065 36.980611 0.546166 0.749970 0.030590 -0.006185 952137.000000 0 0 1
-22.783604 -13.744473 27.812565 38.490803 0.542814 0.763274 0.024804 -0.009165 662075.000000 0 0 1
-22.528504 -14.950573 28.498165 39.283566 0.585897 0.759112 0.023174 -0.012318 271454.000000 0 0 1
-21.736004 -14.856773 29.720965 39.705331 0.599573 0.724941 0.018283 -0.016457 263230.000000 0 0 1
-22.306604 -15.749973 30.837565 41.189824 0.614787 0.724743 0.010956 -0.016642 -710552.000000 0 0 1
-22.041404 -17.144473 30.558165 41.395143 0.661076 0.740389 0.014926 -0.012443 3865.580000 0 0 1
-22.301404 -18.153973 31.536265 42.678512 0.683236 0.739321 0.021622 -0.009544 156520.000000 0 0 1
-23.794704 -18.254973 31.960065 43.827819 0.654410 0.753617 0.031585 -0.017210 -42224.000000 0 0 1
-24.191104 -17.243173 32.840065 44.283252 0.619258 0.735357 0.033595 -0.014146 -39006.200000 0 0 1
-25.505974 -17.435773 33.339265 45.454015 0.599631 0.747380 0.041806 -0.021941 -127843.000000 0 0 1
-26.107024 -16.297273 34.136565 45.961754 0.558059 0.733678 0.045053 -0.022256 142963.000000 0 0 1
-25.524964 -16.037873 -33.033715 44.720951 0.560984 2.401881 0.048995 -0.024817 -90529.000000 0 0 1
-26.256324 -15.003473 -32.473915 44.374023 0.519142 2.391789 0.057239 -0.025667 -569026.000000 0 0 1
-25.771584 -14.698773 -31.059415 42.952482 0.518331 2.379092 0.041293 -0.015823 -276588.000000 0 0 1
-26.117044 -15.591573 -30.013815 42.732028 0.538202 2.349522 0.044219 -0.007717 92340.700000 0 0 1
-25.405024 -15.347173 -28.804715 41.360157 0.543429 2.341216 0.050804 -0.005573 -103910.000000 0 0 1
-26.024914 -15.991773 -27.559815 41.140933 0.550998 2.304854 0.041258 0.001843 106242.000000 0 0 1
-27.311824 -15.581573 -27.111615 41.518198 0.518451 2.282343 0.047287 -0.000661 529718.000000 0 0 1
-27.555774 -14.339773 -26.366915 40.745110 0.479827 2.274595 0.035639 0.002784 -476823.000000 0 0 1
-26.759984 -14.397373 -25.033615 39.370839 0.493598 2.259895 0.039292 -0.004589 -292840.000000 0 0 1
-25.457774 -13.876773 -25.249315 38.447249 0.499066 2.287266 0.041059 -0.008572 714232.000000 0 0 1
-24.502504 -14.213673 -24.236415 37.280089 0.525652 2.278535 0.030714 -0.011899 204305.000000 0 0 1
-23.886604 -15.601973 -24.277915 37.462095 0.578599 2.275839 0.032862 -0.005246 -635997.000000 0 0 1
-23.088304 -15.843273 -25.451115 37.839640 0.601406 2.308519 0.049211 -0.001866 552614.000000 0 0 1
-22.537804 -17.161673 -25.528515 38.133721 0.650796 2.304261 0.048085 -0.000699 418322.000000 0 0 1
-21.587604 -17.418873 -26.763815 38.545344 0.678930 2.338307 0.045668 -0.004044 461691.000000 0 0 1
-22.234404 -17.521873 -28.028515 39.836948 0.667413 2.351220 0.047593 -0.003935 258209.000000 0 0 1
-23.193704 -18.563373 -28.125415 40.909482 0.674962 2.328842 0.053833 -0.008246 -360886.000000 0 0 1
-23.802804 -18.465773 -29.539115 42.191439 0.659798 2.346363 0.046805 -0.012094 -540575.000000 0 0 1
-22.942704 -18.738073 -30.610415 42.596720 0.684861 2.372597 0.051559 -0.017133 122071.000000 0 0 1
-23.615504 -18.541573 -31.832415 43.758252 0.665617 2.385410 0.036289 -0.013040 -598962.000000 0 0 1
-22.776204 -18.953873 -33.068215 44.401707 0.694057 2.410958 0.039011 -0.019305 -1041400.000000 0 0 1
-21.751804 -18.074373 -33.452515 43.805190 0.693322 2.439768 0.031492 -0.014904 324648.000000 0 0 1
-20.507204 -18.441373 -32.842115 42.886293 0.732408 2.443073 0.047597 -0.020884 362606.000000 0 0 1
-19.773604 -19.727273 -33.481815 43.602668 0.784225 2.446329 0.045261 -0.016768 -742332.000000 0 0 1
-19.403304 -19.574273 33.628965 43.480428 0.789784 0.686566 0.037825 -0.014274 68050.900000 0 0 1
-19.176004 -20.713173 32.818665 43.287636 0.823915 0.710320 0.039480 -0.016818 -236812.000000 0 0 1
-20.408704 -21.363673 32.139865 43.656530 0.808255 0.743361 0.041556 -0.016560 -115473.000000 0 0 1
-21.245704 -21.926273 33.125065 45.048988 0.801161 0.744669 0.047294 -0.017081 -282697.000000 0 0 1
-22.425204 -22.584173 32.730065 45.652950 0.788930 0.771405 0.052338 -0.009564 -82351.000000 0 0 1
-22.382504 -23.792173 31.821165 45.602966 0.815918 0.798493 0.054129 0.001004 -589838.000000 0 0 1
-21.941504 -25.001773 32.461265 46.478511 0.850497 0.797617 0.052295 0.006151 124853.000000 0 0 1
-21.887404 -26.112973 31.604665 46.473656 0.873204 0.822958 0.062095 0.012873 -75882.400000 0 0 1
-21.335404 -27.396183 32.257065 47.394816 0.909133 0.822211 0.067000 -0.002174 170069.000000 0 0 1
-22.228704 -27.892963 33.230665 48.748433 0.897931 0.820745 0.054056 -0.009604 -10737.700000 0 0 1
-21.598704 -28.920623 33.922565 49.534300 0.929329 0.816426 0.059713 -0.021981 -616365.000000 0 0 1
-22.585804 -29.740863 -33.740415 50.329445 0.921294 2.305532 0.059708 -0.020098 -493162.000000 0 0 1
-23.567504 -30.525353 34.064365 51.454887 0.913324 0.847280 0.052688 -0.014039 861707.000000 0 0 1
-24.741904 -29.817883 33.681165 51.338960 0.878166 0.855217 0.047772 -0.010779 -629205.000000 0 0 1
-25.733714 -29.448063 -33.741315 51.651610 0.852608 2.282663 0.047512 -0.011144 -484991.000000 0 0 1
-26.946574 -28.937393 34.158665 52.252320 0.821007 0.858299 0.039344 0.003518 517542.000000 0 0 1
-27.832954 -28.506923 -33.356815 51.961477 0.797360 2.267839 0.030994 0.009026 -142699.000000 0 0 1
-28.778474 -27.338013 -33.799215 52.134005 0.759735 2.276164 0.014991 -0.000282 432916.000000 0 0 1
-29.793854 -27.827263 33.841065 52.983469 0.751282 0.877976 0.016280 0.001321 159647.000000 0 0 1
-30.880614 -26.933883 33.642065 53.017308 0.717238 0.883372 0.004789 -0.007894 299030.000000 0 0 1
