# x y z rho theta phi s1 s2 stress_xx np intf bulk
-0.724077 -10.814158 -14.347453 17.981093 1.503940 2.494631 -0.004656 -0.003539 -1193830.000000 1 0 0
2.015423 -13.392858 -12.948153 18.737268 -1.421432 2.333720 0.002255 -0.008698 -1173290.000000 1 0 0
2.173723 -11.144458 -14.668453 18.549596 -1.378165 2.482861 0.000085 -0.002516 933452.000000 1 0 0
-5.477377 -6.339358 -16.441653 18.453104 0.858215 2.670332 0.013229 -0.007447 -1663920.000000 1 0 0
4.464923 -14.078258 -11.480353 18.706453 -1.263681 2.231548 0.004199 -0.005162 554384.000000 1 0 0
13.959523 -10.704358 -7.840753 19.259516 -0.654176 1.990085 0.062045 -0.024220 -464541.000000 1 0 0
7.211223 10.811542 -10.865953 16.939897 0.982568 2.267172 0.033614 -0.014860 -599571.000000 1 0 0
5.664023 -4.183858 -12.598953 14.433275 -0.636212 2.631932 0.006905 0.000369 2957490.000000 1 0 0
13.649723 0.467642 -10.005253 16.930408 0.034247 2.203049 0.015612 -0.003551 299578.000000 1 0 0
14.219723 4.945142 -10.382653 18.288095 0.334684 2.174539 0.022615 -0.011002 -1416440.000000 1 0 0
4.173023 4.244942 -13.559953 14.808983 0.793942 2.727936 0.004562 0.002562 1747900.000000 1 0 0
10.365423 -5.007358 -13.650953 17.856767 -0.450023 2.441014 0.032754 -0.003360 -627871.000000 1 0 0
2.527623 -7.562158 -12.013853 14.419007 -1.248224 2.555658 -0.002269 0.003961 753215.000000 1 0 0
-5.543677 -2.022358 -15.117053 16.227987 0.349802 2.769427 0.012929 -0.008181 459919.000000 1 0 0
10.695323 0.081242 -9.610653 14.379192 0.007596 2.302815 0.011091 -0.000671 1905470.000000 1 0 0
-1.674277 -9.666458 -16.865353 19.511118 1.399293 2.614746 0.007541 -0.004953 538953.000000 1 0 0
8.497623 1.667242 -18.126453 20.088742 0.193740 2.695915 0.027769 -0.003500 -432469.000000 1 0 0
16.557723 -5.940058 -8.775653 19.658447 -0.344447 2.033541 0.094878 -0.021848 -56024.300000 1 0 0
10.080023 7.530142 -9.901653 16.011016 0.641602 2.237536 0.027372 -0.004058 -148721.000000 1 0 0
13.859023 -2.365258 -10.582353 17.596964 -0.169037 2.216016 0.038508 -0.012439 -1165220.000000 1 0 0
7.282023 -1.891958 -13.674653 15.607802 -0.254192 2.638596 0.009095 -0.001418 435009.000000 1 0 0
-2.796177 6.677242 -13.872753 15.647921 -1.174221 2.660642 0.007595 -0.003830 430939.000000 1 0 0
11.216623 1.793642 -13.918553 17.965408 0.158567 2.457103 0.015366 -0.007886 199891.000000 1 0 0
-2.359677 10.723542 -12.901353 16.941291 -1.354202 2.436472 0.017244 -0.003387 -843590.000000 1 0 0
2.914823 -1.001858 -15.211353 15.520476 -0.331062 2.941675 0.009225 -0.003333 -585828.000000 1 0 0
-9.041877 0.429742 -15.160253 17.657109 -0.047492 2.603313 0.027282 -0.011062 -911198.000000 1 0 0
2.299023 -1.735658 -17.953553 18.183181 -0.646665 2.982500 0.022083 -0.016175 3121250.000000 1 0 0
1.071923 7.779642 -13.263453 15.413988 1.433873 2.607010 0.008364 -0.004640 -935690.000000 1 0 0
9.327323 -9.072958 -9.828253 16.306810 -0.771575 2.217687 0.034244 -0.008106 165394.000000 1 0 0
3.966323 7.233842 -13.551953 15.865548 1.069258 2.594758 0.007279 -0.000738 1302640.000000 1 0 0
-2.648477 9.152542 -15.513753 18.206042 -1.289120 2.590821 0.001915 0.000817 60345.700000 1 0 0
5.547823 -7.754558 -15.198453 17.941696 -0.949791 2.581305 0.016659 0.000438 22160.700000 1 0 0
4.193223 7.241942 -16.458053 18.463378 1.045947 2.671197 0.017434 0.001076 162990.000000 1 0 0
-0.277477 4.979142 -13.579353 14.466087 -1.515126 2.789643 0.013759 -0.005258 1968230.000000 1 0 0
8.774723 4.208542 -16.761953 19.382225 0.447212 2.615569 0.031398 -0.005239 16201.400000 1 0 0
5.395823 0.319542 -14.327853 15.313536 0.059151 2.780845 0.004819 0.000683 398925.000000 1 0 0
6.290823 7.933742 -11.649053 15.434349 0.900387 2.426067 0.004911 -0.001956 -128014.000000 1 0 0
2.680423 -8.358158 -14.995853 17.375818 -1.260463 2.612034 0.002888 -0.000200 300033.000000 1 0 0
4.158023 11.295642 -13.844453 18.345287 1.218081 2.425932 0.033705 -0.020470 -2091360.000000 1 0 0
0.589523 -4.590258 -13.751553 14.509418 -1.443066 2.816958 -0.000108 0.000140 1233820.000000 1 0 0
8.543123 -0.095058 -11.626753 14.428283 -0.011126 2.507873 0.002721 0.000715 -20450.600000 1 0 0
-1.013877 -5.197358 -16.279753 17.119311 1.378140 2.827116 0.002914 -0.007000 73864.300000 1 0 0
4.532323 0.869042 -11.697053 12.574507 0.189444 2.765807 0.004309 -0.000366 2599360.000000 1 0 0
-2.885377 -7.374458 -15.580253 17.477194 1.197842 2.671358 -0.003769 -0.003277 1940000.000000 1 0 0
11.445123 -3.877258 -11.339653 16.571412 -0.326635 2.324426 0.027080 -0.006173 1104330.000000 1 0 0
6.439923 -7.024458 -12.506953 15.723851 -0.828784 2.490485 0.018365 -0.000807 -1038570.000000 1 0 0
3.364623 -3.947458 -14.627053 15.519465 -0.864939 2.800822 0.009487 -0.000652 2645930.000000 1 0 0
-0.672677 -1.671958 -18.265653 18.354346 1.188284 3.043245 0.025609 -0.020822 1667050.000000 1 0 0
14.971523 2.852442 -8.489153 17.445591 0.188268 2.078998 0.019622 -0.005583 -1509330.000000 1 0 0
7.001423 4.304642 -14.387053 16.569163 0.551248 2.622567 0.008767 0.003150 2522970.000000 1 0 0
10.150923 -9.718158 -13.863753 19.740503 -0.763621 2.349419 0.066414 -0.019919 -196365.000000 1 0 0
9.143923 -3.123058 -15.589153 18.340842 -0.329122 2.586723 0.036898 -0.007299 -205105.000000 1 0 0
-5.318477 -2.063658 -17.989253 18.872151 0.370133 2.834501 0.008029 -0.005761 -1601240.000000 1 0 0
4.982723 -9.016758 -11.003753 15.073554 -1.065954 2.389124 0.000155 0.000685 1547270.000000 1 0 0
-2.488777 3.900942 -17.254153 17.863850 -1.002908 2.879577 0.012245 -0.007772 1279930.000000 1 0 0
9.635923 9.303742 -14.434653 19.691872 0.767861 2.393556 0.075955 -0.016711 -1041310.000000 1 0 0
9.915623 9.946542 -11.564353 18.193063 0.786955 2.259642 0.046650 -0.017507 -988866.000000 1 0 0
12.125723 -5.993158 -9.694653 16.641436 -0.459038 2.192672 0.041156 -0.010533 799591.000000 1 0 0
8.235623 6.892242 -13.638053 17.358714 0.696829 2.474559 0.015379 -0.002059 716533.000000 1 0 0
3.943023 -4.082458 -17.520053 18.416464 -0.802770 2.828305 0.023396 -0.009282 248690.000000 1 0 0
9.272523 -7.447258 -12.276653 17.092616 -0.676661 2.372070 0.038530 -0.009826 1718700.000000 1 0 0
12.038223 -8.674858 -8.884153 17.294512 -0.624424 2.110286 0.052403 -0.019919 1035610.000000 1 0 0
-2.875477 -2.589758 -13.880253 14.409602 0.733166 2.869699 0.003458 -0.004993 -2125580.000000 1 0 0
-0.395277 6.040342 -17.663253 18.671702 -1.505450 2.811433 0.011547 -0.005887 665025.000000 1 0 0
1.060623 -8.576358 -17.510953 19.527219 -1.447753 2.683157 0.008851 -0.000704 2043700.000000 1 0 0
0.101423 8.467742 -16.085753 18.178679 1.558819 2.657009 0.007671 -0.001115 -1334560.000000 1 0 0
1.812523 3.328342 -15.040653 15.510781 1.072130 2.894756 0.014985 -0.004616 1687440.000000 1 0 0
-1.946377 -0.521558 -15.820553 15.948363 0.261813 3.014906 0.015749 -0.013529 1352360.000000 1 0 0
14.242223 -4.329958 -8.450353 17.117182 -0.295143 2.087109 0.047770 -0.010969 408867.000000 1 0 0
0.631423 0.653742 -14.668053 14.696185 0.802763 3.079708 0.012656 -0.007132 1497140.000000 1 0 0
8.816323 2.742642 -12.584453 15.608270 0.301597 2.508613 0.005670 0.001056 1000550.000000 1 0 0
5.913923 0.916442 -17.134253 18.149296 0.153741 2.805567 0.021957 -0.002334 -399812.000000 1 0 0
15.308823 1.492442 -12.352253 19.727280 0.097182 2.247403 0.046500 -0.014663 262189.000000 1 0 0
8.678323 -11.204858 -11.906053 18.509895 -0.911790 2.269501 0.041634 -0.011505 620751.000000 1 0 0
-4.621377 0.670542 -15.060253 15.767624 -0.144090 2.840921 0.014752 -0.011877 617584.000000 1 0 0
2.387423 5.066442 -17.312653 18.196059 1.130434 2.828711 0.012812 -0.005173 647097.000000 1 0 0
5.863623 -11.636958 -12.309453 17.925498 -1.104050 2.327737 0.013635 -0.008927 -31051.600000 1 0 0
12.775923 7.003142 -8.681753 16.959983 0.501423 2.108187 0.019265 -0.010259 -346316.000000 1 0 0
-5.011677 3.539642 -15.606953 16.769703 -0.614928 2.767019 0.010163 -0.011976 1652220.000000 1 0 0
-0.591477 -4.440958 -19.063353 19.582731 1.438389 2.910767 0.017279 -0.015995 -1711350.000000 1 0 0
9.849123 4.364142 -10.289353 14.897038 0.417101 2.333250 0.001113 -0.000599 1699940.000000 1 0 0
13.351523 3.596442 -12.808653 18.848319 0.263121 2.317965 0.035984 -0.018125 877693.000000 1 0 0
-6.188977 5.726942 -17.041753 19.013749 -0.746643 2.682118 0.006979 -0.004875 -863153.000000 1 0 0
-10.227777 3.124242 -15.377753 18.730819 -0.296464 2.533933 0.032790 -0.009253 -1730320.000000 1 0 0
10.796823 13.488642 -8.371753 19.198987 0.895788 2.022003 0.069978 -0.016491 11429.500000 1 0 0
7.629723 13.404442 -12.330753 19.746878 1.053337 2.245211 0.073092 -0.025092 -238972.000000 1 0 0
5.449923 15.098442 -11.352553 19.660749 1.224392 2.186364 0.042034 -0.020130 404127.000000 1 0 0
14.214523 9.347642 -9.804253 19.635540 0.581708 2.093600 0.066566 -0.016917 235502.000000 1 0 0
8.300723 -17.245958 -1.956853 19.239395 -1.122209 1.672683 0.035283 -0.005997 -1053720.000000 1 0 0
0.685923 -15.926458 -0.064453 15.941352 -1.527755 1.574839 0.012854 -0.007995 1243880.000000 1 0 0
-9.247677 -11.592358 7.536247 16.634221 0.897436 1.100605 0.026316 -0.009900 -1256410.000000 1 0 0
1.957723 -15.904458 -2.674253 16.246110 -1.448320 1.736158 0.016638 -0.008784 1823960.000000 1 0 0
-1.273377 -11.057558 -9.429453 14.587860 1.456142 2.273640 -0.005232 0.000368 280594.000000 1 0 0
-4.700677 -12.614458 -12.939953 18.672528 1.214095 2.336430 0.020198 -0.009499 -1243000.000000 1 0 0
-8.461077 -17.973158 -1.714753 19.939022 1.130812 1.656903 0.049746 -0.018445 -927083.000000 1 0 0
-11.465977 -7.101558 -8.819153 16.114534 0.554533 2.149906 0.033500 -0.009535 3230340.000000 1 0 0
-13.667977 -11.534458 -4.759353 18.506992 0.700944 1.830884 0.046869 -0.012502 -387532.000000 1 0 0
-5.855077 -13.362958 9.830247 17.592167 1.157834 0.977876 0.021488 -0.008830 -190585.000000 1 0 0
0.052623 -13.940558 -3.637353 14.407368 -1.567022 1.826023 0.008139 -0.006605 -615199.000000 1 0 0
-14.793877 -11.584458 1.882447 18.883911 0.664324 1.470945 0.022721 -0.002632 388946.000000 1 0 0
-3.945777 -16.545958 -7.506953 18.592800 1.336695 1.986415 0.011610 -0.007705 -806182.000000 1 0 0
0.526023 -15.254358 -9.233253 17.838865 -1.536327 2.114831 -0.004968 0.001846 666559.000000 1 0 0
4.532123 -14.270258 -2.558053 15.189603 -1.263279 1.740011 0.011443 -0.005315 550548.000000 1 0 0
-3.559677 -18.096758 -2.505753 18.612973 1.376573 1.705830 0.028583 -0.022858 1730090.000000 1 0 0
-0.955977 -13.512358 0.695247 13.563963 1.500166 1.519517 0.012811 -0.004363 2901310.000000 1 0 0
-8.483277 -11.360758 -10.504853 17.646097 0.929399 2.208445 0.030472 -0.013129 3286240.000000 1 0 0
-3.777277 -14.220058 -0.385953 14.718248 1.311162 1.597022 0.009415 -0.003020 5098540.000000 1 0 0
-1.573677 -15.017458 -7.307353 16.774919 1.466388 2.021514 0.000638 0.001664 314035.000000 1 0 0
-14.212077 -7.895358 -1.819853 16.359452 0.507086 1.682269 0.019525 -0.003794 1006980.000000 1 0 0
-10.696777 -7.266558 -11.680853 17.426022 0.596713 2.305424 0.036180 -0.010604 384587.000000 1 0 0
-9.619277 -14.615358 6.858347 18.792980 0.988705 1.197226 0.015742 -0.008756 -194028.000000 1 0 0
-2.504277 -14.370358 -12.264653 19.057815 1.398262 2.269923 0.019602 -0.004300 -1143800.000000 1 0 0
2.345223 -17.702658 -4.831353 18.499355 -1.439085 1.835023 0.023434 -0.013128 170065.000000 1 0 0
-6.591577 -9.711058 -9.174153 14.896933 0.974461 2.234250 0.015787 -0.008548 2126390.000000 1 0 0
-11.068877 -15.336058 0.471047 18.919213 0.945618 1.545896 0.026743 -0.012652 538961.000000 1 0 0
-12.727577 -10.956958 4.054747 17.276780 0.710779 1.333893 0.026706 -0.005402 2101410.000000 1 0 0
-17.058277 -8.860158 -1.605553 19.288987 0.479051 1.654129 0.028189 -0.010517 773118.000000 1 0 0
-1.498477 -19.295858 -4.141753 19.792162 1.493294 1.781617 0.028025 -0.013761 -24695.000000 1 0 0
3.290123 -14.278958 -8.726453 17.054751 -1.344331 2.107927 0.006828 -0.002694 978883.000000 1 0 0
-4.324277 -8.157158 -13.006153 15.949878 1.083344 2.524284 0.002831 -0.003396 499954.000000 1 0 0
5.546823 -16.575358 1.242847 17.522968 -1.247868 1.499810 0.023736 -0.005087 5381640.000000 1 0 0
-2.875477 -13.820458 -3.191653 14.472736 1.365663 1.793153 0.004229 -0.003871 -952985.000000 1 0 0
-0.512077 -13.994558 3.684847 14.480607 1.534221 1.313499 0.009737 -0.000640 -2738830.000000 1 0 0
1.128423 -16.138058 7.124647 17.676845 -1.500987 1.155950 0.020124 -0.004348 1462280.000000 1 0 0
-5.671377 -10.324458 -14.513353 18.692147 1.068479 2.459795 0.022335 -0.012640 170350.000000 1 0 0
-0.288177 -17.285158 -5.925953 18.275028 1.554126 1.901031 0.019899 -0.008592 -350990.000000 1 0 0
-6.534477 -13.441358 -1.245253 14.997338 1.118292 1.653924 0.006330 -0.003009 1054390.000000 1 0 0
-1.680677 -17.771858 -0.189253 17.852155 1.476507 1.581398 0.020639 -0.010449 1502110.000000 1 0 0
-9.483877 -9.767258 -4.992653 14.500684 0.800117 1.922294 0.022252 -0.004122 1835150.000000 1 0 0
-0.822677 -16.685958 4.926147 17.417374 1.521533 1.284054 0.025353 -0.002534 2592710.000000 1 0 0
-6.790677 -9.915058 -6.319853 13.578005 0.970287 2.054937 0.015740 -0.006717 1263700.000000 1 0 0
-5.919877 -14.528758 -8.581953 17.882384 1.183876 2.071350 0.015807 -0.010268 -355877.000000 1 0 0
-5.660977 -12.167958 -10.261553 16.893943 1.135344 2.223593 0.018766 -0.009697 825640.000000 1 0 0
-10.561577 -12.403158 -8.767653 18.500188 0.865419 2.064536 0.043190 -0.017060 407366.000000 1 0 0
3.825423 -17.096558 6.680147 18.749681 -1.350668 1.206512 0.025572 -0.008216 -32429.900000 1 0 0
-6.682277 -14.408758 -4.096653 16.402674 1.136555 1.823224 0.016559 -0.013889 -590756.000000 1 0 0
-2.844777 -12.280558 -7.095753 14.465634 1.343162 2.083488 -0.004171 -0.002729 1915180.000000 1 0 0
-7.148777 -12.861858 4.372447 15.350919 1.063502 1.281964 0.005232 -0.000061 2658560.000000 1 0 0
2.560723 -16.344858 2.378247 16.714298 -1.415391 1.428024 0.017474 -0.006798 2394450.000000 1 0 0
-6.316077 -11.964658 7.230447 15.340314 1.085083 1.079991 0.011736 -0.003976 2337230.000000 1 0 0
-11.222177 -12.980558 -1.123553 17.195770 0.857923 1.636182 0.027201 -0.001148 1499630.000000 1 0 0
-14.377677 -8.636858 4.668747 17.410058 0.540944 1.299310 0.024302 -0.007231 1745740.000000 1 0 0
-8.052077 -15.597358 4.450747 18.108635 1.094236 1.322472 0.012520 0.000221 -501278.000000 1 0 0
-16.433277 -9.134058 1.174947 18.837837 0.507306 1.508384 0.011707 -0.006719 -33330.900000 1 0 0
-6.726977 -17.133658 2.397947 18.562452 1.196670 1.441252 0.028640 -0.004214 802083.000000 1 0 0
-11.618777 -15.000058 -4.859553 19.586040 0.911747 1.821528 0.058903 -0.014416 -431303.000000 1 0 0
-10.218377 -10.030158 -12.553353 19.042215 0.776103 2.290601 0.043983 -0.011380 -701695.000000 1 0 0
-4.348977 -16.029358 -4.545653 17.219665 1.305861 1.837943 0.007778 -0.013820 -713687.000000 1 0 0
-11.856277 -8.316758 0.013347 14.482401 0.611708 1.569875 0.001228 0.001723 1552760.000000 1 0 0
-9.752877 -11.281358 3.461447 15.309124 0.857937 1.342721 0.005040 0.002787 2105270.000000 1 0 0
-14.192177 -12.932958 -0.590453 19.210100 0.739009 1.601538 0.023081 -0.003284 1445400.000000 1 0 0
5.648123 -14.958358 -7.087153 17.489468 -1.209757 1.988020 0.014835 -0.009897 396085.000000 1 0 0
-7.453577 -10.566958 -1.284053 12.994815 0.956478 1.669771 0.005969 0.001468 1379770.000000 1 0 0
-11.725677 -8.206258 -6.053053 15.539422 0.610628 1.970916 0.029568 -0.008489 -817404.000000 1 0 0
-14.567277 -6.715258 -9.206453 18.494838 0.431949 2.091839 0.050830 -0.013651 3002730.000000 1 0 0
-3.977977 -16.531458 1.383047 17.059491 1.334655 1.489635 0.018339 -0.007821 2641230.000000 1 0 0
-8.077077 -15.600458 0.193547 17.568464 1.093053 1.559779 0.027870 -0.010906 1396150.000000 1 0 0
1.039023 -18.619058 3.736247 19.018634 -1.515050 1.373058 0.017071 -0.003535 844974.000000 1 0 0
-14.088077 -8.679358 -4.557153 17.163124 0.552158 1.839540 0.030124 -0.011383 192372.000000 1 0 0
-3.409077 -14.364458 11.195947 18.528591 1.337780 0.921969 0.013725 -0.013052 880778.000000 1 0 0
-10.816577 -12.214758 -3.942753 16.785230 0.846032 1.807906 0.040801 -0.013718 2055800.000000 1 0 0
-10.021377 -10.823358 0.414347 14.756177 0.823853 1.542713 0.004348 0.005006 827831.000000 1 0 0
-0.128577 -13.172658 -11.081553 17.214420 1.561036 2.270168 -0.003102 -0.004228 1398230.000000 1 0 0
-5.853677 -12.646558 -6.306153 15.296030 1.137294 1.995745 0.008607 -0.010283 911163.000000 1 0 0
1.621423 -15.826458 9.995547 18.788740 -1.468702 1.009839 0.022810 -0.012085 -198398.000000 1 0 0
-8.945077 -15.690758 -5.408753 18.853883 1.052663 1.861762 0.052948 -0.020605 -1467710.000000 1 0 0
-3.384177 -15.477258 5.802047 16.871927 1.355529 1.219742 0.015069 -0.001944 -1985040.000000 1 0 0
-17.541077 -5.425358 -6.654753 19.529712 0.299962 1.918511 0.040086 -0.008467 412682.000000 1 0 0
18.861923 5.626442 -2.932153 19.900415 0.289893 1.718676 0.041191 -0.008296 795606.000000 1 0 0
12.881723 -12.387758 -5.651053 18.743792 -0.765853 1.877051 0.058066 -0.015237 -1005970.000000 1 0 0
11.010923 -13.408358 -1.580853 17.421928 -0.883262 1.661661 0.036310 -0.013245 3462020.000000 1 0 0
18.862523 -2.829458 4.703647 19.644971 -0.148894 1.329015 0.076673 -0.011905 135236.000000 1 0 0
8.567023 -16.824358 4.977447 19.525058 -1.099813 1.313025 0.040204 -0.019384 -930199.000000 1 0 0
18.136923 -0.939458 6.766847 19.380938 -0.051752 1.214133 0.081954 -0.016405 -1128680.000000 1 0 0
18.079223 -4.238358 -4.992353 19.228769 -0.230274 1.833435 0.102329 -0.023540 -154046.000000 1 0 0
5.400723 -11.827058 14.698347 19.623672 -1.142433 0.724228 0.021640 -0.002963 198092.000000 1 0 0
15.999823 -8.856058 -0.804653 18.304960 -0.505534 1.614769 0.061212 -0.012580 239525.000000 1 0 0
13.931423 -12.522658 -1.435853 18.787314 -0.732195 1.647298 0.052276 -0.010077 869572.000000 1 0 0
11.311523 -1.887958 13.911347 18.028880 -0.165381 0.689421 0.043599 -0.005707 -732560.000000 1 0 0
17.095723 -6.117058 -1.322453 18.205247 -0.343617 1.643502 0.078262 -0.011851 -1321980.000000 1 0 0
17.812423 3.618742 -1.042553 18.206170 0.200431 1.628091 0.038087 -0.001297 485002.000000 1 0 0
9.787723 -11.078258 9.487047 17.565061 -0.847168 1.000230 0.028970 -0.007503 1244300.000000 1 0 0
9.027623 -11.064658 4.326847 14.921335 -0.886437 1.276593 0.011770 -0.012522 1155490.000000 1 0 0
13.944123 -10.135758 6.805047 18.533236 -0.628542 1.194820 0.046913 -0.016637 403587.000000 1 0 0
16.258623 -0.579158 -4.762853 16.951785 -0.035607 1.855595 0.038990 -0.002724 158430.000000 1 0 0
15.810823 -0.426758 -1.750853 15.913193 -0.026985 1.681045 0.035945 0.001810 1032460.000000 1 0 0
12.905523 -5.142258 -0.184253 13.893498 -0.379173 1.584059 0.018025 -0.005678 956848.000000 1 0 0
14.362223 -7.484758 1.144047 16.235883 -0.480418 1.500274 0.043293 -0.010097 2064330.000000 1 0 0
15.582023 2.498842 3.654547 16.198746 0.159013 1.343230 0.027569 -0.006959 782735.000000 1 0 0
15.978523 -7.140758 5.078347 18.223425 -0.420271 1.288386 0.061091 -0.019269 -1745990.000000 1 0 0
13.765423 -12.100758 3.236147 18.611498 -0.721130 1.396029 0.042925 -0.010738 336261.000000 1 0 0
13.966423 -0.948958 9.194047 16.747895 -0.067841 0.989668 0.045084 -0.012716 56214.400000 1 0 0
14.223023 -2.808958 -1.585053 14.584136 -0.194985 1.679695 0.016366 0.000472 -323503.000000 1 0 0
15.038023 1.899242 9.001547 17.628871 0.125631 1.034898 0.050727 -0.009881 -539789.000000 1 0 0
14.448123 -10.050758 -2.980053 17.850678 -0.607797 1.738525 0.061309 -0.014285 212816.000000 1 0 0
7.259523 -12.650058 6.093047 15.806640 -1.049810 1.175075 0.007483 -0.010055 161144.000000 1 0 0
12.392323 -4.642458 7.007447 14.974191 -0.358441 1.083806 0.019725 -0.011586 3107280.000000 1 0 0
14.979323 -8.997358 -5.701553 18.380432 -0.540899 1.886196 0.078933 -0.018838 -319300.000000 1 0 0
14.317923 -4.612958 4.696047 15.758653 -0.311680 1.268202 0.027777 -0.013856 1401640.000000 1 0 0
17.261223 -4.217258 1.052447 17.800076 -0.239625 1.511636 0.053716 -0.010537 -1253230.000000 1 0 0
10.312123 -14.398358 1.227147 17.752703 -0.949280 1.501617 0.038359 -0.012339 1916850.000000 1 0 0
16.353923 -2.496458 8.490947 18.595141 -0.151483 1.096602 0.075464 -0.020462 2310420.000000 1 0 0
16.162723 -2.627958 3.376647 16.719495 -0.161183 1.367439 0.035303 -0.004374 2706530.000000 1 0 0
7.824023 -15.254458 2.683247 17.352626 -1.096881 1.415543 0.019030 -0.007479 2543540.000000 1 0 0
16.643923 -7.049058 7.903547 19.727530 -0.400618 1.158586 0.074156 -0.016145 -66323.800000 1 0 0
10.210523 -8.501358 5.154347 14.251146 -0.694310 1.200728 0.014608 -0.011369 2173440.000000 1 0 0
10.946023 -11.749458 2.224847 16.211574 -0.820784 1.433124 0.025640 -0.014908 385467.000000 1 0 0
12.341823 -7.264458 11.935247 18.642507 -0.531999 0.876016 0.050859 -0.019253 -538834.000000 1 0 0
15.266123 -9.946658 4.343247 18.731105 -0.577465 1.336793 0.049724 -0.017374 -778751.000000 1 0 0
7.323723 -10.298658 7.778747 14.839413 -0.952637 1.019027 0.006469 -0.002611 1817460.000000 1 0 0
15.266523 -3.359058 -4.365453 16.229823 -0.216577 1.843127 0.051253 -0.004526 1632090.000000 1 0 0
11.862623 -9.024858 9.772147 17.823152 -0.650365 0.990485 0.042552 -0.014874 -2192330.000000 1 0 0
17.076323 -6.690958 2.495247 18.509348 -0.373441 1.435575 0.066454 -0.013696 2042470.000000 1 0 0
17.600723 4.042142 1.930947 18.161853 0.225743 1.464276 0.036687 -0.002672 377273.000000 1 0 0
14.796123 -4.920358 8.778847 17.894226 -0.321040 1.058022 0.059897 -0.022843 953419.000000 1 0 0
12.861123 -12.740358 6.009247 19.074492 -0.780681 1.250296 0.039819 -0.012529 -1648040.000000 1 0 0
18.398823 0.843342 -1.241153 18.459912 0.045805 1.638082 0.064626 -0.000335 -21206.500000 1 0 0
11.716923 -2.116558 10.969147 16.189141 -0.178714 0.826354 0.024311 -0.007438 1488740.000000 1 0 0
5.821823 -12.338458 10.483047 17.205390 -1.129926 0.915633 0.009310 -0.004334 -2274740.000000 1 0 0
10.759823 -4.990558 11.044447 16.206766 -0.434282 0.821025 0.027396 -0.008425 -503172.000000 1 0 0
18.019323 1.312542 4.875747 18.713409 0.072712 1.307206 0.062066 -0.007796 -401366.000000 1 0 0
12.248523 -7.734858 7.189547 16.172320 -0.563255 1.110115 0.030103 -0.014638 -903556.000000 1 0 0
10.784623 -7.875758 14.287847 19.557051 -0.630758 0.751636 0.066735 -0.014435 131022.000000 1 0 0
14.277123 -0.279658 3.796447 14.775908 -0.019585 1.310947 0.011617 -0.000549 1547450.000000 1 0 0
11.727323 -7.671958 2.597147 14.252516 -0.579319 1.387549 0.017529 -0.008880 2695800.000000 1 0 0
9.367723 6.090542 3.574447 11.731394 0.576489 1.261183 0.003553 0.000055 1781070.000000 1 0 0
-3.930177 14.754942 -9.864953 18.178886 -1.310477 2.144397 0.025119 -0.009353 184434.000000 1 0 0
8.864723 -6.373358 9.221647 14.291318 -0.623336 0.869430 0.009996 -0.007540 -959708.000000 1 0 0
5.815723 -10.528558 -8.411853 14.677617 -1.066131 2.181089 0.003774 -0.002841 400382.000000 1 0 0
5.432323 1.061442 0.579847 5.565340 0.192963 1.466418 0.005569 -0.002543 4036980.000000 1 0 0
-0.481777 9.932142 10.959847 14.798575 -1.522327 0.736831 0.002857 0.002283 -337333.000000 1 0 0
-6.379977 -5.266358 1.039947 8.337873 0.690068 1.445745 0.006878 -0.001075 3240900.000000 1 0 0
-1.021177 3.958742 -10.956853 11.694745 -1.318345 2.784462 0.014682 -0.007663 589929.000000 1 0 0
10.916223 5.779342 1.245147 12.414311 0.486911 1.470328 0.003991 -0.000471 950981.000000 1 0 0
-10.060877 -1.900358 -13.541053 16.976240 0.186686 2.494181 0.027661 -0.013204 2207380.000000 1 0 0
7.408223 10.902242 -6.077353 14.514643 0.973952 2.002815 0.000274 -0.000866 510219.000000 1 0 0
-12.532777 -3.032958 -9.664853 16.114550 0.237437 2.213997 0.026742 -0.004514 305790.000000 1 0 0
-4.007477 -8.675858 2.468347 9.870315 1.138081 1.318036 0.009905 -0.000873 -1685820.000000 1 0 0
7.992123 -6.750558 -5.806553 11.964954 -0.701381 2.077499 0.006544 -0.004346 1204850.000000 1 0 0
14.434423 3.101142 -4.295153 15.375890 0.211627 1.853907 0.020557 -0.001524 714811.000000 1 0 0
-2.511877 -4.869358 9.825647 11.250045 1.094546 0.508682 0.004300 -0.001241 2042760.000000 1 0 0
3.454823 -1.868758 -4.534153 5.998883 -0.495840 2.427721 0.003992 -0.000737 -1672360.000000 1 0 0
-4.073377 8.402542 -3.453053 9.955837 -1.119399 1.924993 0.006258 0.000235 608110.000000 1 0 0
5.840723 0.074642 11.749847 13.121682 0.012779 0.461349 0.006936 -0.005085 2075900.000000 1 0 0
7.209823 4.728442 12.386547 15.091927 0.580465 0.608091 0.013420 -0.002229 10138.300000 1 0 0
1.087423 -14.410158 12.494147 19.103373 -1.495477 0.857899 0.007706 -0.004627 626206.000000 1 0 0
3.003823 8.740342 -9.110853 12.977834 1.239769 2.349043 0.005593 0.001221 -957103.000000 1 0 0
-4.496977 -8.918158 -4.575153 10.985826 1.103755 2.000344 0.009359 -0.004627 1013280.000000 1 0 0
5.709923 -6.558358 -3.965053 9.557035 -0.854445 1.998611 0.005777 -0.005462 1938500.000000 1 0 0
-3.080377 3.507942 8.627247 9.809372 -0.850205 0.496006 0.002701 -0.001908 1426070.000000 1 0 0
-3.830077 3.094842 -11.035853 12.084601 -0.679622 2.721905 0.008795 -0.008544 595706.000000 1 0 0
3.024523 -6.138758 8.570247 10.967280 -1.113011 0.673830 0.002120 -0.000967 773027.000000 1 0 0
-5.219777 -8.625958 10.435447 14.510403 1.026617 0.768189 0.008670 -0.006822 2022800.000000 1 0 0
-13.268377 -2.493558 6.558647 15.009448 0.185766 1.118571 0.009891 -0.004637 -521373.000000 1 0 0
3.882623 -5.923858 -8.264453 10.884302 -0.990619 2.433033 0.001158 -0.000570 3831830.000000 1 0 0
2.953923 -0.507358 12.336847 12.695703 -0.170098 0.238328 0.004629 -0.002832 1039090.000000 1 0 0
1.415823 -1.432058 -7.582253 7.845119 -0.791099 2.881993 0.006896 -0.002947 82212.300000 1 0 0
3.619823 -3.532658 3.376447 6.081380 -0.773212 0.982180 0.006538 -0.003156 2350540.000000 1 0 0
1.529523 0.444442 -11.875453 11.981792 0.282788 3.008264 0.011115 -0.006505 118218.000000 1 0 0
4.104323 3.537142 -10.682153 11.977697 0.711310 2.672186 0.002090 0.001484 1866740.000000 1 0 0
2.910723 3.256242 3.456947 5.570090 0.841367 0.901254 -0.000869 -0.000152 -403546.000000 1 0 0
-5.405077 0.858242 2.634847 6.074032 -0.157470 1.122103 0.006475 -0.004139 1929570.000000 1 0 0
-9.546577 -9.333858 5.576047 14.468944 0.774132 1.175176 0.012536 -0.004100 -2314020.000000 1 0 0
-3.014977 3.875442 -0.512453 4.936775 -0.909633 1.674787 0.006538 -0.003176 108936.000000 1 0 0
-16.094977 -6.500058 5.050547 18.077806 0.383826 1.287650 0.038639 -0.010643 843928.000000 1 0 0
1.035223 6.721342 -8.150753 10.615220 1.417977 2.446253 0.009605 -0.001805 1000530.000000 1 0 0
-1.614677 6.414742 -9.518053 11.590920 -1.324206 2.534245 0.011940 -0.002384 1005390.000000 1 0 0
2.075623 -0.393358 5.229947 5.640504 -0.187292 0.383895 0.007426 -0.001580 2552030.000000 1 0 0
-3.363977 -0.589558 -6.315753 7.180018 0.173494 2.645878 0.009392 -0.005805 168252.000000 1 0 0
1.900123 -1.223258 -2.421153 3.311919 -0.571989 2.390645 0.007921 -0.001800 1706220.000000 1 0 0
2.368723 -8.564558 -7.538853 11.653188 -1.300969 2.274354 -0.000385 0.001539 1116080.000000 1 0 0
-2.388977 13.984642 -5.622453 15.260714 -1.401601 1.948112 0.011595 0.003873 3098390.000000 1 0 0
6.871523 -5.189258 -8.134153 11.845280 -0.646810 2.327736 0.008471 -0.001916 4540630.000000 1 0 0
-14.320077 -5.000558 -2.197753 15.326458 0.335961 1.714688 0.006794 -0.001838 812490.000000 1 0 0
-2.787877 6.811342 -6.887653 10.080000 -1.182299 2.323068 0.006974 -0.000410 -734060.000000 1 0 0
-5.670077 -1.103858 -8.075453 9.928807 0.192276 2.520659 0.012953 -0.009184 -487051.000000 1 0 0
-5.819577 -10.662158 3.449347 12.627236 1.071171 1.294112 0.003575 0.000323 -3602000.000000 1 0 0
8.026123 -7.526158 6.632847 12.847426 -0.753262 1.028297 0.006979 -0.007214 1281930.000000 1 0 0
8.830023 -6.021658 13.126047 16.926984 -0.598511 0.683367 0.032522 -0.006450 488289.000000 1 0 0
-4.709977 9.569242 -0.770953 10.693393 -1.113408 1.642955 0.004599 0.000567 195413.000000 1 0 0
2.883023 6.639242 12.158547 14.149969 1.161126 0.536969 0.004658 -0.004456 680396.000000 1 0 0
6.085523 -2.827258 11.010947 12.894493 -0.434918 0.547312 0.010339 -0.004676 224731.000000 1 0 0
-9.801777 -6.481958 -1.117353 11.804198 0.584281 1.665595 0.005223 -0.001148 16229.200000 1 0 0
0.825623 -13.365558 6.324447 14.809403 -1.509102 1.129562 0.009481 -0.002863 189268.000000 1 0 0
-0.496477 -3.094658 8.691647 9.239488 1.411721 0.346089 0.004644 -0.001627 2600480.000000 1 0 0
4.274323 0.709542 3.404547 5.510375 0.164501 0.904800 0.002713 -0.000699 1921560.000000 1 0 0
-10.179277 5.546842 8.264247 14.236675 -0.498931 0.951466 0.000832 -0.007472 782922.000000 1 0 0
9.433023 8.049242 0.020247 12.400509 0.706409 1.569164 0.002525 0.000522 534819.000000 1 0 0
4.316423 2.864542 8.273147 9.761254 0.585903 0.559445 -0.002039 -0.000710 3355550.000000 1 0 0
1.373023 2.637842 -9.877453 10.315400 1.090876 2.849156 0.012532 -0.005647 1485870.000000 1 0 0
-1.487777 -10.122458 2.970847 10.653805 1.424863 1.288197 0.012969 -0.004234 -35380.400000 1 0 0
-9.881077 9.625642 9.076547 16.512795 -0.772304 0.988830 0.002669 -0.004977 1427070.000000 1 0 0
9.866723 -2.026258 -7.651753 12.649398 -0.202547 2.220450 0.016076 -0.000858 949749.000000 1 0 0
-5.244777 -1.862758 6.667647 8.685337 0.341268 0.695568 0.006432 -0.003332 743363.000000 1 0 0
3.127623 -7.824158 -4.806553 9.700640 -1.190515 2.089193 0.000882 -0.002308 2772100.000000 1 0 0
-5.073877 4.897242 -13.046653 14.830454 -0.767685 2.646070 0.006572 -0.009729 2040060.000000 1 0 0
-5.644677 9.655142 5.461447 12.446347 -1.041756 1.116534 0.004498 -0.000137 1877920.000000 1 0 0
-0.519577 -1.788658 -9.385253 9.568293 1.288092 2.945679 0.007926 -0.004917 728724.000000 1 0 0
-16.707677 0.018442 6.434747 17.903988 -0.001104 1.203168 0.024491 -0.008870 -1670300.000000 1 0 0
-6.055377 -2.955658 4.043147 7.858152 0.454086 1.030353 -0.000855 -0.001873 2522900.000000 1 0 0
1.004823 -5.647458 -5.030253 7.629344 -1.394714 2.290723 0.003753 -0.002053 1487280.000000 1 0 0
-7.051977 1.432942 -8.523653 11.155105 -0.200468 2.440447 0.007926 -0.006999 1085730.000000 1 0 0
8.075723 1.974142 4.727947 9.563892 0.239752 1.053705 -0.001076 -0.002016 472926.000000 1 0 0
0.496523 -8.123658 -0.505153 8.154479 -1.509752 1.632784 0.008650 -0.005021 -167179.000000 1 0 0
5.455923 5.445242 -3.358253 8.408068 0.784418 1.981668 0.000540 0.001870 -667300.000000 1 0 0
-0.738477 -0.413858 -1.229853 1.493039 0.510809 2.538745 0.007046 -0.003299 -824776.000000 1 0 0
8.984023 6.278842 -6.294953 12.639737 0.609980 2.092120 0.002243 -0.002162 1003860.000000 1 0 0
-15.045777 -7.029258 2.548247 16.801174 0.437058 1.418538 0.004109 -0.006297 38331.400000 1 0 0
-6.367377 6.836342 8.877847 12.887794 -0.820901 0.810885 -0.000842 -0.002275 -202026.000000 1 0 0
-9.503177 -3.217558 -9.653553 13.923151 0.326462 2.336918 0.017803 -0.005207 2480660.000000 1 0 0
14.955223 3.457942 -1.249453 15.400558 0.227226 1.652016 0.013337 0.004127 2744220.000000 1 0 0
12.116423 1.649242 -5.811253 13.538772 0.135285 2.014437 0.009892 0.000281 -294199.000000 1 0 0
1.556123 -9.426558 12.764347 15.943967 -1.407193 0.642542 0.002229 -0.004067 -909890.000000 1 0 0
-3.623677 6.412342 7.838347 10.755875 -1.056427 0.754301 0.003252 -0.000475 1861830.000000 1 0 0
-3.993577 13.104742 -12.366353 18.455612 -1.274994 2.305085 0.019542 -0.005889 1359950.000000 1 0 0
-10.281377 7.780342 6.543847 14.458990 -0.647802 1.101140 0.001742 -0.005522 1175830.000000 1 0 0
8.067123 -9.339558 -7.049953 14.212939 -0.858369 2.089810 0.008768 -0.004008 28742.900000 1 0 0
5.856923 -3.867458 -0.285153 7.024392 -0.583598 1.611402 0.007630 -0.004397 795658.000000 1 0 0
-1.693777 -4.473258 4.152247 6.334041 1.208834 0.855893 0.008449 -0.001369 1073220.000000 1 0 0
9.982123 -2.049558 -2.554853 10.505748 -0.202508 1.816446 0.009930 -0.000973 -1848720.000000 1 0 0
13.547623 7.103342 1.324247 15.354126 0.482917 1.484442 0.003814 0.000031 -473065.000000 1 0 0
5.405023 -3.670558 -3.183153 7.267718 -0.596562 2.024153 0.008898 -0.005266 -1467820.000000 1 0 0
-12.314277 -5.964858 1.955447 13.821893 0.451078 1.428845 0.000168 -0.001154 1835900.000000 1 0 0
3.768123 -5.770158 -0.169953 6.893646 -0.992290 1.595452 0.007952 -0.006512 -26555.700000 1 0 0
-5.304277 3.678542 -8.673553 10.811917 -0.606353 2.501803 0.007063 -0.006282 847401.000000 1 0 0
-1.782677 -9.246158 7.260547 11.890539 1.380331 0.913959 0.008575 -0.001311 2194290.000000 1 0 0
-7.544577 -7.500558 2.601347 10.951987 0.782472 1.330981 0.008512 -0.000583 -3344020.000000 1 0 0
-5.741477 12.975542 -8.518953 16.549979 -1.154210 2.111502 0.018150 -0.010761 1477930.000000 1 0 0
9.294523 -13.904358 -4.117553 17.224214 -0.981552 1.812190 0.028263 -0.003834 873747.000000 1 0 0
-6.569777 -5.159458 -6.673353 10.691848 0.665733 2.244844 0.013735 -0.004679 2337330.000000 1 0 0
3.373423 0.366042 -6.258653 7.119319 0.108085 2.644785 0.005566 -0.002806 2379640.000000 1 0 0
-3.578377 5.768242 4.930347 8.389620 -1.015542 0.942617 0.005152 -0.001077 310936.000000 1 0 0
-2.796477 -10.822158 -2.819953 11.527858 1.317925 1.817925 0.009283 -0.003609 1475480.000000 1 0 0
-12.568877 -0.441858 1.728647 12.694886 0.035140 1.434203 -0.001691 -0.002075 390213.000000 1 0 0
8.420723 -12.053258 -6.064653 15.905018 -0.960993 1.962003 0.017582 -0.007899 -1689480.000000 1 0 0
6.140323 3.941042 1.028647 7.368412 0.570610 1.430737 0.001862 -0.000568 -360995.000000 1 0 0
3.451923 -4.848058 -10.902953 12.421506 -0.952048 2.641938 0.001003 0.000060 -30708.300000 1 0 0
-7.653577 4.238242 8.591447 12.261848 -0.505725 0.794467 -0.001708 -0.003626 1406870.000000 1 0 0
8.263523 8.794342 4.075747 12.737267 0.816507 1.245082 0.003496 0.001740 3295320.000000 1 0 0
0.256523 10.421342 -6.309053 12.185004 1.546186 2.115041 0.002864 0.004934 2443430.000000 1 0 0
5.476523 8.053242 3.214847 10.255840 0.973593 1.251957 0.003399 0.000758 2629200.000000 1 0 0
8.040023 6.621342 -3.735753 11.065260 0.688935 1.915174 0.000061 0.000394 2590230.000000 1 0 0
10.494523 2.496342 -8.221453 13.563149 0.233531 2.222021 0.003655 -0.000578 488109.000000 1 0 0
3.316123 -12.588558 -0.251853 13.020441 -1.313224 1.590140 0.007050 -0.009074 -2230870.000000 1 0 0
0.654423 2.119542 5.300847 5.746278 1.271325 0.396331 0.006528 -0.002161 2401200.000000 1 0 0
-4.860777 13.460242 1.418947 14.381192 -1.224249 1.471969 0.005637 0.002556 1821390.000000 1 0 0
8.209523 3.987042 -8.053153 12.171526 0.452110 2.293798 -0.000381 0.001170 -1909920.000000 1 0 0
-13.921577 -0.586158 -3.560753 14.381685 0.042079 1.820988 0.005527 -0.003719 610646.000000 1 0 0
-8.596277 0.000742 -0.411953 8.606142 -0.000086 1.618682 0.002797 -0.002951 1163550.000000 1 0 0
1.822723 -3.867858 -1.118753 4.419757 -1.130413 1.826706 0.008194 -0.003391 -54819.900000 1 0 0
8.132423 -5.682958 -0.164653 9.922672 -0.609922 1.587391 0.009725 -0.006674 1972740.000000 1 0 0
-2.368977 -1.119358 7.332547 7.786608 0.441412 0.343187 0.009137 -0.002750 2166990.000000 1 0 0
-5.851077 8.824942 -11.748353 15.815767 -0.985325 2.408077 0.005856 -0.001659 -104977.000000 1 0 0
-6.192877 9.132542 -8.866653 14.155302 -0.974913 2.247702 0.006495 0.000576 2162030.000000 1 0 0
-1.419777 13.940442 -8.466553 16.371750 -1.469300 2.114307 0.025759 -0.001357 308923.000000 1 0 0
-1.460077 7.256842 9.765247 12.253719 -1.372247 0.648615 0.002177 -0.001653 1223410.000000 1 0 0
10.095023 2.317842 -3.977453 11.095134 0.225691 1.937442 0.005908 -0.000503 -364468.000000 1 0 0
-3.028277 -7.469458 -6.867053 10.588658 1.185625 2.276447 0.005938 -0.002974 -480420.000000 1 0 0
-5.559477 -5.013758 -1.582153 7.651716 0.733831 1.779070 0.011821 -0.003216 -91697.300000 1 0 0
5.650123 7.425942 -8.807853 12.831476 0.920379 2.327359 -0.001792 0.002419 -534016.000000 1 0 0
-9.603777 5.211542 -7.462953 13.232096 -0.497187 2.170023 0.001162 0.000566 652806.000000 1 0 0
-0.454477 6.091842 -5.392553 8.148418 -1.496330 2.294002 0.008139 0.002111 697214.000000 1 0 0
-8.148177 2.796742 -6.343653 10.698434 -0.330636 2.205516 0.010351 -0.002714 722150.000000 1 0 0
3.657523 1.347642 -1.927553 4.348456 0.353023 2.030043 0.004316 -0.002842 2642880.000000 1 0 0
-6.642677 12.462042 -3.533653 14.557278 -1.081073 1.815987 0.014946 -0.002194 649557.000000 1 0 0
-6.562677 3.189142 -2.254853 7.636997 -0.452346 1.870518 0.005483 -0.002186 -1519620.000000 1 0 0
12.122423 4.035342 -0.787453 12.800672 0.321345 1.632352 0.002466 0.000975 -222637.000000 1 0 0
2.272123 12.308442 -5.601853 13.712806 1.388253 1.991620 0.003895 0.002073 -156777.000000 1 0 0
-9.224277 -1.313858 -4.194953 10.218177 0.141483 1.993841 0.006485 -0.003352 413156.000000 1 0 0
-1.136477 5.706342 3.493347 6.786560 -1.374208 1.030086 0.004326 -0.000595 1294070.000000 1 0 0
11.625623 2.645842 12.040747 16.945064 0.223776 0.780481 0.038006 -0.001632 -392893.000000 1 0 0
-7.050277 -2.303058 -5.723353 9.368418 0.315734 2.228018 0.013568 -0.005321 -472725.000000 1 0 0
7.521123 -7.297958 10.802047 15.050306 -0.770340 0.770260 0.010375 -0.002959 -883426.000000 1 0 0
-5.505677 -1.983358 -10.920253 12.389435 0.345767 2.649649 0.009547 -0.005868 -1703370.000000 1 0 0
0.782323 -6.193058 4.491647 7.690312 -1.445139 0.947068 0.006681 -0.001052 1839740.000000 1 0 0
-4.902977 -9.310158 7.470547 12.904546 1.086075 0.953407 0.004434 -0.002439 2612280.000000 1 0 0
-8.823877 9.287242 1.640547 12.915304 -0.810977 1.443429 0.006349 -0.002947 1121360.000000 1 0 0
-8.222677 7.238942 -9.097653 14.240154 -0.721859 2.263829 0.004082 0.001333 -918312.000000 1 0 0
-1.308277 -10.666858 -0.143953 10.747752 1.448757 1.584190 0.009981 -0.003971 -192325.000000 1 0 0
-3.928477 10.344542 7.777647 13.525320 -1.207856 0.958139 0.004946 0.001112 1540580.000000 1 0 0
-7.440577 12.043942 1.978747 14.294550 -1.017402 1.431924 0.006719 -0.002616 881446.000000 1 0 0
-8.217177 -8.236458 -2.857953 11.980365 0.786570 1.811672 0.013220 -0.003038 49514.900000 1 0 0
5.473723 4.526342 -8.112753 10.782679 0.690943 2.422475 0.002394 0.002057 939216.000000 1 0 0
-8.991377 -0.153458 -10.178953 13.582323 0.017066 2.417992 0.014709 -0.007324 -1388870.000000 1 0 0
-15.291677 -2.240858 -1.570653 15.534600 0.145505 1.672076 0.010853 -0.006295 -472571.000000 1 0 0
-7.220877 -5.736458 8.739147 12.705145 0.671333 0.812283 0.006407 -0.004627 -1106430.000000 1 0 0
8.201023 3.431342 -0.864053 8.931823 0.396271 1.667687 0.004243 0.001219 978326.000000 1 0 0
11.842823 7.117642 -5.840153 15.000689 0.541161 1.970696 0.003671 -0.003616 1239660.000000 1 0 0
3.964723 13.223442 -9.631753 16.832977 1.279500 2.179977 0.004989 -0.006407 802726.000000 1 0 0
-9.742677 5.463942 -0.480553 11.180579 -0.511117 1.613791 0.000123 -0.001451 1247480.000000 1 0 0
11.350623 -1.335458 -5.160353 12.539909 -0.117117 1.994911 0.016784 -0.000789 -691947.000000 1 0 0
10.643423 1.727642 -1.188753 10.848056 0.160917 1.680599 0.006087 0.000915 24110.000000 1 0 0
14.754523 5.089642 4.802747 16.329935 0.332173 1.272275 0.018698 -0.006937 2642400.000000 1 0 0
0.919423 -0.800858 10.324547 10.396297 -0.716585 0.117553 0.002552 -0.001043 1371750.000000 1 0 0
-7.933077 1.342942 -12.493053 14.859797 -0.167694 2.569423 0.012739 -0.009471 -1526030.000000 1 0 0
3.056723 -11.528358 -7.714153 14.204040 -1.311612 2.144916 -0.002719 0.000419 2523140.000000 1 0 0
2.921423 5.027042 -6.886053 9.012413 1.044359 2.440384 0.002776 0.001752 -1385860.000000 1 0 0
6.536123 8.047242 0.580047 10.383422 0.888649 1.514904 0.003851 -0.000554 -267290.000000 1 0 0
-9.102777 -5.408358 6.746047 12.554682 0.536102 1.003525 0.004111 -0.003115 -3141140.000000 1 0 0
-0.263477 -6.871258 -11.774453 13.635298 1.532470 2.613019 -0.007947 0.002735 2028850.000000 1 0 0
6.443323 -13.433758 -4.589853 15.590029 -1.123572 1.869634 0.012751 -0.005610 3065100.000000 1 0 0
-3.272777 -0.258058 10.023647 10.547567 0.078687 0.316509 0.004952 -0.001292 594396.000000 1 0 0
8.616223 8.485042 6.911047 13.928310 0.777727 1.051595 -0.000328 0.002721 1217930.000000 1 0 0
-7.976977 5.662242 -2.644153 10.133346 -0.617288 1.834788 0.005513 -0.003123 558220.000000 1 0 0
-5.496177 5.815742 -6.545653 10.338104 -0.813641 2.256423 0.009377 -0.001414 -574313.000000 1 0 0
3.298823 -13.645058 2.635347 14.283378 -1.333588 1.385229 0.013153 -0.006164 -1892590.000000 1 0 0
-11.305377 -7.024558 6.538447 14.829270 0.555968 1.114178 0.017400 -0.007185 -466110.000000 1 0 0
-12.979277 -3.680158 -6.774553 15.096349 0.276289 2.036167 0.018463 -0.005250 56108.000000 1 0 0
6.085723 0.337842 -7.226053 9.453359 0.055457 2.440891 0.002542 0.002042 625223.000000 1 0 0
-1.372277 2.152642 -2.475653 3.556103 -1.003269 2.340845 0.007640 -0.003188 1932270.000000 1 0 0
7.568323 0.936342 -4.883253 9.055518 0.123093 2.140351 0.004773 0.002304 1813680.000000 1 0 0
3.702323 -4.471358 10.889847 12.340543 -0.879209 0.489762 0.005428 -0.000599 751054.000000 1 0 0
6.037623 -2.559558 2.078447 6.879256 -0.400968 1.263867 0.008959 -0.005059 -582876.000000 1 0 0
-6.316677 7.800742 1.198047 10.108774 -0.890136 1.452002 0.004811 -0.002178 1034610.000000 1 0 0
6.025523 -3.424358 7.962147 10.555991 -0.516791 0.716243 0.006639 -0.004454 326773.000000 1 0 0
6.826023 -2.277458 -7.776053 10.594734 -0.322030 2.394922 0.007033 -0.001388 1319820.000000 1 0 0
12.182523 -8.162858 -5.898153 15.806148 -0.590339 1.953204 0.041399 -0.014078 -1609350.000000 1 0 0
5.609223 -9.572958 9.968447 14.915591 -1.040776 0.838843 0.001755 0.000333 2438460.000000 1 0 0
-6.748077 7.522542 -4.534053 11.076228 -0.839615 1.992538 0.009851 -0.000688 958201.000000 1 0 0
-1.289577 -7.503058 9.675447 12.311506 1.400586 0.666668 0.006987 -0.002600 -738056.000000 1 0 0
10.042823 -9.221058 0.824047 13.658889 -0.742766 1.510429 0.013908 -0.009123 461360.000000 1 0 0
11.155623 6.074942 9.732447 16.002293 0.498660 0.917017 0.013385 -0.004057 -193194.000000 1 0 0
-15.398577 -4.277758 -4.987253 16.741806 0.270969 1.873280 0.027001 -0.006891 1202970.000000 1 0 0
-4.733177 -4.582858 7.898447 10.285476 0.769264 0.695205 0.008495 -0.003327 -227192.000000 1 0 0
3.030723 10.881342 -11.132353 15.859324 1.299156 2.348919 0.007075 -0.002610 -908311.000000 1 0 0
9.987223 -1.331358 1.628447 10.206320 -0.132525 1.410559 0.005876 -0.003759 449504.000000 1 0 0
-1.629877 -2.620258 0.711947 3.166879 1.014336 1.344048 0.009218 -0.006579 1156430.000000 1 0 0
1.607423 3.054742 0.910247 3.569847 1.086405 1.312967 0.002181 -0.002591 -601639.000000 1 0 0
-9.035377 -2.356358 4.361047 10.305785 0.255110 1.133861 -0.000141 -0.000616 3115620.000000 1 0 0
9.946923 4.893042 -2.671753 11.402692 0.457159 1.807304 0.002128 0.001371 471079.000000 1 0 0
2.568023 8.403242 2.493547 9.133838 1.274211 1.294285 0.000075 0.000931 985801.000000 1 0 0
-8.242377 -0.033758 2.572347 8.634518 0.004096 1.268289 0.000882 -0.003048 203228.000000 1 0 0
6.822423 2.104242 13.705047 15.453207 0.299173 0.480262 0.013498 -0.003934 -1167910.000000 1 0 0
6.938423 4.403442 3.811147 9.058524 0.565506 1.136552 0.001741 -0.000468 275979.000000 1 0 0
-0.320377 3.399242 7.769247 8.486383 -1.476824 0.414058 0.003000 -0.001814 -992849.000000 1 0 0
2.698323 -10.270358 9.254247 14.085535 -1.313874 0.853959 0.007310 -0.004621 1400160.000000 1 0 0
1.392423 -4.552858 6.890747 8.375545 -1.273995 0.604613 0.004260 -0.001375 1631580.000000 1 0 0
-0.087277 10.821642 -2.008153 11.006736 -1.562731 1.754272 0.003218 0.002419 2331480.000000 1 0 0
8.825323 5.522642 7.989647 13.123276 0.559154 0.916230 0.000567 0.000328 -1610020.000000 1 0 0
2.630223 11.480342 -2.910853 12.132163 1.345577 1.813089 0.002155 0.002069 853941.000000 1 0 0
1.485523 2.469742 -6.781953 7.368941 1.029283 2.739753 0.007818 -0.002299 698487.000000 1 0 0
-13.629477 -2.215858 3.616847 14.274252 0.161168 1.314621 -0.001477 -0.003495 611294.000000 1 0 0
-0.960177 -10.674958 -5.220953 11.922039 1.481091 2.024085 0.001789 -0.001300 417155.000000 1 0 0
-5.652077 2.868542 0.503047 6.358268 -0.469645 1.491597 0.009089 -0.003740 326372.000000 1 0 0
3.782323 7.214442 -5.047053 9.582634 1.087921 2.125495 0.001709 0.002259 -1350240.000000 1 0 0
3.048223 9.681242 -6.483353 12.043752 1.265764 2.139235 0.005097 0.002431 910150.000000 1 0 0
-12.188277 1.603742 -2.573053 12.559725 -0.130829 1.777122 0.003155 -0.003120 244835.000000 1 0 0
-2.549677 9.553842 -5.714453 11.420671 -1.310000 2.094811 0.005629 0.003139 937125.000000 1 0 0
-1.280677 3.339142 1.758047 3.985064 -1.204564 1.113906 0.003664 -0.003240 -1145930.000000 1 0 0
12.863723 3.733142 9.629947 16.496897 0.282448 0.947465 0.031276 -0.006729 -790531.000000 1 0 0
-2.620377 -9.512758 11.570047 15.206082 1.302003 0.706124 0.003878 -0.008383 716993.000000 1 0 0
-0.503377 -8.905558 -7.452353 11.623249 1.514332 2.266804 -0.000389 -0.000087 2908620.000000 1 0 0
2.326523 7.545642 -0.497753 7.911838 1.271718 1.633750 0.001493 0.000264 1429830.000000 1 0 0
-11.910877 -1.299058 -5.513453 13.189189 0.108635 2.002070 0.009185 -0.001741 -976200.000000 1 0 0
-6.205377 -7.213758 -10.881053 14.454837 0.860402 2.423044 0.008225 -0.004491 915204.000000 1 0 0
-4.712577 -2.295758 -1.348053 5.412590 0.453319 1.822505 0.011109 -0.004697 -907177.000000 1 0 0
-10.499477 3.773842 4.510247 12.034253 -0.345052 1.186632 -0.006162 -0.002542 1712040.000000 1 0 0
6.769123 9.330442 -3.595553 12.075023 0.943168 1.873150 -0.000270 0.002923 2370020.000000 1 0 0
1.244923 -2.727258 -11.499553 11.883917 -1.142572 2.886567 0.007174 -0.003826 -903424.000000 1 0 0
1.310323 8.760042 7.527147 11.623822 1.422318 0.866415 0.000178 0.004194 1256070.000000 1 0 0
10.378723 0.395342 10.487547 14.760177 0.038073 0.780545 0.011420 -0.003809 -131258.000000 1 0 0
-5.247577 -0.864458 -3.908253 6.599909 0.163268 2.204543 0.011881 -0.005417 146470.000000 1 0 0
11.794323 5.668442 5.444847 14.173343 0.448014 1.176497 0.003178 0.000113 3759210.000000 1 0 0
9.903023 -3.448658 3.670347 11.110110 -0.335109 1.234110 0.012425 -0.008903 -1617960.000000 1 0 0
7.365723 -1.698858 -3.382753 8.281486 -0.226680 1.991575 0.007387 0.000010 -2406840.000000 1 0 0
2.425323 9.280942 10.453847 14.188058 1.315190 0.742462 0.000655 0.001076 1250140.000000 1 0 0
2.337823 -10.871358 6.377947 12.819128 -1.358978 1.050043 0.003040 -0.002838 2970700.000000 1 0 0
5.952223 -7.563258 -1.105853 9.687865 -0.904038 1.685194 0.003799 -0.007361 2249420.000000 1 0 0
-0.288077 -5.588558 -2.229653 6.023813 1.519294 1.949956 0.007378 -0.002950 645131.000000 1 0 0
7.762923 -5.085158 2.670647 9.656819 -0.579922 1.290588 0.007528 -0.007779 1961840.000000 1 0 0
-2.722777 -12.494558 4.674047 13.615220 1.356234 1.220373 0.010804 -0.002068 -260513.000000 1 0 0
4.859823 -10.379558 -1.102253 11.513820 -1.132902 1.666676 0.007780 -0.011394 1844740.000000 1 0 0
1.002123 0.198442 1.094247 1.496999 0.195493 0.751068 0.004196 -0.002983 -2152960.000000 1 0 0
-1.562677 8.463542 2.396047 8.933899 -1.388216 1.299275 0.002221 0.002486 753312.000000 1 0 0
-7.531477 0.618542 -2.948853 8.111811 -0.081944 1.942846 0.005406 -0.002819 -1109320.000000 1 0 0
4.391423 -6.385458 12.852347 15.008048 -0.968358 0.542610 0.013845 -0.006375 571521.000000 1 0 0
-5.153677 13.034742 8.482247 16.383327 -1.194279 1.026593 0.006832 -0.006193 1557350.000000 1 0 0
0.660623 6.104042 8.257247 10.289698 1.462989 0.639361 0.001418 0.002816 1565750.000000 1 0 0
7.989923 -0.531058 -0.719453 8.039807 -0.066368 1.660402 0.005868 -0.002467 5672360.000000 1 0 0
2.383323 -9.259458 -2.333553 9.841913 -1.318871 1.810180 0.004995 -0.005191 1854440.000000 1 0 0
-7.102177 12.172742 4.888947 14.917050 -1.042635 1.236883 0.002797 -0.004083 840633.000000 1 0 0
-14.963077 0.229142 0.147947 14.965563 -0.015313 1.560910 0.003322 -0.003678 434288.000000 1 0 0
6.876123 -0.512558 3.955347 7.949123 -0.074404 1.049986 0.003530 -0.001329 -328797.000000 1 0 0
-4.293977 -5.059858 5.112247 8.377080 0.867095 0.914400 0.005308 -0.003081 1138960.000000 1 0 0
2.984523 5.106542 6.879647 9.072690 1.041888 0.710124 -0.000414 0.000638 132135.000000 1 0 0
1.993123 -7.265058 1.796347 7.744706 -1.303040 1.336719 0.006397 -0.004669 1306040.000000 1 0 0
-2.495977 6.400742 -1.767253 7.093841 -1.198983 1.822573 0.007250 0.001028 2993580.000000 1 0 0
2.671323 -3.810458 -6.528053 8.016921 -0.959366 2.522291 0.001788 -0.002582 -1615420.000000 1 0 0
-5.143577 0.847542 -12.094053 13.169693 -0.163309 2.734623 0.007259 -0.006438 -11888.100000 1 0 0
-7.502377 6.391642 -11.854553 15.416523 -0.705624 2.447995 0.004078 -0.006112 3423550.000000 1 0 0
-0.921877 11.115342 -9.077653 14.380698 -1.488048 2.253946 0.011654 0.000440 1210270.000000 1 0 0
4.653023 5.926142 -0.574953 7.556477 0.905164 1.646957 -0.000004 0.002172 -364542.000000 1 0 0
-2.583477 13.386442 3.537047 14.084811 -1.380148 1.316954 0.003446 0.004563 2045420.000000 1 0 0
1.493423 -7.924158 10.294947 13.077023 -1.384517 0.664452 -0.001539 -0.003466 -255762.000000 1 0 0
12.991623 -0.262358 -1.005453 13.033113 -0.020192 1.648019 0.011585 0.000314 955657.000000 1 0 0
-1.017277 3.079642 -5.411553 6.309037 -1.251757 2.601666 0.008035 -0.004396 1357970.000000 1 0 0
6.627223 1.156342 7.297247 9.925071 0.172745 0.744785 0.001684 -0.000676 956804.000000 1 0 0
5.415123 -6.159958 6.856847 10.690416 -0.849658 0.874473 0.004034 -0.004007 818947.000000 1 0 0
12.201123 -4.861858 2.665147 13.401794 -0.379192 1.370597 0.017282 -0.006782 646999.000000 1 0 0
4.319723 -9.147058 13.872947 17.169372 -1.129592 0.630037 0.012506 -0.003019 1990100.000000 1 0 0
-2.767877 -4.361058 -1.348053 5.338278 1.005266 1.826086 0.012177 -0.005649 1586170.000000 1 0 0
-9.356277 -5.191758 -7.531253 13.084878 0.506594 2.184096 0.017702 -0.003991 117863.000000 1 0 0
-10.643977 -3.135858 7.900047 13.621256 0.286508 0.952093 0.003557 -0.003172 -154339.000000 1 0 0
12.154723 -0.640158 1.688047 12.288067 -0.052619 1.432988 0.009596 -0.002839 -1180870.000000 1 0 0
-7.615077 4.725042 4.439147 10.001073 -0.555346 1.110887 0.005121 -0.004556 1097590.000000 1 0 0
-1.036577 10.528942 6.917247 12.640468 -1.472662 0.991745 0.001365 0.004366 1822090.000000 1 0 0
7.329523 -10.002158 1.976947 12.556806 -0.938398 1.412698 0.008282 -0.010162 4057330.000000 1 0 0
-4.358777 -1.710058 1.666347 4.969905 0.373873 1.228886 0.006533 -0.002386 2664040.000000 1 0 0
6.720823 -15.003958 -0.913253 16.465790 -1.149660 1.626288 0.027421 -0.009894 -1046920.000000 1 0 0
-10.485777 1.664142 2.385947 10.881803 -0.157392 1.349740 -0.004522 -0.001915 -363817.000000 1 0 0
-2.993377 8.284342 -11.429853 14.430252 -1.224064 2.484998 0.010707 -0.000942 -964497.000000 1 0 0
-1.273277 -5.123958 -6.798953 8.608248 1.327235 2.481309 0.000219 -0.002037 -632999.000000 1 0 0
12.931823 -0.459858 6.466547 14.465813 -0.035545 1.107362 0.013226 -0.008674 1798510.000000 1 0 0
5.903523 -13.305658 3.652747 15.007821 -1.153206 1.324937 0.009804 -0.006955 -209307.000000 1 0 0
-5.596277 3.501842 -4.902053 8.222611 -0.559135 2.209515 0.006883 -0.002401 464725.000000 1 0 0
-4.385977 8.085042 3.370447 9.796153 -1.073745 1.219561 0.005834 -0.000673 415085.000000 1 0 0
14.042923 6.065942 -4.109553 15.839437 0.407749 1.833250 0.029769 -0.003678 -341123.000000 1 0 0
-6.802177 -8.517358 5.313247 12.126236 0.896894 1.117244 0.009437 -0.002354 54034.500000 1 0 0
1.768623 11.382842 2.752247 11.843647 1.416653 1.336271 0.001648 0.000471 1525730.000000 1 0 0
-7.373477 7.318642 5.982847 11.988542 -0.781666 1.048298 0.001752 -0.005421 523630.000000 1 0 0
-17.464877 -4.020758 5.227147 18.668463 0.226277 1.287003 0.036575 -0.013896 486060.000000 1 0 0
7.482323 -13.048758 -8.566453 17.310094 -1.050156 2.088495 0.020542 -0.008459 -2083830.000000 1 0 0
-2.213377 12.886942 -2.800953 13.372272 -1.400702 1.781819 0.001736 0.005371 1771520.000000 1 0 0
-5.402677 13.949042 -5.764653 16.031092 -1.201273 1.938627 0.019815 -0.001183 2511500.000000 1 0 0
-5.610677 2.459642 7.403147 9.609169 -0.413154 0.691288 0.004702 -0.002605 2645660.000000 1 0 0
-7.444677 5.128042 1.481647 9.160530 -0.603183 1.408340 0.005641 -0.003049 721317.000000 1 0 0
10.729523 -5.737658 -5.035953 13.168303 -0.491063 1.963221 0.017999 -0.004891 2937300.000000 1 0 0
-9.532277 -0.713958 6.876047 11.775146 0.074759 0.947215 -0.003947 -0.001526 1315810.000000 1 0 0
-11.386877 -4.508158 -2.590353 12.517763 0.376974 1.779237 0.004696 -0.000721 1662030.000000 1 0 0
6.502623 -4.387158 13.556347 15.662242 -0.593526 0.524562 0.019721 -0.007674 193355.000000 1 0 0
0.298023 10.105842 -11.752553 15.502882 1.541315 2.431173 0.009551 -0.002860 -1104130.000000 1 0 0
-11.860977 -3.212158 1.461447 12.374836 0.264473 1.452422 -0.001381 -0.002683 2894920.000000 1 0 0
5.331123 5.931042 5.465247 9.667836 0.838616 0.969997 -0.001172 0.001759 -4907810.000000 1 0 0
-7.102177 0.014042 8.107347 10.778228 -0.001977 0.719407 0.000680 -0.002062 813292.000000 1 0 0
1.760323 2.110842 9.634547 10.018927 0.875698 0.277896 0.001307 -0.003405 685596.000000 1 0 0
10.495723 -4.997258 -1.970053 11.790415 -0.444364 1.738673 0.010749 -0.003415 2631550.000000 1 0 0
-9.747477 -2.376158 -1.638753 10.165872 0.239108 1.732704 0.002892 -0.001926 -8105.280000 1 0 0
-1.998477 -5.216858 -9.878653 11.348890 1.204960 2.626914 0.004159 -0.002385 2321590.000000 1 0 0
7.646123 -1.561258 6.574647 10.204249 -0.201421 0.870682 0.003462 -0.004270 1065740.000000 1 0 0
1.530123 -11.898258 -2.504953 12.254983 -1.442898 1.776650 0.005824 -0.005571 -4272570.000000 1 0 0
-0.810077 -1.494658 4.796747 5.089107 1.074130 0.340608 0.009366 -0.002698 3403870.000000 1 0 0
7.722323 1.488242 9.908147 12.649922 0.190385 0.670908 0.004510 -0.001707 295914.000000 1 0 0
-3.785577 10.670342 -8.003453 13.865138 -1.229873 2.186136 0.011097 0.002256 3390990.000000 1 0 0
-9.552877 12.694742 6.400947 17.128516 -0.925693 1.187800 0.005241 -0.004211 1673800.000000 1 0 0
-2.575677 -2.466858 -11.057253 11.618190 0.763821 2.829584 0.007953 -0.005645 -1587130.000000 1 0 0
1.049923 -11.824158 11.128547 16.271374 -1.482234 0.817655 0.004093 -0.002425 1570720.000000 1 0 0
1.448923 3.397642 -1.964753 4.183731 1.167699 2.059654 0.002647 -0.001458 2069460.000000 1 0 0
-1.917277 -9.427758 -12.023253 15.398610 1.370167 2.466743 -0.006394 -0.001265 2860430.000000 1 0 0
1.245123 -2.643758 1.541847 3.304101 -1.130644 1.085301 0.012651 -0.004589 1737120.000000 1 0 0
-1.088577 -2.229758 -6.592253 7.043764 1.116630 2.781599 0.006237 -0.005621 -986124.000000 1 0 0
1.895823 5.861042 4.068247 7.382181 1.257956 0.987126 -0.003184 0.001617 -695446.000000 1 0 0
-11.104777 8.516842 3.661047 14.465682 -0.654263 1.314929 -0.004794 -0.004302 3504620.000000 1 0 0
-16.422677 -1.579058 3.926547 16.959231 0.095856 1.337148 0.023443 -0.007241 -448805.000000 1 0 0
-12.258477 0.272842 6.826447 14.033713 -0.022254 1.062795 -0.004300 -0.000756 698925.000000 1 0 0
-5.178877 3.057242 4.642547 7.597417 -0.533278 0.913386 0.004445 -0.003274 65874.500000 1 0 0
5.195523 -6.058958 3.906747 8.886344 -0.861967 1.115604 0.001923 -0.004972 1661990.000000 1 0 0
9.940123 3.463842 6.274247 12.254404 0.335312 1.033286 -0.003171 0.001939 65619.900000 1 0 0
-12.203777 5.749142 3.188647 13.861900 -0.440258 1.338688 -0.007442 -0.000566 393052.000000 1 0 0
-4.851277 12.375642 -1.263153 13.352414 -1.197204 1.665539 0.002794 0.004475 2544620.000000 1 0 0
-1.841777 -12.147358 10.326247 16.049356 1.420323 0.871857 0.014851 -0.005266 1106990.000000 1 0 0
5.314623 6.364642 13.977847 16.252203 0.875062 0.535412 0.010203 -0.000844 1329100.000000 1 0 0
12.954323 -3.829858 -5.925553 14.751083 -0.287455 1.984172 0.014864 -0.003134 366708.000000 1 0 0
3.574023 -2.526658 6.371247 7.729840 -0.615376 0.601937 0.002047 0.000381 850349.000000 1 0 0
7.252723 -11.916258 -0.567753 13.961430 -1.024047 1.611473 0.013203 -0.009099 -692425.000000 1 0 0
-6.072377 -6.531658 -4.029653 9.786441 0.821821 1.995180 0.014553 -0.003471 470991.000000 1 0 0
0.213623 -8.964558 5.050547 10.291597 -1.546971 1.057852 0.008392 -0.003133 2275980.000000 1 0 0
-10.261477 2.538742 -0.421153 10.579248 -0.242535 1.610616 -0.000561 -0.000678 -1657280.000000 1 0 0
-1.812877 8.898942 -0.419153 9.091391 -1.369828 1.616917 0.005280 0.001168 695310.000000 1 0 0
-3.552477 2.274542 -6.553853 7.794012 -0.569504 2.569709 0.010565 -0.006648 807832.000000 1 0 0
-12.656377 3.043042 6.481347 14.541384 -0.235957 1.108821 -0.003117 -0.005218 427032.000000 1 0 0
11.387823 1.652042 7.934947 13.977666 0.144066 0.967102 0.008922 -0.005758 -2578050.000000 1 0 0
6.036323 2.561542 -3.060253 7.236286 0.401324 2.007444 0.002087 0.000367 1254040.000000 1 0 0
10.545623 -2.358658 6.380947 12.549499 -0.220041 1.037398 0.010478 -0.007508 4586090.000000 1 0 0
-0.907077 10.983542 4.000547 11.724562 -1.488398 1.222592 0.003230 0.004205 558133.000000 1 0 0
-1.661977 -12.216758 7.431147 14.395600 1.435586 1.028377 0.008952 -0.000870 -589685.000000 1 0 0
8.106823 8.611942 -7.736253 14.132789 0.815602 2.150048 0.001065 -0.000419 524365.000000 1 0 0
-4.698277 -5.975758 -8.671353 11.531515 0.904513 2.421842 0.010543 -0.004677 859804.000000 1 0 0
-8.440677 -5.413358 -11.657653 15.376942 0.570264 2.431230 0.018148 -0.006335 1647980.000000 1 0 0
6.098223 -0.664058 -9.915453 11.659567 -0.108466 2.587567 0.004309 0.002405 834501.000000 1 0 0
-11.251877 -5.472958 -5.371553 13.616592 0.452712 1.976305 0.011395 -0.004554 -1800710.000000 1 0 0
3.857923 8.837642 -2.765953 10.031848 1.159198 1.850132 0.005892 -0.001480 1107560.000000 1 0 0
11.680923 -10.309558 -3.957453 16.074588 -0.723117 1.819547 0.028661 -0.011849 2095810.000000 1 0 0
4.003923 -11.280858 3.991047 12.618146 -1.229736 1.248976 0.004374 -0.005781 -490285.000000 1 0 0
-0.994777 0.876242 3.143447 3.411546 -0.722129 0.399091 0.008515 -0.002314 -1238960.000000 1 0 0
-10.655877 -5.074758 4.543747 12.646997 0.444460 1.203306 0.008304 -0.004293 2501540.000000 1 0 0
4.497123 -8.699358 2.777147 10.179169 -1.093682 1.294467 0.002532 -0.005120 5185820.000000 1 0 0
-3.803977 -5.765558 2.574047 7.371406 0.987579 1.214086 0.009214 -0.001288 2031390.000000 1 0 0
10.040223 5.049442 12.306347 16.665807 0.465982 0.740074 0.016692 0.001074 1270180.000000 1 0 0
1.590923 -12.322958 -5.172153 13.458733 -1.442404 1.965243 0.003415 -0.004132 1493350.000000 1 0 0
9.786423 -10.702958 -1.712153 14.603385 -0.830101 1.688310 0.014628 -0.011022 719881.000000 1 0 0
9.671023 -4.570958 -9.211353 14.116351 -0.441525 2.281716 0.024645 -0.006751 2782490.000000 1 0 0
-7.375177 -3.170158 -13.078353 15.345568 0.405964 2.591079 0.014960 -0.004542 1458810.000000 1 0 0
0.419823 6.116742 -2.554053 6.641835 1.502269 1.965506 0.004976 0.001334 1867180.000000 1 0 0
-6.071777 -9.547758 0.982047 11.357402 1.004370 1.484221 0.005536 -0.000548 -399381.000000 1 0 0
-8.991977 -4.098558 0.568647 9.898343 0.427668 1.513316 -0.000624 -0.000564 3177110.000000 1 0 0
1.879823 3.879842 12.066847 12.813888 1.119617 0.343146 0.000559 -0.005776 182318.000000 1 0 0
6.725423 4.295942 9.633047 12.509278 0.568434 0.691842 0.002060 -0.000614 1743490.000000 1 0 0
-8.269877 9.859642 -3.568953 13.354431 -0.872864 1.841333 0.007120 -0.000210 2451850.000000 1 0 0
16.548723 2.052242 -6.053253 17.740174 0.123382 1.919008 0.056403 -0.003891 423931.000000 1 0 0
-10.934777 2.621642 -5.156253 12.370501 -0.235311 2.000739 0.003203 -0.000675 2177920.000000 1 0 0
-13.765877 3.948242 1.438747 14.392984 -0.279316 1.470667 -0.001930 0.004333 -521007.000000 1 0 0
-17.468277 10.480542 3.371047 20.648158 -0.540402 1.406801 0.051115 -0.011535 -1622520.000000 1 0 0
-14.343077 2.854442 -1.257053 14.678279 -0.196445 1.656542 0.002615 0.002209 1655700.000000 1 0 0
-14.473077 5.028742 5.131147 16.158183 -0.334406 1.247644 0.001379 -0.002377 1613650.000000 1 0 0
-17.404977 7.557242 3.125747 19.230586 -0.409637 1.407532 0.028447 -0.001117 -2157350.000000 1 0 0
-15.151377 12.733842 -3.410453 20.083480 -0.698918 1.741437 0.057446 -0.017443 -646100.000000 1 0 0
-8.547277 12.532542 -9.532153 17.915984 -0.972249 2.131813 0.023803 -0.016405 2635840.000000 1 0 0
-12.479477 8.684342 -9.848153 18.114670 -0.607962 2.145584 0.025381 -0.000408 -573400.000000 1 0 0
-13.990577 -3.601258 -12.293053 18.969039 0.251937 2.275829 0.041053 -0.002769 -659520.000000 1 0 0
-14.954577 5.577342 -7.702253 17.722043 -0.356974 2.020406 0.034633 0.001662 31580.800000 1 0 0
-10.982677 13.567542 -8.429153 19.384221 -0.890301 2.020664 0.039410 -0.016280 938369.000000 1 0 0
-10.930977 13.557042 3.880247 17.841972 -0.892229 1.351566 0.011443 -0.008604 -303331.000000 1 0 0
-15.201777 3.199842 3.078447 15.836978 -0.207463 1.375167 0.004471 0.000296 -95878.800000 1 0 0
-11.170377 9.377542 -12.432653 19.164720 -0.698367 2.276706 0.031694 -0.008369 335525.000000 1 0 0
-13.137877 11.515942 -9.049753 19.675334 -0.719704 2.048740 0.040874 -0.021905 -237617.000000 1 0 0
-8.756577 14.506142 -3.543053 17.310662 -1.027700 1.776928 0.022826 -0.017137 1840760.000000 1 0 0
-16.638677 8.422642 -4.281353 19.134170 -0.468602 1.796461 0.035662 -0.005768 -1525540.000000 1 0 0
-16.793777 6.871842 0.281847 18.147523 -0.388403 1.555265 0.022069 0.002341 -1013060.000000 1 0 0
-10.395577 2.739042 -12.449353 16.448610 -0.257626 2.429297 0.014152 -0.011228 -323581.000000 1 0 0
-16.904877 0.872742 2.322447 17.085968 -0.051581 1.434447 0.034054 -0.004640 214163.000000 1 0 0
-12.641977 1.176942 -6.968053 14.483043 -0.092830 2.072726 0.009761 -0.003149 -281510.000000 1 0 0
-12.284877 9.044242 -5.450753 16.199606 -0.634617 1.913967 0.020381 -0.000295 -67870.500000 1 0 0
-9.652177 13.879142 1.161147 16.945305 -0.963134 1.502219 0.023074 -0.012850 998805.000000 1 0 0
-12.193177 11.093442 2.736447 16.710062 -0.738207 1.406295 0.003375 -0.006308 324364.000000 1 0 0
-12.594277 6.834342 -3.689453 14.796490 -0.497186 1.822802 0.002130 0.002186 -392920.000000 1 0 0
-16.006977 3.445742 -9.402053 18.881077 -0.212029 2.092043 0.047048 -0.006806 -1268440.000000 1 0 0
-15.201077 5.935842 -4.775553 17.003319 -0.372280 1.855486 0.023444 0.003009 1505730.000000 1 0 0
-17.929277 5.265642 7.492347 20.132591 -0.285657 1.189472 0.030433 -0.013186 -756474.000000 1 0 0
-15.716277 10.155442 -2.194553 18.840128 -0.573681 1.687544 0.028340 -0.004750 -1835200.000000 1 0 0
-8.822977 9.964642 -8.305853 15.688410 -0.846090 2.128720 0.012478 -0.002026 1076580.000000 1 0 0
-16.970377 4.320942 -1.184853 17.551869 -0.249319 1.638353 0.018802 0.001293 -587313.000000 1 0 0
-10.274577 5.329542 -4.578753 12.447326 -0.478505 1.947492 -0.001284 0.000210 460646.000000 1 0 0
-18.025077 2.661542 6.206047 19.248435 -0.146598 1.242513 0.035439 -0.012007 -1284690.000000 1 0 0
-10.359577 10.117942 -5.733053 15.574386 -0.773599 1.947769 0.013085 -0.006088 461506.000000 1 0 0
-15.363377 0.572242 -5.869553 16.456381 -0.037230 1.935501 0.013342 -0.001885 118998.000000 1 0 0
-16.481077 -4.129058 -8.942853 19.200251 0.245480 2.055298 0.039070 -0.011619 -792540.000000 1 0 0
-10.042777 9.561542 -1.095153 13.909702 -0.760856 1.649611 0.002716 -0.000539 1664420.000000 1 0 0
-17.431677 -3.050458 -3.259653 17.994277 0.173241 1.752951 0.049634 -0.010292 -1392330.000000 1 0 0
-12.019177 4.996942 -11.578653 17.421115 -0.394008 2.297799 0.029636 -0.006057 314737.000000 1 0 0
-16.383877 7.150842 5.892347 18.822479 -0.411534 1.252395 0.020269 -0.003552 -214495.000000 1 0 0
-12.255677 5.898942 -8.785753 16.192239 -0.448595 2.144314 0.017851 0.000324 2172020.000000 1 0 0
-14.477977 8.392942 -0.137053 16.735354 -0.525362 1.578986 0.018941 -0.003337 -392572.000000 1 0 0
-14.900777 11.892742 3.829447 19.445697 -0.673599 1.372570 0.013042 -0.009201 1377850.000000 1 0 0
-17.369777 4.170142 -3.991553 18.303872 -0.235621 1.790634 0.032957 -0.003536 -627767.000000 1 0 0
-13.907777 13.392442 -0.753153 19.322293 -0.766524 1.609785 0.034496 -0.018039 -682237.000000 1 0 0
-10.114977 6.779042 -13.076053 17.867606 -0.590444 2.391800 0.009944 -0.010040 2019450.000000 1 0 0
-15.889677 -1.177558 -8.305653 17.968093 0.073973 2.051321 0.019338 -0.009712 -781212.000000 1 0 0
-11.553277 11.899442 -0.098953 16.585678 -0.800157 1.576763 0.018925 -0.011279 381224.000000 1 0 0
-11.998177 7.348042 -0.951953 14.101638 -0.549509 1.638354 -0.001934 0.004066 1093280.000000 1 0 0
-11.474077 0.079942 -11.639053 16.344063 -0.006967 2.363320 0.021840 -0.012485 -690572.000000 1 0 0
-19.078677 -1.191058 -4.668453 19.677627 0.062348 1.810327 0.056945 -0.017453 307856.000000 1 0 0
-17.920877 1.515442 -5.094453 18.692454 -0.084362 1.846829 0.033028 -0.003935 -14031.700000 1 0 0
-13.368177 -0.234158 -9.483253 16.391921 0.017514 2.187724 0.023641 -0.009813 -114703.000000 1 0 0
-6.083277 11.234142 -13.318853 18.455461 -1.074503 2.377016 0.007332 -0.002582 -741364.000000 1 0 0
16.472723 5.909642 7.003547 18.850043 0.344451 1.190129 0.054134 -0.016094 1023320.000000 1 0 0
14.795923 10.110642 -5.570753 18.766398 0.599457 1.872186 0.065657 -0.016809 814289.000000 1 0 0
2.420323 16.866542 4.372047 17.591276 1.428271 1.319629 0.023049 -0.011881 3823570.000000 1 0 0
-3.838477 18.142542 -5.921853 19.466743 -1.362298 1.879899 0.032412 -0.006923 427908.000000 1 0 0
5.482623 14.569542 5.638347 16.556620 1.210880 1.223295 0.014538 -0.007299 -1714150.000000 1 0 0
9.925823 5.955642 15.026547 18.968098 0.540430 0.656389 0.037864 -0.004939 -1704450.000000 1 0 0
4.728023 12.784242 -1.184853 13.681919 1.216564 1.657505 0.002799 -0.001822 1347240.000000 1 0 0
3.467223 13.748142 12.908047 19.174220 1.323752 0.832271 0.028120 -0.013035 -401989.000000 1 0 0
-0.781777 12.377842 9.159447 15.418094 -1.507721 0.934686 0.002107 0.001768 619157.000000 1 0 0
-7.751977 13.989442 8.370247 18.051556 -1.064787 1.088646 0.011375 -0.010694 789744.000000 1 0 0
11.450223 12.731342 -4.240753 17.640257 0.838328 1.813576 0.048697 -0.014154 1126080.000000 1 0 0
-5.741177 16.240442 0.846647 17.246156 -1.230997 1.521685 0.013496 0.001859 1874920.000000 1 0 0
3.193823 10.620342 6.779347 12.998143 1.278673 1.022115 0.000985 0.005226 2316580.000000 1 0 0
-1.145077 15.628942 2.395747 15.852906 -1.497661 1.419092 0.006206 -0.002311 -2069740.000000 1 0 0
9.916223 8.870242 9.485847 16.339950 0.729778 0.951416 0.016798 -0.001102 3326440.000000 1 0 0
7.284323 12.344542 6.154347 15.598880 1.037700 1.165232 0.009686 -0.002640 272927.000000 1 0 0
11.920023 14.023442 -1.691253 18.482538 0.866298 1.662430 0.034683 -0.010369 434212.000000 1 0 0
9.646123 15.952342 -1.428053 18.696637 1.026940 1.647251 0.029118 -0.007086 1158640.000000 1 0 0
10.159723 13.827542 2.906647 17.403146 0.937130 1.402991 0.024648 -0.007828 3106070.000000 1 0 0
-5.965677 14.611842 6.206547 16.959259 -1.183175 1.196123 -0.000626 -0.004368 -63292.700000 1 0 0
-0.898677 18.130242 -6.337353 19.226943 -1.521269 1.906685 0.035819 0.001778 -407697.000000 1 0 0
-3.523977 15.756342 5.347747 17.008208 -1.350763 1.250949 0.002418 -0.005184 2065160.000000 1 0 0
7.158523 12.410042 10.567247 17.802256 1.047586 0.935283 0.016583 -0.002720 3237940.000000 1 0 0
1.540323 14.690242 6.306647 16.060810 1.466325 1.167260 0.009840 -0.001320 649292.000000 1 0 0
17.427123 7.766942 -1.474153 19.136434 0.419257 1.647907 0.041016 -0.005698 554634.000000 1 0 0
2.106623 16.175642 -3.425753 16.668084 1.441291 1.777799 0.001334 0.000093 849071.000000 1 0 0
6.769823 11.221942 0.558747 13.117724 1.027978 1.528189 0.009679 0.000991 1071100.000000 1 0 0
12.807923 9.346142 3.089047 16.153497 0.630392 1.378380 0.018245 0.000021 -2310520.000000 1 0 0
6.118123 14.355142 -3.462353 15.984036 1.167912 1.789140 -0.001633 0.000635 1356310.000000 1 0 0
3.116823 16.514042 1.466347 16.869450 1.384253 1.483763 0.015226 -0.015195 -363494.000000 1 0 0
2.848523 18.851242 -2.606053 19.242529 1.420826 1.706646 0.019038 -0.012556 -249503.000000 1 0 0
4.040723 11.984942 10.620447 16.515453 1.245615 0.872307 0.017589 -0.005445 2739570.000000 1 0 0
8.069223 11.552242 3.358447 14.486056 0.961079 1.336828 0.006529 0.000993 721269.000000 1 0 0
0.824323 12.413142 0.215347 12.442346 1.504486 1.553488 0.003414 0.001861 403266.000000 1 0 0
12.030923 9.793942 -4.618153 16.186159 0.683258 1.860131 0.034965 -0.005269 -27747.500000 1 0 0
-1.197477 16.492242 9.786247 19.214542 -1.498315 1.036408 0.011059 -0.006287 -418193.000000 1 0 0
8.189023 14.822442 -8.020453 18.737464 1.066055 2.013123 0.033451 -0.005247 1884860.000000 1 0 0
14.512823 7.568542 -1.433953 16.430492 0.480705 1.658181 0.022427 -0.000022 752051.000000 1 0 0
12.602523 8.295142 5.923147 16.208536 0.582127 1.196698 0.012106 -0.001477 -65837.600000 1 0 0
-3.027977 14.239842 10.225747 17.790662 -1.361276 0.958459 0.008686 -0.007444 3240300.000000 1 0 0
-4.629377 17.133542 -3.146053 18.024623 -1.306904 1.746237 0.029309 -0.005980 -779017.000000 1 0 0
-7.155577 16.349642 -1.784153 17.935894 -1.158252 1.670435 0.031167 -0.009914 546847.000000 1 0 0
8.349423 11.214442 -1.910053 14.111161 0.930809 1.706571 0.008471 -0.002113 -1171600.000000 1 0 0
8.558823 12.912542 -4.219553 16.055897 0.985454 1.836723 0.017354 -0.002463 1407570.000000 1 0 0
2.701423 14.719942 -7.470653 16.726776 1.389295 2.033790 0.006413 -0.001727 427347.000000 1 0 0
11.347223 11.417842 9.566447 18.725477 0.788500 1.034590 0.026424 -0.010859 -374745.000000 1 0 0
8.663423 15.829142 1.286847 18.090677 1.070022 1.499603 0.018857 -0.005269 330572.000000 1 0 0
6.060023 10.043042 7.662047 14.010480 1.027877 0.992164 0.003932 0.007529 2620610.000000 1 0 0
14.545023 11.454042 2.470847 18.677737 0.667065 1.438119 0.033323 -0.003356 969959.000000 1 0 0
12.147823 12.671142 0.997047 17.581853 0.806480 1.514057 0.026595 -0.004875 1755950.000000 1 0 0
5.332623 15.990042 8.244247 18.763953 1.248899 1.115903 0.022682 -0.006401 889141.000000 1 0 0
11.637223 15.116342 4.987547 19.718123 0.914716 1.315076 0.033882 -0.008790 7929.280000 1 0 0
6.020723 16.805742 1.650647 17.927819 1.226787 1.478594 0.015034 -0.019024 574359.000000 1 0 0
-0.585977 16.169442 -4.279553 16.736451 -1.534572 1.829371 0.011772 0.003993 722150.000000 1 0 0
16.064923 6.498342 2.396347 17.494361 0.384384 1.433386 0.014942 -0.004377 -210817.000000 1 0 0
7.699623 16.826442 -3.293153 18.795164 1.141648 1.746918 0.012531 -0.003559 129467.000000 1 0 0
14.850523 8.237942 7.492547 18.561788 0.506463 1.155289 0.039167 -0.012035 253253.000000 1 0 0
2.143323 12.934142 8.617147 15.688884 1.406578 0.989328 0.009980 -0.000111 1545150.000000 1 0 0
15.957623 7.435542 -6.052953 18.616424 0.436043 1.901957 0.041712 -0.002384 -1043540.000000 1 0 0
-2.909477 17.085242 0.639147 17.342983 -1.402123 1.533935 0.004722 -0.001388 1800070.000000 1 0 0
-2.922177 18.529142 4.586847 19.310810 -1.414378 1.330977 0.010021 -0.010498 763987.000000 1 0 0
-0.792577 19.069742 0.818947 19.103767 -1.529258 1.527915 0.016389 -0.009328 1427330.000000 1 0 0
6.908323 16.898542 -6.183953 19.275033 1.182717 1.897399 0.012235 -0.001971 -530035.000000 1 0 0
11.029223 10.114042 0.777747 14.984742 0.742140 1.518870 0.014895 -0.000616 -2031960.000000 1 0 0
9.242423 8.694742 14.161747 19.015152 0.754874 0.730619 0.035998 -0.006697 859721.000000 1 0 0
6.509223 12.373742 -8.436753 16.329674 1.086526 2.113732 0.018020 -0.008392 -439848.000000 1 0 0
6.406423 9.025342 13.229347 17.248614 0.953506 0.696674 0.020899 -0.009382 1816430.000000 1 0 0
16.722823 9.509442 2.755047 19.433800 0.517049 1.428551 0.034482 0.000601 -1548100.000000 1 0 0
2.563223 14.693942 -0.803653 14.937466 1.398093 1.624623 0.003409 -0.003419 -94552.200000 1 0 0
9.121223 12.975042 8.266947 17.885492 0.958072 1.090305 0.018420 -0.009089 -386901.000000 1 0 0
7.238523 9.503942 10.454047 15.874767 0.919891 0.851929 0.009320 -0.002216 1045940.000000 1 0 0
4.377523 15.765942 -5.411453 17.234020 1.299962 1.890198 0.008258 -0.003883 2258820.000000 1 0 0
0.365423 16.261942 -8.293253 18.258213 1.548329 2.042293 0.018337 0.000657 1035590.000000 1 0 0
-2.339677 15.730942 -2.014653 16.031078 -1.423148 1.696801 0.003797 0.002689 1379710.000000 1 0 0
13.308323 10.635942 7.446047 18.592427 0.674250 1.158747 0.034972 -0.015387 1824230.000000 1 0 0
-0.972077 15.843442 6.978347 17.339461 -1.509518 1.156600 0.010152 -0.007500 3758010.000000 1 0 0
13.357423 13.444042 6.584647 20.062916 0.788630 1.236399 0.038844 -0.014541 900101.000000 1 0 0
5.437323 17.355442 4.438547 18.721019 1.267190 1.331428 0.024072 -0.018923 1500420.000000 1 0 0
10.773923 9.506942 -1.892653 14.492808 0.723008 1.701763 0.012337 0.000962 561952.000000 1 0 0
3.234123 12.731142 4.730647 13.961395 1.322026 1.225115 0.005399 0.001719 1635480.000000 1 0 0
-0.188477 18.061842 3.592747 18.416664 -1.560362 1.374456 0.014761 -0.011492 2849480.000000 1 0 0
-7.608877 15.926742 -5.853153 18.596116 -1.125113 1.890991 0.040349 -0.018085 -63487.200000 1 0 0
-12.519177 -9.039458 8.254447 17.509355 0.625371 1.079884 0.030087 -0.012567 -445623.000000 1 0 0
-13.428077 -11.597158 6.790147 18.997722 0.712365 1.205293 0.044208 -0.010668 -528299.000000 1 0 0
-6.657377 -12.166058 12.320147 18.550463 1.070098 0.844450 0.031736 -0.010916 -742363.000000 1 0 0
-1.930777 -10.685658 14.331147 17.980350 1.392036 0.648410 0.005286 -0.004851 60297.100000 1 0 0
-8.861177 2.953042 11.039647 14.460800 -0.321681 0.702206 0.000502 -0.002534 2065200.000000 1 0 0
0.596723 10.143842 15.151247 18.243188 1.512038 0.590764 0.017206 -0.011448 -547317.000000 1 0 0
0.894723 -6.764058 16.578047 17.927205 -1.439284 0.390438 0.005930 -0.016011 1599800.000000 1 0 0
6.071923 2.308342 17.690047 18.845012 0.363293 0.351920 0.031912 -0.009601 733889.000000 1 0 0
-5.196377 -2.894758 17.595647 18.573873 0.508257 0.325993 0.027107 -0.010577 -449993.000000 1 0 0
-4.298477 8.255142 13.111247 16.078840 -1.090724 0.617316 -0.005098 0.002518 -264350.000000 1 0 0
-0.073877 -4.792258 18.567547 19.176157 1.555382 0.252615 0.018793 -0.020743 -75603.000000 1 0 0
-11.725277 2.187642 11.224747 16.378732 -0.184454 0.815747 0.014456 -0.010023 865887.000000 1 0 0
-3.364977 -6.052558 14.301147 15.889599 1.063389 0.450953 0.012581 -0.007703 979393.000000 1 0 0
-7.573277 -2.152658 14.515247 16.513052 0.276940 0.497000 0.006384 -0.003197 695339.000000 1 0 0
-6.133577 -1.061458 10.633047 12.321086 0.171360 0.529626 0.006501 -0.002615 736515.000000 1 0 0
-3.914977 2.497342 11.098747 12.031041 -0.567818 0.396264 0.000457 0.001503 383561.000000 1 0 0
-6.385577 6.276942 13.544247 16.236448 -0.776819 0.584138 -0.010257 -0.001662 244030.000000 1 0 0
-9.003477 5.513942 12.526347 16.382171 -0.549504 0.700325 0.001174 -0.006857 -358820.000000 1 0 0
-12.271377 -2.095558 15.886047 20.182779 0.169136 0.664688 0.024701 -0.002135 1584640.000000 1 0 0
-3.518277 -7.538758 16.948747 18.880444 1.134148 0.456302 0.014926 -0.009909 -1194230.000000 1 0 0
-0.562377 -5.279758 14.363747 15.313698 1.464681 0.354076 0.006287 -0.006510 1167060.000000 1 0 0
-14.250077 -2.258058 13.743847 19.926286 0.157153 0.809674 0.045468 -0.008907 -1808680.000000 1 0 0
-6.492877 1.526242 12.186947 13.892752 -0.230873 0.500764 0.001748 -0.000154 1474270.000000 1 0 0
2.183923 -2.177658 14.528947 14.852677 -0.783962 0.209168 0.004671 -0.001105 836454.000000 1 0 0
-12.594177 4.056042 9.195047 16.112532 -0.311568 0.963467 0.004412 -0.009629 -1689110.000000 1 0 0
-9.184677 -2.976058 12.514747 15.806142 0.313349 0.657103 0.003997 -0.001263 698524.000000 1 0 0
-7.158977 -7.186158 15.267147 18.329692 0.787293 0.586435 0.019393 -0.006601 841059.000000 1 0 0
-3.364877 5.897742 19.344247 20.501358 -1.052323 0.337579 0.042538 -0.026389 46588.100000 1 0 0
0.696023 5.526642 16.169147 17.101741 1.445516 0.331768 0.011068 -0.011923 -87867.100000 1 0 0
3.416123 1.496942 16.679947 17.091851 0.412997 0.219986 0.012289 -0.007206 1649190.000000 1 0 0
-11.660677 11.535642 7.923847 18.216196 -0.780008 1.120770 0.000551 -0.003410 329224.000000 1 0 0
0.505723 -9.456858 15.477347 18.144867 -1.517370 0.549113 -0.008627 0.000686 390243.000000 1 0 0
-2.647977 -3.530358 18.985647 19.491794 0.927257 0.228387 0.031201 -0.017373 2594420.000000 1 0 0
-12.887977 2.408542 13.860347 19.079053 -0.184752 0.757626 0.028979 -0.019512 243753.000000 1 0 0
-5.384777 -0.513658 15.696347 16.602259 0.095103 0.331871 0.013864 -0.001908 1789770.000000 1 0 0
-4.531277 -5.957958 11.654247 13.851037 0.920582 0.570930 0.007060 -0.002968 1039070.000000 1 0 0
2.347823 1.828042 13.947147 14.261028 0.661562 0.210195 0.005399 -0.004807 -161037.000000 1 0 0
0.069123 3.409542 14.266147 14.668085 1.550526 0.234641 0.007078 -0.006193 -2366090.000000 1 0 0
-12.916277 6.938642 12.201347 19.074796 -0.492964 0.876743 0.011744 -0.017181 926927.000000 1 0 0
0.898723 1.661142 18.233347 18.330904 1.074868 0.103215 0.012030 -0.004039 2512780.000000 1 0 0
-2.005677 6.518642 12.477347 14.219692 -1.272306 0.500236 0.002022 -0.000903 1514480.000000 1 0 0
-13.531077 -2.668358 10.875947 17.564066 0.194704 0.903053 0.033264 -0.012644 48763.000000 1 0 0
-2.576877 3.747542 13.499347 14.244885 -0.968429 0.324962 0.001178 -0.003509 -995287.000000 1 0 0
3.530123 6.095742 16.339147 17.792908 1.045877 0.407043 0.012079 -0.009796 820619.000000 1 0 0
-3.749677 12.427542 12.369347 17.930550 -1.277759 0.809518 0.007822 -0.004232 853308.000000 1 0 0
3.696423 -1.463958 17.061247 17.518358 -0.377094 0.228943 0.014109 -0.001802 -1024330.000000 1 0 0
-15.788877 0.450142 9.218347 18.288499 -0.028502 1.042513 0.038059 -0.015445 855426.000000 1 0 0
-4.684077 4.676242 15.254247 16.628286 -0.784561 0.409381 0.002532 -0.004927 1370290.000000 1 0 0
-8.058377 -8.140958 10.447347 15.503539 0.790496 0.831364 0.018409 -0.014063 3240820.000000 1 0 0
-2.640177 -0.321758 14.706147 14.944726 0.121272 0.178923 0.014131 -0.001206 2019000.000000 1 0 0
-1.909577 1.044142 17.219147 17.356145 -0.500377 0.125727 0.017199 -0.010097 2720870.000000 1 0 0
-0.756477 -2.416058 14.375347 14.596582 1.267361 0.174328 0.008135 -0.001122 444101.000000 1 0 0
5.002823 -8.261158 16.532047 19.146372 -1.026281 0.528715 0.023737 -0.009873 1572920.000000 1 0 0
-4.492277 10.021142 10.646447 15.295447 -1.149374 0.800910 -0.000800 -0.001418 -2211670.000000 1 0 0
-6.182577 2.201842 15.202847 16.558953 -0.342131 0.407526 0.007379 -0.001600 532212.000000 1 0 0
-4.998177 6.954742 17.304847 19.308235 -0.947649 0.459573 0.013696 -0.004038 -1951590.000000 1 0 0
-4.111277 9.227742 15.747047 18.708910 -1.151662 0.570396 0.008672 -0.001792 502928.000000 1 0 0
-4.589777 -9.852258 18.290247 21.275953 1.134831 0.536178 0.027365 -0.014067 -664437.000000 1 0 0
-6.929177 -4.078758 11.072647 13.684052 0.532021 0.628068 0.007718 -0.001999 380289.000000 1 0 0
-2.393977 -0.715158 19.525147 19.684358 0.290293 0.127272 0.032277 -0.012985 -1027350.000000 1 0 0
-5.811377 -4.501558 15.200747 16.884870 0.659067 0.450434 0.014063 -0.006211 2929390.000000 1 0 0
-12.861177 0.041042 9.733747 16.129396 -0.003191 0.922940 0.017311 -0.007315 -85632.500000 1 0 0
-14.320177 8.619842 10.391347 19.681190 -0.541842 1.014572 0.006531 -0.016971 -1816690.000000 1 0 0
-8.330077 10.484442 12.848747 18.558125 -0.899407 0.806053 0.002863 -0.010449 -506703.000000 1 0 0
-10.434977 7.267242 10.694147 16.615244 -0.608327 0.871558 0.010886 -0.008617 -870924.000000 1 0 0
-9.923577 -6.465758 14.737247 18.906874 0.577468 0.676985 0.019650 -0.012334 -66776.100000 1 0 0
-0.867477 -13.408158 14.524347 19.786053 1.506189 0.746500 0.005093 -0.003675 437230.000000 1 0 0
3.693523 -5.662558 17.053147 18.344386 -0.992826 0.377440 0.025981 -0.010565 475791.000000 1 0 0
-7.270177 9.324442 10.416647 15.757768 -0.908563 0.848581 -0.002022 -0.002456 -221039.000000 1 0 0
-10.392677 -6.669558 11.783147 17.068489 0.570558 0.808830 0.023085 -0.016913 2222870.000000 1 0 0
-10.992177 -3.919858 10.741147 15.860816 0.342546 0.826828 0.016260 -0.004443 -1800500.000000 1 0 0
-10.209377 -10.181858 9.816147 17.443003 0.784049 0.973081 0.036420 -0.017557 2485410.000000 1 0 0
-9.959177 -3.594558 15.233847 18.551985 0.346378 0.607384 0.013747 -0.008401 2917730.000000 1 0 0
5.510423 -3.448558 16.079147 17.343480 -0.559192 0.384195 0.023792 -0.005918 287850.000000 1 0 0
-11.233277 0.606842 15.437147 19.101317 -0.053969 0.629755 0.011357 -0.006834 -315760.000000 1 0 0
-3.346677 3.111842 18.831147 19.377717 -0.749054 0.238074 0.029552 -0.013869 -1504500.000000 1 0 0
0.548423 7.428242 13.895747 15.766145 1.497101 0.492050 0.008558 -0.008447 900320.000000 1 0 0
-13.217377 -7.257158 12.132247 19.353471 0.502123 0.893258 0.044026 -0.021309 -1032650.000000 1 0 0
-1.463977 -0.991658 12.132347 12.260525 0.595378 0.144726 0.005006 -0.000630 -15743.500000 1 0 0
2.028423 -4.825558 13.119347 14.125076 -1.172871 0.379639 0.007294 -0.004675 254282.000000 1 0 0
-14.733877 -3.957458 8.608747 17.517395 0.262403 1.057054 0.032956 -0.017178 -205029.000000 1 0 0
8.083823 0.844442 16.072647 18.010865 0.104083 0.468191 0.039624 -0.009270 -225591.000000 1 0 0
-1.273777 11.305442 13.371847 17.556817 -1.458600 0.704967 0.006554 -0.005106 -184042.000000 1 0 0
2.751123 -12.208058 -13.647753 18.516655 -1.349146 2.399495 0.000540 -0.007844 -884874.000000 1 0 0
0.781023 -10.591358 -14.043753 17.607210 -1.497188 2.494125 -0.004968 -0.001260 -2751920.000000 1 0 0
3.084023 -14.287758 -12.240153 19.064956 -1.358207 2.267931 0.005208 -0.011625 -1166030.000000 1 0 0
-5.324977 -10.207558 -16.046653 19.749549 1.089963 2.519237 0.025164 -0.015254 -3823.850000 1 0 0
-0.996077 -12.315258 -14.883753 19.343832 1.490090 2.448747 0.009618 -0.009730 -339318.000000 1 0 0
5.567223 -15.040758 -12.189353 20.144446 -1.216291 2.220685 0.020062 -0.007303 563760.000000 1 0 0
1.975523 -11.992958 -16.015853 20.105752 -1.407539 2.492414 0.009688 -0.003690 -786717.000000 1 0 0
1.258223 -14.189458 -14.067653 20.020557 -1.482355 2.349926 0.015210 -0.004711 -1161450.000000 1 0 0
-1.078277 -10.683158 -15.876153 19.166240 1.470205 2.546933 0.002633 -0.008334 -893512.000000 1 0 0
-5.721477 -5.597358 -15.042753 17.039663 0.774433 2.652603 0.015693 -0.007766 -87609.700000 1 0 0
-6.455977 -7.589658 -16.496053 19.271801 0.865938 2.598217 0.023327 -0.008765 38160.500000 1 0 0
4.829023 -12.513258 -11.438453 17.627799 -1.202493 2.276917 0.002160 -0.002914 5418.040000 1 0 0
-1.790077 -15.399758 -13.241753 20.388745 1.455075 2.277675 0.014793 -0.004679 -270295.000000 1 0 0
15.854123 -7.382058 -8.720253 19.542026 -0.435771 2.033345 0.070529 -0.015852 547667.000000 1 0 0
19.271723 -3.622158 -4.133853 20.040161 -0.185785 1.778566 0.103500 -0.030472 451897.000000 1 0 0
14.785323 -11.746958 -8.716453 20.798397 -0.671379 2.003242 0.061791 -0.026143 209071.000000 1 0 0
18.031823 -3.590858 -6.459553 19.487604 -0.196569 1.908657 0.107387 -0.021232 575779.000000 1 0 0
9.918423 -9.262358 -15.385153 20.515099 -0.751207 2.418772 0.095797 -0.019300 93832.800000 1 0 0
1.308923 1.861842 -15.439453 15.606295 0.958043 2.995238 0.016152 -0.007599 -41634.100000 1 0 0
4.778423 -4.344158 -13.948853 15.371256 -0.737831 2.708003 0.007831 0.001367 514016.000000 1 0 0
13.320123 -5.565858 -8.752753 16.882391 -0.395802 2.115839 0.044919 -0.011117 -1535980.000000 1 0 0
3.009523 0.800242 -12.256253 12.645685 0.259890 2.892775 0.008020 -0.004374 -1923510.000000 1 0 0
0.645623 6.237142 -13.153853 14.571980 1.467651 2.696757 0.013953 -0.005024 463199.000000 1 0 0
3.140523 -1.101658 -16.779553 17.106429 -0.337377 2.945789 0.019110 -0.006804 -66666.800000 1 0 0
13.274223 4.209142 -11.395553 17.993901 0.307062 2.256607 0.020068 -0.015567 469710.000000 1 0 0
-3.667477 9.491642 -16.705853 19.560858 -1.202077 2.594509 -0.001880 0.007273 -235990.000000 1 0 0
-0.253977 -5.147858 -17.641553 18.379046 1.521500 2.857346 0.003994 -0.008540 265599.000000 1 0 0
-0.550777 -8.712958 -17.560153 19.610659 1.507667 2.680213 0.009056 -0.003276 257638.000000 1 0 0
5.514123 -10.095658 -12.063953 16.669337 -1.070885 2.379976 0.006856 -0.005245 338708.000000 1 0 0
1.630223 -9.991358 -17.962653 20.618966 -1.409058 2.628379 0.022732 -0.003062 -640588.000000 1 0 0
11.102723 8.675842 -14.605453 20.294333 0.663306 2.374140 0.090987 -0.029052 -224752.000000 1 0 0
11.002023 -3.810358 -12.887053 17.367771 -0.333404 2.406859 0.023571 -0.004823 124958.000000 1 0 0
4.903423 7.528742 -12.313853 15.243244 0.993512 2.511247 0.000292 0.000503 -638768.000000 1 0 0
9.475023 -5.914358 -12.627753 16.858702 -0.558028 2.417400 0.023443 -0.005468 -1217170.000000 1 0 0
-3.338177 0.247342 -15.875053 16.224115 -0.073960 2.933782 0.017049 -0.012508 -2044000.000000 1 0 0
-0.770077 10.714742 -12.760953 16.680546 -1.499049 2.441869 0.010555 -0.006638 -799260.000000 1 0 0
6.650823 -5.430458 -12.436653 15.112698 -0.684727 2.537341 0.014645 -0.002856 -24991.800000 1 0 0
18.025523 -6.016258 -8.059153 20.641336 -0.322137 1.971903 0.098631 -0.024421 1566290.000000 1 0 0
13.165323 4.836342 -13.865453 19.722239 0.352051 2.350455 0.049300 -0.025543 241853.000000 1 0 0
14.173023 0.766542 -11.480653 18.255617 0.054032 2.250912 0.020019 -0.006428 229395.000000 1 0 0
15.066323 6.075142 -11.132353 19.693418 0.383285 2.171573 0.046481 -0.022068 -182329.000000 1 0 0
8.320123 1.496442 -11.699753 14.434265 0.177956 2.515894 -0.001092 0.005061 539850.000000 1 0 0
9.905123 1.239642 -8.896753 13.371626 0.124504 2.298753 0.002529 -0.000354 -197915.000000 1 0 0
-0.118377 -5.828658 -12.992653 14.240656 1.550490 2.719817 -0.006259 0.000022 19735.600000 1 0 0
10.707623 -5.728858 -8.957953 15.090325 -0.491274 2.206349 0.029393 -0.010183 -167790.000000 1 0 0
10.343423 8.461742 -11.151453 17.405240 0.685668 2.266200 0.046850 -0.019317 932832.000000 1 0 0
8.548323 8.178242 -14.505453 18.718056 0.763276 2.457423 0.046750 -0.010943 85261.800000 1 0 0
8.745423 10.507942 -10.660253 17.336097 0.876687 2.233076 0.055603 -0.017352 -2110560.000000 1 0 0
6.906523 1.753542 -17.977153 19.337864 0.248643 2.764217 0.023477 -0.001887 -1513730.000000 1 0 0
12.111323 2.573642 -12.850553 17.845013 0.209384 2.374772 0.017032 -0.012449 -728368.000000 1 0 0
2.533123 -0.717158 -19.160753 19.340772 -0.275892 3.005048 0.030403 -0.023370 -324830.000000 1 0 0
10.420723 -2.097858 -15.446853 18.750939 -0.198661 2.538862 0.043164 -0.008383 1361320.000000 1 0 0
8.352723 -0.821358 -13.053453 15.518867 -0.098019 2.570174 0.004882 0.000681 831612.000000 1 0 0
0.576423 4.313842 -14.732353 15.361761 1.437962 2.854346 0.011502 -0.007924 580887.000000 1 0 0
4.013823 -7.677558 -15.550053 17.800556 -1.089076 2.633289 0.011637 -0.003397 -1566540.000000 1 0 0
11.449723 -5.987358 -14.316953 19.285221 -0.481820 2.407411 0.062663 -0.007694 -946835.000000 1 0 0
-5.842877 4.185742 -16.770953 18.246219 -0.621637 2.736705 0.013592 -0.012991 -351954.000000 1 0 0
11.391623 7.676442 -9.082753 16.467945 0.592971 2.155007 0.033856 -0.011029 -2123830.000000 1 0 0
9.681123 6.203942 -13.346253 17.616342 0.569901 2.430434 0.023208 -0.000773 703871.000000 1 0 0
12.095223 0.668142 -10.153553 15.806184 0.055184 2.268394 0.009713 0.002225 -1651240.000000 1 0 0
5.477023 -7.320058 -13.667053 16.442912 -0.928435 2.552027 0.014001 -0.001554 -1371080.000000 1 0 0
8.607923 -10.231658 -10.676853 17.110767 -0.871373 2.244628 0.029097 -0.006943 104819.000000 1 0 0
10.133223 4.755042 -16.118853 19.624221 0.438749 2.534615 0.055201 -0.010051 -164601.000000 1 0 0
9.920423 -0.433558 -10.913053 14.754575 -0.043676 2.403329 0.006274 0.000872 -884817.000000 1 0 0
-1.707577 5.535742 -14.062453 15.208972 -1.271593 2.750821 0.010554 -0.008288 272063.000000 1 0 0
1.406423 -0.665758 -14.975853 15.056474 -0.442117 3.038061 0.013816 -0.005640 -2396890.000000 1 0 0
11.536623 -10.509658 -13.659653 20.739640 -0.738850 2.289787 0.104438 -0.031130 -237335.000000 1 0 0
9.314323 -7.715658 -10.670853 16.129324 -0.691799 2.293721 0.035114 -0.008862 -50892.100000 1 0 0
13.944923 -1.059658 -9.680353 17.008615 -0.075843 2.176261 0.013909 -0.003566 806916.000000 1 0 0
4.086923 11.103242 -12.271553 17.046288 1.218103 2.374449 0.023151 -0.012009 -1128130.000000 1 0 0
-1.332577 2.794842 -17.229153 17.505159 -1.125881 2.963779 0.018269 -0.011351 199766.000000 1 0 0
6.056823 -0.547658 -17.736953 18.750587 -0.090175 2.811281 0.017140 0.000006 -15839.400000 1 0 0
6.455423 -6.655158 -15.946153 18.445688 -0.800632 2.614936 0.027463 -0.000037 559999.000000 1 0 0
-1.602677 -5.284658 -19.965653 20.715296 1.276342 2.871747 0.013046 -0.013130 -530762.000000 1 0 0
-0.118377 -4.410858 -15.184753 15.812855 1.543965 2.858797 -0.001187 -0.004853 293737.000000 1 0 0
0.553623 0.890742 -13.071753 13.113758 1.014696 3.061532 0.012455 -0.006820 705364.000000 1 0 0
15.680023 0.543342 -13.587553 20.755238 0.034638 2.284525 0.070168 -0.019391 715074.000000 1 0 0
-0.156477 6.951642 -16.419553 17.831195 -1.548291 2.741008 0.010050 -0.000374 -292759.000000 1 0 0
-4.973077 -0.518058 -18.190553 18.865208 0.103798 2.873350 0.013769 -0.012156 -492587.000000 1 0 0
10.388123 -8.414758 -12.971453 18.627395 -0.680831 2.341115 0.041969 -0.017949 1146340.000000 1 0 0
4.076323 8.662442 -17.197053 19.682300 1.130965 2.633619 0.035322 -0.015066 -372895.000000 1 0 0
9.071223 0.511142 -17.139253 19.398514 0.056288 2.654152 0.023921 0.000102 -375746.000000 1 0 0
3.310823 4.847642 -18.603053 19.507300 0.971588 2.835923 0.022698 -0.006804 -424006.000000 1 0 0
1.473523 -8.086758 -16.011953 17.998599 -1.390559 2.667314 0.000984 -0.002923 453461.000000 1 0 0
4.560823 7.634842 -14.935553 17.382826 1.032313 2.604526 0.014967 -0.003732 350083.000000 1 0 0
-5.728477 -0.486258 -15.155253 16.209059 0.084681 2.779018 0.013376 -0.008562 -165441.000000 1 0 0
2.963623 3.267342 -13.944353 14.625442 0.834103 2.835211 0.009157 -0.002032 200526.000000 1 0 0
-2.338677 -10.572158 -18.037053 21.037471 1.353091 2.600949 0.020832 -0.006348 -141946.000000 1 0 0
6.094823 -9.215758 -15.445453 18.990499 -0.986485 2.520641 0.012092 -0.004033 41270.700000 1 0 0
-1.795277 5.332542 -17.399153 18.286321 -1.246051 2.828822 0.009560 -0.006609 464512.000000 1 0 0
9.901523 -12.231458 -11.706253 19.613390 -0.890282 2.210366 0.061406 -0.014125 -54845.300000 1 0 0
10.925923 3.616842 -9.317253 14.807719 0.319679 2.251340 0.004603 -0.002708 -923553.000000 1 0 0
4.870523 -0.477258 -10.948253 11.992248 -0.097677 2.721238 0.006168 -0.001401 782632.000000 1 0 0
6.431823 9.549242 -11.496153 16.270153 0.978048 2.355449 0.017060 -0.006648 142037.000000 1 0 0
10.835323 -9.546758 -9.555753 17.316386 -0.722262 2.155357 0.048251 -0.013311 56580.500000 1 0 0
3.203923 -2.367658 -14.411553 14.952049 -0.636416 2.871894 0.008350 -0.002352 63555.000000 1 0 0
9.435023 -4.465658 -14.802553 18.112905 -0.442066 2.527398 0.039392 -0.003855 118763.000000 1 0 0
-3.990477 -6.819258 -16.557253 18.345812 1.041347 2.696356 0.000374 -0.007634 -2270700.000000 1 0 0
5.862923 -7.675558 -11.173553 14.769439 -0.918494 2.428790 0.008957 -0.002347 401418.000000 1 0 0
5.434423 6.494642 -17.116453 19.096761 0.874042 2.682154 0.019330 0.004682 -1261310.000000 1 0 0
8.789723 1.216342 -19.603953 21.518682 0.137509 2.716548 0.043336 -0.012934 338190.000000 1 0 0
13.182923 5.597842 -9.386553 17.124037 0.401556 2.150948 0.012773 -0.010355 465867.000000 1 0 0
-1.683977 -0.808158 -17.336253 17.436587 0.447447 3.034264 0.019003 -0.012703 661411.000000 1 0 0
-0.524077 -0.756958 -19.578853 19.600488 0.965225 3.094603 0.031760 -0.022924 -446432.000000 1 0 0
2.801923 6.437142 -16.640253 18.060608 1.160256 2.742351 0.012507 -0.000972 -125377.000000 1 0 0
7.642523 3.708542 -15.713053 17.862292 0.451779 2.645980 0.016433 -0.000136 658765.000000 1 0 0
3.055423 -9.854258 -14.753653 18.003118 -1.270135 2.531344 0.001906 -0.005436 -614809.000000 1 0 0
8.883923 -10.546958 -13.338153 19.185117 -0.870777 2.339542 0.048120 -0.013157 23659.600000 1 0 0
3.856523 0.152542 -14.659553 15.159107 0.039534 2.884157 0.006858 -0.001664 -2178270.000000 1 0 0
-1.251477 -3.041258 -18.760253 19.046326 1.180416 2.968055 0.022834 -0.015107 -166187.000000 1 0 0
9.442123 10.078342 -13.082153 19.022865 0.817979 2.329122 0.075358 -0.022083 95125.800000 1 0 0
4.626823 2.022742 -10.614453 11.754386 0.412140 2.697546 0.002126 0.002007 87493.300000 1 0 0
-0.607177 6.923142 -18.983253 20.215401 -1.483318 2.790650 0.013845 -0.006423 -1045.650000 1 0 0
0.729123 -1.879058 -17.503353 17.619019 -1.200655 3.026945 0.022134 -0.017737 868080.000000 1 0 0
-4.393977 -2.249358 -14.026853 14.870079 0.473137 2.803213 0.009238 -0.008382 -3096940.000000 1 0 0
10.000923 5.999342 -10.382053 15.614019 0.540330 2.298181 0.011167 -0.000786 65823.100000 1 0 0
8.097923 5.368842 -17.644953 20.143117 0.585453 2.638259 0.054037 -0.015991 -18711.100000 1 0 0
11.304623 0.269642 -13.578853 17.670666 0.023848 2.447197 0.013563 0.002631 258429.000000 1 0 0
7.006723 12.036042 -11.838853 18.278920 1.043609 2.275329 0.052993 -0.023530 -453731.000000 1 0 0
-0.862377 0.496142 -15.227753 15.260220 -0.522074 3.076350 0.014406 -0.012556 132619.000000 1 0 0
-4.387477 -2.951158 -18.913053 19.638301 0.592121 2.868976 0.009518 -0.012449 -276902.000000 1 0 0
5.688823 -11.926858 -13.857653 19.148033 -1.125737 2.379962 0.015068 -0.010602 -54748.400000 1 0 0
2.159223 -4.832358 -14.047153 15.011210 -1.150585 2.781254 0.000900 0.001236 24534.300000 1 0 0
11.807423 1.922142 -15.410053 19.508449 0.161375 2.481470 0.051135 -0.012651 482017.000000 1 0 0
9.697023 2.239342 -13.794853 17.010140 0.226952 2.516618 0.011072 -0.005620 -757015.000000 1 0 0
-2.321977 -4.287958 -16.488553 17.194491 1.074494 2.854051 0.003169 -0.008651 -1361400.000000 1 0 0
-2.887677 10.098242 -14.251453 17.703589 -1.292271 2.506478 0.011743 -0.004941 -121230.000000 1 0 0
3.569623 5.689242 -13.581553 15.151510 1.010449 2.682337 0.007936 0.000237 -232844.000000 1 0 0
-5.020377 -2.591658 -16.491853 17.432788 0.476545 2.811539 0.008753 -0.008413 354990.000000 1 0 0
-4.279477 6.148342 -13.630853 15.553655 -0.962735 2.639082 0.004053 -0.004753 -446244.000000 1 0 0
6.033323 -1.128058 -14.177453 15.449067 -0.184837 2.733023 0.006886 0.002303 -2005420.000000 1 0 0
6.787823 -2.976058 -12.566353 14.589197 -0.413200 2.608710 0.007948 -0.001609 2294300.000000 1 0 0
3.119823 -3.034658 -18.408653 18.916155 -0.771561 2.909429 0.022078 -0.012459 255709.000000 1 0 0
7.333423 -12.039158 -11.922453 18.462537 -1.023690 2.272821 0.028220 -0.009802 -2391290.000000 1 0 0
-5.929977 -5.389258 -17.645153 19.379374 0.737665 2.715317 0.024315 -0.007986 444778.000000 1 0 0
0.500123 8.551442 -11.992853 14.737903 1.512379 2.521358 0.007992 -0.002620 196477.000000 1 0 0
0.502523 8.514042 -14.567853 16.880870 1.511842 2.611935 0.008447 -0.002322 161702.000000 1 0 0
7.811423 -2.522258 -15.018853 17.115667 -0.312326 2.641403 0.016779 -0.007006 -626223.000000 1 0 0
14.373423 1.417942 -8.942553 16.987498 0.098332 2.125180 0.017112 -0.002176 537446.000000 1 0 0
2.864023 10.737242 -14.640953 18.380655 1.310128 2.492349 0.020180 -0.006199 215397.000000 1 0 0
6.182923 1.044242 -15.525453 16.743914 0.167312 2.757742 0.012907 0.001890 619045.000000 1 0 0
16.858023 -5.522458 -10.296653 20.511254 -0.316569 2.096706 0.116665 -0.022013 357179.000000 1 0 0
4.908323 -4.294858 -11.211653 12.970682 -0.718839 2.614721 0.005294 0.001560 -1544150.000000 1 0 0
9.008023 -3.364758 -17.146553 19.658849 -0.357480 2.630489 0.042457 -0.005087 559258.000000 1 0 0
13.283823 -9.643458 -8.814153 18.631841 -0.627934 2.063568 0.073864 -0.024128 -761139.000000 1 0 0
2.241923 -7.736358 -13.582953 15.791582 -1.288732 2.606338 -0.002261 0.003259 58844.800000 1 0 0
-6.854277 -2.348358 -18.251553 19.637084 0.330078 2.763697 0.023597 -0.017425 -1064910.000000 1 0 0
-1.484477 -6.585158 -15.790653 17.173022 1.349075 2.737612 -0.005353 -0.001925 582060.000000 1 0 0
1.633323 -7.484358 -18.504653 20.027619 -1.355933 2.749095 0.017900 0.000605 33504.900000 1 0 0
5.472323 10.676042 -14.415153 18.754221 1.097136 2.447501 0.053981 -0.030609 -1118720.000000 1 0 0
5.442323 -3.523158 -17.311953 18.486082 -0.574519 2.783268 0.024010 -0.007063 66138.400000 1 0 0
4.198523 12.842742 -14.161853 19.573494 1.254831 2.379687 0.038023 -0.021160 92314.600000 1 0 0
9.285823 10.325542 -15.668053 20.936361 0.838365 2.416391 0.102812 -0.027791 428611.000000 1 0 0
2.560423 3.805942 -16.340853 16.972461 0.978598 2.867926 0.012907 -0.003462 321641.000000 1 0 0
16.641323 1.764642 -11.466453 20.286131 0.105645 2.171516 0.064337 -0.017192 473108.000000 1 0 0
10.062323 -3.786358 -10.528253 15.047623 -0.359902 2.345721 0.028638 -0.003843 218985.000000 1 0 0
14.786223 -2.099958 -11.852953 19.066586 -0.141078 2.241658 0.073226 -0.016847 106219.000000 1 0 0
-2.675477 -8.886258 -15.986553 18.484957 1.278349 2.615630 -0.002245 -0.001214 -1490500.000000 1 0 0
13.928923 8.014242 -8.975953 18.406811 0.522110 2.080184 0.042376 -0.011690 -495012.000000 1 0 0
-8.332977 0.108042 -16.576653 18.553587 -0.012965 2.675759 0.019486 -0.012872 -321096.000000 1 0 0
-3.434677 3.811042 -15.929753 16.735533 -0.837295 2.830018 0.013372 -0.012216 1376710.000000 1 0 0
15.180423 3.870942 -9.703253 18.427765 0.249675 2.125341 0.024901 -0.011794 164145.000000 1 0 0
5.551023 1.102442 -12.945053 14.128115 0.196051 2.729443 0.002146 0.000934 544363.000000 1 0 0
7.812523 -7.816558 -12.854053 16.951718 -0.785656 2.431458 0.031404 -0.004986 -737401.000000 1 0 0
3.206023 -6.133658 -11.805153 13.684370 -1.089159 2.611330 0.003504 0.002184 -871779.000000 1 0 0
-3.400477 3.684042 -18.548553 19.214167 -0.825403 2.877609 0.016904 -0.008961 -527628.000000 1 0 0
0.890023 5.121642 -17.821353 18.564050 1.398738 2.857772 0.016524 -0.011060 -1204920.000000 1 0 0
6.327523 7.182242 -10.219053 14.001828 0.848581 2.388880 -0.003518 0.002221 457326.000000 1 0 0
9.710923 3.713942 -11.727253 15.672391 0.365286 2.416254 0.009970 -0.001003 -406372.000000 1 0 0
4.413523 1.452842 -17.482953 18.089875 0.318008 2.881825 0.020003 -0.007282 601707.000000 1 0 0
2.624023 8.061542 -13.290553 15.764287 1.256113 2.573781 0.009226 -0.003080 -1665940.000000 1 0 0
14.502923 -3.611958 -9.834353 17.891213 -0.244085 2.152771 0.051675 -0.010887 286239.000000 1 0 0
-1.211677 9.342742 -16.180553 18.723388 -1.441824 2.614333 0.003866 0.000023 -1822040.000000 1 0 0
-5.262777 1.988342 -15.646053 16.626764 -0.361234 2.796417 0.013686 -0.014235 501264.000000 1 0 0
4.622323 4.157042 -12.023053 13.535164 0.732451 2.664389 0.000203 0.001541 304493.000000 1 0 0
9.174523 3.056742 -17.788853 20.247440 0.321610 2.643662 0.040726 -0.008323 851955.000000 1 0 0
-4.179377 14.472542 -13.230253 20.048971 -1.289665 2.291478 0.030628 -0.011537 -255644.000000 1 0 0
15.638023 -4.916958 -7.961853 18.224032 -0.304636 2.022932 0.068209 -0.012396 -160014.000000 1 0 0
1.196723 9.062542 -17.081153 19.373373 1.439504 2.650211 0.010418 -0.001539 -748283.000000 1 0 0
0.514223 -3.270758 -12.798753 13.220074 -1.414855 2.888450 0.001417 -0.003718 49550.100000 1 0 0
7.522423 3.595542 -13.056553 15.491557 0.445874 2.573293 0.002790 0.002836 391313.000000 1 0 0
-2.876777 7.607842 -15.187853 17.228638 -1.209282 2.649925 0.002269 0.000291 59519.100000 1 0 0
12.266123 -5.195458 -11.080853 17.327315 -0.400652 2.264647 0.043406 -0.009406 -803389.000000 1 0 0
0.742023 -4.267558 -19.931953 20.397191 -1.398642 2.927601 0.031002 -0.020502 -1096940.000000 1 0 0
3.324223 -4.376858 -16.095153 17.007683 -0.921243 2.812531 0.016035 -0.005788 257596.000000 1 0 0
-5.646277 4.092442 -14.281053 15.892671 -0.627179 2.687350 0.005065 -0.008946 389305.000000 1 0 0
12.329023 -7.520058 -9.931353 17.526775 -0.547702 2.173217 0.048862 -0.011536 215187.000000 1 0 0
-1.996577 -1.821958 -14.957553 15.199810 0.739701 2.962815 0.010118 -0.006285 450424.000000 1 0 0
7.198123 5.906142 -14.287753 17.053896 0.687123 2.564037 0.015087 0.003764 75691.300000 1 0 0
4.133323 -5.449858 -18.345353 19.579001 -0.921923 2.784712 0.034084 -0.012907 414120.000000 1 0 0
7.596723 7.309342 -12.278153 16.183007 0.766121 2.432122 0.009202 -0.006116 -556910.000000 1 0 0
12.344823 -2.563658 -11.014753 16.741916 -0.204760 2.288843 0.024385 -0.004116 -500996.000000 1 0 0
7.529023 -0.770958 -10.606353 13.029784 -0.102042 2.521816 0.003745 0.000860 -1032810.000000 1 0 0
5.412423 4.102142 -14.554253 16.060765 0.648546 2.705004 0.002385 0.003418 -206968.000000 1 0 0
14.747123 2.835442 -13.028953 19.881423 0.189953 2.285420 0.042285 -0.022225 235279.000000 1 0 0
-6.626677 6.508742 -15.710753 18.251146 -0.776420 2.607654 0.005305 -0.003515 416874.000000 1 0 0
-11.446877 3.648642 -16.256053 20.213927 -0.308565 2.505126 0.065911 -0.026013 -433724.000000 1 0 0
-4.976677 6.536442 -17.760653 19.568678 -0.920055 2.708343 0.006896 -0.000035 131279.000000 1 0 0
-10.116677 1.576742 -15.479453 18.559276 -0.154612 2.557214 0.046270 -0.022902 -42527.200000 1 0 0
-7.459877 5.760242 -18.014053 20.330673 -0.657535 2.659557 0.014202 -0.004147 -190549.000000 1 0 0
-8.892577 3.862742 -15.779653 18.520155 -0.409787 2.590640 0.018701 0.001967 -1350810.000000 1 0 0
9.190823 13.268442 -11.962553 20.090432 0.964998 2.208604 0.112146 -0.041386 -782836.000000 1 0 0
13.869923 9.124542 -11.371053 20.122944 0.581885 2.171325 0.055314 -0.017690 357637.000000 1 0 0
8.384123 15.893542 -9.188153 20.182179 1.085378 2.043461 0.055564 -0.018514 -204740.000000 1 0 0
7.467523 13.566942 -13.932753 20.831404 1.067630 2.303436 0.090264 -0.026215 228900.000000 1 0 0
4.852823 15.870942 -12.609753 20.843286 1.274056 2.220536 0.061924 -0.032400 -164651.000000 1 0 0
11.210023 10.812042 -11.357953 19.276098 0.767328 2.200895 0.087138 -0.027991 -1023260.000000 1 0 0
15.772723 9.620842 -9.523353 20.785419 0.547716 2.046737 0.085043 -0.013466 -77094.400000 1 0 0
13.235723 10.497842 -9.161253 19.217638 0.670547 2.067705 0.083610 -0.023259 533755.000000 1 0 0
10.485823 11.904042 -8.280353 17.894774 0.848656 2.051863 0.047407 -0.008037 177635.000000 1 0 0
5.563023 16.188442 -10.196353 19.924319 1.239797 2.108022 0.039663 -0.017770 -270908.000000 1 0 0
6.950323 14.655842 -11.705653 20.003075 1.127972 2.195914 0.053122 -0.010316 -504911.000000 1 0 0
10.899423 14.002942 -9.881653 20.310757 0.909386 2.078902 0.090199 -0.016499 -440144.000000 1 0 0
8.291223 -18.652058 -1.219153 20.448227 -1.152508 1.630453 0.057700 -0.003433 -143202.000000 1 0 0
7.404223 -17.253358 -3.308353 19.064262 -1.165419 1.745216 0.046083 -0.015836 -178568.000000 1 0 0
4.371923 -18.323458 5.840947 19.722563 -1.336578 1.270131 0.025373 0.004479 75572.900000 1 0 0
9.783823 -17.072758 -2.530053 19.839441 -1.050416 1.698671 0.055973 -0.009916 -848920.000000 1 0 0
-9.513377 -12.461958 -9.943153 18.565318 0.918778 2.135987 0.040452 -0.013262 -9786.830000 1 0 0
-5.124477 -7.104758 -12.102553 14.940202 0.945935 2.515061 0.004329 -0.004423 1102090.000000 1 0 0
-10.919677 -9.483958 -5.615953 15.515274 0.715148 1.941169 0.028356 -0.007655 -468569.000000 1 0 0
-4.582777 -11.363058 -13.925953 18.548668 1.187444 2.420037 0.014859 -0.012601 688111.000000 1 0 0
-3.107577 -15.426058 7.373547 17.377845 1.372007 1.132600 0.018996 -0.001276 257687.000000 1 0 0
-4.685577 -11.970558 -11.493853 17.244058 1.197704 2.300354 0.015551 -0.007501 105402.000000 1 0 0
-14.482177 -12.805658 -4.286853 19.801400 0.724037 1.789017 0.063137 -0.021766 -360689.000000 1 0 0
-3.341077 -12.303358 -3.186853 13.141212 1.305633 1.815747 0.007802 -0.004397 799689.000000 1 0 0
-2.371477 -17.490658 -1.573453 17.720688 1.436033 1.659705 0.017138 -0.015170 -123286.000000 1 0 0
-5.871877 -12.185358 3.721247 14.028884 1.121750 1.302327 0.003578 -0.000373 330950.000000 1 0 0
-8.926377 -10.658158 -11.894553 18.296364 0.873595 2.278519 0.032284 -0.010805 -194149.000000 1 0 0
-9.655977 -12.101558 -7.436353 17.175126 0.897330 2.018584 0.042558 -0.015946 797857.000000 1 0 0
-11.023077 -14.931258 6.160447 19.555097 0.934854 1.250308 0.043249 -0.014964 -724459.000000 1 0 0
-9.572077 -15.806458 0.729547 18.493269 1.026284 1.531337 0.026508 -0.002913 -1056630.000000 1 0 0
-15.020577 -7.756758 -8.048853 18.723490 0.476688 2.015156 0.042194 -0.012762 60378.800000 1 0 0
-2.417277 -16.532058 5.104247 17.470132 1.425608 1.274301 0.018752 -0.001324 -358894.000000 1 0 0
4.291323 -15.797658 5.850947 17.384333 -1.305554 1.227530 0.024823 -0.007613 -405216.000000 1 0 0
4.173323 -14.606358 -10.020453 18.198126 -1.292492 2.153916 0.007090 -0.004444 321098.000000 1 0 0
-7.579877 -14.116258 -0.239453 16.024376 1.078019 1.585740 0.008417 0.000690 843201.000000 1 0 0
2.901823 -14.901058 9.661247 17.994494 -1.378464 1.004038 0.022683 -0.012602 -33010.700000 1 0 0
2.305423 -17.202858 10.468647 20.269333 -1.437576 1.028065 0.041187 -0.016449 4952.550000 1 0 0
-8.184977 -17.119358 -5.359953 19.717894 1.124812 1.846092 0.054301 -0.020304 -83880.200000 1 0 0
-6.429277 -9.084558 -7.697153 13.531850 0.954911 2.175864 0.016274 -0.006951 345594.000000 1 0 0
-6.093177 -13.128358 -4.825253 15.256594 1.136260 1.892595 0.006029 -0.008931 178608.000000 1 0 0
2.181123 -19.282658 -5.048853 20.051661 -1.458162 1.825328 0.026214 -0.017800 43567.900000 1 0 0
-5.758177 -12.976258 8.309147 16.449371 1.153154 1.041258 0.019157 -0.003347 1024970.000000 1 0 0
2.110223 -17.466458 3.426847 17.924103 -1.450563 1.378425 0.013459 -0.005491 106050.000000 1 0 0
-17.740377 -10.037258 -2.398953 20.523706 0.514882 1.687951 0.060561 -0.022754 366164.000000 1 0 0
-3.641277 -15.470458 2.535447 16.094175 1.339634 1.412599 0.011452 -0.000112 80992.900000 1 0 0
-10.312077 -10.442558 -14.089553 20.344568 0.791685 2.335809 0.043328 -0.016584 -191775.000000 1 0 0
6.086823 -14.657258 -5.587453 16.825702 -1.177190 1.909303 0.009255 -0.007077 563883.000000 1 0 0
-7.155377 -12.233958 -10.826653 17.834953 1.041570 2.223135 0.021294 -0.012731 -916603.000000 1 0 0
-7.262477 -14.372858 3.872247 16.562516 1.102925 1.334816 0.007739 0.000034 674801.000000 1 0 0
3.215623 -14.979658 -3.096653 15.630727 -1.359339 1.770229 0.011956 -0.009045 321572.000000 1 0 0
-7.715077 -11.332858 7.747147 15.747202 0.973093 1.056446 0.018165 -0.011264 -1582210.000000 1 0 0
-12.749577 -12.418058 -1.121053 17.833021 0.772226 1.633702 0.023666 0.001006 1054050.000000 1 0 0
-2.025377 -13.706858 3.956547 14.409524 1.424094 1.292645 0.008873 0.002072 -2959500.000000 1 0 0
-3.300677 -13.917758 5.273947 15.245097 1.337942 1.217552 0.009014 -0.001800 330868.000000 1 0 0
-14.404777 -10.206858 -4.359753 18.184746 0.616458 1.812902 0.034589 -0.014469 507829.000000 1 0 0
-6.144777 -8.723158 -10.333553 14.853757 0.957109 2.340171 0.011064 -0.005883 112759.000000 1 0 0
0.899123 -19.565558 2.428847 19.736230 -1.524874 1.447418 0.026841 -0.004871 179787.000000 1 0 0
6.450623 -14.124658 -8.190053 17.555440 -1.142391 2.056154 0.015281 -0.004468 -2548610.000000 1 0 0
-3.959677 -16.802658 -5.908353 18.246013 1.339361 1.900556 0.008852 -0.010510 -308145.000000 1 0 0
-3.563077 -13.653258 -13.172253 19.303244 1.315521 2.321817 0.034776 -0.006912 -2575580.000000 1 0 0
-8.240277 -14.582358 -4.467453 17.335093 1.056445 1.831449 0.025092 -0.018910 52199.200000 1 0 0
-4.603877 -14.248458 10.154347 18.092126 1.258271 0.974892 0.022365 -0.005926 -1496400.000000 1 0 0
-0.227977 -12.119758 -9.903353 15.653016 1.551988 2.255806 -0.002784 -0.000762 -14083.700000 1 0 0
2.254523 -17.206258 6.867247 18.662724 -1.440509 1.193976 0.017856 -0.006519 -2033180.000000 1 0 0
-3.000877 -19.089358 -3.617153 19.659416 1.414871 1.755841 0.027720 -0.021305 -29935.800000 1 0 0
0.564323 -15.362958 -3.189353 15.700666 -1.534080 1.775355 0.009395 -0.007826 -363409.000000 1 0 0
5.984423 -17.937358 0.584747 18.918352 -1.248780 1.539882 0.029749 -0.003414 -435645.000000 1 0 0
-7.144977 -16.820458 3.939347 18.694838 1.169113 1.358486 0.018433 0.000369 169131.000000 1 0 0
-5.173777 -13.485458 -9.549453 17.315242 1.204458 2.154964 0.017460 -0.009803 -55195.100000 1 0 0
5.735223 -15.224058 -2.150253 16.410006 -1.210518 1.702207 0.019309 -0.006639 -479247.000000 1 0 0
-8.850777 -10.291658 -0.520553 13.584015 0.860528 1.609127 0.005373 0.003777 -310715.000000 1 0 0
-7.413577 -18.491958 -2.797253 20.118108 1.189507 1.710290 0.040318 -0.023683 54666.500000 1 0 0
7.969323 -16.031158 -0.997253 17.930495 -1.109460 1.626443 0.027267 -0.005840 358891.000000 1 0 0
-8.112777 -10.208658 -9.468953 16.115052 0.899298 2.198867 0.027728 -0.012159 462179.000000 1 0 0
-9.000677 -15.270958 -6.980153 19.050902 1.038209 1.945928 0.053064 -0.018120 -44302.700000 1 0 0
-11.561577 -10.471958 -11.787153 19.551699 0.735986 2.217891 0.048387 -0.010235 -14624.200000 1 0 0
6.573623 -16.269758 2.457547 17.718834 -1.186813 1.431651 0.025985 -0.007819 797836.000000 1 0 0
-2.155377 -11.376958 -6.012553 13.047284 1.383564 2.049724 0.001844 -0.003180 169250.000000 1 0 0
-12.473677 -15.313558 -3.491953 20.057204 0.887245 1.745788 0.044989 -0.019059 452523.000000 1 0 0
-0.550377 -19.898958 -3.021053 20.134503 1.543145 1.721409 0.040705 -0.016481 -81083.700000 1 0 0
-5.859977 -15.630658 -4.731153 17.350522 1.212111 1.846975 0.010894 -0.011766 -2899380.000000 1 0 0
1.903623 -15.965158 -1.092853 16.115346 -1.452121 1.638663 0.018082 -0.008792 555715.000000 1 0 0
-13.453077 -11.830158 5.193747 18.652424 0.721297 1.288618 0.041497 -0.009238 251023.000000 1 0 0
2.037923 -15.254858 -8.755153 17.706398 -1.437991 2.088013 0.004889 0.000612 -1480020.000000 1 0 0
-12.005077 -16.629758 0.325147 20.512836 0.945521 1.554945 0.061104 -0.021292 286036.000000 1 0 0
-7.790277 -16.683458 -1.002853 18.439954 1.133940 1.625208 0.039757 -0.012767 1022470.000000 1 0 0
-2.974877 -14.525658 -1.759353 14.931174 1.368788 1.688902 0.007910 -0.006012 709525.000000 1 0 0
-1.831477 -10.502458 -13.220653 16.983568 1.398147 2.462970 -0.002372 -0.004144 115878.000000 1 0 0
1.528123 -19.545958 4.971247 20.226046 -1.492774 1.322467 0.031942 -0.009180 -264939.000000 1 0 0
-17.367377 -9.292358 2.506147 19.855843 0.491290 1.444242 0.034322 -0.012574 -77750.100000 1 0 0
-2.713777 -15.774058 -8.102253 17.939676 1.400424 2.039398 -0.002891 0.000233 -1568390.000000 1 0 0
-10.453677 -12.274758 0.021747 16.122950 0.865351 1.569447 0.004681 0.005565 93854.400000 1 0 0
-6.906477 -11.513058 -6.505253 14.918721 1.030464 2.021997 0.017459 -0.005945 -447520.000000 1 0 0
-2.243977 -13.709458 -6.745453 15.442986 1.408554 2.022831 -0.005775 -0.000442 616107.000000 1 0 0
-14.427877 -14.466758 -0.903653 20.451585 0.786744 1.614996 0.054821 -0.008742 240962.000000 1 0 0
-9.620677 -11.303958 -4.529153 15.519347 0.865670 1.866945 0.025008 -0.005840 1354590.000000 1 0 0
9.529923 -15.191558 -5.035253 18.626772 -1.010533 1.844525 0.034302 -0.009405 319594.000000 1 0 0
-5.516477 -10.922458 -9.300053 15.369534 1.103110 2.220683 0.013962 -0.007907 496289.000000 1 0 0
-10.424877 -16.015458 -5.021853 19.758339 0.993770 1.827779 0.059569 -0.017273 -2435200.000000 1 0 0
2.160223 -17.378758 -3.286553 17.818227 -1.447128 1.756307 0.018410 -0.011102 573168.000000 1 0 0
-0.330177 -14.513758 -8.143653 16.645638 1.548051 2.082010 -0.003422 0.001597 -993262.000000 1 0 0
-0.508377 -18.255058 -7.209053 19.633543 1.542955 1.946772 0.019725 -0.005381 -32135.600000 1 0 0
-1.750977 -9.977558 -10.559153 14.632610 1.397074 2.376933 -0.003846 -0.001493 324336.000000 1 0 0
-5.170677 -17.338858 2.105047 18.215464 1.280980 1.454974 0.024746 -0.006175 -494834.000000 1 0 0
0.249523 -12.806158 -2.547053 13.059381 -1.551314 1.767091 0.008875 -0.005620 -1783350.000000 1 0 0
2.660523 -14.999058 3.203147 15.566319 -1.395243 1.363542 0.016371 -0.003849 -369397.000000 1 0 0
-9.476977 -12.990258 6.790947 17.454995 0.940515 1.171191 0.016702 -0.010537 -482712.000000 1 0 0
-0.887277 -17.897658 -4.576753 18.494866 1.521262 1.820855 0.022423 -0.011833 -313090.000000 1 0 0
-9.849077 -17.523758 -2.393453 20.243889 1.058755 1.689304 0.054885 -0.024619 9447.350000 1 0 0
1.327923 -16.081358 1.378647 16.194879 -1.488408 1.485565 0.016014 -0.010315 506830.000000 1 0 0
-0.405277 -18.080158 4.252747 18.578004 1.548384 1.339835 0.020347 -0.004312 889548.000000 1 0 0
-17.403777 -9.010558 -0.082553 19.598174 0.477735 1.575009 0.028151 -0.010602 858115.000000 1 0 0
-14.883677 -7.409858 -10.631453 19.734681 0.461927 2.139713 0.057369 -0.011622 668247.000000 1 0 0
2.867623 -12.724258 -8.750753 15.706867 -1.349133 2.161721 -0.002592 -0.000999 640012.000000 1 0 0
-11.577577 -14.495858 1.742147 18.633445 0.896860 1.477164 0.028444 -0.010158 148268.000000 1 0 0
-2.340177 -15.508458 10.755647 19.017693 1.421029 0.969684 0.018766 -0.000690 425155.000000 1 0 0
-7.104677 -16.007158 1.357847 17.565571 1.153074 1.493417 0.027634 -0.004815 -1479200.000000 1 0 0
-12.622977 -15.072158 -6.067653 20.574885 0.873602 1.870153 0.060580 -0.014828 -166985.000000 1 0 0
0.798223 -13.703158 -5.045353 14.624270 -1.512611 1.923034 0.003510 -0.003739 243086.000000 1 0 0
5.896023 -16.498358 -7.340053 18.995665 -1.227571 1.967529 0.037900 -0.017317 19437.400000 1 0 0
-6.662877 -12.759658 5.883047 15.550339 1.089560 1.182813 0.012582 -0.005497 179701.000000 1 0 0
-2.591277 -13.589558 0.588547 13.846920 1.382377 1.528280 0.010343 -0.002032 3238270.000000 1 0 0
-4.387277 -15.592258 0.119747 16.198180 1.296513 1.563404 0.011138 -0.006562 178095.000000 1 0 0
-17.675077 -7.480158 -2.127753 19.310320 0.400348 1.681208 0.027901 -0.010640 306266.000000 1 0 0
1.098223 -12.615358 -11.914853 17.387267 -1.483961 2.325761 -0.006464 -0.003272 -699874.000000 1 0 0
1.277823 -17.012758 -5.816153 18.024827 -1.495827 1.899350 0.024086 -0.010637 -792754.000000 1 0 0
-12.945277 -6.497158 -9.072353 17.090958 0.465162 2.130373 0.038721 -0.006096 2375650.000000 1 0 0
-11.319777 -13.812058 -8.615253 19.827579 0.884243 2.020289 0.049117 -0.017986 102276.000000 1 0 0
-4.437577 -9.881258 3.542947 11.396659 1.148699 1.254682 0.006494 -0.000836 -3565320.000000 1 0 0
-7.198377 -14.233958 9.991047 18.821350 1.102584 1.011210 0.026168 -0.007690 -380131.000000 1 0 0
-5.254277 -15.896758 -8.144653 18.618531 1.251575 2.023556 0.020534 -0.010907 -940495.000000 1 0 0
-0.246777 -13.558658 2.163147 13.732345 1.552598 1.412615 0.010687 -0.004319 842004.000000 1 0 0
-11.031177 -13.516258 -4.830353 18.102718 0.886290 1.840899 0.059641 -0.015912 -653672.000000 1 0 0
-9.907477 -10.523558 6.596247 15.887538 0.815543 1.142652 0.026549 -0.009245 -513963.000000 1 0 0
-15.557977 -8.036858 -4.791753 18.154962 0.476819 1.837897 0.039251 -0.010138 517262.000000 1 0 0
-14.740577 -7.306358 5.501347 17.347401 0.460172 1.248097 0.033650 -0.010484 768835.000000 1 0 0
-1.375777 -19.353358 0.077847 19.402353 1.499828 1.566784 0.040981 -0.014535 186622.000000 1 0 0
-15.379077 -12.181758 -1.396453 19.668791 0.669905 1.641855 0.038844 -0.003901 838036.000000 1 0 0
-4.394077 -12.141258 -6.728953 14.560112 1.223548 2.051214 -0.000996 -0.004693 -744560.000000 1 0 0
-7.549877 -18.444758 2.063547 20.036666 1.182278 1.467625 0.041417 -0.006817 173089.000000 1 0 0
-2.444077 -11.854158 -8.634353 14.867637 1.367467 2.190444 -0.005021 -0.000888 436517.000000 1 0 0
-1.394777 -20.296858 -5.385553 21.045475 1.502185 1.829576 0.036800 -0.016634 -405690.000000 1 0 0
-5.425477 -8.942858 -13.780753 17.300857 1.025478 2.492340 0.015373 -0.008919 -146990.000000 1 0 0
-8.677077 -19.228858 -0.738253 21.108900 1.146901 1.605777 0.055189 -0.014239 279522.000000 1 0 0
-17.352377 -7.337358 5.643847 19.667100 0.400044 1.279735 0.049298 -0.011837 161922.000000 1 0 0
-3.643477 -14.628658 -4.316953 15.681474 1.326698 1.849688 0.003130 -0.006507 -3100510.000000 1 0 0
-3.004077 -15.107658 -10.957853 18.903448 1.374512 2.189126 0.014055 0.002067 -374461.000000 1 0 0
-0.209177 -16.649958 6.393047 17.836365 1.558234 1.204213 0.030711 -0.005236 -373876.000000 1 0 0
-11.242477 -11.616458 3.952947 16.642151 0.801757 1.330978 0.017123 -0.001322 397861.000000 1 0 0
-0.243277 -14.636958 -0.187153 14.640176 1.554177 1.583580 0.008512 -0.005536 694700.000000 1 0 0
-7.387177 -9.544258 -2.477153 12.320695 0.912116 1.773232 0.008482 -0.000355 -111197.000000 1 0 0
-11.155977 -14.530558 -0.913153 18.341941 0.916026 1.620602 0.031806 -0.009484 244424.000000 1 0 0
0.313023 -14.624158 -10.633653 18.084207 -1.549395 2.199390 -0.003267 0.001053 -324742.000000 1 0 0
-1.477977 -13.951358 -3.909653 14.564003 1.465252 1.842576 0.007668 -0.004797 -3558440.000000 1 0 0
-11.394777 -8.128558 -7.596853 15.925658 0.619635 2.068057 0.031023 -0.008188 686769.000000 1 0 0
-0.226477 -17.158858 -0.313853 17.163222 1.557598 1.589084 0.014648 -0.013525 -937086.000000 1 0 0
-12.926877 -9.421758 4.537347 16.627122 0.629827 1.294402 0.023065 -0.006004 1501580.000000 1 0 0
3.963723 -16.789258 1.721347 17.336474 -1.338955 1.471342 0.022146 -0.008986 2893300.000000 1 0 0
-3.843977 -18.026458 -8.135153 20.147210 1.360702 1.986447 0.028279 -0.007851 245473.000000 1 0 0
-13.444577 -11.142958 2.665747 17.664325 0.692061 1.419306 0.017668 -0.004306 701335.000000 1 0 0
-8.669077 -12.283558 4.104247 15.584721 0.956224 1.304302 0.009255 -0.001736 1651250.000000 1 0 0
-8.252377 -9.441158 -5.963953 13.885457 0.852485 2.014747 0.018297 -0.007657 -664016.000000 1 0 0
3.832123 -17.339658 -5.322653 18.538596 -1.353289 1.862007 0.012676 -0.004849 -491229.000000 1 0 0
-2.657577 -12.979158 11.414547 17.487514 1.368831 0.859620 0.009561 -0.006138 238952.000000 1 0 0
0.069823 -16.725158 -9.569253 19.269312 -1.566622 2.090480 0.009960 0.001706 -301734.000000 1 0 0
-7.222177 -10.711758 -14.401053 19.346626 0.977577 2.410388 0.030968 -0.007318 -636898.000000 1 0 0
-4.587177 -18.854858 -1.505753 19.463174 1.332144 1.648238 0.038645 -0.025026 -149586.000000 1 0 0
-2.561477 -17.296858 1.069247 17.518155 1.423776 1.509722 0.021855 -0.011983 1742240.000000 1 0 0
4.125123 -14.611458 -7.394053 16.887373 -1.295637 2.023997 0.009812 -0.006907 -646753.000000 1 0 0
-1.042777 -15.919858 -6.117853 17.086760 1.505388 1.936971 0.006314 -0.001905 -505918.000000 1 0 0
-9.738177 -15.036558 8.427547 19.797821 0.996087 1.131082 0.032828 -0.010976 -178380.000000 1 0 0
-7.171777 -12.074458 -1.740453 14.151187 1.034828 1.694098 0.007147 -0.001770 770204.000000 1 0 0
-7.232277 -14.989458 -9.410853 19.119462 1.121254 2.085427 0.037637 -0.016062 60175.100000 1 0 0
-5.074777 -13.263858 -0.607053 14.214493 1.205378 1.613516 0.009734 -0.003289 1149490.000000 1 0 0
-6.384777 -13.741458 -7.297053 16.817848 1.135838 2.019599 0.016746 -0.012597 464124.000000 1 0 0
5.711923 -15.288858 0.320647 16.324156 -1.213253 1.551153 0.016870 -0.005131 173194.000000 1 0 0
-14.320977 -12.794258 0.976047 19.228523 0.729153 1.520014 0.010511 -0.005204 1006400.000000 1 0 0
0.752023 -15.153758 11.140147 18.822986 -1.521211 0.937460 0.019413 -0.012458 -11442.400000 1 0 0
-9.479377 -10.803258 1.914247 14.499425 0.850577 1.438387 0.005324 0.003957 569273.000000 1 0 0
-9.430577 -8.830358 -3.688753 13.435695 0.752541 1.848917 0.017025 -0.001744 -712019.000000 1 0 0
-12.247877 -7.115158 -12.174653 18.677744 0.526279 2.280787 0.047398 -0.012334 697688.000000 1 0 0
-13.320677 -8.342458 -0.647753 15.730754 0.559518 1.611985 0.010579 -0.002657 -910761.000000 1 0 0
-11.270077 -9.831758 0.309647 14.959077 0.717343 1.550095 0.002377 0.004999 600212.000000 1 0 0
-15.908677 -12.077258 2.871347 20.178969 0.649339 1.428018 0.054695 -0.006203 -260354.000000 1 0 0
-10.435877 -12.544158 -2.436053 16.498418 0.876886 1.718992 0.030038 -0.009699 924006.000000 1 0 0
-3.512177 -9.066858 -12.038653 15.474898 1.201230 2.462188 0.000781 -0.000457 591899.000000 1 0 0
-0.327677 -15.562358 3.876247 16.041186 1.549744 1.326737 0.018202 -0.002645 -517039.000000 1 0 0
-15.693977 -7.703958 1.282147 17.529854 0.456330 1.497590 0.006804 -0.006760 236920.000000 1 0 0
-6.020177 -13.451558 -13.245953 19.815201 1.149986 2.302952 0.022316 -0.007978 -1018580.000000 1 0 0
-15.312577 -10.294958 1.139747 18.486758 0.591907 1.509105 0.016481 -0.005616 629801.000000 1 0 0
-9.963077 -8.427658 -12.512453 18.078988 0.702103 2.335190 0.037809 -0.010036 769531.000000 1 0 0
-13.468277 -11.560358 -6.375553 18.859587 0.709316 1.915644 0.055623 -0.014728 123936.000000 1 0 0
-12.263777 -11.506458 -3.993253 17.284238 0.753549 1.803937 0.035556 -0.005313 -301530.000000 1 0 0
-11.645277 -11.212358 -9.048853 18.525960 0.766461 2.081099 0.042994 -0.014607 883466.000000 1 0 0
-13.268577 -8.305558 -5.874053 16.719507 0.559287 1.929787 0.025721 -0.011754 -2488740.000000 1 0 0
-13.470577 -8.071358 -3.213953 16.029122 0.539819 1.772672 0.019404 -0.006251 97385.000000 1 0 0
-4.287477 -16.872758 -3.188553 17.698567 1.321956 1.751944 0.012996 -0.022004 196395.000000 1 0 0
-15.456877 -8.928558 -1.821753 17.943048 0.523818 1.672501 0.026329 -0.006136 -29994.900000 1 0 0
-9.399077 -15.788158 3.652447 18.733632 1.033822 1.374572 0.021510 -0.006710 -2043480.000000 1 0 0
4.552523 -17.165658 8.122847 19.528593 -1.311553 1.141813 0.036034 -0.022097 302477.000000 1 0 0
-8.449077 -15.391558 6.041147 18.568318 1.068766 1.239418 0.016251 -0.000537 513944.000000 1 0 0
0.779423 -16.014858 8.675547 18.230422 -1.522166 1.074829 0.019215 -0.008704 187361.000000 1 0 0
-10.859077 -7.744958 -10.105353 16.733860 0.619546 2.219164 0.035530 -0.013143 1098370.000000 1 0 0
-4.837477 -16.055158 5.508847 17.649835 1.278144 1.253374 0.019363 -0.005389 -1394980.000000 1 0 0
-1.518577 -13.206858 -11.869453 17.821646 1.456315 2.299648 0.001660 -0.007235 -939371.000000 1 0 0
-6.455577 -14.397858 -2.519553 15.978765 1.149298 1.729138 0.013825 -0.007781 458722.000000 1 0 0
-17.812277 -6.869758 -7.237053 20.416800 0.368097 1.933139 0.060059 -0.016207 27407.400000 1 0 0
-17.189077 -3.864258 -10.342553 20.429519 0.221133 2.101633 0.045764 -0.014456 365228.000000 1 0 0
-15.399877 -5.333358 -9.120153 18.675602 0.333397 2.080990 0.039496 -0.012792 718839.000000 1 0 0
-16.155677 -5.388158 -5.828153 18.000153 0.321914 1.900522 0.030739 -0.006914 172883.000000 1 0 0
-15.235677 -4.566558 -12.555653 20.263853 0.291207 2.239040 0.053588 -0.010215 -1034920.000000 1 0 0
-18.726777 -5.166358 -5.605153 20.218832 0.269185 1.851700 0.052683 -0.014041 -307105.000000 1 0 0
-17.592877 -4.293458 -7.794153 19.715271 0.239366 1.977230 0.049495 -0.010223 852395.000000 1 0 0
12.325923 -7.847058 8.797347 17.055733 -0.566919 1.028855 0.039942 -0.015670 109760.000000 1 0 0
16.154423 -3.371658 1.914647 16.613227 -0.205760 1.455291 0.037231 -0.007344 758647.000000 1 0 0
12.026423 -2.211058 12.523947 17.503510 -0.181820 0.773442 0.047223 -0.008848 357187.000000 1 0 0
9.715523 -10.003158 5.291147 14.914784 -0.799984 1.208141 0.011211 -0.011122 453816.000000 1 0 0
16.808423 -1.676558 7.246047 18.380401 -0.099416 1.165570 0.061586 -0.019954 94997.700000 1 0 0
5.078723 -12.680258 9.116047 16.422079 -1.189840 0.982302 0.010435 -0.002822 -325320.000000 1 0 0
15.187223 -8.947058 -2.128253 17.754747 -0.532379 1.690955 0.055682 -0.015404 -336291.000000 1 0 0
11.042323 -8.470058 6.504247 15.361641 -0.654327 1.133592 0.019262 -0.012980 -2607230.000000 1 0 0
20.122223 -3.027658 3.676947 20.678262 -0.149343 1.392029 0.109339 -0.019883 779974.000000 1 0 0
13.528023 -8.560758 6.692147 17.351623 -0.564201 1.174853 0.039060 -0.017942 -1245050.000000 1 0 0
8.314023 -11.029458 8.865847 16.412653 -0.924867 1.000141 0.009840 -0.003968 -630785.000000 1 0 0
17.037123 0.081742 -0.940253 17.063244 0.004798 1.625928 0.046265 0.001269 -1553140.000000 1 0 0
12.432823 -12.245658 2.414347 17.617046 -0.777814 1.433318 0.033581 -0.018242 -2550780.000000 1 0 0
10.414723 -11.393458 3.606447 15.851934 -0.830247 1.341278 0.019997 -0.016510 394266.000000 1 0 0
16.347823 3.178742 2.410947 16.827608 0.192048 1.427028 0.025184 -0.003837 -291014.000000 1 0 0
18.410123 -3.197658 0.680247 18.698138 -0.171975 1.534408 0.077109 -0.013092 -391114.000000 1 0 0
13.499323 -11.572958 -0.197853 17.782132 -0.708716 1.581923 0.049045 -0.012099 -396739.000000 1 0 0
17.024123 -7.590258 -0.803253 18.656848 -0.419400 1.613864 0.073757 -0.014170 569745.000000 1 0 0
10.173823 -5.641858 9.690547 15.140804 -0.506327 0.876261 0.021622 -0.010374 -934242.000000 1 0 0
11.427523 -13.422358 5.952447 18.605902 -0.865502 1.245149 0.037861 -0.013512 -920940.000000 1 0 0
13.143823 -1.755658 10.322747 16.804807 -0.132787 0.909331 0.041955 -0.010878 317492.000000 1 0 0
15.561923 -1.971558 -1.315653 15.741392 -0.126020 1.654473 0.032685 -0.002156 -489942.000000 1 0 0
10.570223 -12.334058 8.873847 18.509559 -0.862255 1.070803 0.044046 -0.022127 25007.400000 1 0 0
14.722723 1.199842 3.324547 15.141030 0.081316 1.349421 0.016713 -0.002900 612929.000000 1 0 0
14.895923 -5.959458 5.254747 16.882418 -0.380569 1.254282 0.044064 -0.018240 -39456.800000 1 0 0
14.318223 -3.408858 -3.035853 15.028247 -0.233727 1.774206 0.018504 -0.002211 1504240.000000 1 0 0
14.172923 0.599142 9.576047 17.115239 0.042249 0.977009 0.047197 -0.006335 992124.000000 1 0 0
15.503023 -3.553058 4.546547 16.542038 -0.225294 1.292365 0.038089 -0.011626 -72166.200000 1 0 0
18.466323 4.803942 -4.255353 19.549705 0.254505 1.790221 0.040607 -0.011085 342293.000000 1 0 0
18.340023 -5.808258 -4.997153 19.876213 -0.306705 1.824937 0.111431 -0.020237 776460.000000 1 0 0
17.579523 0.067042 5.724147 18.488104 0.003814 1.256011 0.073301 -0.007177 594799.000000 1 0 0
17.120823 -6.737158 4.113747 18.852978 -0.374896 1.350825 0.069197 -0.021508 -884294.000000 1 0 0
9.695623 -6.683058 14.273047 18.503736 -0.603499 0.689820 0.045538 -0.007832 -120296.000000 1 0 0
8.559323 -12.266058 5.238747 15.848112 -0.961545 1.233900 0.013358 -0.012489 -832335.000000 1 0 0
16.781423 -10.280358 -0.634253 19.690205 -0.549635 1.603013 0.057663 -0.010324 -44580.200000 1 0 0
14.992223 -8.769658 0.446847 17.374502 -0.529278 1.545075 0.055038 -0.016207 306005.000000 1 0 0
10.036523 -12.917358 1.607147 16.436936 -0.910251 1.472863 0.024732 -0.015881 240266.000000 1 0 0
16.894223 -8.199958 8.967347 20.810271 -0.451876 1.125296 0.082323 -0.021980 311355.000000 1 0 0
19.243323 0.107542 -2.371253 19.389169 0.005588 1.693401 0.088968 0.001494 251330.000000 1 0 0
13.390223 -1.287358 7.756247 15.527869 -0.095847 1.047769 0.025316 -0.011468 -581625.000000 1 0 0
12.872823 -9.737258 -3.017153 16.420322 -0.647597 1.755591 0.035531 -0.010834 76603.400000 1 0 0
8.906523 -15.226858 1.480747 17.702428 -1.041537 1.487052 0.031767 -0.006748 1689130.000000 1 0 0
11.462823 -8.284958 11.084447 17.969469 -0.625843 0.906063 0.052277 -0.016573 -229771.000000 1 0 0
13.992423 -4.013458 -0.532953 14.566392 -0.279332 1.607392 0.019517 -0.003786 12407.500000 1 0 0
7.142823 -13.242758 10.632747 18.424057 -1.076146 0.955608 0.022992 -0.002749 -262915.000000 1 0 0
15.555323 -6.713658 1.908347 17.049430 -0.407447 1.458631 0.047380 -0.014758 503410.000000 1 0 0
16.057623 -6.094358 -2.560453 17.365033 -0.362737 1.718785 0.080081 -0.011715 298644.000000 1 0 0
11.187223 -8.479758 3.880147 14.564196 -0.648593 1.301123 0.018772 -0.012191 557552.000000 1 0 0
10.698323 -14.382458 -0.367253 17.928862 -0.931246 1.591282 0.046082 -0.016152 643382.000000 1 0 0
13.650723 -12.863058 4.629147 19.319148 -0.755699 1.328828 0.044124 -0.010438 97751.300000 1 0 0
12.762523 -11.239458 6.535747 18.218765 -0.722027 1.203882 0.034909 -0.013372 826936.000000 1 0 0
10.894423 -10.432258 1.344247 15.143561 -0.763731 1.481912 0.018835 -0.011987 197231.000000 1 0 0
13.910323 -7.602858 11.783947 19.752517 -0.500200 0.931564 0.065149 -0.025876 -196316.000000 1 0 0
15.349423 -1.882958 -4.977753 16.245871 -0.122063 1.882206 0.036982 -0.002076 -359760.000000 1 0 0
12.870423 -11.364958 -6.847753 18.485177 -0.723359 1.950285 0.067163 -0.018388 424194.000000 1 0 0
17.819723 -5.306158 2.092347 18.710311 -0.289409 1.458733 0.085982 -0.015394 782762.000000 1 0 0
10.655623 -9.765858 9.145247 17.104088 -0.741856 1.006665 0.030637 -0.009668 -1574070.000000 1 0 0
16.472523 1.959542 9.757947 19.245814 0.118402 1.039076 0.082817 -0.011816 697458.000000 1 0 0
18.103623 3.468042 0.525847 18.440309 0.189273 1.542276 0.028156 -0.001857 288549.000000 1 0 0
13.272123 -4.045258 5.775247 15.028867 -0.295849 1.176372 0.022377 -0.013621 -545614.000000 1 0 0
12.129923 -6.214758 6.616947 15.150651 -0.473478 1.118821 0.024602 -0.014889 -123681.000000 1 0 0
16.672623 -10.326458 3.697047 19.956960 -0.554538 1.384469 0.055377 -0.013477 -495347.000000 1 0 0
16.255723 -8.019958 -5.640853 18.983874 -0.458323 1.872491 0.085439 -0.017536 448256.000000 1 0 0
14.095723 -0.382058 5.366747 15.087655 -0.027098 1.207129 0.017901 -0.004611 238954.000000 1 0 0
18.570923 -4.313058 5.198447 19.761212 -0.228202 1.304600 0.100875 -0.014584 286556.000000 1 0 0
13.614723 -13.572058 7.117547 20.499291 -0.783829 1.216203 0.066173 -0.013236 -290803.000000 1 0 0
15.010723 -13.601358 -0.875153 20.275222 -0.736180 1.613973 0.058664 -0.009109 819061.000000 1 0 0
17.853123 -6.002558 8.007847 20.466810 -0.324345 1.168796 0.092910 -0.019669 -418385.000000 1 0 0
14.281323 3.283942 9.073347 17.235605 0.226018 1.016400 0.031306 -0.010219 -943856.000000 1 0 0
18.785423 3.940342 3.037447 19.433077 0.206758 1.413850 0.060047 -0.008413 178201.000000 1 0 0
14.683523 -10.415658 8.156747 19.764218 -0.616969 1.145377 0.047128 -0.022445 -638609.000000 1 0 0
14.957023 -4.868258 10.344747 18.826212 -0.314669 0.989047 0.069830 -0.023662 197582.000000 1 0 0
17.842023 -7.974958 1.927947 19.638093 -0.420336 1.472464 0.095160 -0.022215 -232480.000000 1 0 0
18.592423 -5.792658 -1.757753 19.553076 -0.302028 1.660814 0.093298 -0.016151 -446119.000000 1 0 0
14.379523 -12.839158 -5.297753 19.992019 -0.728866 1.838993 0.077440 -0.022519 -383108.000000 1 0 0
15.388023 -1.589658 9.427747 18.116310 -0.102940 1.023476 0.083951 -0.016555 -1065620.000000 1 0 0
12.994223 -10.065058 10.266847 19.379457 -0.659047 1.012455 0.043419 -0.021107 -1073840.000000 1 0 0
16.659223 2.104242 4.713347 17.440561 0.125646 1.297142 0.044518 -0.008036 -1819310.000000 1 0 0
15.033223 2.451442 0.027447 15.231812 0.161646 1.568994 0.013297 0.004664 -1164640.000000 1 0 0
15.049223 -9.897458 -7.018553 19.331292 -0.581750 1.942354 0.078319 -0.018812 646097.000000 1 0 0
16.059023 0.001042 -3.272553 16.389076 0.000065 1.771827 0.029853 0.003596 101279.000000 1 0 0
12.090723 2.533042 13.597147 18.370746 0.206516 0.737500 0.057777 -0.005179 -154085.000000 1 0 0
17.662223 -2.857858 9.426547 20.223285 -0.160416 1.085892 0.080348 -0.024482 1248070.000000 1 0 0
7.810023 -18.126058 4.463047 20.235346 -1.163962 1.348411 0.051774 -0.015204 -371967.000000 1 0 0
6.698823 -11.224158 6.636647 14.659503 -1.032717 1.100983 0.009696 -0.008185 296664.000000 1 0 0
18.058123 2.291242 -1.821153 18.293774 0.126207 1.670512 0.049989 0.002843 457777.000000 1 0 0
17.695123 -2.306058 3.758347 18.236240 -0.129591 1.363217 0.046887 -0.007044 -589193.000000 1 0 0
12.624423 -13.322258 -1.928753 18.454774 -0.812287 1.675500 0.046055 -0.007445 2017070.000000 1 0 0
15.220023 -8.364258 4.419947 17.920542 -0.502502 1.321583 0.048729 -0.017660 -530641.000000 1 0 0
11.869623 -2.979958 14.954647 19.323808 -0.245974 0.685824 0.066960 -0.014740 -225981.000000 1 0 0
12.109723 -13.729258 -6.197853 19.327475 -0.847994 1.897239 0.043852 -0.023001 182406.000000 1 0 0
10.630623 -11.923858 -1.129653 16.014514 -0.842674 1.641394 0.028463 -0.013047 -850643.000000 1 0 0
13.272423 -7.983058 2.199647 15.643685 -0.541505 1.429720 0.035214 -0.012990 451929.000000 1 0 0
8.796423 -7.799858 9.986947 15.425756 -0.725423 0.866602 0.015328 -0.004674 -1255490.000000 1 0 0
15.616923 -3.819758 7.981047 17.949260 -0.239881 1.110019 0.072442 -0.026528 -422630.000000 1 0 0
10.064523 -17.057158 5.427247 20.535245 -1.037727 1.303329 0.055642 -0.016530 -1111700.000000 1 0 0
15.235723 -6.368358 8.269747 18.468133 -0.395917 1.106510 0.057424 -0.017155 86106.400000 1 0 0
16.688823 -5.006658 -0.241153 17.425314 -0.291457 1.584636 0.057670 -0.006426 -317994.000000 1 0 0
14.068023 -10.546658 3.470547 17.921662 -0.643303 1.375914 0.044258 -0.015703 240525.000000 1 0 0
15.021923 -9.960558 -4.440453 18.563095 -0.585507 1.812347 0.076349 -0.022363 377662.000000 1 0 0
13.702523 -6.493058 0.089147 15.163340 -0.442517 1.564917 0.030285 -0.009134 106397.000000 1 0 0
17.819623 -0.978358 -4.970553 18.525726 -0.054848 1.842430 0.076875 -0.008688 651241.000000 1 0 0
14.442923 0.303242 -1.417253 14.515460 0.020993 1.668590 0.015833 0.004244 -553784.000000 1 0 0
4.892123 -12.826958 11.654147 18.007856 -1.206432 0.866930 0.010692 -0.002198 -608683.000000 1 0 0
12.068523 -7.429258 13.485047 19.562454 -0.551804 0.810228 0.066571 -0.017651 -126793.000000 1 0 0
12.023723 -5.784158 11.513047 17.623185 -0.448383 0.858875 0.041531 -0.014186 -557186.000000 1 0 0
13.288823 -4.605758 8.330647 16.346422 -0.333633 1.036040 0.037309 -0.017875 -629327.000000 1 0 0
15.424723 -1.233858 3.219947 15.805459 -0.079822 1.365636 0.030659 -0.000968 -31130.900000 1 0 0
15.136523 -10.474358 5.819447 19.305244 -0.605331 1.264590 0.051781 -0.016044 -315136.000000 1 0 0
13.715923 -8.021458 -5.744353 16.895796 -0.529189 1.917700 0.061455 -0.016713 -3044060.000000 1 0 0
9.791023 -2.385758 13.716147 17.020243 -0.239010 0.633649 0.034631 -0.004085 -311252.000000 1 0 0
10.064423 -9.169758 13.660647 19.287051 -0.738917 0.783737 0.068356 -0.008479 -192808.000000 1 0 0
20.348223 6.273442 -3.142253 21.523940 0.299058 1.717309 0.097938 -0.017066 1263150.000000 1 0 0
11.275823 -3.580058 10.558247 15.856783 -0.307432 0.842163 0.022023 -0.007089 709778.000000 1 0 0
10.264623 -13.971358 -2.881253 17.574497 -0.937166 1.735485 0.031921 -0.006185 44567.800000 1 0 0
14.889423 -12.813958 2.325247 19.781284 -0.710620 1.452976 0.048676 -0.007172 328675.000000 1 0 0
11.349223 -0.347758 14.257247 18.226215 -0.030632 0.672545 0.056858 -0.010811 326075.000000 1 0 0
19.113023 -1.948458 6.037347 20.138364 -0.101593 1.266320 0.101720 -0.011376 372228.000000 1 0 0
18.832623 -0.090758 7.917147 20.429321 -0.004819 1.172836 0.085474 -0.014040 175703.000000 1 0 0
19.348023 0.788842 0.054747 19.364174 0.040749 1.567969 0.096140 -0.009744 282598.000000 1 0 0
18.572623 0.802342 3.446647 18.906757 0.043173 1.387474 0.060800 -0.011139 210587.000000 1 0 0
16.707523 -4.013658 -4.189253 17.686170 -0.235763 1.809935 0.073182 -0.012697 -455670.000000 1 0 0
11.178523 -8.230558 15.790747 21.024965 -0.634664 0.721149 0.099536 -0.020945 212912.000000 1 0 0
16.653023 -7.644158 6.428047 19.418448 -0.430334 1.233404 0.068523 -0.015039 316685.000000 1 0 0
19.083123 2.238242 5.672047 20.033657 0.116756 1.283745 0.084151 -0.014788 412421.000000 1 0 0
15.353723 1.598242 7.417747 17.126417 0.103721 1.122848 0.047083 -0.011855 -25182.400000 1 0 0
8.696623 -15.705858 3.888847 18.369223 -1.065103 1.357478 0.031330 -0.013888 305867.000000 1 0 0
11.487723 -14.954258 2.184047 18.983352 -0.915754 1.455490 0.045457 -0.007731 192745.000000 1 0 0
7.771623 -16.064858 6.172747 18.883342 -1.120221 1.237787 0.030730 -0.015645 87677.400000 1 0 0
14.685023 -11.536858 -2.420753 18.831066 -0.665911 1.699704 0.059818 -0.013355 477927.000000 1 0 0
13.716523 -4.814058 3.215947 14.888266 -0.337537 1.353075 0.023706 -0.008320 -364602.000000 1 0 0
-1.059477 10.039542 -5.530253 11.510803 -1.465655 2.071953 0.003022 0.007462 -1535320.000000 1 0 0
8.337723 -1.787758 -8.015753 11.703247 -0.211220 2.325286 0.006525 -0.001396 -2043230.000000 1 0 0
2.787923 -10.123058 7.705047 13.023693 -1.302055 0.937732 0.007821 -0.003751 838342.000000 1 0 0
-6.267777 1.305042 8.326347 10.503153 -0.205281 0.655493 0.002180 -0.002097 -96700.300000 1 0 0
7.284723 -6.331158 -7.124153 11.996012 -0.715479 2.206665 0.005071 -0.002178 -65933.100000 1 0 0
-11.444177 -4.478558 -4.160353 12.974406 0.373018 1.897221 0.008412 -0.002209 288327.000000 1 0 0
2.123223 -3.141758 2.803247 4.715603 -0.976492 0.934200 0.008165 -0.003473 2166090.000000 1 0 0
-3.597777 -4.156658 8.906947 10.466877 0.857346 0.552976 0.006825 -0.002745 -1734390.000000 1 0 0
-4.775077 -1.129358 -2.421753 5.471901 0.232243 2.029270 0.010235 -0.003281 31417.100000 1 0 0
5.002423 -5.160758 -3.596653 8.037012 -0.800976 2.034777 0.009168 -0.005973 145932.000000 1 0 0
2.970123 14.298142 -9.017853 17.163338 1.365981 2.123998 0.014477 -0.004486 -21585.300000 1 0 0
5.441723 -5.567558 13.657347 15.720470 -0.796828 0.518099 0.020279 -0.008048 -1467020.000000 1 0 0
-4.727077 -0.902858 9.884247 10.993578 0.188724 0.453104 0.008232 -0.002027 -2110520.000000 1 0 0
-0.932377 11.936442 -2.732153 12.280580 -1.492843 1.795151 -0.000148 0.003997 -77150.500000 1 0 0
3.176823 9.427342 -10.517053 14.476718 1.245768 2.383983 0.007764 -0.001294 -177032.000000 1 0 0
-10.673477 2.677542 1.118647 11.060910 -0.245787 1.469488 -0.003912 -0.000179 63826.400000 1 0 0
5.707023 -9.104058 -0.708353 10.768275 -1.010856 1.636625 0.004219 -0.008836 704152.000000 1 0 0
-7.006777 5.471942 9.305247 12.869526 -0.663017 0.762596 -0.001889 -0.003706 -101769.000000 1 0 0
-5.705177 -1.871458 5.168047 7.922128 0.316968 0.860108 0.003453 -0.004259 360717.000000 1 0 0
6.669923 -3.812858 -7.329853 10.618498 -0.519313 2.332687 0.007737 -0.001735 655444.000000 1 0 0
6.306523 4.807442 11.059047 13.608316 0.651325 0.622080 0.004670 -0.003662 652240.000000 1 0 0
3.667623 -9.928658 3.251347 11.072532 -1.216946 1.272763 0.000575 -0.004750 1016150.000000 1 0 0
-6.743377 6.573942 -5.858253 11.090941 -0.772676 2.127278 0.006829 -0.002888 -187977.000000 1 0 0
-11.118877 8.389442 5.280947 14.896328 -0.646389 1.208403 -0.000389 -0.004016 566619.000000 1 0 0
-9.200977 -5.456658 5.134447 11.865734 0.535295 1.123297 0.003666 -0.003028 -635823.000000 1 0 0
3.252723 9.848542 -8.004853 13.101590 1.251801 2.228098 0.004120 0.002274 660018.000000 1 0 0
-8.188877 -8.691858 6.026847 13.376434 0.815185 1.103407 0.007593 -0.000219 -3044820.000000 1 0 0
-7.875177 -5.736358 -7.390453 12.228778 0.629540 2.219745 0.014324 -0.003633 -832639.000000 1 0 0
9.224323 -1.533858 6.895847 11.618673 -0.164776 0.935378 0.003393 -0.006266 1706230.000000 1 0 0
-4.073777 -0.434258 -4.878953 6.370904 0.106197 2.443109 0.011333 -0.006688 -620621.000000 1 0 0
9.098723 1.110942 -4.396553 10.166151 0.121497 2.018026 0.003764 0.001548 -823478.000000 1 0 0
-2.068377 -10.622958 10.583847 15.137478 1.378494 0.796544 0.004981 -0.006097 145807.000000 1 0 0
-12.867277 0.166742 -2.599353 13.128262 -0.012958 1.770110 0.003296 -0.002510 -446020.000000 1 0 0
-9.912577 -5.127158 -6.070253 12.704129 0.477342 2.068965 0.012846 -0.004312 -2137760.000000 1 0 0
-5.563877 8.404242 -0.078453 10.079393 -0.986009 1.578580 0.003838 -0.000326 536092.000000 1 0 0
6.325723 9.679542 0.486147 11.573446 0.991954 1.528779 0.007231 -0.001046 303008.000000 1 0 0
-0.588877 -12.103958 0.053347 12.118392 1.522183 1.566394 0.011244 -0.004227 -262979.000000 1 0 0
6.226023 4.754042 2.403647 8.194010 0.652133 1.273076 0.003607 -0.001488 642365.000000 1 0 0
3.436123 -7.471858 -8.078953 11.528446 -1.139761 2.347292 -0.000319 0.000344 575563.000000 1 0 0
-6.631177 -9.905058 4.595347 12.774972 0.980853 1.202834 0.006929 0.000214 -2560660.000000 1 0 0
-0.061077 6.368542 -9.207753 11.195748 -1.561206 2.536471 0.011932 -0.001434 -1725600.000000 1 0 0
-17.390777 -2.755658 4.270047 18.118115 0.157149 1.332880 0.046363 -0.010241 -63993.200000 1 0 0
-8.443077 0.924142 -9.162953 12.493970 -0.109022 2.394092 0.006728 -0.005336 1039950.000000 1 0 0
-9.966377 -5.868358 -11.879153 16.579523 0.532155 2.369562 0.021496 -0.003748 -128739.000000 1 0 0
2.204423 9.411942 6.409047 11.598277 1.340728 0.985332 -0.000193 0.002973 -595849.000000 1 0 0
-11.311677 1.718342 -1.265153 11.511184 -0.150756 1.680925 0.002320 -0.001637 -2057590.000000 1 0 0
-6.049577 -5.283658 -3.032653 8.585535 0.717919 1.931816 0.016432 -0.003364 270361.000000 1 0 0
-7.086677 -8.412058 1.410547 11.089335 0.870706 1.443252 0.006777 0.001134 -526637.000000 1 0 0
0.011223 10.891942 -7.834153 13.416724 1.569766 2.194332 0.008117 0.003218 146117.000000 1 0 0
-3.013577 9.256642 -4.221153 10.610617 -1.256059 1.979940 0.007594 0.000900 -608799.000000 1 0 0
3.531523 -4.832058 9.380147 11.126886 -0.939663 0.567930 0.004449 -0.001358 -1053780.000000 1 0 0
-8.992477 1.576642 -0.362053 9.136823 -0.173565 1.610432 -0.000422 -0.001403 -1695890.000000 1 0 0
2.494623 3.554942 -10.546053 11.405261 0.958908 2.750953 0.007090 -0.002064 122692.000000 1 0 0
-13.696877 0.514342 1.075247 13.748642 -0.037534 1.492509 -0.001860 -0.002376 39786.500000 1 0 0
9.488323 -12.627358 -5.058853 16.585247 -0.926393 1.880757 0.027542 -0.008616 -1614890.000000 1 0 0
-4.706877 9.379942 -8.285853 13.371363 -1.105708 2.239120 0.008430 0.000064 389901.000000 1 0 0
-2.315677 7.221342 8.387147 11.307271 -1.260485 0.735123 0.002766 0.000159 532587.000000 1 0 0
-10.791477 -1.270858 -4.415753 11.729021 0.117225 1.956791 0.006647 -0.003759 -2452300.000000 1 0 0
2.734523 -7.173558 9.747747 12.407906 -1.206606 0.667119 0.001350 -0.001466 -1978790.000000 1 0 0
-16.235477 -6.508658 3.450247 17.828560 0.381274 1.376044 0.025398 -0.008192 -766532.000000 1 0 0
-10.789877 -0.016458 6.219947 12.454295 0.001525 1.047865 -0.002446 -0.001813 -580897.000000 1 0 0
-8.351977 9.961442 9.428447 16.058688 -0.873057 0.943294 0.000849 -0.004341 -70573.900000 1 0 0
0.280223 -6.067958 -3.616853 7.069672 -1.524648 2.107844 0.004348 -0.001979 655899.000000 1 0 0
4.971923 1.431342 -2.808453 5.886948 0.280305 2.068108 0.001885 0.000537 -583406.000000 1 0 0
0.390623 5.424842 3.846247 6.661465 1.498914 0.955271 0.003160 0.000190 -1464720.000000 1 0 0
6.088323 -11.349458 -1.498453 12.966234 -1.078422 1.686621 0.005050 -0.009374 -877696.000000 1 0 0
6.240323 -13.526558 5.206747 15.780355 -1.138553 1.234544 0.011742 -0.009990 -8974.120000 1 0 0
8.164523 -8.319058 -5.815953 13.026568 -0.794773 2.033611 0.006883 -0.004580 694377.000000 1 0 0
-13.241277 -1.352958 -4.729053 14.125362 0.101824 1.912180 0.006805 -0.003151 -3686920.000000 1 0 0
-6.801277 -1.446458 -7.065453 9.913134 0.209552 2.364188 0.011471 -0.006221 -812412.000000 1 0 0
-5.495577 12.886742 -4.572253 14.736858 -1.167696 1.886262 0.013030 -0.002400 374990.000000 1 0 0
-4.371077 6.869042 -6.804053 10.610617 -1.004081 2.266922 0.010607 -0.000164 -2043020.000000 1 0 0
-9.411977 -3.703258 -8.144653 12.985946 0.374858 2.248736 0.014915 -0.003021 746858.000000 1 0 0
-2.163277 -6.275158 9.162647 11.314216 1.238818 0.626926 0.006622 -0.000173 -111999.000000 1 0 0
7.543623 -5.907858 10.023647 13.866598 -0.664388 0.762860 0.011882 -0.003887 -52267.400000 1 0 0
9.683623 -4.973058 12.205547 16.354793 -0.474431 0.728314 0.029473 -0.004739 -348213.000000 1 0 0
-6.534977 2.772142 -9.174153 11.599818 -0.401193 2.483054 0.006214 -0.007324 -427036.000000 1 0 0
7.527123 5.472942 8.862247 12.851074 0.628681 0.809844 0.000723 0.000492 -849030.000000 1 0 0
12.750823 3.407442 11.170747 17.291031 0.261131 0.868408 0.037956 -0.003974 229933.000000 1 0 0
-7.486377 -7.266758 -3.926753 11.147690 0.770513 1.930768 0.014630 -0.006145 -594822.000000 1 0 0
2.271623 1.439942 -5.832853 6.423073 0.564961 2.709543 0.005643 -0.001758 159994.000000 1 0 0
12.745723 6.771542 -7.139453 16.102143 0.488357 2.030168 0.011414 -0.005292 773370.000000 1 0 0
0.774723 -7.895058 1.011047 7.997147 -1.472982 1.444031 0.008655 -0.004533 181096.000000 1 0 0
-10.295177 -6.037758 -8.514753 14.661044 0.530408 2.190475 0.021407 -0.004253 668010.000000 1 0 0
-6.787377 0.225542 3.192847 7.504241 -0.033217 1.131313 0.004287 -0.004883 168460.000000 1 0 0
10.842123 -7.894358 1.276747 13.472290 -0.629350 1.475885 0.013783 -0.009360 302699.000000 1 0 0
6.349423 1.097642 10.650747 12.448229 0.171181 0.544081 0.005139 -0.002913 5343.660000 1 0 0
-12.944277 5.299742 1.840947 14.107823 -0.388607 1.439932 -0.004296 0.001906 161789.000000 1 0 0
2.132023 7.411742 3.667247 8.539798 1.290704 1.126935 -0.002033 0.002816 109462.000000 1 0 0
9.949623 -9.416458 -0.770253 13.720713 -0.757874 1.626964 0.010964 -0.009879 867495.000000 1 0 0
6.728123 -11.707758 -9.025353 16.241805 -1.049208 2.159985 0.004951 -0.006822 -43291.900000 1 0 0
10.312723 3.488042 11.996047 16.199501 0.326148 0.736953 0.014541 -0.000128 -1783420.000000 1 0 0
-11.143477 -3.092158 -1.944553 11.726884 0.270676 1.737386 0.001314 -0.000942 -70554.600000 1 0 0
12.425523 1.034742 6.836347 14.219703 0.083084 1.069268 0.006546 -0.005605 217528.000000 1 0 0
-9.607877 9.011742 3.058547 13.523221 -0.753393 1.342652 0.000285 -0.004047 3452090.000000 1 0 0
-6.705677 7.611542 -8.876353 13.479292 -0.848585 2.289644 0.003773 -0.001696 -1468320.000000 1 0 0
8.522823 5.556442 12.079247 15.793061 0.577744 0.699995 0.015614 0.000002 -1603460.000000 1 0 0
1.360223 4.799842 -2.721653 5.682964 1.294648 2.070214 0.002986 -0.000182 962715.000000 1 0 0
1.440323 0.517042 9.544747 9.666647 0.344649 0.158978 0.002593 -0.002606 792722.000000 1 0 0
2.587123 12.631842 -4.035853 13.510912 1.368780 1.874138 0.000917 0.002524 483295.000000 1 0 0
2.036123 0.624242 12.937347 13.111462 0.297486 0.163151 0.006506 -0.005969 -97687.200000 1 0 0
-12.297977 -1.763258 0.840947 12.452169 0.142407 1.503211 -0.003365 -0.001174 -45894.200000 1 0 0
3.235523 8.671242 -1.238153 9.337669 1.213664 1.703786 0.004201 0.000783 608970.000000 1 0 0
3.616123 -2.831758 -5.762253 7.368769 -0.664346 2.468637 0.003277 -0.001162 -1170740.000000 1 0 0
-7.796577 -7.150458 9.220847 14.033520 0.742198 0.853886 0.009542 -0.008117 -344302.000000 1 0 0
-7.038377 10.890342 -3.604853 13.458576 -0.997030 1.841955 0.013109 0.000355 782790.000000 1 0 0
0.382423 0.466242 2.494147 2.566009 0.883845 0.237220 0.006431 -0.002297 -2473730.000000 1 0 0
-7.115577 4.589642 -1.863153 8.669925 -0.572862 1.787384 0.006407 -0.003106 -1425810.000000 1 0 0
-6.977277 -3.881958 -5.874453 9.912678 0.507722 2.205104 0.010403 -0.004324 94708.600000 1 0 0
2.898023 -6.134758 13.451647 15.065876 -1.129476 0.467150 0.010280 -0.008343 135376.000000 1 0 0
-5.533877 -0.606258 -11.645553 12.907759 0.109119 2.695671 0.009901 -0.006495 -1316520.000000 1 0 0
11.886923 2.482742 -0.547553 12.155770 0.205903 1.615856 0.003186 0.000021 -974667.000000 1 0 0
6.198523 -10.823758 10.778747 16.485048 -1.050709 0.858135 0.008441 -0.003188 265537.000000 1 0 0
-8.254977 6.397742 -10.430953 14.760777 -0.659320 2.355573 0.003686 -0.004411 736392.000000 1 0 0
2.996823 7.947842 11.164047 14.028011 1.210220 0.650403 0.005731 -0.000845 756398.000000 1 0 0
-6.198477 -10.086958 -0.467853 11.848491 1.019780 1.610293 0.011643 0.001985 -179750.000000 1 0 0
11.262023 4.338142 6.055647 13.502722 0.367684 1.105737 0.001933 -0.001374 -158328.000000 1 0 0
-8.005977 10.667942 1.427947 13.414160 -0.926994 1.464144 0.004808 -0.000929 1236930.000000 1 0 0
4.381623 -2.535158 -3.433353 6.116662 -0.524527 2.166766 0.007811 -0.002727 -5661780.000000 1 0 0
6.432023 6.467542 6.393647 11.139064 0.788152 0.959433 0.000797 0.001942 -5980980.000000 1 0 0
-0.274977 10.230542 -10.252353 14.486212 -1.543925 2.357079 0.008108 -0.001420 202981.000000 1 0 0
14.255923 6.434342 -2.557153 15.848379 0.423972 1.732856 0.024126 -0.000336 716913.000000 1 0 0
1.497823 9.387942 -6.182553 11.340233 1.412582 2.147409 0.003385 0.001700 114995.000000 1 0 0
0.735723 7.328742 7.241647 10.329240 1.470743 0.793882 -0.000037 0.003960 98205.400000 1 0 0
12.245323 6.365042 1.883147 13.928673 0.479357 1.435182 0.003016 0.000283 -813526.000000 1 0 0
-6.931377 6.710842 -3.194753 10.162964 -0.769234 1.890571 0.005688 -0.003366 5584.520000 1 0 0
1.086623 9.775942 11.113447 14.841109 1.460098 0.724503 0.004504 -0.000404 -1810290.000000 1 0 0
-3.502477 13.659442 -10.970353 17.866067 -1.319790 2.231956 0.022454 -0.004933 75075.000000 1 0 0
-10.167377 -5.521058 -2.324753 11.800937 0.497466 1.769091 0.005910 0.000355 267376.000000 1 0 0
-4.056277 3.873842 -12.401953 13.611336 -0.762397 2.716860 0.006978 -0.010661 -657347.000000 1 0 0
-3.163777 8.467142 2.419047 9.357017 -1.213207 1.309299 0.005608 0.001927 -1231350.000000 1 0 0
7.048623 8.972742 7.023547 13.398634 0.904923 1.019022 0.003069 0.004273 1021860.000000 1 0 0
-1.424377 -2.290458 -8.167653 8.601488 1.014448 2.822635 0.005979 -0.005743 -1315310.000000 1 0 0
0.825523 -1.372058 4.920447 5.174440 -1.029152 0.314620 0.008555 -0.001232 1516130.000000 1 0 0
2.686023 -8.786658 -5.965253 10.954648 -1.274125 2.146638 0.000034 -0.000320 495767.000000 1 0 0
5.389423 3.883642 8.865247 11.077958 0.624421 0.643068 -0.000274 -0.000228 2750.780000 1 0 0
6.207823 -7.376258 -2.656653 10.000202 -0.871202 1.839685 0.006209 -0.005850 1026400.000000 1 0 0
1.792023 2.269842 -8.352753 8.839231 0.902495 2.808280 0.008373 -0.003621 198756.000000 1 0 0
-5.333677 11.005142 -0.633353 12.245914 -1.119501 1.622539 0.003475 0.001714 477341.000000 1 0 0
-5.426277 3.338142 -3.358453 7.201866 -0.551507 2.055935 0.007289 -0.001347 250611.000000 1 0 0
2.107623 13.543042 -6.606253 15.215079 1.416411 2.019936 -0.000986 0.002322 322451.000000 1 0 0
-5.359777 -2.547858 2.655047 6.501390 0.443747 1.150116 0.001798 -0.003052 687332.000000 1 0 0
10.430423 -3.407658 -1.821153 11.123059 -0.315772 1.735264 0.007724 -0.000974 76014.000000 1 0 0
2.495023 -3.449158 7.059947 8.244070 -0.944556 0.542604 0.002260 -0.001456 -1758470.000000 1 0 0
-2.913577 9.857642 -11.678053 15.557601 -1.283413 2.419816 0.013695 -0.002020 -2109320.000000 1 0 0
0.536923 -1.945858 9.202747 9.421529 -1.301565 0.215925 0.005659 -0.002495 583124.000000 1 0 0
9.524523 2.563842 5.011047 11.063472 0.262950 1.100740 -0.000405 -0.001611 -682598.000000 1 0 0
13.450223 2.132542 -5.072853 14.532380 0.157242 1.927377 0.011925 -0.002450 -1380280.000000 1 0 0
-6.435877 3.779042 7.647647 10.685887 -0.530942 0.773203 0.001896 -0.002112 286612.000000 1 0 0
10.757423 0.066142 1.978647 10.938079 0.006148 1.388900 0.004360 0.000015 764028.000000 1 0 0
15.383323 6.598042 -4.789953 17.410469 0.405177 1.849510 0.039774 -0.005803 200329.000000 1 0 0
8.107623 -5.016958 -9.217653 13.261543 -0.554125 2.339309 0.015037 -0.001489 2628340.000000 1 0 0
4.487923 5.675742 -2.144653 7.546856 0.901740 1.858946 0.000469 0.000320 -282608.000000 1 0 0
-1.709377 -10.439658 1.409747 10.672198 1.408498 1.438314 0.011760 -0.004351 -723089.000000 1 0 0
-2.804077 12.227642 -12.883753 17.982468 -1.345371 2.369514 0.022506 -0.006635 -801437.000000 1 0 0
8.384723 4.170042 -9.618453 13.424137 0.461516 2.369575 0.001343 0.001147 -690385.000000 1 0 0
4.129223 7.680542 -8.977053 12.515138 1.077507 2.370709 0.005917 0.000392 -3585730.000000 1 0 0
-1.785277 -5.098258 -2.356353 5.893373 1.233967 1.982129 0.009353 -0.005548 -1063190.000000 1 0 0
-3.346377 -8.945958 7.454847 12.116235 1.212845 0.908058 0.007134 0.002113 -521150.000000 1 0 0
1.014723 7.154542 -1.402953 7.361074 1.429907 1.762560 0.002943 0.001355 1427580.000000 1 0 0
0.312223 -1.084658 -2.113353 2.395877 -1.290520 2.651054 0.008263 -0.000864 -833344.000000 1 0 0
4.089723 -6.749158 7.508147 10.892623 -1.026006 0.810291 0.004003 -0.002216 -507988.000000 1 0 0
-13.968377 3.807242 6.039747 15.687231 -0.266098 1.175577 -0.004538 -0.002681 -139582.000000 1 0 0
4.303023 6.369342 12.774847 14.909100 0.976646 0.541670 0.007641 -0.001503 -2338290.000000 1 0 0
8.299923 10.078142 -7.113553 14.868097 0.881856 2.069678 0.015633 -0.004634 19803.000000 1 0 0
12.475923 5.300742 9.447147 16.522564 0.401767 0.962132 0.022135 -0.002918 -1248760.000000 1 0 0
7.590623 4.113242 0.421747 8.643737 0.496591 1.521985 0.003331 -0.000541 -1270270.000000 1 0 0
-10.995677 -7.531358 -0.996353 13.364842 0.600546 1.645416 0.007514 0.000555 -1615730.000000 1 0 0
10.415723 6.814042 0.161147 12.447667 0.579327 1.557850 0.003766 -0.001229 -981919.000000 1 0 0
14.677823 3.540142 4.398347 15.726301 0.236670 1.287335 0.015166 -0.004815 105719.000000 1 0 0
2.212723 5.591842 8.194747 10.164582 1.193998 0.633085 -0.003204 0.000919 1161440.000000 1 0 0
4.238223 0.088742 11.589247 12.340221 0.020935 0.350666 0.006328 -0.002697 -307989.000000 1 0 0
-1.587977 -1.473158 -0.392753 2.201391 0.747907 1.750168 0.011525 -0.006692 -867371.000000 1 0 0
3.072823 -5.271358 -9.432253 11.233737 -1.043024 2.567409 -0.001409 0.000758 179459.000000 1 0 0
-4.023477 -5.343758 -1.295553 6.813411 0.925422 1.762109 0.011200 -0.004849 -1140660.000000 1 0 0
-1.135177 -8.556858 8.534747 12.138796 1.438904 0.791053 0.005685 0.000210 -305008.000000 1 0 0
4.017523 8.492942 -5.981853 11.137913 1.128946 2.137758 0.002972 0.002369 112693.000000 1 0 0
-14.306977 -1.785958 -2.681753 14.665301 0.124189 1.754695 0.002673 -0.004785 -1255600.000000 1 0 0
8.914323 -10.646458 -6.623153 15.384355 -0.873719 2.015857 0.007857 -0.007831 896708.000000 1 0 0
14.774923 6.180742 1.547947 16.090247 0.396205 1.474443 0.006891 0.001126 -2423630.000000 1 0 0
-5.812577 0.401542 -8.468853 10.279531 -0.068972 2.538977 0.010519 -0.008575 316306.000000 1 0 0
-7.832377 -4.709258 -12.950353 15.850390 0.541342 2.527049 0.013998 -0.005828 376774.000000 1 0 0
0.717723 -10.525158 11.986547 15.967824 -1.502711 0.721723 0.004380 -0.004490 -621490.000000 1 0 0
0.323923 11.777642 3.331347 12.244005 1.543300 1.295243 0.002329 0.002510 -315437.000000 1 0 0
5.179323 -13.229558 -3.593853 14.654773 -1.197642 1.818558 0.007696 -0.008793 1252540.000000 1 0 0
-7.358977 1.591042 -6.984753 10.269992 -0.212927 2.318713 0.010098 -0.003864 334426.000000 1 0 0
1.550123 2.818542 4.147947 5.249050 1.067974 0.659615 0.004146 -0.001140 -976970.000000 1 0 0
17.207823 5.557742 1.809047 18.173341 0.312402 1.471087 0.023522 -0.010538 133843.000000 1 0 0
2.514623 -8.146058 -3.409653 9.181902 -1.271384 1.951253 0.002507 -0.003151 378270.000000 1 0 0
-0.411377 -9.444758 -0.694453 9.479185 1.527268 1.644123 0.011724 -0.004096 -971012.000000 1 0 0
0.788623 11.777542 -5.676753 13.098013 1.503936 2.019065 0.001970 0.004465 -1166960.000000 1 0 0
5.954823 -5.039858 7.829847 11.052900 -0.702371 0.783571 0.005093 -0.002963 -1443620.000000 1 0 0
-5.998377 -1.939158 -9.417953 11.333080 0.312676 2.551725 0.012425 -0.007557 -227439.000000 1 0 0
2.140523 -1.293458 11.214547 11.490037 -0.543555 0.219421 0.001071 -0.003039 -583879.000000 1 0 0
18.130623 1.982542 -5.808553 19.141297 0.108915 1.879115 0.068327 -0.006321 -223355.000000 1 0 0
-8.914277 4.669242 7.734847 12.692282 -0.482501 0.915476 0.000131 -0.006280 -68822.600000 1 0 0
11.545523 -7.087058 -4.960753 14.426869 -0.550531 1.921816 0.018706 -0.010094 273871.000000 1 0 0
10.867323 0.480242 8.942047 14.081532 0.044163 0.882763 0.007046 -0.003746 192210.000000 1 0 0
-8.536577 -7.335158 -1.568053 11.363823 0.709847 1.709224 0.008956 -0.002223 -836827.000000 1 0 0
10.244723 -10.363658 -3.192553 14.918182 -0.791169 1.786469 0.020699 -0.008799 1396770.000000 1 0 0
7.721823 -13.924458 -3.749153 16.357666 -1.064466 1.802051 0.024275 -0.008840 -358277.000000 1 0 0
1.628923 -1.166658 -11.622653 11.794089 -0.621525 2.970882 0.010850 -0.005737 111258.000000 1 0 0
-11.869577 -2.597758 -6.385553 13.726270 0.215461 2.054664 0.012998 -0.003115 465410.000000 1 0 0
2.705923 -12.185358 -6.292253 13.978462 -1.352279 2.037717 0.001606 -0.001473 545243.000000 1 0 0
-5.664177 1.442642 1.135347 5.954253 -0.249393 1.378943 0.006823 -0.003592 440215.000000 1 0 0
0.169523 6.779142 -4.044953 7.896021 1.545795 2.108631 0.006419 0.001846 1163260.000000 1 0 0
5.474023 -11.775058 3.656947 13.490374 -1.135635 1.296283 0.003860 -0.011067 -3365250.000000 1 0 0
-4.516877 -9.254458 1.105447 10.357084 1.116733 1.463859 0.008810 -0.000741 -950528.000000 1 0 0
7.127723 -6.263158 -4.595653 10.542846 -0.720924 2.021837 0.008683 -0.004141 -753531.000000 1 0 0
-7.054577 -6.065058 2.204647 9.560986 0.710118 1.338115 0.004275 -0.000309 -6028.380000 1 0 0
-6.150877 -0.649058 7.038047 9.369561 0.105134 0.720977 0.002710 -0.002159 -455739.000000 1 0 0
4.100423 -5.076158 3.256547 7.292870 -0.891329 1.107903 0.003241 -0.003240 -323891.000000 1 0 0
-2.405377 10.562842 -8.817453 13.968069 -1.346894 2.253970 0.011272 0.001102 -24903.300000 1 0 0
-2.398377 -4.959458 2.744747 6.154842 1.120357 1.108562 0.008388 -0.001366 1015210.000000 1 0 0
15.179623 5.204442 6.319047 17.246377 0.330297 1.195661 0.028186 -0.011072 601685.000000 1 0 0
6.875023 0.432242 0.019447 6.888625 0.062789 1.567973 0.006861 -0.002020 3966090.000000 1 0 0
-9.823077 9.125542 0.423747 13.414467 -0.748603 1.539202 -0.001444 -0.002608 -1775930.000000 1 0 0
7.130523 10.448042 -2.505753 12.895144 0.971930 1.766358 0.001860 0.002255 -827441.000000 1 0 0
1.692623 -4.250558 -5.358353 7.045861 -1.191832 2.434874 0.002866 -0.002196 -981593.000000 1 0 0
0.859923 -8.113058 -7.752553 11.254477 -1.465198 2.330686 -0.001303 0.001052 -409112.000000 1 0 0
-10.487177 0.224042 -10.411253 14.779217 -0.021360 2.352447 0.015548 -0.008950 -4293980.000000 1 0 0
5.858923 -2.473658 0.508147 6.379982 -0.399500 1.491065 0.007366 -0.004148 141457.000000 1 0 0
-3.415377 5.336142 -1.021353 6.417350 -1.001450 1.730631 0.007223 -0.002386 990635.000000 1 0 0
-0.359777 4.488642 -5.168953 6.855320 -1.490815 2.424936 0.006785 -0.001272 -1364300.000000 1 0 0
4.009523 -9.716658 10.013347 14.517467 -1.179438 0.809660 0.002883 -0.001525 -1138660.000000 1 0 0
7.327423 -13.504758 -0.648253 15.378226 -1.073667 1.612963 0.019709 -0.012295 704438.000000 1 0 0
13.029923 -0.071058 0.561847 13.042224 -0.005453 1.527704 0.006392 -0.002174 -203245.000000 1 0 0
9.356123 2.409642 -0.536153 9.676304 0.252069 1.626234 0.004195 -0.000366 -991641.000000 1 0 0
-0.796677 -5.766158 4.446147 7.324718 1.433501 0.918509 0.005671 -0.000167 990160.000000 1 0 0
11.443323 -3.711458 3.396847 12.500525 -0.313629 1.295599 0.015294 -0.007792 -1458320.000000 1 0 0
1.619523 -8.155358 11.832047 14.461330 -1.374763 0.612549 0.003314 -0.003614 283926.000000 1 0 0
9.389523 -5.987058 -5.831053 12.570170 -0.567631 2.053166 0.007870 -0.005825 -1263070.000000 1 0 0
3.186723 6.290342 -0.188253 7.054009 1.101878 1.597487 -0.001013 0.002673 -2264870.000000 1 0 0
6.448323 -1.352858 11.441747 13.203207 -0.206801 0.522471 0.008853 -0.003776 261495.000000 1 0 0
-4.941377 -7.617358 -3.764853 9.829317 0.995336 1.963863 0.013241 -0.004810 -187283.000000 1 0 0
-3.454777 -8.477058 -5.719653 10.793999 1.183803 2.129269 0.007330 -0.001190 -551834.000000 1 0 0
9.822723 5.312442 2.268347 11.395320 0.495777 1.370398 0.003503 -0.002352 -584696.000000 1 0 0
8.969523 -1.349958 0.368147 9.078010 -0.149384 1.530231 0.007724 -0.003016 1754500.000000 1 0 0
-3.765877 9.765442 9.271047 13.982060 -1.202736 0.845887 0.001770 -0.000944 -137593.000000 1 0 0
-14.405877 -3.588358 -6.046553 16.030172 0.244122 1.957566 0.020652 -0.005823 -360830.000000 1 0 0
10.541323 6.164842 -5.937653 13.578677 0.529188 2.023366 -0.002221 -0.003280 -324857.000000 1 0 0
-1.715077 4.372942 2.845647 5.491978 -1.197030 1.026114 0.004151 -0.004688 189233.000000 1 0 0
7.003723 -3.692658 2.617947 8.339155 -0.485203 1.251462 0.007235 -0.007008 -2008000.000000 1 0 0
8.300623 -11.221958 -1.592253 14.048770 -0.933935 1.684378 0.016738 -0.010975 -1862400.000000 1 0 0
4.602523 0.445542 1.800447 4.962190 0.096503 1.199490 0.005939 -0.002258 -165737.000000 1 0 0
-10.786277 2.375542 3.776947 11.672716 -0.216777 1.241296 -0.007052 -0.001662 314015.000000 1 0 0
-0.994477 -3.060158 4.485947 5.520623 1.256586 0.622231 0.009873 -0.002066 393635.000000 1 0 0
8.605123 -8.765158 -8.433153 14.899470 -0.794611 2.172446 0.017383 -0.008678 -261068.000000 1 0 0
12.098223 -4.766558 1.096247 13.049476 -0.375313 1.486690 0.013246 -0.004957 -95045.500000 1 0 0
2.998223 4.856642 3.491247 6.690674 1.017721 1.021827 -0.002424 -0.001279 -341919.000000 1 0 0
6.194023 7.446242 1.985947 9.887185 0.876945 1.368560 0.001202 -0.000240 -204328.000000 1 0 0
-1.681377 -1.327958 -10.381953 10.600728 0.668493 2.938078 0.008109 -0.005582 874723.000000 1 0 0
-1.125877 -8.695758 5.914147 10.576433 1.442038 0.977398 0.004496 -0.001588 568679.000000 1 0 0
-4.310377 -0.251458 2.298947 4.891599 0.058272 1.081530 0.006784 -0.003311 564914.000000 1 0 0
-8.556977 6.228142 -7.978953 13.254256 -0.629170 2.216789 0.003437 -0.001379 -1148380.000000 1 0 0
6.700423 11.116442 -9.385453 16.017418 1.028358 2.196852 0.011580 -0.008573 -144024.000000 1 0 0
-11.209977 -5.744458 3.167147 12.988195 0.473551 1.324465 0.002805 -0.001913 1135310.000000 1 0 0
1.496523 -6.345458 3.051747 7.198443 -1.339187 1.132999 0.005468 -0.003827 433551.000000 1 0 0
10.169523 2.244142 7.217047 12.670483 0.217192 0.964783 0.003935 -0.003097 -2379210.000000 1 0 0
-4.087577 -2.477558 -10.614853 11.641378 0.544907 2.718494 0.007552 -0.006401 -3988220.000000 1 0 0
-8.288977 11.836942 5.894847 15.606715 -0.959894 1.183472 0.006728 -0.004259 317999.000000 1 0 0
6.883223 5.881542 -2.853253 9.492752 0.707086 1.876088 0.003438 0.001305 -2657320.000000 1 0 0
3.880323 -9.898358 -2.278353 10.873145 -1.197191 1.781900 0.002856 -0.007701 -63164.600000 1 0 0
8.484223 -12.935058 -7.384353 17.141366 -0.990278 2.016166 0.018085 -0.008077 7439.450000 1 0 0
-1.080077 9.436942 3.569847 10.147229 -1.456840 1.211297 0.003327 0.003077 -93618.800000 1 0 0
0.489723 -13.287358 4.741747 14.116582 -1.533957 1.228237 0.009180 -0.003252 -380913.000000 1 0 0
-11.229377 -7.035258 -5.106353 14.201007 0.559681 1.938611 0.017988 -0.006037 -254498.000000 1 0 0
3.533423 10.285042 -3.340253 11.376487 1.239879 1.868798 0.001895 0.002421 -458777.000000 1 0 0
11.658123 -8.108758 -7.407953 16.016914 -0.607730 2.051618 0.047294 -0.016362 366403.000000 1 0 0
11.704723 -4.777658 -5.940053 13.968206 -0.387540 2.010040 0.018189 -0.006128 312780.000000 1 0 0
1.282323 -10.357858 -2.611053 10.758586 -1.447621 1.815939 0.003678 -0.003690 -1122300.000000 1 0 0
2.411123 -12.105858 -3.767553 12.905803 -1.374199 1.867037 0.003554 -0.004529 -1713100.000000 1 0 0
-7.675177 -5.660358 7.242747 11.975199 0.635446 0.921266 0.005102 -0.002146 -3128220.000000 1 0 0
-7.199077 -0.797858 9.500547 11.946702 0.110377 0.651386 0.003492 -0.001518 -197421.000000 1 0 0
16.257423 2.552342 -7.576353 18.116825 0.155724 2.002253 0.048948 -0.006074 -111975.000000 1 0 0
-2.059077 6.189442 -5.649053 8.629066 -1.249638 2.284521 0.006967 0.001218 727948.000000 1 0 0
7.810723 1.186842 8.356047 11.499544 0.150797 0.757375 0.002865 -0.003660 -549537.000000 1 0 0
7.863623 8.201242 -3.768653 11.970784 0.806411 1.891064 0.001819 0.003092 -450766.000000 1 0 0
8.077223 0.537642 3.994347 9.026926 0.066465 1.112420 0.002653 -0.002622 483748.000000 1 0 0
-7.035177 5.898342 5.390047 10.645974 -0.697725 1.039909 0.003140 -0.006223 178225.000000 1 0 0
-6.046477 -2.076158 -4.527653 7.833898 0.330753 2.187019 0.011738 -0.005072 -865013.000000 1 0 0
-15.163977 -2.224458 3.163047 15.649258 0.145655 1.367273 0.004135 -0.005044 -483539.000000 1 0 0
1.197623 1.216842 -10.514353 10.652071 0.793358 2.980616 0.011584 -0.007287 361518.000000 1 0 0
1.530823 -9.238058 9.437047 13.294472 -1.406580 0.781515 0.005699 -0.004143 -1187120.000000 1 0 0
-0.138077 -6.766958 -1.066153 6.851822 1.550395 1.727032 0.008048 -0.004154 392307.000000 1 0 0
-0.455777 -10.233758 -8.348353 13.214860 1.526289 2.254592 -0.002748 -0.000446 -492326.000000 1 0 0
-4.391477 6.522242 3.771847 8.720754 -0.978210 1.123517 0.006186 -0.001528 185317.000000 1 0 0
10.828523 -1.127558 -8.533753 13.833048 -0.103755 2.235607 0.017425 -0.002648 144361.000000 1 0 0
3.051723 -1.013158 6.277847 7.053430 -0.320546 0.473359 0.003278 -0.000232 -128219.000000 1 0 0
1.961723 -12.327758 6.746447 14.189310 -1.412989 1.075310 0.005679 -0.003758 557087.000000 1 0 0
2.884123 -5.046558 -1.306853 5.957665 -1.051594 1.791951 0.011511 -0.003802 -314052.000000 1 0 0
-0.972377 9.488242 -1.662453 9.681736 -1.468671 1.743362 0.004565 0.001290 763952.000000 1 0 0
4.547023 -2.565058 2.604847 5.834395 -0.513618 1.107987 0.007898 -0.003378 -1980910.000000 1 0 0
17.767123 6.780442 -2.639553 19.199278 0.364569 1.708715 0.038328 -0.004994 586312.000000 1 0 0
-7.113477 3.435442 -5.349753 9.540633 -0.449913 2.166068 0.005756 -0.003245 -1952160.000000 1 0 0
-13.886377 -5.951358 2.320947 15.285187 0.404895 1.418364 0.001206 -0.003952 928886.000000 1 0 0
6.650423 -6.121458 3.200247 9.588637 -0.744005 1.230513 0.005298 -0.007966 856213.000000 1 0 0
-4.714477 1.987142 3.589847 6.249963 -0.398901 0.958951 0.006212 -0.004473 771138.000000 1 0 0
6.966923 -12.123458 -5.433453 15.001288 -1.049214 1.941422 0.012969 -0.006499 -606160.000000 1 0 0
2.936523 -12.313958 3.425847 13.114616 -1.336698 1.306507 0.007708 -0.007495 -768928.000000 1 0 0
3.331723 11.207342 -6.070553 13.174084 1.281836 2.049687 0.000189 0.004350 -440288.000000 1 0 0
-5.683677 -8.334058 6.448647 11.972709 0.972266 1.002007 0.007756 -0.000597 50243.500000 1 0 0
-4.014077 6.564842 6.279647 9.931965 -1.022000 0.886321 0.005484 -0.001776 374129.000000 1 0 0
4.277923 4.232142 -7.124153 9.325513 0.780019 2.440197 0.003123 0.001762 -1607530.000000 1 0 0
-0.329277 -2.735958 1.709147 3.242696 1.451021 1.015640 0.008994 -0.005375 -379829.000000 1 0 0
-13.247177 -0.937458 6.606347 14.832746 0.070649 1.109187 0.004843 -0.002897 -723245.000000 1 0 0
-0.648277 -9.230758 -5.853053 10.949218 1.500681 2.134788 0.000505 -0.000204 91435.500000 1 0 0
2.012423 -1.644158 -3.925753 4.707933 -0.685024 2.556859 0.007103 -0.001533 -1154840.000000 1 0 0
11.441523 -1.959558 1.190547 11.669007 -0.169622 1.468592 0.010344 -0.003054 1257970.000000 1 0 0
0.502423 -4.217158 -2.012253 4.699576 -1.452217 2.013271 0.008274 -0.003604 229646.000000 1 0 0
1.143923 -7.424558 -11.245053 13.523455 -1.417926 2.552639 -0.007756 0.001833 -1094710.000000 1 0 0
-4.426277 4.090742 -9.942253 11.626456 -0.746023 2.596618 0.008950 -0.006747 242267.000000 1 0 0
-1.079377 5.728342 -2.243453 6.245962 -1.384553 1.938190 0.007009 0.000142 -267578.000000 1 0 0
-11.378177 1.678242 -3.952153 12.161370 -0.146441 1.901783 0.004895 -0.002218 -261571.000000 1 0 0
-1.815877 -11.276058 4.102647 12.135840 1.411129 1.225941 0.015448 -0.003121 -117608.000000 1 0 0
-3.589377 -5.460658 -9.685353 11.683684 0.989295 2.548049 0.003134 -0.002079 99689.600000 1 0 0
-12.808177 -3.849258 -8.367853 15.776158 0.291944 2.129882 0.024531 -0.003536 256810.000000 1 0 0
11.429823 4.488642 0.557147 12.292240 0.374209 1.525456 0.005611 -0.000265 118091.000000 1 0 0
-8.990677 -2.352958 -3.038453 9.777570 0.255970 1.886786 0.005493 -0.002710 135478.000000 1 0 0
-2.462577 -6.062958 -6.282453 9.071547 1.184984 2.335807 0.003624 -0.001922 71952.500000 1 0 0
-0.003077 2.713042 -1.909153 3.317449 -1.569662 2.183997 0.005136 -0.002410 -948895.000000 1 0 0
8.046923 5.861642 -5.129353 11.199200 0.629555 2.046552 0.002380 -0.000484 -1256110.000000 1 0 0
-9.882777 -0.886258 -0.943453 9.967188 0.089438 1.665594 0.001692 -0.002145 1204920.000000 1 0 0
6.231723 0.568542 -8.822453 10.816343 0.090982 2.524664 0.003713 0.001528 494300.000000 1 0 0
-4.057077 2.589242 7.819347 9.181843 -0.568038 0.551748 0.002648 -0.001351 -373944.000000 1 0 0
-10.238577 -3.409258 1.456547 10.889125 0.321434 1.436633 0.001586 -0.002156 2901930.000000 1 0 0
-1.892577 -8.101358 -7.763653 11.379286 1.341300 2.321648 0.001692 -0.002576 228354.000000 1 0 0
-9.450077 -9.892758 4.090847 14.279554 0.808280 1.280243 0.004288 0.000346 -412780.000000 1 0 0
-1.248377 -10.696858 7.416247 13.076006 1.454617 0.967737 0.010334 -0.001588 148824.000000 1 0 0
9.494723 3.760742 -3.717153 10.867850 0.377129 1.919875 0.003732 0.000793 -731845.000000 1 0 0
12.962623 -0.831458 3.075347 13.348358 -0.064055 1.338316 0.008843 -0.001909 -422294.000000 1 0 0
6.526023 11.912142 -6.903853 15.236511 1.069608 2.041050 0.003072 0.000234 -67003.900000 1 0 0
-11.883077 -0.108958 -6.512553 13.551116 0.009169 2.072126 0.010099 -0.003859 166079.000000 1 0 0
-7.635977 -6.740458 -11.319953 15.227713 0.723188 2.408903 0.018069 -0.009591 -2771190.000000 1 0 0
4.181323 6.072242 6.509547 9.835130 0.967765 0.847490 -0.001998 0.002589 -3215120.000000 1 0 0
-4.243477 -1.366658 -7.415953 8.652815 0.311571 2.600326 0.008839 -0.008073 -717051.000000 1 0 0
9.665523 9.322842 0.898447 13.459009 0.767353 1.503992 0.011265 0.000106 -1968180.000000 1 0 0
-8.975377 4.030542 4.881447 10.983223 -0.422077 1.110241 0.002002 -0.004843 -765446.000000 1 0 0
-7.061477 7.867242 -12.137453 16.095829 -0.839320 2.425040 0.003994 -0.005164 -321731.000000 1 0 0
11.115623 -3.627858 7.219447 13.741865 -0.315475 1.017656 0.014028 -0.008413 783904.000000 1 0 0
11.878323 6.936342 6.411547 15.176144 0.528534 1.134622 0.007532 -0.000664 110802.000000 1 0 0
-9.849677 -0.846458 -14.671053 17.691026 0.085727 2.548638 0.023776 -0.011639 331113.000000 1 0 0
1.579123 -12.935958 12.136147 17.807827 -1.449325 0.820977 0.007628 -0.004321 413502.000000 1 0 0
2.892723 3.051042 13.021747 13.683662 0.812028 0.312307 0.002756 -0.005555 -948700.000000 1 0 0
-2.501577 -1.304558 10.949547 11.307181 0.480695 0.252179 0.006955 -0.002445 -388028.000000 1 0 0
2.413823 -10.062358 -8.145553 13.169192 -1.335359 2.237668 -0.003345 0.003080 -868148.000000 1 0 0
13.967623 3.494842 -7.522853 16.245052 0.245177 2.052270 0.017290 -0.004638 -3478850.000000 1 0 0
7.345323 -1.592658 4.988247 9.020695 -0.213521 0.984862 0.002635 -0.002908 131125.000000 1 0 0
-1.199077 8.761042 10.130647 13.447069 -1.434777 0.717621 0.002236 -0.001432 84615.500000 1 0 0
-12.330777 -4.693258 0.906747 13.224860 0.363683 1.502179 0.000367 -0.002299 218431.000000 1 0 0
-4.946977 4.886642 -5.375453 8.789047 -0.779263 2.228888 0.008030 -0.004105 -66286.200000 1 0 0
-11.234877 0.291642 2.063447 11.426519 -0.025953 1.389216 -0.005111 -0.000420 -3736310.000000 1 0 0
-1.253277 2.206042 -4.061153 4.788558 -1.054155 2.583176 0.007307 -0.003902 509805.000000 1 0 0
3.044123 -9.806558 13.083747 16.631888 -1.269810 0.665406 0.005855 -0.002949 -1350750.000000 1 0 0
8.997323 4.613642 -1.478453 10.218773 0.473819 1.715986 0.003678 -0.000916 -2121220.000000 1 0 0
4.125323 2.276342 3.815247 6.062684 0.504222 0.890144 0.000458 0.000221 256655.000000 1 0 0
-5.566777 -3.241058 7.510947 9.894837 0.527239 0.708902 0.006037 -0.003587 300705.000000 1 0 0
1.715323 -5.795158 7.742347 9.821921 -1.283020 0.662800 0.002034 -0.001819 -531608.000000 1 0 0
-5.895677 -6.255958 -9.649153 12.922932 0.815038 2.413837 0.011349 -0.005106 -864020.000000 1 0 0
-11.727577 -5.768458 5.558747 14.202494 0.457123 1.168652 0.007842 -0.006923 -1860380.000000 1 0 0
10.628923 6.250342 4.527247 13.135324 0.531587 1.218918 -0.000263 0.000001 -930276.000000 1 0 0
1.460323 -3.746158 0.407047 4.041278 -1.199098 1.469903 0.013541 -0.004809 -524666.000000 1 0 0
8.785223 4.392242 6.888647 11.996891 0.463614 0.959166 -0.000204 0.001774 -4693.660000 1 0 0
-7.843977 11.991742 3.514847 14.754118 -0.991534 1.330255 0.007409 -0.004736 440589.000000 1 0 0
-6.024877 13.173842 -7.012453 16.094215 -1.141858 2.021626 0.021064 -0.009787 92384.500000 1 0 0
4.478723 -7.021658 -0.785253 8.365361 -1.003014 1.664804 0.007904 -0.006762 -302462.000000 1 0 0
-1.947577 -8.134858 11.013947 13.830257 1.335808 0.649533 0.003281 -0.005355 -68859.300000 1 0 0
11.643823 8.682642 -5.717653 15.609562 0.640735 1.945817 0.019866 -0.007228 379276.000000 1 0 0
-3.335477 -2.993658 -1.841353 4.845408 0.731443 1.960614 0.012983 -0.005488 -1652510.000000 1 0 0
-2.007077 5.981042 4.773247 7.911075 -1.247031 0.923085 0.003788 -0.000087 -701282.000000 1 0 0
0.497423 -11.244758 -5.451153 12.506281 -1.526589 2.021805 -0.001509 0.000314 -1185510.000000 1 0 0
-8.883077 6.308742 -1.514653 11.000157 -0.617537 1.708929 0.002684 -0.001916 -776201.000000 1 0 0
2.945123 -0.056358 3.924247 4.906795 -0.019134 0.643905 0.003721 -0.000733 279722.000000 1 0 0
-10.154177 4.013242 -1.020953 10.966119 -0.376388 1.664032 0.002484 -0.002285 -83163.100000 1 0 0
6.584223 5.458642 13.599047 16.064957 0.692204 0.561413 0.021782 -0.001759 -371307.000000 1 0 0
-8.741077 -1.604458 5.749647 10.584855 0.181533 0.996558 -0.002066 -0.002606 64373.600000 1 0 0
13.009623 -1.804458 -1.486053 13.217969 -0.137822 1.683461 0.014667 -0.000894 -2242040.000000 1 0 0
5.290323 -5.554258 5.413647 9.388550 -0.809731 0.956208 0.002096 -0.005872 53651.200000 1 0 0
-9.139777 -1.220958 3.225347 9.768784 0.132801 1.234314 -0.003198 -0.001718 244392.000000 1 0 0
1.999923 5.411842 5.633947 8.064062 1.216816 0.797289 0.002103 0.000430 -681593.000000 1 0 0
9.302223 3.069442 -7.379053 12.263900 0.318719 2.216410 0.003472 -0.000413 -1952070.000000 1 0 0
2.406923 -2.454758 -1.585053 3.785698 -0.795237 2.002804 0.005163 -0.001216 -465113.000000 1 0 0
-6.292977 0.306642 -3.897553 7.408543 -0.048689 2.124791 0.004845 -0.001982 -1582060.000000 1 0 0
-4.056277 4.193742 4.961347 7.658709 -0.802059 0.866097 0.006449 -0.003491 845124.000000 1 0 0
-6.421877 1.714642 -12.387853 14.058428 -0.260914 2.649126 0.007976 -0.009258 -3518510.000000 1 0 0
-0.241477 3.017542 6.248047 6.942764 -1.490942 0.451172 0.006192 -0.002591 1488640.000000 1 0 0
-8.731377 9.521542 -2.056153 13.081455 -0.828661 1.728632 0.005647 0.001994 1095970.000000 1 0 0
-1.329577 -3.694358 -6.108753 7.261743 1.225335 2.570339 0.002858 -0.002227 493075.000000 1 0 0
-3.341777 7.039142 -2.951053 8.332209 -1.127558 1.932827 0.006282 0.001910 811131.000000 1 0 0
7.008623 -0.388658 -4.197553 8.178710 -0.055398 2.109739 0.005454 0.001461 -140857.000000 1 0 0
-5.170477 -10.848758 7.033447 13.924754 1.126046 1.041294 0.006221 -0.001524 875301.000000 1 0 0
9.722623 8.419142 -1.454653 12.943236 0.713672 1.683421 0.005051 0.002145 -320024.000000 1 0 0
13.808423 4.559942 -4.415353 15.197399 0.318954 1.865581 0.009781 -0.007306 811987.000000 1 0 0
4.711323 1.053842 -6.846653 8.377577 0.220060 2.527435 0.002299 0.000293 -103854.000000 1 0 0
8.903523 -4.687758 3.679147 10.713726 -0.484627 1.220256 0.009154 -0.008951 -496705.000000 1 0 0
-8.744577 -3.241258 -0.761753 9.357011 0.354960 1.652296 0.001860 -0.000335 611298.000000 1 0 0
-8.573177 -4.302758 -10.480053 14.207202 0.465155 2.400391 0.017361 -0.007044 624566.000000 1 0 0
10.460023 -1.165458 10.683747 14.997094 -0.110963 0.777901 0.016509 -0.007200 981742.000000 1 0 0
2.206123 -11.606058 10.048947 15.509639 -1.382954 0.865951 0.007508 -0.002885 257488.000000 1 0 0
-6.400577 -10.700858 2.000047 12.628378 1.031748 1.411749 0.007994 0.001662 -664901.000000 1 0 0
-3.724677 -1.440058 6.562947 7.682400 0.368924 0.546625 0.010194 -0.004810 -1763250.000000 1 0 0
4.650623 -7.561758 3.927447 9.707385 -1.019407 1.154273 0.000380 -0.003942 321080.000000 1 0 0
11.497623 -9.433758 -5.243653 15.769813 -0.687114 1.909762 0.028943 -0.011709 677040.000000 1 0 0
11.417123 1.138742 11.426447 16.192934 0.099411 0.787465 0.030316 -0.003313 -17013.400000 1 0 0
-10.281377 -3.445858 4.472747 11.729711 0.323389 1.179575 0.004615 -0.001427 1012340.000000 1 0 0
2.136323 8.735342 8.958947 12.693810 1.330943 0.787283 -0.000984 0.003295 301150.000000 1 0 0
6.619323 8.766242 4.035247 11.702378 0.924044 1.218746 0.003595 0.002299 1159260.000000 1 0 0
-4.176977 3.430942 0.506147 5.429060 -0.687650 1.477431 0.008976 -0.003286 -1341690.000000 1 0 0
4.992523 6.940442 4.246747 9.546197 0.947209 1.109775 0.000349 0.000475 -734484.000000 1 0 0
-8.231977 13.115342 1.117447 15.525023 -1.010286 1.498757 0.009910 -0.002681 539620.000000 1 0 0
8.885923 8.226442 -9.088253 15.140354 0.746879 2.214631 0.008323 -0.007031 -790896.000000 1 0 0
7.069523 1.977942 6.002547 9.482667 0.272809 0.885371 -0.000448 -0.000340 -216097.000000 1 0 0
11.532723 -6.196558 3.145947 13.464695 -0.493042 1.334972 0.016252 -0.008370 148679.000000 1 0 0
11.417023 4.707442 -2.069253 12.521590 0.391080 1.736813 0.002121 0.000482 -249310.000000 1 0 0
-3.884477 14.426842 -6.015253 16.106092 -1.307780 1.953551 0.018362 0.002423 135607.000000 1 0 0
7.262423 -3.008358 7.032947 10.547765 -0.392718 0.840928 0.006020 -0.004732 -174791.000000 1 0 0
-8.135477 -0.529158 1.026147 8.216993 0.064952 1.445588 0.001264 -0.002709 284444.000000 1 0 0
-3.302577 1.113542 10.732547 11.284262 -0.325203 0.313994 0.004752 -0.000552 -515630.000000 1 0 0
7.148623 -1.277258 -1.865753 7.497682 -0.176806 1.822283 0.007834 -0.001492 -1596340.000000 1 0 0
-7.787577 5.416642 3.017147 9.954373 -0.607733 1.262855 0.006145 -0.004142 842370.000000 1 0 0
9.496423 -2.093058 2.925447 10.154860 -0.216936 1.278571 0.006346 -0.006884 -1584150.000000 1 0 0
0.264923 3.459342 1.655947 3.844398 1.494364 1.125480 0.004373 -0.002040 -4109520.000000 1 0 0
-7.658277 -3.021758 3.892647 9.106752 0.375820 1.129130 -0.000238 -0.001444 103743.000000 1 0 0
-2.309877 8.333942 -6.742853 10.966138 -1.300418 2.233029 0.004986 0.000280 -591752.000000 1 0 0
4.519123 9.811242 7.303147 13.039130 1.139157 0.976296 0.002903 0.006333 715449.000000 1 0 0
-11.890777 -3.180658 6.918347 14.119869 0.261370 1.058738 0.009725 -0.006009 -1694720.000000 1 0 0
-4.800677 2.322842 -5.583753 7.721424 -0.450650 2.379149 0.010218 -0.005855 -786239.000000 1 0 0
-2.593177 2.968442 -1.772853 4.321947 -0.852770 1.993467 0.009871 -0.003154 1363660.000000 1 0 0
2.464323 5.252842 11.453047 12.838907 1.132139 0.468918 0.000992 -0.004848 398814.000000 1 0 0
-0.658977 1.625942 4.503547 4.833206 -1.185738 0.371475 0.007896 -0.004219 1095150.000000 1 0 0
5.181723 1.635742 7.716647 9.437825 0.305775 0.613514 0.000843 -0.000308 -191801.000000 1 0 0
3.299423 -8.233658 1.781847 9.047336 -1.189666 1.372553 0.004658 -0.005215 2388170.000000 1 0 0
5.056123 6.314142 -4.628353 9.319572 0.895591 2.090505 0.003694 0.001575 -1721910.000000 1 0 0
-4.198977 2.804142 -7.903453 9.378656 -0.588798 2.573087 0.008386 -0.008426 365010.000000 1 0 0
-8.644577 -2.201658 -12.845753 15.639353 0.249385 2.534611 0.018428 -0.008141 138110.000000 1 0 0
-7.827977 8.215842 1.167747 11.407932 -0.809569 1.468254 0.004028 -0.002000 -2700160.000000 1 0 0
7.375423 0.896842 -6.463453 9.847711 0.121005 2.286755 0.002487 0.001938 391801.000000 1 0 0
9.037523 9.034442 5.489947 13.908180 0.785228 1.165025 0.001689 0.003623 856816.000000 1 0 0
9.491623 -1.056558 -1.355753 9.645998 -0.110858 1.711814 0.007251 -0.001664 2415810.000000 1 0 0
5.445423 0.048442 4.303247 6.940671 0.008896 0.902048 0.001963 -0.000111 -1470870.000000 1 0 0
-4.127477 -7.273758 -7.937553 11.530324 1.054656 2.330086 0.010908 -0.006026 -1521820.000000 1 0 0
-2.137877 7.365942 -0.587253 7.692365 -1.288319 1.647213 0.006597 -0.000069 176032.000000 1 0 0
13.419623 -3.453758 -7.381453 15.700336 -0.251899 2.060253 0.024033 -0.004668 1093540.000000 1 0 0
-4.852177 -5.029358 1.562947 7.161066 0.803327 1.350769 0.008615 -0.001324 1375460.000000 1 0 0
-8.945677 1.377142 2.614747 9.421176 -0.152746 1.289564 0.000723 -0.003354 -1640430.000000 1 0 0
-0.994377 11.211142 10.172147 15.170731 -1.482332 0.835898 0.003204 -0.001511 686355.000000 1 0 0
-8.575377 0.380642 7.558147 11.437114 -0.044359 0.848854 -0.001801 -0.003397 567171.000000 1 0 0
-6.134277 12.882842 -2.074753 14.418792 -1.126403 1.715190 0.009136 0.001227 475134.000000 1 0 0
-13.060277 -0.795058 3.234147 13.478229 0.060801 1.328478 -0.002371 -0.003003 507440.000000 1 0 0
-6.732677 12.806142 8.684047 16.874208 -1.086771 1.030215 0.008259 -0.007627 -211918.000000 1 0 0
-8.072977 1.005942 -14.057053 16.241478 -0.123967 2.616951 0.015734 -0.009323 -854442.000000 1 0 0
7.547423 2.953642 3.673547 8.898457 0.373023 1.145238 0.003685 -0.001986 -712541.000000 1 0 0
-1.592977 0.623442 -2.026053 2.651631 -0.373044 2.440407 0.007961 -0.004475 327245.000000 1 0 0
-6.229177 9.644242 -10.405953 15.495093 -0.997312 2.307114 0.008203 -0.001891 235745.000000 1 0 0
-10.151777 13.761642 5.302647 17.904174 -0.935223 1.270118 0.007459 -0.003716 1351560.000000 1 0 0
-5.705977 8.302342 2.548847 10.391520 -0.968663 1.322986 0.004938 -0.001209 -1400480.000000 1 0 0
-2.519477 -10.853358 -1.215453 11.208054 1.342698 1.679455 0.008757 -0.003168 537718.000000 1 0 0
-2.294177 -12.500358 8.837447 15.479750 1.389287 0.963190 0.008741 -0.001513 251748.000000 1 0 0
-14.800777 -6.423358 -1.673353 16.221056 0.409459 1.674139 0.013172 -0.001946 86859.100000 1 0 0
-2.885677 -9.424758 3.239347 10.375286 1.273679 1.253270 0.009556 -0.001812 -1401440.000000 1 0 0
4.719723 -2.668858 7.459547 9.221900 -0.514642 0.628526 0.003488 0.000316 -2111790.000000 1 0 0
-15.079377 -1.292358 -0.309053 15.137811 0.085495 1.591214 0.002032 -0.006284 200653.000000 1 0 0
5.444123 8.675542 -2.853053 10.632188 1.010383 1.842467 0.002474 0.000833 99581.500000 1 0 0
-5.661577 -5.616758 8.643247 11.760406 0.781424 0.745211 0.007049 -0.001347 -3249570.000000 1 0 0
3.458923 3.581542 7.102847 8.674216 0.802813 0.611399 0.000193 0.001044 423201.000000 1 0 0
3.293623 2.387542 9.432347 10.272170 0.627242 0.407176 0.003699 -0.003704 -824216.000000 1 0 0
9.916923 -3.126958 5.174847 11.614744 -0.305448 1.109018 0.010724 -0.006917 -379876.000000 1 0 0
6.525423 10.012842 -5.017853 12.962137 0.993223 1.968298 0.000876 0.001538 563250.000000 1 0 0
-4.536877 11.932742 -8.615353 15.401230 -1.207471 2.164451 0.019217 -0.002466 -362409.000000 1 0 0
-3.409877 -7.261558 2.080347 8.287661 1.131780 1.317065 0.009498 -0.001930 1019230.000000 1 0 0
-7.488277 -4.074358 1.096447 8.595166 0.498301 1.442882 0.002960 0.000099 1416540.000000 1 0 0
-1.973577 -4.002258 -10.938753 11.813949 1.112671 2.754256 0.004387 -0.003126 -843325.000000 1 0 0
-5.288577 8.197542 -4.457553 10.725601 -0.997844 1.999398 0.007415 -0.001357 -477215.000000 1 0 0
-11.033877 -3.328758 -10.166553 15.368340 0.293002 2.293648 0.025707 -0.003619 583143.000000 1 0 0
4.668723 -11.278758 -7.639653 14.400404 -1.178331 2.130006 0.003040 -0.004049 -25081.900000 1 0 0
-9.447877 -3.923258 7.244047 12.535173 0.393586 0.954646 0.001529 -0.004524 -815993.000000 1 0 0
-5.792477 -9.683858 -5.108253 12.386450 1.031732 1.995890 0.010166 -0.007003 -366365.000000 1 0 0
5.002023 4.245742 -9.611453 11.637293 0.703800 2.542625 -0.000977 0.006681 328885.000000 1 0 0
-3.363077 -7.332658 -14.033153 16.186647 1.140778 2.619863 -0.003006 -0.002856 318323.000000 1 0 0
0.624223 -0.840858 -8.803653 8.865720 -0.932200 3.023195 0.008555 -0.007955 -82556.000000 1 0 0
-7.680577 2.187842 -2.794453 8.460903 -0.277504 1.907395 0.004518 -0.003253 -440569.000000 1 0 0
-2.281977 7.519842 -12.644853 14.887839 -1.276168 2.585532 0.008699 -0.002933 103234.000000 1 0 0
-9.786077 8.905242 7.616747 15.267137 -0.738308 1.048469 0.001470 -0.004952 115546.000000 1 0 0
-10.537577 -3.255358 -14.308953 18.066101 0.299628 2.484929 0.034927 -0.005313 -347703.000000 1 0 0
-3.138877 4.904442 7.938147 9.844810 -1.001478 0.632879 0.004013 -0.002324 -310492.000000 1 0 0
8.808123 -2.324158 -3.566453 9.782859 -0.257985 1.943958 0.006860 0.000940 -3999310.000000 1 0 0
1.932323 -8.483558 -1.044653 8.763328 -1.346844 1.690288 0.007772 -0.004395 -1203290.000000 1 0 0
-13.463677 -2.845858 5.045447 14.656946 0.208307 1.219371 0.011586 -0.008970 453682.000000 1 0 0
7.151123 2.687642 -1.861553 7.863037 0.359503 1.809813 0.003150 -0.000058 1315700.000000 1 0 0
-11.134177 4.554142 9.017847 15.034350 -0.388261 0.927525 0.001366 -0.007868 -3064990.000000 1 0 0
-1.751477 -2.422258 7.907147 8.453283 0.944750 0.361425 0.006992 -0.002119 306827.000000 1 0 0
3.090823 11.942042 -9.981253 15.867922 1.317535 2.251089 0.006159 -0.003412 636047.000000 1 0 0
3.588523 -5.044758 -7.006553 9.349805 -0.952502 2.417921 0.002091 -0.002658 90078.200000 1 0 0
8.206723 -13.773758 -9.765653 18.773244 -1.033454 2.117870 0.027428 -0.007191 -105332.000000 1 0 0
-6.431177 -5.777258 -0.451653 8.656832 0.731886 1.622993 0.008553 -0.002178 -369168.000000 1 0 0
-1.195477 -3.937058 9.876147 10.698966 1.275997 0.394748 0.001757 -0.001008 1036550.000000 1 0 0
2.820623 3.324042 1.851447 4.736351 0.867143 1.169185 -0.000438 -0.000376 -910264.000000 1 0 0
-9.108777 13.349942 7.795647 17.943324 -0.972043 1.121358 0.008711 -0.012415 -354722.000000 1 0 0
4.042323 -11.160558 0.044047 11.870146 -1.223297 1.567086 0.005942 -0.008843 55139.200000 1 0 0
-12.634577 -1.547558 -9.066553 15.627855 0.121879 2.189713 0.021697 -0.006615 -367086.000000 1 0 0
-4.225677 0.861642 -13.469153 14.142731 -0.201149 2.831721 0.007838 -0.009306 1269960.000000 1 0 0
3.930123 -3.147258 4.881847 7.013097 -0.675231 0.800839 0.005059 0.000588 -4779.030000 1 0 0
1.778623 -1.226758 1.110147 2.429169 -0.603796 1.096169 0.006767 -0.003203 553930.000000 1 0 0
8.085023 -8.956358 7.325347 14.115405 -0.836484 1.025161 0.010612 -0.004351 -1003340.000000 1 0 0
-0.041577 2.277542 -6.420653 6.812761 -1.552543 2.800666 0.007765 -0.005011 -870893.000000 1 0 0
-3.884677 -9.782558 -3.344453 11.044208 1.192790 1.878451 0.010232 -0.003829 188958.000000 1 0 0
-9.364377 2.354542 -5.402953 11.064688 -0.246330 2.080944 0.006103 -0.002121 164706.000000 1 0 0
8.858523 -7.558458 5.223547 12.762804 -0.706373 1.149133 0.009132 -0.008735 2269230.000000 1 0 0
-5.641277 -4.364158 4.580647 8.476569 0.658442 0.999897 0.004050 -0.002222 -237755.000000 1 0 0
-0.256977 -12.351558 10.374247 16.132329 1.549994 0.872293 0.010756 -0.004892 -986992.000000 1 0 0
-14.263377 -8.176658 3.224447 16.754066 0.520527 1.377130 0.006779 -0.007377 -1196750.000000 1 0 0
10.953723 -1.279358 -3.582953 11.595618 -0.116270 1.884929 0.014886 0.000701 -371926.000000 1 0 0
-13.684577 2.882942 2.657847 14.235279 -0.207635 1.382986 -0.004608 0.001496 -1240110.000000 1 0 0
-6.375577 6.217142 1.049247 8.966703 -0.772817 1.453512 0.005476 -0.002674 363652.000000 1 0 0
7.159223 -6.950758 -0.230453 9.981013 -0.770625 1.593887 0.006241 -0.006130 363691.000000 1 0 0
-6.886277 7.804142 10.054147 14.471051 -0.847798 0.802687 -0.005533 -0.003382 607086.000000 1 0 0
-12.732277 -5.023658 -1.907353 13.819769 0.375809 1.709255 -0.000436 -0.000454 -761726.000000 1 0 0
-9.512777 -5.572558 0.197647 11.026577 0.529911 1.552871 0.004106 -0.000392 -759740.000000 1 0 0
-1.771277 1.830842 2.143847 3.329488 -0.801933 0.871215 0.007609 -0.004691 32194.100000 1 0 0
-7.102477 7.365542 7.554047 12.718491 -0.803579 0.934846 0.000834 -0.004135 152824.000000 1 0 0
5.597323 7.180342 -0.317353 9.109778 0.908660 1.605640 0.001860 0.000305 -1866310.000000 1 0 0
-0.055077 -4.083658 7.493547 8.534199 1.557310 0.499001 0.005412 -0.001196 996354.000000 1 0 0
6.243223 0.725842 13.141547 14.567256 0.115741 0.446117 0.009729 -0.003721 568132.000000 1 0 0
5.751323 6.089442 -7.955753 11.552187 0.813946 2.330462 -0.003565 0.003350 -907282.000000 1 0 0
10.071823 5.206242 8.942347 14.439950 0.477085 0.902973 0.004084 -0.000757 -1774280.000000 1 0 0
-1.285477 -5.010358 -8.424053 9.885383 1.319649 2.590920 0.002521 -0.001611 818740.000000 1 0 0
10.041023 -3.553558 -8.051953 13.352298 -0.340149 2.218101 0.021273 -0.007249 722036.000000 1 0 0
8.571823 -5.476358 1.329347 10.258353 -0.568518 1.440844 0.010838 -0.007640 1472760.000000 1 0 0
15.855123 3.102742 -5.032253 16.921451 0.193251 1.872753 0.040660 -0.002803 -359209.000000 1 0 0
-6.855077 3.665042 1.175047 7.861638 -0.490979 1.420768 0.006975 -0.003960 581973.000000 1 0 0
-1.722777 3.926342 0.355347 4.302371 -1.157317 1.488109 0.007297 -0.001821 -1411690.000000 1 0 0
-2.594577 10.129142 6.903947 12.529798 -1.320038 0.987232 0.002027 0.002869 304534.000000 1 0 0
5.479723 -5.807358 -8.661653 11.780365 -0.814417 2.396849 0.004439 -0.000749 1615860.000000 1 0 0
-1.296077 -0.811658 6.177047 6.363530 0.559492 0.242690 0.009441 -0.004805 491218.000000 1 0 0
-5.812477 4.962542 -7.826953 10.939511 -0.706681 2.368101 0.007693 -0.004012 -124398.000000 1 0 0
6.711923 -1.209458 2.527947 7.273460 -0.178282 1.215831 0.003532 -0.002392 -1447240.000000 1 0 0
8.931823 7.589442 3.227247 12.156982 0.704325 1.302111 0.004148 -0.000020 151660.000000 1 0 0
-5.227177 -4.940158 -7.593553 10.458995 0.757176 2.383329 0.014200 -0.006865 2110770.000000 1 0 0
-2.198777 7.818942 -10.119153 12.975659 -1.296664 2.465233 0.010043 -0.000869 778070.000000 1 0 0
-2.838877 -2.270658 1.715447 4.019685 0.674646 1.129887 0.006885 -0.001560 714413.000000 1 0 0
5.979023 -2.073758 -9.127753 11.106982 -0.333856 2.535365 0.005810 0.000081 1216230.000000 1 0 0
1.060123 -7.609158 5.159847 9.254576 -1.432365 0.979370 0.003400 -0.001506 654632.000000 1 0 0
1.915923 11.852642 1.249747 12.071361 1.410537 1.467081 0.002718 0.002219 829289.000000 1 0 0
-1.184477 6.904342 2.455047 7.422950 -1.400895 1.233711 0.004659 0.001350 662137.000000 1 0 0
8.673323 7.766642 -6.591353 13.378833 0.730303 2.085952 0.005212 -0.001522 -283155.000000 1 0 0
3.721523 -10.997158 5.527747 12.858585 -1.244486 1.126428 0.008500 -0.002041 1499230.000000 1 0 0
7.946023 -7.066558 12.318347 16.273205 -0.726883 0.712131 0.022322 -0.005372 355593.000000 1 0 0
-8.781677 0.163342 -3.747253 9.549159 -0.018598 1.974054 0.006203 -0.003790 -1614450.000000 1 0 0
-3.282077 -5.026058 11.200247 12.707432 0.992306 0.491992 0.008383 -0.002732 999267.000000 1 0 0
-8.183977 0.067142 -11.533753 14.142469 -0.008204 2.524458 0.014210 -0.008990 -2212540.000000 1 0 0
1.398323 -5.051858 5.374747 7.507628 -1.300763 0.772877 0.005063 -0.000350 -378549.000000 1 0 0
6.752523 3.608742 -7.803453 10.932221 0.490810 2.365710 0.000423 0.002032 -2856000.000000 1 0 0
16.371523 4.225242 -1.380453 16.964229 0.252573 1.652261 0.031368 0.002688 -546361.000000 1 0 0
7.944523 7.503842 0.147547 10.929083 0.756880 1.557295 0.003610 -0.001169 -2276400.000000 1 0 0
5.345223 -10.404858 13.965947 18.217578 -1.096230 0.697237 0.011990 -0.003098 336165.000000 1 0 0
-5.403577 -9.176158 8.980447 13.930146 1.038600 0.870195 0.005908 -0.005700 -157620.000000 1 0 0
-12.583477 -3.115458 2.871747 13.277685 0.242703 1.352790 0.000920 -0.003027 -593314.000000 1 0 0
-2.100977 -1.364558 -5.790053 6.308790 0.576015 2.733238 0.007927 -0.006226 -1823130.000000 1 0 0
-2.398377 12.961442 -4.392853 13.894184 -1.387826 1.892481 0.004399 0.006828 468765.000000 1 0 0
3.829423 -0.377158 -4.930053 6.253970 -0.098173 2.478850 0.007621 -0.000195 39467.500000 1 0 0
-8.809677 3.817642 -7.338453 12.084606 -0.408919 2.223399 0.004356 -0.002562 293768.000000 1 0 0
-4.532677 7.964842 -11.416153 14.639413 -1.053418 2.465180 0.005374 -0.000846 -1878120.000000 1 0 0
-10.127677 -6.425258 7.404747 14.095534 0.565349 1.017698 0.008602 -0.004922 -1891580.000000 1 0 0
8.140123 5.347842 4.229047 10.618185 0.581262 1.161152 0.000350 0.000367 -2302950.000000 1 0 0
-6.767077 -7.562958 4.054747 10.928524 0.840881 1.190685 0.009689 -0.001249 -15285.400000 1 0 0
-4.195777 11.856942 7.981547 14.896198 -1.230681 1.005328 0.005439 -0.000932 382485.000000 1 0 0
-7.239977 9.995442 -7.969453 14.691437 -0.943929 2.144154 0.010180 -0.002571 226788.000000 1 0 0
13.224423 5.590242 4.654747 15.093139 0.399939 1.257284 0.005023 -0.001750 1418760.000000 1 0 0
5.304623 3.856242 -3.613353 7.487719 0.628591 2.074384 0.003690 0.000951 472978.000000 1 0 0
-2.942277 -4.225458 5.114347 7.257275 0.962543 0.788768 0.008240 -0.001370 -874947.000000 1 0 0
12.445823 -2.475458 -5.232653 13.726145 -0.196336 1.961910 0.014486 -0.002222 -1661590.000000 1 0 0
-5.189377 9.735742 6.996747 13.064026 -1.081080 1.005610 0.003443 -0.000715 34465.700000 1 0 0
1.846423 3.778742 -0.481953 4.233255 1.116283 1.684893 0.000715 -0.001402 417825.000000 1 0 0
-0.083077 9.550842 7.683447 12.258093 -1.562098 0.893349 0.000287 0.003144 -56752.500000 1 0 0
-5.651077 2.154242 5.855747 8.418148 -0.364203 0.801528 0.003841 -0.003427 698902.000000 1 0 0
8.909323 0.903042 10.715547 13.964758 0.101014 0.696133 0.012044 -0.000881 -2747430.000000 1 0 0
0.355523 -2.906358 -10.160853 10.574320 -1.449075 2.861027 0.005778 -0.002726 -2095230.000000 1 0 0
1.283423 10.610542 -2.783053 11.044282 1.450424 1.825533 0.002863 0.002304 -1308570.000000 1 0 0
2.244623 -4.339658 11.599047 12.586058 -1.093456 0.398668 0.004868 -0.002782 849066.000000 1 0 0
6.528523 -3.098658 9.474347 11.915811 -0.443150 0.651612 0.006684 -0.002916 522790.000000 1 0 0
-10.647077 -8.185258 5.673047 14.578826 0.655412 1.171110 0.009934 -0.006269 -700974.000000 1 0 0
-2.969277 0.809642 -6.857353 7.516343 -0.266202 2.719725 0.010205 -0.006798 472816.000000 1 0 0
11.072123 2.599142 -5.139953 12.480647 0.230572 1.995262 0.004305 -0.000893 -2554340.000000 1 0 0
-2.066377 -4.057358 0.086647 4.554073 1.099743 1.551769 0.008095 -0.005032 1137080.000000 1 0 0
-1.268477 -6.477258 -10.572953 12.463997 1.377408 2.583524 -0.000953 -0.000356 1277070.000000 1 0 0
0.302123 6.791942 -6.660953 9.517880 1.526343 2.345964 0.009586 0.000926 -1642190.000000 1 0 0
2.020423 3.900142 -6.297953 7.678374 1.092822 2.532591 0.004337 -0.000348 -2001830.000000 1 0 0
1.580623 -14.749458 6.592047 16.232682 -1.464039 1.152617 0.011744 -0.004464 -38517.200000 1 0 0
-1.652877 5.353542 -10.645753 12.030148 -1.271336 2.657125 0.011935 -0.005402 -146820.000000 1 0 0
13.690623 4.315742 -0.772953 14.375543 0.305373 1.624591 0.005644 0.000748 -257885.000000 1 0 0
-2.420077 3.318442 -6.129553 7.378363 -0.940688 2.551244 0.009276 -0.004990 -710684.000000 1 0 0
5.774923 7.890642 14.169947 17.216253 0.939000 0.604025 0.022590 -0.003618 593818.000000 1 0 0
15.925523 0.560542 -5.843553 16.973025 0.035183 1.922273 0.032056 -0.004870 375911.000000 1 0 0
6.193623 -8.174758 10.572747 14.729923 -0.922416 0.770197 0.005074 -0.000308 491251.000000 1 0 0
0.048423 -5.846658 -6.308853 8.601591 -1.562514 2.394183 0.002190 -0.001617 -1066910.000000 1 0 0
8.492723 5.456942 -7.570453 12.618095 0.571115 2.214257 0.001169 -0.001665 -1004280.000000 1 0 0
-16.070177 -0.857158 5.271447 16.934387 0.053288 1.254250 0.020195 -0.009482 -494367.000000 1 0 0
-0.416177 3.913442 -12.401753 13.011214 -1.464849 2.834309 0.013132 -0.006767 458119.000000 1 0 0
-11.358977 3.769942 5.865647 13.328340 -0.320452 1.115099 -0.004559 -0.003153 -324763.000000 1 0 0
5.128023 -9.534458 -9.471853 14.384662 -1.077336 2.289579 -0.001691 -0.000640 428945.000000 1 0 0
1.603523 10.961842 -11.780753 16.171561 1.425544 2.386905 0.008612 -0.004504 -3111570.000000 1 0 0
5.850723 2.439742 1.308247 6.472620 0.395074 1.367274 0.003449 -0.001353 -351594.000000 1 0 0
5.819323 4.503842 4.951247 8.869271 0.658651 0.978524 -0.000185 0.000426 -58968.100000 1 0 0
0.339223 -1.569858 -6.365253 6.564752 -1.357983 2.894430 0.005828 -0.002804 -661518.000000 1 0 0
12.721723 6.714342 -4.609053 15.105230 0.485628 1.880871 0.012496 -0.006514 -1312580.000000 1 0 0
7.411323 3.156742 12.727847 15.062896 0.402662 0.564268 0.013297 -0.002473 -347242.000000 1 0 0
-2.632977 -0.049858 8.522747 8.920329 0.018934 0.299685 0.008889 -0.002720 977638.000000 1 0 0
2.293823 -15.167758 13.263747 20.279287 -1.420703 0.857865 0.016349 -0.006871 238231.000000 1 0 0
18.878023 4.619842 -1.694453 19.508815 0.240004 1.657762 0.034342 -0.010561 732796.000000 1 0 0
-0.420777 -13.209658 7.242547 15.070720 1.538953 1.069491 0.008469 -0.001383 -2172500.000000 1 0 0
4.309423 1.619442 -0.477053 4.628315 0.359464 1.674052 0.004669 -0.003013 1030460.000000 1 0 0
2.705623 -0.495358 -7.428453 7.921343 -0.181079 2.786968 0.005468 -0.001816 628467.000000 1 0 0
7.229523 -11.279058 0.925147 13.429037 -1.000796 1.501850 0.005974 -0.008254 298391.000000 1 0 0
-11.877377 -7.381558 1.350747 14.049342 0.556064 1.474504 0.003613 0.001080 369456.000000 1 0 0
0.160723 -7.036558 10.038647 12.260237 -1.547959 0.611484 0.001798 -0.002412 -1408150.000000 1 0 0
-4.656177 -7.176858 10.583147 13.608464 0.995282 0.679816 0.008744 -0.003720 -1213110.000000 1 0 0
11.869523 0.744742 -1.605153 12.000697 0.062662 1.704953 0.004674 0.000429 526269.000000 1 0 0
6.543723 -9.696958 -7.265953 13.771179 -0.977169 2.126593 0.001867 -0.003240 -1373070.000000 1 0 0
-10.933977 4.852642 3.476947 12.457494 -0.417697 1.287935 -0.005713 -0.002532 -434666.000000 1 0 0
5.907223 -9.195258 2.051647 11.120131 -0.999768 1.385235 0.001600 -0.008336 3095450.000000 1 0 0
11.667923 -1.247058 5.869547 13.120486 -0.106475 1.106988 0.010014 -0.009396 819716.000000 1 0 0
-6.486877 3.679042 4.133347 8.526399 -0.515916 1.064696 0.003128 -0.004943 -2767240.000000 1 0 0
9.526823 6.320042 -3.138153 11.855433 0.585734 1.838691 0.002615 0.000608 995035.000000 1 0 0
-2.303577 6.588242 10.920247 12.960062 -1.234434 0.568689 -0.000131 -0.001013 25745.500000 1 0 0
1.894723 9.786742 2.934847 10.391517 1.379561 1.284473 -0.000694 0.001782 -295435.000000 1 0 0
2.882523 6.103942 -5.694953 8.831734 1.129603 2.271595 0.001417 0.003475 -1906770.000000 1 0 0
12.037323 0.046742 -5.599053 13.275870 0.003883 2.006167 0.012767 -0.000804 438209.000000 1 0 0
-2.702177 -12.491958 6.270347 14.236152 1.357765 1.114694 0.009892 -0.000346 -143684.000000 1 0 0
10.974223 1.861042 -2.753853 11.466505 0.167985 1.813332 0.005458 -0.000087 256585.000000 1 0 0
-8.853377 5.399942 0.827547 10.403196 -0.547689 1.491165 0.001542 -0.002885 -825989.000000 1 0 0
1.084123 -10.224158 5.558647 11.687912 -1.465156 1.075162 0.006032 -0.003287 936350.000000 1 0 0
9.426623 -5.836458 -1.099653 11.141575 -0.554379 1.669655 0.012021 -0.006102 594810.000000 1 0 0
-7.833377 8.621542 -4.479253 12.480244 -0.833260 1.937893 0.005199 -0.000939 -1249760.000000 1 0 0
-7.417077 -0.014258 -1.487653 7.564810 0.001922 1.768741 0.005283 -0.002384 -818412.000000 1 0 0
4.121023 8.779242 2.674747 10.060427 1.131923 1.301692 0.002413 0.000585 689734.000000 1 0 0
-1.440677 -10.563458 -3.677553 11.277703 1.435249 1.902961 0.005928 -0.003186 385233.000000 1 0 0
3.118923 7.771942 -3.712053 9.160245 1.189165 1.988032 0.005551 -0.000283 -100391.000000 1 0 0
-4.383177 1.604042 -10.928753 11.883721 -0.350817 2.737961 0.007721 -0.008892 -382946.000000 1 0 0
1.289523 2.912442 10.937747 11.392081 1.153977 0.283371 0.002704 -0.005181 535340.000000 1 0 0
2.171223 5.588842 -8.178353 10.140750 1.200249 2.508977 0.005180 0.000595 151750.000000 1 0 0
15.601423 6.161842 3.950147 17.233002 0.376149 1.339520 0.019777 -0.007994 404792.000000 1 0 0
-4.405777 9.107942 4.592147 11.110954 -1.120250 1.144722 0.005692 0.001018 599246.000000 1 0 0
-0.962877 -8.196058 -12.355753 14.858234 1.453852 2.552736 -0.008231 -0.000349 21247.000000 1 0 0
14.300023 -4.301558 -5.239053 15.825351 -0.292198 1.908217 0.033232 -0.004562 574209.000000 1 0 0
-6.030077 -6.197758 -5.607853 10.306408 0.799110 2.146128 0.012920 -0.003448 682189.000000 1 0 0
-8.869577 2.537342 -12.104353 15.219161 -0.278631 2.490359 0.016833 -0.010475 -1413340.000000 1 0 0
10.632723 5.549242 13.665547 18.182301 0.481015 0.720334 0.032198 -0.000028 609144.000000 1 0 0
-0.373377 10.803242 5.477247 12.118155 -1.536248 1.101805 0.002698 0.006664 842963.000000 1 0 0
0.426323 11.150242 -0.573153 11.173099 1.532581 1.622116 0.002380 0.002526 -74897.100000 1 0 0
-1.487677 -0.566058 3.630847 3.964424 0.363582 0.413158 0.008342 -0.003760 416734.000000 1 0 0
-4.793777 6.737042 8.851247 12.112498 -0.952357 0.751372 0.000963 -0.002327 -1906670.000000 1 0 0
3.427423 -8.722758 -11.319053 14.695397 -1.196401 2.450021 -0.004901 0.002654 730997.000000 1 0 0
6.741023 -3.836358 12.082347 14.357651 -0.517394 0.570693 0.016471 -0.002769 -276032.000000 1 0 0
-2.438577 -1.909858 -12.531253 12.908389 0.664404 2.899272 0.005174 -0.008058 1102760.000000 1 0 0
-16.172277 -4.985158 5.407847 17.766237 0.299011 1.261499 0.024459 -0.011349 859275.000000 1 0 0
-8.961877 7.376042 5.767947 12.961113 -0.688637 1.109600 -0.000252 -0.004615 -1937420.000000 1 0 0
-12.855277 1.537042 6.139547 14.328806 -0.119000 1.127991 -0.003795 -0.003200 370309.000000 1 0 0
-3.605977 3.682142 10.111747 11.349391 -0.795848 0.471362 0.001054 -0.000775 510954.000000 1 0 0
2.032023 -12.311758 -1.060253 12.523284 -1.407224 1.655560 0.009598 -0.007675 -3269900.000000 1 0 0
10.222023 -5.287458 -3.559353 12.046408 -0.477361 1.870744 0.017017 -0.002270 1017690.000000 1 0 0
3.008323 -13.400458 1.072447 13.775791 -1.349964 1.492867 0.007630 -0.007101 517143.000000 1 0 0
10.094423 -1.672558 -6.087153 11.905807 -0.164200 2.107465 0.014276 0.000356 146197.000000 1 0 0
11.991023 -5.427858 -1.493353 13.246749 -0.425064 1.683770 0.017673 -0.004899 700564.000000 1 0 0
1.452323 0.885142 5.954447 6.192589 0.547351 0.278226 0.006638 -0.002448 539299.000000 1 0 0
-10.759777 11.695042 6.595247 17.205932 -0.827025 1.177416 0.000331 -0.006135 -190822.000000 1 0 0
4.796323 -14.060258 2.924047 15.140859 -1.242049 1.376452 0.011484 -0.007524 -5038830.000000 1 0 0
5.292323 -3.412158 -1.631453 6.504855 -0.572667 1.824308 0.008656 -0.003685 -1396750.000000 1 0 0
2.036823 -2.878458 -7.686453 8.456697 -0.954982 2.711481 0.002332 -0.001347 -138056.000000 1 0 0
-2.732677 14.786642 -8.856153 17.451182 -1.388051 2.103056 0.028420 -0.005916 -1242920.000000 1 0 0
-2.346377 5.992542 -8.179253 10.407508 -1.197596 2.474945 0.013057 -0.003914 -174154.000000 1 0 0
2.595623 -3.543758 -11.297753 12.121662 -0.938623 2.770771 0.001659 -0.000517 -985774.000000 1 0 0
14.526923 2.773742 -2.681053 15.030408 0.188667 1.750131 0.013198 0.003021 638372.000000 1 0 0
-3.466477 13.187442 2.193147 13.810684 -1.313749 1.411320 0.003018 0.002255 568305.000000 1 0 0
7.844023 -5.154158 14.011847 16.864931 -0.581337 0.590204 0.026234 -0.008294 -290138.000000 1 0 0
-11.648277 7.227842 2.908247 14.013635 -0.555362 1.361747 -0.007568 -0.000358 1015670.000000 1 0 0
-2.200277 11.879342 4.063347 12.746403 -1.387653 1.246350 0.003551 0.003517 -613691.000000 1 0 0
1.836123 1.472442 0.840347 2.499123 0.675917 1.227857 0.001550 -0.001321 -1703760.000000 1 0 0
-6.881577 8.656342 5.288247 12.257811 -0.899127 1.124732 0.001724 -0.002705 -862590.000000 1 0 0
-1.068677 9.055842 0.997047 9.173028 -1.453330 1.461888 0.002705 0.002572 416316.000000 1 0 0
5.032523 12.782042 -8.552353 16.181768 1.195717 2.127650 0.012957 -0.014195 -3759850.000000 1 0 0
8.985323 6.926842 7.143247 13.406832 0.656747 1.008883 -0.003407 0.002393 -1678080.000000 1 0 0
7.189423 -13.778558 2.791547 15.790161 -1.089874 1.393072 0.017746 -0.009236 418041.000000 1 0 0
4.168523 -13.564758 -1.177453 14.239580 -1.272651 1.653580 0.005923 -0.001921 -3202150.000000 1 0 0
12.143023 -11.745558 -4.426153 17.464305 -0.768761 1.827031 0.036790 -0.011539 -1007800.000000 1 0 0
2.901023 -0.087358 -1.854053 3.443991 -0.030104 2.139267 0.005995 -0.002668 1460360.000000 1 0 0
-13.650377 -3.446858 -10.719053 17.694963 0.247340 2.221528 0.034605 -0.009249 -8365.000000 1 0 0
-6.588077 13.723042 5.028947 16.031686 -1.123216 1.251722 0.007608 -0.004356 677411.000000 1 0 0
7.358423 -4.417458 -0.620653 8.604971 -0.540660 1.642986 0.007158 -0.003712 316661.000000 1 0 0
11.770223 1.992642 -7.330153 14.008565 0.167705 2.121471 0.010707 -0.000405 -193875.000000 1 0 0
-7.590377 -4.451258 9.675047 13.077999 0.530385 0.738030 0.007616 -0.003459 277267.000000 1 0 0
0.950923 2.779042 8.449247 8.945228 1.241108 0.334564 0.003861 -0.003676 -1693390.000000 1 0 0
1.648223 8.032842 -8.804853 12.031983 1.368420 2.391737 0.007668 -0.000092 -1294010.000000 1 0 0
-8.552177 -1.904958 -5.466753 10.327342 0.219167 2.128628 0.013768 -0.003987 -1324440.000000 1 0 0
6.702423 -0.420758 7.163247 9.818942 -0.062695 0.753157 0.004445 -0.001228 117793.000000 1 0 0
-10.930677 6.483542 7.232347 14.622683 -0.535368 1.053424 0.002650 -0.005806 475262.000000 1 0 0
-5.877377 11.154242 5.001347 13.563707 -1.085846 1.193154 0.003168 0.000223 40442.000000 1 0 0
6.095023 -1.216858 -6.828353 9.233442 -0.197057 2.403159 0.005728 0.000237 -104228.000000 1 0 0
4.467723 -5.775158 11.407247 13.543939 -0.912355 0.569371 0.009965 -0.003812 -1625690.000000 1 0 0
-9.106077 -7.379458 2.774647 12.044738 0.681043 1.338347 0.004927 -0.000954 -2576280.000000 1 0 0
-1.067277 12.685542 -9.442353 15.849924 -1.486861 2.208977 0.018927 0.000240 951259.000000 1 0 0
-4.671477 9.272242 -2.299353 10.634105 -1.104103 1.788742 0.003946 -0.000342 337291.000000 1 0 0
-3.206177 9.667242 -0.340453 10.190733 -1.250558 1.604211 0.004877 -0.000407 -2189890.000000 1 0 0
-3.453377 10.655042 -6.448353 12.924279 -1.257372 2.093164 0.009601 0.003365 578391.000000 1 0 0
4.836223 -4.851158 0.448047 6.864658 -0.786940 1.505481 0.005526 -0.006128 -1642480.000000 1 0 0
-2.240777 2.941342 -10.996153 11.601205 -0.919772 2.817204 0.013165 -0.008406 -623206.000000 1 0 0
-3.558377 12.183942 -2.272353 12.894731 -1.286645 1.747945 0.002018 0.003711 1174870.000000 1 0 0
-0.100077 0.290542 -0.004653 0.307330 -1.239074 1.585936 0.001142 -0.003760 -2070820.000000 1 0 0
-4.833677 -1.761858 0.173347 5.147682 0.349530 1.537115 0.007862 -0.003091 56045.000000 1 0 0
2.634123 2.491942 -2.490053 4.398720 0.757668 2.172546 -0.002406 -0.001135 549636.000000 1 0 0
6.021823 -9.741958 8.479547 14.250292 -1.017151 0.933476 0.002949 -0.000883 -604374.000000 1 0 0
-4.217977 -5.447458 6.702147 9.611707 0.911923 0.799187 0.009653 -0.001917 159332.000000 1 0 0
-6.218577 5.379242 -11.995453 14.542965 -0.713154 2.540695 -0.000962 -0.006639 1646750.000000 1 0 0
-12.932477 3.150442 8.003447 15.531562 -0.238953 1.029436 0.002157 -0.007880 672295.000000 1 0 0
4.728623 -7.508358 -4.803953 10.090256 -1.008766 2.067009 0.002027 -0.003536 1238870.000000 1 0 0
-5.994277 2.518142 -0.984053 6.575771 -0.397705 1.721009 0.007155 -0.003065 -592136.000000 1 0 0
-6.753777 -2.858058 -14.514653 16.262138 0.400327 2.673749 0.014082 -0.007510 -461680.000000 1 0 0
2.649523 -6.148358 0.920747 6.757962 -1.163912 1.434125 0.008410 -0.004818 568366.000000 1 0 0
4.790723 -7.925658 12.961547 15.930122 -1.027106 0.620393 0.012828 -0.004587 -187378.000000 1 0 0
-10.055377 -1.643358 8.082547 13.005338 0.161999 0.900167 0.002167 -0.001370 146064.000000 1 0 0
-4.411877 13.323342 -0.074853 14.035017 -1.251022 1.576130 0.003263 0.005085 698265.000000 1 0 0
6.833923 2.221742 -4.361853 8.406212 0.314327 2.116342 0.002762 0.002138 -1289290.000000 1 0 0
5.068723 4.503642 0.026747 6.780520 0.726434 1.566852 -0.000571 0.000672 -925273.000000 1 0 0
-5.885977 12.303142 1.795447 13.756295 -1.124567 1.439905 0.004981 -0.000080 -1063760.000000 1 0 0
6.438223 -7.321358 6.550247 11.745584 -0.849494 0.979211 0.004583 -0.005722 -937647.000000 1 0 0
-0.256177 4.969642 7.640847 9.118416 -1.519293 0.577266 0.001260 -0.000685 -1105720.000000 1 0 0
-5.827577 -3.450358 -1.401453 6.915902 0.534571 1.774852 0.010848 -0.004359 -598022.000000 1 0 0
2.283323 -6.555958 -5.132453 8.633436 -1.235653 2.207422 0.002629 -0.001177 -924760.000000 1 0 0
-14.598677 -4.936958 -3.747453 15.859960 0.326105 1.809336 0.013140 -0.005959 176617.000000 1 0 0
-12.429077 -5.127858 -6.341853 14.865934 0.391295 2.011530 0.020281 -0.007007 -1462780.000000 1 0 0
-14.883377 -3.763258 -1.328053 15.409113 0.247659 1.657090 0.002026 -0.004383 159891.000000 1 0 0
11.836323 2.907942 8.809047 15.038417 0.240908 0.944967 0.007436 -0.004747 -2026520.000000 1 0 0
8.713723 -6.510558 7.623547 13.282876 -0.641682 0.959490 0.010898 -0.008379 -84423.400000 1 0 0
-8.865277 -1.714958 -9.776953 13.308757 0.191086 2.395911 0.012524 -0.006369 330235.000000 1 0 0
-8.873477 5.080142 -3.838353 10.921511 -0.519960 1.929915 0.005060 -0.003608 -323453.000000 1 0 0
-4.116477 -6.276358 4.135847 8.569906 0.990305 1.067174 0.010602 -0.001926 -1174840.000000 1 0 0
-0.206477 -9.230258 3.501247 9.874160 1.548430 1.208324 0.009468 -0.004164 1793490.000000 1 0 0
7.841923 -10.420958 3.437747 13.487410 -0.925688 1.313067 0.007991 -0.010873 182216.000000 1 0 0
-0.019877 6.491842 9.656247 11.635614 -1.567734 0.591891 0.001171 -0.001648 1067790.000000 1 0 0
0.015223 3.481042 -9.880253 10.475556 1.566423 2.802847 0.013509 -0.006327 -816505.000000 1 0 0
4.521623 -3.140658 11.059047 12.353596 -0.607083 0.461897 0.006761 -0.005115 -1820170.000000 1 0 0
8.586623 -9.083558 1.423847 12.580479 -0.813514 1.457374 0.008877 -0.007915 576199.000000 1 0 0
-0.237677 -0.388858 11.346347 11.355496 1.022169 0.040145 0.005786 -0.002127 -2188350.000000 1 0 0
10.854023 5.954742 11.270747 16.742118 0.501784 0.832272 0.020338 -0.001984 263770.000000 1 0 0
-6.308977 -2.992058 -11.901153 13.798298 0.442840 2.611003 0.010278 -0.005706 -193751.000000 1 0 0
-1.622677 2.870142 8.472447 9.091378 -1.056233 0.371122 0.006085 -0.003071 -1248290.000000 1 0 0
-1.451677 13.545542 -6.889653 15.266184 -1.464034 2.039020 0.021499 0.002149 1336320.000000 1 0 0
7.723123 3.063542 9.809047 12.854934 0.377634 0.702767 0.004663 -0.000374 449130.000000 1 0 0
6.551523 8.426742 -7.921453 13.292172 0.909946 2.209243 0.000937 -0.000854 -826717.000000 1 0 0
6.682923 -3.023358 -3.882153 8.298991 -0.424848 2.057581 0.009436 -0.001330 -1621770.000000 1 0 0
1.956823 8.053142 0.979347 8.345141 1.332427 1.453170 0.001775 0.000210 1051700.000000 1 0 0
-17.688877 6.386742 6.378447 19.858788 -0.346493 1.243810 0.034620 -0.006787 -169074.000000 1 0 0
-14.769877 2.681542 -10.089653 18.087040 -0.179599 2.162576 0.040658 -0.009839 -462867.000000 1 0 0
-18.229877 0.124042 -4.401253 18.754062 -0.006804 1.807688 0.057836 -0.012874 40282.700000 1 0 0
-12.963777 8.062242 0.074647 15.266461 -0.556371 1.565907 -0.002806 0.003141 -2380520.000000 1 0 0
-12.806777 -4.393458 -13.056053 18.808948 0.330476 2.338022 0.045548 0.001983 -376394.000000 1 0 0
-17.386377 -0.721258 -8.500953 19.366789 0.041460 2.025220 0.036494 -0.018066 -1140710.000000 1 0 0
-16.791977 -2.118858 -2.100953 17.055030 0.125519 1.694297 0.044967 -0.011284 -135051.000000 1 0 0
-15.344177 3.997142 1.684047 15.945436 -0.254835 1.464986 0.006673 0.002225 -1125710.000000 1 0 0
-13.165777 5.770942 4.446547 15.047034 -0.413106 1.270807 -0.005722 -0.001651 734834.000000 1 0 0
-10.038377 14.147142 2.673147 17.551534 -0.953677 1.417899 0.022880 -0.012039 159967.000000 1 0 0
-11.711277 2.380642 -6.550753 13.628420 -0.200545 2.072213 0.001200 0.002820 49096.000000 1 0 0
-15.925977 10.669042 3.634947 19.510973 -0.590248 1.383399 0.015500 -0.002381 -1089500.000000 1 0 0
-12.902277 0.993442 -8.551953 15.511015 -0.076846 2.154774 0.016844 -0.007018 492071.000000 1 0 0
-12.334177 14.324942 3.913447 19.304170 -0.859935 1.366656 0.031158 -0.018676 -90534.700000 1 0 0
-10.657277 11.016142 -1.067553 15.364655 -0.801954 1.640333 0.009855 -0.006402 101451.000000 1 0 0
-17.157577 5.593342 8.856047 20.102177 -0.315135 1.114583 0.036191 -0.018153 202114.000000 1 0 0
-11.947777 12.594242 -9.257153 19.673820 -0.811733 2.060689 0.041422 -0.012117 442082.000000 1 0 0
-17.211077 -0.536358 3.028747 17.483769 0.031153 1.396686 0.038849 -0.005412 755275.000000 1 0 0
-13.229277 14.840042 -0.449853 19.885748 -0.842721 1.593420 0.047994 -0.020950 10459.700000 1 0 0
-16.509877 4.527342 -10.479253 20.072060 -0.267641 2.120086 0.065520 -0.008363 718862.000000 1 0 0
-11.961977 7.462142 -8.936053 16.692079 -0.557752 2.135715 0.016207 0.000699 281960.000000 1 0 0
-14.824977 13.496442 -2.054853 20.153320 -0.738523 1.672935 0.052542 -0.024199 542251.000000 1 0 0
-11.880277 10.578642 -5.492853 16.829144 -0.727507 1.903277 0.030818 -0.012263 428237.000000 1 0 0
-17.761077 3.008742 -0.671153 18.026615 -0.167808 1.608036 0.045203 -0.005578 38760.800000 1 0 0
-9.381277 15.317242 0.516447 17.969223 -1.021262 1.542052 0.031282 -0.016601 138429.000000 1 0 0
-8.026877 13.114942 -3.827053 15.845466 -1.021570 1.814732 0.015470 -0.009151 -1333990.000000 1 0 0
-17.843677 11.621742 2.316647 21.420284 -0.577295 1.462432 0.083913 -0.004748 -270120.000000 1 0 0
-7.954977 15.623642 -7.427953 19.040860 -1.099845 1.971543 0.055462 -0.028868 -74791.300000 1 0 0
-6.233477 15.268942 -5.415353 17.358654 -1.183202 1.888061 0.022384 -0.006711 -1655240.000000 1 0 0
-17.368177 5.434942 -0.121553 18.199092 -0.303272 1.577475 0.039694 0.004731 845071.000000 1 0 0
-5.412777 12.315742 -12.311453 18.235886 -1.156708 2.311927 0.009660 -0.005517 407432.000000 1 0 0
-11.164777 3.635542 -11.414353 16.375496 -0.314798 2.342055 0.016130 -0.009438 201962.000000 1 0 0
-11.847477 11.024442 1.173547 16.225851 -0.749429 1.498407 0.007540 -0.006620 72790.300000 1 0 0
-12.910277 0.106142 -10.969253 16.941400 -0.008221 2.275072 0.020543 -0.013528 -241054.000000 1 0 0
-14.214177 -2.172558 -13.001153 19.385376 0.151671 2.305905 0.049058 -0.015897 233382.000000 1 0 0
-18.777277 -2.392058 -3.681753 19.283760 0.126709 1.762901 0.058152 -0.013214 -536440.000000 1 0 0
-18.414877 4.865442 -4.980653 19.687233 -0.258310 1.826565 0.066900 -0.009754 26433.300000 1 0 0
-8.102477 15.171342 -2.306153 17.353331 -1.080270 1.704085 0.030457 -0.017955 -280885.000000 1 0 0
-15.998277 9.290942 -5.458453 19.288888 -0.526142 1.857701 0.032689 -0.002102 -878782.000000 1 0 0
-18.285677 1.647542 2.115747 18.481255 -0.089858 1.456064 0.060767 -0.006761 -318695.000000 1 0 0
-15.710777 -2.779458 -8.553953 18.103149 0.175102 2.062935 0.024180 -0.010901 -374684.000000 1 0 0
-9.727177 10.587442 -7.137553 16.051684 -0.827720 2.031592 0.020506 -0.007839 226210.000000 1 0 0
-14.009977 11.892642 -7.797853 19.962988 -0.703837 1.972096 0.050897 -0.021949 -36560.700000 1 0 0
-11.086577 6.465742 -3.871553 13.405482 -0.527978 1.863773 -0.003536 0.000786 -1972170.000000 1 0 0
-13.122277 4.660742 -12.695953 18.844200 -0.341280 2.310045 0.053769 -0.016218 273803.000000 1 0 0
-17.709077 9.055842 2.717247 20.074938 -0.472700 1.435024 0.043403 -0.008968 860159.000000 1 0 0
-13.416177 8.718242 -6.561753 17.293298 -0.576256 1.959986 0.015029 0.001177 -354276.000000 1 0 0
-15.846777 7.134442 -3.867453 17.803870 -0.423032 1.789767 0.022019 0.005852 -843564.000000 1 0 0
-14.974077 -0.423158 -9.413553 17.692287 0.028252 2.131841 0.032502 -0.011543 946668.000000 1 0 0
-9.949977 5.799442 -6.082053 13.024091 -0.527721 2.056674 0.000878 -0.000056 546809.000000 1 0 0
-12.861377 12.234642 -0.925453 17.775206 -0.760430 1.622884 0.022756 -0.015839 -1384860.000000 1 0 0
-10.494977 3.436942 -13.870553 17.729900 -0.316477 2.469187 0.015923 -0.013446 166700.000000 1 0 0
-11.088177 6.234342 -11.931453 17.440592 -0.512201 2.324192 0.021130 -0.007360 -416939.000000 1 0 0
-5.753277 11.573242 -14.838553 19.677977 -1.109456 2.425032 0.012207 -0.008682 -202330.000000 1 0 0
-15.633877 13.288342 3.416847 20.800793 -0.704477 1.405783 0.032968 -0.020174 693679.000000 1 0 0
-14.962977 11.148242 -3.170653 18.926886 -0.640329 1.739111 0.037014 -0.010025 360027.000000 1 0 0
-18.053277 7.917242 -4.848353 20.300494 -0.413290 1.811956 0.037440 -0.007513 -296027.000000 1 0 0
-3.962477 16.209442 -10.581153 19.758746 -1.331043 2.135917 0.045691 -0.012394 -7624.730000 1 0 0
-15.856977 4.500142 -4.408553 17.062542 -0.276525 1.832137 0.024891 0.000184 226144.000000 1 0 0
-18.733877 -1.687158 -6.098353 19.773582 0.089817 1.884316 0.048503 -0.010900 503632.000000 1 0 0
-10.769277 8.588042 -5.854653 14.966922 -0.673189 1.972702 0.009770 0.000440 1069180.000000 1 0 0
-11.546477 13.594742 -6.932153 19.136167 -0.866689 1.941481 0.043270 -0.012802 238478.000000 1 0 0
-9.531077 10.453842 -4.371753 14.806636 -0.831538 1.870520 0.005236 -0.005207 -170387.000000 1 0 0
-11.086577 6.281142 -0.171453 12.743404 -0.515464 1.584251 -0.004039 0.000135 -326905.000000 1 0 0
-14.676677 9.152442 -1.525453 17.363728 -0.557595 1.658763 0.024610 -0.005093 -125887.000000 1 0 0
-18.385677 3.257142 4.783647 19.274994 -0.175337 1.319996 0.033783 -0.012233 205872.000000 1 0 0
-14.929477 13.192642 0.461847 19.928582 -0.723716 1.547619 0.032194 -0.015649 -86054.600000 1 0 0
-17.168577 2.354442 -9.195953 19.618078 -0.136287 2.058670 0.063040 -0.007195 80857.600000 1 0 0
-9.204477 8.488642 -8.833753 15.323662 -0.744962 2.185208 0.009837 0.001919 -1621990.000000 1 0 0
-17.616277 4.790542 -2.552953 18.433667 -0.265518 1.709737 0.030693 0.002837 781156.000000 1 0 0
-13.640677 5.903742 -4.473853 15.522165 -0.408462 1.863167 0.007946 0.003931 -802867.000000 1 0 0
-12.212977 9.620342 3.331247 15.899843 -0.667205 1.359718 -0.006327 -0.001386 858017.000000 1 0 0
-17.567577 2.559142 -3.948553 18.186810 -0.144657 1.789650 0.035030 -0.004077 930043.000000 1 0 0
-11.234777 1.367442 -12.576653 16.919288 -0.121119 2.408835 0.024201 -0.009260 431981.000000 1 0 0
-11.131377 12.007542 3.462447 16.735506 -0.823245 1.362399 0.005621 -0.007947 -22653.600000 1 0 0
-16.626477 13.117042 -3.930853 21.539455 -0.667951 1.754320 0.070727 -0.021036 403304.000000 1 0 0
-11.199177 4.080242 -4.569653 12.765252 -0.349387 1.936896 -0.003761 0.000363 -257934.000000 1 0 0
-11.114377 15.055442 -9.027753 20.777296 -0.934871 2.020280 0.050229 -0.015027 429107.000000 1 0 0
-15.346177 7.054242 -0.287553 16.892311 -0.430870 1.587820 0.011943 0.003615 -1900020.000000 1 0 0
-12.734377 8.401242 -4.062553 15.787640 -0.583184 1.831049 0.011292 -0.000288 643376.000000 1 0 0
-19.257977 1.863542 -5.909753 20.230365 -0.096467 1.867242 0.081565 -0.013851 710447.000000 1 0 0
-12.601377 10.010942 -8.947253 18.413772 -0.671337 2.078189 0.027384 -0.009968 555613.000000 1 0 0
-16.501877 10.909042 -1.048953 19.809580 -0.584124 1.623773 0.030165 -0.015822 -157658.000000 1 0 0
-10.710477 6.426642 -14.550953 19.176712 -0.540444 2.432238 0.027782 -0.015635 133107.000000 1 0 0
-14.082177 13.210542 -4.504653 19.827204 -0.753472 1.799993 0.055297 -0.010993 50160.500000 1 0 0
-17.809077 8.012242 -0.273253 19.530333 -0.422768 1.584788 0.046120 -0.004034 281568.000000 1 0 0
-12.781877 6.557742 -2.120253 14.521565 -0.474033 1.717327 -0.004384 0.003619 414390.000000 1 0 0
-13.865277 8.299942 -10.599353 19.325662 -0.539399 2.151318 0.036059 -0.007620 -10484.000000 1 0 0
-15.043177 1.371342 -1.045053 15.141661 -0.090909 1.639870 0.005226 0.002222 -92285.900000 1 0 0
-13.303477 2.707642 -2.465453 13.798271 -0.200786 1.750439 0.000343 0.000749 -596382.000000 1 0 0
-11.318877 8.998942 -10.873553 18.092321 -0.671708 2.215553 0.024615 -0.008856 -328273.000000 1 0 0
-15.516177 4.117142 -8.042853 17.955225 -0.259368 2.035256 0.035325 -0.001965 839204.000000 1 0 0
-18.215577 10.580242 4.814447 21.608509 -0.526208 1.346107 0.084056 -0.027491 589560.000000 1 0 0
-15.534377 6.107442 -6.325053 17.850042 -0.374593 1.933009 0.032338 0.004210 653736.000000 1 0 0
-7.665177 11.434942 -13.105753 19.007198 -0.980262 2.331616 0.005064 0.004123 -708000.000000 1 0 0
-16.790077 9.356642 -3.011853 19.455711 -0.508409 1.726227 0.038980 -0.007035 83151.300000 1 0 0
-20.682277 -0.852658 -4.550053 21.194023 0.041203 1.787166 0.087024 -0.021629 1940690.000000 1 0 0
-15.476077 4.379942 4.128947 16.605453 -0.275801 1.319510 0.011153 -0.000191 -563723.000000 1 0 0
-6.933477 12.508342 -9.449553 17.141347 -1.064651 2.154685 0.016450 -0.011983 -237909.000000 1 0 0
-16.873077 1.556942 6.021847 17.982977 -0.092013 1.229336 0.018104 -0.012503 710947.000000 1 0 0
-10.341977 14.250142 -3.164453 17.889572 -0.943000 1.748620 0.039326 -0.024775 1936760.000000 1 0 0
-10.048277 8.378342 -12.989953 18.436468 -0.695019 2.352626 0.007461 -0.006526 420341.000000 1 0 0
-13.703777 11.651342 2.817347 18.206722 -0.704627 1.415430 0.015736 -0.009703 80265.500000 1 0 0
-16.746877 6.858542 1.894047 18.195739 -0.388705 1.466515 0.017093 0.002725 558133.000000 1 0 0
-9.415177 13.231242 -8.394753 18.280678 -0.952336 2.047907 0.038540 -0.021613 129878.000000 1 0 0
-5.642477 9.749442 -12.996953 17.199126 -1.046149 2.427481 0.009037 -0.002354 -292513.000000 1 0 0
-15.892877 1.757942 3.214647 16.309748 -0.110164 1.372398 0.006431 0.001116 -190813.000000 1 0 0
-18.781577 -4.839958 4.678347 19.951435 0.252210 1.334106 0.062685 -0.011865 1139510.000000 1 0 0
-5.241477 14.320742 -9.105053 17.761158 -1.219934 2.109051 0.023376 -0.013333 -987112.000000 1 0 0
-15.388777 -0.736358 -6.801653 16.840997 0.047814 1.986545 0.012962 -0.003979 450882.000000 1 0 0
-8.983277 11.003742 -9.493353 17.085238 -0.886145 2.159937 0.013782 -0.008518 663785.000000 1 0 0
-16.631577 1.477842 -6.031853 17.753214 -0.088625 1.917459 0.014498 -0.001092 -1085980.000000 1 0 0
-11.181277 8.580642 -1.604453 14.185297 -0.654552 1.684146 0.000841 -0.002113 -1010270.000000 1 0 0
-10.588477 10.882542 -12.585253 19.721414 -0.799093 2.262891 0.028772 -0.011052 -272855.000000 1 0 0
-14.140377 11.552642 -10.286353 20.957644 -0.685019 2.083823 0.065596 -0.022811 -133788.000000 1 0 0
-13.362377 5.608342 -7.693053 16.407001 -0.397383 2.058828 0.016477 0.005215 -1030460.000000 1 0 0
-8.784877 15.288142 -4.969053 18.319193 -1.049247 1.845486 0.035208 -0.023030 582516.000000 1 0 0
-8.642977 6.115742 -12.941453 16.720782 -0.615806 2.455890 0.005230 -0.006573 754899.000000 1 0 0
-16.321977 7.494142 4.313147 18.470851 -0.430432 1.335109 0.020778 0.001803 553721.000000 1 0 0
-12.760177 5.299742 -10.167753 17.154958 -0.393655 2.205204 0.024356 -0.003782 672797.000000 1 0 0
-12.556077 9.254042 -13.224353 20.449349 -0.635140 2.274031 0.054950 -0.017829 -649042.000000 1 0 0
-10.940177 5.056042 -8.340153 14.656370 -0.432915 2.176142 0.006689 -0.000617 648265.000000 1 0 0
-17.724377 -4.502958 -2.632353 18.475916 0.248791 1.713758 0.041678 -0.010853 131482.000000 1 0 0
-8.961877 13.036942 -10.999953 19.268525 -0.968562 2.178370 0.040467 -0.013398 -114591.000000 1 0 0
-15.147877 6.145842 6.072747 17.438687 -0.385430 1.215110 0.007292 -0.006460 -223789.000000 1 0 0
-16.402077 -3.160758 -4.512753 17.302701 0.190371 1.834660 0.027551 -0.007337 -631247.000000 1 0 0
-11.195277 -1.319058 -12.487953 16.823291 0.117282 2.407295 0.026502 -0.009216 1377280.000000 1 0 0
-15.573977 6.674742 -8.682253 19.038972 -0.404902 2.044320 0.042340 0.001865 201736.000000 1 0 0
-14.886977 9.385742 1.062447 17.630741 -0.562521 1.510499 0.017549 -0.006414 -301440.000000 1 0 0
-19.478777 5.316442 7.943847 21.697743 -0.266445 1.195967 0.079928 -0.027891 106467.000000 1 0 0
-16.311277 0.543642 0.896847 16.344958 -0.033317 1.515899 0.025650 -0.003984 -646795.000000 1 0 0
-17.400977 3.814442 7.058547 19.161604 -0.215795 1.193542 0.020563 -0.012596 755561.000000 1 0 0
-15.441877 4.016242 -1.472253 16.023399 -0.254450 1.662808 0.011963 0.000849 -1220460.000000 1 0 0
-10.774877 13.246342 0.227347 17.076746 -0.887924 1.557483 0.023010 -0.016799 -897591.000000 1 0 0
-13.503577 3.301842 0.029647 13.901426 -0.239811 1.568664 -0.000157 0.001970 -367399.000000 1 0 0
-15.042777 0.287742 -4.313253 15.651584 -0.019126 1.849989 0.008556 -0.003736 -157549.000000 1 0 0
-18.720177 6.752642 3.511747 20.208305 -0.346188 1.396132 0.045021 -0.006427 -195803.000000 1 0 0
-14.034377 1.389042 -6.277153 15.436833 -0.098653 1.989564 0.010161 0.000975 -914920.000000 1 0 0
-14.256977 11.904042 5.315147 19.318861 -0.695699 1.292074 0.009187 -0.012316 773419.000000 1 0 0
17.796723 5.720042 6.085847 19.659088 0.310981 1.256056 0.058447 -0.018190 188872.000000 1 0 0
18.600623 7.747842 -0.370953 20.153159 0.394680 1.589204 0.053982 -0.007430 559120.000000 1 0 0
16.795023 5.187242 8.414147 19.487897 0.299562 1.124350 0.066095 -0.012587 523722.000000 1 0 0
11.629823 12.445842 10.760247 20.147821 0.819279 1.007395 0.031287 -0.011941 535545.000000 1 0 0
-2.245277 16.422342 -0.612753 16.586442 -1.434918 1.607748 0.004450 0.002664 -307493.000000 1 0 0
15.079723 12.778242 3.220647 20.026335 0.702971 1.409274 0.044413 -0.007526 215247.000000 1 0 0
13.657223 11.853642 6.511847 19.220633 0.714817 1.225161 0.039644 -0.008690 711808.000000 1 0 0
-0.615477 15.754342 8.512947 17.917823 -1.531749 1.075707 0.009070 -0.005849 -382976.000000 1 0 0
0.706323 12.913642 9.351747 15.959831 1.516155 0.944738 0.003780 -0.001004 -31890.600000 1 0 0
0.759723 15.438242 -3.828553 15.924017 1.521626 1.813601 0.005443 0.004341 -1089030.000000 1 0 0
5.432223 10.257842 13.430147 17.751091 1.083775 0.712727 0.025360 -0.013722 19830.600000 1 0 0
-1.288477 16.584842 -2.899153 16.885563 -1.493262 1.743345 0.007494 0.008438 -17101.600000 1 0 0
8.617423 10.099442 3.293947 13.678772 0.864414 1.327599 0.007214 -0.000254 57289.100000 1 0 0
12.673123 13.465242 -4.926853 19.136213 0.815694 1.831191 0.071836 -0.021934 -68563.600000 1 0 0
2.446223 11.605342 7.805947 14.198619 1.363053 0.988710 0.006175 0.001523 240720.000000 1 0 0
-0.205277 14.868342 -8.789053 17.273019 -1.556991 2.104623 0.020909 -0.001392 -1499770.000000 1 0 0
2.377523 15.920742 0.186947 16.098372 1.422557 1.559183 0.009546 -0.007514 -964614.000000 1 0 0
1.960723 13.542042 5.281847 14.667285 1.427008 1.202410 0.007982 0.001318 198271.000000 1 0 0
17.422623 9.228442 -2.088653 19.826104 0.487110 1.676341 0.031852 -0.005957 189110.000000 1 0 0
-7.142177 14.989542 7.244747 18.115834 -1.126143 1.159375 0.011627 -0.011063 -457475.000000 1 0 0
8.482723 15.845142 -0.314753 17.975655 1.079269 1.588307 0.018173 -0.012815 211302.000000 1 0 0
15.733623 10.538442 2.034947 19.045909 0.590171 1.463748 0.036166 0.003203 -1408550.000000 1 0 0
14.066123 7.561442 8.695447 18.183565 0.493245 1.072188 0.030047 -0.008312 -1011560.000000 1 0 0
4.266223 18.403242 -2.020053 18.998963 1.343001 1.677322 0.021830 -0.014668 -854387.000000 1 0 0
-0.295477 17.539042 -5.044053 18.252336 -1.553951 1.850792 0.019188 0.004023 -241454.000000 1 0 0
1.382523 13.621342 -0.741753 13.711401 1.469646 1.624920 0.002789 -0.001025 -277925.000000 1 0 0
10.316623 14.837542 4.178947 18.548557 0.963228 1.343548 0.023920 -0.011017 -592670.000000 1 0 0
-1.549477 15.216542 -5.099553 16.122948 -1.469318 1.892614 0.014934 -0.000833 52959.300000 1 0 0
15.138623 8.765842 -6.371753 18.617656 0.524864 1.920099 0.058331 -0.007887 290844.000000 1 0 0
-2.331977 18.573642 0.898147 18.740997 -1.445897 1.522854 0.010265 -0.003682 486818.000000 1 0 0
-3.733577 19.393942 3.477347 20.053841 -1.380610 1.396515 0.013227 -0.016829 264588.000000 1 0 0
1.827023 17.617942 -2.729353 17.921475 1.467463 1.723686 0.004492 -0.003818 -222524.000000 1 0 0
2.996423 12.208142 3.312547 12.999625 1.330110 1.313136 0.003105 0.001767 26892.400000 1 0 0
-2.541077 16.153642 1.884847 16.460555 -1.414768 1.456038 0.007193 -0.005118 -1503020.000000 1 0 0
11.858723 12.757142 -2.660753 17.619693 0.821880 1.722386 0.030466 -0.008494 544859.000000 1 0 0
7.244823 11.689642 4.701347 14.534024 1.015971 1.241400 0.004796 -0.000880 -437160.000000 1 0 0
7.232723 15.810042 1.931047 17.492817 1.141742 1.460180 0.017246 -0.010036 -1544640.000000 1 0 0
5.562723 12.360242 10.212347 16.970902 1.147901 0.925098 0.012038 0.003364 1454800.000000 1 0 0
-1.290877 14.269742 3.156547 14.671595 -1.480579 1.353954 0.004104 0.002543 -13402.500000 1 0 0
4.645123 16.082742 1.457447 16.803449 1.289622 1.483952 0.009750 -0.014921 -2312100.000000 1 0 0
7.443223 13.217942 11.886847 19.272070 1.057940 0.906137 0.032323 -0.009981 436232.000000 1 0 0
0.852023 17.237442 -9.473853 19.687794 1.521408 2.072824 0.033963 -0.003091 520180.000000 1 0 0
9.894823 9.507142 15.402447 20.628346 0.765419 0.727763 0.041459 -0.010171 -100539.000000 1 0 0
13.421123 7.481142 -0.265453 15.367644 0.508519 1.588071 0.003142 0.001681 130393.000000 1 0 0
12.433323 13.690242 -0.212853 18.494744 0.833475 1.582305 0.031035 -0.008902 372116.000000 1 0 0
9.340823 12.538642 3.447247 16.010997 0.930527 1.353792 0.009514 0.001362 605755.000000 1 0 0
-0.600377 12.914142 0.814047 12.953694 -1.524340 1.507912 0.003139 0.001188 468919.000000 1 0 0
15.996423 7.477442 -0.850053 17.678243 0.437266 1.618900 0.030390 -0.001262 -1259180.000000 1 0 0
-4.230577 18.493742 -2.350953 19.116570 -1.345909 1.694088 0.024976 -0.000837 169744.000000 1 0 0
11.575623 9.147242 -3.191553 15.094803 0.668747 1.783838 0.016938 -0.003857 21216.700000 1 0 0
14.666923 9.822842 7.792547 19.295871 0.590119 1.155080 0.033519 -0.011372 85920.600000 1 0 0
4.459023 13.779642 4.678247 15.219968 1.257836 1.258362 0.011231 -0.000874 20534.200000 1 0 0
2.189523 16.002842 5.699247 17.127942 1.434820 1.231583 0.014635 -0.002082 138866.000000 1 0 0
6.216623 18.404742 5.356247 20.151186 1.245056 1.301759 0.035977 -0.027235 -67443.100000 1 0 0
10.616623 17.190142 -1.061153 20.232145 1.017536 1.623269 0.039282 -0.014034 -522793.000000 1 0 0
10.019623 13.514142 -4.438253 17.398936 0.932811 1.828735 0.042661 -0.011726 1020570.000000 1 0 0
16.563123 8.009942 2.205747 18.530017 0.450443 1.451477 0.017731 -0.001594 -282391.000000 1 0 0
3.974523 14.023942 -0.555053 14.586839 1.294629 1.608857 0.001806 -0.003753 -354384.000000 1 0 0
5.673423 13.244342 -2.392853 14.605686 1.166078 1.735368 0.001556 0.000123 -327150.000000 1 0 0
-6.151177 16.824742 -2.933553 18.152539 -1.220289 1.733114 0.029924 -0.008484 -1825670.000000 1 0 0
18.200023 9.997542 2.343047 20.896927 0.502317 1.458436 0.046844 -0.007542 12347.400000 1 0 0
7.959623 13.044842 9.358347 17.919324 1.022930 1.021310 0.024069 -0.004981 -288611.000000 1 0 0
-2.592177 15.740442 6.652747 17.284095 -1.407579 1.175691 0.005021 -0.005002 1968300.000000 1 0 0
11.326523 16.084342 6.214347 20.630421 0.957260 1.264822 0.032261 -0.012629 23442.400000 1 0 0
13.543023 11.884242 1.264547 18.062330 0.720254 1.500729 0.030847 -0.006844 377184.000000 1 0 0
17.466923 7.750242 -5.614653 19.916927 0.417611 1.856574 0.055791 0.005945 -448613.000000 1 0 0
9.522223 9.248042 8.001547 15.499154 0.770792 1.028322 0.011086 0.000594 225967.000000 1 0 0
-1.901777 14.179642 -1.922353 14.435181 -1.437472 1.704364 0.002308 0.002607 684571.000000 1 0 0
10.978823 11.690642 0.687547 16.052364 0.816788 1.527952 0.018321 0.002233 -958503.000000 1 0 0
11.773023 9.793042 -0.623753 15.326343 0.693845 1.611506 0.013920 0.000408 -833673.000000 1 0 0
-0.231377 16.124642 11.059647 19.554371 -1.556448 0.969655 0.017576 -0.009114 81085.900000 1 0 0
2.274023 19.880342 -1.518853 20.067538 1.456906 1.646556 0.031610 -0.022771 -774332.000000 1 0 0
9.397323 14.455942 1.658847 17.321539 0.994374 1.474881 0.019663 -0.005493 -245570.000000 1 0 0
8.499123 11.702942 -5.233253 15.381186 0.942677 1.917966 0.010780 -0.004920 -594124.000000 1 0 0
10.703623 10.100342 10.182347 17.895939 0.756408 0.965537 0.020475 -0.003963 837015.000000 1 0 0
-5.079277 15.845542 5.800647 17.621798 -1.260595 1.235367 -0.002264 -0.004390 567646.000000 1 0 0
14.389423 9.032942 -2.061253 17.114272 0.560573 1.691530 0.033693 -0.005943 -780697.000000 1 0 0
12.238923 9.632342 6.753447 16.975933 0.666779 1.161652 0.015715 -0.006356 -790456.000000 1 0 0
3.233923 13.015642 9.712447 16.558890 1.327264 0.944016 0.011783 -0.002767 -1318620.000000 1 0 0
8.495523 12.501242 -2.689853 15.352207 0.973911 1.746915 0.013344 -0.005989 -620476.000000 1 0 0
9.592723 17.030442 1.803047 19.629245 1.057823 1.478812 0.025252 -0.011328 -94849.400000 1 0 0
9.661323 14.304342 -7.606953 18.863220 0.976764 1.985883 0.052040 -0.014681 43214.100000 1 0 0
6.456923 11.542942 7.265147 15.090186 1.060778 1.068490 0.004189 0.003158 -752046.000000 1 0 0
5.404723 16.930542 -5.703253 18.664977 1.261793 1.881322 0.020321 -0.001664 -2039740.000000 1 0 0
-4.136877 17.181342 -4.656853 18.275627 -1.334517 1.828450 0.026339 -0.004731 355947.000000 1 0 0
-0.053377 18.493342 -0.514853 18.500584 -1.567910 1.598629 0.015116 -0.008205 -618847.000000 1 0 0
6.592923 15.741542 -2.858953 17.304230 1.174169 1.736774 0.007770 0.001853 -126046.000000 1 0 0
-0.870777 20.666442 0.710947 20.696993 -1.528686 1.536439 0.022466 -0.014197 136894.000000 1 0 0
-1.352277 18.822542 4.398547 19.376892 -1.499076 1.341801 0.015920 -0.010656 -232496.000000 1 0 0
7.294823 13.816342 -4.384353 16.227393 1.085012 1.844379 0.011507 0.000800 -1384010.000000 1 0 0
-0.936177 11.963242 7.606247 14.207413 -1.492701 1.005849 0.001608 0.003013 706340.000000 1 0 0
7.753023 10.969942 10.899647 17.298882 0.955554 0.889142 0.016219 -0.002426 344873.000000 1 0 0
1.672623 15.996042 -7.420353 17.712500 1.466610 2.003066 0.015194 -0.000938 586976.000000 1 0 0
8.996023 7.229042 14.801347 18.768787 0.676921 0.662243 0.032365 0.000004 -52700.400000 1 0 0
11.414023 11.268942 -4.886553 16.767450 0.779002 1.866519 0.045620 -0.009817 -131971.000000 1 0 0
-3.362477 17.019942 4.410947 17.900870 -1.375747 1.321822 0.003908 -0.007595 -443176.000000 1 0 0
4.096423 15.036942 -6.780653 16.996104 1.304827 1.981171 0.014563 -0.011227 -575649.000000 1 0 0
-4.487177 14.049142 9.542047 17.565985 -1.261645 0.996539 0.010122 -0.008779 454194.000000 1 0 0
6.240223 17.932142 0.513247 18.993828 1.235912 1.543771 0.014781 -0.012270 -210696.000000 1 0 0
9.812023 10.689842 -2.192653 14.675021 0.828189 1.720772 0.019461 -0.002583 -1495020.000000 1 0 0
7.411823 18.241042 -2.606853 19.861179 1.184848 1.702430 0.020100 0.000127 30417.700000 1 0 0
3.519623 10.454842 10.365347 15.137103 1.246064 0.816516 0.009484 0.000118 526753.000000 1 0 0
0.046823 18.684042 2.137547 18.805976 1.568290 1.456887 0.018833 -0.011561 503310.000000 1 0 0
-0.821377 17.031742 -7.526653 18.638814 -1.522607 1.986481 0.031909 0.002890 442871.000000 1 0 0
10.289823 8.649842 12.916847 18.642563 0.699024 0.805337 0.032423 -0.007077 598839.000000 1 0 0
3.663823 11.476642 5.536547 13.258592 1.261781 1.140014 0.003385 0.001910 505850.000000 1 0 0
12.795923 13.913142 8.011247 20.530252 0.827203 1.169929 0.034626 -0.023313 -273757.000000 1 0 0
-0.558777 17.382842 6.690347 18.634274 -1.538662 1.203563 0.013462 -0.006898 -661691.000000 1 0 0
12.199323 13.719942 5.503647 19.166388 0.843999 1.279545 0.027750 -0.011826 234710.000000 1 0 0
4.882623 14.623642 -4.471253 16.052508 1.248549 1.853069 0.000317 0.001338 -330024.000000 1 0 0
3.848423 17.646342 4.601947 18.638178 1.356072 1.321306 0.023843 -0.014582 1675150.000000 1 0 0
7.142223 11.733442 2.047347 13.888003 1.024000 1.422839 0.012137 0.001472 549450.000000 1 0 0
6.495723 8.730442 11.651047 15.942457 0.931126 0.751276 0.013569 -0.005194 565222.000000 1 0 0
-5.366477 14.945042 1.751747 15.975668 -1.226055 1.460924 0.008475 0.002772 158951.000000 1 0 0
6.769723 13.800742 5.966847 16.489175 1.114751 1.200529 0.012844 -0.004595 -2090610.000000 1 0 0
5.928223 15.914942 4.883047 17.671258 1.214224 1.290826 0.016554 -0.012980 716505.000000 1 0 0
1.235823 17.990342 4.357947 18.551856 1.502210 1.333674 0.021925 -0.012295 998169.000000 1 0 0
7.110123 18.118642 -7.145353 20.733912 1.196841 1.922632 0.019914 -0.007552 133670.000000 1 0 0
-2.339077 18.656542 -6.008453 19.739284 -1.446071 1.880095 0.037764 0.001445 -2589500.000000 1 0 0
13.588123 9.977842 -4.549153 17.461077 0.633381 1.834369 0.041990 -0.010989 -2622310.000000 1 0 0
-1.441477 18.051042 9.639447 20.514310 -1.491110 1.081631 0.020977 -0.013925 -390555.000000 1 0 0
3.521323 11.860542 -1.650553 12.481847 1.282192 1.703421 0.002930 0.000030 60356.500000 1 0 0
4.573423 13.811542 -10.991153 18.234043 1.251030 2.217779 0.020462 -0.020654 -552234.000000 1 0 0
11.614023 13.454142 2.275547 17.918638 0.858671 1.443459 0.032988 -0.008947 778666.000000 1 0 0
15.991123 6.454842 -7.357953 18.748879 0.383650 1.974088 0.038418 -0.002290 -106.938000 1 0 0
2.514923 16.109442 2.975647 16.573878 1.415932 1.390279 0.015156 -0.010160 442990.000000 1 0 0
13.604523 10.667242 3.465447 17.631858 0.664967 1.372964 0.028383 -0.000555 -669788.000000 1 0 0
-4.852877 19.384242 -5.955853 20.851174 -1.325487 1.860467 0.034042 -0.009461 75961.800000 1 0 0
5.543423 12.096242 0.023647 13.305982 1.141081 1.569019 0.005464 -0.000946 249207.000000 1 0 0
5.058223 15.482542 9.752947 18.984591 1.255023 1.031270 0.024881 -0.005794 -52292.400000 1 0 0
7.873123 9.405742 13.814447 18.474117 0.873866 0.726095 0.028583 -0.010838 -275474.000000 1 0 0
-4.969977 13.715042 7.077747 16.214116 -1.223141 1.119072 0.000644 0.000021 -1109710.000000 1 0 0
-4.500277 17.165342 0.404247 17.750067 -1.314395 1.548020 0.011459 -0.005145 -252494.000000 1 0 0
-0.642177 16.550742 3.491347 16.927166 -1.532015 1.363048 0.011982 -0.007975 -1708140.000000 1 0 0
7.768523 17.105242 -4.873353 19.408473 1.144488 1.824607 0.013072 -0.001635 260665.000000 1 0 0
3.050123 16.406242 -4.715853 17.340914 1.386983 1.846215 0.000518 0.000569 694124.000000 1 0 0
9.635223 14.481442 8.163847 19.214528 0.983706 1.131968 0.025766 -0.010189 48314.400000 1 0 0
12.755723 11.067442 8.915247 19.096554 0.714649 1.085070 0.028709 -0.016676 31222.400000 1 0 0
3.831223 12.416742 12.138747 17.782096 1.271511 0.819429 0.025158 -0.005861 557131.000000 1 0 0
-3.423077 19.113142 6.001647 20.323617 -1.393580 1.271023 0.023235 -0.015560 334150.000000 1 0 0
-2.561777 15.792642 10.144347 18.944076 -1.409984 1.005709 0.010826 -0.009071 -1027160.000000 1 0 0
2.124823 14.254042 7.765447 16.370545 1.422818 1.076565 0.012782 -0.000915 238829.000000 1 0 0
4.367723 17.250842 7.994447 19.508453 1.322819 1.148568 0.030807 -0.013751 341419.000000 1 0 0
-1.926677 13.424442 9.374047 16.486373 -1.428250 0.966001 0.007141 -0.003911 -760483.000000 1 0 0
5.986623 17.679042 2.992847 18.903579 1.244288 1.411806 0.018540 -0.023088 711849.000000 1 0 0
7.377823 15.498842 -6.790453 18.459594 1.126513 1.947497 0.013368 -0.000858 -2386.570000 1 0 0
10.975823 7.644642 9.400447 16.348628 0.608372 0.958193 0.011940 -0.001589 449257.000000 1 0 0
9.104223 16.167342 -2.881153 18.776870 1.057933 1.724846 0.027395 -0.016155 -397655.000000 1 0 0
14.482623 11.374942 -6.539153 19.542164 0.665787 1.911996 0.083318 -0.017939 344921.000000 1 0 0
11.095923 6.564542 15.958247 20.515320 0.534233 0.679527 0.061987 -0.019515 -126883.000000 1 0 0
8.471223 8.513542 10.170447 15.737853 0.787890 0.868148 0.008396 -0.001253 833860.000000 1 0 0
16.612523 9.397042 4.370447 19.580121 0.514787 1.345692 0.052344 -0.007203 186822.000000 1 0 0
-3.338277 14.287742 4.622547 15.383485 -1.341268 1.265592 0.001025 0.000201 -1062750.000000 1 0 0
4.427623 14.968142 12.604447 20.062931 1.283194 0.891500 0.020398 -0.002118 -720770.000000 1 0 0
16.035323 10.541142 -4.611453 19.736077 0.581539 1.806632 0.069494 -0.024797 642212.000000 1 0 0
14.779223 14.201942 6.374347 21.465155 0.765482 1.269286 0.055537 -0.005019 432359.000000 1 0 0
6.194423 9.644742 9.242047 14.724380 0.999882 0.892240 0.004678 0.002545 624642.000000 1 0 0
10.350023 12.054342 8.542047 18.038756 0.861323 1.077492 0.020996 -0.012727 -1333630.000000 1 0 0
8.052723 11.471142 -0.357753 14.020037 0.958730 1.596316 0.008212 -0.001404 -224696.000000 1 0 0
7.445823 13.643842 -8.740253 17.832182 1.071239 2.083046 0.035640 -0.008769 -860768.000000 1 0 0
2.754723 15.236842 -2.313153 15.655687 1.391935 1.719091 0.001519 -0.002259 223633.000000 1 0 0
12.237923 13.673342 -7.734753 19.913649 0.840739 1.969707 0.075918 -0.023505 -750887.000000 1 0 0
-7.966777 14.843242 9.692747 19.435553 -1.078200 1.048684 0.020962 -0.014194 -85937.600000 1 0 0
11.605123 9.761542 2.223547 15.326798 0.699328 1.425207 0.018865 0.000884 -2822310.000000 1 0 0
12.259223 8.629242 4.400947 15.624362 0.613337 1.285260 0.011772 -0.000191 403878.000000 1 0 0
14.181723 7.998242 6.092947 17.384394 0.513515 1.212709 0.022202 -0.006453 -1654360.000000 1 0 0
16.252123 7.450242 7.334747 19.324495 0.429831 1.181479 0.056949 -0.015106 362805.000000 1 0 0
13.696923 8.413342 2.179347 16.221577 0.550832 1.436040 0.011898 0.000736 -2495790.000000 1 0 0
-4.136577 17.293442 -7.242453 19.199675 -1.336009 1.957586 0.038091 -0.015861 263855.000000 1 0 0
3.029923 19.521442 -4.045353 20.165119 1.416815 1.772778 0.024059 -0.010757 298594.000000 1 0 0
-0.054677 14.858042 6.208047 16.102927 -1.567116 1.175022 0.009015 -0.000154 -702906.000000 1 0 0
6.918223 16.375342 8.051447 19.515108 1.171064 1.145517 0.033402 -0.007676 926667.000000 1 0 0
12.821423 15.174342 -2.323953 20.001257 0.869247 1.687250 0.056350 -0.017462 -440495.000000 1 0 0
12.714923 15.808642 3.959147 20.670202 0.893438 1.378067 0.036619 -0.011492 365966.000000 1 0 0
3.040623 18.118842 1.310547 18.418886 1.404530 1.499584 0.028230 -0.015821 -201096.000000 1 0 0
10.421223 14.554642 -1.461753 17.960407 0.949408 1.652274 0.029473 -0.003369 -575564.000000 1 0 0
-6.364177 15.744642 -0.553153 16.991247 -1.186664 1.603357 0.016763 -0.004053 -203506.000000 1 0 0
-3.847177 15.941142 -2.541553 16.594586 -1.333988 1.724557 0.014645 0.000037 -491451.000000 1 0 0
-6.793577 17.174942 1.677747 18.545786 -1.194131 1.480207 0.017920 -0.003109 458116.000000 1 0 0
-0.078477 19.382942 -6.803853 20.542566 -1.566748 1.908379 0.033697 -0.000147 -501324.000000 1 0 0
4.922923 14.892542 7.114747 17.223316 1.251541 1.144954 0.021978 -0.003893 -140042.000000 1 0 0
8.717723 12.497842 6.823247 16.695851 0.961724 1.149790 0.014351 -0.003756 -985892.000000 1 0 0
-7.563977 17.527942 -5.580353 19.889264 -1.163401 1.855185 0.052682 -0.020422 152369.000000 1 0 0
-8.092777 17.573842 -1.393253 19.397786 -1.139244 1.642684 0.063540 -0.021814 156832.000000 1 0 0
-13.877377 -8.942558 9.109547 18.855630 0.572427 1.066581 0.051891 -0.020050 174722.000000 1 0 0
-12.702277 -12.841158 7.532247 19.569822 0.790835 1.175707 0.046973 -0.011804 223554.000000 1 0 0
-4.018577 -14.883058 12.592547 19.905442 1.307075 0.885867 0.017787 -0.008147 52998.200000 1 0 0
-2.192777 -14.075858 15.136847 20.786106 1.416256 0.755076 0.020958 0.001818 -508861.000000 1 0 0
-7.461077 -13.451158 12.773047 19.993801 1.064368 0.877793 0.042113 -0.013677 -243199.000000 1 0 0
-9.997477 -11.519558 8.917147 17.668200 0.856019 1.041761 0.036515 -0.013858 412624.000000 1 0 0
-10.644177 -10.559758 11.327347 18.791376 0.781417 0.923797 0.055824 -0.019545 106731.000000 1 0 0
-6.093977 -12.182258 10.809347 17.389248 1.106962 0.899999 0.026288 -0.007704 880459.000000 1 0 0
-12.606677 -10.304958 7.249247 17.823357 0.685273 1.151927 0.028360 -0.010472 -617589.000000 1 0 0
-7.673077 -10.915058 12.489847 18.275965 0.958073 0.818383 0.032927 -0.020139 107831.000000 1 0 0
-14.923177 -11.434058 7.366447 20.191668 0.653785 1.197350 0.054268 -0.006980 -25562.600000 1 0 0
-11.206177 -9.115758 9.114047 17.080437 0.682894 1.007950 0.032755 -0.015812 -718767.000000 1 0 0
-5.441677 -11.896858 13.335247 18.680897 1.141802 0.775824 0.027819 -0.010965 -349344.000000 1 0 0
3.966623 -12.581958 14.708647 19.758139 -1.265396 0.731108 0.013290 0.000446 131503.000000 1 0 0
6.518223 -12.822758 14.101747 20.143724 -1.100505 0.795320 0.040999 -0.004324 -192659.000000 1 0 0
6.562823 -8.347258 16.027347 19.225588 -0.904511 0.585118 0.027901 -0.012656 798289.000000 1 0 0
0.669923 -1.677258 14.453147 14.565557 -1.190794 0.124318 0.006194 -0.001773 -988570.000000 1 0 0
-0.225377 -6.321158 15.534547 16.772895 1.535157 0.386671 0.005423 -0.009942 48337.700000 1 0 0
-1.653477 -4.685458 18.509847 19.165123 1.231544 0.262251 0.020622 -0.013767 -1688420.000000 1 0 0
-5.167877 12.825042 13.070747 19.027167 -1.187748 0.813510 0.002029 0.000805 741380.000000 1 0 0
-4.029377 8.909542 11.680047 15.232837 -1.146069 0.697006 -0.002008 0.005607 -66037.600000 1 0 0
-0.683377 -3.858758 15.010847 15.513947 1.395516 0.255365 0.006277 -0.005096 8489.970000 1 0 0
-4.468777 9.360442 14.232747 17.611330 -1.125383 0.629777 -0.001324 -0.001843 264248.000000 1 0 0
-13.465477 -2.276258 16.993247 21.800708 0.167461 0.676959 0.044264 -0.000414 -213499.000000 1 0 0
-0.273377 1.025442 17.299547 17.332069 -1.310261 0.061269 0.011020 -0.006783 1938510.000000 1 0 0
-3.241377 -7.171558 15.439047 17.329223 1.146300 0.471417 0.011044 -0.008290 260838.000000 1 0 0
-7.423377 5.549942 12.561947 15.611243 -0.641983 0.635672 -0.006852 -0.000303 -1512920.000000 1 0 0
-9.829977 10.047842 13.249047 19.316440 -0.796358 0.814964 0.010991 -0.015416 58645.000000 1 0 0
-5.499777 2.324642 11.157347 12.654561 -0.399903 0.491373 0.000522 0.000136 -494556.000000 1 0 0
-7.259177 -7.292858 16.865847 19.756980 0.787713 0.547814 0.015974 -0.011055 -31270.900000 1 0 0
-4.890877 2.770942 18.907547 19.725470 -0.515463 0.288981 0.011252 -0.004573 -1213830.000000 1 0 0
0.890523 -8.331658 16.586147 18.582514 -1.464316 0.467789 0.005816 -0.010345 813554.000000 1 0 0
-14.888677 -3.692158 13.962447 20.742581 0.243081 0.832364 0.057314 -0.010900 105838.000000 1 0 0
-14.343477 2.151442 13.205647 19.615126 -0.148885 0.832217 0.039439 -0.013895 -162816.000000 1 0 0
-5.466977 1.039442 16.047947 16.985432 -0.187888 0.333793 0.013517 -0.006441 295040.000000 1 0 0
4.701723 5.719642 15.280847 16.980130 0.882765 0.451198 0.010829 -0.003166 680214.000000 1 0 0
-1.150477 -11.992458 13.833847 18.344426 1.475156 0.716487 0.002993 -0.005561 -164203.000000 1 0 0
-5.936377 -4.038858 16.745047 18.219483 0.597421 0.405073 0.018295 -0.009559 417453.000000 1 0 0
-12.870577 -1.518658 9.949347 16.338531 0.117451 0.916060 0.015350 -0.006489 -690294.000000 1 0 0
-14.356377 10.242342 10.314047 20.430142 -0.619686 1.041594 0.007031 -0.004553 463478.000000 1 0 0
-3.672777 -3.245358 17.763347 18.427104 0.723694 0.269217 0.027251 -0.011213 -1404880.000000 1 0 0
-7.788577 9.326642 11.939247 17.035076 -0.875023 0.794190 -0.007310 -0.003890 14104.800000 1 0 0
-4.304577 10.718042 16.357847 20.024609 -1.188894 0.614803 0.007117 -0.003564 401042.000000 1 0 0
-12.405977 12.882542 8.313347 19.722573 -0.804241 1.135682 0.008866 -0.011973 85873.000000 1 0 0
-12.701377 3.232342 10.547047 16.822997 -0.249198 0.893174 0.016211 -0.010034 441651.000000 1 0 0
-10.177877 -3.470558 13.656947 17.382352 0.328626 0.667004 0.011420 -0.005052 -1328120.000000 1 0 0
-4.306777 -6.468558 17.883247 19.498746 0.983393 0.409930 0.021994 -0.008890 -126659.000000 1 0 0
0.567023 -3.599958 17.656547 18.028724 -1.414572 0.203543 0.016418 -0.021406 -114516.000000 1 0 0
-5.961077 1.974042 13.667347 15.040867 -0.319789 0.430683 0.004639 0.000735 -303552.000000 1 0 0
-10.578877 8.728142 10.196547 17.089842 -0.689832 0.931484 0.008086 -0.011073 -42352.700000 1 0 0
4.586123 2.487642 17.156847 17.932604 0.497011 0.295212 0.020869 -0.007891 -1042500.000000 1 0 0
0.570023 -5.367758 13.267547 14.323602 -1.464999 0.386400 0.003954 -0.004290 -2231340.000000 1 0 0
-4.277377 5.653342 20.665747 21.847868 -0.923078 0.330460 0.062046 -0.025712 158005.000000 1 0 0
-10.731977 10.954842 9.083447 17.823942 -0.795674 1.036053 0.004859 -0.006566 -149377.000000 1 0 0
0.710123 4.262842 13.062747 13.759050 1.405728 0.319498 0.007579 -0.005969 -2452350.000000 1 0 0
-3.090477 7.253242 13.415447 15.560681 -1.168009 0.531323 -0.002590 0.003129 -383721.000000 1 0 0
0.828723 8.980642 14.069247 16.711745 1.478778 0.570043 0.007856 -0.005318 35914.200000 1 0 0
-4.207477 -6.584258 13.064847 15.223191 1.002178 0.539005 0.010867 -0.006258 -66365.900000 1 0 0
-5.218177 8.328342 16.512447 19.215920 -1.011078 0.536876 0.013328 -0.000617 612630.000000 1 0 0
1.448523 -10.690058 15.797747 19.129673 -1.436115 0.599134 -0.002420 -0.002073 -557949.000000 1 0 0
-15.155377 -1.033158 14.297647 20.860863 0.068066 0.815669 0.056530 -0.015159 471579.000000 1 0 0
-13.633777 -5.112958 8.468947 16.844741 0.358789 1.044002 0.037400 -0.014463 -844637.000000 1 0 0
-14.173277 -1.960158 12.186247 18.794378 0.137428 0.865317 0.040265 -0.010798 670463.000000 1 0 0
9.406523 1.322642 16.816647 19.314028 0.139693 0.514181 0.061584 -0.011714 -586198.000000 1 0 0
4.835723 -6.723258 16.954147 18.868745 -0.947265 0.454386 0.028649 -0.011607 -636901.000000 1 0 0
-6.185677 -2.616658 11.093747 12.968451 0.400191 0.544394 0.006821 -0.000555 509222.000000 1 0 0
0.381823 -6.197258 17.964447 19.007187 -1.509263 0.332774 0.017557 -0.022415 105054.000000 1 0 0
-8.436877 11.907342 12.128147 18.975185 -0.954359 0.877393 0.003511 -0.005695 296721.000000 1 0 0
-6.612577 -5.787458 14.706747 17.132112 0.718954 0.538592 0.013199 -0.006014 -822727.000000 1 0 0
-4.346777 -8.909158 16.994247 19.674146 1.116876 0.528061 0.021703 -0.015299 148624.000000 1 0 0
2.404123 -6.260858 16.357647 17.679106 -1.204165 0.389094 0.016318 -0.011377 -1018390.000000 1 0 0
2.237123 5.296242 15.961147 16.965056 1.171132 0.345740 0.011712 -0.009167 -3160660.000000 1 0 0
0.859123 -8.813658 14.041647 16.600799 -1.473627 0.562655 0.000806 -0.005079 -433125.000000 1 0 0
-10.070877 -2.691958 11.252047 15.338767 0.261195 0.747237 0.003602 -0.003439 -320371.000000 1 0 0
-1.163777 10.043142 12.382747 15.985979 -1.455433 0.684713 0.000846 -0.004208 -300847.000000 1 0 0
-12.450377 -3.784258 11.316547 17.245195 0.295074 0.855005 0.023203 -0.005723 -1574280.000000 1 0 0
-1.903277 6.414442 19.762147 20.864084 -1.282354 0.326455 0.051196 -0.035013 -336412.000000 1 0 0
0.124823 -13.293558 15.782247 20.635251 -1.561407 0.700035 -0.000901 -0.003351 -807058.000000 1 0 0
3.988023 -8.709958 15.379047 18.118576 -1.141418 0.557085 0.013165 -0.007981 -256847.000000 1 0 0
4.210723 -4.428658 16.213347 17.326737 -0.810619 0.360441 0.022279 -0.004970 408549.000000 1 0 0
7.999123 1.614242 14.664047 16.781717 0.199128 0.507811 0.018029 -0.002074 318628.000000 1 0 0
-6.362777 -0.065558 11.897247 13.491988 0.010303 0.491129 0.003685 -0.001158 157012.000000 1 0 0
-3.449977 -10.990258 18.342847 21.659828 1.266625 0.560743 0.026233 -0.014109 -55818.400000 1 0 0
3.254523 -1.468458 13.550647 14.013149 -0.423856 0.257635 0.007641 -0.002596 798042.000000 1 0 0
-2.564277 8.794842 15.990847 18.429106 -1.287095 0.520249 0.013251 -0.003945 -78802.200000 1 0 0
-3.227777 4.088942 14.847547 15.734918 -0.902557 0.337441 0.006537 -0.004527 -73572.800000 1 0 0
-4.504877 -9.049558 19.676747 22.121546 1.108910 0.474583 0.032075 -0.017941 111594.000000 1 0 0
-5.888777 -2.844658 19.019847 20.112791 0.450007 0.331180 0.027338 -0.015987 -966947.000000 1 0 0
-6.667277 -8.543958 11.160947 15.556945 0.908152 0.770697 0.016985 -0.012609 260622.000000 1 0 0
-11.726377 2.443442 12.771747 17.509879 -0.205432 0.753348 0.026360 -0.018226 -132378.000000 1 0 0
-11.775477 -7.424058 11.480747 18.044003 0.562521 0.881151 0.037227 -0.020562 -567748.000000 1 0 0
-11.047977 -7.360858 15.480147 20.393013 0.587723 0.708881 0.030308 -0.020832 156051.000000 1 0 0
0.260623 5.851342 17.668247 18.613788 1.526285 0.320106 0.017978 -0.015509 -250051.000000 1 0 0
-2.171977 0.005842 13.185347 13.363042 -0.002690 0.163261 0.010160 -0.000245 360430.000000 1 0 0
-6.055377 -10.502958 18.235547 21.897829 1.047805 0.586729 0.039862 -0.014079 -143863.000000 1 0 0
0.372223 2.926942 19.099747 19.326300 1.444304 0.153268 0.023459 -0.013101 217715.000000 1 0 0
-0.714577 10.971442 14.771847 18.414414 -1.505758 0.639843 0.014799 -0.007159 -299825.000000 1 0 0
-12.831477 -2.206058 14.400147 19.413339 0.170261 0.735097 0.028093 -0.005534 -1990950.000000 1 0 0
-13.725577 8.243842 11.835147 19.910377 -0.540874 0.934251 0.020483 -0.013432 328931.000000 1 0 0
-18.083677 -0.627558 6.892547 19.362862 0.034689 1.206847 0.059234 -0.020163 -1093000.000000 1 0 0
-2.136677 -7.842058 17.671647 19.451231 1.304789 0.431091 0.017399 -0.014099 -2427140.000000 1 0 0
5.653023 2.773442 14.533247 15.838684 0.456109 0.408849 0.015166 -0.005066 -2171240.000000 1 0 0
-14.150977 -6.370058 11.209847 19.143889 0.422978 0.945229 0.047227 -0.019311 318875.000000 1 0 0
3.268123 7.703842 16.328347 18.347881 1.169587 0.473603 0.021982 -0.014829 -232138.000000 1 0 0
0.938423 2.140242 14.550747 14.737216 1.157576 0.159246 0.007888 -0.005318 -2326290.000000 1 0 0
-14.285977 0.662242 9.733647 17.299468 -0.046323 0.973201 0.026220 -0.011838 -2933010.000000 1 0 0
-9.550777 -5.131858 15.488847 18.906552 0.493059 0.610726 0.012574 -0.006791 -205231.000000 1 0 0
-2.576877 -0.103858 18.060147 18.243355 0.040282 0.141840 0.024795 -0.013707 186625.000000 1 0 0
6.822323 3.684742 17.400147 19.049581 0.495211 0.419203 0.039357 -0.008510 -517703.000000 1 0 0
-4.193377 -0.718258 14.641847 15.247426 0.169638 0.282781 0.014446 -0.000416 -360177.000000 1 0 0
4.802823 -9.199958 17.782947 20.589792 -1.089666 0.528275 0.031389 -0.007306 -143956.000000 1 0 0
1.981623 6.894042 13.446147 15.239866 1.290902 0.490068 0.009275 -0.003831 -962736.000000 1 0 0
-3.768777 -0.640258 20.295847 20.652725 0.168278 0.186171 0.040292 -0.014939 -1680880.000000 1 0 0
-10.424877 1.570242 16.382947 19.481907 -0.149501 0.571794 0.015817 -0.006847 -716619.000000 1 0 0
-3.970577 7.091442 18.452647 20.163190 -1.060376 0.414879 0.026998 -0.015192 -1238090.000000 1 0 0
-12.585577 1.302142 14.973547 19.603557 -0.103096 0.701589 0.028740 -0.012513 -122733.000000 1 0 0
-16.088777 -4.818958 8.444747 18.798534 0.291019 1.104900 0.047542 -0.021009 -729612.000000 1 0 0
-2.292277 0.853942 15.695547 15.885023 -0.356603 0.154607 0.016723 -0.005306 225189.000000 1 0 0
-13.957977 -8.641358 12.323847 20.527431 0.554344 0.926845 0.065403 -0.029961 364342.000000 1 0 0
6.015323 -3.346258 14.594247 16.136096 -0.507659 0.440714 0.017787 -0.007736 584563.000000 1 0 0
-15.720377 -0.044858 7.671247 17.492293 0.002853 1.116812 0.027003 -0.013197 -219365.000000 1 0 0
-14.005277 5.764442 12.417147 19.584742 -0.390458 0.884054 0.036834 -0.023668 242877.000000 1 0 0
0.409723 9.510242 16.600547 19.136111 1.527741 0.520645 0.020923 -0.020181 -63451.900000 1 0 0
-10.406677 -5.422558 10.842347 15.976845 0.480357 0.824902 0.013333 -0.009972 -86950.300000 1 0 0
-3.237777 -11.105558 15.105447 19.026065 1.287114 0.653543 0.013157 -0.005386 -1993320.000000 1 0 0
-3.473777 2.794642 12.586847 13.353122 -0.677477 0.340420 0.002158 -0.000415 -998711.000000 1 0 0
-12.471477 -7.632758 7.473547 16.421043 0.549209 1.098289 0.033352 -0.010446 680257.000000 1 0 0
-8.262377 -1.818958 13.127447 15.617470 0.216693 0.572477 0.004011 -0.003058 -461835.000000 1 0 0
-9.758677 6.470942 9.474647 15.062331 -0.585527 0.890492 0.000696 -0.005189 -913051.000000 1 0 0
-17.897777 -3.581658 6.693247 19.441149 0.197509 1.219322 0.052389 -0.020473 151837.000000 1 0 0
-1.351677 0.135742 20.405347 20.450517 -0.100089 0.066476 0.028726 -0.017628 -909260.000000 1 0 0
-2.663977 2.819142 20.213847 20.582613 -0.813689 0.189579 0.033121 -0.013333 -1154610.000000 1 0 0
-3.910077 11.395042 11.156047 16.419290 -1.240247 0.823787 0.004145 -0.004979 -104754.000000 1 0 0
-4.224077 -4.808658 14.883347 16.201236 0.850026 0.406134 0.013360 -0.007096 2093350.000000 1 0 0
-0.232077 -14.367358 13.414647 19.657762 1.554645 0.819742 0.011137 -0.004062 124912.000000 1 0 0
-12.114077 0.509642 8.395847 14.747910 -0.042045 0.965154 0.001397 -0.002477 -555016.000000 1 0 0
-7.767777 2.094742 15.497147 17.461039 -0.263405 0.478846 0.003383 -0.001226 -531638.000000 1 0 0
3.492523 -2.235058 18.424947 18.885759 -0.569281 0.221359 0.020711 -0.004596 11972.300000 1 0 0
-2.052577 4.970542 12.696447 13.788370 -1.179178 0.400648 0.001767 -0.001039 -662658.000000 1 0 0
-10.444577 -6.129058 13.282047 17.974074 0.530670 0.739277 0.014060 -0.013538 -635180.000000 1 0 0
2.292123 -3.726758 14.273947 14.929438 -1.019388 0.297426 0.007064 -0.003026 -697953.000000 1 0 0
6.778723 1.071842 16.946547 18.283473 0.156820 0.384788 0.027939 -0.004430 -743758.000000 1 0 0
-1.969577 -5.577258 13.740747 14.959719 1.231323 0.406485 0.004257 -0.007114 -2529550.000000 1 0 0
-12.878577 3.836342 14.608647 19.849127 -0.289516 0.743677 0.026057 -0.011817 387303.000000 1 0 0
-13.348977 -6.444958 13.491347 20.043681 0.449798 0.832407 0.040511 -0.018257 -394449.000000 1 0 0
-9.512777 6.948642 11.971747 16.795812 -0.630874 0.777340 0.006190 -0.004809 -446893.000000 1 0 0
-1.083577 -2.348358 12.826247 13.084401 1.138487 0.198973 0.004884 0.001098 428917.000000 1 0 0
0.194923 6.710142 15.240947 16.653843 1.541756 0.414889 0.010678 -0.009746 501068.000000 1 0 0
-16.524077 -0.670258 10.065347 19.359896 0.040540 1.024054 0.057142 -0.011471 29571.900000 1 0 0
-1.275977 2.909842 13.775647 14.137318 -1.157544 0.226683 0.002614 -0.003574 -3939110.000000 1 0 0
-11.277077 -3.316658 16.131447 19.959867 0.286041 0.629717 0.017471 -0.006671 154288.000000 1 0 0
-5.208177 -1.414458 17.013147 17.848613 0.265188 0.307175 0.029132 -0.006412 367966.000000 1 0 0
-11.799077 6.573042 11.123747 17.497453 -0.508263 0.881836 0.015646 -0.012426 -1968820.000000 1 0 0
-3.070777 4.619642 18.483447 19.297891 -0.984141 0.291561 0.038003 -0.020823 413590.000000 1 0 0
5.032623 -1.966858 16.435247 17.300670 -0.372569 0.317632 0.017141 -0.004630 -1326480.000000 1 0 0
-8.146777 -4.126958 12.060247 15.127833 0.468894 0.648116 0.009267 -0.003383 -2078190.000000 1 0 0
-11.530777 -0.766558 16.221147 19.916628 0.066382 0.619011 0.015454 -0.004568 -175413.000000 1 0 0
2.097123 2.144442 17.284747 17.543063 0.796554 0.171819 0.009450 -0.010606 -1187130.000000 1 0 0
-9.036277 -7.483458 11.528147 16.448545 0.691676 0.794192 0.020576 -0.015236 387651.000000 1 0 0
-7.069877 6.950042 14.802447 17.815687 -0.776851 0.590134 -0.010252 -0.005167 -1418320.000000 1 0 0
-5.627377 3.580942 15.862847 17.208151 -0.566715 0.398042 0.002252 -0.005071 -13301.300000 1 0 0
-9.408877 4.292942 11.617047 15.553524 -0.428052 0.727397 -0.001212 -0.007848 -166719.000000 1 0 0
-10.248277 0.322242 14.179247 17.498059 -0.031433 0.626077 0.003428 -0.002990 182089.000000 1 0 0
8.316723 -0.717958 15.752047 17.827236 -0.086114 0.487312 0.036573 -0.005468 390064.000000 1 0 0
-8.653077 -7.392858 14.656447 18.556442 0.707021 0.660263 0.019186 -0.008777 -878848.000000 1 0 0
-0.059577 4.258042 15.612747 16.183088 -1.556806 0.266278 0.007605 -0.008611 46832.900000 1 0 0
-8.062977 3.106542 9.661847 12.962002 -0.367757 0.729665 -0.002498 -0.002398 16881.300000 1 0 0
-2.241777 -9.650458 13.130647 16.449037 1.342547 0.646392 0.003066 -0.007505 438089.000000 1 0 0
-6.013477 10.219542 10.374547 15.755386 -1.038928 0.852004 0.002122 -0.004464 -4127690.000000 1 0 0
-8.663177 -2.637658 15.586947 18.026669 0.295551 0.526322 0.009729 -0.006733 1223370.000000 1 0 0
4.051323 5.676942 17.799247 19.116854 0.950971 0.373445 0.018315 -0.010812 293933.000000 1 0 0
-6.789477 -0.909958 15.042847 16.529134 0.133231 0.427317 0.008176 -0.001988 -58411.700000 1 0 0
-1.033477 -9.907958 15.452147 18.384900 1.466864 0.572627 -0.006167 -0.004506 -68465.500000 1 0 0
-4.449077 5.913042 16.171547 17.784187 -0.925750 0.429145 0.007901 -0.006905 -22290.000000 1 0 0
3.690423 0.081942 17.340847 17.729380 0.022200 0.209739 0.018667 -0.005874 -344904.000000 1 0 0
1.376023 0.551742 19.258947 19.315924 0.381341 0.076827 0.010085 -0.004470 -515178.000000 1 0 0
-6.405377 6.525242 17.889747 20.091060 -0.794668 0.472500 0.004219 -0.006774 -1258460.000000 1 0 0
-12.284777 0.688042 11.019947 16.517518 -0.055949 0.840397 0.018932 -0.009109 -345116.000000 1 0 0
-5.334377 5.174342 13.905847 15.767117 -0.770171 0.490808 -0.003020 -0.001771 -1920420.000000 1 0 0
-8.762677 -9.456558 9.911547 16.261912 0.823465 0.915373 0.030815 -0.015889 384748.000000 1 0 0
6.698623 -3.913158 17.015447 18.700529 -0.528701 0.427775 0.022558 -0.001860 -883343.000000 1 0 0
-16.478477 1.919242 9.403747 19.069719 -0.115947 1.055119 0.049984 -0.025559 334981.000000 1 0 0
-4.193477 -9.536758 11.267047 15.345402 1.156526 0.746265 0.007555 -0.007685 -109332.000000 1 0 0
-11.085677 -3.885058 9.183947 14.910761 0.337082 0.907234 0.010343 -0.005983 -293400.000000 1 0 0
3.458123 -5.272458 18.608047 19.647312 -0.990296 0.326708 0.015346 -0.012116 -81644.200000 1 0 0
2.502223 -1.844958 16.069747 16.367705 -0.635341 0.191099 0.009758 -0.003673 -305168.000000 1 0 0
-3.416077 -4.170458 20.229847 20.935831 0.884509 0.260433 0.033807 -0.020368 -1175110.000000 1 0 0
-6.413977 -3.252658 14.365447 16.065023 0.469328 0.464141 0.011325 -0.000133 582105.000000 1 0 0
-9.521577 5.209142 14.038547 17.744757 -0.500605 0.658129 0.014592 -0.009255 294537.000000 1 0 0
-5.946077 -5.203858 11.654847 14.080889 0.718929 0.595788 0.009461 -0.002183 98894.400000 1 0 0
6.043223 2.051242 19.295347 20.323350 0.327226 0.319420 0.055662 -0.016140 353331.000000 1 0 0
-2.765777 11.807242 13.421747 18.088775 -1.340701 0.734758 0.009274 -0.014837 -2075160.000000 1 0 0
3.359223 1.298242 15.099547 15.523084 0.368789 0.234134 0.009832 -0.004123 -178468.000000 1 0 0
-5.626577 7.459842 12.857147 15.893831 -0.924581 0.628450 -0.012531 -0.002570 -1640810.000000 1 0 0
-1.831277 -1.625858 15.202947 15.398916 0.726049 0.159707 0.012242 -0.001863 -233125.000000 1 0 0
-7.352377 10.572842 14.155747 19.137075 -0.963163 0.738168 0.010147 -0.009133 738385.000000 1 0 0
-10.205977 2.164942 10.721347 14.959821 -0.209026 0.771772 0.002050 -0.003283 -557098.000000 1 0 0
-13.690977 5.186742 9.256147 17.321126 -0.362136 1.007017 0.007813 -0.011146 -461702.000000 1 0 0
0.539823 -4.691758 20.059047 20.607508 -1.456242 0.231229 0.031396 -0.026591 87381.300000 1 0 0
-14.511177 -2.959558 7.412947 16.561553 0.201191 1.106717 0.022769 -0.010848 18598.000000 1 0 0
-2.658477 2.380242 17.614747 17.972545 -0.730235 0.199872 0.019340 -0.010212 206825.000000 1 0 0
-6.268777 -8.383158 14.671547 18.023019 0.928716 0.619713 0.018669 -0.004482 -58558.400000 1 0 0
-7.977577 2.030942 12.036047 14.581937 -0.249286 0.599872 -0.001121 -0.000890 -572007.000000 1 0 0
-14.686777 -3.367758 10.070947 18.123664 0.225409 0.981616 0.039293 -0.015437 37178.600000 1 0 0
-0.548777 7.097842 12.822847 14.666490 -1.493634 0.506814 0.002632 -0.003252 -681117.000000 1 0 0
-1.858077 -2.202258 19.471247 19.683289 0.869963 0.146915 0.028776 -0.011085 323971.000000 1 0 0
-12.758877 10.375042 7.560047 18.099303 -0.682716 1.139886 -0.002324 -0.006310 582264.000000 1 0 0
-19.342577 2.139542 6.934747 20.659227 -0.110165 1.228477 0.064828 -0.021106 27103.000000 1 0 0
-16.136977 8.472842 6.788147 19.449165 -0.483492 1.214271 0.018277 -0.001477 507696.000000 1 0 0
-12.227577 7.218642 13.658547 19.702242 -0.533299 0.804810 0.016178 -0.011870 487536.000000 1 0 0
-15.810977 8.069942 10.334947 20.540743 -0.471934 1.043564 0.028095 -0.019559 -1023290.000000 1 0 0
1.853623 11.131342 15.092047 18.844431 1.405788 0.642040 0.025440 -0.012666 -910545.000000 1 0 0
1.925023 14.164342 12.658347 19.093665 1.435718 0.846030 0.020022 -0.015822 -498126.000000 1 0 0
-3.156677 13.772942 11.745547 18.374342 -1.345493 0.877291 0.001848 -0.006907 140329.000000 1 0 0
9.215123 4.749842 15.741847 18.849012 0.475923 0.582382 0.048563 -0.005353 -192526.000000 1 0 0
-0.387677 12.557242 12.842347 17.965537 -1.539933 0.774412 0.011494 -0.008071 -479431.000000 1 0 0
3.696023 13.509442 14.460947 20.131682 1.303743 0.769415 0.033993 -0.012849 186479.000000 1 0 0
-2.827477 -4.205158 -13.736453 14.641315 0.978847 2.788183 -0.000852 -0.005511 -431857.000000 1 0 0
5.835523 -11.571758 16.204847 20.749843 -1.103723 0.674591 0.036920 -0.008998 67657.100000 1 0 0
7.671123 -13.465858 7.397647 17.172671 -1.052975 1.125439 0.003397 -0.010275 -158850.000000 1 0 0
-0.092077 15.655242 1.201947 15.701585 -1.564915 1.494172 0.005961 -0.003800 -2863300.000000 1 0 0
-13.450577 8.072742 9.136147 18.153688 -0.540550 1.043421 -0.008582 -0.005381 389239.000000 1 0 0
-15.592177 -9.695358 4.886547 18.999850 0.556301 1.310684 0.035723 -0.009674 -508001.000000 1 0 0
9.558723 -11.272658 11.080647 18.472215 -0.867490 0.927477 0.036436 -0.005697 38010.100000 1 0 0
-6.023977 -10.527358 -16.604853 20.562945 1.051053 2.510720 0.034332 -0.012992 98836.900000 1 0 0
-1.828177 -12.640058 -14.560353 19.367942 1.427159 2.421547 0.014251 -0.009665 -194148.000000 1 0 0
5.384923 -15.510558 -12.994653 20.938859 -1.236638 2.240304 0.031066 -0.017427 51596.200000 1 0 0
1.327523 -12.683958 -15.945053 20.417880 -1.466514 2.466959 0.014522 -0.012999 216830.000000 1 0 0
0.499923 -14.697458 -13.804053 20.169707 -1.536795 2.324570 0.026725 0.006184 123801.000000 1 0 0
-6.340077 -6.032958 -14.468153 16.909187 0.760582 2.597580 0.015442 -0.008005 -22372.500000 1 0 0
-6.168477 -8.218858 -17.147053 19.990527 0.926958 2.601690 0.014826 -0.011009 -115904.000000 1 0 0
-2.322477 -16.164258 -13.428153 21.142195 1.428093 2.258980 0.016709 -0.004948 287123.000000 1 0 0
16.465623 -8.096658 -8.586853 20.258496 -0.457011 2.008504 0.095888 -0.025120 -32790.500000 1 0 0
19.112523 -2.777958 -3.728253 19.669912 -0.144337 1.761491 0.101438 -0.027831 8386.300000 1 0 0
15.382023 -12.320058 -8.249453 21.364548 -0.675313 1.967227 0.055157 -0.009284 -119200.000000 1 0 0
18.837823 -3.762758 -6.932053 20.422421 -0.197150 1.917111 0.211979 -0.018831 -263170.000000 1 0 0
9.224323 -9.753458 -15.808853 20.739766 -0.813273 2.437576 0.083981 -0.010383 225902.000000 1 0 0
-4.564877 9.591142 -16.410453 19.548173 -1.126575 2.567136 0.002372 0.001816 412300.000000 1 0 0
2.532723 -9.890158 -18.241453 20.904079 -1.320099 2.631351 0.026726 0.003554 347581.000000 1 0 0
11.126323 7.798542 -14.969053 20.215955 0.611336 2.404547 0.105947 -0.053281 387021.000000 1 0 0
18.044523 -6.618858 -7.325053 20.568677 -0.351569 1.934916 0.063330 -0.027195 119214.000000 1 0 0
12.354423 5.304342 -13.704853 19.198718 0.405547 2.365766 0.054328 -0.026426 83886.000000 1 0 0
15.880623 6.189042 -10.656553 20.101257 0.371616 2.129566 0.046780 -0.025830 186456.000000 1 0 0
3.397823 -0.323858 -19.153653 19.455398 -0.095026 2.965242 0.035840 -0.017600 158059.000000 1 0 0
10.586023 -1.788058 -14.564153 18.093523 -0.167328 2.506366 0.034801 -0.006657 101148.000000 1 0 0
12.146523 -6.241658 -13.723453 19.360513 -0.474677 2.358645 0.063679 -0.006531 494153.000000 1 0 0
10.309323 6.659842 -12.798553 17.732416 0.573559 2.377138 0.043540 -0.011917 551303.000000 1 0 0
10.827423 4.856342 -16.759553 20.535329 0.421625 2.525483 0.078866 -0.018721 361140.000000 1 0 0
12.236123 -10.028158 -14.085653 21.182357 -0.686551 2.298251 0.127712 -0.028702 296398.000000 1 0 0
-1.641977 1.905042 -17.352153 17.533467 -0.859428 2.997656 0.011803 -0.018672 323553.000000 1 0 0
6.508523 -1.091158 -17.102153 18.331261 -0.166106 2.773319 0.019220 0.004780 87044.200000 1 0 0
6.099723 -5.782758 -15.824253 17.917976 -0.758730 2.653331 -0.007022 -0.002910 222542.000000 1 0 0
-1.978577 -4.808958 -20.697053 21.340310 1.180471 2.895440 0.017326 -0.018567 353916.000000 1 0 0
15.930223 -0.326758 -13.299753 20.754811 -0.020509 2.266341 0.064814 -0.014084 -91737.000000 1 0 0
-4.028277 -0.464258 -18.274253 18.718730 0.114744 2.923237 0.015455 -0.021974 -4687.210000 1 0 0
3.612923 8.546142 -18.018153 20.266810 1.170829 2.666056 0.034040 -0.019705 139482.000000 1 0 0
9.289623 -0.293158 -17.595053 19.898968 -0.031547 2.655616 0.038628 -0.000789 -82837.600000 1 0 0
4.246023 4.756842 -18.462353 19.532402 0.842077 2.809054 0.027414 -0.002910 450218.000000 1 0 0
-2.356277 -11.511858 -17.898253 21.410800 1.368902 2.560649 0.034749 -0.013947 190109.000000 1 0 0
5.413523 -9.778358 -15.794453 19.349089 -1.065176 2.525754 0.010665 -0.011703 -62715.100000 1 0 0
10.146723 -12.486958 -10.824653 19.392091 -0.888428 2.163010 0.043336 -0.005786 155306.000000 1 0 0
6.196523 7.060442 -17.075753 19.489178 0.850473 2.638646 0.044038 -0.009270 343307.000000 1 0 0
8.463923 1.732342 -20.332053 22.091432 0.201885 2.739794 0.061612 -0.017553 73707.500000 1 0 0
-1.271077 -0.658358 -20.157353 20.208116 0.477906 3.070697 0.034472 -0.024742 147326.000000 1 0 0
-0.841077 6.373842 -19.722253 20.743686 -1.439597 2.826473 0.012725 -0.013348 -187929.000000 1 0 0
8.606723 5.777942 -18.335053 21.062631 0.591223 2.627017 0.081996 -0.023329 48647.400000 1 0 0
12.223123 0.035042 -13.516953 18.223994 0.002867 2.406415 0.018119 0.005526 -637.821000 1 0 0
-4.124677 -2.599258 -19.755353 20.348048 0.562310 2.899641 -0.000458 -0.018141 356802.000000 1 0 0
6.491623 -11.640858 -14.277353 19.531860 -1.062092 2.390550 0.029016 -0.009863 98283.300000 1 0 0
11.149223 1.880142 -16.093853 19.668559 0.167063 2.529161 0.041787 -0.008779 -69597.700000 1 0 0
-2.849877 -4.731758 -17.141953 18.009938 1.028697 2.829865 0.001693 -0.007342 18089.700000 1 0 0
-6.703277 -4.885558 -17.419853 19.293882 0.629815 2.697194 0.025685 -0.012902 57654.900000 1 0 0
2.970023 10.343042 -15.498753 18.868251 1.291168 2.534692 0.014103 -0.015071 80704.800000 1 0 0
17.548523 -6.108258 -10.584153 21.384241 -0.334962 2.088575 0.135833 -0.024561 -24951.300000 1 0 0
9.672223 -2.949858 -17.684353 20.371300 -0.296022 2.622161 0.047518 -0.006595 -122344.000000 1 0 0
-7.358477 -1.596858 -18.540653 20.011320 0.213696 2.755821 0.028620 -0.012987 606278.000000 1 0 0
1.199123 -7.438058 -19.348353 20.763462 -1.410957 2.770264 0.028131 -0.009918 245855.000000 1 0 0
5.333423 10.115042 -15.169153 18.996386 1.085566 2.495643 0.044642 -0.008382 339590.000000 1 0 0
6.055023 -3.459158 -18.035253 19.336479 -0.519040 2.772642 0.033826 -0.012880 669468.000000 1 0 0
4.952523 13.048742 -14.701753 20.271623 1.208051 2.382176 0.049933 -0.027972 113289.000000 1 0 0
9.778123 11.130142 -15.780853 21.645486 0.849973 2.387744 0.132733 -0.025774 95053.400000 1 0 0
17.159523 0.983442 -11.312353 20.576338 0.057249 2.152891 0.084589 -0.016309 7490.580000 1 0 0
14.781423 -2.922458 -12.328353 19.468423 -0.195194 2.256540 0.077388 -0.014329 71970.400000 1 0 0
-8.914977 0.254742 -17.313053 19.475202 -0.028567 2.665908 0.043809 -0.021820 470131.000000 1 0 0
-3.652677 4.547842 -18.852953 19.734709 -0.894127 2.841535 0.027678 -0.014062 51584.700000 1 0 0
4.419123 2.379242 -17.272753 17.987146 0.493891 2.858811 0.023321 -0.000384 540215.000000 1 0 0
-5.099377 14.703042 -13.285153 20.461632 -1.236953 2.277422 0.034411 -0.019879 356245.000000 1 0 0
0.795323 9.479142 -17.834753 20.212993 1.487090 2.651610 0.009743 -0.004002 282263.000000 1 0 0
1.382023 -4.933158 -19.708653 20.363620 -1.297649 2.887280 0.025551 -0.010765 535423.000000 1 0 0
3.943923 -6.185358 -17.774853 19.229107 -1.003172 2.750183 0.031439 -0.024861 218673.000000 1 0 0
-7.205877 7.217842 -15.963853 18.943772 -0.786228 2.573069 0.009525 -0.001400 -24492.400000 1 0 0
-12.199077 3.069742 -16.215453 20.522712 -0.246519 2.481805 0.094793 -0.041467 369821.000000 1 0 0
-4.287677 6.773642 -17.151253 18.932297 -1.006469 2.704357 0.001616 0.001092 390615.000000 1 0 0
-8.003677 5.009642 -17.805853 20.154497 -0.559259 2.654010 0.017088 -0.009773 156932.000000 1 0 0
-8.532677 4.294942 -15.014053 17.795361 -0.466326 2.574946 0.004700 -0.018914 318626.000000 1 0 0
9.761023 13.599042 -12.646753 20.979797 0.948242 2.217810 0.125970 -0.051372 422593.000000 1 0 0
14.639123 9.153242 -11.927853 20.984743 0.558785 2.175363 0.116355 -0.027763 98567.400000 1 0 0
8.762823 15.559142 -9.992653 20.462822 1.057879 2.080974 0.072379 -0.025050 78669.500000 1 0 0
7.863923 12.884742 -14.461953 20.904687 1.022817 2.334781 0.118805 -0.050393 129905.000000 1 0 0
4.211723 15.290142 -13.002253 20.508184 1.302009 2.257515 0.052898 -0.031087 139776.000000 1 0 0
11.088023 11.744342 -11.493253 19.823437 0.814135 2.189256 0.088392 -0.023121 208342.000000 1 0 0
16.131523 10.362342 -9.996753 21.622655 0.570990 2.051415 0.091732 -0.021796 445542.000000 1 0 0
12.295923 10.402842 -9.060153 18.479589 0.702191 2.083206 0.052606 -0.038419 340394.000000 1 0 0
10.314423 11.502442 -7.436653 17.146349 0.839799 2.019410 0.041139 -0.016952 -18635.900000 1 0 0
5.683023 17.087442 -10.479053 20.834778 1.249720 2.097816 0.058433 -0.012366 50241.800000 1 0 0
11.717723 13.947442 -10.360953 20.956753 0.872058 2.087937 0.129381 -0.036252 39877.000000 1 0 0
8.649623 -19.374458 -1.721253 21.287280 -1.150903 1.651743 0.057770 -0.006288 163388.000000 1 0 0
7.591623 -16.567958 -3.938953 18.645249 -1.141135 1.783658 0.049557 -0.028676 156578.000000 1 0 0
3.754623 -18.773958 5.276547 19.859523 -1.373409 1.301873 0.036620 -0.013918 -318058.000000 1 0 0
10.236323 -17.895358 -2.384653 20.753619 -1.051212 1.685954 0.054109 -0.012177 360264.000000 1 0 0
-3.867977 -15.179858 7.886947 17.538337 1.321296 1.104370 0.041715 -0.018177 8011.570000 1 0 0
-15.398777 -12.566858 -4.214253 20.317682 0.684478 1.779731 0.071397 -0.023743 74042.100000 1 0 0
-8.981177 -12.724458 -7.192853 17.155480 0.956175 2.003442 0.039568 -0.015118 -16807.300000 1 0 0
-11.591877 -15.217958 6.865347 20.324637 0.919834 1.226234 0.046973 -0.008419 38361.700000 1 0 0
-15.284077 -8.607258 -8.380353 19.440119 0.512885 2.016492 0.084095 -0.011147 6295.540000 1 0 0
5.085223 -15.404358 6.193847 17.364259 -1.251944 1.206062 0.031376 -0.015663 140339.000000 1 0 0
2.824023 -14.184558 9.042247 17.056935 -1.374275 1.012053 0.016746 -0.008256 311936.000000 1 0 0
3.228823 -17.291358 10.263547 20.365578 -1.386192 1.042613 0.040199 -0.018650 102674.000000 1 0 0
-8.786277 -17.837358 -5.200553 20.552755 1.113105 1.826612 0.059459 -0.014537 -112269.000000 1 0 0
2.132723 -19.742658 -4.219053 20.300775 -1.463187 1.780149 0.042817 -0.020899 94445.600000 1 0 0
-17.238777 -10.843558 -2.371353 20.503207 0.561486 1.686713 -0.031699 -0.022466 -135490.000000 1 0 0
-4.343777 -14.836158 2.616247 15.678799 1.285974 1.403147 0.011535 0.001966 165669.000000 1 0 0
-10.917077 -9.918558 -14.601253 20.754685 0.737511 2.351129 0.049159 -0.008494 174290.000000 1 0 0
0.974823 -20.494258 2.614047 20.683281 -1.523266 1.444073 0.035467 -0.002116 200711.000000 1 0 0
5.831523 -18.571558 1.275347 19.507330 -1.266543 1.505372 0.028230 0.002822 204893.000000 1 0 0
-6.822077 -17.817858 -3.110753 19.331156 1.205136 1.732418 -0.004492 -0.054977 60740.500000 1 0 0
-8.831377 -15.949358 -7.623153 19.760762 1.065106 1.966841 0.062871 -0.015255 -8213.470000 1 0 0
-11.891977 -11.311558 -12.084453 20.381473 0.760389 2.205469 0.045027 -0.007535 349362.000000 1 0 0
-13.417677 -15.248458 -3.576753 20.623838 0.849177 1.745106 0.056604 -0.015650 195327.000000 1 0 0
-0.969477 -20.605458 -2.543853 20.784513 1.523781 1.693496 0.046499 -0.022139 279754.000000 1 0 0
-11.800077 -17.185658 -0.417453 20.850970 0.969104 1.590818 0.043888 -0.006333 138001.000000 1 0 0
0.864723 -20.141058 5.300247 20.844726 -1.527889 1.313701 0.042577 -0.014375 60843.000000 1 0 0
-18.202377 -8.848158 2.416647 20.382753 0.452465 1.451953 0.058736 -0.006987 45113.200000 1 0 0
-15.272477 -14.811158 -0.637953 21.284406 0.770065 1.600774 0.075143 -0.015578 -126447.000000 1 0 0
10.393423 -15.587458 -5.039353 19.400700 -0.982714 1.833561 0.039845 -0.006272 -128217.000000 1 0 0
-0.068777 -19.097058 -7.224153 20.417902 1.567195 1.932443 0.032738 -0.005606 217831.000000 1 0 0
-10.481177 -18.214958 -2.552653 21.169691 1.048650 1.691671 0.061731 0.022205 452592.000000 1 0 0
-14.489677 -6.961158 -11.370353 19.689931 0.447863 2.186423 0.041927 -0.010887 -276606.000000 1 0 0
-12.475077 -14.674158 1.997647 19.363601 0.866221 1.467447 0.049944 -0.025655 263082.000000 1 0 0
-2.703077 -16.114658 10.120547 19.220154 1.404603 1.016248 0.023376 -0.015442 330396.000000 1 0 0
-12.758377 -14.217558 -6.459753 20.165405 0.839437 1.896883 0.067092 -0.020719 185769.000000 1 0 0
5.065023 -16.954158 -7.404653 19.181418 -1.280488 1.967123 0.030554 -0.014485 109293.000000 1 0 0
-17.999677 -7.468558 -3.020453 19.720316 0.393308 1.724566 0.051623 -0.013485 88197.800000 1 0 0
-12.249477 -13.703258 -8.777453 20.368423 0.841356 2.016324 0.064912 -0.035404 89461.700000 1 0 0
-7.980077 -13.740958 9.770847 18.653820 1.044651 1.019492 0.038566 -0.010925 515184.000000 1 0 0
-15.845277 -8.228758 -5.676753 18.735282 0.478983 1.878633 0.049397 -0.007496 235694.000000 1 0 0
-0.631077 -19.757658 -0.351553 19.770860 1.538866 1.588579 0.035041 -0.011896 113773.000000 1 0 0
-14.995577 -11.431058 -1.834553 18.944709 0.651324 1.667786 0.026591 -0.003983 155120.000000 1 0 0
-6.933777 -19.162058 1.971947 20.473161 1.223605 1.474328 0.043181 -0.013929 232288.000000 1 0 0
-1.723777 -21.154258 -5.142353 21.838448 1.489490 1.808501 0.032816 -0.007979 -136402.000000 1 0 0
-9.453077 -19.637158 -1.103553 21.821926 1.122149 1.621389 0.053446 -0.020408 111770.000000 1 0 0
-17.961077 -7.573658 4.953847 20.112215 0.399047 1.321925 0.058870 -0.008872 48828.900000 1 0 0
-2.753777 -16.014558 -10.825953 19.525640 1.400507 2.158496 0.013565 0.006906 52054.000000 1 0 0
-3.253677 -18.491958 -7.554353 20.238754 1.396628 1.953319 0.011866 0.000379 197231.000000 1 0 0
4.541523 -17.234758 -4.699653 18.432283 -1.313144 1.828612 0.026320 -0.021359 750028.000000 1 0 0
0.615823 -17.377658 -9.146753 19.647527 -1.535374 2.055043 0.015830 0.000017 76272.700000 1 0 0
-7.771677 -9.937758 -14.361053 19.115382 0.907106 2.420800 0.029629 -0.023026 317856.000000 1 0 0
-5.130477 -19.519658 -1.912353 20.273035 1.313773 1.665267 0.045144 -0.025813 357222.000000 1 0 0
-10.411477 -15.693258 8.561247 20.687488 0.985033 1.144131 0.035727 -0.015111 204246.000000 1 0 0
-7.045777 -15.012658 -10.342053 19.544332 1.131991 2.128405 0.021439 -0.013924 357190.000000 1 0 0
-12.594177 -7.981458 -12.353553 19.363038 0.564861 2.262690 0.045932 -0.013329 150425.000000 1 0 0
-15.624977 -12.918458 3.209447 20.526252 0.690860 1.413794 0.060461 -0.008136 175007.000000 1 0 0
-6.044477 -14.366058 -12.989853 20.289298 1.172533 2.265596 0.005152 -0.002725 342918.000000 1 0 0
-14.225677 -11.953358 -6.793353 19.783890 0.698816 1.921308 0.065213 -0.015414 234623.000000 1 0 0
-11.692577 -10.648758 -8.285553 17.853929 0.738711 2.053386 0.042762 -0.010848 291231.000000 1 0 0
-9.939477 -15.006858 3.657847 18.367875 0.985803 1.370312 0.013805 0.002390 481488.000000 1 0 0
4.551023 -18.044458 8.483747 20.452096 -1.323737 1.143062 0.035652 -0.020816 218404.000000 1 0 0
-4.848677 -16.854158 4.995047 18.235208 1.290676 1.293326 0.015766 0.007463 206456.000000 1 0 0
-18.438877 -7.322258 -6.684753 20.935462 0.378012 1.895790 0.066227 -0.025999 161011.000000 1 0 0
-17.094477 -4.597658 -10.939053 20.809192 0.262738 2.124315 0.064572 -0.006072 -193902.000000 1 0 0
-15.934877 -4.169558 -13.061553 21.021648 0.255925 2.241246 0.060232 -0.020204 271966.000000 1 0 0
-19.566777 -5.448858 -5.947453 21.164145 0.271594 1.855648 0.078543 -0.011754 138879.000000 1 0 0
5.344023 -13.550158 8.841447 17.039265 -1.195137 1.025248 0.022622 -0.004255 318383.000000 1 0 0
19.904823 -3.147958 2.760047 20.340341 -0.156851 1.434683 0.086140 -0.012420 -179891.000000 1 0 0
18.148223 -2.400158 0.235247 18.307760 -0.131490 1.557946 0.070006 -0.016833 219728.000000 1 0 0
14.174323 -11.067658 0.239647 17.985047 -0.662939 1.557471 0.050152 -0.013550 -56336.900000 1 0 0
11.159023 -13.539958 5.048747 18.257713 -0.881499 1.290618 0.034735 -0.013780 430360.000000 1 0 0
10.239223 -12.871958 8.164247 18.362568 -0.898825 1.110054 0.045644 -0.030873 7394.000000 1 0 0
17.550823 4.951642 -4.461653 18.773824 0.274984 1.810745 0.023335 -0.007238 -37168.900000 1 0 0
18.862723 -6.164058 -4.288253 20.302390 -0.315846 1.783618 0.099050 -0.023873 -56066.900000 1 0 0
17.699723 -10.166258 -0.419353 20.415897 -0.521364 1.591338 0.073053 -0.011495 295581.000000 1 0 0
17.632723 -8.770558 8.790147 21.566230 -0.461567 1.150985 0.120629 -0.029189 36186.600000 1 0 0
19.680423 0.621842 -3.039853 19.923515 0.031586 1.723971 0.086389 -0.001172 65141.000000 1 0 0
7.538123 -13.263858 11.496347 19.102859 -1.053996 0.925027 0.034663 -0.006966 416514.000000 1 0 0
16.335123 -6.613258 -3.306253 17.930497 -0.384680 1.756250 0.082753 -0.013104 238310.000000 1 0 0
14.439523 -6.980358 12.268747 20.192756 -0.450296 0.917784 0.077180 -0.027687 359813.000000 1 0 0
17.075723 1.396242 9.287447 19.488111 0.081586 1.074047 0.133427 -0.037662 241092.000000 1 0 0
16.690723 -10.347658 2.747447 19.829340 -0.554970 1.431794 0.047785 -0.014814 130164.000000 1 0 0
16.056123 -7.094858 -5.557853 18.412654 -0.416080 1.877429 0.080106 -0.018842 10473.000000 1 0 0
17.967923 -4.388558 5.928647 19.423042 -0.239554 1.260608 0.090038 -0.021899 -14795.000000 1 0 0
13.281423 -13.373558 7.984747 20.469598 -0.788855 1.170080 0.066111 -0.022308 264269.000000 1 0 0
15.353623 -14.239058 -1.490253 20.992984 -0.747752 1.641844 0.066894 -0.011223 184643.000000 1 0 0
18.729023 -6.357858 7.912547 21.302748 -0.327259 1.190244 0.129512 -0.033732 337949.000000 1 0 0
19.538123 3.559342 2.600547 20.029229 0.180198 1.440591 0.076222 -0.011379 144050.000000 1 0 0
15.598723 -10.188958 8.272947 20.385698 -0.578616 1.152919 0.082721 -0.039283 265299.000000 1 0 0
14.142923 -4.765758 10.823447 18.435881 -0.325021 0.943342 0.057331 -0.016701 -339412.000000 1 0 0
18.783423 -7.871258 1.853847 20.450194 -0.396823 1.480020 0.097620 -0.022878 -30975.400000 1 0 0
19.235823 -5.930558 -1.072653 20.157852 -0.299061 1.624034 0.099560 -0.021408 269496.000000 1 0 0
14.851223 -13.341058 -5.951953 20.831908 -0.731883 1.860547 0.093592 -0.029056 529471.000000 1 0 0
13.886923 -9.740558 10.284447 19.836707 -0.611678 1.025753 0.051028 -0.020764 404909.000000 1 0 0
14.227523 2.384842 0.526447 14.435616 0.166078 1.534320 0.000600 0.002078 -175978.000000 1 0 0
13.021723 2.373142 13.496547 18.903805 0.180266 0.775660 0.057641 -0.014850 -132600.000000 1 0 0
17.950723 -3.755058 9.307147 20.565794 -0.206213 1.101168 0.085019 -0.018988 82796.500000 1 0 0
7.098423 -18.497058 4.971447 20.426553 -1.204368 1.324946 0.044589 -0.022625 495220.000000 1 0 0
12.728323 -3.297258 14.700847 19.723007 -0.253477 0.729714 0.072807 -0.010141 275676.000000 1 0 0
11.309023 -13.552758 -6.677653 18.872262 -0.875403 1.932464 0.039997 -0.022585 33824.300000 1 0 0
10.756123 -16.677358 4.898247 20.440677 -0.997977 1.328809 0.056762 -0.017831 533916.000000 1 0 0
18.270023 -0.539558 -5.682553 19.140958 -0.029524 1.872219 0.088856 -0.009752 229585.000000 1 0 0
4.356523 -13.591358 11.476847 18.314539 -1.260607 0.893546 0.016751 -0.008499 374032.000000 1 0 0
9.558423 -3.012358 14.391247 17.536982 -0.305299 0.608296 0.048864 -0.002691 135506.000000 1 0 0
9.224623 -9.272658 14.092647 19.227027 -0.787995 0.748133 0.063834 -0.009914 356733.000000 1 0 0
21.080523 5.683142 -3.275953 22.077554 0.263332 1.719730 0.119315 -0.019166 570057.000000 1 0 0
14.517423 -13.161558 1.523247 19.654578 -0.736452 1.493218 0.043201 -0.019283 101643.000000 1 0 0
11.352823 -0.155358 15.187547 18.962392 -0.013684 0.641950 0.062483 -0.008495 -52497.200000 1 0 0
19.287023 0.684642 7.609147 20.745050 0.035483 1.195236 0.092414 -0.019177 52507.900000 1 0 0
20.187323 1.233742 0.058747 20.225073 0.061039 1.567892 0.112831 -0.011311 353425.000000 1 0 0
18.057523 0.196142 2.927347 18.294315 0.010862 1.410091 0.056131 -0.003648 6100.330000 1 0 0
10.527423 -8.037658 16.455147 21.123505 -0.652084 0.677732 0.090322 -0.012507 116806.000000 1 0 0
18.897923 3.168142 5.612647 19.966733 0.166100 1.285856 0.059336 -0.005871 108132.000000 1 0 0
14.900223 2.179842 6.818947 16.530771 0.145265 1.145599 0.034485 -0.013715 40726.300000 1 0 0
11.576423 -15.891758 2.059147 19.768703 -0.941228 1.466445 0.035438 -0.001625 324687.000000 1 0 0
8.158423 -16.280258 7.013247 19.513900 -1.106250 1.203174 0.028249 -0.005668 447132.000000 1 0 0
6.108323 6.808242 7.219147 11.652461 0.839533 0.902642 0.004184 0.001718 -1040420.000000 1 0 0
18.609723 2.502742 -6.442753 19.851815 0.133684 1.901324 0.081320 -0.009409 261309.000000 1 0 0
14.284323 4.378842 -7.378853 16.663241 0.297454 2.029540 0.025376 -0.004673 418558.000000 1 0 0
-10.532177 -3.958958 -13.670653 17.705560 0.359552 2.452952 0.031178 -0.012850 -259589.000000 1 0 0
7.639523 -14.066258 -10.469353 19.126664 -1.073258 2.150014 0.023069 -0.006882 -68585.300000 1 0 0
2.085023 -15.929058 13.792347 21.173357 -1.440642 0.861367 0.015628 -0.009470 429775.000000 1 0 0
-9.583777 -8.093058 2.368247 12.765382 0.701265 1.384194 0.005859 0.001295 358587.000000 1 0 0
-13.924177 2.977142 -9.773553 17.270449 -0.210639 2.172335 0.030941 -0.005602 311741.000000 1 0 0
-13.166177 -5.063558 -13.625653 19.612400 0.367150 2.338864 0.055925 0.003109 82693.700000 1 0 0
-18.070577 -1.355358 -8.680653 20.093195 0.074863 2.017527 0.071212 -0.030244 589824.000000 1 0 0
-12.294477 15.223842 4.218247 20.017821 -0.891450 1.358480 0.040505 -0.022843 399869.000000 1 0 0
-17.550577 6.294542 9.362447 20.863831 -0.344361 1.105441 0.052579 -0.021504 144240.000000 1 0 0
-13.794077 15.430042 0.035247 20.696956 -0.841320 1.569093 0.060041 -0.035973 100306.000000 1 0 0
-15.798577 5.010642 -10.882853 19.827709 -0.307123 2.151809 0.039294 -0.004878 -48664.600000 1 0 0
-18.312377 3.252442 0.063047 18.599073 -0.175776 1.567407 0.074778 -0.008000 -12315.500000 1 0 0
-9.749977 15.331842 -0.358953 18.172955 -1.004376 1.590550 0.032247 -0.018706 -67194.500000 1 0 0
-18.213677 12.407042 2.702547 22.203074 -0.597992 1.448774 0.133643 -0.028671 91125.300000 1 0 0
-8.514277 16.245142 -7.879053 19.961889 -1.088046 1.976543 0.071990 -0.035081 23810.000000 1 0 0
-15.079377 -1.805058 -12.864153 19.903072 0.119137 2.273574 0.054244 -0.031855 103333.000000 1 0 0
-19.030477 5.420642 -4.516753 20.296391 -0.277491 1.795215 0.082970 -0.009807 -7738.340000 1 0 0
-16.370277 10.160342 -5.548753 20.050117 -0.555471 1.851201 0.039395 0.013407 106294.000000 1 0 0
-18.974377 1.263142 2.645347 19.199489 -0.066473 1.432574 0.077764 -0.015409 54064.200000 1 0 0
-13.871577 12.754042 -7.421953 20.252694 -0.743451 1.946006 0.046970 0.008511 -142242.000000 1 0 0
-12.721077 4.623342 -13.556253 19.156542 -0.348597 2.356972 0.058125 -0.025802 -55350.200000 1 0 0
-13.965177 9.488342 -6.651453 18.146532 -0.596786 1.946085 0.022299 -0.004953 -8742.600000 1 0 0
-6.502677 11.312042 -15.360653 20.154323 -1.049078 2.437427 0.019282 -0.027310 -58970.000000 1 0 0
-15.008577 13.903842 3.052447 20.685542 -0.747207 1.422691 0.040740 -0.029475 32040.000000 1 0 0
-18.407377 8.674642 -5.299453 21.027723 -0.440392 1.825566 0.063590 -0.015282 24423.200000 1 0 0
-4.692577 16.221342 -11.188953 20.256971 -1.289199 2.155978 0.042663 -0.007692 172643.000000 1 0 0
-19.518577 -2.013358 -6.522853 20.677913 0.102787 1.891727 0.056989 -0.012532 -94573.800000 1 0 0
-10.998577 14.079342 -6.325953 18.952948 -0.907633 1.911098 0.045741 -0.018168 163122.000000 1 0 0
-19.184977 2.888142 4.426747 19.899769 -0.149420 1.346467 0.068116 -0.012857 166659.000000 1 0 0
-15.292077 12.330242 0.627547 19.653913 -0.678580 1.538861 0.029890 -0.017613 187177.000000 1 0 0
-17.555977 2.256642 -8.334053 19.564284 -0.127839 2.010844 0.046349 -0.014208 222964.000000 1 0 0
-16.675677 14.037342 -4.161053 22.190979 -0.699706 1.759424 0.050821 0.023214 347497.000000 1 0 0
-11.358077 15.663142 -8.339453 21.068612 -0.943392 1.977761 0.078227 -0.020882 158359.000000 1 0 0
-19.126077 1.667342 -6.829953 20.377319 -0.086957 1.912587 0.072580 -0.021810 207460.000000 1 0 0
-16.893177 10.240142 -0.499353 19.760802 -0.544944 1.596069 0.033066 -0.017934 -237798.000000 1 0 0
-11.646477 6.508142 -14.691653 19.845428 -0.509580 2.404319 0.043016 -0.020413 265742.000000 1 0 0
-13.507177 12.522842 -4.819453 19.039237 -0.747601 1.826713 0.053640 -0.022313 296366.000000 1 0 0
-18.744477 7.875142 -0.179953 20.332380 -0.397740 1.579647 0.065791 -0.009533 94745.100000 1 0 0
-14.685877 8.558242 -10.196453 19.821356 -0.527641 2.111125 0.045152 -0.006191 665997.000000 1 0 0
-18.359377 11.477442 5.091847 22.242422 -0.558710 1.339823 0.079820 -0.030288 97523.100000 1 0 0
-7.902677 12.337442 -13.283253 19.776491 -1.001097 2.307255 -0.000352 0.003276 343578.000000 1 0 0
-21.234277 -1.625758 -4.563153 21.779807 0.076414 1.781873 0.100739 -0.034806 276468.000000 1 0 0
-10.463077 13.310642 -3.092853 17.210895 -0.904608 1.751481 0.027219 -0.014320 458578.000000 1 0 0
-18.811777 -4.847858 3.728847 19.781026 0.252216 1.381155 0.059191 -0.017178 -49725.200000 1 0 0
-10.025177 11.009342 -13.339653 19.991401 -0.832152 2.301333 0.011636 -0.015866 69017.500000 1 0 0
-14.987677 11.151542 -10.132653 21.252247 -0.639681 2.067785 0.067393 -0.024211 317930.000000 1 0 0
-12.682177 9.868742 -13.937653 21.271762 -0.661280 2.285268 0.067754 -0.020188 265291.000000 1 0 0
-18.121177 -4.987358 -3.346753 19.090614 0.268573 1.747016 0.025609 -0.016163 -314369.000000 1 0 0
-9.837277 12.769942 -11.254553 19.659817 -0.914400 2.180305 0.045698 -0.010823 179989.000000 1 0 0
-15.563177 7.566242 -8.354453 19.216071 -0.452517 2.020572 0.027567 0.000006 149782.000000 1 0 0
-14.636977 9.041242 1.911747 17.310111 -0.553332 1.460129 0.017896 -0.002962 -244480.000000 1 0 0
-19.938177 6.123642 8.143447 22.390749 -0.297987 1.198563 0.091537 -0.022285 351031.000000 1 0 0
-18.568177 5.840142 3.728047 19.818749 -0.304728 1.381562 0.035925 -0.004922 63045.800000 1 0 0
-14.688377 12.606342 5.787547 20.203069 -0.709266 1.280257 0.033936 -0.020052 43679.700000 1 0 0
18.116923 6.474942 5.606147 20.039378 0.343250 1.287256 0.051553 -0.021597 -100928.000000 1 0 0
18.285023 7.941142 0.504047 19.941360 0.409719 1.545517 0.048528 -0.003806 -119640.000000 1 0 0
16.097923 5.171642 9.059347 19.182304 0.310847 1.078925 0.039789 0.002552 -43709.600000 1 0 0
11.652323 13.364942 10.520947 20.617678 0.853749 1.035277 0.030812 -0.016240 76439.300000 1 0 0
15.040323 12.757342 4.169647 20.158052 0.703454 1.362444 0.036044 -0.004023 151455.000000 1 0 0
5.174423 10.302342 14.343447 18.402374 1.105345 0.677034 0.030739 -0.012370 244937.000000 1 0 0
12.609323 14.413042 -4.917453 19.771498 0.852048 1.822149 0.059584 0.018789 334249.000000 1 0 0
18.033923 9.312842 -2.810953 20.490311 0.476687 1.708415 0.061711 -0.010800 -74549.800000 1 0 0
14.544323 7.618442 9.514347 18.976322 0.482513 1.045603 0.040060 -0.009926 172059.000000 1 0 0
4.830623 19.149242 -1.854453 19.836012 1.323690 1.664422 0.021645 -0.011166 610447.000000 1 0 0
-4.612077 19.625442 3.754847 20.506782 -1.339980 1.386655 0.015882 0.000646 224010.000000 1 0 0
6.781423 13.188542 12.567747 19.438971 1.095861 0.867778 0.035040 -0.000344 -146304.000000 1 0 0
0.476823 17.155242 -10.342753 20.037520 1.543009 2.113169 0.031319 0.003908 -29738.600000 1 0 0
10.797423 9.306542 15.620747 21.147194 0.711375 0.739705 0.055911 -0.012402 246869.000000 1 0 0
-1.326777 12.302242 0.790147 12.398783 -1.463363 1.507025 -0.001875 0.003855 516272.000000 1 0 0
-4.898477 18.910542 -1.819153 19.619200 -1.317333 1.663653 0.032042 -0.006375 32648.000000 1 0 0
6.614823 17.995442 6.115547 20.124406 1.218544 1.262026 0.043497 -0.035238 107805.000000 1 0 0
10.980323 17.689442 -1.782853 20.896469 1.015275 1.656219 0.038029 -0.006461 305486.000000 1 0 0
18.473923 10.821542 2.728447 21.583235 0.529893 1.444042 0.038383 -0.007572 321876.000000 1 0 0
11.882823 16.853942 6.238747 21.544809 0.956691 1.277018 0.046800 -0.004471 -125348.000000 1 0 0
18.105523 7.206142 -6.060453 20.407536 0.378788 1.872316 0.057515 0.006274 468225.000000 1 0 0
0.263423 15.321142 10.949947 18.833697 1.553605 0.950346 0.011777 -0.008222 383911.000000 1 0 0
1.377623 20.132242 -1.707553 20.251438 1.502474 1.655214 0.028384 -0.011810 227670.000000 1 0 0
14.249223 9.742342 -1.445153 17.321722 0.599709 1.654323 0.033863 -0.009957 -26690.900000 1 0 0
10.511523 16.815342 1.693147 19.902628 1.012114 1.485622 0.053312 -0.028669 244032.000000 1 0 0
0.646823 17.876942 -0.335453 17.891785 1.534630 1.589546 0.011622 0.003187 -54456.000000 1 0 0
-0.154677 21.126942 1.132347 21.157831 -1.563475 1.517252 0.029166 -0.014548 228073.000000 1 0 0
5.709423 18.698042 0.697847 19.562752 1.274440 1.535117 0.012042 0.007576 -8657.650000 1 0 0
7.214723 18.063142 -1.694753 19.524382 1.190793 1.657708 0.012419 -0.014898 -163607.000000 1 0 0
10.980523 9.295942 12.827347 19.275042 0.702508 0.842646 0.048893 -0.003517 83911.900000 1 0 0
12.911623 14.833442 8.216747 21.313281 0.854555 1.175022 0.047429 -0.017338 280929.000000 1 0 0
0.364523 17.551442 6.837347 18.839727 1.550030 1.199395 0.014007 -0.010219 255129.000000 1 0 0
7.411323 17.902642 -8.020053 20.970301 1.178297 1.963241 0.036433 -0.018310 33469.400000 1 0 0
-0.799577 18.425142 9.047447 20.542188 -1.527428 1.114716 0.031475 -0.022194 151014.000000 1 0 0
16.075123 6.983042 -8.143053 19.325676 0.409806 2.005740 0.062180 0.001977 -211269.000000 1 0 0
-5.383677 19.447042 -6.741253 21.274772 -1.300722 1.893220 0.048047 -0.015680 267882.000000 1 0 0
4.145223 15.300542 9.942347 18.712021 1.306227 1.010621 0.026914 -0.013080 102182.000000 1 0 0
9.201023 15.055442 7.543747 19.189405 1.022224 1.166774 0.024683 -0.003903 91848.400000 1 0 0
-2.623177 19.252942 6.494647 20.487491 -1.435382 1.248226 0.022758 -0.014008 274514.000000 1 0 0
4.735123 18.095742 8.226147 20.433961 1.314864 1.156471 0.034285 -0.016213 105196.000000 1 0 0
14.794323 12.187842 -6.159153 20.133322 0.689097 1.881699 0.072517 -0.008996 199301.000000 1 0 0
11.765823 6.886942 15.366847 20.542749 0.529566 0.725689 0.069965 -0.021639 71131.300000 1 0 0
17.470723 9.208542 4.731647 20.307927 0.485079 1.335640 0.065088 -0.019152 251986.000000 1 0 0
5.323823 14.904742 12.912947 20.426420 1.227731 0.886447 0.026693 -0.004158 279737.000000 1 0 0
15.738123 10.790242 -3.744153 19.445732 0.601004 1.764550 0.060870 -0.024421 116316.000000 1 0 0
15.587323 13.747642 6.581647 21.800926 0.722767 1.264114 0.069646 -0.008433 535522.000000 1 0 0
12.933723 13.208242 -8.184253 20.216845 0.795899 1.987582 0.133107 -0.051637 495348.000000 1 0 0
-8.527177 15.589542 9.515547 20.156692 -1.070274 1.079149 0.040010 -0.019662 84615.300000 1 0 0
-3.899577 17.754642 -8.038453 19.875883 -1.354592 1.987155 0.021458 0.036611 122511.000000 1 0 0
3.046023 18.996042 -4.836653 19.837366 1.411799 1.817094 0.036708 -0.027683 173326.000000 1 0 0
7.354823 16.420342 8.893947 20.070460 1.149682 1.111702 0.039805 -0.020674 615494.000000 1 0 0
13.562823 15.370942 -1.763453 20.574882 0.847809 1.656611 0.075283 -0.024441 218535.000000 1 0 0
13.446123 16.203142 4.419847 21.514532 0.878119 1.363888 0.059937 -0.026179 289965.000000 1 0 0
2.658423 18.385842 0.482847 18.583313 1.427201 1.544811 0.024697 -0.018078 -72980.100000 1 0 0
-7.693177 17.143342 1.374047 18.840572 -1.148977 1.497801 0.033807 -0.008335 339826.000000 1 0 0
0.541223 19.653942 -6.136753 20.596847 1.543266 1.873337 0.035379 -0.002673 216919.000000 1 0 0
-7.345777 18.071542 -6.328253 20.508239 -1.184714 1.884487 0.061605 -0.023810 40742.900000 1 0 0
-7.632277 18.362942 -1.653453 19.954528 -1.176885 1.653752 0.063462 -0.022127 239149.000000 1 0 0
-14.676277 -8.871358 8.600347 19.184892 0.543699 1.105948 0.058278 -0.020870 479214.000000 1 0 0
-13.300677 -13.551758 7.731047 20.501884 0.794748 1.184144 0.051761 -0.008812 115315.000000 1 0 0
-3.996477 -15.831858 12.634347 20.645733 1.323529 0.912261 0.038297 0.001081 144086.000000 1 0 0
-2.053277 -14.959558 15.456347 21.607938 1.434393 0.773730 0.013094 0.005406 494877.000000 1 0 0
-8.316577 -13.247658 13.132447 20.423689 1.010202 0.872386 0.051830 -0.017075 71282.700000 1 0 0
-10.044277 -10.999358 11.918547 19.076822 0.830753 0.895965 0.051581 -0.012464 -263931.000000 1 0 0
-7.429877 -10.318858 13.188347 18.319782 0.946754 0.767143 0.031936 -0.011850 289878.000000 1 0 0
-15.480377 -12.158758 7.107947 20.928459 0.665794 1.224272 0.061516 -0.010430 291242.000000 1 0 0
-4.904977 -12.669558 13.467347 19.129714 1.201419 0.789780 0.029695 -0.004656 373421.000000 1 0 0
3.578123 -12.468658 13.849147 18.975491 -1.291337 0.752703 0.009220 -0.001670 463765.000000 1 0 0
6.602523 -13.626958 14.600447 21.034742 -1.119610 0.803612 0.047478 -0.002739 320534.000000 1 0 0
7.159623 -8.535858 16.742047 20.110127 -0.872858 0.587159 0.058785 -0.012734 537648.000000 1 0 0
-5.130277 13.641642 13.554647 19.903332 -1.211084 0.821636 -0.005495 0.005768 500014.000000 1 0 0
-13.631677 -1.462558 17.454547 22.195110 0.106882 0.665814 0.052833 -0.016817 -13007.500000 1 0 0
-10.198677 10.067942 12.373747 18.933729 -0.778947 0.858558 0.011098 -0.002989 143137.000000 1 0 0
-7.597877 -8.163358 17.039047 20.364118 0.821261 0.579532 0.029127 -0.012113 211332.000000 1 0 0
-5.307377 2.110342 18.366647 19.234228 -0.378457 0.301494 0.025167 -0.010909 626980.000000 1 0 0
-15.028477 -4.181458 13.160247 20.409111 0.271372 0.870006 0.060097 -0.025203 -65689.400000 1 0 0
-14.728977 2.937842 12.837447 19.757878 -0.196876 0.863556 0.044130 -0.007391 69850.400000 1 0 0
-14.969877 10.578542 9.671347 20.725292 -0.615179 1.085303 0.007235 0.003299 72542.400000 1 0 0
-4.832277 11.297742 15.821247 20.032517 -1.166624 0.660349 0.022446 -0.002919 189872.000000 1 0 0
-12.946577 13.306142 7.656847 20.082196 -0.799094 1.179621 0.005917 -0.022058 81580.300000 1 0 0
-3.947077 -6.346758 18.754047 20.188488 1.014426 0.379236 0.025341 -0.012297 270720.000000 1 0 0
0.232523 -2.712558 17.712447 17.920458 -1.485285 0.152512 0.008921 -0.021564 -61962.500000 1 0 0
-4.531977 6.454742 21.107747 22.533076 -0.958652 0.357584 0.050432 -0.021674 278263.000000 1 0 0
2.087823 -10.569558 16.489947 19.697536 -1.375775 0.578730 0.004179 -0.005268 382486.000000 1 0 0
-14.952077 -0.156658 13.992647 20.478851 0.010477 0.818560 0.039781 -0.012513 -14779.000000 1 0 0
-13.960077 -5.732258 7.826647 16.999969 0.389626 1.092360 0.036371 -0.014047 75816.200000 1 0 0
10.091223 1.416242 16.164847 19.108658 0.139433 0.562464 0.057035 -0.010374 247396.000000 1 0 0
-7.641577 12.219942 11.712947 18.571856 -1.011955 0.888364 0.006378 -0.011334 105620.000000 1 0 0
-1.895177 7.357942 19.651247 21.068995 -1.318707 0.368942 0.065853 -0.045777 424739.000000 1 0 0
1.039023 -13.261358 15.525947 20.445005 -1.492606 0.708405 -0.002388 -0.007455 524142.000000 1 0 0
-3.639077 -11.776558 17.844447 21.687658 1.271094 0.604489 0.026691 -0.008133 298094.000000 1 0 0
-2.206177 9.335742 16.684747 19.245885 -1.338738 0.521796 0.024185 -0.010774 410663.000000 1 0 0
-4.309977 -9.600558 20.425647 22.977243 1.148833 0.475746 0.036832 -0.020106 191425.000000 1 0 0
-6.836877 -2.862758 19.077847 20.467109 0.396542 0.370567 0.024200 -0.014302 254629.000000 1 0 0
-10.691877 -8.074658 15.996047 20.865998 0.646830 0.697254 0.041160 -0.015968 159769.000000 1 0 0
-0.640377 5.604342 17.840047 18.710586 -1.457025 0.306241 0.030909 -0.029195 -174481.000000 1 0 0
-6.310177 -10.922958 19.048647 22.846889 1.046936 0.584927 0.059215 -0.013930 479628.000000 1 0 0
0.848123 3.723242 18.895047 19.277050 1.346827 0.199410 0.024774 -0.008180 83558.200000 1 0 0
-18.434577 -0.506158 7.766947 20.010380 0.027450 1.172177 0.056815 -0.022998 286673.000000 1 0 0
-1.740577 -8.638058 17.336847 19.447672 1.371958 0.470236 0.012164 -0.018909 164324.000000 1 0 0
4.991523 3.166642 13.976247 15.174927 0.565333 0.400133 0.019723 -0.010380 -679868.000000 1 0 0
-14.200977 -6.783758 10.356147 18.839770 0.445646 0.988796 0.062139 -0.013216 157475.000000 1 0 0
3.618223 8.127242 17.103347 19.278695 1.151944 0.479636 0.035448 -0.004319 175768.000000 1 0 0
6.453923 4.282942 16.760647 18.463911 0.585889 0.432903 0.050455 -0.045656 177081.000000 1 0 0
5.632823 -9.453358 18.169247 21.241851 -1.033431 0.544567 0.044454 -0.001865 390498.000000 1 0 0
-4.494077 -0.248258 19.823847 20.328386 0.055185 0.223261 0.032993 -0.014592 772027.000000 1 0 0
-10.910977 2.249042 16.836247 20.188285 -0.203279 0.584549 0.025032 -0.013398 95971.600000 1 0 0
-16.925777 -4.489658 8.750347 19.575688 0.259285 1.107387 0.057115 -0.023122 400649.000000 1 0 0
-13.578077 -9.307758 11.763447 20.233073 0.600927 0.950352 0.075967 -0.034926 184871.000000 1 0 0
-14.828177 6.065542 12.784247 20.496405 -0.388288 0.897289 0.053194 -0.032401 367632.000000 1 0 0
1.205723 9.596742 17.111747 19.656122 1.445812 0.514466 0.027768 -0.017949 266798.000000 1 0 0
-3.923677 -10.516158 14.814547 18.586437 1.213684 0.648381 0.020307 -0.012681 382796.000000 1 0 0
-18.794277 -3.268858 6.721947 20.226094 0.172206 1.232012 0.123937 -0.022240 -205799.000000 1 0 0
-0.555777 -0.357258 20.566747 20.577357 0.571303 0.032114 0.036194 -0.027844 293621.000000 1 0 0
-1.869977 3.340642 20.209747 20.569166 -1.060486 0.187215 0.034858 -0.019959 -39045.300000 1 0 0
-8.037477 2.510042 16.307847 18.353399 -0.302696 0.476629 0.003810 0.006104 371362.000000 1 0 0
2.838023 -2.923458 18.408747 18.854256 -0.800226 0.217820 0.020114 -0.012843 -114521.000000 1 0 0
-12.124677 4.324042 14.298447 19.239302 -0.342570 0.732971 0.008474 -0.018584 211323.000000 1 0 0
-13.079277 -5.543958 13.357547 19.499411 0.400916 0.816161 0.016789 -0.013520 -126291.000000 1 0 0
-17.410977 -0.934158 9.849947 20.025889 0.053602 1.056571 0.069674 -0.025555 305974.000000 1 0 0
-6.993477 7.896942 14.806847 18.180021 -0.845998 0.619003 -0.005957 -0.005653 -314815.000000 1 0 0
-9.477877 0.871542 14.094247 17.006985 -0.091698 0.593957 0.006861 -0.004230 209185.000000 1 0 0
8.060823 -0.966558 14.871647 16.943347 -0.119338 0.499697 0.038428 -0.006628 75396.100000 1 0 0
3.906123 6.387542 18.412747 19.876814 1.021948 0.386211 0.022177 -0.009989 125127.000000 1 0 0
1.993323 0.837242 19.922247 20.039218 0.397648 0.108100 0.020154 -0.006670 254622.000000 1 0 0
-7.118177 7.015142 17.496847 20.149946 -0.778108 0.518967 0.003385 -0.012146 492796.000000 1 0 0
7.489323 -3.402858 16.885347 18.782555 -0.426475 0.453336 0.028746 0.008588 344574.000000 1 0 0
-16.069077 2.731942 9.130947 18.682959 -0.168402 1.060161 0.030342 -0.023571 -5198.490000 1 0 0
3.656623 -6.013258 19.168647 20.419775 -1.024447 0.351871 0.024500 -0.021904 93671.700000 1 0 0
-4.151277 -3.608058 20.443347 21.170301 0.715504 0.262818 0.040249 -0.021387 199140.000000 1 0 0
-9.264477 5.885542 14.654147 18.308855 -0.565958 0.642858 0.003474 -0.006231 -354865.000000 1 0 0
6.420523 2.809742 19.725247 20.933302 0.412510 0.341390 0.071780 -0.018813 109912.000000 1 0 0
-7.691277 11.179642 14.803447 20.081887 -0.968189 0.741947 0.017985 -0.010748 252065.000000 1 0 0
-14.582277 4.872642 9.353347 17.996404 -0.322484 1.024256 0.014748 -0.014961 348483.000000 1 0 0
0.974523 -5.460658 20.408747 21.149124 -1.394193 0.265381 0.033538 -0.023225 276009.000000 1 0 0
-5.943977 -8.257558 13.787647 17.135266 0.946890 0.635735 0.011687 -0.003893 258908.000000 1 0 0
-12.844577 10.173442 6.635647 17.678063 -0.669870 1.186011 -0.012443 -0.012156 65862.900000 1 0 0
-19.674277 2.671842 7.648347 21.277057 -0.134978 1.203102 0.071839 -0.028370 -97365.000000 1 0 0
-15.705477 9.174542 6.314947 19.253903 -0.528692 1.236629 0.008989 -0.006818 62711.000000 1 0 0
-12.935977 7.580742 14.177747 20.635302 -0.530077 0.813357 0.030654 -0.016243 288070.000000 1 0 0
-16.398777 8.717942 10.705147 21.436478 -0.488624 1.047903 0.036622 -0.026809 270443.000000 1 0 0
2.453023 10.757042 14.457047 18.186190 1.346591 0.651877 0.027993 -0.048759 214018.000000 1 0 0
1.507623 14.391842 13.480847 19.777039 1.466422 0.820793 0.028212 -0.023906 586827.000000 1 0 0
8.883523 4.962842 16.606247 19.475991 0.509465 0.549756 0.058274 -0.009720 78456.500000 1 0 0
-0.538377 13.412542 13.227347 18.845393 -1.530678 0.792752 0.009938 0.001916 63751.700000 1 0 0
4.150323 12.694542 14.639947 19.816777 1.254813 0.739560 0.043216 -0.011022 146028.000000 1 0 0
-3.559077 -4.575958 -13.257053 14.469135 0.909753 2.729363 -0.001249 -0.009455 145717.000000 1 0 0
5.229323 -11.798058 16.900547 21.264254 -1.153582 0.652140 0.005004 0.006595 219508.000000 1 0 0
8.487523 -13.949758 7.356047 17.909361 -1.024198 1.147533 0.012559 -0.004488 213607.000000 1 0 0
-0.351777 15.253942 0.380947 15.262753 -1.547739 1.545834 0.003689 -0.001412 -340878.000000 1 0 0
-13.963277 7.605942 8.486747 18.023550 -0.498773 1.080520 -0.004720 -0.005609 79664.400000 1 0 0
-16.498777 -9.548458 4.643747 19.620069 0.524638 1.331845 0.056726 -0.009417 273738.000000 1 0 0
9.327523 -10.473658 11.539647 18.162149 -0.843216 0.882311 0.033277 0.003132 187779.000000 1 0 0
-26.397777 5.381642 31.362735 41.345204 -0.201111 0.709699 0.072179 -0.023901 374095.000000 0 0 1
-25.146617 4.791942 30.991405 40.196794 -0.188302 0.690399 0.061225 -0.020461 533450.000000 0 0 1
-24.066577 5.546642 31.533085 40.053725 -0.226515 0.664428 0.059204 -0.015376 377273.000000 0 0 1
-22.733777 4.814242 31.208205 38.909557 -0.208683 0.640042 0.044935 -0.016096 -52408.600000 0 0 1
-22.560777 3.534242 31.869577 39.206498 -0.155391 0.621743 0.027506 -0.014924 -192558.000000 0 0 1
-21.293977 2.971942 31.637185 38.251502 -0.138671 0.596897 0.033666 -0.001675 -88754.900000 0 0 1
-20.996677 1.639442 32.344878 38.597142 -0.077923 0.577166 0.029430 0.000055 29357.700000 0 0 1
-21.695677 0.525042 31.810420 38.508193 -0.024196 0.598700 0.025396 0.009160 298563.000000 0 0 1
-21.663177 -0.453058 32.810989 39.319964 0.020911 0.583642 0.027422 0.013051 -251406.000000 0 0 1
-22.424277 -1.759458 32.546963 39.563224 0.078302 0.604728 0.034034 -0.013626 -641443.000000 0 0 1
-21.830377 -2.670858 31.643145 38.535536 0.121741 0.607387 0.053018 -0.016872 103454.000000 0 0 1
-21.971977 -4.051258 31.915271 38.958504 0.182335 0.610761 0.062343 -0.021474 -537118.000000 0 0 1
-23.356477 -4.702458 31.668385 39.629847 0.198678 0.644992 0.041352 -0.011680 -241668.000000 0 0 1
-24.456677 -4.360158 32.453970 40.870530 0.176427 0.653324 0.021600 -0.008744 -94098.000000 0 0 1
-24.382277 -4.600158 33.834675 41.957623 0.186476 0.632755 0.018932 -0.013508 -1805410.000000 0 0 1
-25.703857 -4.337358 -33.264373 42.261323 0.167169 2.476908 0.006525 -0.007915 -1072460.000000 0 0 1
-25.668047 -4.665358 -31.875513 41.190563 0.179795 2.455701 0.014750 -0.017458 143206.000000 0 0 1
-26.806097 -4.225458 -31.166273 41.325027 0.156344 2.425192 0.026639 -0.016555 -285619.000000 0 0 1
-26.875527 -4.746658 -29.744373 40.367715 0.174814 2.399174 0.018005 -0.013839 -658602.000000 0 0 1
-27.158207 -6.136558 -29.913623 40.866250 0.222224 2.392032 0.017726 -0.011163 512501.000000 0 0 1
-26.813777 -6.902158 -28.776023 39.933419 0.251941 2.375464 0.010020 -0.003280 -261274.000000 0 0 1
-27.075997 -8.426458 -28.914963 40.499258 0.301714 2.365938 0.016744 -0.003043 -490403.000000 0 0 1
-28.431567 -8.789858 -28.929173 41.503164 0.299838 2.342051 0.023833 -0.001243 -373231.000000 0 0 1
-28.519377 -10.031858 -28.261583 41.384902 0.338238 2.322516 0.029264 -0.003809 888339.000000 0 0 1
-29.978007 -10.525658 -27.940003 42.309740 0.337666 2.292105 0.085100 -0.006583 1010400.000000 0 0 1
-29.986377 -11.389558 -26.791403 41.793350 0.362994 2.266655 0.114448 -0.013628 -270929.000000 0 0 1
-31.274487 -11.234458 -26.247733 42.346783 0.344866 2.239320 0.108745 -0.017571 -131365.000000 0 0 1
-31.360947 -11.944958 -24.861853 41.764851 0.363921 2.208413 0.118858 -0.019090 27576.700000 0 0 1
-30.719277 -11.144258 -23.882353 40.475119 0.348012 2.201917 0.125957 -0.018157 239711.000000 0 0 1
-30.577697 -11.939158 -22.693053 39.906312 0.372249 2.175670 0.136427 -0.024615 7988.430000 0 0 1
-30.029727 -11.056458 -21.509053 38.557349 0.352781 2.162584 0.150043 -0.028010 -201009.000000 0 0 1
-29.958497 -11.691558 -20.210053 37.982237 0.372080 2.131866 0.160887 -0.030284 -364112.000000 0 0 1
-29.015657 -12.664858 -19.951553 37.421537 0.411557 2.133124 0.165621 -0.038193 -777725.000000 0 0 1
-28.880067 -13.020858 -18.452553 36.661938 0.423569 2.098229 0.141944 -0.040649 161881.000000 0 0 1
-28.362177 -11.864358 -17.774153 35.511922 0.396196 2.094987 0.119421 -0.039461 210771.000000 0 0 1
-28.169697 -12.086558 -16.404453 34.766691 0.405307 2.062177 0.127193 -0.049398 -211508.000000 0 0 1
-27.653707 -10.802758 -15.838253 33.649329 0.372415 2.060864 0.121241 -0.039846 -114363.000000 0 0 1
-26.280737 -10.487858 -16.010953 32.511889 0.379705 2.085716 0.119522 -0.036034 419830.000000 0 0 1
-26.016407 -9.309858 -15.254353 31.562987 0.343647 2.075215 0.117809 -0.042031 -218552.000000 0 0 1
-24.587777 -8.787658 -15.487653 30.358674 0.343251 2.106162 0.127254 -0.039268 47021.000000 0 0 1
-23.572977 -9.518558 -14.830553 29.431845 0.383770 2.098898 0.134490 -0.045453 753256.000000 0 0 1
-22.310277 -8.851558 -14.934953 28.269265 0.377700 2.127406 0.135606 -0.061807 483780.000000 0 0 1
-21.217377 -9.188258 -13.922853 26.989757 0.408672 2.112804 0.107579 -0.029912 51519.500000 0 0 1
-20.496277 -10.388758 -14.242153 27.034470 0.469121 2.125645 0.107126 -0.028877 1162050.000000 0 0 1
-19.310577 -10.651558 -13.482053 25.848014 0.504065 2.119509 0.103145 -0.021400 1245800.000000 0 0 1
-18.239077 -11.641058 -14.083053 25.816865 0.568069 2.147780 0.095551 -0.016025 922471.000000 0 0 1
-17.418377 -11.188358 -15.164053 25.661795 0.570965 2.202994 0.091225 -0.025126 549394.000000 0 0 1
-18.166977 -11.218458 -16.390453 26.917277 0.553202 2.225494 0.097405 -0.030879 -50652.100000 0 0 1
-17.469877 -10.710658 -17.674053 27.060801 0.549991 2.282499 0.095027 -0.034536 -446354.000000 0 0 1
-18.014977 -11.168758 -18.855553 28.369216 0.554975 2.297819 0.072912 -0.028074 -22786.600000 0 0 1
-17.694377 -10.212358 -19.827453 28.469477 0.523451 2.341229 0.076610 -0.031269 -424795.000000 0 0 1
-18.584977 -10.337558 -21.017853 29.900111 0.507615 2.350313 0.082802 -0.027941 475143.000000 0 0 1
-19.964077 -9.937558 -20.936053 30.588196 0.461864 2.324644 0.082625 -0.036965 880946.000000 0 0 1
-20.672877 -10.516958 -22.006253 31.972635 0.470609 2.329917 0.082253 -0.028787 -599895.000000 0 0 1
-22.042577 -9.939058 -22.231153 32.846373 0.423604 2.314233 0.074853 -0.023285 -640114.000000 0 0 1
-21.765677 -8.665358 -22.796853 32.688371 0.378885 2.342559 0.080864 -0.032316 1187470.000000 0 0 1
-22.899477 -8.140858 -23.517653 33.819220 0.341570 2.339763 0.067038 -0.031696 563210.000000 0 0 1
-22.379777 -7.173958 -24.619753 34.036044 0.310207 2.379429 0.078623 -0.034736 -302341.000000 0 0 1
-21.570677 -7.899258 -25.470443 34.299211 0.351036 2.407734 0.078721 -0.033427 -271641.000000 0 0 1
-21.097677 -7.182358 -26.566133 34.676471 0.328127 2.443569 0.072816 -0.039310 -9536.790000 0 0 1
-19.873777 -7.819058 -27.286603 34.650590 0.374835 2.477504 0.088474 -0.037122 56609.400000 0 0 1
-20.124977 -9.056758 -27.988793 35.642841 0.422875 2.473908 0.080035 -0.032697 -42691.000000 0 0 1
-18.981177 -9.490258 -28.672243 35.671383 0.463634 2.504432 0.051337 -0.021385 -208916.000000 0 0 1
-19.332577 -10.625158 -29.667483 36.970286 0.502535 2.502217 0.058132 -0.021101 334410.000000 0 0 1
-20.034977 -10.291058 -30.895863 38.234285 0.474512 2.511660 0.065556 -0.020247 623698.000000 0 0 1
-19.980677 -11.440958 -31.604353 39.101894 0.520030 2.511981 0.045691 -0.015641 -70297.400000 0 0 1
-20.582277 -11.354458 -33.033583 40.543451 0.504118 2.523128 0.039954 -0.019201 -45273.300000 0 0 1
-19.848577 -10.650858 33.708675 40.542343 0.492501 0.589095 0.042076 -0.023744 -51054.300000 0 0 1
-20.283577 -10.939558 32.370726 39.736147 0.494615 0.618685 0.043553 -0.027270 -176211.000000 0 0 1
-19.551977 -12.067658 31.688965 39.142033 0.552977 0.627344 0.050224 -0.025198 -1200690.000000 0 0 1
-18.284377 -11.836858 31.187845 38.040917 0.574528 0.609647 0.056617 -0.025527 -426113.000000 0 0 1
-17.867677 -12.649158 30.070505 37.195301 0.616032 0.629284 0.063681 -0.028059 69330.400000 0 0 1
-17.717077 -14.180658 30.251435 37.817129 0.674982 0.643601 0.064838 -0.021248 -564855.000000 0 0 1
-18.922877 -14.928558 30.129955 38.584341 0.667946 0.674714 0.050062 -0.014818 182737.000000 0 0 1
-18.770277 -16.310758 30.508435 39.358973 0.715403 0.683871 0.054677 -0.016754 -602458.000000 0 0 1
-19.258177 -16.562958 31.938136 40.807518 0.710299 0.671879 0.037063 -0.020989 -196041.000000 0 0 1
-18.351977 -16.108358 32.937504 41.001871 0.720383 0.637952 0.056621 -0.020176 149152.000000 0 0 1
-18.998777 -15.396958 -33.785273 41.706888 0.681061 2.515059 0.041662 -0.014238 -116878.000000 0 0 1
-17.944677 -15.058858 -32.739153 40.257083 0.698180 2.520515 0.060454 -0.018078 -147649.000000 0 0 1
-17.119377 -14.018458 -33.206983 39.903558 0.686139 2.553826 0.051623 -0.019148 180053.000000 0 0 1
-15.971077 -13.687758 -32.399513 38.628467 0.708564 2.565774 0.068489 -0.020972 537516.000000 0 0 1
-16.179977 -13.252858 -30.938833 37.344896 0.686273 2.547152 0.071974 -0.021728 -391375.000000 0 0 1
-16.523377 -14.361058 -30.111073 37.228197 0.715499 2.512946 0.060060 -0.023323 -166736.000000 0 0 1
-16.952377 -13.976258 -28.799203 36.223100 0.689468 2.489888 0.048348 -0.017839 107730.000000 0 0 1
-16.732277 -15.171158 -27.793183 35.813323 0.736505 2.459186 0.065985 -0.020101 -160317.000000 0 0 1
-15.434777 -15.661658 -27.584643 35.276513 0.792694 2.468592 0.091139 -0.031545 -227992.000000 0 0 1
-14.877077 -16.554358 -28.580313 36.224418 0.838711 2.479942 0.109508 -0.033045 -352969.000000 0 0 1
-13.514577 -17.066058 -28.125563 35.566015 0.901015 2.482909 0.149798 -0.035309 233430.000000 0 0 1
-12.454177 -16.100358 -28.083753 34.684654 0.912403 2.514417 0.142841 -0.040406 93958.100000 0 0 1
-11.361677 -16.417858 -27.260893 33.790384 0.965438 2.509453 0.181494 -0.046304 -315618.000000 0 0 1
-10.081577 -15.834058 -27.843633 33.580105 1.003826 2.548418 0.166383 -0.051194 -325232.000000 0 0 1
-9.876677 -14.461758 -27.631353 32.713649 0.971604 2.576694 0.138990 -0.038033 429947.000000 0 0 1
-8.499677 -14.113358 -27.835203 32.345477 1.028729 2.607163 0.156892 -0.042162 855484.000000 0 0 1
-8.276977 -12.609458 -27.763003 31.595745 0.989928 2.643917 0.120995 -0.042434 -69343.700000 0 0 1
-8.776777 -12.015858 -28.929713 32.532152 0.939936 2.666533 0.150995 -0.035284 131704.000000 0 0 1
-8.473077 -10.631758 -29.099983 32.119096 0.897912 2.704539 0.132102 -0.030499 -142535.000000 0 0 1
-7.320777 -10.327558 -30.065403 32.621782 0.954150 2.743071 0.129085 -0.021157 -28276.100000 0 0 1
-6.016477 -10.647958 -29.554473 31.985057 1.056483 2.749231 0.115356 -0.025577 1004230.000000 0 0 1
-4.938177 -10.378358 -30.429063 32.527277 1.126683 2.780450 0.108963 -0.029918 34436.400000 0 0 1
-4.693477 -8.885458 -30.763883 32.363507 1.084828 2.825873 0.097566 -0.025739 -154055.000000 0 0 1
-3.381177 -8.604258 -31.286113 32.623404 1.196369 2.854278 0.097672 -0.036275 888141.000000 0 0 1
-3.487777 -7.319458 -31.889813 32.904395 1.126119 2.892619 0.091376 -0.033180 -645125.000000 0 0 1
-2.202877 -6.710458 -32.382273 33.143544 1.253605 2.926849 0.094238 -0.039475 -844408.000000 0 0 1
-1.609577 -7.273658 -33.520793 34.338614 1.353017 2.922908 0.099989 -0.044993 216140.000000 0 0 1
-0.542677 -6.473758 33.714455 34.334655 1.487165 0.190358 0.114633 -0.043829 546382.000000 0 0 1
0.207523 -7.015458 32.461004 33.211090 -1.541224 0.212936 0.102272 -0.040538 340158.000000 0 0 1
-0.490577 -6.834658 31.202895 31.946422 1.499141 0.216171 0.099474 -0.034205 265928.000000 0 0 1
0.153723 -7.481558 30.132095 31.047391 -1.550252 0.243420 0.080198 -0.035225 -112446.000000 0 0 1
-0.112977 -6.826358 28.785525 29.584090 1.554248 0.232875 0.075935 -0.028865 -90847.400000 0 0 1
0.467223 -5.552058 28.686655 29.222728 -1.486841 0.191837 0.089812 -0.034853 46519.800000 0 0 1
0.391023 -4.981458 27.409375 27.861114 -1.492461 0.180322 0.086046 -0.028038 537891.000000 0 0 1
-0.946077 -4.193158 27.170835 27.508761 1.348888 0.156905 0.078448 -0.016294 122644.000000 0 0 1
-2.112277 -4.917658 27.173325 27.695391 1.165096 0.194473 0.054934 -0.011118 -1002660.000000 0 0 1
-3.234977 -4.089258 26.905215 27.405797 0.901511 0.191423 0.049620 -0.009744 1661780.000000 0 0 1
-4.618377 -4.800058 27.303045 28.103848 0.804686 0.239294 0.046223 -0.008318 1438020.000000 0 0 1
-5.132477 -5.877758 26.505385 27.630161 0.852985 0.286313 0.048875 -0.004393 256474.000000 0 0 1
-6.483777 -6.167358 26.845875 28.297998 0.760392 0.321746 0.044174 -0.004899 611229.000000 0 0 1
-6.784877 -7.619658 26.698615 28.581634 0.843286 0.365016 0.057635 -0.008078 -24580.000000 0 0 1
-6.234277 -8.357158 27.741835 29.636426 0.929873 0.359502 0.062227 -0.016288 -159332.000000 0 0 1
-6.296577 -9.733458 27.552995 29.892384 0.996603 0.398254 0.071175 -0.023214 123902.000000 0 0 1
-5.583177 -10.336658 28.791535 31.096155 1.075560 0.387419 0.066908 -0.024611 127261.000000 0 0 1
-5.422677 -11.728258 28.753175 31.523048 1.137712 0.422341 0.088233 -0.036370 65952.000000 0 0 1
-4.834677 -12.200158 29.956285 32.704694 1.193501 0.412895 0.095903 -0.038763 -150133.000000 0 0 1
-4.852377 -13.740858 30.025555 33.375001 1.231331 0.451847 0.112563 -0.047583 55954.400000 0 0 1
-6.132577 -14.269158 29.762575 33.571242 1.164885 0.480963 0.153736 -0.054754 -167128.000000 0 0 1
-6.040077 -15.686758 29.671135 34.101806 1.203250 0.515441 0.133304 -0.053713 155086.000000 0 0 1
-6.366477 -16.403558 30.995215 35.641438 1.200577 0.516324 0.164142 -0.053390 71271.400000 0 0 1
-7.695477 -16.314158 31.460275 36.264598 1.130039 0.520601 0.163432 -0.058387 -296277.000000 0 0 1
-7.779177 -16.610058 32.826086 37.602680 1.132795 0.509534 0.169713 -0.049063 -231161.000000 0 0 1
-9.204677 -16.698158 33.427571 38.483205 1.067002 0.518371 0.191151 -0.047019 684574.000000 0 0 1
-9.955277 -17.862358 32.989062 38.813008 1.062341 0.554909 0.183419 -0.049617 299245.000000 0 0 1
-10.605877 -17.713058 31.747541 37.870086 1.031289 0.576588 0.174345 -0.050900 -681959.000000 0 0 1
-11.431277 -18.915258 31.314895 38.328628 1.027191 0.614589 0.151859 -0.045032 -22513.600000 0 0 1
-12.571377 -19.182258 32.117175 39.465320 0.990659 0.620122 0.153942 -0.041279 279362.000000 0 0 1
-13.078177 -20.500958 31.954249 40.154726 1.002953 0.650505 0.126041 -0.035171 -129859.000000 0 0 1
-12.485477 -21.451758 32.980481 41.276836 1.043698 0.645154 0.128884 -0.030407 -628090.000000 0 0 1
-11.128777 -21.727758 32.751146 40.848289 1.097443 0.640537 0.115375 -0.034571 -493124.000000 0 0 1
-10.652077 -22.507958 33.838305 42.013163 1.128770 0.634410 0.097217 -0.037799 150362.000000 0 0 1
-10.971977 -24.051558 33.782165 42.896345 1.142810 0.664005 0.103384 -0.031716 -353962.000000 0 0 1
-10.217277 -24.717558 32.816824 42.335498 1.178825 0.683827 0.093465 -0.028875 -113607.000000 0 0 1
-10.350777 -26.113428 32.998803 43.335560 1.193417 0.705216 0.090913 -0.027422 -683382.000000 0 0 1
-9.599177 -26.986998 32.019100 42.961204 1.229056 0.729808 0.069042 -0.018952 568989.000000 0 0 1
-8.177077 -26.936958 31.902161 42.546589 1.276073 0.723011 0.087649 -0.037088 766570.000000 0 0 1
-7.406177 -27.514818 32.946265 43.558846 1.307858 0.713062 0.083266 -0.035675 273093.000000 0 0 1
-5.932177 -27.064618 33.145159 43.200531 1.355023 0.696270 0.103130 -0.049094 502172.000000 0 0 1
-5.661477 -25.950968 -33.784963 42.975909 1.356001 2.475330 0.103687 -0.039480 -18224.000000 0 0 1
-5.766177 -24.727158 33.208990 41.803327 1.341698 0.652760 0.115054 -0.043020 -130550.000000 0 0 1
-5.033777 -23.533958 33.869385 41.549024 1.360077 0.617779 0.129412 -0.039976 -1383190.000000 0 0 1
-3.682877 -23.736858 33.827155 41.488293 1.416869 0.617476 0.140735 -0.054916 -1291250.000000 0 0 1
-2.952177 -22.694558 -33.277523 40.387521 1.441440 2.539153 0.112275 -0.053867 65754.100000 0 0 1
35.421284 -15.828558 2.375447 38.869697 -0.420244 1.509645 0.217979 -0.057801 229852.000000 0 0 1
36.198634 -15.517658 3.552747 39.544416 -0.404984 1.480833 0.194520 -0.053607 558346.000000 0 0 1
35.553884 -16.109558 4.676147 39.312375 -0.425431 1.451566 0.164921 -0.052160 -185150.000000 0 0 1
36.417774 -16.211558 5.919147 40.300188 -0.418818 1.423387 0.136204 -0.034619 743805.000000 0 0 1
37.507824 -17.146058 5.670547 41.629067 -0.428770 1.434155 0.131638 -0.033313 1223810.000000 0 0 1
-36.676787 -17.134558 6.743147 41.039613 0.437046 1.405740 0.124582 -0.023654 939673.000000 0 0 1
-35.511387 -18.158758 6.649447 40.435310 0.472687 1.405599 0.106668 -0.034105 -91932.100000 0 0 1
-35.933943 -19.468958 6.691747 41.413381 0.496525 1.408501 0.088937 -0.032123 374192.000000 0 0 1
-34.898673 -20.336158 7.213347 41.030587 0.527617 1.394074 0.082114 -0.027102 434072.000000 0 0 1
-35.146311 -21.886558 7.310947 42.044436 0.556963 1.396022 0.096213 -0.031454 -596657.000000 0 0 1
-35.140621 -22.557458 6.080547 42.198048 0.570674 1.426197 0.099888 -0.030780 242428.000000 0 0 1
-35.685081 -23.860958 6.195647 43.372300 0.589377 1.427458 0.073375 -0.030087 -341915.000000 0 0 1
-35.006533 -24.925458 5.321047 43.301840 0.618750 1.447602 0.097694 -0.023536 -160217.000000 0 0 1
-35.068240 -24.736458 3.914347 43.092876 0.614328 1.479836 0.100991 -0.016854 139070.000000 0 0 1
-34.386200 -25.758218 3.180147 43.081433 0.642916 1.496912 0.106511 -0.018706 -54325.000000 0 0 1
-34.621550 -25.638568 1.670347 43.113547 0.637418 1.532044 0.088978 -0.018127 -1108750.000000 0 0 1
-35.914737 -25.943978 1.288247 44.324011 0.625587 1.541728 0.051846 -0.014384 -856407.000000 0 0 1
-36.205587 -25.438218 0.029947 44.248710 0.612472 1.570120 0.046401 -0.017151 -49602.000000 0 0 1
-36.880567 -24.018258 0.055247 44.011998 0.577249 1.569541 0.045248 -0.018902 122729.000000 0 0 1
36.848454 -24.076058 0.078147 44.016715 -0.578748 1.569021 0.030278 -0.008489 184283.000000 0 0 1
36.392424 -22.813858 0.385247 42.953801 -0.559954 1.561827 0.038126 -0.016721 -627381.000000 0 0 1
34.890964 -22.577058 0.334147 41.559771 -0.574316 1.562756 0.068861 -0.020100 -480841.000000 0 0 1
34.285524 -22.745858 -0.909153 41.154559 -0.585755 1.592889 0.082322 -0.028559 -424655.000000 0 0 1
32.882574 -22.707258 -0.811853 39.969267 -0.604360 1.591110 0.090354 -0.025058 12870.200000 0 0 1
32.216204 -22.711258 -2.200353 39.478178 -0.614050 1.626561 0.104526 -0.022598 -203168.000000 0 0 1
32.378044 -21.450258 -2.781053 38.938227 -0.585108 1.642279 0.133914 -0.037997 90661.900000 0 0 1
32.161494 -21.396258 -4.140553 38.849784 -0.587039 1.677578 0.127600 -0.052855 -151215.000000 0 0 1
32.079064 -19.955958 -4.713453 38.072605 -0.556502 1.694916 0.147843 -0.051031 -7298.330000 0 0 1
30.872434 -19.373358 -4.291953 36.699523 -0.560416 1.688013 0.164642 -0.044583 -106291.000000 0 0 1
30.847284 -17.941658 -4.517953 35.970403 -0.526801 1.696731 0.163453 -0.050645 658497.000000 0 0 1
29.684464 -17.416558 -3.589353 34.603285 -0.530600 1.674712 0.165579 -0.038373 446544.000000 0 0 1
30.000864 -17.366058 -2.153253 34.731373 -0.524724 1.632833 0.166258 -0.042706 267837.000000 0 0 1
30.450554 -18.564058 -1.471653 35.693504 -0.547482 1.612038 0.152697 -0.034641 74539.700000 0 0 1
29.342664 -19.620158 -1.192253 35.318040 -0.589379 1.604560 0.139542 -0.021783 -707364.000000 0 0 1
28.450564 -19.200258 -0.245153 34.324111 -0.593656 1.577939 0.130823 -0.003913 -947348.000000 0 0 1
27.803264 -20.269158 0.310747 34.408673 -0.629939 1.561765 0.117647 -0.005412 -721074.000000 0 0 1
26.614964 -19.760858 1.161447 33.169214 -0.638666 1.535773 0.115680 -0.000745 -461882.000000 0 0 1
25.820564 -20.915558 1.524247 33.263875 -0.680830 1.524957 0.104257 0.001252 585228.000000 0 0 1
24.875264 -20.660458 2.591847 32.439959 -0.693101 1.490814 0.088164 0.002167 638286.000000 0 0 1
23.532964 -20.090558 2.059347 31.010834 -0.706650 1.504340 0.058351 0.001128 -586919.000000 0 0 1
23.514164 -18.691258 1.719247 30.087121 -0.671620 1.513623 0.087227 -0.013488 197671.000000 0 0 1
23.405964 -17.792458 2.816647 29.535474 -0.649977 1.475286 0.103497 -0.011781 -155192.000000 0 0 1
23.318364 -16.341858 2.383547 28.574179 -0.611273 1.487283 0.084044 -0.000248 790923.000000 0 0 1
21.985564 -16.045658 1.931947 27.286637 -0.630465 1.499935 0.072648 -0.006271 517051.000000 0 0 1
21.847564 -14.748958 1.466847 26.400747 -0.593808 1.515207 0.086533 -0.016973 488278.000000 0 0 1
20.423164 -14.448058 0.902947 25.033324 -0.615698 1.534719 0.069871 -0.017131 682399.000000 0 0 1
19.414964 -14.309658 1.919547 24.194871 -0.635157 1.491376 0.073315 -0.017277 544158.000000 0 1 0
18.514564 -13.254658 1.632847 22.828518 -0.621321 1.499209 0.093612 -0.028725 -37851.800000 0 1 0
19.053964 -11.859258 2.018447 22.533745 -0.556730 1.481102 0.104325 -0.026297 -915948.000000 0 1 0
20.146264 -11.449158 1.250347 23.206002 -0.516786 1.516890 0.113200 -0.026961 82811.100000 0 1 0
20.463064 -10.134658 1.682447 22.897137 -0.459853 1.497252 0.126440 -0.029238 -350274.000000 0 1 0
21.313564 -9.356758 0.672247 23.286666 -0.413673 1.541924 0.137056 -0.029939 -64307.900000 0 1 0
20.659064 -9.211558 -0.592953 22.627446 -0.419426 1.597004 0.139258 -0.019757 810530.000000 0 1 0
21.471264 -8.415058 -1.422853 23.105256 -0.373523 1.632417 0.135278 -0.018591 -290432.000000 0 1 0
20.930264 -8.242358 -2.873353 22.677490 -0.375151 1.697843 0.158998 -0.021828 -340275.000000 0 1 0
21.637664 -7.355158 -3.729553 23.155915 -0.327670 1.732564 0.164126 -0.027227 697195.000000 0 1 0
22.803364 -7.804858 -4.399653 24.500330 -0.329770 1.751351 0.158150 -0.029060 -610539.000000 0 1 0
22.739764 -9.044158 -5.331353 25.046297 -0.378543 1.785297 0.157539 -0.027430 -565713.000000 0 0 1
22.084664 -8.905158 -6.570153 24.702249 -0.383286 1.840010 0.143728 -0.032921 925902.000000 0 1 0
20.667364 -8.700358 -6.496353 23.346065 -0.398453 1.852782 0.149499 -0.021982 -106318.000000 0 1 0
20.073664 -8.776358 -7.862853 23.276617 -0.412165 1.915375 0.141248 -0.019580 -705086.000000 0 1 0
20.003364 -10.074758 -8.424253 23.929132 -0.466566 1.930557 0.136493 -0.018167 646633.000000 0 1 0
21.203764 -10.541858 -9.026253 25.341736 -0.461380 1.934974 0.125873 -0.015939 -84307.300000 0 0 1
21.100764 -11.982858 -9.495753 26.057637 -0.516473 1.943799 0.112701 -0.023889 -437731.000000 0 0 1
20.044064 -12.071458 -10.409853 25.609561 -0.542069 1.989398 0.127114 -0.026354 -109956.000000 0 0 1
19.809664 -13.400958 -10.686053 26.195423 -0.594770 1.990988 0.115480 -0.032261 79726.300000 0 0 1
18.490264 -13.784058 -11.426553 25.738225 -0.640600 2.030801 0.120763 -0.034109 323560.000000 0 0 1
18.438264 -15.106758 -11.900253 26.642067 -0.686408 2.033838 0.107701 -0.036074 -149973.000000 0 0 1
17.503664 -15.258658 -12.925453 26.575782 -0.716981 2.078718 0.118834 -0.038460 -581485.000000 0 0 1
17.395664 -16.703658 -13.495753 27.636147 -0.765107 2.080979 0.093300 -0.031598 -957615.000000 0 0 1
16.617364 -17.548858 -12.748853 27.324576 -0.812655 2.056206 0.085155 -0.026268 64375.000000 0 0 1
16.934764 -18.972658 -12.915553 28.522964 -0.842091 2.040713 0.079406 -0.022943 -600857.000000 0 0 1
15.996364 -19.762558 -12.021453 28.123970 -0.890333 2.012461 0.076696 -0.021631 545150.000000 0 0 1
14.637664 -19.575658 -12.424753 27.419739 -0.928738 2.041072 0.067161 -0.020493 467911.000000 0 0 1
13.683864 -20.237158 -11.608753 27.047252 -0.976240 2.014406 0.064679 -0.012965 1047410.000000 0 0 1
12.203964 -20.088158 -12.086953 26.430385 -1.024866 2.045767 0.084747 -0.023959 798297.000000 0 0 1
11.213664 -20.536558 -11.194553 25.938668 -1.071003 2.017037 0.094439 -0.031756 -385650.000000 0 0 1
9.945864 -20.567558 -11.790453 25.709131 -1.120379 2.047226 0.088309 -0.028645 -113856.000000 0 0 1
8.817764 -21.174558 -10.950853 25.417239 -1.176205 2.016224 0.079517 -0.026581 -84741.600000 0 0 1
9.007264 -22.588758 -10.691153 26.564705 -1.191368 1.984996 0.115919 -0.028088 -12014.100000 0 0 1
8.025364 -23.066658 -9.797153 26.314661 -1.235975 1.952291 0.107054 -0.032308 91764.300000 0 0 1
8.063664 -24.584458 -9.596153 27.595369 -1.253855 1.925961 0.104620 -0.030299 578731.000000 0 0 1
9.346764 -25.001598 -9.140753 28.213388 -1.213037 1.900736 0.087539 -0.022237 48145.900000 0 0 1
9.718564 -26.255288 -9.682953 29.623474 -1.216279 1.903783 0.090607 -0.017193 -145496.000000 0 0 1
11.153864 -26.544328 -9.230353 30.235896 -1.173000 1.881027 0.088464 -0.015248 -298896.000000 0 0 1
11.253964 -26.907008 -7.891753 30.214542 -1.174653 1.835052 0.091682 -0.021243 -546821.000000 0 0 1
12.603864 -27.141508 -7.597153 30.874513 -1.136052 1.819415 0.086268 -0.018880 -550487.000000 0 0 1
12.825864 -27.761668 -6.151553 31.193823 -1.138009 1.769302 0.091264 -0.024333 -159093.000000 0 0 1
12.350464 -29.037408 -5.854553 32.093314 -1.168647 1.754246 0.093611 -0.026880 -650734.000000 0 0 1
10.957564 -29.115148 -5.965453 31.675648 -1.210840 1.760257 0.088473 -0.022802 -657464.000000 0 0 1
10.393964 -30.104998 -4.900353 32.223576 -1.238353 1.723462 0.089190 -0.015639 7633.960000 0 0 1
10.715764 -31.473188 -4.952953 33.614296 -1.242634 1.718681 0.105604 -0.025182 -166489.000000 0 0 1
9.917764 -32.153688 -5.916353 34.164674 -1.271607 1.744845 0.108023 -0.035149 250697.000000 0 0 1
9.956364 -33.637038 -5.955253 35.581520 -1.283019 1.738957 0.104168 -0.031611 -65558.000000 0 0 1
9.399664 33.319375 -4.920153 34.967733 1.295834 1.711970 0.092918 -0.028697 -316691.000000 0 0 1
9.698264 31.966148 -5.163353 33.801644 1.276231 1.724151 0.095162 -0.013919 343977.000000 0 0 1
8.966264 31.086719 -4.097653 32.612401 1.289990 1.696776 0.067122 -0.010967 -1164430.000000 0 0 1
7.632064 30.988699 -4.293853 32.202252 1.329317 1.704535 0.059544 -0.004116 -2111590.000000 0 0 1
7.092464 29.864089 -3.586153 30.903517 1.337625 1.687102 0.048942 -0.007084 174608.000000 0 0 1
5.610764 29.547949 -3.886153 30.325965 1.383144 1.699296 0.052401 -0.008870 -49074.500000 0 0 1
5.352664 28.972389 -5.160753 29.911264 1.388106 1.744199 0.070924 -0.020423 -102117.000000 0 0 1
5.488864 29.883649 -6.267253 31.023194 1.389147 1.774215 0.051019 -0.015071 -564405.000000 0 0 1
5.823564 29.097929 -7.570953 30.625523 1.373269 1.820597 0.060049 -0.025610 96599.200000 0 0 1
4.943264 28.036659 -7.983553 29.567333 1.396276 1.844202 0.056569 -0.030617 134745.000000 0 0 1
5.204864 26.783819 -7.326053 28.251276 1.378860 1.833112 0.054226 -0.029219 -570994.000000 0 0 1
4.292164 25.633139 -7.714753 27.110844 1.404890 1.859347 0.055080 -0.037668 -727596.000000 0 0 1
2.944064 25.613669 -7.321253 26.801647 1.456357 1.847477 0.055084 -0.034438 -181912.000000 0 0 1
2.118364 26.376009 -8.236253 27.713123 1.490654 1.872552 0.061003 -0.036120 208224.000000 0 0 1
1.625264 25.582489 -9.498053 27.337122 1.507351 1.925638 0.076742 -0.035572 -72821.400000 0 0 1
2.740664 25.374739 -10.375153 27.550543 1.463206 1.956905 0.074602 -0.037355 550693.000000 0 0 1
2.463064 24.566059 -11.536053 27.251393 1.470867 2.007903 0.088040 -0.037184 -578442.000000 0 0 1
2.089364 23.085439 -11.237753 25.760241 1.480537 2.022217 0.094066 -0.034164 463828.000000 0 0 1
0.737864 22.814029 -10.863653 25.279306 1.538465 2.015007 0.114430 -0.027361 250107.000000 0 0 1
0.667764 21.574389 -10.278653 23.907130 1.539855 2.015224 0.077029 -0.018117 -336307.000000 0 1 0
-0.553236 21.223989 -9.439353 23.234998 -1.544736 1.989149 0.087002 -0.008118 -30420.700000 0 1 0
-1.754536 21.009089 -10.141553 23.394685 -1.487476 2.019167 0.099000 -0.020298 -263203.000000 0 1 0
-2.823736 20.540089 -9.379153 22.756037 -1.434178 1.995621 0.090692 -0.006344 -150776.000000 0 1 0
-3.980936 19.932889 -10.183753 22.734923 -1.373673 2.035250 0.094286 -0.026050 -178719.000000 0 1 0
-5.094336 19.745989 -9.344053 22.431399 -1.318309 2.000456 0.087052 -0.018881 -48757.300000 0 1 0
-6.204336 19.299389 -10.118453 22.657080 -1.259753 2.033748 0.090967 -0.019628 -120841.000000 0 1 0
-6.958536 18.114589 -9.452353 21.584868 -1.204037 2.024075 0.078419 -0.026850 -95457.500000 0 1 0
-8.011236 18.434789 -8.582353 21.855849 -1.160846 1.974340 0.083753 -0.026015 -196247.000000 0 1 0
-9.276536 18.547989 -9.196453 22.686048 -1.107039 1.988190 0.081492 -0.031679 -577677.000000 0 1 0
-10.362136 18.690089 -8.147753 22.870924 -1.064567 1.935047 0.097614 -0.041657 -364760.000000 0 1 0
-10.421336 17.616689 -7.279953 21.724403 -1.036605 1.912513 0.082447 -0.038694 -652651.000000 0 1 0
-11.402736 17.915889 -6.355653 22.167449 -1.003999 1.861588 0.090264 -0.043239 -535199.000000 0 1 0
-11.818536 16.769889 -5.380153 21.209739 -0.956891 1.827263 0.072716 -0.047265 -215339.000000 0 1 0
-12.853936 17.214589 -4.546753 21.959934 -0.929418 1.779353 0.079461 -0.042655 -126223.000000 0 1 0
-13.346936 16.176889 -3.713453 21.298408 -0.880959 1.746046 0.077105 -0.037650 -837452.000000 0 1 0
-14.690736 16.478589 -3.117453 22.295294 -0.842695 1.711082 0.073024 -0.035516 -441137.000000 0 1 0
-15.884336 16.366889 -3.941453 23.145674 -0.800359 1.741919 0.113212 -0.053409 805823.000000 0 1 0
-16.856636 16.923489 -3.079853 24.083940 -0.787377 1.699027 0.112470 -0.045038 -832701.000000 0 1 0
-18.188336 17.282189 -3.723353 25.364404 -0.759857 1.718123 0.128093 -0.050843 -410284.000000 0 0 1
-18.059636 18.353389 -4.618153 26.159600 -0.793465 1.748264 0.110939 -0.048896 349628.000000 0 0 1
-19.357736 18.651289 -5.108053 27.362104 -0.766814 1.758582 0.113006 -0.049492 379584.000000 0 0 1
-19.349736 19.425389 -6.433253 28.162826 -0.787349 1.801262 0.125886 -0.033975 24050.500000 0 0 1
-18.735136 20.680489 -6.338053 28.615710 -0.834713 1.794137 0.134137 -0.051262 182835.000000 0 0 1
-18.986136 21.396789 -7.522953 29.578552 -0.845022 1.827960 0.127356 -0.034234 60687.100000 0 0 1
-18.901636 22.973739 -7.252053 30.621182 -0.882337 1.809899 0.149613 -0.036518 -383556.000000 0 0 1
-17.581736 23.333179 -6.975653 30.036884 -0.925054 1.805172 0.115835 -0.039699 -371097.000000 0 0 1
-17.473736 23.702129 -5.596453 29.974033 -0.935523 1.758609 0.142811 -0.042680 -664097.000000 0 0 1
-16.094136 24.267719 -5.321053 29.601638 -0.985204 1.751534 0.113800 -0.039920 -878205.000000 0 0 1
-16.062236 24.775469 -4.014453 29.798240 -0.995609 1.705928 0.115479 -0.037579 128841.000000 0 0 1
-14.917536 25.529779 -3.645453 29.792479 -1.041987 1.693465 0.135884 -0.039601 28742.500000 0 0 1
-14.647536 26.850339 -4.379053 30.897688 -1.071395 1.713003 0.122947 -0.032131 -89983.500000 0 0 1
-15.476236 27.952759 -4.054753 32.207323 -1.065150 1.697027 0.151503 -0.025930 110994.000000 0 0 1
-15.095136 29.062319 -4.870553 33.108969 -1.091745 1.718439 0.111118 -0.026593 38585.700000 0 0 1
-15.903636 30.326819 -4.570053 34.547460 -1.087813 1.703469 0.113665 -0.022904 713299.000000 0 0 1
-17.237736 30.270829 -5.087353 35.204315 -1.053143 1.715813 0.146105 -0.020381 505836.000000 0 0 1
-18.050536 31.340849 -4.716653 36.473517 -1.048254 1.700477 0.159887 -0.022414 -172712.000000 0 0 1
13.201723 -8.537458 18.627585 24.375410 -0.574047 0.701003 0.157837 -0.023585 103742.000000 0 1 0
13.976323 -9.577658 19.156885 25.574507 -0.600777 0.724152 0.163179 -0.025598 66327.900000 0 0 1
14.441723 -10.575358 18.204885 25.530754 -0.632062 0.776947 0.176905 -0.031887 260490.000000 0 0 1
15.017323 -11.887458 18.793885 26.833594 -0.669588 0.794858 0.212250 -0.048808 7539.730000 0 0 1
16.375923 -11.866258 19.211785 27.893935 -0.627057 0.811041 0.194474 -0.045041 366349.000000 0 0 1
16.752223 -13.042058 19.865185 29.075038 -0.661510 0.818608 0.176429 -0.044306 -91016.900000 0 0 1
17.303423 -14.171458 18.993685 29.342780 -0.686218 0.866755 0.164226 -0.048590 -828087.000000 0 0 1
16.354123 -14.486458 18.028485 28.325626 -0.724913 0.880880 0.188692 -0.059844 -34620.700000 0 0 1
16.611823 -15.707958 17.290985 28.664800 -0.757439 0.923273 0.203617 -0.062314 278587.000000 0 0 1
15.614623 -15.852958 16.083785 27.455799 -0.792972 0.944921 0.197542 -0.065824 -256902.000000 0 0 1
14.249823 -15.913458 16.334685 26.890845 -0.840497 0.917957 0.237869 -0.062285 -279543.000000 0 0 1
13.459023 -15.719458 15.147085 25.645289 -0.862713 0.938947 0.246718 -0.063083 191037.000000 0 0 1
12.940123 -17.012358 14.472485 25.813174 -0.920526 0.975610 0.193524 -0.050707 -718446.000000 0 0 1
13.815123 -17.693758 13.634385 26.264485 -0.907879 1.024977 0.190153 -0.051218 -405154.000000 0 0 1
13.255123 -18.848858 13.147785 26.530021 -0.957904 1.052292 0.169667 -0.044893 16431.800000 0 0 1
14.314723 -19.833958 12.545385 27.489705 -0.945636 1.096889 0.165699 -0.046969 729359.000000 0 0 1
15.208123 -20.424858 13.527985 28.835191 -0.930767 1.082470 0.137793 -0.041450 198908.000000 0 0 1
15.801023 -21.482758 12.878185 29.614673 -0.936626 1.120915 0.110228 -0.029101 -348517.000000 0 0 1
16.568423 -22.480758 13.756885 31.131158 -0.935664 1.113080 0.101387 -0.033553 397114.000000 0 0 1
17.887723 -22.083458 14.111885 31.730034 -0.889984 1.109903 0.094403 -0.031301 120002.000000 0 0 1
18.455723 -23.063358 14.890885 33.079762 -0.895922 1.103862 0.100733 -0.039994 314274.000000 0 0 1
19.825923 -22.794158 15.580385 33.991017 -0.854930 1.094639 0.077069 -0.022047 1487160.000000 0 0 1
21.011823 -22.888258 14.748285 34.393037 -0.828115 1.127615 0.055816 -0.023981 976031.000000 0 0 1
22.134923 -22.260758 15.365985 34.951533 -0.788233 1.115602 0.046760 -0.014224 1832700.000000 0 0 1
23.546123 -22.762158 14.794785 35.936352 -0.768471 1.146484 0.031914 -0.016141 1377830.000000 0 0 1
23.859523 -24.057658 15.333885 37.191071 -0.789533 1.145819 0.030611 -0.012577 -146793.000000 0 0 1
24.975423 -24.639758 14.735885 38.053065 -0.778633 1.173154 0.033157 -0.012814 -393097.000000 0 0 1
25.651023 -25.880588 15.353285 39.541158 -0.789853 1.172025 0.037679 -0.016960 -216918.000000 0 0 1
26.379923 -25.553908 16.508485 40.267017 -0.769494 1.148369 0.029949 -0.011893 1715.650000 0 0 1
26.800723 -26.749068 17.130785 41.560260 -0.784434 1.145938 0.046251 -0.007194 -79787.700000 0 0 1
27.240023 -26.522958 18.586285 42.319454 -0.772061 1.116099 0.027967 0.000211 -118892.000000 0 0 1
26.220423 -26.162308 19.486085 41.853130 -0.784289 1.086504 0.041316 -0.003033 27281.200000 0 0 1
26.725223 -26.020808 20.826385 42.720701 -0.772044 1.061571 0.036383 -0.005411 790476.000000 0 0 1
25.517623 -25.664528 21.796385 42.248071 -0.788268 1.028722 0.037168 -0.011480 858012.000000 0 0 1
24.742223 -26.837228 21.887385 42.561391 -0.825993 1.030658 0.047524 -0.012179 423138.000000 0 0 1
23.663623 -26.752048 22.859035 42.404889 -0.846581 1.001468 0.062463 -0.015188 897968.000000 0 0 1
23.105223 -28.169488 23.076055 43.126276 -0.883846 1.006193 0.104103 -0.019931 -807145.000000 0 0 1
24.162723 -28.969248 23.451405 44.418723 -0.875616 1.014597 0.091818 -0.019373 -300438.000000 0 0 1
24.072923 -30.300698 23.084285 45.061315 -0.899438 1.032952 0.091007 -0.022361 868039.000000 0 0 1
25.242723 -31.206838 23.725475 46.625744 -0.890662 1.036949 0.072623 -0.015877 1117680.000000 0 0 1
25.003723 -31.369388 25.137165 47.340276 -0.897842 1.011029 0.090353 -0.016568 25134.700000 0 0 1
26.082523 -31.961528 25.790525 48.651706 -0.886339 1.012072 0.105972 -0.013450 -870495.000000 0 0 1
25.672623 -32.232198 27.274305 49.415442 -0.898199 0.986109 0.105807 -0.020618 312932.000000 0 0 1
24.920723 -33.373978 27.580605 49.955526 -0.929403 0.985912 0.098757 -0.013400 29792.300000 0 0 1
23.732423 -33.657548 26.878015 49.178106 -0.956646 0.992564 0.097443 -0.013103 -930861.000000 0 0 1
22.991523 32.875405 27.521865 48.650339 0.960505 0.969505 0.132653 -0.028019 -362954.000000 0 0 1
22.300623 33.308124 28.693875 49.295916 0.980817 0.949519 0.119224 -0.022927 315190.000000 0 0 1
21.630523 32.175182 29.268535 48.577454 0.978922 0.924151 0.116620 -0.039011 229952.000000 0 0 1
21.418523 32.370023 30.783065 49.539566 0.986256 0.900289 0.101239 -0.046221 -154161.000000 0 0 1
22.593323 32.224064 31.537815 50.432949 0.959311 0.895227 0.088635 -0.019817 -59148.100000 0 0 1
22.407823 32.484432 32.882310 51.367258 0.966948 0.876114 0.068779 -0.022782 -329318.000000 0 0 1
23.643323 32.044621 33.648032 52.134964 0.935133 0.869246 0.045200 -0.007425 -454864.000000 0 0 1
23.673923 30.637649 33.790675 51.389979 0.912920 0.853255 0.044404 -0.004287 197381.000000 0 0 1
24.767323 30.219339 -33.153963 51.242697 0.884227 2.274438 0.043691 0.008466 65889.200000 0 0 1
24.840523 28.667819 -33.215713 50.420026 0.856804 2.289993 0.064872 -0.012054 -73707.300000 0 0 1
25.490523 28.097639 33.431312 50.565766 0.834011 0.848452 0.070483 -0.017063 -21983.500000 0 0 1
24.984823 26.839619 33.179240 49.451678 0.821173 0.835317 0.077797 -0.029452 -446861.000000 0 0 1
25.494323 26.144719 31.956799 48.525703 0.797993 0.851901 0.116966 -0.040772 18048.200000 0 0 1
26.872123 25.858229 32.147855 49.236608 0.766173 0.859355 0.099384 -0.040471 354399.000000 0 0 1
27.353823 25.155189 30.990875 48.388527 0.743551 0.875700 0.132718 -0.060799 -119548.000000 0 0 1
28.802023 24.705919 31.254995 49.161099 0.708996 0.881795 0.108739 -0.049450 -448130.000000 0 0 1
28.791423 23.621129 32.119372 49.178835 0.687070 0.859107 0.132855 -0.053504 -46727.200000 0 0 1
29.900823 23.592019 32.974107 50.377915 0.668003 0.857229 0.137979 -0.051012 -1051710.000000 0 0 1
29.598123 22.942289 -33.370033 50.159312 0.659389 2.298666 0.143730 -0.057655 -53420.100000 0 0 1
28.655823 23.629619 -32.542943 49.381760 0.689563 2.290295 0.153389 -0.061482 2177810.000000 0 0 1
27.255023 23.689999 -32.964743 48.895057 0.715534 2.310669 0.140214 -0.051505 1152640.000000 0 0 1
26.436323 22.395589 -32.978833 47.833513 0.702838 2.331526 0.134562 -0.057610 -780363.000000 0 0 1
26.193223 21.876589 -31.671943 46.559446 0.695839 2.318896 0.124332 -0.071002 297318.000000 0 0 1
25.941623 20.485389 -31.812203 45.876303 0.668412 2.337041 0.145260 -0.059031 -424192.000000 0 0 1
25.748523 19.688189 -30.440673 44.466232 0.652801 2.324823 0.140318 -0.060323 -802824.000000 0 0 1
24.451023 19.897589 -29.965503 43.493654 0.683083 2.330853 0.110811 -0.048987 -87885.100000 0 0 1
24.272023 19.176289 -28.751883 42.231882 0.668649 2.319664 0.109842 -0.041223 -260084.000000 0 0 1
22.979623 19.406589 -27.958853 41.065511 0.701300 2.319699 0.087601 -0.035326 -282622.000000 0 0 1
23.014823 18.690289 -26.713533 39.907666 0.682074 2.304175 0.099128 -0.026696 341971.000000 0 0 1
23.804423 19.258589 -25.666683 39.954003 0.680225 2.268430 0.073483 -0.008460 31948.500000 0 0 1
23.844423 18.365089 -24.408553 38.750618 0.656307 2.252205 0.101127 -0.003259 63134.800000 0 0 1
24.334123 17.024089 -24.598353 38.562262 0.610456 2.262547 0.111259 -0.026159 328173.000000 0 0 1
24.338123 16.412289 -23.321453 37.491300 0.593299 2.242154 0.121810 -0.016778 -615437.000000 0 0 1
25.298223 15.221289 -23.219953 37.561335 0.541650 2.237231 0.130225 -0.022294 448638.000000 0 0 1
26.649723 15.763789 -23.064553 38.609304 0.534159 2.211031 0.139128 -0.028753 1589970.000000 0 0 1
27.698823 14.794289 -23.011953 38.931295 0.490564 2.203208 0.150806 -0.036824 431080.000000 0 0 1
27.649723 13.837889 -21.791553 37.826791 0.464024 2.184731 0.137322 -0.030705 -312774.000000 0 0 1
26.722123 12.758189 -22.046253 36.917211 0.445437 2.210778 0.141155 -0.026531 578849.000000 0 0 1
26.278723 12.160089 -20.798353 35.651234 0.433394 2.193685 0.097569 -0.019262 474023.000000 0 0 1
24.789423 11.708689 -20.726253 34.368393 0.441264 2.218130 0.117751 -0.030488 350581.000000 0 0 1
23.904423 12.788389 -20.523653 34.002715 0.491238 2.218791 0.137833 -0.027409 510360.000000 0 0 1
22.580423 12.414789 -20.956153 33.213895 0.502692 2.253567 0.139186 -0.031299 871231.000000 0 0 1
21.519123 13.512889 -20.763853 32.814759 0.560716 2.255908 0.135255 -0.030020 -598030.000000 0 0 1
21.869823 14.662889 -21.518353 34.004837 0.590626 2.255964 0.117819 -0.020209 552482.000000 0 0 1
20.902923 15.715989 -21.566953 33.897757 0.644688 2.260405 0.082626 -0.012339 964194.000000 0 0 1
19.593223 15.491189 -22.424053 33.566493 0.669008 2.302380 0.089035 0.000867 737090.000000 0 0 1
18.661923 14.589189 -21.861353 32.233996 0.663521 2.316118 0.078718 -0.006284 481650.000000 0 0 1
17.438223 14.609989 -22.595453 32.063965 0.697377 2.352796 0.083887 -0.018406 771110.000000 0 0 1
16.224223 13.925689 -21.894453 30.602570 0.709309 2.368057 0.065450 -0.019950 -3257.770000 0 0 1
15.025023 14.094689 -22.594653 30.576623 0.753460 2.402310 0.075217 -0.023204 -746140.000000 0 0 1
14.065023 13.205389 -22.078353 29.319973 0.753886 2.423427 0.093777 -0.025245 -778100.000000 0 0 1
12.769023 13.324589 -22.871453 29.388705 0.806686 2.462654 0.085933 -0.027888 -871002.000000 0 0 1
12.221923 14.600489 -22.765353 29.678459 0.873845 2.445053 0.087465 -0.027250 -261796.000000 0 0 1
11.570223 14.962589 -23.965453 30.530182 0.912564 2.473453 0.078076 -0.024796 -833879.000000 0 0 1
11.353923 16.490489 -24.150253 31.370089 0.967821 2.449402 0.076121 -0.032847 90650.800000 0 0 1
12.488623 17.347889 -23.954553 32.105070 0.946844 2.413027 0.067533 -0.023631 1268830.000000 0 0 1
13.663723 17.057889 -24.773153 33.036010 0.895433 2.418682 0.081963 -0.023006 449118.000000 0 0 1
13.523523 17.424889 -26.312273 34.334358 0.910797 2.443943 0.097262 -0.024812 -366905.000000 0 0 1
14.636823 17.240089 -27.155793 35.339699 0.866884 2.447168 0.086447 -0.030550 346659.000000 0 0 1
14.115723 17.014989 -28.469353 36.045354 0.878262 2.481312 0.093786 -0.035189 208085.000000 0 0 1
15.133823 17.298089 -29.592103 37.469308 0.852032 2.481229 0.079653 -0.030966 -97736.500000 0 0 1
16.264623 16.488689 -29.681253 37.648261 0.792239 2.478973 0.064335 -0.031671 23094.500000 0 0 1
17.348023 17.082889 -30.381403 38.933387 0.777698 2.466011 0.064004 -0.025288 110164.000000 0 0 1
18.590123 16.173389 -30.389783 39.124290 0.715991 2.460285 0.078558 -0.027843 -65614.000000 0 0 1
19.746823 16.865789 -30.799153 40.286222 0.706870 2.441075 0.098154 -0.039378 -680799.000000 0 0 1
20.935423 16.184889 -30.594123 40.450499 0.658113 2.428489 0.113335 -0.034347 -605635.000000 0 0 1
22.105923 17.076189 -31.032883 41.752938 0.657728 2.408712 0.140765 -0.043299 -407435.000000 0 0 1
22.087423 17.456989 -32.371013 42.900853 0.668834 2.425771 0.122064 -0.048751 -5013.190000 0 0 1
23.201923 18.239689 -32.711323 44.057305 0.666225 2.407550 0.134667 -0.046074 -335524.000000 0 0 1
23.216423 18.475589 33.498782 44.749504 0.672174 0.724872 0.118246 -0.036658 -400609.000000 0 0 1
24.352823 19.176389 33.105937 45.351923 0.667035 0.752506 0.137996 -0.036685 -192457.000000 0 0 1
24.351623 19.105889 31.718571 44.318216 0.665270 0.773170 0.143519 -0.046215 596587.000000 0 0 1
25.479323 20.103289 31.137545 44.976492 0.668000 0.806115 0.153321 -0.046242 1815320.000000 0 0 1
26.795723 19.725289 31.585045 45.877150 0.634569 0.811419 0.126888 -0.039471 -72081.900000 0 0 1
27.713723 20.649589 31.137135 46.518568 0.640360 0.837465 0.105536 -0.048294 -190208.000000 0 0 1
29.176123 20.133889 31.210815 47.230653 0.604038 0.848890 0.110057 -0.041980 -30046.500000 0 0 1
29.555423 19.819889 32.539566 48.220062 0.590721 0.830084 0.101162 -0.042098 -948561.000000 0 0 1
30.903023 19.545189 32.633395 49.009690 0.563952 0.842156 0.091684 -0.031826 -955068.000000 0 0 1
31.375523 19.018189 -33.756903 49.856227 0.544927 2.314591 0.088254 -0.025980 -224255.000000 0 0 1
31.590723 19.979289 -32.760143 49.702844 0.563933 2.290444 0.085947 -0.034651 -70847.500000 0 0 1
31.006823 19.553889 -31.559483 48.371258 0.562639 2.281600 0.112450 -0.046659 -375073.000000 0 0 1
31.687523 20.071689 -30.289333 48.212192 0.564635 2.250099 0.113231 -0.037730 -875046.000000 0 0 1
32.953023 19.534689 -30.163243 48.757840 0.535112 2.237799 0.105439 -0.040443 -992343.000000 0 0 1
33.487923 19.773989 -28.899383 48.452306 0.533391 2.209867 0.120222 -0.038094 178691.000000 0 0 1
34.970323 19.387389 -28.689303 49.212503 0.506212 2.193173 0.059941 -0.020157 814755.000000 0 0 1
35.916923 20.088489 -29.513613 50.642137 0.509959 2.192951 0.059833 -0.019166 593948.000000 0 0 1
37.221323 20.182789 -28.967083 51.301693 0.496864 2.170796 0.009707 -0.002192 -45127.300000 0 0 1
-36.962218 20.976889 -29.798973 51.905821 -0.516197 2.182297 -0.001566 0.002054 -540994.000000 0 0 1
-36.466218 20.313489 -30.883483 51.925065 -0.508239 2.207776 -0.004144 0.001906 -183843.000000 0 0 1
-35.436918 21.013189 -31.533883 51.881741 -0.535238 2.224087 -0.005536 0.003500 389778.000000 0 0 1
-34.462018 20.152889 -32.447083 51.444949 -0.529157 2.253270 -0.002796 -0.000432 196502.000000 0 0 1
-33.806818 19.113689 -31.776813 50.179676 -0.514574 2.256555 0.002454 -0.000045 275940.000000 0 0 1
-32.828918 18.481689 -32.600143 49.820478 -0.512746 2.284122 0.015015 -0.005643 100807.000000 0 0 1
-32.233118 17.250189 -31.907663 48.524652 -0.491386 2.288366 0.018767 0.012886 169013.000000 0 0 1
-33.144518 16.158289 -31.927433 48.775100 -0.453606 2.284429 0.019393 0.015047 368435.000000 0 0 1
-32.455618 14.965889 -32.209503 48.112338 -0.432062 2.304284 0.025054 0.019486 51532.000000 0 0 1
-33.452918 13.804489 -32.551583 48.675119 -0.391367 2.303325 0.028649 0.011570 37595.300000 0 0 1
-32.907518 12.550089 -32.788703 48.119731 -0.364348 2.320468 0.040350 0.001302 536647.000000 0 0 1
-34.016318 11.644389 -32.978173 48.787924 -0.329815 2.313049 0.049322 -0.001941 575820.000000 0 0 1
-33.634418 10.130389 -33.234843 48.357560 -0.292549 2.328524 0.054958 0.000842 -152427.000000 0 0 1
-33.140018 9.913789 33.179629 47.931533 -0.290675 0.806222 0.051227 -0.005017 327327.000000 0 0 1
-33.471218 8.561389 32.863051 47.682282 -0.250415 0.810400 0.075695 -0.019906 573375.000000 0 0 1
-32.418518 7.865389 31.896040 46.153895 -0.238021 0.807814 0.096291 -0.018061 455031.000000 0 0 1
-31.275818 7.396089 32.550091 45.742621 -0.232214 0.779035 0.056669 0.004908 -600463.000000 0 0 1
-30.264218 7.116789 31.634375 44.354315 -0.230959 0.776715 0.065811 -0.013487 -339604.000000 0 0 1
21.648923 -3.816758 -31.534193 38.440198 -0.174509 2.532809 0.069884 -0.033803 428843.000000 0 0 1
22.973523 -4.063558 -32.038763 39.633036 -0.175069 2.512200 0.072988 -0.034986 959861.000000 0 0 1
23.962423 -3.150258 -31.564403 39.754664 -0.130717 2.488124 0.078050 -0.028340 252920.000000 0 0 1
23.845623 -1.675358 -31.985593 39.931174 -0.070143 2.499790 0.071354 -0.018790 -931423.000000 0 0 1
24.957023 -0.869258 -31.696313 40.351764 -0.034816 2.474300 0.081127 -0.008847 46918.700000 0 0 1
24.829423 0.452042 -32.170863 40.640731 0.018204 2.484206 0.052571 -0.005952 -483685.000000 0 0 1
25.747423 1.488642 -31.498103 40.709659 0.057753 2.455497 0.065133 -0.007202 -1221820.000000 0 0 1
27.045023 1.191042 -31.858563 41.806935 0.044011 2.437254 0.073927 -0.018578 -1433240.000000 0 0 1
27.874123 2.108342 -31.189183 41.882896 0.075494 2.410845 0.078499 -0.019185 93647.500000 0 0 1
29.403423 1.918042 -31.406113 43.064882 0.065140 2.388057 0.075121 -0.026736 556903.000000 0 0 1
29.914723 2.424142 -32.662293 44.357552 0.080858 2.398443 0.076425 -0.023380 218700.000000 0 0 1
29.866223 1.436542 -33.690343 45.045467 0.048062 2.415717 0.063168 -0.019169 -309037.000000 0 0 1
30.625023 1.834342 32.752237 44.877231 0.059825 0.752740 0.061984 -0.034362 197832.000000 0 0 1
29.845223 2.711742 31.922300 43.784976 0.090611 0.753835 0.051968 -0.019077 550849.000000 0 0 1
29.949723 4.057542 32.293870 44.230573 0.134659 0.752291 0.056181 -0.015521 -179131.000000 0 0 1
29.355623 5.187142 31.417725 43.309728 0.174895 0.759153 0.055544 -0.006577 -102405.000000 0 0 1
29.373323 6.548942 31.912234 43.864239 0.219368 0.756092 0.085899 -0.007936 437958.000000 0 0 1
28.687023 7.405242 30.995625 42.877869 0.252624 0.762833 0.082709 -0.008005 -114016.000000 0 0 1
28.812323 8.948742 31.234715 43.426229 0.301141 0.768061 0.083805 -0.006185 728828.000000 0 0 1
30.197923 9.265342 30.955045 44.226417 0.297702 0.795508 0.080057 -0.009144 1183630.000000 0 0 1
30.395923 10.615742 31.307035 44.908090 0.336006 0.799402 0.080437 -0.007843 -226068.000000 0 0 1
31.811123 11.008342 30.896905 45.691902 0.333154 0.828203 0.091445 -0.004491 -760900.000000 0 0 1
32.953523 10.519242 31.586315 46.843190 0.308990 0.830781 0.100605 -0.009911 285305.000000 0 0 1
34.142223 10.708542 30.872245 47.259494 0.303928 0.858928 0.116366 -0.012512 -71506.900000 0 0 1
34.691923 12.171942 30.830995 47.981621 0.337439 0.872964 0.126541 -0.012725 -1017910.000000 0 0 1
35.125823 12.617542 32.080365 49.215604 0.344856 0.860797 0.123450 -0.011017 325264.000000 0 0 1
35.742923 13.907142 32.117030 50.024682 0.371064 0.873661 0.134202 -0.009920 582088.000000 0 0 1
34.727423 15.116142 32.208282 49.717855 0.410545 0.866075 0.131995 -0.013037 -228694.000000 0 0 1
34.113423 15.418842 30.998565 48.604294 0.424506 0.879191 0.127707 -0.024554 75333.400000 0 0 1
33.003123 16.284542 31.071485 48.164610 0.458373 0.869629 0.110921 -0.022145 -30451.200000 0 0 1
31.671823 15.630642 31.439135 47.284676 0.458449 0.843449 0.110078 -0.014976 -466810.000000 0 0 1
30.832623 15.186142 30.382865 45.873610 0.457658 0.846889 0.089369 -0.021288 904282.000000 0 0 1
29.638323 14.466642 30.702045 45.059178 0.454087 0.821161 0.069466 -0.018257 678250.000000 0 0 1
28.853123 13.892942 29.495175 43.537132 0.448743 0.826476 0.069733 -0.017354 -95343.800000 0 0 1
29.307423 12.748042 28.840295 43.048812 0.410290 0.836663 0.071106 -0.018398 212773.000000 0 0 1
28.358123 12.362342 27.847225 41.623054 0.411097 0.837888 0.064645 -0.027281 342123.000000 0 0 1
28.288123 10.839942 27.741465 41.076893 0.365938 0.829351 0.062885 -0.011173 26153.300000 0 0 1
29.487123 10.314042 27.229515 41.440516 0.336480 0.853865 0.067819 -0.012926 185802.000000 0 0 1
29.242623 8.903742 27.017175 40.796267 0.295560 0.846984 0.069819 -0.006840 14435.500000 0 0 1
30.364923 8.184842 26.265045 40.974050 0.263292 0.874974 0.078418 -0.015073 -328968.000000 0 0 1
30.631423 8.550242 24.947805 40.420090 0.272205 0.905601 0.080438 -0.011774 -451170.000000 0 0 1
31.665123 7.838042 24.391035 40.731284 0.242652 0.928759 0.087227 -0.010530 -663700.000000 0 0 1
32.148023 8.323142 23.019165 40.406089 0.253338 0.964661 0.110280 -0.013690 -269546.000000 0 0 1
32.720723 9.617542 23.007265 41.139726 0.285877 0.977319 0.113282 -0.029074 585735.000000 0 0 1
31.877323 10.725642 22.549085 40.492769 0.324567 0.980187 0.120870 -0.031305 215122.000000 0 0 1
31.315923 10.551542 21.127985 39.222619 0.324992 1.001941 0.113901 -0.016739 -66201.600000 0 0 1
32.359123 10.580942 20.179385 39.576215 0.316026 1.035743 0.135361 -0.034063 211209.000000 0 0 1
31.860723 10.352242 18.874385 38.451489 0.314161 1.057717 0.140132 -0.039446 -730929.000000 0 0 1
32.789423 10.942242 17.776785 38.870207 0.322092 1.095798 0.171352 -0.070410 400223.000000 0 0 1
34.095023 10.474842 17.539785 39.747163 0.298072 1.113767 0.160179 -0.055532 763468.000000 0 0 1
35.001823 10.425942 18.678285 41.020802 0.289500 1.098046 0.162202 -0.055123 515348.000000 0 0 1
36.474923 9.996442 18.325485 42.025852 0.267495 1.119589 0.201958 -0.048013 698927.000000 0 0 1
36.536123 8.630142 18.004285 41.635585 0.231957 1.123615 0.170790 -0.030575 125226.000000 0 0 1
-37.308818 8.181242 17.748485 42.117566 -0.215868 1.135804 0.173810 -0.026193 -401749.000000 0 0 1
-37.326718 6.670142 17.388885 41.715082 -0.176830 1.140820 0.167917 -0.025052 -304645.000000 0 0 1
37.018423 6.462042 16.207385 40.924332 0.172821 1.163604 0.160021 -0.023060 574480.000000 0 0 1
37.122623 5.181742 15.729085 40.649031 0.138688 1.173476 0.163675 -0.019837 -506758.000000 0 0 1
35.851723 4.335942 15.692285 39.375046 0.120356 1.160879 0.137699 -0.013978 -505304.000000 0 0 1
35.678423 3.643942 16.892885 39.643382 0.101780 1.130595 0.129834 -0.004455 -106974.000000 0 0 1
34.459223 2.962042 17.006485 38.541306 0.085747 1.113801 0.113596 -0.003188 -161376.000000 0 0 1
34.346723 2.243242 18.389685 39.024480 0.065219 1.080106 0.100257 0.000745 86550.800000 0 0 1
35.180523 1.112942 18.520985 39.773543 0.031625 1.086415 0.101015 0.002254 61693.800000 0 0 1
34.829323 0.318642 19.637585 39.985223 0.009148 1.057420 0.090682 0.004603 193280.000000 0 0 1
35.415023 -1.108158 19.558285 40.471946 -0.031280 1.066427 0.088088 0.005862 312269.000000 0 0 1
34.948523 -1.842458 20.674985 40.647865 -0.052670 1.037196 0.107541 0.012460 276596.000000 0 0 1
35.644923 -3.065258 20.666185 41.316432 -0.085783 1.046975 0.092780 0.015270 202267.000000 0 0 1
35.145123 -3.923758 21.864685 41.576917 -0.111184 1.017041 0.090859 0.008612 10464.200000 0 0 1
35.532823 -3.486058 23.116915 42.533820 -0.097795 0.996201 0.100860 -0.004558 -125245.000000 0 0 1
34.923823 -4.208258 24.113145 42.647704 -0.119920 0.969874 0.091820 -0.005036 -96666.100000 0 0 1
35.323423 -3.712958 25.499975 43.723895 -0.104729 0.948128 0.086515 -0.008465 -13083.800000 0 0 1
34.473423 -4.217258 26.484395 43.676371 -0.121729 0.919299 0.089598 -0.009384 -157610.000000 0 0 1
34.648723 -3.477858 27.678775 44.483077 -0.100040 0.899206 0.091146 -0.016131 15654.500000 0 0 1
33.636323 -3.878558 28.759085 44.424435 -0.114802 0.866666 0.080462 -0.022229 -64861.800000 0 0 1
33.764223 -5.201258 29.125865 44.893116 -0.152845 0.864813 0.079188 -0.024153 -613096.000000 0 0 1
32.896823 -5.448158 30.155625 44.958260 -0.164124 0.835581 0.077581 -0.027683 -413021.000000 0 0 1
32.773223 -6.939658 30.571155 45.352382 -0.208666 0.831077 0.072540 -0.021795 79374.600000 0 0 1
34.000823 -7.334958 31.146035 46.689753 -0.212473 0.840507 0.064986 -0.024026 -83351.300000 0 0 1
34.274623 -8.691758 30.897835 46.957136 -0.248356 0.852636 0.055609 -0.020816 348874.000000 0 0 1
35.594823 -9.039758 31.659365 48.487360 -0.248705 0.859336 0.058962 -0.018916 511569.000000 0 0 1
35.449723 -9.075958 33.047897 49.307397 -0.250640 0.836261 0.064236 -0.021438 869079.000000 0 0 1
36.735723 -9.403458 33.608596 50.670268 -0.250595 0.845603 0.085844 -0.022466 697519.000000 0 0 1
36.767623 -9.769858 -32.625853 50.117407 -0.259717 2.279682 0.089274 -0.024576 -42351.400000 0 0 1
36.339823 -8.803358 -31.648043 48.986533 -0.237672 2.273202 0.091022 -0.025133 331676.000000 0 0 1
37.156623 -7.655758 -31.659013 49.411723 -0.203197 2.266230 0.099222 -0.021030 -171337.000000 0 0 1
36.674023 -6.495258 -30.754623 48.301337 -0.175290 2.261039 0.110391 -0.024380 -184748.000000 0 0 1
36.999423 -6.682158 -29.381853 47.716892 -0.178676 2.234138 0.102064 -0.016313 121706.000000 0 0 1
36.618923 -5.542858 -28.633973 46.814241 -0.150226 2.228942 0.117025 -0.029583 -183104.000000 0 0 1
37.189923 -5.411758 -27.178993 46.379684 -0.144503 2.196923 0.117744 -0.028176 1052810.000000 0 0 1
-36.598818 -4.937758 -27.201703 45.867064 0.134106 2.205644 0.109033 -0.024094 621322.000000 0 0 1
-36.226318 -4.640258 -25.895503 44.771142 0.127397 2.187559 0.114535 -0.020836 760537.000000 0 0 1
-34.673018 -4.463758 -25.753663 43.421129 0.128034 2.205717 0.109136 -0.011154 266919.000000 0 0 1
-34.203318 -4.129758 -24.455153 42.248981 0.120160 2.188095 0.130663 -0.010314 503816.000000 0 0 1
-32.828418 -4.350258 -24.177253 41.002065 0.131747 2.201433 0.131444 -0.008025 439239.000000 0 0 1
-31.822218 -3.346458 -24.768353 40.463856 0.104776 2.229523 0.115043 -0.002549 -576054.000000 0 0 1
-31.702018 -3.565558 -26.167733 41.261137 0.112000 2.257767 0.113229 -0.006838 367782.000000 0 0 1
-30.679818 -2.724958 -26.738843 40.787772 0.088587 2.285721 0.104422 -0.009951 490983.000000 0 0 1
-30.180118 -3.303158 -28.075143 41.351711 0.109014 2.317108 0.079302 -0.009853 -36150.200000 0 0 1
-31.094618 -3.238358 -29.170983 42.758724 0.103771 2.321595 0.113963 -0.012293 332974.000000 0 0 1
-30.650318 -4.187658 -30.131673 43.184444 0.135786 2.343039 0.092462 -0.006966 -595804.000000 0 0 1
-31.753918 -4.466558 -31.187903 44.731943 0.139745 2.342305 0.100943 -0.015997 250180.000000 0 0 1
-32.800618 -5.370158 -30.792893 45.309176 0.162281 2.318037 0.093970 -0.015230 1131960.000000 0 0 1
-33.767218 -4.923858 -29.808613 45.310295 0.144797 2.288793 0.114057 -0.017625 833338.000000 0 0 1
-34.923218 -4.029058 -30.468113 46.520645 0.114861 2.284896 0.143458 -0.024901 276275.000000 0 0 1
-34.538818 -2.757858 -31.039723 46.518815 0.079679 2.301308 0.162071 -0.023657 -52350.400000 0 0 1
-34.015918 -1.771958 -30.166183 45.499682 0.052045 2.295612 0.153948 -0.016358 36248.600000 0 0 1
-33.744418 -0.418958 -30.864313 45.732560 0.012415 2.311608 0.153663 -0.014362 -192675.000000 0 0 1
-34.942118 0.168942 -31.269003 46.890625 -0.004835 2.300770 0.172917 -0.018350 -410071.000000 0 0 1
-34.763218 1.490642 -31.659123 47.042570 -0.042854 2.309039 0.161623 -0.009703 677394.000000 0 0 1
-36.122418 2.210942 -31.983743 48.297797 -0.061131 2.294573 0.135320 -0.012680 798807.000000 0 0 1
-36.732018 1.723142 -33.206663 49.546875 -0.046877 2.305284 0.129660 -0.018369 228712.000000 0 0 1
37.235723 2.462242 -33.442363 50.109413 0.066030 2.301491 0.105260 -0.015170 194097.000000 0 0 1
36.303323 1.877042 33.188012 49.222949 0.051658 0.830863 0.079007 -0.021558 -9071.330000 0 0 1
36.541423 2.163542 31.836544 48.513112 0.059139 0.854963 0.090742 -0.022513 116204.000000 0 0 1
-37.554818 1.475542 31.214265 48.855624 -0.039270 0.877718 0.085437 -0.023930 -207979.000000 0 0 1
-37.550918 1.771442 29.700015 47.909293 -0.047139 0.902153 0.089935 -0.026319 -47595.400000 0 0 1
-36.852418 2.998142 29.569095 47.343648 -0.081177 0.896224 0.099990 -0.030394 229106.000000 0 0 1
-36.465618 3.206542 28.216295 46.218855 -0.087708 0.914113 0.106881 -0.032133 105561.000000 0 0 1
-35.539918 4.446742 28.012725 45.470563 -0.124473 0.907062 0.088622 -0.025714 -178200.000000 0 0 1
-35.106718 4.596442 26.671835 44.328273 -0.130187 0.925182 0.097808 -0.016172 184352.000000 0 0 1
-34.391118 5.805542 26.528445 43.820221 -0.167233 0.920537 0.094478 -0.017275 -333980.000000 0 0 1
-33.606518 5.845842 25.180135 42.398245 -0.172226 0.934904 0.084541 -0.006241 -453344.000000 0 0 1
-32.457518 5.018642 25.291435 41.452792 -0.153407 0.914576 0.075180 -0.008292 166029.000000 0 0 1
-31.614418 5.237242 24.156025 40.129960 -0.164169 0.924862 0.075526 -0.006807 -47624.100000 0 0 1
-32.063318 4.819742 22.721145 39.592130 -0.149202 0.959560 0.092858 -0.013139 -327678.000000 0 0 1
-32.076618 3.444342 22.579385 39.377679 -0.106969 0.960140 0.079361 -0.018588 -318114.000000 0 0 1
-32.684418 3.216142 21.358485 39.176519 -0.098084 0.994185 0.102882 -0.020064 -185006.000000 0 0 1
-32.852518 1.774342 20.863485 38.957942 -0.053957 1.005651 0.089164 -0.013174 -178255.000000 0 0 1
-31.718518 1.256542 20.203185 37.627277 -0.039595 1.004003 0.108011 -0.015208 -63614.800000 0 0 1
-31.565018 1.637542 18.869985 36.811795 -0.051832 1.032578 0.117508 -0.019137 -202660.000000 0 0 1
-30.132818 1.320042 18.391785 35.326860 -0.043779 1.023222 0.113851 -0.020436 -228911.000000 0 0 1
-29.840818 -0.078658 18.269385 34.989299 0.002636 1.021436 0.130055 -0.019184 67336.200000 0 0 1
-28.604318 -0.419858 17.680685 33.630194 0.014677 1.017213 0.141118 -0.020637 -212317.000000 0 0 1
-28.536618 -0.269658 16.124885 32.778396 0.009449 1.056484 0.155405 -0.013208 -290733.000000 0 0 1
-28.521318 1.073242 15.633185 32.542494 -0.037612 1.069694 0.159150 -0.022011 243765.000000 0 0 1
-28.637718 1.165742 14.207985 31.989759 -0.040684 1.110580 0.189889 -0.023130 -127271.000000 0 0 1
-27.888118 2.364342 13.598085 31.116638 -0.084577 1.118532 0.179579 -0.024427 933815.000000 0 0 1
-26.444918 2.288042 13.552585 29.803379 -0.086306 1.098724 0.157281 -0.034981 1048920.000000 0 0 1
-25.962718 3.429242 12.950285 29.215276 -0.131323 1.111552 0.155729 -0.039732 -370616.000000 0 0 1
-24.442218 3.474642 12.804685 27.811061 -0.141211 1.092331 0.144147 -0.047900 -231932.000000 0 0 1
-23.641418 3.810142 13.923785 27.700282 -0.159790 1.044125 0.114401 -0.035297 855715.000000 0 0 1
-22.292218 4.096042 13.532985 26.398149 -0.181716 1.032529 0.125095 -0.038823 520982.000000 0 0 1
-21.385718 4.551342 14.668185 26.329059 -0.209693 0.979895 0.098413 -0.038753 -245314.000000 0 0 1
-21.658118 5.913142 15.007085 27.004665 -0.266526 0.981565 0.083178 -0.032476 554191.000000 0 0 1
-21.034618 6.276142 16.261585 27.318204 -0.289963 0.933200 0.065793 -0.019919 -40528.000000 0 0 1
-21.182318 7.732442 16.639185 28.023985 -0.350012 0.935088 0.064471 -0.019402 -108958.000000 0 0 1
-20.284118 8.605642 15.946585 27.199193 -0.401240 0.944326 0.067542 -0.025060 621970.000000 0 0 1
-20.482218 10.002342 16.105585 27.909819 -0.454278 0.955674 0.060286 -0.010333 -151203.000000 0 0 1
-20.224418 10.678042 17.519585 28.809435 -0.485778 0.917106 0.073837 -0.013543 -621912.000000 0 0 1
-21.270418 10.446842 18.386285 29.993711 -0.456538 0.910938 0.092699 -0.018641 -80348.400000 0 0 1
-20.921818 10.890142 19.691285 30.725631 -0.479925 0.875159 0.110630 -0.015287 -79810.300000 0 0 1
-13.004077 -33.286705 -19.996853 40.951006 1.198360 2.080950 0.173317 -0.057531 -434455.000000 0 0 1
-14.108377 33.765642 -19.402853 41.420232 -1.175012 2.058319 0.196715 -0.052799 -222255.000000 0 0 1
-15.137277 -32.959105 -19.206453 41.040560 1.140257 2.057808 0.166313 -0.066726 -144561.000000 0 0 1
-16.452877 -33.505605 -18.647053 41.725715 1.114336 2.034089 0.155956 -0.059274 -1219240.000000 0 0 1
-17.059577 33.194642 -19.486253 42.102583 -1.096070 2.051979 0.153586 -0.058800 168267.000000 0 0 1
-17.976277 32.298942 -18.896453 41.514385 -1.062931 2.043369 0.170111 -0.047568 33720.500000 0 0 1
-19.263977 32.873642 -18.297953 42.268099 -1.040734 2.018506 0.148634 -0.043665 -1297380.000000 0 0 1
-19.120077 33.721342 -17.162053 42.393895 -1.054993 1.987582 0.159433 -0.048213 -189665.000000 0 0 1
-20.344377 -33.580905 -16.572453 42.617098 1.026100 1.970200 0.118219 -0.046971 -103329.000000 0 0 1
-20.645377 33.440342 -15.248053 42.154373 -1.017696 1.940908 0.119968 -0.045091 -192924.000000 0 0 1
-20.855977 32.046042 -15.344353 41.199147 -0.993850 1.952437 0.131570 -0.046271 57973.500000 0 0 1
-21.281877 31.408842 -14.180353 40.503285 -0.975279 1.928478 0.129299 -0.041321 -110369.000000 0 0 1
-21.239177 29.858242 -14.138253 39.274769 -0.952504 1.939046 0.136611 -0.049083 876815.000000 0 0 1
-19.984777 29.339042 -13.635253 38.027501 -0.972822 1.937524 0.159406 -0.055907 927465.000000 0 0 1
-20.003477 27.897442 -13.623953 36.932621 -0.948728 1.948607 0.156910 -0.063231 -181881.000000 0 0 1
-18.708677 27.313842 -13.040753 35.582605 -0.970241 1.946033 0.165032 -0.059002 -287841.000000 0 0 1
-17.580377 27.552742 -13.844453 35.494959 -1.002859 1.971471 0.181627 -0.063188 -629983.000000 0 0 1
-16.534677 26.682042 -13.450053 34.150122 -1.016022 1.975614 0.187002 -0.070005 74911.100000 0 0 1
-15.210777 27.157842 -14.096053 34.170379 -1.060241 1.996018 0.159851 -0.063764 -28967.000000 0 0 1
-15.246877 27.180742 -15.481153 34.798363 -1.059590 2.031838 0.158360 -0.062472 -1040740.000000 0 0 1
-14.036377 27.627542 -15.959253 34.856832 -1.100724 2.046373 0.188559 -0.055569 -729568.000000 0 0 1
-14.017777 27.807342 -17.464353 35.703641 -1.103871 2.081909 0.211870 -0.075313 135300.000000 0 0 1
-13.725377 26.617242 -18.211253 35.050154 -1.094701 2.117152 0.185071 -0.064457 7328.960000 0 0 1
-14.057477 26.800842 -19.562953 36.036189 -1.087729 2.144647 0.168059 -0.067474 190079.000000 0 0 1
-13.364377 25.701142 -20.441153 35.454139 -1.091284 2.185299 0.132214 -0.052342 1069760.000000 0 0 1
-11.942977 25.910242 -20.461553 35.109123 -1.138885 2.192965 0.109482 -0.045162 474783.000000 0 0 1
-11.220577 24.774642 -20.939753 34.324299 -1.145529 2.226928 0.111901 -0.044433 235359.000000 0 0 1
-9.960677 25.311442 -21.643453 34.760944 -1.195885 2.242905 0.123139 -0.047525 -523690.000000 0 0 1
-10.244877 26.031642 -22.831953 36.109583 -1.195858 2.255310 0.110954 -0.033820 -198818.000000 0 0 1
-9.130277 26.155042 -23.685253 36.447762 -1.234939 2.278172 0.096068 -0.038321 -126788.000000 0 0 1
-9.378777 26.989742 -24.931553 37.920838 -1.236356 2.288243 0.088275 -0.031141 79244.200000 0 0 1
-10.372977 26.462642 -25.795633 38.383391 -1.197218 2.307773 0.081299 -0.026970 -165534.000000 0 0 1
-10.676177 27.102442 -26.935573 39.674276 -1.195543 2.317084 0.092464 -0.022026 27175.100000 0 0 1
-11.983977 26.607242 -27.597943 40.164754 -1.147607 2.328312 0.091828 -0.014612 -80677.100000 0 0 1
-12.290377 27.090342 -28.859393 41.446406 -1.144885 2.341035 0.090986 -0.008767 -98372.200000 0 0 1
-13.479577 26.426242 -29.265583 41.671568 -1.099115 2.349407 0.081292 -0.006123 102937.000000 0 0 1
-13.931377 26.649242 -30.751663 43.010814 -1.089100 2.367385 0.070168 -0.011526 -276158.000000 0 0 1
-13.257877 26.129842 -31.867393 43.290538 -1.101259 2.398129 0.081237 -0.013087 -258485.000000 0 0 1
-13.089677 24.773542 -31.958623 42.502019 -1.084709 2.421784 0.074866 -0.018223 -188263.000000 0 0 1
-12.175077 24.432742 -33.133573 42.930467 -1.108502 2.452457 0.069266 -0.013497 -98960.400000 0 0 1
-12.718677 24.709542 33.301992 43.374519 -1.095436 0.695431 0.061809 -0.011209 313170.000000 0 0 1
-12.175777 23.834142 32.305423 41.951833 -1.098503 0.691861 0.059730 -0.019084 -382459.000000 0 0 1
-12.713977 24.037942 30.894425 41.157422 -1.084287 0.721765 0.054076 -0.009617 1080010.000000 0 0 1
-14.035977 23.419542 30.794485 41.155606 -1.030871 0.725383 0.066024 -0.018733 1329270.000000 0 0 1
-14.448977 23.172142 29.453975 40.165380 -1.013241 0.747608 0.075145 -0.017255 -68932.100000 0 0 1
-15.739477 22.340742 29.433905 40.164595 -0.957044 0.748321 0.058648 -0.016776 -248489.000000 0 0 1
-15.569177 20.987242 29.699855 39.559386 -0.932538 0.721575 0.053970 -0.022436 -1252320.000000 0 0 1
-16.686277 20.238842 29.883555 39.762664 -0.881313 0.720391 0.042366 -0.022020 -1187400.000000 0 0 1
-16.272577 18.743342 30.151085 39.053778 -0.855843 0.688751 0.039384 -0.027031 95184.700000 0 0 1
-15.883177 18.129042 28.930985 37.655536 -0.851334 0.694605 0.050884 -0.032448 291072.000000 0 0 1
-15.451877 16.767742 28.987785 36.881017 -0.826216 0.666515 0.046863 -0.039325 -26279.200000 0 0 1
-14.975777 16.097942 27.669685 35.341606 -0.821495 0.671449 0.044036 -0.034971 1461690.000000 0 0 1
-13.830477 16.802442 27.045295 34.713861 -0.882114 0.677580 0.033988 -0.038596 1312850.000000 0 0 1
-13.241577 16.079642 26.007755 33.321128 -0.881890 0.675302 0.025387 -0.033030 115547.000000 0 0 1
-12.036977 16.763342 25.310175 32.657364 -0.948056 0.684046 0.035794 -0.029749 93141.900000 0 0 1
-12.303577 17.709742 24.291265 32.481973 -0.963613 0.725996 0.036593 -0.027694 -189670.000000 0 0 1
-12.860877 18.975142 24.655495 33.665288 -0.975143 0.748998 0.039226 -0.026308 -194014.000000 0 0 1
-11.930077 19.993842 25.345615 34.416285 -1.032816 0.743000 0.045957 -0.033402 -207733.000000 0 0 1
-11.641777 19.667142 26.700165 35.145786 -1.036324 0.707949 0.055917 -0.035722 -260957.000000 0 0 1
-12.575877 20.092142 27.670105 36.434621 -1.011543 0.708336 0.063974 -0.037587 -302400.000000 0 0 1
-12.237777 19.673142 29.123305 37.215086 -1.014318 0.672018 0.062578 -0.034630 154376.000000 0 0 1
-11.151677 20.395242 29.674165 37.694587 -1.070430 0.664498 0.062601 -0.038372 -83147.600000 0 0 1
-11.093877 20.288742 31.091395 38.747671 -1.070414 0.639479 0.060298 -0.030705 43033.900000 0 0 1
-9.894377 20.973642 31.802923 39.360111 -1.130001 0.630049 0.048796 -0.027605 271385.000000 0 0 1
-8.651277 20.325442 31.587835 38.545551 -1.168386 0.610269 0.051655 -0.031524 -352703.000000 0 0 1
-7.643877 21.096742 32.172291 39.224453 -1.223184 0.609018 0.051553 -0.024346 122751.000000 0 0 1
-6.350677 20.243742 32.403266 38.731278 -1.266809 0.579717 0.049643 -0.020565 -21810.400000 0 0 1
-6.441777 19.421542 33.563154 39.308754 -1.250533 0.547489 0.045451 -0.020500 306308.000000 0 0 1
-5.224977 18.899942 -33.663133 38.957858 -1.301078 2.614138 0.041279 -0.018034 307898.000000 0 0 1
-4.654177 17.648142 33.311029 37.983456 -1.312946 0.501239 0.026330 -0.021294 -136092.000000 0 0 1
-5.312077 16.442442 33.497465 37.691541 -1.258310 0.476237 0.025999 -0.019409 -237181.000000 0 0 1
-4.929277 15.560742 32.505495 36.373640 -1.264020 0.465371 0.033916 -0.020226 -354189.000000 0 0 1
-5.510377 14.139642 32.668440 36.021115 -1.199191 0.434870 0.047219 -0.030407 -300799.000000 0 0 1
-4.796077 13.206242 33.463418 36.293354 -1.222440 0.397514 0.048472 -0.024442 -329928.000000 0 0 1
-5.521977 12.016942 33.498913 36.014946 -1.140057 0.376005 0.049722 -0.022503 31824.800000 0 0 1
-4.613177 10.800842 33.817125 35.798569 -1.167138 0.334270 0.066199 -0.043468 122472.000000 0 0 1
-4.342377 10.626042 -32.532703 34.498489 -1.182852 2.802384 0.089688 -0.049252 -410724.000000 0 0 1
-3.336977 9.684942 -32.369693 33.951885 -1.238982 2.835104 0.105331 -0.048067 -773836.000000 0 0 1
-3.162877 9.161442 -30.946243 32.428471 -1.238370 2.838079 0.125942 -0.043680 525334.000000 0 0 1
-4.208677 8.291242 -30.422133 31.811379 -1.101083 2.844968 0.125382 -0.034752 122729.000000 0 0 1
-5.263377 9.032042 -29.883023 31.658742 -1.043161 2.805076 0.138097 -0.044571 -739863.000000 0 0 1
-6.394277 8.055342 -29.505893 31.246968 -0.899851 2.806197 0.137993 -0.048483 -321299.000000 0 0 1
-6.064877 7.037642 -28.548343 30.021975 -0.859505 2.826975 0.145396 -0.036575 -377261.000000 0 0 1
-7.224177 6.331642 -28.285463 29.872158 -0.719652 2.814199 0.156946 -0.059163 -492291.000000 0 0 1
-6.971377 5.627342 -26.892943 28.346030 -0.679120 2.820014 0.135230 -0.053964 218150.000000 0 0 1
-7.195677 6.408642 -25.744923 27.489080 -0.727611 2.783454 0.098786 -0.035961 586091.000000 0 0 1
-6.015077 7.171442 -25.453683 27.120116 -0.872867 2.789212 0.097635 -0.035589 208335.000000 0 0 1
-6.031677 8.023242 -24.155953 26.158432 -0.926160 2.747767 0.052342 -0.018751 -24629.400000 0 0 1
-6.178377 7.258042 -22.960653 24.860472 -0.865579 2.748113 0.043199 -0.016547 444908.000000 0 1 0
-7.473277 7.367142 -22.361753 24.701673 -0.778247 2.702818 0.050665 -0.015879 473926.000000 0 1 0
-7.417677 7.622042 -20.865453 23.419748 -0.798986 2.670194 0.038927 -0.012909 -25484.200000 0 1 0
-7.004877 8.946442 -20.483053 23.423547 -0.906520 2.635126 0.017869 -0.002247 229291.000000 0 1 0
-6.693177 9.150642 -19.105853 22.216356 -0.939278 2.606047 0.012507 0.000587 -313404.000000 0 1 0
-7.941977 9.447342 -18.260753 22.040471 -0.871751 2.547238 0.015657 0.003965 -698835.000000 0 1 0
-7.888277 9.329942 -16.879653 20.837356 -0.868932 2.515063 0.012504 0.000396 -215977.000000 0 1 0
-9.056277 9.640042 -16.155853 20.879611 -0.816612 2.455555 0.021878 -0.001341 -119026.000000 0 1 0
-9.480677 11.145542 -16.282553 21.891274 -0.865940 2.409522 0.033544 -0.009799 -258583.000000 0 1 0
-8.608577 12.083242 -15.642653 21.559335 -0.951770 2.382648 0.018693 -0.011059 28049.600000 0 1 0
-9.051777 13.393942 -15.838053 22.631312 -0.976490 2.345955 0.042904 -0.014338 82550.600000 0 1 0
-7.934577 14.417342 -15.531553 22.628442 -1.067685 2.327286 0.053616 -0.014054 -91207.000000 0 1 0
-7.673577 14.591242 -14.197153 21.756546 -1.086642 2.281736 0.059033 -0.018234 -1498.660000 0 1 0
-8.644777 15.282242 -13.461253 22.124295 -1.055999 2.224887 0.054456 -0.022151 -624889.000000 0 1 0
-7.936477 16.185042 -12.420653 21.891000 -1.114891 2.174125 0.062200 -0.022015 433723.000000 0 1 0
-7.407077 17.444742 -12.866853 22.907198 -1.169263 2.167229 0.066714 -0.016405 -239152.000000 0 1 0
-6.349277 17.413242 -13.770753 23.090430 -1.221154 2.209785 0.091057 -0.019330 -632675.000000 0 1 0
-6.126277 18.839242 -14.298653 24.431532 -1.256395 2.195990 0.121192 -0.013853 138057.000000 0 1 0
-5.629377 19.691442 -13.314553 24.427855 -1.292344 2.147252 0.119822 -0.023269 -221454.000000 0 1 0
-5.738177 21.066442 -13.719853 25.786741 -1.304863 2.131817 0.118024 -0.018064 -76463.700000 0 0 1
-5.404477 22.121442 -12.660253 26.054723 -1.331181 2.078200 0.126469 -0.017683 -392600.000000 0 0 1
-5.745277 23.495042 -12.759053 27.346273 -1.330971 2.056209 0.111951 -0.018171 103596.000000 0 0 1
-7.104777 23.893342 -12.873453 28.055221 -1.281769 2.047509 0.119052 -0.021127 225039.000000 0 0 1
-7.900077 23.843042 -11.538153 27.641108 -1.250844 2.001409 0.070835 -0.023663 -302829.000000 0 0 1
-8.126777 22.506642 -11.088753 26.373355 -1.224282 2.004741 0.083918 -0.020442 -155795.000000 0 0 1
-8.532677 22.454542 -9.712453 25.910322 -1.207651 1.955030 0.082887 -0.023978 -97942.100000 0 0 1
-7.517277 22.964742 -8.687153 25.677918 -1.254449 1.915919 0.087881 -0.022694 -36894.800000 0 0 1
-7.555277 24.374142 -8.602153 26.929130 -1.270217 1.895931 0.084671 -0.019792 -220223.000000 0 0 1
-6.732477 24.833842 -7.544653 26.813574 -1.306059 1.856022 0.084996 -0.022321 32702.400000 0 0 1
-6.788177 26.378742 -7.495653 28.250702 -1.318926 1.839339 0.083961 -0.030490 575472.000000 0 0 1
-5.928677 27.062942 -8.437953 28.961200 -1.355133 1.866438 0.083241 -0.032502 323347.000000 0 0 1
-6.419077 27.082442 -9.793453 29.505507 -1.338071 1.909134 0.083949 -0.025056 85555.200000 0 0 1
-5.988577 28.372742 -10.554953 30.859076 -1.362781 1.919880 0.082102 -0.028034 237963.000000 0 0 1
-6.691577 29.590042 -10.269753 32.028356 -1.348394 1.897207 0.083877 -0.029718 -550639.000000 0 0 1
-7.720477 29.846442 -11.150653 32.783425 -1.317671 1.917852 0.088219 -0.029306 -1212240.000000 0 0 1
-8.762177 30.794442 -10.665753 33.746580 -1.293585 1.892364 0.082042 -0.037626 -878023.000000 0 0 1
-9.641977 30.302342 -9.707653 33.248130 -1.262734 1.867088 0.089179 -0.034484 -425498.000000 0 0 1
-10.730777 31.196142 -9.594653 34.357040 -1.239497 1.853823 0.080498 -0.035821 446069.000000 0 0 1
-11.915877 30.707042 -8.708653 34.069799 -1.200634 1.829277 0.099999 -0.033633 332404.000000 0 0 1
-12.734777 29.727442 -9.310153 33.653741 -1.166062 1.851098 0.110664 -0.041432 -681783.000000 0 0 1
-13.888677 29.576942 -8.550653 33.775798 -1.131781 1.826741 0.106460 -0.032214 -169140.000000 0 0 1
-14.861777 28.451142 -9.020353 33.342265 -1.089420 1.844748 0.114373 -0.047205 143512.000000 0 0 1
-14.579377 27.067342 -8.707653 31.953442 -1.076722 1.846798 0.115374 -0.049033 -342609.000000 0 0 1
-15.380477 26.220742 -9.465853 31.838479 -1.040305 1.872669 0.140907 -0.053077 -345120.000000 0 0 1
-15.442377 24.796842 -8.883953 30.533179 -1.013812 1.866027 0.136623 -0.047003 -449785.000000 0 0 1
-14.313977 23.997642 -9.084553 29.382067 -1.032973 1.885134 0.111031 -0.034295 -435575.000000 0 0 1
-14.544477 22.658642 -8.671253 28.286861 -1.000140 1.882360 0.098893 -0.031460 -439581.000000 0 0 1
-13.630877 21.588442 -9.227953 27.148052 -1.007610 1.917620 0.087183 -0.026630 -404315.000000 0 0 1
-13.920377 21.372442 -10.586153 27.615662 -0.993491 1.964205 0.080150 -0.018793 -115174.000000 0 0 1
-13.425277 20.150242 -11.033553 26.608450 -0.983076 1.998369 0.082172 -0.014983 -507149.000000 0 0 1
-13.538577 19.976242 -12.568753 27.208764 -0.975171 2.050975 0.090221 -0.001181 -199293.000000 0 0 1
-14.825977 19.847542 -13.115253 28.031132 -0.929222 2.057689 0.110966 0.004471 -661835.000000 0 0 1
-14.899377 19.988842 -14.532153 28.857039 -0.930256 2.098547 0.107679 0.022009 31286.200000 0 0 1
-16.210777 19.429942 -15.107353 29.471071 -0.875476 2.109026 0.113195 -0.005778 281899.000000 0 0 1
-17.313977 20.305142 -14.940353 30.582458 -0.864743 2.081197 0.121992 -0.022277 18663.600000 0 0 1
-18.537877 19.628642 -15.126453 30.947472 -0.813969 2.081485 0.120055 -0.021042 -227924.000000 0 0 1
-19.747977 20.489942 -15.503153 32.406297 -0.803836 2.069627 0.109198 -0.033372 -177612.000000 0 0 1
-20.100377 21.439342 -14.471153 32.757973 -0.817620 2.028356 0.126055 -0.052298 267232.000000 0 0 1
-20.534777 22.650442 -15.122553 34.108814 -0.834350 2.030142 0.124974 -0.049499 41013.400000 0 0 1
-21.185177 23.695542 -14.160953 34.796882 -0.841274 1.989920 0.124927 -0.046097 -1462920.000000 0 0 1
-22.532777 23.573142 -14.019553 35.496013 -0.807959 1.976822 0.171341 -0.050084 -1219620.000000 0 0 1
-23.086577 24.549742 -13.116453 36.162428 -0.816104 1.941970 0.183839 -0.061919 278801.000000 0 0 1
-26.071857 -0.619558 3.979447 26.381084 0.023759 1.419374 0.198976 -0.043288 -54048.400000 0 0 1
-26.836207 -0.342458 5.111847 27.320876 0.012760 1.382583 0.212395 -0.035921 674117.000000 0 0 1
-28.254007 -0.339158 4.897747 28.677376 0.012003 1.399167 0.195882 -0.036370 818911.000000 0 0 1
-28.961567 0.543342 5.956647 29.572779 -0.018759 1.367986 0.199422 -0.032521 -503854.000000 0 0 1
-28.936267 1.948442 5.705847 29.557752 -0.067234 1.376536 0.216897 -0.046117 211762.000000 0 0 1
-29.330967 2.742042 6.820347 30.238081 -0.093215 1.343284 0.225189 -0.047337 -230328.000000 0 0 1
-28.204317 3.069542 7.827247 29.430790 -0.108406 1.301603 0.240113 -0.045941 -39138.900000 0 0 1
-27.658157 1.935442 8.515047 29.003890 -0.069863 1.272824 0.209409 -0.051951 365224.000000 0 0 1
-26.584707 2.304342 9.346947 28.274053 -0.086463 1.233874 0.198694 -0.062576 -809377.000000 0 0 1
-25.778457 1.130442 9.823347 27.609870 -0.043824 1.207036 0.184383 -0.047915 -382365.000000 0 0 1
-24.777377 0.703842 8.889947 26.333344 -0.028399 1.226438 0.201072 -0.053612 374237.000000 0 0 1
-25.047217 -0.446558 8.108347 26.330739 0.017827 1.257767 0.167107 -0.035359 -522177.000000 0 0 1
-23.808877 -1.154358 7.518347 24.994414 0.048446 1.265264 0.148692 -0.045376 -388519.000000 0 1 0
-23.013377 -1.569258 8.598447 24.617299 0.068084 1.213989 0.153692 -0.056929 -429758.000000 0 1 0
-21.865977 -2.192758 8.095047 23.419200 0.099948 1.217856 0.155054 -0.046745 -101467.000000 0 1 0
-20.706977 -2.413258 9.113147 22.751971 0.116020 1.158687 0.123719 -0.037702 336812.000000 0 1 0
-20.072277 -1.189358 9.502147 22.239642 0.059185 1.129334 0.107823 -0.040855 909382.000000 0 1 0
-20.728377 -0.588558 10.616447 23.296373 0.028386 1.097624 0.142730 -0.040797 -215690.000000 0 1 0
-20.096577 0.845642 10.811647 22.835920 -0.042054 1.077594 0.105631 -0.038368 52221.600000 0 1 0
-20.359777 1.913242 9.948347 22.740946 -0.093697 1.118020 0.104618 -0.035281 623135.000000 0 1 0
-21.757477 2.169442 9.856147 23.984118 -0.099382 1.147306 0.143103 -0.044338 148154.000000 0 1 0
-22.045077 3.554042 9.224847 24.160183 -0.159842 1.179031 0.132453 -0.051436 -324837.000000 0 1 0
-21.875177 4.595042 10.188347 24.565020 -0.207047 1.143128 0.104681 -0.047370 854534.000000 0 1 0
-22.581577 5.774442 9.725147 25.255698 -0.250350 1.175515 0.106890 -0.041470 218647.000000 0 0 1
-22.558977 6.979242 10.719747 25.933188 -0.300038 1.144655 0.111386 -0.043926 -290551.000000 0 0 1
-23.644877 6.763142 11.557247 27.173338 -0.278591 1.131486 0.110628 -0.043553 -225237.000000 0 0 1
-23.532677 7.540542 12.717547 27.791774 -0.310092 1.095501 0.118394 -0.038974 33782.100000 0 0 1
-24.471577 7.211742 13.903247 29.054563 -0.286586 1.071826 0.137854 -0.035980 808547.000000 0 0 1
-25.880607 7.198042 13.666147 30.139363 -0.271269 1.100184 0.156774 -0.039139 1097880.000000 0 0 1
-26.729317 6.771342 14.754047 31.272822 -0.248110 1.079482 0.147735 -0.034993 779620.000000 0 0 1
-28.225147 6.836342 14.356547 32.396064 -0.237631 1.111679 0.153362 -0.028152 98327.700000 0 0 1
-28.701417 5.802342 13.485047 32.237944 -0.199474 1.139226 0.175932 -0.023533 -670608.000000 0 0 1
-30.066587 5.856442 13.281747 33.387159 -0.192374 1.161668 0.201905 -0.031040 -987610.000000 0 0 1
-30.524577 4.899142 12.134847 33.211533 -0.159141 1.196755 0.224490 -0.033994 -356509.000000 0 0 1
-30.712567 3.581642 12.624347 33.398564 -0.116094 1.183171 0.213451 -0.032939 280963.000000 0 0 1
-31.309277 2.751942 11.644047 33.517575 -0.087670 1.215998 0.198024 -0.022019 -330492.000000 0 0 1
-32.564827 1.999442 12.108247 34.800509 -0.061322 1.215431 0.147617 -0.005087 -238589.000000 0 0 1
-32.384677 0.878942 12.971247 34.896893 -0.027134 1.189955 0.142710 -0.002404 -581452.000000 0 0 1
-33.619437 0.300242 13.295247 36.154119 -0.008930 1.194221 0.121582 -0.002267 -189730.000000 0 0 1
-33.618567 -0.805558 14.344647 36.559895 0.023957 1.167600 0.112700 -0.008151 43208.300000 0 0 1
-33.221167 -2.089958 13.907747 36.075467 0.062828 1.175027 0.131233 -0.002822 254206.000000 0 0 1
-33.699337 -3.086358 14.796647 36.933883 0.091330 1.158597 0.140716 0.000771 -39135.200000 0 0 1
-33.593837 -4.556058 14.290047 36.790067 0.134799 1.171879 0.142090 0.001939 -170145.000000 0 0 1
-34.575844 -4.956258 13.364047 37.398546 0.142375 1.205377 0.123793 -0.000633 -45962.800000 0 0 1
-34.480443 -6.316358 12.914147 37.357363 0.181178 1.217820 0.133225 -0.003276 50995.700000 0 0 1
-35.754782 -6.737458 12.069147 38.333564 0.186251 1.250503 0.141432 -0.004135 1490080.000000 0 0 1
-36.988907 -6.808958 12.797247 39.727959 0.182043 1.242826 0.107469 -0.009514 591148.000000 0 0 1
37.553504 -5.583658 13.089947 40.159552 -0.147604 1.238781 0.105658 -0.009201 -781679.000000 0 0 1
36.064324 -5.552858 12.676447 38.628513 -0.152771 1.236438 0.113154 -0.015657 -248787.000000 0 0 1
35.213004 -6.225958 13.561347 38.244324 -0.175000 1.208313 0.102209 -0.013674 -189789.000000 0 0 1
33.950804 -6.285458 12.910247 36.862427 -0.183062 1.212982 0.126965 -0.010723 -94673.400000 0 0 1
33.054524 -7.439958 13.382347 36.428584 -0.221392 1.194629 0.095416 -0.020978 -347486.000000 0 0 1
32.553374 -7.128758 14.654147 36.404469 -0.215584 1.156510 0.094746 -0.008655 21918.600000 0 0 1
31.482524 -8.001458 14.950247 35.758671 -0.248886 1.139458 0.102505 -0.001291 258900.000000 0 0 1
30.928804 -7.905858 16.400847 35.889849 -0.250256 1.096202 0.091191 -0.003870 69366.400000 0 0 1
31.796884 -8.503658 17.335147 37.200287 -0.261321 1.086037 0.067464 -0.000510 20159.300000 0 0 1
31.223684 -8.561358 18.632347 37.354781 -0.267617 1.048589 0.065823 -0.007703 -228218.000000 0 0 1
32.198484 -9.038258 19.727147 38.827732 -0.273662 1.037856 0.060275 -0.002253 119354.000000 0 0 1
33.336034 -8.275958 20.032547 39.762867 -0.243339 1.042804 0.063387 0.002379 37285.400000 0 0 1
34.499904 -8.707358 19.336147 40.496272 -0.247225 1.073012 0.037608 0.009217 1100340.000000 0 0 1
35.822014 -8.012458 19.913647 41.760861 -0.220052 1.073729 0.040913 0.010858 1041680.000000 0 0 1
36.271804 -8.577258 21.113147 42.836644 -0.232206 1.055404 0.054926 -0.004629 83715.500000 0 0 1
37.545914 -8.076758 21.473947 44.000683 -0.211888 1.060957 0.068736 -0.003760 133896.000000 0 0 1
-37.072447 -8.764558 22.692647 44.341178 0.232154 1.033548 0.075658 -0.014316 -56027.800000 0 0 1
37.360364 -8.227558 23.823747 45.067288 -0.216762 1.013815 0.072050 -0.007453 566195.000000 0 0 1
37.361854 -9.136658 24.964347 45.854174 -0.239838 0.995088 0.064328 -0.022734 -450656.000000 0 0 1
36.811644 -8.446458 26.233947 45.985430 -0.225547 0.963701 0.084801 -0.022611 275972.000000 0 0 1
-37.553077 -7.630458 27.081447 46.924005 0.200462 0.955581 0.079966 -0.026099 -104300.000000 0 0 1
36.693464 -7.258458 28.082147 46.772882 -0.195292 0.926803 0.099352 -0.025977 -115651.000000 0 0 1
37.287864 -6.483858 29.230147 47.820777 -0.172165 0.913165 0.111721 -0.031892 53282.500000 0 0 1
-37.009657 -7.248758 30.069647 48.233214 0.193413 0.897685 0.101962 -0.033001 -394918.000000 0 0 1
-35.673095 -6.845058 29.904347 47.049915 0.189579 0.882027 0.100204 -0.038452 -81104.400000 0 0 1
-34.812035 -7.263058 31.145347 47.272217 0.205686 0.851506 0.098769 -0.036617 173372.000000 0 0 1
-34.549212 -8.658458 31.154247 47.320229 0.245555 0.852144 0.098107 -0.031248 -10608.400000 0 0 1
-34.182831 -9.020958 32.486247 48.012497 0.258021 0.827633 0.083552 -0.023451 -34714.400000 0 0 1
-34.304251 -10.549158 32.671847 48.533658 0.298339 0.832297 0.082977 -0.022005 632556.000000 0 0 1
-35.673293 -10.963358 32.621047 49.567245 0.298165 0.852481 0.076867 -0.027800 662341.000000 0 0 1
-35.760966 -12.395058 32.733247 50.039481 0.333650 0.857740 0.063644 -0.020676 299096.000000 0 0 1
-37.215897 -12.919458 32.859347 51.299826 0.334133 0.875601 0.059302 -0.022788 260991.000000 0 0 1
-37.244227 -14.279458 33.308447 51.966220 0.366115 0.875044 0.053082 -0.037523 500564.000000 0 0 1
36.568884 -14.750658 33.466347 51.719064 -0.383405 0.867049 0.044245 -0.031008 377938.000000 0 0 1
36.313974 -16.254458 33.661247 52.115177 -0.420864 0.868593 0.030998 -0.020898 -157607.000000 0 0 1
36.629294 -16.612558 -32.774191 51.882847 -0.425787 2.254535 0.042245 -0.032005 72636.800000 0 0 1
36.396644 -17.993558 -32.622491 52.083689 -0.459137 2.247655 0.038393 -0.036486 77746.000000 0 0 1
36.937634 -18.573158 -31.294991 51.852940 -0.465905 2.218722 0.039229 -0.043635 -457504.000000 0 0 1
35.979304 -18.337258 -30.329691 50.504014 -0.471347 2.214973 0.035130 -0.033292 -308650.000000 0 0 1
36.348994 -19.199358 -29.244191 50.448859 -0.485948 2.189132 0.026659 -0.027480 -410466.000000 0 0 1
35.166314 -19.489058 -28.285191 49.158367 -0.506060 2.183876 0.017834 -0.021784 436597.000000 0 0 1
34.083674 -20.292158 -28.754891 48.992981 -0.537003 2.198044 0.026039 -0.022912 -50027.600000 0 0 1
33.208704 -19.509358 -29.506491 48.518719 -0.531161 2.224520 0.021311 -0.021656 -1300230.000000 0 0 1
31.920834 -20.313258 -29.788891 48.155437 -0.566729 2.237754 0.027614 -0.010741 -359350.000000 0 0 1
30.882864 -19.590558 -30.363891 47.534273 -0.565295 2.263706 0.029209 -0.009403 -307433.000000 0 0 1
29.713364 -20.369258 -30.504891 47.205286 -0.600945 2.273414 0.040259 -0.005839 251100.000000 0 0 1
28.589064 -19.644058 -31.290391 46.715224 -0.602028 2.304751 0.053776 -0.005944 69888.300000 0 0 1
28.939164 -19.461058 -32.640391 47.766129 -0.592018 2.323121 0.044185 -0.003850 38824.600000 0 0 1
27.901964 -18.981458 -33.458491 47.521426 -0.597376 2.351911 0.088959 -0.002424 -58168.000000 0 0 1
28.401064 -19.144058 32.856147 47.462004 -0.593105 0.806177 0.092100 -0.005279 -208158.000000 0 0 1
29.336664 -18.218158 32.424447 47.369673 -0.555720 0.816881 0.066523 -0.008077 -279838.000000 0 0 1
29.562364 -18.248058 31.001847 46.562211 -0.553024 0.842210 0.063827 -0.007764 414381.000000 0 0 1
28.377364 -17.826958 30.026347 44.996186 -0.560905 0.840207 0.067738 -0.012914 452117.000000 0 0 1
28.079064 -16.510758 30.225347 44.436590 -0.531556 0.822774 0.080043 -0.019923 -19003.000000 0 0 1
27.313664 -15.912958 29.218647 43.046345 -0.527528 0.824707 0.082601 -0.017279 -175698.000000 0 0 1
27.046764 -14.422458 29.614347 42.620937 -0.489886 0.802611 0.094557 -0.023213 227953.000000 0 0 1
28.141764 -13.535358 29.416747 42.901163 -0.448308 0.815250 0.096047 -0.027402 371868.000000 0 0 1
27.859564 -12.312658 30.037947 42.778910 -0.416143 0.792360 0.108988 -0.022658 551936.000000 0 0 1
29.192964 -11.553858 30.310347 43.639866 -0.376859 0.802993 0.100149 -0.023983 624112.000000 0 0 1
29.920964 -11.113358 29.185147 43.249782 -0.355632 0.830097 0.097642 -0.024121 -606706.000000 0 0 1
31.263454 -10.863958 29.457347 44.307612 -0.334443 0.843521 0.078659 -0.020977 -723064.000000 0 0 1
31.871194 -10.143358 28.291847 43.807412 -0.308125 0.868695 0.082821 -0.024947 -629385.000000 0 0 1
31.523814 -8.755658 28.219547 43.205963 -0.270919 0.859072 0.085285 -0.023308 5193.300000 0 0 1
31.805444 -8.246758 26.940447 42.489798 -0.253701 0.884023 0.077923 -0.012918 91624.400000 0 0 1
31.743404 -6.720958 26.931047 42.167479 -0.208646 0.878029 0.082411 -0.014101 585339.000000 0 0 1
30.443064 -6.252758 26.554847 40.878320 -0.202575 0.863729 0.089174 -0.015946 297316.000000 0 0 1
30.386774 -4.834558 26.438447 40.567480 -0.157778 0.860953 0.101599 -0.013676 -268909.000000 0 0 1
28.967564 -4.325958 26.223047 39.312617 -0.148242 0.840569 0.096004 -0.014450 -514027.000000 0 0 1
28.409564 -4.614158 24.981847 38.111500 -0.161010 0.855960 0.107438 -0.010230 607724.000000 0 0 1
27.008964 -4.279358 24.978447 37.036737 -0.157136 0.830613 0.110790 -0.017391 775438.000000 0 0 1
26.434364 -4.771058 23.598547 35.755140 -0.178565 0.849972 0.113885 -0.007085 -172338.000000 0 0 1
26.867264 -4.007658 22.511047 35.279717 -0.148073 0.878803 0.125520 0.004550 58991.500000 0 0 1
26.334064 -4.501458 21.289847 34.161435 -0.169300 0.897952 0.136380 0.005855 163473.000000 0 0 1
26.512364 -3.589358 19.990647 33.397828 -0.134566 0.929092 0.146616 -0.000025 211739.000000 0 0 1
25.629164 -2.472858 20.020547 32.615815 -0.096188 0.909894 0.138587 0.002281 148861.000000 0 0 1
25.980364 -1.460158 19.141947 32.303645 -0.056143 0.936559 0.156535 -0.001502 -49812.100000 0 0 1
24.787364 -0.532458 18.765647 31.094154 -0.021478 0.922900 0.123887 -0.011258 76220.200000 0 0 1
23.886164 -1.205658 17.906747 29.877316 -0.050432 0.928117 0.132306 -0.014940 -196725.000000 0 0 1
22.850064 -0.316958 17.552847 28.815418 -0.013870 0.915811 0.128420 -0.013733 768102.000000 0 0 1
21.576964 -1.012458 16.926747 27.442762 -0.046889 0.906123 0.130088 -0.020236 692958.000000 0 0 1
21.889764 -1.587058 15.683947 26.975298 -0.072376 0.950325 0.148025 -0.027685 334278.000000 0 0 1
20.750464 -2.296758 15.229147 25.841513 -0.110236 0.940569 0.158590 -0.032197 -80428.300000 0 0 1
20.969264 -2.958958 13.820547 25.287803 -0.140184 0.992581 0.176540 -0.050302 -468198.000000 0 0 1
19.957364 -3.800258 13.365147 24.318008 -0.188166 0.988912 0.184552 -0.052167 140532.000000 0 1 0
20.264864 -4.211158 12.050647 23.950296 -0.204890 1.043554 0.167541 -0.048456 470988.000000 0 1 0
19.232564 -5.322658 11.564647 23.064329 -0.269995 1.045571 0.165500 -0.053129 546017.000000 0 1 0
19.436964 -6.562558 12.193747 23.865251 -0.325615 1.034517 0.180144 -0.059536 -326254.000000 0 1 0
18.251164 -7.225258 12.079447 23.048262 -0.376949 1.019146 0.164205 -0.046766 -1083640.000000 0 1 0
18.347964 -8.709158 12.575447 23.888053 -0.443176 1.016397 0.178751 -0.058351 -381967.000000 0 1 0
19.086264 -9.512258 11.686747 24.317660 -0.462353 1.069473 0.169490 -0.061880 183598.000000 0 1 0
18.476064 -10.747858 11.522247 24.282577 -0.526868 1.076393 0.171825 -0.061037 -70701.500000 0 1 0
18.957664 -11.476358 10.229647 24.407898 -0.544357 1.138329 0.142477 -0.055224 166498.000000 0 1 0
18.417964 -10.933858 9.029347 23.244349 -0.535739 1.171844 0.136144 -0.048799 438733.000000 0 1 0
19.088164 -11.502558 7.906047 23.646827 -0.542330 1.229893 0.150232 -0.053418 267423.000000 0 1 0
18.936564 -10.646358 6.581547 22.699232 -0.512170 1.276626 0.141436 -0.045973 -30021.100000 0 1 0
19.416964 -9.314758 6.623847 22.531279 -0.447295 1.272403 0.145247 -0.042560 448516.000000 0 1 0
19.490464 -8.901058 5.320347 22.077434 -0.428402 1.327415 0.093412 -0.045266 -657573.000000 0 1 0
20.322664 -7.612858 5.150347 22.304536 -0.358419 1.337783 0.145687 -0.041669 -328901.000000 0 1 0
20.687264 -7.338558 3.807547 22.278122 -0.340889 1.399043 0.121357 -0.037251 562697.000000 0 1 0
21.247964 -6.044058 3.803947 22.415990 -0.277134 1.400273 0.147865 -0.034098 -26950.300000 0 1 0
22.077264 -5.762258 2.474747 22.950677 -0.255308 1.462757 0.166633 -0.033426 24492.300000 0 1 0
21.278164 -5.757458 1.330747 22.083466 -0.264253 1.510500 0.142072 -0.038610 460358.000000 0 1 0
21.594364 -4.706658 0.470747 22.106352 -0.214601 1.549500 0.145627 -0.032376 -159655.000000 0 1 0
-25.538667 -15.262858 -0.886653 29.765156 0.538680 1.600589 0.125615 -0.009782 -769992.000000 0 0 1
-24.651277 -14.219958 -0.998253 28.476116 0.523219 1.605859 0.093166 -0.004164 320430.000000 0 0 1
-23.363577 -14.558958 -0.450153 27.532211 0.557266 1.587147 0.111907 0.000263 699787.000000 0 0 1
-23.169977 -14.404758 1.113347 27.305392 0.556222 1.530011 0.138243 -0.019143 -385744.000000 0 0 1
-23.868877 -15.272358 1.988947 28.406410 0.569203 1.500721 0.127985 0.003911 158444.000000 0 0 1
-23.495977 -14.970558 3.310447 28.055973 0.567292 1.452526 0.146981 0.006425 -41557.200000 0 0 1
-24.004377 -15.962158 4.339447 29.151868 0.586826 1.421384 0.153958 0.006609 -141553.000000 0 0 1
-23.382677 -17.209058 4.296647 29.348977 0.634464 1.423870 0.177639 -0.008636 -9282.590000 0 0 1
-24.031177 -17.986958 5.238047 30.470728 0.642530 1.398034 0.183992 -0.018585 -125660.000000 0 0 1
-23.388877 -19.350558 5.384447 30.829790 0.691191 1.395245 0.150639 -0.013232 -336054.000000 0 0 1
-23.921277 -20.072058 6.446747 31.885350 0.698125 1.367208 0.144102 -0.027825 -105591.000000 0 0 1
-23.632677 -21.477258 6.272547 32.544138 0.737653 1.376843 0.157385 -0.035242 121568.000000 0 0 1
-24.444477 -22.417358 7.206447 33.941174 0.742168 1.356846 0.153894 -0.034496 436657.000000 0 0 1
-23.840577 -22.379958 8.525447 33.792290 0.753808 1.315751 0.151586 -0.029716 292268.000000 0 0 1
-24.367677 -23.370158 9.416747 35.051720 0.764505 1.298802 0.137299 -0.030869 703146.000000 0 0 1
-23.546877 -23.230758 10.779147 34.789561 0.778640 1.255773 0.146235 -0.033397 819328.000000 0 0 1
-23.973977 -22.135458 11.576547 34.622919 0.745546 1.229869 0.129870 -0.029227 401478.000000 0 0 1
-23.150677 -22.197058 12.743547 34.511755 0.764372 1.192592 0.119513 -0.032331 180565.000000 0 0 1
-23.755977 -21.351258 13.906947 34.837133 0.732137 1.160153 0.103478 -0.022153 -93830.500000 0 0 1
-24.965077 -21.924858 14.336147 36.186732 0.720651 1.163453 0.110293 -0.019788 -190413.000000 0 0 1
-25.610587 -21.145458 15.318147 36.574283 0.690188 1.138648 0.103439 -0.010721 -253350.000000 0 0 1
-27.025657 -21.645358 15.654347 37.999556 0.675301 1.146191 0.082413 -0.008421 176130.000000 0 0 1
-28.034767 -21.231558 14.691947 38.112735 0.648176 1.175061 0.088648 -0.006339 725461.000000 0 0 1
-28.381127 -22.262958 13.702847 38.586211 0.665174 1.207751 0.084289 -0.007919 -57705.700000 0 0 1
-29.374557 -23.361558 14.118147 40.099241 0.671868 1.211004 0.077083 -0.010557 -244994.000000 0 0 1
-28.989927 -24.022458 15.338247 40.654104 0.691967 1.183932 0.065326 -0.008513 314202.000000 0 0 1
-30.022267 -24.904258 15.829047 42.096524 0.692487 1.185301 0.054793 -0.009353 411457.000000 0 0 1
-30.011397 -26.395608 15.418047 42.838397 0.721384 1.202623 0.069590 -0.011974 -7864.610000 0 0 1
-30.279777 -26.588718 14.041847 42.673157 0.720584 1.235493 0.082124 -0.020924 971156.000000 0 0 1
-31.694377 -26.847058 13.867947 43.790616 0.702785 1.248561 0.093435 -0.035153 1098940.000000 0 0 1
-32.075177 -27.364718 12.433747 43.957284 0.706316 1.284022 0.118069 -0.042634 12035.100000 0 0 1
-31.478947 -28.626258 12.113247 44.239321 0.737972 1.293442 0.111669 -0.044435 260957.000000 0 0 1
-31.796427 -28.919118 10.779247 44.311628 0.738044 1.325071 0.116171 -0.033869 10322.200000 0 0 1
-31.097237 -30.229208 10.333747 44.582839 0.771245 1.336881 0.091497 -0.039595 -195656.000000 0 0 1
-31.577487 -31.385678 10.962147 45.851577 0.782352 1.329379 0.096195 -0.031612 11070.700000 0 0 1
-30.993777 -32.606868 10.461847 46.187361 0.810756 1.342304 0.098112 -0.035123 -149939.000000 0 0 1
-31.431107 33.804419 11.169947 47.491272 -0.821763 1.333372 0.090357 -0.036519 -366337.000000 0 0 1
-32.796287 33.483674 11.125347 48.171841 -0.795769 1.337741 0.085167 -0.033935 -377837.000000 0 0 1
-32.958397 32.274321 11.856247 47.628335 -0.774912 1.319218 0.093769 -0.037147 -580204.000000 0 0 1
-34.387745 32.028049 12.371647 48.593936 -0.749884 1.313370 0.116499 -0.032515 190151.000000 0 0 1
-35.418344 31.808907 11.420747 48.956094 -0.731760 1.335341 0.082396 -0.029582 268119.000000 0 0 1
-35.828874 32.954724 10.711947 49.844437 -0.743637 1.354199 0.099388 -0.023890 -722768.000000 0 0 1
-37.211747 32.819940 10.023647 50.619523 -0.722768 1.371459 0.081936 -0.008019 222695.000000 0 0 1
-37.231717 32.019116 8.857447 49.898687 -0.710269 1.392342 0.056239 -0.009037 327698.000000 0 0 1
36.563104 31.975188 8.430947 49.298621 0.718558 1.398934 0.037832 -0.002692 413312.000000 0 0 1
36.192114 31.430149 6.991647 48.441784 0.715094 1.425960 0.045131 -0.004900 -34706.700000 0 0 1
36.388724 30.040129 6.781647 47.671158 0.690118 1.428053 0.058119 -0.004083 -115819.000000 0 0 1
35.820544 29.710219 5.565047 46.869801 0.692423 1.451781 0.075251 -0.005634 21017.300000 0 0 1
36.010024 28.208889 5.194347 46.037425 0.664513 1.457727 0.089970 -0.004628 640546.000000 0 0 1
35.180714 27.297799 5.981147 44.929128 0.659891 1.437276 0.081293 0.000663 678668.000000 0 0 1
35.834234 26.881399 7.186747 45.369056 0.643603 1.411720 0.058345 0.001436 219000.000000 0 0 1
35.084114 25.722899 7.869247 44.209587 0.632648 1.391844 0.052339 0.005109 139808.000000 0 0 1
35.097934 24.549119 7.094647 43.414954 0.610354 1.406645 0.055617 -0.000893 139796.000000 0 0 1
33.993354 23.752369 7.477547 42.138306 0.609877 1.392399 0.048741 -0.001522 -666714.000000 0 0 1
33.863054 22.386589 6.860347 41.169529 0.584133 1.403379 0.071769 0.002313 102259.000000 0 0 1
34.781024 21.374189 7.264947 41.465106 0.551039 1.394681 0.082282 0.004771 109608.000000 0 0 1
36.123064 21.639089 6.928347 42.674675 0.539712 1.407722 0.092303 -0.001866 -510046.000000 0 0 1
37.095234 20.445789 6.890347 42.913442 0.503741 1.409534 0.082663 -0.002225 -50262.300000 0 0 1
36.990594 19.652289 5.713247 42.274788 0.488356 1.435236 0.106492 -0.012491 148530.000000 0 0 1
37.475394 18.362189 6.030247 42.165614 0.455599 1.427291 0.123636 -0.022228 8198.410000 0 0 1
36.978644 17.316289 4.982147 41.135091 0.437950 1.449382 0.136332 -0.034250 173025.000000 0 0 1
-37.464127 17.285589 3.734047 41.428197 -0.432286 1.480541 0.141787 -0.034888 138536.000000 0 0 1
37.158874 16.330889 2.910847 40.693401 0.414078 1.499204 0.145836 -0.038026 236244.000000 0 0 1
-36.944157 15.870789 1.808247 40.249502 -0.405751 1.525855 0.151089 -0.027786 966351.000000 0 0 1
-35.754544 15.185789 2.148047 38.905137 -0.401636 1.515556 0.154016 -0.040259 1174690.000000 0 0 1
-34.683495 16.026289 2.648247 38.298825 -0.432848 1.501594 0.164753 -0.038253 568598.000000 0 0 1
-33.286807 15.366889 2.758847 36.766344 -0.432501 1.495688 0.140505 -0.039693 293241.000000 0 0 1
-33.274297 14.363789 3.821947 36.443169 -0.407514 1.465729 0.159116 -0.044094 -413774.000000 0 0 1
-31.925227 14.039089 3.929747 35.096425 -0.414297 1.458591 0.151742 -0.043842 -579593.000000 0 0 1
-31.652097 13.078489 5.122347 34.628609 -0.391829 1.422329 0.177491 -0.030187 145705.000000 0 0 1
-32.211377 11.763489 5.014047 34.656791 -0.350148 1.425610 0.201730 -0.033417 378340.000000 0 0 1
-31.903877 11.124989 6.239247 34.359147 -0.335519 1.388194 0.182911 -0.020673 48654.400000 0 0 1
-32.167557 9.573089 6.210547 34.131608 -0.289254 1.387818 0.204154 -0.032330 248465.000000 0 0 1
-33.507497 9.237789 6.531047 35.365855 -0.269011 1.385059 0.206001 -0.019365 211099.000000 0 0 1
-33.599327 7.804689 6.408847 35.084203 -0.228239 1.387094 0.235644 -0.025236 94386.000000 0 0 1
-35.088610 7.388589 6.334147 36.413229 -0.207538 1.395955 0.203270 -0.016614 227675.000000 0 0 1
-35.712521 7.383889 7.628747 37.257265 -0.203886 1.364579 0.195632 -0.017484 -703826.000000 0 0 1
-37.016807 6.929489 7.517647 38.402824 -0.185057 1.373766 0.151234 -0.025427 -562422.000000 0 0 1
37.564074 6.346589 8.834047 39.107278 0.167373 1.342937 0.140707 -0.025926 -158879.000000 0 0 1
37.093914 7.271889 9.813347 39.053048 0.193585 1.316791 0.151895 -0.023573 563748.000000 0 0 1
-37.075177 8.020689 10.562447 39.375951 -0.213053 1.299224 0.172792 -0.027451 177027.000000 0 0 1
37.445524 8.976489 11.587847 40.212222 0.235281 1.278484 0.155550 -0.036408 -164939.000000 0 0 1
36.800694 8.346589 12.671247 39.805993 0.223032 1.246834 0.140302 -0.030408 526781.000000 0 0 1
36.263504 9.335189 13.560547 39.825568 0.251956 1.223349 0.167806 -0.047189 -534910.000000 0 0 1
35.391524 8.770089 14.662547 39.299678 0.242909 1.188453 0.159795 -0.038631 -39480.700000 0 0 1
34.041874 8.521189 14.270647 37.882862 0.245275 1.184560 0.160675 -0.048652 451714.000000 0 0 1
33.373084 7.909689 15.335047 37.569796 0.232714 1.150342 0.156543 -0.034229 203102.000000 0 0 1
31.845524 7.645289 15.284847 36.141588 0.235615 1.134136 0.147272 -0.032023 377517.000000 0 0 1
31.081634 8.697389 15.883747 35.972294 0.272846 1.113465 0.128142 -0.035240 125993.000000 0 0 1
29.692064 8.481289 15.935247 34.748856 0.278232 1.094396 0.128069 -0.023622 -36985.900000 0 0 1
29.123164 7.777389 17.166247 34.688997 0.260962 1.053121 0.123473 -0.030086 -401252.000000 0 0 1
29.127564 8.637989 18.283047 35.458421 0.288295 1.029066 0.134495 -0.038544 297349.000000 0 0 1
28.324964 8.179589 19.384547 35.284131 0.281129 0.989169 0.122699 -0.024966 190908.000000 0 0 1
28.812464 6.959389 20.207947 35.874117 0.237001 0.972420 0.134624 -0.022453 -35614.200000 0 0 1
28.001564 6.821089 21.317847 35.847809 0.238943 0.933933 0.089132 -0.006439 29707.500000 0 0 1
28.718564 5.985589 22.211547 36.795870 0.205481 0.922734 0.101103 -0.005913 -42191.500000 0 0 1
27.896764 5.417989 23.419847 36.824900 0.191828 0.881520 0.094149 -0.013714 615932.000000 0 0 1
26.622364 4.869189 23.117147 35.593001 0.180899 0.863888 0.054118 -0.010115 -137493.000000 0 0 1
25.578464 5.776389 23.279547 35.065108 0.222104 0.844781 0.067858 0.003380 -561319.000000 0 0 1
24.176764 5.196189 23.023847 33.787776 0.211704 0.821088 0.088622 -0.013564 -136654.000000 0 0 1
23.845064 5.039889 21.633147 32.588044 0.208294 0.844859 0.088777 -0.021689 988291.000000 0 0 1
22.444564 4.928689 21.343947 31.362629 0.216163 0.822279 0.092545 -0.016535 -553720.000000 0 0 1
21.693264 3.570989 21.563847 30.795278 0.163150 0.795074 0.100655 -0.024039 -53724.500000 0 0 1
20.476164 3.514089 20.843347 29.429020 0.169963 0.783768 0.091333 -0.026219 777365.000000 0 0 1
19.428664 4.322989 21.400747 29.225899 0.218939 0.749172 0.111003 -0.028982 -663994.000000 0 0 1
18.135364 4.330989 20.552547 27.749884 0.234424 0.736781 0.148596 -0.037189 143330.000000 0 0 1
17.220064 3.265589 20.851347 27.239188 0.187413 0.698993 0.138553 -0.035508 276747.000000 0 0 1
16.387264 3.060989 19.739447 25.837141 0.184663 0.701314 0.167742 -0.047767 -6572.160000 0 0 1
15.196364 2.067489 19.989847 25.195198 0.135221 0.654423 0.181294 -0.051460 113108.000000 0 0 1
15.612664 0.694789 20.280847 25.603726 0.044472 0.656546 0.136686 -0.035139 431353.000000 0 0 1
14.620564 0.096089 21.118447 25.685773 0.006572 0.605558 0.161823 -0.041556 -78378.900000 0 0 1
14.719864 -1.424011 21.465947 26.067012 -0.096441 0.603259 0.106691 -0.023482 -175221.000000 0 0 1
14.195664 -2.296111 20.431647 24.984820 -0.160359 0.613284 0.110107 -0.017159 359080.000000 0 1 0
14.083164 -3.624811 20.802447 25.381422 -0.251918 0.610095 0.094094 0.002500 95557.600000 0 0 1
13.637364 -4.594011 19.672347 24.373836 -0.324930 0.631557 0.104256 -0.007403 780032.000000 0 1 0
12.263864 -4.537611 19.267947 23.286178 -0.354379 0.596260 0.105954 -0.012522 611511.000000 0 1 0
12.011564 -5.114011 18.006347 22.240938 -0.402512 0.627320 0.105268 -0.014157 -865690.000000 0 1 0
10.550564 -5.224311 17.645147 21.212238 -0.459775 0.588385 0.095045 -0.010886 -694834.000000 0 1 0
9.920464 -6.267811 18.389747 21.814763 -0.563479 0.567968 0.095409 -0.009388 -68450.800000 0 1 0
8.510964 -6.114911 18.270847 21.063060 -0.623018 0.520772 0.074251 -0.016701 -186440.000000 0 1 0
7.868764 -6.999911 19.317647 22.001993 -0.727029 0.499138 0.069039 -0.019321 -537045.000000 0 1 0
7.926864 -8.377911 19.024947 22.247993 -0.813055 0.544993 0.078417 -0.021207 -490251.000000 0 1 0
9.107064 -8.986311 19.426247 23.260943 -0.778724 0.582401 0.126358 -0.030053 -427058.000000 0 1 0
9.142364 -10.444311 18.929447 23.473185 -0.851772 0.632709 0.150158 -0.037830 156296.000000 0 1 0
9.397864 -10.418111 17.513647 22.440694 -0.836839 0.675425 0.127629 -0.028406 -85407.000000 0 1 0
9.830664 -11.682811 17.059347 22.894352 -0.871279 0.730061 0.135335 -0.036952 298601.000000 0 1 0
9.741664 -11.868811 15.537747 21.844686 -0.883513 0.779475 0.120727 -0.032636 268972.000000 0 1 0
10.159164 -13.158211 15.115647 22.468421 -0.913314 0.832876 0.102719 -0.025598 5349.870000 0 1 0
9.710664 -13.350311 13.766047 21.494926 -0.941934 0.875735 0.074207 -0.016822 -663591.000000 0 1 0
10.464164 -14.517911 13.061847 22.155819 -0.946262 0.940301 0.103464 -0.026285 906199.000000 0 1 0
11.847364 -14.251611 12.780447 22.512403 -0.877259 0.967079 0.078900 -0.027758 513993.000000 0 1 0
12.093164 -13.321311 11.776547 21.503233 -0.833685 0.991227 0.044101 -0.026204 -548926.000000 0 1 0
13.587764 -13.034611 11.474147 22.049591 -0.764623 1.023501 0.092234 -0.032102 115535.000000 0 1 0
14.191564 -13.960311 10.623247 22.564223 -0.777184 1.080598 0.106120 -0.037170 322840.000000 0 1 0
15.530564 -13.534611 10.362347 23.059973 -0.716834 1.104742 0.111254 -0.046104 998162.000000 0 1 0
16.588964 -14.568211 9.837147 24.170146 -0.720632 1.151634 0.113028 -0.048777 495527.000000 0 1 0
17.237664 -15.387411 10.775847 25.495654 -0.728746 1.134424 0.114345 -0.039572 -184990.000000 0 0 1
16.461864 -16.443711 11.283547 25.859370 -0.784847 1.119266 0.163876 -0.036343 -348318.000000 0 0 1
17.017264 -17.088711 12.521647 27.173571 -0.787493 1.091897 0.155056 -0.035080 801858.000000 0 0 1
18.259064 -17.762811 12.172447 28.232594 -0.771623 1.125031 0.177483 -0.045259 888652.000000 0 0 1
18.649664 -18.594911 13.241747 29.477526 -0.783928 1.104910 0.148714 -0.042248 198053.000000 0 0 1
20.117064 -19.101211 13.166147 30.706676 -0.759501 1.127664 0.083446 -0.034114 309812.000000 0 0 1
21.070464 -18.095211 13.464747 30.865847 -0.709578 1.119387 0.079166 -0.032735 72724.000000 0 0 1
22.381664 -18.571911 13.203547 31.940389 -0.692639 1.144632 0.070193 -0.028385 693997.000000 0 0 1
23.148064 -17.829411 12.028647 31.597613 -0.656325 1.180262 0.081622 -0.032413 -386548.000000 0 0 1
22.945964 -18.361811 10.696947 31.274559 -0.674875 1.221716 0.073236 -0.011731 -146754.000000 0 0 1
21.835464 -18.004611 9.905747 29.984618 -0.689537 1.234110 0.092883 -0.018502 115976.000000 0 0 1
21.393564 -16.524211 9.756947 28.739035 -0.657678 1.224409 0.142500 -0.034875 57332.500000 0 0 1
22.325664 -15.823711 8.955847 28.792921 -0.616586 1.254506 0.132277 -0.020265 -43806.400000 0 0 1
21.967464 -14.482011 8.908647 27.778807 -0.582849 1.244329 0.160613 -0.032249 105674.000000 0 0 1
-35.895076 24.664042 8.193747 44.316012 -0.602026 1.384833 0.105519 -0.000508 32927.500000 0 0 1
-35.278411 23.786942 9.130347 43.517217 -0.593243 1.359416 0.108572 -0.015042 249113.000000 0 0 1
-34.331162 24.528542 9.891347 43.337245 -0.620371 1.340525 0.113076 -0.007674 -52750.800000 0 0 1
-33.156357 23.676342 10.458647 42.063006 -0.620114 1.319518 0.145301 -0.042207 -40774.300000 0 0 1
-32.443047 23.096142 9.377847 40.913654 -0.618667 1.339530 0.156030 -0.038694 -38054.000000 0 0 1
-31.657867 22.039742 9.890147 39.821926 -0.608161 1.319810 0.156864 -0.046130 230149.000000 0 0 1
-30.761457 21.322842 8.808047 38.451431 -0.606126 1.339675 0.131918 -0.044586 246636.000000 0 0 1
-31.512707 20.631142 7.848947 38.474676 -0.579667 1.365351 0.133471 -0.044534 -137884.000000 0 0 1
-30.686207 19.965742 6.970447 37.267430 -0.576827 1.382650 0.140494 -0.051339 -522952.000000 0 0 1
-31.527987 19.166442 5.992947 37.380234 -0.546221 1.409777 0.124366 -0.031147 -457002.000000 0 0 1
-32.201347 18.166642 6.658747 37.567174 -0.513648 1.392606 0.139389 -0.039660 -336287.000000 0 0 1
-33.123917 17.578842 5.804347 37.946015 -0.487904 1.417230 0.118077 -0.031798 -307951.000000 0 0 1
-33.826137 16.296942 6.343247 38.079321 -0.448970 1.403436 0.115638 -0.029074 -131491.000000 0 0 1
-34.866866 16.489142 7.266447 39.247821 -0.441748 1.384579 0.099195 -0.021964 11456.300000 0 0 1
-35.469008 15.328242 7.704847 39.400130 -0.407919 1.373974 0.111771 -0.024361 128966.000000 0 0 1
-36.446697 15.591942 8.901347 40.628861 -0.404241 1.349915 0.118447 -0.025873 335657.000000 0 0 1
37.518364 16.286342 8.556847 41.786268 0.409545 1.364561 0.135194 -0.032255 331046.000000 0 0 1
36.724944 16.442142 9.722547 41.395573 0.420948 1.333712 0.148856 -0.033532 686262.000000 0 0 1
35.751574 17.685942 9.712447 41.052396 0.459391 1.331945 0.110254 -0.024382 1652530.000000 0 0 1
34.509404 17.665942 8.953847 39.788891 0.473136 1.343819 0.124940 -0.031724 1104740.000000 0 0 1
33.748124 18.813442 9.355347 39.754295 0.508557 1.333239 0.098388 -0.014752 95468.500000 0 0 1
32.287494 18.741942 8.877547 38.373865 0.525936 1.337338 0.075862 -0.015583 -414116.000000 0 0 1
31.562984 19.873842 9.220447 38.421455 0.561941 1.328449 0.073003 -0.000452 351820.000000 0 0 1
30.217194 20.028242 8.754447 37.294096 0.585327 1.333844 0.044522 0.001392 810243.000000 0 0 1
29.896364 20.122042 7.221247 36.753715 0.592416 1.373033 0.045657 -0.000117 -507725.000000 0 0 1
29.758464 18.831642 6.564047 35.822948 0.564200 1.386519 0.073797 -0.005215 30998.800000 0 0 1
29.572864 18.808142 5.136247 35.421484 0.566466 1.425280 0.068306 -0.015350 332092.000000 0 0 1
28.169764 19.233142 4.581947 34.415746 0.599060 1.437265 0.095509 -0.018211 -501269.000000 0 0 1
27.156064 18.349942 5.039047 33.159677 0.594245 1.418242 0.087246 -0.015499 535855.000000 0 0 1
25.836064 18.779642 4.710747 32.285729 0.628537 1.424366 0.113772 -0.014483 765721.000000 0 0 1
25.285364 20.228242 5.146347 32.787441 0.674740 1.413184 0.115187 -0.010103 -828005.000000 0 0 1
25.805264 21.200042 4.309747 33.673838 0.687737 1.442459 0.100826 -0.011256 -85192.000000 0 0 1
25.377364 22.401442 4.826047 34.192484 0.723193 1.429180 0.118856 -0.014935 -535436.000000 0 0 1
26.381964 23.541442 4.671947 35.665594 0.728562 1.439426 0.101896 -0.019608 484395.000000 0 0 1
27.626064 23.121142 5.277447 36.409313 0.696858 1.425336 0.086915 -0.019220 991228.000000 0 0 1
28.642664 24.111942 5.226847 37.803543 0.699725 1.432089 0.088721 -0.009757 -1343120.000000 0 0 1
30.021064 23.808742 5.757547 38.746223 0.670500 1.421648 0.055997 -0.007922 -655851.000000 0 0 1
30.732904 22.754342 5.091947 38.577187 0.637322 1.438416 0.053608 -0.005594 230155.000000 0 0 1
30.951354 22.956442 3.682347 38.711035 0.638164 1.475528 0.064567 -0.015154 -740747.000000 0 0 1
31.848614 24.115542 3.166847 40.073963 0.648089 1.491689 0.094283 -0.022202 -179363.000000 0 0 1
31.221034 25.363742 3.275547 40.358414 0.682252 1.489546 0.071866 -0.023635 -118067.000000 0 0 1
31.857154 26.258242 2.405347 41.354071 0.689353 1.512599 0.120940 -0.019973 -764347.000000 0 0 1
31.247184 27.628242 2.552547 41.787818 0.724008 1.509675 0.112993 -0.016144 114391.000000 0 0 1
29.968664 27.883942 2.024847 40.984571 0.749379 1.521371 0.158571 -0.019889 228270.000000 0 0 1
28.885964 27.336142 2.778447 39.867071 0.757839 1.501047 0.128570 -0.010355 -298789.000000 0 0 1
27.506964 27.902342 2.413647 39.255566 0.792534 1.509272 0.094013 -0.006319 -200395.000000 0 0 1
27.513864 29.288142 2.632347 40.270799 0.816624 1.505384 0.100537 -0.007348 434347.000000 0 0 1
26.233564 29.926342 2.564447 39.879346 0.851058 1.506447 0.088301 -0.003030 321593.000000 0 0 1
26.208964 31.441742 2.933847 41.037792 0.875917 1.499244 0.094355 -0.012615 -54624.100000 0 0 1
26.269064 31.730842 4.297347 41.417113 0.879290 1.466851 0.099891 -0.029702 -140016.000000 0 0 1
27.563964 31.579442 4.813947 42.192503 0.853188 1.456452 0.099891 -0.030245 -442181.000000 0 0 1
27.538064 31.445942 6.344547 42.278192 0.851555 1.420161 0.117804 -0.040012 -14320.200000 0 0 1
27.009164 30.249442 6.974247 41.148072 0.841928 1.400483 0.114266 -0.042565 -107615.000000 0 0 1
27.805864 29.112842 6.872347 40.840578 0.808356 1.401719 0.075935 -0.042367 -147231.000000 0 0 1
27.130264 27.786442 7.370747 39.528034 0.797346 1.383230 0.098830 -0.041809 752864.000000 0 0 1
25.936864 27.347442 6.709347 38.283401 0.811865 1.394632 0.104192 -0.049803 932805.000000 0 0 1
25.309864 26.111742 7.114847 37.054464 0.800991 1.377586 0.120872 -0.043611 627049.000000 0 0 1
23.903664 25.829642 6.476547 35.784092 0.824105 1.388804 0.141716 -0.028442 437942.000000 0 0 1
23.739364 25.617342 5.095247 35.295427 0.823429 1.425930 0.084783 -0.027344 93905.600000 0 0 1
23.869964 26.792342 4.325747 36.143006 0.843018 1.450825 0.083305 -0.016619 -222660.000000 0 0 1
23.565664 26.501942 2.876847 35.580468 0.843977 1.489853 0.079060 -0.011011 -152679.000000 0 0 1
24.610164 25.740842 2.320247 35.688018 0.807850 1.505736 0.084831 -0.000743 123991.000000 0 0 1
24.437364 25.405442 0.967647 35.264112 0.804818 1.543353 0.097108 -0.004790 925494.000000 0 0 1
25.767964 24.789542 0.349947 35.757962 0.766048 1.561010 0.114902 -0.006502 -343819.000000 0 0 1
26.896364 25.587842 0.329047 37.124928 0.760472 1.561933 0.092689 -0.008016 389803.000000 0 0 1
27.994264 25.249642 -0.552453 37.703162 0.733896 1.585450 0.102436 -0.001354 1038000.000000 0 0 1
28.754564 23.951342 -0.183653 37.423595 0.694517 1.575704 0.093518 -0.013862 -1119370.000000 0 0 1
27.919864 22.821342 -0.181453 36.060579 0.685253 1.575828 0.093778 -0.012273 203763.000000 0 0 1
28.437464 21.708642 0.555447 35.780763 0.652011 1.555272 0.100975 -0.018128 939156.000000 0 0 1
27.158764 20.958942 1.124547 34.324049 0.657257 1.538028 0.090190 -0.016380 888388.000000 0 0 1
26.493664 20.190642 0.169147 33.310732 0.651196 1.565718 0.125201 -0.037611 575733.000000 0 0 1
25.388564 19.480742 0.745147 32.009900 0.654484 1.547516 0.094509 -0.023361 -77766.900000 0 0 1
24.778664 18.617842 -0.312053 30.995219 0.644375 1.580864 0.125167 -0.025036 -653385.000000 0 0 1
23.636464 17.927242 0.162747 29.666394 0.648892 1.565310 0.097599 -0.013065 79548.300000 0 0 1
23.239364 17.064942 -0.882753 28.845442 0.633385 1.601404 0.120540 -0.039154 424597.000000 0 0 1
21.802464 16.509242 -0.597553 27.354334 0.648105 1.592643 0.092276 -0.021087 314470.000000 0 0 1
21.220064 16.010542 -1.800753 26.643410 0.646375 1.638435 0.097771 -0.025211 708690.000000 0 0 1
19.903064 15.497742 -1.528153 25.271470 0.661593 1.631303 0.106211 -0.027776 1565120.000000 0 0 1
18.690564 16.465142 -1.903853 24.981248 0.722181 1.647082 0.096126 -0.029700 525547.000000 0 1 0
18.596764 17.528942 -1.052753 25.577563 0.755848 1.611967 0.083740 -0.022600 66407.700000 0 0 1
17.426864 18.260642 -1.332053 25.276887 0.808757 1.623519 0.055992 -0.032437 5608.660000 0 0 1
17.439764 19.752842 -0.862753 26.364075 0.847510 1.603527 0.056632 -0.017891 -85267.800000 0 0 1
17.429364 19.875642 0.545947 26.440914 0.850879 1.550147 0.067853 -0.016009 -5790.590000 0 0 1
17.766364 21.183142 0.962447 27.663975 0.872897 1.535999 0.084409 -0.020884 -253299.000000 0 0 1
16.762764 22.361642 0.772147 27.957637 0.927538 1.543174 0.067754 -0.023174 -39583.700000 0 0 1
15.549264 22.131142 1.452147 27.086450 0.958330 1.517159 0.048446 -0.016553 -45212.300000 0 0 1
14.649064 23.168042 1.101947 27.432964 1.006968 1.530617 0.031378 -0.016048 1076200.000000 0 0 1
13.124964 23.085642 1.485347 26.597327 1.053835 1.514922 0.026384 -0.019697 1138270.000000 0 0 1
12.838064 23.527942 2.809847 26.949493 1.071298 1.466343 0.030551 -0.009741 -382249.000000 0 0 1
11.509264 23.294942 3.198247 26.179119 1.111906 1.448322 0.039477 -0.017526 18923.200000 0 0 1
11.247864 23.531042 4.721947 26.505116 1.124902 1.391688 0.063672 -0.030463 -88346.800000 0 0 1
11.927364 22.608242 5.521647 26.151161 1.085339 1.358052 0.072295 -0.048471 112552.000000 0 0 1
11.372764 22.671642 6.820747 26.265295 1.105846 1.308099 0.066635 -0.027824 -370624.000000 0 0 1
12.030264 21.657642 7.814947 25.977954 1.063760 1.265234 0.073027 -0.029266 -50307.200000 0 0 1
13.308564 21.959842 8.282047 26.980453 1.025947 1.258794 0.090710 -0.027974 -974250.000000 0 0 1
14.342464 21.579942 7.473247 26.967566 0.984212 1.290001 0.096255 -0.032448 -124672.000000 0 0 1
15.805764 21.648042 8.054247 27.988047 0.940137 1.278894 0.112352 -0.040821 536466.000000 0 0 1
16.154064 20.548442 8.812247 27.583472 0.904561 1.245620 0.124070 -0.039119 2064390.000000 0 0 1
17.587464 20.700842 9.155747 28.664812 0.866534 1.245692 0.115285 -0.043399 2179920.000000 0 0 1
17.796564 21.446942 10.520147 29.788630 0.878150 1.209850 0.082304 -0.024256 -451767.000000 0 0 1
17.410564 20.677242 11.628947 29.426323 0.870956 1.164523 0.094919 -0.039326 97072.000000 0 0 1
17.693864 21.351942 12.863147 30.568592 0.878812 1.136473 0.091739 -0.032818 -441905.000000 0 0 1
18.608964 20.713942 13.931847 31.136109 0.838878 1.106885 0.071335 -0.024174 141800.000000 0 0 1
19.922564 21.155842 13.593147 32.081955 0.815412 1.133269 0.081139 -0.024047 -354726.000000 0 0 1
20.860964 20.509242 14.421147 32.615614 0.776897 1.112797 0.072768 -0.028424 490924.000000 0 0 1
22.309764 21.058342 14.209447 33.809580 0.756550 1.137044 0.082747 -0.031310 754384.000000 0 0 1
22.978264 20.539242 13.049447 33.468629 0.729410 1.170272 0.098134 -0.030396 6618.500000 0 0 1
24.344264 20.893642 13.030447 34.626291 0.709268 1.184979 0.109701 -0.027318 325531.000000 0 0 1
25.101664 20.391542 11.735547 34.403947 0.682231 1.222698 0.116855 -0.031153 39279.700000 0 0 1
24.796764 21.111242 10.569547 34.238565 0.705289 1.256967 0.123513 -0.038054 112362.000000 0 0 1
25.587764 20.838042 9.432247 34.320911 0.683445 1.292389 0.142190 -0.042143 -601084.000000 0 0 1
25.599264 21.953442 8.395747 34.752906 0.708879 1.326798 0.124064 -0.038016 93622.900000 0 0 1
26.119564 23.202342 8.847447 36.039667 0.726320 1.322769 0.107247 -0.038636 1409090.000000 0 0 1
27.558964 23.304842 8.893747 37.171372 0.701955 1.329189 0.089885 -0.037515 728384.000000 0 0 1
28.075664 24.648942 9.511747 38.552387 0.720497 1.321499 0.085989 -0.041288 426590.000000 0 0 1
29.422364 24.965842 9.170547 39.661917 0.703642 1.337467 0.065171 -0.024204 336337.000000 0 0 1
29.931164 26.063442 9.808247 40.882506 0.716435 1.328520 0.060149 -0.019657 252152.000000 0 0 1
31.174474 26.710942 9.146547 42.059263 0.708441 1.351577 0.054940 -0.015311 126509.000000 0 0 1
30.860494 27.596042 8.090447 42.182543 0.729612 1.377804 0.070745 -0.022898 714768.000000 0 0 1
31.980934 27.912442 7.214847 43.057387 0.717573 1.402439 0.063917 -0.006534 608413.000000 0 0 1
31.676574 28.825942 6.039647 43.252949 0.738317 1.430703 0.093034 -0.007322 -34362.800000 0 0 1
31.753324 30.212242 6.366047 44.289725 0.760533 1.426560 0.091568 -0.013530 2808.890000 0 0 1
31.651144 31.061942 5.187247 44.649151 0.776003 1.454355 0.097939 -0.023067 20708.700000 0 0 1
31.556114 32.547642 5.651147 45.684492 0.800864 1.446779 0.083233 -0.022207 -502720.000000 0 0 1
30.441094 32.922942 6.382247 45.291427 0.824546 1.429411 0.084105 -0.033081 -806760.000000 0 0 1
30.326314 -33.337505 6.457547 45.527733 -0.832661 1.428479 0.094193 -0.030335 -684038.000000 0 0 1
28.927464 -32.914805 6.843847 44.351108 -0.849785 1.415867 0.120373 -0.039836 -762379.000000 0 0 1
27.986764 -33.058505 5.803447 43.701301 -0.868289 1.437605 0.119470 -0.041624 -672891.000000 0 0 1
26.809064 -32.410405 6.228347 42.520025 -0.879704 1.423787 0.106885 -0.047043 26971.400000 0 0 1
25.653464 -32.426305 5.184047 41.670611 -0.901487 1.446068 0.126521 -0.039547 140188.000000 0 0 1
25.955164 -31.835905 3.949447 41.264918 -0.886808 1.474940 0.103800 -0.024540 -675336.000000 0 0 1
24.893764 -31.912005 3.053347 40.588157 -0.908323 1.495498 0.105242 -0.026536 -206828.000000 0 0 1
25.241964 -31.118305 1.761047 40.107442 -0.889287 1.526874 0.099613 -0.009640 69776.000000 0 0 1
25.397964 -29.743905 1.968947 39.161629 -0.864049 1.520498 0.112276 -0.007156 -36901.800000 0 0 1
26.055064 -29.176105 0.866347 39.126232 -0.841847 1.548652 0.097425 -0.002095 -315628.000000 0 0 1
26.345264 -27.636005 0.999547 38.194512 -0.809305 1.544623 0.115456 -0.015403 678055.000000 0 0 1
25.203464 -26.764305 1.173647 36.782061 -0.815424 1.538883 0.111626 -0.019459 468359.000000 0 0 1
24.401464 -26.601305 0.031747 36.097948 -0.828503 1.569917 0.098043 -0.011636 165191.000000 0 0 1
23.096164 -25.785305 0.217347 34.617365 -0.840356 1.564518 0.079356 -0.003903 242078.000000 0 0 1
23.358964 -24.386705 0.403947 33.771522 -0.806920 1.558835 0.094232 -0.016540 -88338.800000 0 0 1
23.490964 -24.008405 1.799347 33.637279 -0.796291 1.517278 0.078612 -0.008008 695338.000000 0 0 1
22.128364 -23.538405 2.430147 32.397941 -0.816265 1.495716 0.073966 -0.013771 937432.000000 0 0 1
22.328064 -22.836305 3.646747 32.145575 -0.796651 1.457107 0.067859 -0.012647 -730983.000000 0 0 1
21.042564 -22.650105 4.120447 31.189659 -0.822174 1.438300 0.065148 -0.010569 -706639.000000 0 0 1
20.883864 -21.920605 5.470847 30.766522 -0.809614 1.392027 0.044348 -0.004144 -341042.000000 0 0 1
21.094164 -20.514805 5.376147 29.911936 -0.771475 1.390082 0.070259 -0.004034 102008.000000 0 0 1
20.028964 -19.817805 4.766247 28.576597 -0.780099 1.403225 0.055192 0.000530 -486904.000000 0 0 1
19.914764 -18.326005 5.277047 27.573311 -0.743876 1.378226 0.061061 0.007865 315838.000000 0 0 1
19.290164 -18.156305 6.551847 27.288982 -0.755128 1.328336 0.088324 -0.005162 667355.000000 0 0 1
17.859464 -18.190205 6.531047 26.315368 -0.794572 1.319991 0.074878 -0.002008 571703.000000 0 0 1
19.505223 -25.756278 -11.578753 34.320651 -0.922640 1.914918 0.117962 -0.021596 192516.000000 0 0 1
19.861923 -24.481458 -12.033953 33.743944 -0.889200 1.935450 0.123170 -0.026453 372885.000000 0 0 1
18.865023 -24.042558 -12.969853 33.198656 -0.905485 1.972160 0.098402 -0.017193 735888.000000 0 0 1
19.129623 -22.535458 -13.254153 32.395399 -0.866960 1.992304 0.087510 -0.013087 247699.000000 0 0 1
18.880223 -21.651858 -12.146653 31.189853 -0.853673 1.970822 0.095269 -0.024848 288941.000000 0 0 1
20.037423 -21.468858 -11.320853 31.473352 -0.819872 1.938739 0.087619 -0.035837 -126165.000000 0 0 1
19.950223 -22.265458 -10.019953 31.530326 -0.840186 1.894192 0.092680 -0.024710 368963.000000 0 0 1
19.083223 -21.744658 -9.002153 30.299147 -0.850493 1.872460 0.092728 -0.030664 1430890.000000 0 0 1
17.676523 -22.010258 -9.237053 29.702425 -0.894166 1.887027 0.094560 -0.010176 1146440.000000 0 0 1
16.663423 -21.443658 -8.209053 28.370560 -0.910189 1.864345 0.086841 -0.023848 -470012.000000 0 0 1
16.688823 -20.044358 -8.247153 27.355230 -0.876494 1.877045 0.078093 -0.035526 241261.000000 0 0 1
15.814423 -19.449658 -7.295753 26.107722 -0.888121 1.854016 0.088414 -0.040402 977427.000000 0 0 1
14.305323 -19.356258 -7.724153 25.277846 -0.934337 1.881333 0.083283 -0.026783 630092.000000 0 0 1
13.663523 -20.643258 -7.769853 25.946224 -0.986109 1.874923 0.071608 -0.026099 542773.000000 0 0 1
12.270823 -20.433858 -8.088853 25.170323 -1.029999 1.897967 0.078294 -0.032265 623088.000000 0 0 1
11.424523 -21.672158 -7.964453 25.761107 -1.085664 1.885112 0.086294 -0.028816 -453890.000000 0 0 1
11.164223 -21.915758 -6.622453 25.471498 -1.099645 1.833813 0.088276 -0.033739 19224.800000 0 0 1
10.559423 -23.169458 -6.325453 26.236169 -1.143173 1.814292 0.083837 -0.030072 92785.000000 0 0 1
11.276923 -23.990358 -5.195953 27.013037 -1.131386 1.764352 0.078378 -0.027314 181624.000000 0 0 1
10.488223 -25.007668 -4.577353 27.501608 -1.173678 1.738014 0.078604 -0.024520 65924.800000 0 0 1
11.214223 -25.842278 -3.708153 28.413597 -1.161371 1.701676 0.077117 -0.021178 597575.000000 0 0 1
10.197323 -26.746268 -2.890853 28.769867 -1.206547 1.671448 0.076017 -0.025871 937083.000000 0 0 1
9.397323 -26.019218 -1.992553 27.735891 -1.224207 1.642698 0.058914 -0.015958 -459201.000000 0 0 1
8.594223 -26.873968 -1.229253 28.241492 -1.261277 1.614337 0.053265 -0.021062 -11241.300000 0 0 1
7.979423 -26.218068 0.045247 27.405480 -1.275355 1.569145 0.062380 -0.015810 -333557.000000 0 0 1
6.685523 -25.741988 -0.199853 26.596731 -1.316697 1.578311 0.056859 -0.026102 -673785.000000 0 0 1
6.150423 -25.533648 1.136247 26.288513 -1.334424 1.527561 0.044285 -0.013151 812970.000000 0 0 1
4.651323 -25.057178 1.162247 25.511719 -1.387257 1.525223 0.064553 -0.026859 1050250.000000 0 0 1
3.718223 -26.018678 0.738847 26.293396 -1.428851 1.542693 0.070714 -0.033244 -459589.000000 0 0 1
2.408823 -25.528958 0.641647 25.650377 -1.476718 1.545779 0.075531 -0.034924 375449.000000 0 0 1
1.309023 -26.564808 0.195547 26.597759 -1.521560 1.563444 0.082575 -0.037993 548911.000000 0 0 1
0.829023 -27.483698 1.157147 27.520536 -1.540641 1.528737 0.082096 -0.036743 187767.000000 0 0 1
1.639323 -28.654098 1.229347 28.727269 -1.513648 1.527990 0.059973 -0.035195 -208233.000000 0 0 1
0.946923 -29.805128 1.950747 29.883904 -1.539037 1.505472 0.088658 -0.036756 -73819.800000 0 0 1
0.727723 -29.556428 3.308447 29.749922 -1.546180 1.459357 0.083917 -0.035409 -158888.000000 0 0 1
0.133323 -30.617008 3.971347 30.873784 -1.566442 1.441807 0.081763 -0.035012 -277306.000000 0 0 1
0.258423 -30.475358 5.555547 30.978675 -1.562317 1.390486 0.077886 -0.031473 437771.000000 0 0 1
1.645923 -30.444668 5.916547 31.057888 -1.516786 1.379124 0.071072 -0.016053 643652.000000 0 0 1
1.816723 -30.289378 7.318947 31.214002 -1.510889 1.334116 0.074718 -0.017499 687464.000000 0 0 1
3.325223 -30.606088 7.573447 31.704051 -1.462575 1.329585 0.096828 -0.023883 708571.000000 0 0 1
3.760223 -31.933308 7.407747 32.996214 -1.453584 1.344363 0.081424 -0.021088 -1386710.000000 0 0 1
5.111123 -32.080548 7.578447 33.357428 -1.412803 1.341606 0.086287 -0.020738 -989855.000000 0 0 1
5.560423 -33.597448 7.549447 34.881241 -1.406782 1.352637 0.073215 -0.003474 91677.700000 0 0 1
5.456623 33.479821 6.304847 34.502525 1.409234 1.387028 0.057713 -0.000710 -59756.700000 0 0 1
5.580723 32.048266 6.359147 33.146260 1.398390 1.377748 0.050277 -0.012941 -200428.000000 0 0 1
5.650023 31.331349 4.938747 32.217501 1.392383 1.416896 0.059618 -0.013633 1008980.000000 0 0 1
6.956323 31.420289 4.322947 32.470184 1.352915 1.437264 0.061416 -0.005290 804246.000000 0 0 1
7.791023 30.333229 4.707147 31.669576 1.319383 1.421610 0.058600 -0.011925 573687.000000 0 0 1
9.209223 30.449929 4.033947 32.066816 1.277104 1.444664 0.032165 -0.005968 357210.000000 0 0 1
10.162923 31.119099 4.829747 33.090932 1.255135 1.424319 0.028283 -0.010938 4987.720000 0 0 1
11.356723 31.225529 4.063447 33.474175 1.221969 1.449106 0.029598 -0.010496 482944.000000 0 0 1
12.656023 31.632039 4.809547 34.407739 1.190203 1.430556 0.034494 -0.017248 273302.000000 0 0 1
13.099123 30.680079 5.756647 33.852522 1.167268 1.399915 0.031418 -0.020968 -164232.000000 0 0 1
14.340623 30.977249 6.353547 34.721909 1.137233 1.386776 0.050503 -0.016985 -132755.000000 0 0 1
14.840523 29.797149 7.201847 34.058447 1.108709 1.357732 0.037958 -0.017408 -223712.000000 0 0 1
14.299123 29.594649 8.479647 33.944257 1.120707 1.318311 0.052076 -0.015874 77749.800000 0 0 1
15.114223 28.596899 9.063147 33.591115 1.084589 1.297603 0.057539 -0.017674 366043.000000 0 0 1
14.967223 28.587729 10.663747 33.985166 1.088483 1.251628 0.067114 -0.006348 240257.000000 0 0 1
15.500223 29.738839 11.348647 35.404057 1.090324 1.244490 0.075890 -0.012265 189324.000000 0 0 1
14.965923 29.827179 12.655247 35.690261 1.105746 1.208326 0.094143 -0.012508 22507.700000 0 0 1
15.747923 30.838169 13.549647 37.183097 1.098654 1.197804 0.096774 -0.012819 138981.000000 0 0 1
17.042423 30.340629 13.797747 37.434954 1.059012 1.193316 0.095952 -0.016961 -138674.000000 0 0 1
17.769223 31.200889 14.652847 38.780751 1.053098 1.183336 0.093351 -0.013643 100249.000000 0 0 1
18.955023 30.592429 15.436247 39.159511 1.016091 1.165611 0.086129 -0.018024 769984.000000 0 0 1
20.109523 30.248319 14.656147 39.168308 0.984077 1.187280 0.056548 -0.014065 710328.000000 0 0 1
20.660623 28.967819 15.074347 38.642358 0.951248 1.170057 0.044423 -0.013117 188692.000000 0 0 1
21.901723 28.573979 14.238547 38.715552 0.916824 1.194183 0.066821 -0.016888 -183243.000000 0 0 1
23.088923 29.184119 14.653347 39.994146 0.901477 1.195673 0.084920 -0.016322 8867.660000 0 0 1
24.230023 28.384069 14.296147 39.964099 0.864188 1.204966 0.084695 -0.016248 968503.000000 0 0 1
25.445423 28.660819 15.255147 41.250838 0.844756 1.191987 0.097876 -0.022225 152701.000000 0 0 1
25.298323 28.054859 16.499947 41.222912 0.837018 1.158994 0.079329 -0.016970 -196371.000000 0 0 1
26.355723 28.252899 17.402947 42.375854 0.820126 1.147596 0.083777 -0.026441 -641665.000000 0 0 1
27.349923 27.089899 17.404847 42.247007 0.780622 1.146172 0.074185 -0.016173 -409113.000000 0 0 1
26.865923 25.868369 17.996847 41.410588 0.766484 1.121207 0.078426 -0.013645 30543.800000 0 0 1
26.623923 25.872549 19.376047 41.876643 0.771086 1.089765 0.108795 -0.016003 34334.100000 0 0 1
26.063523 24.488269 19.841847 40.898428 0.754247 1.064262 0.117305 -0.017945 353136.000000 0 0 1
26.918423 23.352679 19.599947 40.670715 0.714586 1.067954 0.090243 -0.022269 22392.800000 0 0 1
26.267823 22.137889 19.781647 39.640865 0.700285 1.048327 0.094965 -0.021461 -11942.100000 0 0 1
27.265623 21.003089 20.051447 39.832204 0.656376 1.043270 0.069324 -0.017351 33131.500000 0 0 1
26.565623 19.749289 20.044347 38.698095 0.639274 1.026323 0.053523 -0.007261 -18157.700000 0 0 1
27.341623 18.584889 20.036847 38.657958 0.596991 1.025921 0.053034 -0.012308 86792.800000 0 0 1
28.136223 18.265189 21.363847 39.770317 0.575791 1.003705 0.067531 -0.007745 210249.000000 0 0 1
27.249023 17.894389 22.391247 39.548532 0.581070 0.968943 0.063761 -0.002517 300935.000000 0 0 1
27.915423 17.568789 23.634647 40.577453 0.561727 0.949047 0.084790 0.000108 -15782.100000 0 0 1
26.931723 16.938689 24.650847 40.247996 0.561434 0.911610 0.064160 -0.005675 205717.000000 0 0 1
26.566623 15.589789 24.283947 39.224190 0.530671 0.903192 0.061811 -0.014747 -662072.000000 0 0 1
25.431523 15.155389 24.910147 38.690614 0.537421 0.871304 0.062662 -0.017827 -1143670.000000 0 0 1
24.815523 14.048989 24.051247 37.304782 0.515148 0.870136 0.054058 -0.009934 -211177.000000 0 0 1
23.602523 13.565789 24.598047 36.690239 0.521654 0.836015 0.057399 -0.015052 338313.000000 0 0 1
23.124423 12.525289 23.748747 35.434796 0.496408 0.836305 0.055265 -0.007292 134461.000000 0 0 1
21.884023 11.692789 24.170247 34.638600 0.490715 0.798498 0.064157 -0.011594 -263845.000000 0 0 1
20.683823 12.412389 24.162547 34.142592 0.540494 0.784566 0.084267 -0.024597 -221366.000000 0 0 1
19.654923 11.412089 24.249247 33.235189 0.526049 0.753022 0.099120 -0.016827 2605.250000 0 0 1
18.255423 12.055689 24.272447 32.676472 0.583644 0.733537 0.077824 -0.029870 -267009.000000 0 0 1
17.895123 12.618089 25.525847 33.630648 0.614149 0.709012 0.105200 -0.016198 660770.000000 0 0 1
16.486123 12.743689 25.665347 33.059097 0.658056 0.681946 0.103452 -0.019213 43983.100000 0 0 1
16.017023 13.189689 27.047347 34.089176 0.688895 0.654374 0.100054 -0.011013 -263176.000000 0 0 1
15.812623 12.180589 27.983547 34.372732 0.656372 0.619583 0.100514 -0.012155 120840.000000 0 0 1
15.891823 12.595289 29.366647 35.687411 0.670190 0.604326 0.086662 -0.022258 336592.000000 0 0 1
17.325723 12.631589 29.998847 36.873684 0.629968 0.620553 0.096192 -0.002154 705181.000000 0 0 1
18.056823 13.855689 29.795947 37.494365 0.654505 0.652319 0.117248 -0.021422 1270820.000000 0 0 1
19.476523 13.645289 29.697847 38.045906 0.611130 0.675204 0.114838 -0.008666 671276.000000 0 0 1
20.262823 14.862189 29.181647 38.510196 0.632838 0.710916 0.135675 -0.018085 -456835.000000 0 0 1
20.070123 15.293589 27.889247 37.610023 0.651142 0.735437 0.128111 -0.028909 250997.000000 0 0 1
20.654923 14.516089 26.837347 36.845432 0.612597 0.754847 0.112167 -0.028064 -177694.000000 0 0 1
20.553123 15.248589 25.464947 36.102823 0.638304 0.787887 0.096051 -0.030955 -222098.000000 0 0 1
21.511123 16.256389 25.326147 36.992058 0.647152 0.816690 0.097891 -0.031426 -14568.700000 0 0 1
21.527123 16.695889 23.953947 36.276181 0.659669 0.849549 0.083933 -0.026483 235229.000000 0 0 1
22.775623 17.602089 23.727447 37.303542 0.657964 0.881409 0.081696 -0.024578 -25448.700000 0 0 1
22.959723 17.924689 22.339247 36.708110 0.662862 0.916546 0.089624 -0.024388 507058.000000 0 0 1
24.105123 18.710089 21.970947 37.601155 0.660051 0.946760 0.082659 -0.026040 153439.000000 0 0 1
24.267823 20.122589 22.617147 38.799242 0.692287 0.948469 0.111031 -0.035449 -965401.000000 0 0 1
23.263123 21.024589 22.355647 38.509495 0.734896 0.951425 0.105186 -0.029674 -710638.000000 0 0 1
23.352123 22.213089 23.063647 39.631740 0.760405 0.949673 0.128471 -0.030169 308352.000000 0 0 1
22.413623 23.414579 22.712447 39.578634 0.807236 0.959589 0.110930 -0.033416 304121.000000 0 0 1
22.795623 24.051429 21.493747 39.498010 0.812198 0.995393 0.116068 -0.027631 -214202.000000 0 0 1
21.768023 24.921629 21.165847 39.280116 0.852840 1.001732 0.105666 -0.017800 -431651.000000 0 0 1
22.076723 25.869579 20.010847 39.459483 0.864340 1.038952 0.093010 -0.017581 -203094.000000 0 0 1
22.029523 25.355279 18.672247 38.429713 0.855469 1.063426 0.072415 -0.019180 478726.000000 0 0 1
22.740423 26.288579 17.790447 39.047615 0.857641 1.097740 0.070563 -0.020981 333234.000000 0 0 1
22.762023 25.687049 16.380747 38.029765 0.845698 1.125489 0.062147 -0.010596 574752.000000 0 0 1
21.476923 25.429019 15.789347 36.840151 0.869455 1.127864 0.052611 -0.013330 404479.000000 0 0 1
21.647023 24.892849 14.511547 36.039319 0.855028 1.156377 0.061353 -0.011470 -782494.000000 0 0 1
20.372823 24.349829 13.889647 34.653836 0.874091 1.158394 0.065948 -0.014729 613452.000000 0 0 1
19.252723 25.182929 13.531847 34.466768 0.918070 1.167333 0.068272 -0.008345 501356.000000 0 0 1
18.571823 25.827969 14.585747 34.996294 0.947394 1.140896 0.061125 -0.015703 -298149.000000 0 0 1
17.020323 25.720889 14.454547 34.061554 0.986218 1.132535 0.076836 -0.020557 429988.000000 0 0 1
16.482723 24.367749 14.552847 32.821528 0.976075 1.111415 0.080415 -0.020269 116494.000000 0 0 1
16.342623 23.719269 15.826747 32.865954 0.967490 1.068369 0.088205 -0.012572 -659501.000000 0 0 1
15.201623 24.292289 16.651347 33.143204 1.011636 1.044417 0.143994 -0.028537 -523216.000000 0 0 1
15.556523 25.499989 17.265647 34.501557 1.023013 1.046700 0.111900 -0.029677 390329.000000 0 0 1
14.464623 26.136369 17.928947 34.839378 1.065324 1.030235 0.136101 -0.035307 397132.000000 0 0 1
14.978723 27.410449 18.648047 36.379177 1.070675 1.032584 0.137711 -0.043025 7356.870000 0 0 1
15.134823 28.552449 17.790047 36.888900 1.083382 1.067563 0.133567 -0.039496 -15695.800000 0 0 1
15.684523 29.633439 18.418247 38.254108 1.083996 1.068464 0.096562 -0.035449 -403724.000000 0 0 1
15.496823 30.995229 17.760547 38.939604 1.107169 1.097183 0.109025 -0.027670 17958.700000 0 0 1
14.162723 31.475689 17.762047 38.817419 1.147978 1.095525 0.127728 -0.033719 235023.000000 0 0 1
13.973623 32.763014 17.130847 39.523957 1.167651 1.122502 0.102633 -0.032470 -418292.000000 0 0 1
12.591823 33.207482 17.631747 39.650591 1.208361 1.109982 0.118226 -0.040734 -468788.000000 0 0 1
12.190623 -33.226768 17.010547 39.268156 -1.219153 1.122768 0.118284 -0.028017 138137.000000 0 0 1
12.885223 -31.965548 17.264847 38.547376 -1.187623 1.106396 0.104300 -0.035168 7250.010000 0 0 1
13.025523 -31.692098 18.746747 39.057571 -1.180841 1.070167 0.120095 -0.043775 -344773.000000 0 0 1
13.988623 -32.507328 19.375747 40.346345 -1.164426 1.069873 0.131354 -0.040985 -41750.300000 0 0 1
13.992623 -32.355958 20.826947 40.944636 -1.162625 1.037167 0.120886 -0.039512 398711.000000 0 0 1
15.249323 -32.982728 21.542747 42.243250 -1.137726 1.035648 0.103195 -0.037254 451049.000000 0 0 1
16.455623 -32.334278 21.242447 42.042058 -1.100037 1.041105 0.108236 -0.036353 -373889.000000 0 0 1
17.494023 -32.756128 22.121147 43.224413 -1.080267 1.033547 0.136885 -0.036063 337916.000000 0 0 1
18.808723 -32.005648 21.796047 43.048777 -1.039493 1.039895 0.125180 -0.037357 -1707.390000 0 0 1
18.762023 -30.607818 21.934847 42.071244 -1.020886 1.022336 0.149279 -0.043007 -191794.000000 0 0 1
19.962223 -29.997888 21.548747 41.984665 -0.983634 1.031826 0.134751 -0.036855 -510367.000000 0 0 1
-5.015477 12.944742 18.781185 23.354963 -1.201153 0.636531 0.016478 -0.001231 -252983.000000 0 1 0
-4.634477 14.132342 18.169685 23.480608 -1.253913 0.685952 0.019406 -0.007281 1101820.000000 0 1 0
-5.818677 14.838642 17.695985 23.815755 -1.197093 0.733200 0.014518 -0.006254 986893.000000 0 1 0
-5.536677 16.321242 17.459985 24.533423 -1.243747 0.778907 0.032432 -0.013997 -17808.900000 0 1 0
-4.965177 16.912342 18.629085 25.646113 -1.285237 0.757741 0.042534 -0.015156 331109.000000 0 0 1
-4.663177 18.257142 18.258385 26.238085 -1.320726 0.801161 0.051579 -0.012108 -778704.000000 0 0 1
-4.041277 18.900242 19.443385 27.415257 -1.360147 0.782408 0.053648 -0.011916 -797536.000000 0 0 1
-4.852177 19.075142 20.551485 28.456427 -1.321707 0.763806 0.039675 -0.009445 -141747.000000 0 0 1
-4.244177 20.009342 21.410885 29.611025 -1.361784 0.762558 0.045130 -0.004719 -169740.000000 0 0 1
-5.175977 20.319142 22.569385 30.806419 -1.321367 0.748634 0.034982 -0.007392 -69042.500000 0 0 1
-5.555977 19.211442 23.389925 30.773966 -1.289276 0.707398 0.037236 -0.016031 -127277.000000 0 0 1
-6.238477 19.612042 24.587455 32.063901 -1.262823 0.696914 0.034236 -0.023775 -131433.000000 0 0 1
-5.501077 20.275442 25.741865 33.226481 -1.305857 0.684493 0.028210 -0.020825 -959948.000000 0 0 1
-5.093477 21.616842 25.563745 33.863497 -1.339392 0.715286 0.042293 -0.015849 279987.000000 0 0 1
-3.931877 22.014542 26.275455 34.503613 -1.394056 0.705129 0.034331 -0.009227 1065370.000000 0 0 1
-2.523077 21.464142 25.883865 33.720169 -1.453785 0.695696 0.041914 -0.006481 58108.600000 0 0 1
-2.256977 20.182342 26.355465 33.272082 -1.459430 0.656523 0.054248 -0.008022 -560203.000000 0 0 1
-0.922977 19.864642 26.100205 32.812751 -1.524366 0.651082 0.053594 -0.004894 -197023.000000 0 0 1
-0.381577 18.551242 26.785745 32.584818 -1.550230 0.605827 0.062047 -0.003923 -199784.000000 0 0 1
-0.851577 17.309142 26.341065 31.530673 -1.521638 0.581916 0.065916 -0.009212 -339668.000000 0 0 1
-0.023877 16.222842 26.705765 31.247065 -1.569324 0.545892 0.070177 -0.011604 466627.000000 0 0 1
1.344923 16.071342 25.954465 30.557014 1.487306 0.555990 0.084526 -0.015415 -15998.000000 0 0 1
1.397323 15.879442 24.557045 29.277255 1.483027 0.575766 0.080407 -0.015017 -484284.000000 0 0 1
0.876423 14.672642 24.077455 28.209545 1.511135 0.548089 0.087241 -0.018283 2918.870000 0 0 1
1.238123 14.514942 22.583685 26.874511 1.485702 0.572889 0.102061 -0.029184 415013.000000 0 0 1
2.613523 14.310142 22.300485 26.625595 1.390153 0.577998 0.088737 -0.022774 -32694.900000 0 0 1
2.807023 13.906342 20.963585 25.312796 1.371621 0.594941 0.083739 -0.023608 -211529.000000 0 0 1
4.287123 13.912142 20.580385 25.208716 1.271873 0.615648 0.072354 -0.022535 -175132.000000 0 0 1
4.680023 15.072242 19.854585 25.362958 1.269729 0.671614 0.071963 -0.031720 830594.000000 0 0 1
6.117723 15.099542 19.766085 25.614856 1.185850 0.689342 0.070439 -0.027221 1032330.000000 0 0 1
6.771723 16.078442 18.763085 25.620810 1.172176 0.749048 0.084546 -0.032513 -27048.300000 0 0 1
6.675523 15.593242 17.464085 24.345556 1.166300 0.770817 0.084221 -0.037601 73366.400000 0 1 0
6.926723 16.608942 16.517885 24.426972 1.175680 0.828184 0.081194 -0.030784 -151708.000000 0 1 0
6.778523 15.927542 15.069385 22.950411 1.168430 0.854486 0.075283 -0.029418 240150.000000 0 1 0
7.874823 15.145842 14.603485 22.464887 1.091330 0.863135 0.072744 -0.027986 385810.000000 0 1 0
8.252223 14.030142 15.351385 22.374296 1.039115 0.814658 0.075385 -0.025012 -386222.000000 0 1 0
9.397523 13.156342 14.810085 21.925816 0.950540 0.829203 0.079362 -0.028862 -73037.400000 0 1 0
10.657523 13.789842 14.802985 22.866371 0.912829 0.866669 0.070984 -0.030939 -437320.000000 0 1 0
11.518223 13.066842 13.961585 22.323478 0.848305 0.895125 0.075045 -0.024827 373950.000000 0 1 0
12.935423 13.745442 13.918485 23.451793 0.815748 0.935404 0.073598 -0.015812 381470.000000 0 1 0
13.660923 13.496242 15.126285 24.445324 0.779334 0.903607 0.066448 -0.019539 -149490.000000 0 1 0
14.956623 14.010842 15.199685 25.515382 0.752760 0.932651 0.055869 -0.016044 -184975.000000 0 0 1
16.066723 13.129742 14.571785 25.354815 0.685142 0.958541 0.063137 -0.018410 36779.000000 0 0 1
17.328323 13.800442 14.547685 26.502040 0.672548 0.989716 0.065218 -0.031997 874895.000000 0 0 1
18.207323 13.315642 13.530385 26.303693 0.631448 1.030499 0.072234 -0.031086 911033.000000 0 0 1
19.677623 13.862342 13.621985 27.657401 0.613721 1.055807 0.067226 -0.036464 848529.000000 0 0 1
20.442423 13.243442 14.643185 28.420139 0.574856 1.029509 0.050778 -0.038346 1168370.000000 0 0 1
21.859423 13.478442 14.453985 29.468975 0.552533 1.058154 0.077118 -0.046539 900576.000000 0 0 1
22.602623 13.320042 15.768685 30.609696 0.532525 1.029610 0.086933 -0.032000 -429409.000000 0 0 1
22.774523 11.942442 16.177785 30.381270 0.482959 1.009254 0.089738 -0.027536 283768.000000 0 0 1
23.777923 11.947442 17.157885 31.662660 0.465613 0.998104 0.072487 -0.025396 -487255.000000 0 0 1
24.265623 10.580142 17.570085 31.772122 0.411162 0.984832 0.095168 -0.019787 -546264.000000 0 0 1
23.277023 9.767742 18.160185 31.096960 0.397314 0.947166 0.060873 -0.016305 243893.000000 0 0 1
23.034523 8.585142 17.400485 30.117616 0.356759 0.954826 0.058434 0.002526 367638.000000 0 0 1
21.763123 7.781142 17.858885 29.208209 0.343374 0.912925 0.088559 -0.009556 394853.000000 0 0 1
21.560223 6.587042 17.163585 28.334096 0.296512 0.920079 0.110641 -0.015245 148738.000000 0 0 1
20.513223 5.875142 17.777285 27.773035 0.278940 0.876179 0.107950 -0.016306 -287888.000000 0 0 1
20.362323 4.468542 17.134285 26.984733 0.216027 0.882837 0.132568 -0.017380 -349857.000000 0 0 1
19.647423 4.385342 15.882185 25.641690 0.219602 0.902832 0.130085 -0.025146 660914.000000 0 0 1
19.603323 3.120242 15.234685 25.022426 0.157845 0.916197 0.125506 -0.029504 -400839.000000 0 0 1
18.659723 2.131542 15.956585 24.644296 0.113739 0.866529 0.137305 -0.024197 -511843.000000 0 1 0
19.001023 1.651442 17.240585 25.709996 0.086695 0.835807 0.143715 -0.032672 453166.000000 0 0 1
18.019823 0.710442 17.672085 25.249185 0.039405 0.795529 0.135051 -0.042067 99367.500000 0 0 1
18.434723 0.083542 19.032985 26.497179 0.004532 0.769437 0.151447 -0.043615 -24093.900000 0 0 1
18.966023 -1.262258 18.956885 26.845238 -0.066456 0.786744 0.153761 -0.034009 218618.000000 0 0 1
17.961223 -2.177558 19.266985 26.430362 -0.120648 0.753978 0.111245 -0.014567 -163954.000000 0 0 1
18.262123 -3.548358 18.555685 26.275643 -0.191910 0.786689 0.093355 -0.008982 34107.600000 0 0 1
18.125323 -3.477258 17.134585 25.183579 -0.189542 0.822505 0.120069 -0.034516 299845.000000 0 0 1
18.100623 -4.761258 16.590885 25.011190 -0.257217 0.845525 0.142158 -0.033062 -355394.000000 0 0 1
17.591423 -4.624058 15.122085 23.654123 -0.257044 0.877208 0.130001 -0.040590 -506554.000000 0 1 0
16.197623 -4.451058 14.976785 22.505088 -0.268177 0.842654 0.118535 -0.045004 191947.000000 0 1 0
15.653523 -4.427858 13.687385 21.259897 -0.275665 0.871326 0.106077 -0.039463 175326.000000 0 1 0
16.087223 -3.203858 12.879885 20.855572 -0.196583 0.905140 0.104482 -0.033815 -379293.000000 0 1 0
15.410423 -2.083458 13.399185 20.527058 -0.134383 0.859578 0.103472 -0.022207 265049.000000 0 1 0
15.864723 -0.845758 12.851085 20.434166 -0.053260 0.890656 0.102539 -0.018938 -324687.000000 0 1 0
14.828223 0.239142 13.065085 19.764358 0.016126 0.848589 0.099705 -0.015816 -646255.000000 0 1 0
15.089823 1.549942 12.624585 19.735380 0.102355 0.876697 0.094883 -0.016143 710487.000000 0 1 0
16.015623 2.332342 13.443485 21.039660 0.144613 0.877652 0.113703 -0.023811 328081.000000 0 1 0
16.161523 3.795642 12.929785 21.042364 0.230676 0.909089 0.091325 -0.020764 -326832.000000 0 1 0
15.227223 4.705242 13.413085 20.830710 0.299695 0.871200 0.076864 -0.008532 -75935.000000 0 1 0
15.229323 5.859442 12.519885 20.567277 0.367289 0.916339 0.087163 -0.019517 368917.000000 0 1 0
14.179723 7.001742 12.736085 20.305093 0.458664 0.892797 0.063928 -0.010508 230636.000000 0 1 0
14.434123 8.016742 11.790585 20.288666 0.506981 0.950666 0.045233 -0.022751 -92900.400000 0 1 0
13.726323 9.184342 11.955185 20.388490 0.589688 0.944227 0.041352 -0.013188 -809719.000000 0 1 0
13.973823 9.995342 13.302185 21.728385 0.620914 0.911952 0.062606 -0.012934 -52177.500000 0 1 0
13.505123 9.381142 14.522185 21.938278 0.607117 0.847370 0.067781 -0.015645 538274.000000 0 1 0
14.025323 9.940142 15.722185 23.295991 0.616560 0.829983 0.084842 -0.023913 -36521.000000 0 1 0
13.631023 9.115142 17.010785 23.627472 0.589413 0.767055 0.078624 -0.030519 -2849.160000 0 1 0
12.331923 9.333842 17.505085 23.358616 0.647893 0.723632 0.075588 -0.030047 -171343.000000 0 1 0
11.915223 8.618442 18.692585 23.783667 0.626202 0.666578 0.102637 -0.025598 -95893.100000 0 1 0
12.513423 8.959642 20.107485 25.321373 0.621385 0.653285 0.122570 -0.018747 -619512.000000 0 0 1
13.863623 8.610342 20.062985 25.862355 0.555771 0.682877 0.133231 -0.025606 -544882.000000 0 0 1
14.497623 8.586942 21.327185 27.180241 0.534739 0.668653 0.126600 -0.021223 -741224.000000 0 0 1
15.962523 8.212942 21.241785 27.811293 0.475191 0.701643 0.115269 -0.022182 -814229.000000 0 0 1
16.805023 9.240442 20.807785 28.297676 0.502737 0.744661 0.118401 -0.017474 -422402.000000 0 0 1
17.543323 8.801342 19.717485 27.821054 0.465000 0.783107 0.088111 -0.012974 -245763.000000 0 0 1
18.414623 9.941242 19.132885 28.354787 0.495022 0.830147 0.085175 -0.012773 -141199.000000 0 0 1
19.518023 10.356442 19.885485 29.726110 0.487834 0.837992 0.076960 -0.015305 -238329.000000 0 0 1
20.430723 11.059342 19.101485 30.076406 0.496146 0.882660 0.066327 -0.023092 -528593.000000 0 0 1
21.162123 12.110242 19.938685 31.496739 0.519773 0.885323 0.059318 -0.016536 -326470.000000 0 0 1
20.365223 13.296642 20.223385 31.631129 0.578418 0.877143 0.047508 -0.016379 442931.000000 0 0 1
20.953723 14.236942 21.052085 32.938417 0.596798 0.877424 0.056206 -0.018674 -137380.000000 0 0 1
22.228923 14.968842 20.496785 33.738842 0.592646 0.917871 0.030877 -0.010305 655843.000000 0 0 1
23.379723 14.104342 20.429785 34.101613 0.542822 0.928438 0.008066 -0.004623 -858467.000000 0 0 1
24.483523 14.886142 20.361485 35.151532 0.546286 0.952989 0.011815 -0.014528 -1015080.000000 0 0 1
25.826523 14.115442 20.476185 35.854277 0.500189 0.962958 0.008156 -0.018010 177329.000000 0 0 1
26.164823 13.463942 19.268885 35.173365 0.475245 0.991033 0.029285 -0.034140 -255442.000000 0 0 1
27.383023 12.798242 19.410185 35.921863 0.437212 0.999950 0.068468 -0.043387 -450600.000000 0 0 1
27.815723 12.079142 18.105285 35.318854 0.409684 1.032558 0.114471 -0.050037 -128917.000000 0 0 1
28.376023 12.928942 17.090385 35.558930 0.427525 1.069433 0.129610 -0.059074 216698.000000 0 0 1
28.651023 12.132142 15.950885 34.964278 0.400553 1.097070 0.167031 -0.068013 -112904.000000 0 0 1
27.497323 11.602242 15.036085 33.418537 0.399277 1.104107 0.152257 -0.064854 3701.380000 0 0 1
27.047323 12.626542 14.207685 33.058215 0.436763 1.126550 0.171093 -0.068347 -304753.000000 0 0 1
25.982523 12.167342 13.430285 31.678199 0.437959 1.132983 0.164701 -0.062004 -270329.000000 0 0 1
25.474623 13.202642 12.408685 31.260864 0.478154 1.162616 0.151680 -0.062095 -123300.000000 0 0 1
24.712623 14.253042 12.934485 31.323535 0.523150 1.145125 0.123332 -0.061165 83738.400000 0 0 1
24.475923 15.232842 11.945885 31.206000 0.556699 1.177963 0.106116 -0.051403 152602.000000 0 0 1
23.666423 16.466842 12.490585 31.420872 0.607894 1.161978 0.098481 -0.044106 -227364.000000 0 0 1
22.305223 16.160842 12.596185 30.287946 0.627001 1.141885 0.109180 -0.053212 -314736.000000 0 0 1
21.472123 17.248042 12.937685 30.429110 0.676735 1.131642 0.087195 -0.043202 -480897.000000 0 0 1
20.774723 17.979342 11.680285 29.854228 0.713392 1.168813 0.112180 -0.035416 619980.000000 0 0 1
19.579923 17.336142 11.250885 28.469240 0.724692 1.164517 0.100016 -0.036667 682621.000000 0 0 1
18.459723 17.422942 12.125685 28.130989 0.756513 1.125147 0.089304 -0.030560 -217821.000000 0 0 1
17.072723 16.964942 11.604685 26.719952 0.782232 1.121527 0.082831 -0.019355 154829.000000 0 0 1
17.043723 15.626542 11.271385 25.723947 0.742047 1.117238 0.078618 -0.025014 77280.100000 0 0 1
15.814723 15.307042 10.666685 24.457906 0.769087 1.119509 0.071711 -0.025998 -77642.100000 0 1 0
15.747623 14.000742 9.934985 23.296187 0.726744 1.130216 0.075026 -0.028333 -89065.000000 0 1 0
16.097623 12.939942 10.781985 23.298643 0.677079 1.089675 0.072024 -0.022721 465293.000000 0 1 0
16.606423 11.845342 10.024785 22.728434 0.619596 1.114008 0.081248 -0.020061 -36982.900000 0 1 0
16.977123 10.575342 10.839985 22.750073 0.557100 1.074148 0.082750 -0.032894 -1319460.000000 0 1 0
17.785923 9.739742 10.120985 22.663538 0.501006 1.107862 0.097685 -0.029049 -128647.000000 0 1 0
18.283623 8.622042 10.809885 22.923440 0.440648 1.079732 0.105803 -0.027337 478714.000000 0 1 0
19.456223 8.896642 11.801685 24.433064 0.428879 1.066695 0.096818 -0.037619 -604308.000000 0 1 0
18.989623 9.630042 12.920885 24.905677 0.469328 1.025358 0.088491 -0.038133 -683175.000000 0 1 0
19.895823 9.758642 13.932585 26.176168 0.456008 1.009526 0.083283 -0.031900 -1585840.000000 0 0 1
19.217323 9.952842 15.332385 26.522568 0.477873 0.954412 0.052692 -0.020561 472161.000000 0 0 1
18.520023 8.803342 15.841785 25.912395 0.443727 0.913019 0.053998 -0.014906 285676.000000 0 0 1
17.490623 8.238042 15.082785 24.520963 0.440178 0.908287 0.069065 -0.022851 -1127100.000000 0 1 0
17.103823 6.905642 15.710985 24.229398 0.383734 0.865281 0.091686 -0.027583 -231942.000000 0 1 0
16.233223 6.904942 16.818085 24.373013 0.402174 0.809267 0.104138 -0.024715 -3877.020000 0 1 0
15.751823 5.579942 16.951385 23.803469 0.340448 0.778256 0.104166 -0.018099 -1173750.000000 0 1 0
14.440923 5.431242 17.717685 23.493723 0.359735 0.716444 0.093877 -0.027593 -475130.000000 0 1 0
13.978423 4.093942 17.809785 23.007501 0.284908 0.685526 0.104087 -0.021760 277270.000000 0 1 0
13.630723 3.461542 16.588385 21.747492 0.248694 0.703207 0.106673 -0.020539 -806014.000000 0 1 0
13.345823 1.980342 16.689085 21.460622 0.147312 0.679860 0.108341 -0.014754 727827.000000 0 1 0
14.559523 1.199042 16.860185 22.308816 0.082169 0.713977 0.111415 -0.018067 1074030.000000 0 1 0
14.462023 -0.186958 16.579085 22.001162 -0.012927 0.717343 0.116299 -0.009917 301382.000000 0 1 0
13.446523 -0.965358 17.508185 22.097001 -0.071669 0.656173 0.104119 -0.012299 2575180.000000 0 1 0
12.013723 -0.726058 17.300385 21.075105 -0.060362 0.607825 0.095965 -0.015005 1326070.000000 0 1 0
11.182423 -1.446858 18.119785 21.341664 -0.128672 0.556643 0.090065 -0.016925 -231654.000000 0 1 0
-27.035687 14.478842 28.595205 41.931504 -0.491678 0.820370 0.071905 -0.012517 -8505.360000 0 0 1
-25.969207 14.351942 29.528545 41.860637 -0.504877 0.787807 0.072743 -0.008582 634657.000000 0 0 1
-25.646857 12.995242 29.655535 41.304823 -0.468993 0.769918 0.073413 -0.004840 574083.000000 0 0 1
-24.339577 12.616442 30.461805 40.981840 -0.478220 0.732806 0.059695 -0.010067 528238.000000 0 0 1
-24.490077 12.869042 31.854147 42.190791 -0.483823 0.715139 0.064925 -0.015084 -262549.000000 0 0 1
-23.324177 12.902542 32.622580 42.127492 -0.505284 0.685066 0.070260 -0.017074 -966674.000000 0 0 1
-23.660977 13.143842 -33.614883 43.157418 -0.507062 2.463690 0.074368 -0.012758 -308303.000000 0 0 1
-24.306277 12.114142 -32.912303 42.670449 -0.462363 2.451699 0.058687 -0.011134 9507.280000 0 0 1
-24.729677 12.558042 -31.656693 42.088093 -0.469878 2.422120 0.042205 -0.006279 -25286.300000 0 0 1
-25.616127 11.525742 -30.931623 41.782700 -0.422805 2.404309 0.036824 -0.012363 -106717.000000 0 0 1
-24.888177 10.478142 -30.330813 40.609987 -0.398485 2.414155 0.044707 -0.014651 173930.000000 0 0 1
-24.510777 9.422042 -31.171583 40.758075 -0.366990 2.441520 0.045305 -0.020826 -123567.000000 0 0 1
-23.620077 8.402042 -30.437103 39.432469 -0.341758 2.452588 0.039531 -0.010799 -364516.000000 0 0 1
-24.305477 7.532342 -29.550403 38.996393 -0.300517 2.430689 0.042996 -0.014658 179121.000000 0 0 1
-23.508877 6.648742 -28.744453 37.724218 -0.275620 2.437135 0.041118 -0.010356 -331827.000000 0 0 1
-24.250277 6.058442 -27.531893 37.185828 -0.244818 2.404442 0.042835 -0.006441 91566.200000 0 0 1
-25.110747 5.021542 -28.039893 37.973689 -0.197372 2.401496 0.045065 -0.017108 380168.000000 0 0 1
-25.291877 3.997042 -27.093583 37.278917 -0.156740 2.384419 0.070785 -0.013098 -136604.000000 0 0 1
-26.077627 2.748542 -27.677043 38.126314 -0.105011 2.383182 0.081658 -0.012291 590590.000000 0 0 1
-27.473647 2.858742 -27.866393 39.236584 -0.103681 2.360599 0.077438 -0.018376 230038.000000 0 0 1
-27.873147 3.661342 -28.952923 40.355786 -0.130610 2.370919 0.077046 -0.017864 -432809.000000 0 0 1
-29.251157 3.354942 -29.585103 41.739240 -0.114195 2.358603 0.101664 -0.021960 114238.000000 0 0 1
-30.400687 3.642542 -28.787843 42.026299 -0.119249 2.325394 0.094492 -0.024286 -328648.000000 0 0 1
-31.569687 3.756442 -29.501743 43.371751 -0.118432 2.318840 0.105398 -0.020291 -635622.000000 0 0 1
-31.804707 5.150842 -30.121003 44.106070 -0.160558 2.322551 0.098126 -0.030532 -222789.000000 0 0 1
-30.804357 5.596242 -31.073543 44.111126 -0.179711 2.352427 0.101929 -0.032638 682755.000000 0 0 1
-31.016527 6.920942 -31.561353 44.788876 -0.219541 2.352754 0.094225 -0.031471 -497519.000000 0 0 1
-30.679577 8.124342 -30.597023 44.084228 -0.258871 2.337907 0.067368 -0.028831 -326203.000000 0 0 1
-29.290487 8.224742 -30.410443 43.015974 -0.273750 2.355983 0.046004 -0.032659 -123625.000000 0 0 1
-28.670387 7.544542 -29.290693 41.675603 -0.257314 2.350159 0.034960 -0.026679 -358411.000000 0 0 1
-28.760617 8.249742 -27.868993 40.889022 -0.279342 2.320711 0.027058 -0.018378 -441767.000000 0 0 1
-30.042077 8.468542 -27.350283 41.500368 -0.274760 2.290334 0.028315 -0.015582 -255010.000000 0 0 1
-30.740777 7.316642 -26.900833 41.499198 -0.233663 2.276048 0.037624 -0.011580 413424.000000 0 0 1
-32.131567 7.756542 -26.295513 42.238082 -0.236868 2.242799 0.031077 -0.012824 567083.000000 0 0 1
-32.035887 8.651042 -25.200903 41.668022 -0.263751 2.220314 0.007873 -0.011146 -41086.200000 0 0 1
-31.849357 7.949042 -23.988553 40.657342 -0.244586 2.201877 0.019616 -0.010070 112302.000000 0 0 1
-31.257297 8.886542 -22.875953 39.740388 -0.276994 2.184177 0.026051 -0.011241 406360.000000 0 0 1
-32.189617 9.907442 -22.484953 40.495703 -0.298582 2.159451 0.027760 -0.011747 1048240.000000 0 0 1
-31.509967 10.830542 -21.609153 39.713148 -0.331067 2.146149 0.047775 -0.023684 19322.400000 0 0 1
-32.477087 11.840942 -20.967453 40.430226 -0.349616 2.116019 0.053183 -0.017140 -430915.000000 0 0 1
-33.301927 11.220842 -20.018853 40.443542 -0.324995 2.088611 0.063195 -0.020451 174974.000000 0 0 1
-34.174025 12.060242 -19.254353 41.037099 -0.339262 2.059174 0.049002 -0.017976 -126134.000000 0 0 1
-33.594197 13.196642 -18.345953 40.488213 -0.374306 2.041057 0.068548 -0.028158 -108435.000000 0 0 1
-32.884657 12.683042 -17.175553 39.207905 -0.368103 2.024240 0.113052 -0.031738 817988.000000 0 0 1
-33.683207 12.249242 -16.063353 39.276376 -0.348792 1.992135 0.097001 -0.023147 -201656.000000 0 0 1
-34.227874 13.230742 -14.992453 39.640554 -0.368857 1.958658 0.084403 -0.012672 -267083.000000 0 0 1
-35.038005 14.153542 -15.644853 40.899217 -0.383905 1.963321 0.066190 -0.017796 159858.000000 0 0 1
-36.042037 14.686242 -14.781953 41.631962 -0.386934 1.933777 0.037807 -0.006472 568108.000000 0 0 1
-36.813767 15.941042 -15.311953 42.939797 -0.408643 1.935413 0.020885 -0.011780 232712.000000 0 0 1
-37.539037 15.718942 -16.488453 43.910517 -0.396553 1.955734 0.013954 -0.012311 38432.900000 0 0 1
36.890904 16.827942 -16.921653 43.937009 0.427960 1.966150 0.003388 -0.010968 -574922.000000 0 0 1
36.429154 16.727942 -18.443553 44.125638 0.430471 2.002015 0.013591 -0.013707 76353.700000 0 0 1
35.608514 15.594242 -18.681353 43.129335 0.412776 2.018778 0.028822 -0.009638 556269.000000 0 0 1
34.240234 15.825642 -18.351753 41.947960 0.432948 2.023600 0.063897 -0.014881 -277896.000000 0 0 1
33.390644 14.576542 -18.587653 40.901241 0.411609 2.042553 0.089458 -0.019931 -308478.000000 0 0 1
33.206534 14.206442 -19.957353 41.264910 0.404257 2.075605 0.098425 -0.020596 96546.400000 0 0 1
32.639514 12.940442 -20.259253 40.536776 0.377456 2.094135 0.064503 -0.013221 -203768.000000 0 0 1
33.319984 11.688642 -19.723753 40.445916 0.337387 2.080201 0.079048 -0.009528 -471386.000000 0 0 1
33.146484 11.558042 -18.325753 39.599380 0.335513 2.051924 0.091127 -0.009829 45333.300000 0 0 1
33.855814 10.475742 -17.776653 39.648035 0.300078 2.035728 0.075185 -0.016875 -159993.000000 0 0 1
33.818764 10.398342 -16.254853 38.936545 0.298298 2.001456 0.066551 -0.012453 307102.000000 0 0 1
32.541374 10.050342 -15.709153 37.506371 0.299554 2.002963 0.092615 -0.015211 515439.000000 0 0 1
32.574764 9.931642 -14.273853 36.925542 0.295935 1.967693 0.073633 -0.010837 -203842.000000 0 0 1
31.931934 11.005142 -13.401853 36.336912 0.331895 1.948538 0.081998 -0.011188 -1110920.000000 0 0 1
30.544334 11.018342 -13.475653 35.156129 0.346204 1.964172 0.087931 -0.018866 -656056.000000 0 0 1
30.127264 12.176042 -12.702953 34.889440 0.384082 1.943454 0.091393 -0.020406 -286506.000000 0 0 1
28.600264 12.305642 -12.826953 33.673946 0.406320 1.961583 0.108392 -0.014743 -790236.000000 0 0 1
27.972564 11.218942 -12.155753 32.497558 0.381428 1.954170 0.106781 -0.022608 36651.300000 0 0 1
26.596364 11.153842 -12.487253 31.427794 0.397096 1.979403 0.106001 -0.008131 63592.800000 0 0 1
26.191864 10.521242 -13.829653 31.431983 0.381970 2.026380 0.105657 -0.026106 -820408.000000 0 0 1
26.470464 9.123442 -14.035053 31.319408 0.331914 2.035465 0.115411 -0.026464 1234490.000000 0 0 1
27.847864 8.942942 -14.452453 32.624425 0.310733 2.029733 0.117648 -0.032488 1077790.000000 0 0 1
28.584764 7.955742 -13.477053 32.588549 0.271451 1.997148 0.125732 -0.031437 9099.600000 0 0 1
28.100664 6.614242 -13.581953 31.903996 0.231169 2.010546 0.132013 -0.040621 721833.000000 0 0 1
27.037464 6.179942 -12.738053 30.520061 0.224709 2.001342 0.154374 -0.042830 81675.800000 0 0 1
26.672464 4.709342 -12.851353 29.979251 0.174761 2.013822 0.163061 -0.048251 -167411.000000 0 0 1
25.665764 4.339742 -11.932553 28.634780 0.167502 2.000625 0.181883 -0.042256 689022.000000 0 0 1
25.260564 2.966142 -12.134653 28.180558 0.116887 2.015958 0.182562 -0.048384 99632.200000 0 0 1
24.518664 2.325842 -10.897553 26.931971 0.094577 1.987373 0.173608 -0.038032 480005.000000 0 0 1
25.396564 2.227542 -9.733353 27.288927 0.087486 1.935506 0.175492 -0.035078 1110890.000000 0 0 1
25.088264 1.213642 -8.795653 26.613106 0.048337 1.907630 0.201604 -0.027843 -643708.000000 0 0 1
26.338064 0.886342 -7.973753 27.532888 0.033640 1.864614 0.240043 -0.019157 -442083.000000 0 0 1
26.286064 -0.339358 -7.231653 27.264796 -0.012909 1.839247 0.199285 -0.033310 392690.000000 0 0 1
26.618464 -1.517658 -7.971153 27.827777 -0.056954 1.861312 0.152008 -0.033204 -464273.000000 0 0 1
26.727964 -2.712158 -7.030953 27.770022 -0.101127 1.826767 0.140969 -0.031156 -680705.000000 0 0 1
27.948064 -2.776358 -6.343253 28.793042 -0.099015 1.792924 0.137604 -0.043997 -18690.300000 0 0 1
28.114764 -3.990258 -5.641653 28.951517 -0.140986 1.766917 0.154411 -0.056680 -169172.000000 0 0 1
29.474064 -4.264458 -4.952953 30.190028 -0.143688 1.735601 0.123007 -0.050397 -576935.000000 0 0 1
30.495804 -4.454958 -5.850153 31.369810 -0.145058 1.758384 0.091874 -0.037299 59488.000000 0 0 1
31.688164 -5.032458 -5.283853 32.517448 -0.157497 1.734013 0.108190 -0.040464 62282.400000 0 0 1
32.648974 -5.314658 -6.403453 33.692808 -0.161366 1.762013 0.124733 -0.044786 -763941.000000 0 0 1
32.172624 -6.391258 -7.143653 33.570190 -0.196102 1.785233 0.132046 -0.047743 -20679.900000 0 0 1
32.857654 -6.502458 -8.376753 34.526473 -0.195373 1.815860 0.127355 -0.049493 -1124580.000000 0 0 1
32.081054 -7.121558 -9.582553 34.230628 -0.218444 1.854529 0.117830 -0.050077 354829.000000 0 0 1
30.857294 -6.494658 -9.900953 33.051203 -0.207446 1.875032 0.089199 -0.048404 1077370.000000 0 0 1
29.792464 -6.613158 -8.918353 31.794052 -0.218433 1.855115 0.106696 -0.037130 -353261.000000 0 0 1
28.611664 -5.628058 -9.194053 30.575038 -0.194225 1.876228 0.098185 -0.038865 150953.000000 0 0 1
27.637664 -6.132058 -10.115553 30.062718 -0.218336 1.913975 0.080239 -0.029647 253863.000000 0 0 1
26.641364 -5.175058 -10.275953 29.019626 -0.191860 1.932752 0.108725 -0.032241 -466978.000000 0 0 1
25.254164 -5.418758 -9.685653 27.585279 -0.211364 1.929560 0.139678 -0.032774 -889806.000000 0 0 1
25.382964 -5.373858 -8.263753 27.229815 -0.208631 1.879141 0.136302 -0.049138 501979.000000 0 0 1
24.248064 -5.832658 -7.562153 26.060979 -0.236057 1.865202 0.141234 -0.055151 -25718.200000 0 0 1
23.140564 -4.782858 -7.273053 24.723647 -0.203817 1.869387 0.171947 -0.035691 -219862.000000 0 1 0
22.564564 -4.314858 -8.468753 24.484634 -0.188942 1.923973 0.176510 -0.033262 255042.000000 0 1 0
22.010464 -3.030358 -8.374453 23.743947 -0.136818 1.931250 0.160872 -0.038112 -185133.000000 0 1 0
21.992464 -2.282958 -9.710653 24.149061 -0.103436 1.984620 0.166973 -0.029691 574623.000000 0 1 0
23.338564 -2.155058 -10.191653 25.557829 -0.092078 1.980970 0.154308 -0.039754 1034660.000000 0 0 1
23.451764 -1.670658 -11.461453 26.156093 -0.071118 2.024385 0.177299 -0.038321 -400830.000000 0 0 1
24.836464 -1.678058 -12.130753 27.691532 -0.067462 2.024244 0.148844 -0.033376 130218.000000 0 0 1
25.804264 -0.771958 -11.554553 28.283628 -0.029907 1.991633 0.145707 -0.047633 -282751.000000 0 0 1
27.037164 -1.123158 -12.027253 29.612911 -0.041517 1.989032 0.124288 -0.041505 -1431570.000000 0 0 1
28.171964 -0.173358 -11.566553 30.454470 -0.006153 1.960374 0.103727 -0.022306 -921780.000000 0 0 1
29.410364 -0.643458 -12.063553 31.794855 -0.021875 1.959964 0.088845 -0.027496 163102.000000 0 0 1
30.449924 0.252942 -11.653953 32.604853 0.008307 1.936311 0.091225 -0.025802 120644.000000 0 0 1
30.493654 1.587242 -12.473853 32.984531 0.052005 1.958618 0.108524 -0.033400 -846824.000000 0 0 1
30.977704 1.433842 -13.810253 33.946975 0.046253 1.989765 0.105404 -0.032883 443680.000000 0 0 1
31.058614 2.641042 -14.573553 34.409316 0.084830 2.008140 0.127182 -0.038219 -49116.700000 0 0 1
31.381904 2.401542 -16.040353 35.325404 0.076377 2.042129 0.116695 -0.037274 -157108.000000 0 0 1
30.288594 1.821342 -16.714653 34.642399 0.060061 2.074293 0.116848 -0.034160 49560.700000 0 0 1
30.410014 1.781442 -18.146453 35.457527 0.058514 2.108052 0.096751 -0.023922 -923056.000000 0 0 1
29.185464 1.271142 -18.843553 34.763293 0.043526 2.143675 0.070635 -0.017888 -908386.000000 0 0 1
28.979964 -0.083858 -18.731553 34.506759 -0.002894 2.144608 0.080571 -0.022861 259721.000000 0 0 1
28.987164 -0.803658 -19.929553 35.186483 -0.027718 2.172925 0.062929 -0.015955 -170273.000000 0 0 1
28.864364 -2.297158 -19.751553 35.050710 -0.079417 2.169429 0.068905 -0.022832 301506.000000 0 0 1
27.585064 -2.730658 -19.288953 33.770637 -0.098669 2.178733 0.065339 -0.018127 693332.000000 0 0 1
27.437164 -4.135558 -19.524653 33.928054 -0.149602 2.183978 0.064443 -0.014171 -159163.000000 0 0 1
28.120764 -5.038158 -18.459353 34.013352 -0.177281 2.144455 0.054083 -0.008942 -663240.000000 0 0 1
29.474464 -5.173758 -18.746153 35.311896 -0.173763 2.130427 0.054762 -0.013824 -1033440.000000 0 0 1
30.185544 -5.281158 -17.553953 35.315704 -0.173203 2.091001 0.054148 -0.011808 227806.000000 0 0 1
31.699214 -4.924558 -17.732953 36.654454 -0.154121 2.075773 0.077786 -0.018203 124469.000000 0 0 1
32.284544 -5.811558 -18.614653 37.716989 -0.178103 2.086946 0.062540 -0.019706 -983885.000000 0 0 1
33.641464 -5.532058 -18.715053 38.892222 -0.162983 2.072823 0.093255 -0.013027 -573927.000000 0 0 1
34.394534 -6.844758 -19.127353 39.946092 -0.196441 2.070117 0.098252 -0.008681 -106131.000000 0 0 1
34.601174 -7.834658 -18.124753 39.838797 -0.222673 2.043115 0.108808 -0.020503 157615.000000 0 0 1
35.344254 -8.861258 -18.738653 40.974080 -0.245649 2.045786 0.100380 -0.018236 -921796.000000 0 0 1
36.175884 -9.579158 -17.727553 41.409189 -0.258853 2.013193 0.115233 -0.021407 -1571700.000000 0 0 1
35.547524 -10.527458 -16.884753 40.737559 -0.287922 1.998164 0.097872 -0.020414 384436.000000 0 0 1
36.455814 -11.383458 -16.178953 41.477319 -0.302660 1.971501 0.100555 -0.034187 99536.300000 0 0 1
-37.492837 -10.696258 -15.446753 41.937155 0.277906 1.948009 0.128310 -0.035545 -389740.000000 0 0 1
-36.961397 -11.419258 -14.312153 41.247813 0.299648 1.925145 0.137627 -0.042896 484594.000000 0 0 1
-36.313897 -12.658158 -14.576753 41.126753 0.335406 1.933106 0.114436 -0.034578 -572252.000000 0 0 1
-34.869581 -12.575058 -15.078053 40.017089 0.346114 1.957125 0.122566 -0.039909 -684872.000000 0 0 1
-34.848714 -12.304858 -16.447953 40.452164 0.339428 1.989529 0.145362 -0.028018 -110846.000000 0 0 1
-33.514327 -12.235258 -16.899053 39.477711 0.350041 2.013148 0.154848 -0.037677 -67821.800000 0 0 1
-33.232387 -11.342858 -18.151053 39.528631 0.328921 2.047877 0.175133 -0.036525 163275.000000 0 0 1
-33.446867 -9.980158 -17.678053 39.125567 0.289978 2.039610 0.181797 -0.030601 607874.000000 0 0 1
-34.540480 -9.327658 -18.338853 40.204023 0.263758 2.044454 0.175884 -0.029487 431067.000000 0 0 1
-35.033679 -8.150758 -17.450253 39.978805 0.228588 2.022487 0.185511 -0.032517 -232331.000000 0 0 1
-36.193127 -7.511958 -17.906253 41.073177 0.204646 2.021901 0.180396 -0.026669 179994.000000 0 0 1
-36.821437 -6.518958 -17.109953 41.122567 0.175227 1.999918 0.165989 -0.024939 231960.000000 0 0 1
25.244623 27.378742 -27.124533 46.071974 0.825931 2.200299 0.041662 0.015374 3718.480000 0 0 1
25.606223 26.712142 -25.933783 45.186041 0.806533 2.182098 0.045864 -0.004193 392644.000000 0 0 1
26.902623 26.143142 -26.125163 45.713664 0.771082 2.179124 0.059991 -0.009679 307412.000000 0 0 1
27.370223 25.204242 -24.995053 44.823382 0.744223 2.162329 0.086477 -0.023839 -669566.000000 0 0 1
27.793923 25.870942 -23.845953 44.837900 0.749580 2.131551 0.077289 -0.016223 198941.000000 0 0 1
28.245023 24.932542 -22.850753 44.063248 0.723188 2.115997 0.084150 -0.022535 500050.000000 0 0 1
29.095623 25.547042 -21.673553 44.372846 0.720548 2.081099 0.073648 -0.007655 548817.000000 0 0 1
28.320823 26.373942 -20.813153 43.941338 0.749818 2.064236 0.066306 -0.017426 259528.000000 0 0 1
28.976723 26.547242 -19.566453 43.900485 0.741671 2.032753 0.046900 -0.005890 101952.000000 0 0 1
28.306123 27.637242 -18.721153 43.766829 0.773442 2.012796 0.050131 -0.007893 -152827.000000 0 0 1
27.063423 27.272542 -18.172753 42.502580 0.789247 2.012597 0.056155 -0.002762 37283.700000 0 0 1
26.274523 28.428842 -17.892453 42.646096 0.824760 2.003753 0.045649 -0.010409 384559.000000 0 0 1
25.028023 28.151242 -17.004653 41.328593 0.844061 1.994841 0.046864 -0.006439 -61578.200000 0 0 1
24.124123 27.310342 -17.641153 40.485039 0.847266 2.021662 0.061956 -0.007510 -80559.000000 0 0 1
22.960723 27.090442 -16.844953 39.304443 0.867722 2.013713 0.052541 0.001492 122751.000000 0 0 1
22.041523 25.981642 -17.340653 38.230520 0.867261 2.041576 0.060100 -0.008473 -864471.000000 0 0 1
21.354923 26.456542 -18.463653 38.689634 0.891699 2.068290 0.062642 -0.010569 -401498.000000 0 0 1
20.634723 25.358842 -18.989153 37.808075 0.887752 2.096997 0.069704 -0.006170 -344566.000000 0 0 1
19.806023 25.629342 -20.228153 38.187955 0.912870 2.129043 0.051670 -0.002683 -378525.000000 0 0 1
18.874523 26.625442 -19.916453 38.233844 0.954128 2.118715 0.039334 -0.000009 -984010.000000 0 0 1
17.867223 26.513142 -20.866753 38.178603 0.977802 2.149043 0.029116 0.005425 -343762.000000 0 0 1
16.661023 27.475142 -20.758453 38.254235 1.025682 2.144379 0.033291 -0.001894 63171.800000 0 0 1
15.928523 27.267242 -19.578753 37.155725 1.042103 2.125790 0.049263 0.001321 -567851.000000 0 0 1
14.927423 28.245942 -19.483253 37.420026 1.084625 2.118425 0.045293 -0.008703 -133872.000000 0 0 1
14.158723 28.121042 -18.163153 36.347800 1.104359 2.094054 0.058511 -0.009859 -183353.000000 0 0 1
13.455823 26.920542 -18.017353 35.077054 1.107281 2.110231 0.062887 -0.014802 -89778.600000 0 0 1
12.675923 26.946842 -16.803353 34.193040 1.131104 2.084523 0.081272 -0.021717 607738.000000 0 0 1
11.936823 25.573042 -16.541153 32.712046 1.134081 2.100942 0.099691 -0.018361 -2892.390000 0 0 1
12.858723 24.564242 -16.239753 32.132200 1.088547 2.100647 0.083088 -0.011714 -211408.000000 0 0 1
12.154423 23.454342 -15.807953 30.785183 1.092682 2.110046 0.106184 -0.015683 431431.000000 0 0 1
13.070923 22.219642 -16.024953 30.353923 1.039054 2.126966 0.087042 -0.020689 355707.000000 0 0 1
13.329523 21.958842 -17.389353 31.020260 1.025229 2.165883 0.082116 -0.013029 121275.000000 0 0 1
14.448423 21.093642 -17.602253 31.040908 0.970232 2.173736 0.089086 -0.016250 226306.000000 0 0 1
14.099523 19.606942 -17.695653 29.939353 0.947361 2.203156 0.107802 -0.021649 -225246.000000 0 0 1
13.553623 19.107542 -16.483853 28.644655 0.953834 2.183963 0.109546 -0.029827 -29798.500000 0 0 1
13.227623 17.709342 -16.565653 27.622665 0.929263 2.213938 0.086215 -0.030432 -1120930.000000 0 0 1
14.355023 16.710542 -16.568553 27.564938 0.861077 2.215640 0.129786 -0.027004 -1059420.000000 0 0 1
14.910323 16.570742 -15.319153 27.047803 0.838093 2.172895 0.146505 -0.041369 -1174180.000000 0 0 1
15.993123 15.749842 -15.440953 27.244458 0.777734 2.173359 0.143402 -0.038891 -2225510.000000 0 0 1
16.483923 15.328842 -14.040853 26.529958 0.749105 2.128507 0.188688 -0.040216 -445787.000000 0 0 1
17.436223 16.118842 -13.304053 27.218316 0.746158 2.081499 0.129827 -0.034617 905527.000000 0 0 1
18.584723 16.545842 -13.991853 28.546957 0.727426 2.083041 0.084242 -0.024640 -1005750.000000 0 0 1
19.566023 15.501442 -14.606853 28.922035 0.670006 2.100227 0.079759 -0.026555 -988773.000000 0 0 1
20.120123 14.547742 -13.776653 28.394582 0.626025 2.077372 0.118939 -0.025279 604597.000000 0 0 1
21.142723 14.991242 -12.878253 28.941345 0.616774 2.031946 0.106701 -0.015988 -228158.000000 0 0 1
21.796723 13.724642 -12.254053 28.524108 0.561947 2.014850 0.117928 -0.020859 33511.300000 0 0 1
20.906323 12.995142 -11.399353 27.127353 0.556143 2.004480 0.192139 -0.028273 647971.000000 0 0 1
21.523323 11.843442 -10.845653 26.854212 0.503043 1.986541 0.206868 -0.007880 -60580.400000 0 0 1
21.665523 10.568742 -11.700753 26.795537 0.453851 2.022688 0.177949 -0.012610 -364338.000000 0 0 1
22.601823 10.617542 -12.775853 28.049902 0.439168 2.043695 0.145526 -0.000802 443865.000000 0 0 1
22.630523 9.542742 -13.666253 28.106422 0.399052 2.078569 0.117843 -0.009673 -463657.000000 0 0 1
22.913523 8.125442 -13.128953 27.630087 0.340779 2.065952 0.132806 0.003509 449164.000000 0 0 1
21.803623 7.561942 -12.367353 26.182673 0.333839 2.062750 0.136319 -0.018873 1146140.000000 0 0 1
22.138723 6.548042 -11.386553 25.742057 0.287575 2.028994 0.139517 -0.000402 -699323.000000 0 0 1
21.985423 5.081242 -11.925453 25.522427 0.227131 2.056979 0.145243 -0.018444 -355563.000000 0 0 1
20.711223 4.495942 -12.026053 24.367892 0.213761 2.086929 0.105086 -0.036336 278108.000000 0 1 0
19.971923 5.017042 -13.123153 24.418549 0.246112 2.138178 0.060859 -0.044082 43356.900000 0 1 0
18.946123 4.044342 -13.834853 23.805785 0.210309 2.190944 0.058655 -0.045347 347516.000000 0 1 0
19.573323 2.905742 -14.354153 24.445859 0.147378 2.198369 0.085895 -0.062836 237446.000000 0 1 0
19.436923 1.795542 -13.465153 23.713462 0.092116 2.174660 0.122231 -0.069418 -556465.000000 0 1 0
20.388823 0.580342 -13.606453 24.518900 0.028456 2.159084 0.142970 -0.060348 -208860.000000 0 1 0
21.753723 0.883242 -13.401453 25.565670 0.040580 2.122568 0.182785 -0.041278 864251.000000 0 0 1
22.615923 1.084542 -14.541153 26.909131 0.047918 2.141685 0.142153 -0.032872 356755.000000 0 0 1
23.025123 -0.251758 -15.279553 27.634840 -0.010934 2.156648 0.137377 -0.031587 167211.000000 0 0 1
21.987623 -0.977958 -15.957153 27.185339 -0.044448 2.198115 0.133916 -0.027165 885582.000000 0 0 1
22.666023 -1.922258 -16.778553 28.265942 -0.084605 2.206316 0.122225 -0.025081 178210.000000 0 0 1
21.689023 -2.620958 -17.741453 28.143246 -0.120259 2.252862 0.129470 -0.023022 -445306.000000 0 0 1
21.010623 -3.579758 -17.013853 27.271452 -0.168758 2.244482 0.151759 -0.014919 -7024.160000 0 0 1
20.225523 -4.348258 -17.926453 27.374017 -0.211765 2.284808 0.139243 -0.004290 -60090.400000 0 0 1
19.474323 -5.505258 -17.238853 26.584491 -0.275504 2.276350 0.140432 -0.006104 -74640.700000 0 0 1
20.306623 -6.522658 -16.713253 27.096804 -0.310799 2.235464 0.142861 -0.010318 164694.000000 0 0 1
19.556823 -7.430758 -15.950753 26.308021 -0.363110 2.222205 0.152614 -0.007462 -118907.000000 0 0 1
20.421823 -8.566058 -15.428853 26.990326 -0.397166 2.179304 0.184068 -0.008681 -262162.000000 0 0 1
20.943123 -9.467058 -16.335753 28.197454 -0.424546 2.188708 0.150360 -0.018237 202804.000000 0 0 1
21.929923 -10.267858 -15.723753 28.871904 -0.437896 2.146713 0.122866 -0.031396 -74196.800000 0 0 1
22.617223 -11.303258 -16.714153 30.309492 -0.463458 2.154897 0.109627 -0.028193 706975.000000 0 0 1
23.658923 -10.725758 -17.548053 31.348376 -0.425636 2.164911 0.099497 -0.020549 774646.000000 0 0 1
24.155923 -11.678958 -18.451053 32.562985 -0.450346 2.173202 0.092105 -0.022911 -452686.000000 0 0 1
23.485723 -11.531658 -19.848253 32.840698 -0.456427 2.219783 0.117411 -0.025113 1067920.000000 0 0 1
22.078323 -11.807858 -19.888653 31.975559 -0.491112 2.242085 0.136657 -0.037990 671748.000000 0 0 1
21.676223 -13.169558 -19.777453 32.162766 -0.545958 2.233078 0.115671 -0.024365 -438320.000000 0 0 1
20.163523 -13.381058 -19.604453 31.144099 -0.585895 2.251675 0.113217 -0.019771 -99695.000000 0 0 1
19.404923 -13.073558 -20.729353 31.259799 -0.592872 2.295791 0.112088 -0.016736 -125598.000000 0 0 1
18.011123 -13.143058 -20.512553 30.296953 -0.630394 2.314543 0.111097 -0.010350 465752.000000 0 0 1
17.127523 -12.693958 -21.725153 30.437984 -0.637809 2.365636 0.103594 -0.017179 102754.000000 0 0 1
17.223723 -13.562858 -22.849553 31.665593 -0.667043 2.376891 0.084313 -0.011611 376590.000000 0 0 1
16.668923 -12.848558 -23.954553 31.886659 -0.656686 2.420736 0.097842 -0.018973 19387.900000 0 0 1
16.860523 -13.729958 -25.211553 33.292812 -0.683415 2.429915 0.089094 -0.023611 -150119.000000 0 0 1
15.802923 -14.670558 -25.396683 33.315899 -0.748256 2.437654 0.084961 -0.019080 389364.000000 0 0 1
15.911923 -15.388258 -26.632973 34.630954 -0.768669 2.448152 0.087632 -0.020561 -44865.000000 0 0 1
16.916723 -16.580058 -26.620203 35.632977 -0.775348 2.414434 0.080143 -0.014787 -54588.200000 0 0 1
18.274323 -16.244358 -26.502293 36.058308 -0.726658 2.396440 0.091189 -0.010153 -360818.000000 0 0 1
19.026323 -17.428758 -26.701563 37.131335 -0.741603 2.373319 0.105987 -0.014496 103858.000000 0 0 1
20.546723 -17.163058 -26.801853 37.882419 -0.695909 2.356752 0.119366 -0.009419 43294.400000 0 0 1
21.075523 -16.623158 -25.617613 37.104840 -0.667839 2.332854 0.118675 -0.008009 473011.000000 0 0 1
22.511723 -16.679958 -25.669003 37.998636 -0.637681 2.312472 0.120895 -0.003773 693228.000000 0 0 1
23.069723 -16.150958 -24.354953 37.232100 -0.610789 2.283839 0.117711 -0.004513 -234132.000000 0 0 1
23.040423 -14.744258 -24.146353 36.486992 -0.569264 2.293987 0.131338 -0.015074 340512.000000 0 0 1
21.729823 -14.228558 -23.899553 35.296256 -0.579738 2.314629 0.135668 -0.015957 575659.000000 0 0 1
21.744623 -12.845158 -23.265053 34.337871 -0.533574 2.315200 0.128383 -0.018642 154193.000000 0 0 1
22.074223 -11.737558 -24.139853 34.753044 -0.488709 2.338676 0.128672 -0.027117 239504.000000 0 0 1
21.994623 -10.504158 -23.419453 33.801946 -0.445550 2.336221 0.135387 -0.026327 25686.600000 0 0 1
21.876223 -9.260958 -24.299553 33.982388 -0.400459 2.367511 0.125402 -0.025202 -65307.100000 0 0 1
21.227623 -8.165858 -23.698553 32.846835 -0.367231 2.376743 0.133663 -0.024838 77474.700000 0 0 1
21.177523 -7.007658 -24.499553 33.133409 -0.319560 2.403007 0.099841 -0.021016 66925.000000 0 0 1
20.455823 -5.827358 -23.692453 31.839144 -0.277524 2.410027 0.116443 -0.028856 -238748.000000 0 0 1
19.123623 -6.183958 -23.489753 30.914766 -0.312755 2.433837 0.135654 -0.026671 -452659.000000 0 0 1
18.321623 -5.417958 -22.583853 29.581523 -0.287520 2.439426 0.137856 -0.017862 291914.000000 0 0 1
18.717723 -5.471658 -21.072453 28.711330 -0.284401 2.394904 0.145805 -0.015669 -520597.000000 0 0 1
18.334123 -6.606758 -20.258853 28.110682 -0.345868 2.375581 0.154622 -0.025855 250979.000000 0 0 1
19.063423 -7.801458 -20.506853 29.065578 -0.388444 2.353978 0.153926 -0.019458 -37398.800000 0 0 1
18.910323 -8.898658 -19.406853 28.520385 -0.439829 2.319180 0.151213 -0.024120 -513875.000000 0 0 1
17.585723 -9.291758 -19.281953 27.701771 -0.486085 2.340684 0.164169 -0.028827 -781466.000000 0 0 1
17.251423 -10.400258 -18.420753 27.296540 -0.542523 2.311542 0.163244 -0.028799 134139.000000 0 0 1
15.758023 -10.677258 -18.166853 26.312614 -0.595517 2.332871 0.154395 -0.028001 -149361.000000 0 0 1
15.020223 -9.759658 -17.420353 24.986530 -0.576212 2.342266 0.152752 -0.023625 721249.000000 0 1 0
13.685823 -9.594258 -17.920053 24.504690 -0.611421 2.391009 0.121744 -0.029980 574605.000000 0 1 0
13.073023 -8.203858 -17.691853 23.477838 -0.560424 2.424250 0.132595 -0.009018 1303390.000000 0 1 0
11.649423 -8.097958 -17.936753 22.869479 -0.607456 2.472379 0.107823 -0.020228 905846.000000 0 1 0
11.165323 -6.812958 -17.481153 21.832808 -0.547878 2.499230 0.106556 -0.019527 366104.000000 0 1 0
9.638323 -6.660758 -17.689353 21.217355 -0.604708 2.556609 0.087880 -0.016405 241934.000000 0 1 0
9.348123 -6.327858 -19.011453 22.110281 -0.595062 2.605766 0.082147 -0.024701 30462.100000 0 1 0
7.948523 -6.232958 -19.178453 21.675835 -0.665011 2.656829 0.066555 -0.031462 236365.000000 0 1 0
7.428623 -5.798158 -20.585153 22.639602 -0.662747 2.712285 0.074475 -0.038439 168329.000000 0 1 0
7.532123 -6.794258 -21.575753 23.841307 -0.733940 2.702114 0.078031 -0.030551 -41676.900000 0 1 0
6.583323 -6.595758 -22.595853 24.442110 -0.786342 2.750424 0.084495 -0.036955 -4089.830000 0 1 0
6.639123 -7.602058 -23.778553 25.831934 -0.852912 2.740180 0.082909 -0.035967 -46554.300000 0 0 1
6.173323 -8.920158 -23.577553 25.953422 -0.965416 2.710372 0.087795 -0.021389 66969.200000 0 0 1
6.401123 -9.666658 -24.773853 27.352558 -0.985902 2.703880 0.084778 -0.003936 -166160.000000 0 0 1
5.832923 -11.134258 -24.747253 27.756462 -1.088234 2.671630 0.084084 -0.007181 1479.060000 0 0 1
6.451323 -11.953158 -23.809953 27.411884 -1.075882 2.623166 0.063336 -0.011847 336743.000000 0 0 1
5.742723 -13.213558 -23.755053 27.782720 -1.160816 2.596405 0.084378 -0.019705 -64561.300000 0 0 1
6.326823 -14.078358 -22.633753 27.395540 -1.148441 2.543097 0.080958 -0.015025 609885.000000 0 0 1
7.543523 -14.796358 -22.916353 28.301876 -1.099321 2.514457 0.048728 -0.006202 1257220.000000 0 0 1
8.809823 -14.139958 -23.098553 28.479721 -1.013604 2.516746 0.084688 -0.014287 696706.000000 0 0 1
9.331523 -13.512058 -21.789753 27.284544 -0.966402 2.495781 0.067755 -0.009153 -989374.000000 0 0 1
9.751623 -14.415158 -20.779353 27.104841 -0.976028 2.444371 0.072188 -0.009061 -353325.000000 0 0 1
8.777823 -15.151358 -20.085653 26.646712 -1.045705 2.424586 0.079182 -0.011200 -583387.000000 0 0 1
9.188823 -15.839958 -18.794253 26.240478 -1.045135 2.369183 0.081259 -0.006561 125154.000000 0 0 1
10.089523 -16.928558 -18.996853 27.372522 -1.033319 2.337843 0.080158 -0.004156 -49277.400000 0 0 1
10.654023 -17.401058 -17.775653 27.060651 -1.021409 2.287472 0.078501 0.002504 -14806.800000 0 0 1
9.638923 -18.006158 -16.738153 26.406369 -1.079299 2.257340 0.078772 -0.015353 -35293.600000 0 0 1
9.153523 -19.347958 -16.986253 27.325139 -1.128899 2.241624 0.097538 -0.018363 -32610.300000 0 0 1
8.300823 -19.576258 -18.077053 27.909019 -1.169752 2.275376 0.102058 -0.013717 -294638.000000 0 0 1
6.825023 -19.223958 -17.784453 27.063412 -1.229650 2.287815 0.101214 -0.023188 -467072.000000 0 0 1
6.565323 -17.831558 -17.594953 25.896916 -1.218013 2.317772 0.101850 -0.028444 -791884.000000 0 0 1
5.240823 -17.487458 -17.847353 25.530480 -1.279624 2.344879 0.088433 -0.028654 -398848.000000 0 0 1
4.951923 -16.000158 -17.519153 24.237312 -1.270654 2.378667 0.065277 -0.024939 -53013.600000 0 1 0
4.767523 -15.776858 -16.170853 23.089716 -1.277337 2.346682 0.032353 -0.027047 169731.000000 0 1 0
4.078323 -14.561358 -16.015253 22.026216 -1.297715 2.384884 0.014850 -0.013617 -178412.000000 0 1 0
10.516423 29.457442 -18.368253 36.272975 1.227896 2.101789 0.092435 -0.037914 -704781.000000 0 0 1
9.689323 28.829642 -19.280953 36.010920 1.246568 2.135801 0.116056 -0.044554 -792456.000000 0 0 1
8.650723 28.265042 -18.539853 34.892316 1.273792 2.130984 0.094004 -0.039356 298537.000000 0 0 1
7.368623 27.780642 -19.301953 34.621179 1.311523 2.162190 0.102714 -0.036316 650754.000000 0 0 1
6.734223 28.806142 -20.013553 35.716745 1.341143 2.165594 0.120873 -0.049726 -431834.000000 0 0 1
5.957523 28.255242 -21.049653 35.734278 1.362993 2.200692 0.102927 -0.046168 318513.000000 0 0 1
4.914623 29.259442 -21.673253 36.742324 1.404383 2.201696 0.099006 -0.051419 1072750.000000 0 0 1
3.793523 29.471442 -20.775853 36.257313 1.442782 2.180972 0.093346 -0.048085 340636.000000 0 0 1
2.939223 30.480842 -21.262653 37.280305 1.474665 2.177723 0.083172 -0.062232 -708437.000000 0 0 1
1.489323 30.350642 -20.767953 36.806078 1.521765 2.170325 0.087128 -0.050575 -116432.000000 0 0 1
0.805723 29.139442 -21.046153 35.954093 1.543153 2.196123 0.100961 -0.061753 20370.800000 0 0 1
0.674923 28.674342 -22.434553 36.414043 1.547263 2.234573 0.127533 -0.083241 -596976.000000 0 0 1
-0.071877 27.318142 -22.651753 35.487856 -1.568165 2.263079 0.136845 -0.073919 924634.000000 0 0 1
-1.370577 27.338642 -22.035753 35.140493 -1.520705 2.248590 0.152678 -0.072341 470569.000000 0 0 1
-1.752477 25.996142 -21.775853 33.956713 -1.503485 2.266965 0.163422 -0.077493 894039.000000 0 0 1
-2.991277 25.874042 -20.801853 33.333630 -1.455698 2.244712 0.130180 -0.069941 1081670.000000 0 0 1
-4.239477 26.449742 -21.157453 34.135023 -1.411864 2.239305 0.121843 -0.069197 752939.000000 0 0 1
-5.260277 26.034742 -20.243753 33.395925 -1.371432 2.222038 0.110507 -0.061721 214312.000000 0 0 1
-6.668177 26.591942 -20.511953 34.239395 -1.325103 2.213141 0.106220 -0.069744 52181.600000 0 0 1
-7.668577 26.149142 -19.607753 33.571546 -1.285532 2.194516 0.123129 -0.063625 -183843.000000 0 0 1
-8.003377 27.128842 -18.608153 33.856926 -1.283920 2.152695 0.108836 -0.073883 749498.000000 0 0 1
-9.352477 26.807442 -17.859653 33.542137 -1.235123 2.132294 0.138543 -0.057540 1041330.000000 0 0 1
-9.217477 25.696542 -16.986953 32.153238 -1.226388 2.127408 0.126999 -0.065283 -321478.000000 0 0 1
-10.498777 25.107742 -16.957753 32.065377 -1.174743 2.128041 0.111802 -0.064891 162949.000000 0 0 1
-10.713877 24.356542 -15.628253 30.858882 -1.156393 2.101851 0.097360 -0.051631 157873.000000 0 0 1
-9.956977 23.167142 -15.531653 29.615707 -1.164877 2.122853 0.108818 -0.046872 -149338.000000 0 0 1
-10.349977 22.528842 -14.323353 28.632659 -1.140145 2.094678 0.110615 -0.032170 6591.650000 0 0 1
-9.676577 21.190642 -14.007953 27.182755 -1.142431 2.112183 0.117137 -0.012372 36970.200000 0 0 1
-10.325777 20.001042 -14.505053 26.777974 -1.094224 2.143229 0.097578 -0.007270 -215372.000000 0 0 1
-10.637777 19.906342 -15.920853 27.620614 -1.080016 2.185127 0.118421 -0.008171 -584715.000000 0 0 1
-9.565977 19.905942 -16.983953 27.860529 -1.122822 2.226360 0.117697 -0.018743 -475628.000000 0 0 1
-8.778477 18.730942 -16.912853 26.719926 -1.132532 2.256177 0.115391 -0.011536 -143755.000000 0 0 1
-7.879477 18.568042 -17.975653 27.018187 -1.169470 2.298714 0.124108 -0.021574 156248.000000 0 0 1
-7.199777 17.193942 -18.031553 25.934636 -1.174241 2.339591 0.100320 -0.018582 17226.000000 0 0 1
-8.107677 16.231542 -18.526653 25.931337 -1.107548 2.366635 0.098224 -0.022020 -120174.000000 0 0 1
-7.749077 15.544842 -19.686753 26.253734 -1.108351 2.418654 0.088922 -0.028838 -392521.000000 0 0 1
-6.477377 14.702442 -19.654253 25.385190 -1.155816 2.456311 0.064401 -0.021208 -551307.000000 0 0 1
-6.664677 13.473642 -18.954053 24.191177 -1.111441 2.471092 0.036028 -0.014072 -84117.300000 0 1 0
-5.428477 12.848642 -18.716553 23.342350 -1.171050 2.501145 0.035232 -0.003304 185071.000000 0 1 0
-4.661877 13.310642 -17.449453 22.436347 -1.233911 2.461845 0.037749 0.001399 -58887.000000 0 1 0
-4.144277 14.619942 -17.591553 23.246085 -1.294575 2.429128 0.054350 -0.014458 -479855.000000 0 1 0
-3.379777 14.972042 -16.477653 22.518836 -1.348778 2.391649 0.053943 -0.007587 119265.000000 0 1 0
-2.605477 16.334242 -16.639253 23.461899 -1.412619 2.359164 0.087430 -0.015266 342950.000000 0 1 0
-3.424777 17.468942 -16.635853 24.364824 -1.377202 2.322359 0.090248 -0.023307 -377003.000000 0 1 0
-2.588177 18.583342 -16.651653 25.086187 -1.432412 2.296655 0.107033 -0.025769 230738.000000 0 0 1
-3.227877 19.879942 -17.238253 26.510161 -1.409832 2.278711 0.118150 -0.025907 339772.000000 0 0 1
-3.323677 19.916042 -18.652453 27.488353 -1.405436 2.316595 0.121919 -0.031817 -333564.000000 0 0 1
-3.969577 21.034342 -19.231253 28.775722 -1.384271 2.302738 0.147955 -0.039199 -127826.000000 0 0 1
-3.116477 22.267142 -19.579953 29.814637 -1.431741 2.287261 0.134021 -0.045662 -146374.000000 0 0 1
-2.102477 21.954142 -20.516353 30.121844 -1.475321 2.320077 0.151126 -0.045007 631045.000000 0 0 1
-0.836877 22.604342 -20.352353 30.428193 -1.533790 2.303477 0.141465 -0.049639 662254.000000 0 0 1
0.156923 21.937842 -19.423253 29.301131 1.563643 2.295461 0.139176 -0.042297 -616507.000000 0 0 1
-0.186377 21.996942 -18.075153 28.471237 -1.562324 2.258619 0.140145 -0.033833 179241.000000 0 0 1
0.950223 21.783742 -17.212653 27.779664 1.527203 2.239046 0.123751 -0.031622 659347.000000 0 0 1
0.665023 21.901842 -15.735353 26.976550 1.540442 2.193579 0.132099 -0.030714 -299665.000000 0 0 1
-0.287877 20.942142 -15.306053 25.940922 -1.557051 2.201899 0.126944 -0.022602 -41694.400000 0 0 1
-0.381577 20.872442 -13.887253 25.073098 -1.552517 2.157802 0.125711 -0.023549 7412.040000 0 0 1
-1.285977 19.795342 -13.281953 23.872988 -1.505924 2.160794 0.105395 -0.015769 132765.000000 0 1 0
-0.763477 18.472142 -13.361153 22.810597 -1.529489 2.196593 0.087635 -0.016359 642998.000000 0 1 0
-1.715677 17.537042 -12.816353 21.788765 -1.473275 2.199639 0.075159 -0.014378 425446.000000 0 1 0
-1.214677 16.159042 -13.056453 20.810119 -1.495767 2.249017 0.051895 -0.008591 -297570.000000 0 1 0
-0.091977 15.880142 -12.232553 20.045516 -1.565004 2.227158 0.045881 -0.007541 237669.000000 0 1 0
0.421023 14.585842 -12.256853 19.056613 1.541939 2.269442 0.045287 -0.001583 561085.000000 0 1 0
1.059223 13.922542 -13.546953 19.454538 1.494863 2.341080 0.019925 -0.005452 -89795.600000 0 1 0
0.039823 13.656742 -14.485653 19.908348 1.567880 2.385638 0.026693 -0.015816 257774.000000 0 1 0
0.461223 12.729142 -15.502653 20.064297 1.534579 2.453799 0.021964 -0.014739 -906741.000000 0 1 0
-0.484377 12.654842 -16.647453 20.916915 -1.532539 2.491264 0.019195 -0.013661 -689675.000000 0 1 0
-0.386077 13.797642 -17.427453 22.231511 -1.542822 2.471731 0.032173 -0.020020 98188.000000 0 1 0
-0.568577 13.637042 -18.853653 23.275575 -1.529127 2.514980 0.039893 -0.019357 -204509.000000 0 1 0
-0.986577 14.954442 -19.546653 24.630881 -1.504920 2.487472 0.058160 -0.022310 -432263.000000 0 1 0
0.002123 15.946242 -19.527253 25.211034 1.570663 2.456803 0.064247 -0.033402 -232144.000000 0 0 1
-0.508477 17.231642 -19.853753 26.293717 -1.541297 2.426566 0.115427 -0.046687 -499412.000000 0 0 1
0.562623 18.261442 -20.124053 27.180403 1.539997 2.404444 0.141550 -0.052180 -658347.000000 0 0 1
1.193423 18.058642 -21.335153 27.977268 1.504806 2.438102 0.139752 -0.064912 -301012.000000 0 0 1
1.977623 19.215742 -21.621253 28.993694 1.468241 2.412415 0.134523 -0.056938 233467.000000 0 0 1
2.604323 19.164742 -23.060053 30.097107 1.435732 2.443685 0.140548 -0.061612 284325.000000 0 0 1
3.631823 18.180942 -23.178053 29.680952 1.373632 2.466912 0.119804 -0.055665 108479.000000 0 0 1
4.032223 18.194442 -24.549653 30.821778 1.352703 2.492286 0.116468 -0.057434 186727.000000 0 0 1
4.988323 17.019242 -24.898453 30.569117 1.285683 2.522658 0.085912 -0.039981 1044130.000000 0 0 1
6.277823 17.122142 -24.210853 30.310793 1.219367 2.496017 0.074176 -0.035039 1093220.000000 0 0 1
7.196323 16.100242 -24.453553 30.149313 1.150465 2.516795 0.079340 -0.036663 -99099.900000 0 0 1
7.701723 15.840442 -25.872443 31.298873 1.118244 2.543881 0.071337 -0.035816 -997464.000000 0 0 1
8.741223 16.788942 -26.159553 32.289313 1.090763 2.515224 0.046101 -0.029183 667905.000000 0 0 1
9.301123 16.763442 -27.465733 33.494632 1.064240 2.532214 0.058314 -0.031183 344432.000000 0 0 1
9.907623 15.453742 -28.056883 33.528612 1.000693 2.562216 0.058841 -0.035934 -223233.000000 0 0 1
11.040623 14.915142 -27.402943 33.094986 0.933578 2.546344 0.077957 -0.035231 181313.000000 0 0 1
11.271123 13.522742 -27.629343 32.761003 0.875963 2.574303 0.069335 -0.027459 150849.000000 0 0 1
10.505523 12.473742 -26.694533 31.281917 0.870842 2.593181 0.071456 -0.025554 949024.000000 0 0 1
9.098023 12.445842 -26.941533 31.040605 0.939561 2.621846 0.093456 -0.032326 223956.000000 0 0 1
8.464723 11.403142 -26.196073 29.797943 0.932232 2.644816 0.097643 -0.035516 -538380.000000 0 0 1
6.963323 11.588042 -26.257893 29.533837 1.029711 2.666124 0.098415 -0.043451 -631192.000000 0 0 1
6.428423 12.735942 -25.531243 29.246764 1.103359 2.632033 0.112198 -0.032192 891466.000000 0 0 1
4.991523 12.805542 -25.469603 28.941283 1.199119 2.646751 0.129226 -0.044295 978755.000000 0 0 1
4.373923 13.756742 -26.472473 30.152462 1.262956 2.642368 0.138869 -0.033539 -449231.000000 0 0 1
4.462523 13.357842 -27.790663 31.155529 1.248378 2.672542 0.133478 -0.044745 169344.000000 0 0 1
4.023923 14.335642 -28.733383 32.362167 1.297145 2.663490 0.117178 -0.055950 39558.800000 0 0 1
3.968223 13.760542 -30.127063 33.357746 1.290037 2.697848 0.149900 -0.051703 184261.000000 0 0 1
5.252723 13.268842 -30.465613 33.642337 1.193856 2.703526 0.138006 -0.046192 275566.000000 0 0 1
5.211423 12.774442 -31.797303 34.661416 1.183449 2.732215 0.141117 -0.046307 -637668.000000 0 0 1
6.459223 11.982342 -32.179973 34.940646 1.076390 2.741409 0.134533 -0.032788 542119.000000 0 0 1
7.785423 12.582342 -32.168173 35.407901 1.016698 2.710483 0.135192 -0.027308 1660820.000000 0 0 1
8.353923 12.891542 -30.882463 34.492121 0.995817 2.680009 0.124135 -0.030156 -419068.000000 0 0 1
8.415923 11.655142 -29.938883 33.211546 0.945406 2.693927 0.135920 -0.032681 -536688.000000 0 0 1
9.416623 10.687242 -30.272853 33.456472 0.848517 2.701807 0.111308 -0.029717 219920.000000 0 0 1
9.181323 9.416542 -29.678693 32.462174 0.798045 2.724461 0.115906 -0.030480 -381315.000000 0 0 1
10.287323 8.398842 -29.966743 32.777663 0.684677 2.724431 0.101131 -0.026553 -94827.600000 0 0 1
11.496023 8.598542 -29.285123 32.614596 0.642193 2.685805 0.089519 -0.034176 -197946.000000 0 0 1
12.409723 7.540042 -29.405933 32.795767 0.545983 2.682913 0.063966 -0.024146 -494297.000000 0 0 1
13.638723 7.698842 -28.488833 32.510006 0.513895 2.638944 0.063683 -0.017817 821651.000000 0 0 1
14.515223 6.523842 -28.417653 32.570158 0.422395 2.631104 0.081553 -0.018298 841211.000000 0 0 1
15.427023 6.340242 -29.498263 33.887154 0.389938 2.626983 0.078348 -0.018303 -819048.000000 0 0 1
16.212023 5.082642 -29.195193 33.779020 0.303805 2.614552 0.094953 -0.020403 -500955.000000 0 0 1
17.030423 5.261442 -28.061713 33.244214 0.299642 2.575696 0.078350 -0.020704 188153.000000 0 0 1
17.943823 4.180842 -27.956793 33.481972 0.228912 2.558894 0.077149 -0.016301 -78926.900000 0 0 1
18.613823 4.132442 -26.572213 32.705259 0.218466 2.519182 0.092051 -0.013795 -62088.600000 0 0 1
19.575423 5.171642 -26.421503 33.287218 0.258289 2.487735 0.129874 -0.021802 179325.000000 0 0 1
19.898023 5.383942 -25.088263 32.470588 0.264249 2.453795 0.141873 -0.026918 -851601.000000 0 0 1
21.123723 6.236442 -25.032253 33.342444 0.287079 2.420012 0.138919 -0.026779 -964544.000000 0 0 1
20.735323 7.564942 -25.235943 33.526628 0.349828 2.422970 0.146605 -0.025055 35652.500000 0 0 1
21.692923 8.308542 -25.926473 34.810871 0.365772 2.411003 0.147621 -0.043296 -1055520.000000 0 0 1
21.800723 8.262442 -27.474723 36.033316 0.362272 2.437936 0.190274 -0.045420 205516.000000 0 0 1
20.690523 8.721642 -28.245343 36.082740 0.398926 2.469939 0.160912 -0.028994 202903.000000 0 0 1
19.541223 7.916142 -28.160143 35.178379 0.384895 2.498918 0.150024 -0.021289 132491.000000 0 0 1
18.314923 8.477342 -28.986553 35.320277 0.433501 2.533392 0.131505 -0.017500 275331.000000 0 0 1
18.342723 8.289742 -30.395503 36.456301 0.424463 2.556664 0.109185 -0.010441 -14206.600000 0 0 1
17.531123 9.215342 -31.063993 36.840663 0.483961 2.574002 0.080435 -0.011694 -539942.000000 0 0 1
17.211423 8.647642 -32.473663 37.756503 0.465595 2.606225 0.050335 0.000330 -214501.000000 0 0 1
16.363423 7.540542 -32.630163 37.273971 0.431813 2.637088 0.067245 0.004910 -76739.400000 0 0 1
15.005023 7.843242 -32.821803 36.931530 0.481648 2.665343 0.058701 -0.001630 -273040.000000 0 0 1
14.095723 6.697042 -33.275923 36.753596 0.443539 2.703067 0.079867 -0.011984 -179844.000000 0 0 1
13.574323 5.937942 -32.230193 35.472619 0.412359 2.710701 0.082640 -0.012966 -10946.300000 0 0 1
12.921623 4.808342 -32.762783 35.545582 0.356240 2.743267 0.091631 -0.025381 45487.700000 0 0 1
12.738823 3.723842 -31.711773 34.377044 0.284398 2.745225 0.106030 -0.029697 95827.600000 0 0 1
13.889423 2.916842 -31.560543 34.604796 0.206997 2.718998 0.110250 -0.038929 178548.000000 0 0 1
13.887823 2.171042 -30.314113 33.414525 0.155072 2.707409 0.133036 -0.037385 -199788.000000 0 0 1
13.074223 0.873042 -30.466943 33.165224 0.066677 2.735424 0.125187 -0.030279 271237.000000 0 0 1
13.696823 -0.263458 -31.128103 34.009280 -0.019233 2.727005 0.125441 -0.036744 -25431.900000 0 0 1
14.680823 -0.901858 -30.347113 33.723688 -0.061354 2.690280 0.132676 -0.040696 51198.000000 0 0 1
15.198923 -2.224258 -31.006833 34.603154 -0.145312 2.681631 0.138326 -0.042606 -245224.000000 0 0 1
14.305623 -3.278158 -30.896113 34.204779 -0.225263 2.698124 0.136054 -0.041810 -376372.000000 0 0 1
14.597423 -4.326458 -31.781903 35.240493 -0.288137 2.694846 0.120025 -0.035331 -135103.000000 0 0 1
13.880523 -5.676158 -31.523903 34.909084 -0.388181 2.697565 0.136224 -0.043107 -132758.000000 0 0 1
14.235523 -6.314558 -30.345523 34.108276 -0.417500 2.667445 0.126295 -0.033404 183167.000000 0 0 1
13.771823 -7.710758 -30.391213 34.245360 -0.510407 2.662590 0.129885 -0.040155 64292.100000 0 0 1
14.062323 -8.476158 -29.132453 33.440903 -0.542444 2.628361 0.101950 -0.033400 60026.500000 0 0 1
15.429823 -8.676758 -28.799463 33.804949 -0.512266 2.590457 0.132481 -0.031825 294735.000000 0 0 1
15.688923 -9.482858 -27.693353 33.211273 -0.543671 2.556850 0.132132 -0.035391 -132105.000000 0 0 1
15.537123 -11.061758 -27.825133 33.734295 -0.618706 2.540702 0.100161 -0.024973 -279385.000000 0 0 1
14.220223 -11.383958 -28.189813 33.562997 -0.675074 2.567909 0.075718 -0.029355 -165332.000000 0 0 1
14.079423 -12.783658 -28.439023 34.211549 -0.737200 2.552184 0.074816 -0.032560 161211.000000 0 0 1
-10.588077 -3.079258 -17.742353 20.889717 0.283017 2.585519 0.058236 -0.008533 145815.000000 0 1 0
-11.460877 -2.360958 -18.568353 21.947883 0.203160 2.579272 0.074918 -0.026302 -138340.000000 0 1 0
-11.970977 -3.161558 -19.590953 23.175530 0.258206 2.577977 0.061754 -0.018303 -302242.000000 0 1 0
-12.966677 -2.434858 -20.544753 24.416185 0.185617 2.570739 0.069650 -0.044959 223008.000000 0 1 0
-14.056477 -1.924658 -19.780853 24.342781 0.136077 2.519389 0.068242 -0.037923 -101901.000000 0 1 0
-15.167677 -1.734758 -20.624453 25.660005 0.113877 2.504382 0.066714 -0.032572 197271.000000 0 0 1
-15.948877 -0.461858 -20.264053 25.791701 0.028951 2.474593 0.070804 -0.029296 71182.600000 0 0 1
-15.154277 0.631942 -20.667353 25.635735 -0.041676 2.508486 0.070921 -0.031260 331108.000000 0 0 1
-15.691877 1.878942 -20.161653 25.617527 -0.119172 2.476769 0.071436 -0.024594 -22815.400000 0 0 1
-15.245977 3.111142 -20.989053 26.127751 -0.201299 2.503652 0.096417 -0.034431 288512.000000 0 0 1
-13.915777 3.541242 -20.743753 25.228803 -0.249188 2.536106 0.099285 -0.037176 406503.000000 0 0 1
-13.673777 4.798342 -21.379453 25.827839 -0.337490 2.545914 0.116865 -0.036995 -534475.000000 0 0 1
-12.351777 5.468742 -21.052653 25.013751 -0.416808 2.571115 0.094108 -0.028867 -701917.000000 0 0 1
-12.306177 5.981142 -19.743353 24.021158 -0.452407 2.535561 0.100205 -0.035710 191570.000000 0 1 0
-11.004077 6.180842 -19.254253 23.022136 -0.511771 2.561362 0.073225 -0.023712 -180690.000000 0 1 0
-11.019277 6.784942 -17.799153 22.006130 -0.551908 2.512951 0.068760 -0.028055 535899.000000 0 1 0
-11.775077 8.049442 -17.759153 22.777916 -0.599634 2.464928 0.077392 -0.029552 246378.000000 0 1 0
-12.800877 8.044242 -16.825253 22.619934 -0.561050 2.409570 0.103738 -0.031892 -864669.000000 0 1 0
-13.519277 9.357542 -16.920753 23.593353 -0.605447 2.370548 0.116852 -0.034372 -660956.000000 0 1 0
-12.832277 10.422642 -16.340853 23.244833 -0.682148 2.350387 0.070900 -0.020556 578029.000000 0 1 0
-13.670577 11.589442 -16.449953 24.326956 -0.703195 2.313392 0.091779 -0.025658 300850.000000 0 1 0
-13.109077 12.827042 -15.709553 24.148933 -0.774524 2.279076 0.095400 -0.019785 -220236.000000 0 1 0
-13.222077 12.884942 -14.325053 23.367760 -0.772485 2.230682 0.105809 -0.019701 242269.000000 0 1 0
-12.786777 14.129842 -13.765153 23.508159 -0.835254 2.196352 0.090798 -0.017724 -700522.000000 0 1 0
-13.099977 14.327642 -12.231853 22.945783 -0.830128 2.133029 0.081414 -0.018934 1263730.000000 0 1 0
-14.436877 14.707242 -11.848153 23.771940 -0.794675 2.092559 0.076265 -0.021195 1249990.000000 0 1 0
-15.532477 13.873542 -12.247653 24.160671 -0.729043 2.102410 0.084213 -0.020267 -400245.000000 0 1 0
-16.851377 14.410842 -11.686253 25.064113 -0.707490 2.055848 0.054921 -0.009494 1367510.000000 0 0 1
-18.036877 13.661542 -12.161853 25.688078 -0.648235 2.063992 0.062546 -0.016609 1197450.000000 0 0 1
-19.207477 13.907642 -11.454353 26.335373 -0.626701 2.020770 0.126874 -0.027238 454727.000000 0 0 1
-20.524477 13.361842 -12.138653 27.333860 -0.577092 2.030953 0.114936 -0.045820 563207.000000 0 0 1
-20.760877 12.019042 -12.117453 26.875715 -0.524781 2.038536 0.122366 -0.041983 534529.000000 0 0 1
-21.975477 11.693742 -12.791953 27.987484 -0.489018 2.045483 0.156994 -0.050995 316574.000000 0 0 1
-22.731477 10.436642 -12.210653 27.834216 -0.430418 2.024939 0.151210 -0.040025 -466020.000000 0 0 1
-21.965177 9.310742 -12.263253 26.824360 -0.400927 2.045605 0.150210 -0.034488 64.250800 0 0 1
-22.573377 8.236742 -11.566253 26.667949 -0.349876 2.019406 0.154366 -0.029974 -303991.000000 0 0 1
-21.607077 7.075842 -11.392753 25.430850 -0.316472 2.035312 0.170993 -0.033090 -374226.000000 0 0 1
-21.268077 6.318442 -12.538753 25.484782 -0.288781 2.085193 0.164900 -0.032275 -279964.000000 0 0 1
-20.250977 5.480442 -12.152953 24.245238 -0.264295 2.095840 0.175105 -0.036863 -802120.000000 0 1 0
-20.102677 4.264842 -13.093453 24.366884 -0.209053 2.138084 0.176487 -0.050465 334595.000000 0 1 0
-21.058077 3.215142 -12.868953 24.887541 -0.151510 2.114237 0.158821 -0.044527 841715.000000 0 1 0
-20.656177 2.124242 -13.651653 24.850708 -0.102478 2.152378 0.147163 -0.048524 -153611.000000 0 1 0
-21.399877 0.798142 -13.310953 25.214544 -0.037279 2.126931 0.128798 -0.052746 1347320.000000 0 0 1
-22.730877 0.690842 -13.895053 26.650376 -0.030383 2.119267 0.116802 -0.041307 1532610.000000 0 0 1
-23.213677 -0.631358 -14.058053 27.145944 0.027191 2.115155 0.102940 -0.052051 -116619.000000 0 0 1
-24.558377 -0.823958 -14.784053 28.676838 0.033538 2.112434 0.108447 -0.040280 -225467.000000 0 0 1
-25.653167 -0.215658 -14.175553 29.310029 0.008406 2.075607 0.155025 -0.055341 -1192990.000000 0 0 1
-26.839997 -0.592458 -14.717053 30.615814 0.022070 2.072250 0.175204 -0.040091 -556748.000000 0 0 1
-28.148197 -0.091858 -14.021153 31.447133 0.003263 2.032936 0.174564 -0.045050 403813.000000 0 0 1
-28.371897 -0.618258 -12.746653 31.109869 0.021788 1.992955 0.211152 -0.050825 -913045.000000 0 0 1
-29.539867 -0.250858 -12.138353 31.937537 0.008492 1.960663 0.238278 -0.059864 -1056020.000000 0 0 1
-29.779057 -0.894758 -10.730853 31.666134 0.030038 1.916517 0.245533 -0.067463 -103260.000000 0 0 1
-30.309197 -2.255058 -10.742753 32.235686 0.074265 1.910552 0.256639 -0.060996 738590.000000 0 0 1
-29.406847 -3.229558 -11.262553 31.654981 0.109385 1.934556 0.254205 -0.060624 -115262.000000 0 0 1
-29.675437 -4.665058 -10.766353 31.910949 0.155927 1.914937 0.244056 -0.058617 380366.000000 0 0 1
-30.819097 -5.296158 -11.373153 33.274835 0.170184 1.919622 0.234075 -0.052164 737239.000000 0 0 1
-31.148937 -6.594258 -10.948053 33.668983 0.208621 1.901985 0.228956 -0.051578 288782.000000 0 0 1
-30.309407 -7.790258 -11.594853 33.373476 0.251579 1.925622 0.211257 -0.052226 428703.000000 0 0 1
-28.929327 -7.715058 -11.297153 32.000840 0.260621 1.931601 0.154866 -0.042752 194335.000000 0 0 1
-28.286217 -8.971758 -11.551553 31.844009 0.307141 1.942018 0.153316 -0.042099 591161.000000 0 0 1
-26.807837 -9.062458 -11.054853 30.380883 0.325992 1.943221 0.149506 -0.051236 180377.000000 0 0 1
-25.879447 -8.212858 -11.775853 29.595059 0.307298 1.980022 0.128755 -0.043427 1202830.000000 0 0 1
-24.532177 -8.297358 -11.310553 28.259555 0.326145 1.982573 0.133125 -0.037747 361038.000000 0 0 1
-24.188677 -7.978358 -9.832153 27.302336 0.318602 1.939194 0.133986 -0.037583 -1189130.000000 0 0 1
-24.489977 -6.689558 -9.267353 27.025784 0.266650 1.920807 0.142574 -0.031894 1628470.000000 0 0 1
-25.864417 -6.224958 -9.355353 28.200014 0.236185 1.908954 0.142603 -0.039263 863906.000000 0 0 1
-26.159267 -4.807958 -8.815753 28.020371 0.181767 1.890852 0.156215 -0.046655 -419411.000000 0 0 1
-26.027127 -4.728258 -7.406553 27.470435 0.179707 1.843794 0.157796 -0.048323 561692.000000 0 0 1
-26.450587 -3.416258 -6.988453 27.570688 0.128445 1.827066 0.197991 -0.051570 -6844.960000 0 0 1
-26.339597 -3.150658 -5.490853 27.089675 0.119051 1.774902 0.195194 -0.048067 -191287.000000 0 0 1
-25.053217 -3.189158 -4.922653 25.730661 0.126614 1.763298 0.177135 -0.037401 -4440.570000 0 0 1
-25.099897 -2.974858 -3.529253 25.520781 0.117970 1.709530 0.178351 -0.031754 508625.000000 0 0 1
-23.739877 -3.298558 -2.809053 24.131992 0.138062 1.687464 0.166519 -0.020071 588797.000000 0 1 0
-23.300577 -4.652958 -2.842953 23.930092 0.197100 1.689880 0.158724 -0.028039 -568190.000000 0 1 0
-21.960577 -4.700658 -2.513653 22.598265 0.210868 1.682259 0.135088 -0.024771 -763229.000000 0 1 0
-21.341677 -6.123358 -2.377853 22.329731 0.279414 1.677487 0.119510 -0.026181 -163846.000000 0 1 0
-21.809077 -6.814358 -1.267653 22.884018 0.302844 1.626219 0.117245 -0.026430 327259.000000 0 1 0
-22.547777 -7.972858 -1.570253 23.967361 0.339877 1.636360 0.125276 -0.036307 -4630.700000 0 1 0
-23.046377 -8.785658 -0.355853 24.666778 0.364210 1.585223 0.133365 -0.038468 45643.200000 0 1 0
-22.014277 -9.569058 0.218247 24.005060 0.410037 1.561704 0.101612 -0.025172 316105.000000 0 1 0
-22.474677 -10.382258 1.290347 24.790470 0.432750 1.518723 0.080532 -0.019854 133689.000000 0 1 0
-21.249777 -11.100258 1.879347 24.047884 0.481383 1.492566 0.093077 -0.016810 147613.000000 0 1 0
-20.589077 -12.022358 1.038147 23.864722 0.528511 1.527281 0.098663 -0.009220 217598.000000 0 1 0
-19.511177 -12.621658 1.713847 23.300849 0.574188 1.497177 0.070247 -0.012199 368167.000000 0 1 0
-18.652077 -13.614358 0.853247 23.107980 0.630520 1.533864 0.067749 -0.008725 324428.000000 0 1 0
-19.407477 -14.806958 0.731447 24.421941 0.651738 1.540841 0.089728 -0.005944 859470.000000 0 1 0
-18.644477 -15.921158 0.259747 24.518713 0.706774 1.560202 0.075978 -0.013500 574368.000000 0 1 0
-17.513677 -16.561958 1.124547 24.130726 0.757476 1.524177 0.080098 -0.017145 726956.000000 0 1 0
-16.221277 -15.969958 0.974347 22.784178 0.777591 1.528019 0.077952 -0.012369 683607.000000 0 1 0
-15.171177 -16.614858 1.683847 22.562213 0.830786 1.496096 0.082279 -0.016851 316264.000000 0 1 0
-15.068577 -16.440758 3.248047 22.536867 0.828919 1.426171 0.071477 -0.025600 -366957.000000 0 1 0
-14.891677 -15.075458 3.537247 21.483566 0.791531 1.405394 0.062146 -0.020583 80961.800000 0 1 0
-14.226477 -14.869858 4.773647 21.125649 0.807507 1.342863 0.041951 -0.020932 -63172.700000 0 1 0
-14.838477 -15.424458 6.113347 22.259095 0.804759 1.292576 0.088185 -0.017468 -523805.000000 0 1 0
-15.793177 -14.606158 6.733247 22.541094 0.746370 1.267456 0.076672 -0.010229 290164.000000 0 1 0
-16.257177 -14.894858 8.059747 23.475778 0.741695 1.220345 0.088495 -0.012969 230437.000000 0 1 0
-17.123377 -16.169558 8.348047 24.987088 0.756757 1.230152 0.068666 -0.007437 56631.700000 0 1 0
-16.404177 -17.379658 8.208647 25.269180 0.814264 1.239945 0.068877 -0.010697 162582.000000 0 0 1
-17.149177 -18.453158 8.779147 26.677458 0.822008 1.235462 0.062056 -0.013624 4643.000000 0 0 1
-16.853677 -18.926158 10.204147 27.319782 0.843257 1.188009 0.086710 -0.016954 10481.400000 0 0 1
-15.560877 -19.456158 10.438547 27.011965 0.896182 1.174026 0.061425 -0.015794 159795.000000 0 0 1
-15.302777 -19.848958 11.747247 27.679486 0.914014 1.132494 0.065630 -0.017568 -229051.000000 0 0 1
-13.885577 -20.420758 11.894047 27.409578 0.973638 1.121938 0.048735 -0.009520 786494.000000 0 0 1
-12.819277 -19.431458 11.726047 26.065602 0.987620 1.104180 0.049194 -0.012575 1499920.000000 0 0 1
-11.572477 -20.031158 12.163547 26.136591 1.046917 1.086728 0.051822 -0.010367 770644.000000 0 0 1
-10.399677 -19.078958 12.258347 24.948487 1.071734 1.057161 0.061916 -0.016914 -155055.000000 0 1 0
-9.633377 -18.655958 11.143447 23.770215 1.094139 1.082866 0.053870 -0.014057 -270459.000000 0 1 0
-8.643077 -17.766058 11.563347 22.892064 1.118012 1.041270 0.051830 -0.016956 -195266.000000 0 1 0
-7.759177 -17.233058 10.425247 21.583996 1.147735 1.066709 0.035460 -0.012493 181860.000000 0 1 0
-6.669577 -18.101858 10.110547 21.780351 1.217783 1.088060 0.029992 -0.009403 185025.000000 0 1 0
-6.084577 -17.589558 8.885747 20.624528 1.237761 1.125380 0.034178 -0.003556 764243.000000 0 1 0
-4.838377 -18.499258 8.497047 20.924442 1.314982 1.152633 0.030891 -0.000755 674366.000000 0 1 0
-3.626177 -17.978358 8.996847 20.428259 1.371770 1.114739 0.039009 -0.019336 -615114.000000 0 1 0
-2.591177 -18.665158 8.370847 20.619733 1.432854 1.152764 0.037793 -0.016265 -715952.000000 0 1 0
-1.282277 -18.874958 9.113947 20.999341 1.502965 1.121856 0.046869 -0.025670 -304690.000000 0 1 0
-0.292077 -19.503158 8.324647 21.207504 1.555822 1.167412 0.046743 -0.017171 434936.000000 0 1 0
0.871123 -19.797058 9.115747 21.812364 -1.526822 1.139646 0.061694 -0.022759 401170.000000 0 1 0
2.119723 -20.226958 8.331547 21.978119 -1.466381 1.181990 0.057516 -0.040860 -162428.000000 0 1 0
2.127623 -21.527158 7.760247 22.981879 -1.472282 1.226358 0.074340 -0.036951 -131007.000000 0 1 0
2.324423 -22.555558 8.714547 24.291963 -1.468106 1.203876 0.081298 -0.047071 -115167.000000 0 1 0
2.118723 -24.000758 8.181047 25.445135 -1.482747 1.243465 0.091412 -0.044110 35457.100000 0 0 1
2.209723 -24.915258 9.217547 26.657384 -1.482338 1.217728 0.108498 -0.048982 -38579.900000 0 0 1
1.691723 -26.149658 8.796447 27.641346 -1.506192 1.246929 0.117873 -0.048785 -1134320.000000 0 0 1
1.695223 -27.167238 9.958647 28.984604 -1.508478 1.220066 0.140015 -0.052466 -73861.300000 0 0 1
0.771223 -26.789868 10.942747 28.948843 -1.542016 1.183158 0.132569 -0.058466 -420467.000000 0 0 1
-0.528077 -27.206358 10.543247 29.182612 1.551389 1.201150 0.091765 -0.042621 -793593.000000 0 0 1
-1.482677 -27.195688 11.723847 29.652190 1.516331 1.164316 0.099293 -0.044950 -125283.000000 0 0 1
-1.113077 -28.226958 12.626147 30.942199 1.531384 1.150473 0.111974 -0.046635 -237828.000000 0 0 1
-1.542877 -27.967188 13.931247 31.282962 1.515685 1.109253 0.107511 -0.048555 -210851.000000 0 0 1
-1.253477 -29.051668 14.956147 32.699495 1.527677 1.095748 0.104316 -0.038984 60732.800000 0 0 1
-1.269777 -28.633518 16.325147 32.984862 1.526480 1.053044 0.107321 -0.030954 -104324.000000 0 0 1
-0.899877 -29.702748 17.137547 34.303914 1.540509 1.047683 0.111348 -0.032323 -118985.000000 0 0 1
-1.322477 -29.583518 18.609447 34.974920 1.526123 1.009741 0.104130 -0.028337 548721.000000 0 0 1
-2.733377 -29.690088 18.781547 35.238036 1.478991 1.008665 0.097606 -0.024558 451359.000000 0 0 1
-3.191777 -29.627048 20.130447 35.960872 1.463478 0.976667 0.108911 -0.032323 -108271.000000 0 0 1
-4.711877 -29.836528 20.218147 36.348228 1.414167 0.980948 0.131642 -0.040538 -226860.000000 0 0 1
-5.507477 -28.822688 19.624247 35.301427 1.381991 0.981345 0.100658 -0.040962 451248.000000 0 0 1
-6.589477 -28.370608 20.453447 35.590113 1.342579 0.958565 0.096302 -0.045158 295413.000000 0 0 1
-6.269777 -27.419128 21.602947 35.465561 1.345997 0.915840 0.130365 -0.048628 -546331.000000 0 0 1
-5.542877 -28.098008 22.633047 36.503101 1.376028 0.902014 0.152901 -0.047981 192810.000000 0 0 1
-5.182277 -27.285308 23.701947 36.512003 1.383103 0.864323 0.160036 -0.040882 166636.000000 0 0 1
-4.089677 -27.902998 24.657247 37.460414 1.425265 0.852343 0.188501 -0.035113 318863.000000 0 0 1
-4.479477 -29.023048 25.432647 38.848714 1.417663 0.857065 0.188379 -0.039856 -460592.000000 0 0 1
-3.616377 -30.080178 25.322747 39.485907 1.451146 0.874591 0.184682 -0.045814 -377830.000000 0 0 1
-3.926777 -31.126858 26.450347 41.035616 1.445305 0.870335 0.189364 -0.029375 199871.000000 0 0 1
-3.571677 -30.658658 27.742447 41.501248 1.454821 0.838643 0.181475 -0.036745 -10618.000000 0 0 1
-3.822777 -31.624648 28.731747 42.898080 1.450500 0.836900 0.155745 -0.041179 -347108.000000 0 0 1
-3.070777 -31.340828 30.035547 43.517942 1.473128 0.809048 0.180937 -0.041461 176116.000000 0 0 1
-1.659577 -31.379668 29.933647 43.398859 1.517959 0.809675 0.200701 -0.035828 473668.000000 0 0 1
-0.984377 -30.970828 31.137747 43.928584 1.539023 0.782963 0.194132 -0.056192 22984.600000 0 0 1
-29.350867 2.935942 -9.400253 30.958971 -0.099698 1.879303 0.214962 -0.045437 -13814.300000 0 0 1
-30.325357 2.435342 -10.296553 32.118175 -0.080135 1.897142 0.195688 -0.053635 198132.000000 0 0 1
-31.000907 3.558742 -10.841453 33.034194 -0.114294 1.905182 0.159630 -0.054766 77263.400000 0 0 1
-31.857377 3.210742 -12.098753 34.228368 -0.100446 1.932076 0.153051 -0.054031 334843.000000 0 0 1
-33.106247 2.601842 -11.800653 35.242710 -0.078429 1.912231 0.171600 -0.057033 443266.000000 0 0 1
-33.860547 2.431642 -12.968753 36.340585 -0.071690 1.935708 0.175031 -0.053673 -244053.000000 0 0 1
-35.239060 1.757442 -12.899053 37.566814 -0.049831 1.921292 0.170005 -0.049102 74978.500000 0 0 1
-35.163045 0.408742 -12.641653 37.368679 -0.011624 1.915901 0.212142 -0.055724 89422.600000 0 0 1
-36.443117 -0.115658 -12.382353 38.489438 0.003174 1.898329 0.182087 -0.056476 -34719.300000 0 0 1
-36.170197 -1.595058 -11.957753 38.128929 0.044070 1.889793 0.223629 -0.061364 1878.560000 0 0 1
-35.882675 -2.529558 -12.975053 38.240254 0.070379 1.916973 0.208473 -0.047254 183016.000000 0 0 1
-35.237928 -3.694658 -12.479553 37.564629 0.104467 1.909448 0.244129 -0.059992 43717.000000 0 0 1
-35.121046 -4.810058 -13.505553 37.934476 0.136110 1.934805 0.219465 -0.042149 21132.800000 0 0 1
-34.774163 -6.019558 -12.818453 37.547173 0.171406 1.919198 0.224833 -0.047707 238123.000000 0 0 1
-34.848123 -7.092658 -13.743053 38.125700 0.200788 1.939565 0.213987 -0.040341 -597559.000000 0 0 1
-34.613657 -8.480658 -13.123853 37.977129 0.240276 1.923645 0.167712 -0.040998 1437850.000000 0 0 1
-33.242107 -8.984558 -13.149653 36.860186 0.263969 1.935577 0.161971 -0.039905 1744140.000000 0 0 1
-32.722107 -9.346458 -14.412553 36.956924 0.278223 1.971409 0.164306 -0.040142 18014.100000 0 0 1
-31.454577 -10.223858 -14.195753 35.992181 0.314264 1.976224 0.135839 -0.040677 483394.000000 0 0 1
-31.930107 -11.520358 -13.884453 36.674629 0.346263 1.959063 0.119352 -0.035560 525257.000000 0 0 1
-30.793167 -12.333658 -13.747053 35.907099 0.380965 1.963676 0.123506 -0.033400 -142699.000000 0 0 1
-31.101247 -13.832458 -14.038153 36.819753 0.418484 1.961963 0.130558 -0.028664 -162415.000000 0 0 1
-31.214907 -14.004058 -15.453053 37.540390 0.421717 1.995047 0.129692 -0.035990 96094.300000 0 0 1
-31.506057 -15.320158 -15.959253 38.497229 0.452596 1.998251 0.139863 -0.039637 256634.000000 0 0 1
-30.459827 -16.510258 -15.739253 38.054090 0.496707 1.997203 0.126161 -0.029055 1225730.000000 0 0 1
-29.175347 -16.053858 -16.195753 37.030118 0.503038 2.023465 0.133325 -0.036916 433532.000000 0 0 1
-28.139687 -17.014658 -15.973753 36.558191 0.543832 2.022991 0.141920 -0.038868 1043790.000000 0 0 1
-26.746607 -16.359958 -16.300753 35.337569 0.548952 2.050241 0.146532 -0.043985 615092.000000 0 0 1
-26.560077 -16.126158 -17.672753 35.746564 0.545666 2.087930 0.128331 -0.038662 -1213540.000000 0 0 1
-25.209067 -15.999958 -17.892653 34.808659 0.565538 2.110671 0.099636 -0.023595 -1317330.000000 0 0 1
-24.961477 -15.468158 -19.354953 35.170349 0.554765 2.153544 0.107000 -0.021023 117957.000000 0 0 1
-25.492017 -16.210458 -20.479953 36.497265 0.566402 2.166555 0.105360 -0.028025 1245170.000000 0 0 1
-26.914597 -16.126758 -20.684553 37.580827 0.539818 2.153642 0.123745 -0.040379 711917.000000 0 0 1
-27.530717 -17.229458 -21.555153 38.979728 0.559194 2.156737 0.127758 -0.042045 -469889.000000 0 0 1
-27.160807 -17.151758 -22.870453 39.432852 0.563252 2.189506 0.109716 -0.029511 132650.000000 0 0 1
-27.822067 -18.176258 -23.624253 40.774368 0.578694 2.188776 0.113091 -0.028977 57588.100000 0 0 1
-27.093997 -18.653758 -24.907653 41.260617 0.602955 2.218888 0.098259 -0.028825 -191308.000000 0 0 1
-25.813577 -19.206858 -24.852953 40.656038 0.639689 2.228496 0.090504 -0.025964 -432387.000000 0 0 1
-25.636767 -20.486458 -24.221853 40.787706 0.674195 2.206634 0.082574 -0.023361 216991.000000 0 0 1
-24.183377 -21.070358 -24.278953 40.227643 0.716716 2.218729 0.065717 -0.000040 765923.000000 0 0 1
-23.624777 -21.219658 -25.586933 40.781063 0.731817 2.249034 0.052291 -0.004601 -624576.000000 0 0 1
-22.262477 -21.452458 -25.370603 39.993666 0.766871 2.257984 0.064608 -0.018088 -286039.000000 0 0 1
-21.282177 -21.070658 -26.502193 39.990873 0.780404 2.295223 0.058515 -0.018550 -333625.000000 0 0 1
-21.229177 -21.919358 -27.645543 41.175384 0.801392 2.306905 0.074732 -0.015212 -966570.000000 0 0 1
-22.109577 -21.628958 -28.662503 42.168522 0.774410 2.318168 0.092735 -0.024899 -550742.000000 0 0 1
-21.519677 -21.724958 -30.059763 42.879595 0.790145 2.347633 0.091621 -0.024535 2009.550000 0 0 1
-21.255077 -23.046658 -30.437983 43.696654 0.825817 2.341409 0.108577 -0.031346 47011.800000 0 0 1
-20.537477 -23.018758 -31.670613 44.211751 0.842304 2.369338 0.120240 -0.030518 563335.000000 0 0 1
-19.961077 -24.473758 -32.055983 44.999950 0.886608 2.363646 0.128989 -0.027920 83062.400000 0 0 1
-19.211177 -24.680858 -33.220393 45.626840 0.909376 2.386326 0.134351 -0.029707 -62882.800000 0 0 1
-19.979177 -24.638258 33.317795 46.003117 0.889444 0.760849 0.126484 -0.019009 -106876.000000 0 0 1
-19.200377 -24.605558 32.003022 44.702141 0.908167 0.772860 0.123337 -0.022937 -107829.000000 0 0 1
-18.706977 -23.312958 31.657255 43.538797 0.894576 0.756701 0.096862 -0.016729 157841.000000 0 0 1
-17.826977 -23.285558 30.535695 42.337301 0.917398 0.765194 0.098077 -0.012291 -177603.000000 0 0 1
-16.993477 -22.052158 30.316775 41.160452 0.914239 0.742839 0.086189 -0.008476 -301262.000000 0 0 1
-17.648977 -20.848458 29.883845 40.486897 0.868317 0.740529 0.080041 -0.012664 148196.000000 0 0 1
-16.774877 -19.741458 29.597685 39.333760 0.866460 0.718984 0.083485 -0.017495 257913.000000 0 0 1
-16.483077 -18.821658 30.798125 39.679607 0.851541 0.682228 0.084479 -0.024878 -208016.000000 0 0 1
-15.838877 -17.618958 30.442025 38.574793 0.838552 0.661342 0.091248 -0.031328 -35968.400000 0 0 1
-15.233577 -16.911358 31.541055 38.895939 0.837545 0.625093 0.090498 -0.035302 241013.000000 0 0 1
-14.566577 -15.534458 31.190855 37.767367 0.817541 0.599057 0.111177 -0.040281 -787227.000000 0 0 1
-13.357677 -15.655858 30.531105 36.819585 0.864444 0.593107 0.142594 -0.046944 -778540.000000 0 0 1
-12.894777 -14.370058 30.205395 35.848846 0.839455 0.568747 0.127456 -0.047257 -1031120.000000 0 0 1
-11.483877 -14.434558 29.674835 34.940403 0.898755 0.556141 0.146371 -0.051059 -777690.000000 0 0 1
-10.984577 -13.164458 29.265005 33.917612 0.875422 0.529962 0.144062 -0.040413 391533.000000 0 0 1
-9.801477 -12.863558 30.016065 34.095517 0.919687 0.494192 0.145141 -0.044256 321463.000000 0 0 1
-9.489877 -11.387658 30.143905 33.591540 0.876050 0.457032 0.130888 -0.037260 -228592.000000 0 0 1
-10.264177 -10.611658 31.033905 34.366610 0.802042 0.444037 0.125277 -0.031929 -937.647000 0 0 1
-9.900077 -9.251758 31.079805 33.905175 0.751560 0.411133 0.104343 -0.023939 -43989.800000 0 0 1
-10.636577 -8.514558 32.245337 35.005660 0.675044 0.399781 0.084521 -0.021838 609824.000000 0 0 1
-12.003977 -8.323758 31.884481 35.071364 0.606294 0.429602 0.077748 -0.025668 551492.000000 0 0 1
-12.881077 -7.607058 32.751605 36.006348 0.533450 0.428461 0.061793 -0.027435 202418.000000 0 0 1
-12.502677 -6.129558 33.190554 35.993073 0.455825 0.397227 0.048087 -0.018821 -570490.000000 0 0 1
-12.467777 -5.196358 32.141640 34.864490 0.394890 0.397835 0.051714 -0.021579 401509.000000 0 0 1
-12.910877 -3.867558 32.536417 35.217428 0.291051 0.392717 0.048519 -0.022962 -219819.000000 0 0 1
-12.548577 -2.733058 31.527295 34.042720 0.214449 0.386830 0.045370 -0.008730 32308.000000 0 0 1
-11.210477 -2.311358 31.702686 33.705749 0.203329 0.346485 0.049499 -0.015060 163324.000000 0 0 1
-10.935577 -1.124958 31.041145 32.930307 0.102511 0.340369 0.040202 -0.009526 -514395.000000 0 0 1
-9.450377 -0.757258 31.058055 32.472848 0.079959 0.296272 0.054592 -0.011472 -324898.000000 0 0 1
-8.947377 -0.232258 32.239736 33.459081 0.025952 0.270800 0.059783 -0.029475 -422350.000000 0 0 1
-7.574077 0.045942 32.177669 33.057090 -0.006066 0.231179 0.101359 -0.034025 -196515.000000 0 0 1
-7.033577 0.769142 33.441617 34.181933 -0.108920 0.208503 0.148009 -0.054313 -203461.000000 0 0 1
-7.545377 2.080842 33.654385 34.552573 -0.269089 0.228509 0.125994 -0.040387 336609.000000 0 0 1
-6.825077 3.099842 32.950528 33.792426 -0.426328 0.223687 0.135996 -0.042466 135666.000000 0 0 1
-7.566877 4.434542 33.039074 34.183377 -0.530096 0.259476 0.145782 -0.049150 921530.000000 0 0 1
-8.869477 4.346542 32.430610 33.901394 -0.455661 0.295640 0.101025 -0.023434 432613.000000 0 0 1
-9.671777 5.422142 32.707702 34.536020 -0.510956 0.326843 0.107243 -0.020027 -285518.000000 0 0 1
-11.102277 5.292242 32.125220 34.399101 -0.444819 0.365635 0.078412 -0.010800 -8375.890000 0 0 1
-11.833277 6.467242 32.275544 34.979457 -0.500175 0.395770 0.081891 -0.006547 -52997.200000 0 0 1
-13.062077 6.525542 31.571805 34.784759 -0.463311 0.433185 0.059583 -0.006751 241509.000000 0 0 1
-13.767277 7.873642 31.761034 35.500640 -0.519509 0.463125 0.086776 -0.010125 -196146.000000 0 0 1
-14.403277 8.134342 32.996040 36.910169 -0.514102 0.464702 0.074459 -0.010084 430962.000000 0 0 1
-15.001477 9.448442 33.009606 37.469341 -0.562068 0.492874 0.082710 -0.000768 361499.000000 0 0 1
-15.971777 9.746942 -33.536573 38.403154 -0.547930 2.632683 0.063160 0.001468 189006.000000 0 0 1
-15.332977 9.957742 -32.280203 37.098090 -0.575977 2.626265 0.061507 -0.004602 -83914.600000 0 0 1
-16.225677 10.251142 -31.229833 36.655981 -0.563464 2.590535 0.068993 -0.007222 -1131740.000000 0 0 1
-15.535277 10.560942 -29.893243 35.305584 -0.597043 2.580549 0.078721 -0.020330 435487.000000 0 0 1
-14.665977 11.721042 -29.913633 35.317122 -0.674253 2.581114 0.083763 -0.021729 416303.000000 0 0 1
-13.396777 11.471142 -30.459973 35.197595 -0.708118 2.616743 0.094081 -0.030328 42569.100000 0 0 1
-12.334277 12.614442 -30.698453 35.406970 -0.796627 2.619981 0.107388 -0.030765 550279.000000 0 0 1
-12.867277 13.547242 -31.620463 36.728031 -0.811135 2.607902 0.097654 -0.027021 356244.000000 0 0 1
-12.033477 14.702242 -31.743233 36.994504 -0.884889 2.602262 0.105053 -0.028379 302742.000000 0 0 1
-12.238777 15.803742 -30.633713 36.578276 -0.911847 2.563459 0.097783 -0.025032 -11724.000000 0 0 1
-13.456477 16.484442 -30.801533 37.437254 -0.886187 2.537030 0.101124 -0.028876 -137828.000000 0 0 1
-13.687977 17.422242 -29.805953 37.138794 -0.904860 2.502363 0.076662 -0.022734 -1235990.000000 0 0 1
-15.090077 17.932842 -29.890963 37.983772 -0.871271 2.476631 0.076828 -0.027576 -1368410.000000 0 0 1
-15.489277 18.583742 -31.077063 39.383461 -0.875968 2.480121 0.084788 -0.031624 -250930.000000 0 0 1
-16.828077 18.991942 -31.091683 40.131917 -0.845734 2.457095 0.080568 -0.033426 -177067.000000 0 0 1
-17.228277 20.346942 -30.361783 40.406057 -0.868206 2.421003 0.052668 -0.032718 -422622.000000 0 0 1
-16.518077 21.536342 -30.767643 41.028146 -0.916512 2.418731 0.057815 -0.028829 437681.000000 0 0 1
-17.033377 22.710242 -30.182563 41.435228 -0.927276 2.386820 0.045999 -0.020279 14573.200000 0 0 1
-18.400577 23.177642 -30.726893 42.660594 -0.899790 2.374979 0.043991 -0.017294 174759.000000 0 0 1
-19.495577 22.334842 -30.419503 42.476686 -0.853170 2.369061 0.052694 -0.018905 116024.000000 0 0 1
-20.556977 22.441742 -31.335353 43.682095 -0.829203 2.370788 0.080106 -0.025843 475871.000000 0 0 1
-21.842877 21.546342 -31.140533 43.716003 -0.778564 2.363619 0.109894 -0.032567 1796400.000000 0 0 1
-22.852377 21.951142 -30.135943 43.729382 -0.765286 2.331107 0.138797 -0.028453 1249580.000000 0 0 1
-23.798177 22.877742 -30.598263 45.011087 -0.765681 2.318278 0.132660 -0.027716 635741.000000 0 0 1
-25.149157 22.217142 -31.115623 45.763124 -0.723576 2.318461 0.143922 -0.036576 664267.000000 0 0 1
-25.001977 21.630242 -32.391043 46.283322 -0.713219 2.345974 0.141677 -0.024255 1873040.000000 0 0 1
-26.316157 21.289342 -32.959163 47.244922 -0.680195 2.342871 0.153490 -0.023086 1637370.000000 0 0 1
-26.194987 20.248642 33.607642 47.176885 -0.658057 0.777919 0.139196 -0.015410 -36345.600000 0 0 1
-25.687047 19.038742 -33.642353 46.412347 -0.637833 2.381624 0.134433 -0.025155 314155.000000 0 0 1
-25.401807 18.138942 33.039319 45.451839 -0.620114 0.756987 0.114395 -0.032941 -579270.000000 0 0 1
-25.055087 16.709442 33.524443 45.064966 -0.588170 0.731889 0.085905 -0.020174 -246459.000000 0 0 1
-26.052287 15.748942 33.857965 45.531447 -0.543731 0.732332 0.078578 -0.010530 236165.000000 0 0 1
-26.490207 15.053942 32.716864 44.707331 -0.516772 0.749836 0.080328 -0.013129 -314297.000000 0 0 1
-27.437387 13.846142 33.077853 45.151636 -0.467357 0.748670 0.053453 -0.001372 381893.000000 0 0 1
-28.739287 14.262242 33.467519 46.361978 -0.460653 0.764289 0.060427 0.007669 840398.000000 0 0 1
-29.764367 13.224542 33.494155 46.718995 -0.418110 0.771411 0.034468 0.008666 697478.000000 0 0 1
-29.699847 11.973742 -33.288603 46.190719 -0.383226 2.375575 0.018070 0.003502 -655917.000000 0 0 1
-28.634287 11.114642 -33.604283 45.526975 -0.370257 2.401073 0.026861 -0.008421 -222193.000000 0 0 1
-28.998417 9.756542 -33.601783 45.444231 -0.324554 2.402985 0.036324 -0.000616 153437.000000 0 0 1
-27.758507 8.807842 -33.542003 44.420477 -0.307254 2.426606 0.043432 -0.010565 1045560.000000 0 0 1
-26.806987 8.718242 33.122809 43.494170 -0.314433 0.705101 0.045713 -0.009602 997992.000000 0 0 1
-25.851417 9.763642 32.963427 43.014091 -0.361121 0.697671 0.029027 -0.012325 -334111.000000 0 0 1
-24.640277 9.297442 32.149970 41.559671 -0.360809 0.686316 0.040916 -0.010945 -550655.000000 0 0 1
-24.772477 9.353542 30.728245 40.563400 -0.361029 0.711266 0.039086 -0.007778 414494.000000 0 0 1
-23.517777 9.197042 30.067665 39.264945 -0.372782 0.698569 0.056960 -0.010354 360495.000000 0 0 1
-23.549777 9.084542 28.543665 38.103304 -0.368170 0.724075 0.069865 -0.020065 -256036.000000 0 0 1
-23.894577 10.284742 27.898265 38.144986 -0.406454 0.750461 0.065579 -0.015800 305047.000000 0 0 1
-24.250377 10.011842 26.580265 37.347400 -0.391537 0.778876 0.066002 -0.020925 -782781.000000 0 0 1
-24.602177 11.310242 25.766765 37.378000 -0.430912 0.810196 0.075302 -0.024672 949732.000000 0 0 1
-25.864307 11.930842 26.079155 38.619033 -0.432200 0.829435 0.074700 -0.022786 1040520.000000 0 0 1
-26.996347 11.289442 25.493575 38.809492 -0.396083 0.854109 0.075382 -0.017783 -524387.000000 0 0 1
-28.267837 12.092242 25.675905 40.056773 -0.404218 0.875012 0.078266 -0.012521 -768263.000000 0 0 1
-28.111687 13.439842 25.182485 40.063124 -0.445964 0.891083 0.104972 -0.016946 526855.000000 0 0 1
-29.279047 14.253442 25.384665 41.289278 -0.453043 0.908663 0.090579 -0.020712 317569.000000 0 0 1
-29.165567 15.678942 24.779155 41.357781 -0.493261 0.928368 0.108375 -0.022412 487534.000000 0 0 1
-28.082527 16.459342 25.325635 41.242285 -0.530141 0.909590 0.122372 -0.025859 670635.000000 0 0 1
-28.032577 17.683842 24.612645 41.283483 -0.562782 0.932054 0.106987 -0.033425 -219551.000000 0 0 1
-23.741077 -9.058558 31.517225 40.484957 0.364506 0.678536 0.063998 -0.025495 440172.000000 0 0 1
-22.698677 -8.567058 30.651565 39.091468 0.360895 0.669554 0.056515 -0.026860 740592.000000 0 0 1
-23.047077 -8.823958 29.250435 38.270328 0.365650 0.700824 0.061787 -0.023364 -53154.000000 0 0 1
-21.869577 -8.531558 28.319975 36.784330 0.371952 0.692124 0.087087 -0.029980 -791545.000000 0 0 1
-21.551377 -7.133358 28.093365 36.119023 0.319643 0.679639 0.088619 -0.033321 582785.000000 0 0 1
-20.376377 -6.668658 28.790825 35.896788 0.316287 0.640086 0.080953 -0.021390 688485.000000 0 0 1
-19.044577 -7.002258 28.039755 34.611493 0.352335 0.626425 0.077916 -0.017662 -230917.000000 0 0 1
-18.649977 -8.437858 28.045885 34.721618 0.424875 0.630495 0.073046 -0.023734 175016.000000 0 0 1
-18.327677 -8.932758 29.371125 35.754174 0.453510 0.606805 0.075174 -0.026814 -363516.000000 0 0 1
-16.896777 -8.568758 29.855375 35.359131 0.469330 0.565451 0.071304 -0.023376 -731515.000000 0 0 1
-15.871677 -9.162258 29.186075 34.462793 0.523539 0.560693 0.066048 -0.023690 -1562280.000000 0 0 1
-14.635477 -8.827658 29.726345 34.289654 0.542746 0.521809 0.073546 -0.028162 168283.000000 0 0 1
-13.452277 -9.685958 29.167895 33.549183 0.624039 0.516795 0.099181 -0.031150 489283.000000 0 0 1
-12.904277 -9.378558 27.878965 32.120312 0.628473 0.519728 0.106422 -0.026171 26788.600000 0 0 1
-11.880177 -10.302358 27.572925 31.741824 0.714389 0.518301 0.127550 -0.034167 -293411.000000 0 0 1
-11.384777 -10.186658 26.137345 30.274444 0.729913 0.528931 0.109855 -0.028851 -265330.000000 0 0 1
-12.236977 -10.561358 25.084825 29.841822 0.712033 0.572419 0.094877 -0.026903 -495320.000000 0 0 1
-11.630977 -10.371258 23.856445 28.495133 0.728206 0.578633 0.091620 -0.027875 -124828.000000 0 0 1
-12.525977 -10.826258 22.699505 28.095827 0.712740 0.630163 0.103440 -0.035661 -509234.000000 0 0 1
-12.630677 -12.240658 22.680105 28.701131 0.769718 0.659634 0.100769 -0.035326 643660.000000 0 0 1
-13.885477 -12.721958 22.203785 29.114649 0.741697 0.703423 0.093550 -0.030047 2149480.000000 0 0 1
-15.269577 -12.395458 22.959875 30.231825 0.681880 0.708313 0.101681 -0.029681 2108560.000000 0 0 1
-16.429677 -12.982758 22.286985 30.580975 0.668738 0.754249 0.069568 -0.017096 1226530.000000 0 0 1
-17.624377 -12.442658 22.868555 31.438976 0.614736 0.756278 0.065788 -0.009800 -35825.100000 0 0 1
-18.854577 -13.170658 22.363685 32.079522 0.609745 0.799406 0.104076 -0.021754 -1005510.000000 0 0 1
-18.785077 -14.501558 22.635485 32.795419 0.657416 0.809027 0.099823 -0.020011 -63211.100000 0 0 1
-19.923577 -15.325858 22.551585 33.769881 0.655697 0.839545 0.096537 -0.016303 9424.180000 0 0 1
-20.873377 -15.303858 23.775735 35.145292 0.632646 0.827799 0.091343 -0.018508 -100822.000000 0 0 1
-20.369977 -16.129458 24.809145 35.924770 0.669736 0.808497 0.076220 -0.010429 254435.000000 0 0 1
-21.088777 -16.064558 26.043705 37.162900 0.650984 0.794280 0.066288 -0.011750 146214.000000 0 0 1
-20.493177 -17.004158 27.173805 38.046385 0.692618 0.775275 0.060737 -0.005208 117150.000000 0 0 1
-20.599377 -18.394958 26.918175 38.565490 0.728926 0.798215 0.068204 0.001206 106448.000000 0 0 1
-20.455277 -19.131658 28.078345 39.658948 0.751975 0.784141 0.062975 -0.004007 -197362.000000 0 0 1
-20.549177 -20.657758 27.883385 40.329826 0.788033 0.807394 0.080009 -0.005767 -94937.300000 0 0 1
-21.852477 -21.148158 27.673615 41.116959 0.769020 0.832476 0.065545 0.000551 -400655.000000 0 0 1
-21.876477 -22.398058 27.064715 41.385409 0.797178 0.857979 0.070785 0.000685 217980.000000 0 0 1
-23.299177 -22.837158 26.622175 42.108523 0.775384 0.886371 0.055394 0.007201 81123.500000 0 0 1
-24.060677 -23.293658 27.699035 43.459720 0.769202 0.879742 0.049761 0.007921 230011.000000 0 0 1
-25.249427 -23.966158 27.258265 44.214515 0.759330 0.906506 0.030218 0.011139 497506.000000 0 0 1
-25.875937 -24.847158 28.344685 45.720527 0.765119 0.902111 0.012129 0.014181 -274602.000000 0 0 1
-26.685207 -24.175358 29.281935 46.410990 0.736091 0.888049 0.010809 0.013014 140018.000000 0 0 1
-27.300387 -25.090838 30.179875 47.808850 0.743249 0.887618 0.003703 0.020200 506254.000000 0 0 1
-28.463487 -24.418858 31.036465 48.679697 0.709063 0.879463 0.019235 0.018564 971458.000000 0 0 1
-29.563867 -24.304958 30.125415 48.706200 0.688082 0.903947 0.031270 0.012312 252750.000000 0 0 1
-30.559037 -23.392058 30.561895 49.143388 0.653329 0.899640 0.047689 -0.008544 -209670.000000 0 0 1
-31.729847 -23.285558 29.581195 49.234617 0.633097 0.926268 0.062476 -0.018889 -1030780.000000 0 0 1
-32.708007 -24.229358 29.803895 50.449457 0.637573 0.938787 0.067618 -0.014675 -746744.000000 0 0 1
-33.723887 -24.144858 28.831375 50.512602 0.621355 0.963346 0.071398 -0.018052 -464966.000000 0 0 1
-35.014801 -24.811258 29.281805 51.952468 0.616470 0.972026 0.077856 -0.015186 -581830.000000 0 0 1
-34.930152 -26.187628 29.584385 52.736545 0.643318 0.975222 0.082603 -0.020190 150372.000000 0 0 1
-35.975109 -26.585298 30.468785 54.123317 0.636418 0.972844 0.076750 -0.017826 331909.000000 0 0 1
-35.874040 -28.092628 30.803385 54.999919 0.664345 0.976335 0.079405 -0.022314 354352.000000 0 0 1
-34.813436 -28.425278 31.699173 54.998267 0.684723 0.956521 0.071683 -0.011151 142435.000000 0 0 1
-34.644401 -29.809538 31.978075 55.780287 0.710526 0.960285 0.077422 -0.022697 407061.000000 0 0 1
-33.530017 -30.043018 33.045211 55.846495 0.730603 0.937612 0.053483 -0.014257 608740.000000 0 0 1
-33.996447 -29.617068 -33.418833 56.122611 0.716663 2.208636 0.051995 -0.008345 -53513.700000 0 0 1
-32.936907 -29.805548 -32.506123 55.044151 0.735531 2.202532 0.040617 -0.006444 238553.000000 0 0 1
-33.343207 -29.535478 -31.041373 54.292548 0.724915 2.179425 0.045548 -0.007667 82880.800000 0 0 1
-33.553317 -28.134538 -30.769933 53.517904 0.697781 2.183335 0.052177 -0.012308 1191200.000000 0 0 1
-32.330127 -27.316378 -30.871883 52.387926 0.701538 2.200981 0.046794 -0.008900 1385240.000000 0 0 1
-32.556967 -25.794538 -30.853443 51.742142 0.670022 2.209671 0.038741 -0.007023 -206109.000000 0 0 1
-33.207377 -25.254028 -29.719843 51.222699 0.650184 2.189781 0.035527 -0.015120 -131882.000000 0 0 1
-33.253547 -23.849058 -29.604573 50.507491 0.622169 2.197085 0.053226 -0.026640 -112358.000000 0 0 1
-32.068967 -23.273358 -28.804703 48.987537 0.627785 2.199381 0.053116 -0.024575 -260177.000000 0 0 1
-32.018057 -21.829558 -28.715973 48.231656 0.598399 2.208530 0.061538 -0.024868 -522316.000000 0 0 1
-30.884677 -21.437058 -28.018723 46.887734 0.606755 2.211264 0.084040 -0.026714 -396092.000000 0 0 1
-30.405547 -20.000658 -28.309503 46.108042 0.581836 2.231892 0.111230 -0.037421 -200564.000000 0 0 1
-29.810737 -19.912658 -29.547173 46.456748 0.588904 2.260119 0.097290 -0.019760 -12020.200000 0 0 1
-29.332757 -18.589258 -29.754653 45.730849 0.564858 2.279233 0.100176 -0.029007 -291313.000000 0 0 1
-28.925377 -18.270658 -31.215673 46.313201 0.563366 2.310423 0.092481 -0.018651 193111.000000 0 0 1
-29.938747 -18.044958 -32.166003 47.503693 0.542424 2.314647 0.093089 -0.030160 -144869.000000 0 0 1
-30.874897 -17.028458 -31.920113 47.561762 0.504018 2.306528 0.101756 -0.034164 -397223.000000 0 0 1
-31.480467 -16.510358 -33.292773 48.703393 0.483026 2.323456 0.098393 -0.041463 458278.000000 0 0 1
-32.468687 -17.414758 -33.790853 49.993111 0.492307 2.312995 0.099722 -0.043584 874706.000000 0 0 1
-33.814717 -16.956658 -33.682133 50.650266 0.464813 2.298282 0.093273 -0.045221 449095.000000 0 0 1
-34.774550 -17.426858 32.943031 50.972621 0.464558 0.868085 0.082467 -0.043040 -133225.000000 0 0 1
-35.262619 -18.707058 33.357009 52.020154 0.487754 0.874693 0.070314 -0.038978 222266.000000 0 0 1
-36.166537 -19.225858 32.387239 52.216715 0.488601 0.901739 0.065874 -0.035988 86024.600000 0 0 1
-36.534577 -20.712358 32.666467 53.205970 0.515744 0.909725 0.056481 -0.031284 -127602.000000 0 0 1
-35.375082 -21.479258 32.563050 52.660300 0.545687 0.904141 0.065707 -0.030457 -122725.000000 0 0 1
-35.728171 -22.797558 32.923967 53.667667 0.567952 0.910338 0.061457 -0.024520 -349295.000000 0 0 1
-34.436691 -23.568058 33.199732 53.325053 0.600171 0.898746 0.068386 -0.018584 66854.700000 0 0 1
-33.623877 -23.252458 -33.433823 52.811575 0.605030 2.256319 0.053181 -0.029627 189168.000000 0 0 1
-32.922497 -22.026158 -33.522123 51.891957 0.589637 2.273127 0.057882 -0.036279 -829468.000000 0 0 1
-31.577907 -21.885758 -32.752023 50.486093 0.606061 2.276715 0.055958 -0.023886 198368.000000 0 0 1
-30.585867 -22.702658 -33.395883 50.657585 0.638529 2.290614 0.047425 -0.015751 1634670.000000 0 0 1
-29.300967 -22.768258 -32.688363 49.451687 0.660588 2.292968 0.049749 -0.014784 1484740.000000 0 0 1
-29.190387 -23.307358 -31.215303 48.679634 0.673801 2.266909 0.050171 -0.001202 -764470.000000 0 0 1
-29.162407 -24.708358 -31.139443 49.301256 0.702906 2.254432 0.048024 -0.005406 -26658.800000 0 0 1
-28.734717 -24.968658 -29.811393 48.351184 0.715386 2.235162 0.044584 -0.006684 25214.200000 0 0 1
-28.071557 -26.336538 -29.604603 48.559840 0.753520 2.226418 0.045978 0.000441 131004.000000 0 0 1
-29.006017 -27.398418 -29.664823 49.719453 0.756905 2.210109 0.026006 0.006010 231153.000000 0 0 1
-28.362787 -28.623028 -29.357943 49.855935 0.789965 2.200438 0.017660 0.005819 -163051.000000 0 0 1
-29.202797 -29.879178 -29.642673 51.227499 0.796846 2.187866 0.020193 0.018861 -196234.000000 0 0 1
-29.170757 -30.304588 -31.030323 52.270279 0.804460 2.206385 0.044521 -0.001776 224423.000000 0 0 1
-29.611807 -31.643288 -31.079433 53.329991 0.818550 2.192937 0.062646 0.002935 -163420.000000 0 0 1
-29.152207 -32.341778 -32.393153 54.269311 0.837220 2.210423 0.045192 -0.003599 -132657.000000 0 0 1
-27.765267 -32.536138 -32.532113 53.738708 0.864351 2.221034 0.040967 -0.008121 -527098.000000 0 0 1
-27.413467 -32.715968 33.843275 54.472012 0.873355 0.900400 0.046253 -0.009963 -62997.000000 0 0 1
-25.888917 -32.914158 33.698055 53.750691 0.904305 0.893187 0.055448 -0.016713 3648.440000 0 0 1
-25.498457 -33.437338 32.461243 53.122116 0.919296 0.913387 0.054053 -0.009643 212236.000000 0 0 1
-24.514177 33.228622 32.683202 52.661921 -0.935186 0.901259 0.061047 -0.006677 -128336.000000 0 0 1
-24.331877 32.396785 31.368015 51.240065 -0.926618 0.911985 0.068471 -0.007921 144336.000000 0 0 1
-25.455437 31.592979 30.986465 51.051510 -0.892571 0.918561 0.061479 -0.021185 558682.000000 0 0 1
-25.202097 30.886969 29.812965 49.779147 -0.886408 0.928664 0.059505 -0.012612 611772.000000 0 0 1
-26.550417 30.244749 29.310755 49.787447 -0.850353 0.941325 0.062371 -0.013174 793519.000000 0 0 1
-26.991107 29.215229 30.155905 49.914207 -0.824948 0.922092 0.061637 -0.011753 -443539.000000 0 0 1
-28.279817 28.779929 29.873195 50.203986 -0.794163 0.933485 0.066883 -0.017764 -349222.000000 0 0 1
-28.752617 27.494319 30.675325 50.235706 -0.763031 0.913943 0.063123 -0.029112 161774.000000 0 0 1
-28.041767 26.307819 30.310365 48.960804 -0.753505 0.903233 0.067932 -0.015734 65022.700000 0 0 1
-28.669327 25.127499 30.705245 48.950318 -0.719656 0.892749 0.078610 -0.012010 -67554.500000 0 0 1
-29.669687 24.549789 29.690085 48.625957 -0.691248 0.914002 0.092205 -0.013501 -29744.800000 0 0 1
-29.093257 24.222609 28.466205 47.365359 -0.694296 0.926055 0.091630 -0.021210 -398005.000000 0 0 1
-29.929757 23.423449 27.696755 47.027211 -0.664049 0.941035 0.102837 -0.014280 -191831.000000 0 0 1
-29.141297 22.966239 26.488085 45.588178 -0.667442 0.950803 0.121332 -0.020338 -125659.000000 0 0 1
-28.090237 22.076889 26.798095 44.660815 -0.666101 0.927250 0.119297 -0.029200 -183937.000000 0 0 1
-27.326957 21.926489 25.600935 43.392873 -0.676188 0.939762 0.100620 -0.020095 -833116.000000 0 0 1
-25.911317 21.556789 25.996415 42.566479 -0.693918 0.913820 0.083716 -0.030223 -1065540.000000 0 0 1
-25.754247 20.224589 26.527225 42.142721 -0.665708 0.889936 0.137249 -0.043103 1304410.000000 0 0 1
-24.411377 19.857689 26.921145 41.412452 -0.682895 0.863115 0.100901 -0.034681 977783.000000 0 0 1
-24.492177 18.482889 27.643965 41.299791 -0.646467 0.837464 0.128243 -0.032457 -425354.000000 0 0 1
-23.232577 17.992789 27.982915 40.577539 -0.658975 0.809838 0.101797 -0.025042 -440706.000000 0 0 1
-23.352877 16.688489 28.501065 40.449639 -0.620472 0.788928 0.095265 -0.016963 -474671.000000 0 0 1
-22.074877 15.908989 28.774725 39.602790 -0.624473 0.757460 0.092473 -0.020439 -302540.000000 0 0 1
-21.326477 16.462989 29.867515 40.223340 -0.657402 0.733939 0.121127 -0.016900 733789.000000 0 0 1
-20.062777 15.784389 29.932585 39.339822 -0.666609 0.706140 0.111916 -0.016756 362698.000000 0 0 1
-19.006677 16.349689 30.878785 39.775187 -0.710390 0.681969 0.097662 -0.024858 -366796.000000 0 0 1
-19.333777 16.217189 32.252548 40.951423 -0.697956 0.663923 0.083093 -0.023627 58456.100000 0 0 1
-18.394577 16.902189 33.023174 41.407421 -0.743142 0.647626 0.080210 -0.021694 -706489.000000 0 0 1
-18.683777 16.717589 -33.166923 41.576509 -0.729915 2.494321 0.067956 -0.030682 466946.000000 0 0 1
-19.807477 17.369989 -32.596143 41.911349 -0.719928 2.461859 0.090002 -0.033228 -48508.400000 0 0 1
-21.085777 16.903889 -32.903923 42.579568 -0.675760 2.453980 0.088297 -0.027290 -657209.000000 0 0 1
-22.154477 17.641089 -32.065993 42.781500 -0.672466 2.418147 0.085979 -0.029665 -248087.000000 0 0 1
-22.201877 17.327089 -30.695113 41.657428 -0.662696 2.399190 0.097011 -0.025135 235681.000000 0 0 1
-23.190177 18.068789 -29.988853 41.995199 -0.661902 2.366137 0.105470 -0.018330 -274948.000000 0 0 1
-23.315677 17.545289 -28.472853 40.769612 -0.645106 2.343934 0.111037 -0.021579 172415.000000 0 0 1
-23.943277 16.295489 -28.133643 40.377287 -0.597578 2.341680 0.113246 -0.020556 -269579.000000 0 0 1
-25.281887 16.244089 -28.539213 41.443104 -0.571098 2.330403 0.118676 -0.019307 -789632.000000 0 0 1
-26.154767 15.336889 -27.688123 41.060007 -0.530352 2.310858 0.116060 -0.013136 -340784.000000 0 0 1
-25.807247 13.963189 -27.698113 40.350590 -0.495951 2.327373 0.084532 -0.003722 224711.000000 0 0 1
-26.682417 13.133289 -26.915113 40.110572 -0.457394 2.306384 0.055986 -0.002890 557592.000000 0 0 1
-26.233167 11.653589 -27.087743 39.468101 -0.418046 2.327213 0.061642 -0.006185 511753.000000 0 0 1
-25.123267 11.222889 -26.311563 38.071382 -0.420117 2.333822 0.053139 -0.005836 318628.000000 0 0 1
-24.532077 10.055189 -26.886763 37.760133 -0.388994 2.363197 0.044719 0.003069 56141.000000 0 0 1
-23.426877 9.421489 -26.039363 36.271634 -0.382372 2.371576 0.060125 -0.000787 -124229.000000 0 0 1
-23.956877 8.570889 -25.026253 35.689010 -0.343574 2.347920 0.054702 -0.006110 -325992.000000 0 0 1
-22.978977 8.023389 -24.213753 34.332404 -0.335928 2.353606 0.081627 -0.003781 -788465.000000 0 0 1
-23.489477 6.863189 -23.382553 33.846753 -0.284268 2.333441 0.079838 -0.007297 -29686.600000 0 0 1
-23.691777 5.675489 -24.130653 34.289938 -0.235124 2.351422 0.071489 -0.011645 314573.000000 0 0 1
-24.293277 4.617389 -23.402853 34.046690 -0.187828 2.328665 0.075364 -0.005778 -196965.000000 0 0 1
35.348844 24.328642 -9.991353 44.059627 0.602793 1.799555 0.046170 -0.016335 81197.100000 0 0 1
36.200074 23.639242 -9.093053 44.180796 0.578493 1.778092 0.049026 -0.028697 -763498.000000 0 0 1
37.337724 23.148842 -9.688853 44.987202 0.554985 1.787866 0.047143 -0.032084 -627532.000000 0 0 1
-36.685287 22.781842 -8.710453 44.053316 -0.555723 1.769833 0.097202 -0.039124 49307.800000 0 0 1
-37.119447 21.777342 -7.751553 43.728624 -0.530570 1.749003 0.072600 -0.033371 580582.000000 0 0 1
-35.996095 21.428242 -6.955853 42.464954 -0.536952 1.735340 0.122288 -0.035371 -185966.000000 0 0 1
-36.397887 20.361942 -5.934253 42.126360 -0.510052 1.712134 0.096830 -0.011313 -192658.000000 0 0 1
-36.643247 19.084242 -6.388853 41.806140 -0.480158 1.724218 0.073705 -0.002866 138740.000000 0 0 1
-37.151867 18.355842 -5.339053 41.781619 -0.458897 1.698931 0.082717 -0.022089 -318614.000000 0 0 1
37.359654 17.038442 -5.873753 41.479552 0.427886 1.712880 0.081188 -0.008225 384449.000000 0 0 1
36.212154 17.370842 -6.672153 40.713436 0.447273 1.735420 0.067552 -0.010059 79378.900000 0 0 1
35.526834 16.195842 -6.986653 39.664525 0.427730 1.747864 0.071791 -0.007908 417188.000000 0 0 1
34.286704 16.529642 -7.889753 38.872295 0.449226 1.775182 0.053887 -0.013981 562937.000000 0 0 1
33.581674 15.463042 -8.485753 37.932077 0.431519 1.796415 0.078581 -0.017921 -125885.000000 0 0 1
32.898714 15.851842 -9.635153 37.768273 0.449013 1.828760 0.070676 -0.015992 -596854.000000 0 0 1
32.296584 14.703142 -10.460653 36.995634 0.427214 1.857460 0.060427 -0.016191 146918.000000 0 0 1
31.094944 14.077842 -10.040353 35.579346 0.425128 1.856879 0.064888 -0.011766 515638.000000 0 0 1
31.200464 13.401042 -8.843653 35.089415 0.405688 1.825576 0.073564 -0.016341 -899728.000000 0 0 1
30.176784 12.300742 -8.638453 33.713045 0.387060 1.829921 0.081072 -0.005378 -378679.000000 0 0 1
30.478894 11.175842 -9.443653 33.808948 0.351452 1.853886 0.095036 -0.011055 267540.000000 0 0 1
29.475164 10.192842 -9.393453 32.571709 0.332938 1.863344 0.120892 -0.014229 -457681.000000 0 0 1
29.997064 8.926242 -10.012753 32.859654 0.289226 1.880433 0.143295 -0.017026 -434401.000000 0 0 1
31.038894 8.449342 -9.213053 33.461689 0.265778 1.849731 0.136617 -0.021986 -101693.000000 0 0 1
31.344694 7.095042 -9.439553 33.495292 0.222604 1.856484 0.140881 -0.024937 -235960.000000 0 0 1
32.343514 6.466142 -8.439153 34.046045 0.197319 1.821282 0.166966 -0.028761 629883.000000 0 0 1
33.653124 7.016542 -8.672253 35.453809 0.205551 1.817911 0.155228 -0.023701 702398.000000 0 0 1
34.583244 6.424642 -7.756053 36.019899 0.183679 1.787823 0.153578 -0.021995 -377031.000000 0 0 1
36.044484 6.643342 -8.109853 37.538094 0.182264 1.788557 0.151745 -0.022445 -565198.000000 0 0 1
36.451624 5.900142 -9.216253 38.058795 0.160471 1.815386 0.154913 -0.028399 -188617.000000 0 0 1
-37.302357 5.832442 -9.305153 38.885333 -0.155100 1.812438 0.144754 -0.028815 -542055.000000 0 0 1
-36.855437 5.205542 -10.668353 38.719952 -0.140314 1.849933 0.130604 -0.032872 443147.000000 0 0 1
-35.460791 4.918942 -10.822453 37.400390 -0.137835 1.864362 0.134138 -0.035411 709419.000000 0 0 1
-34.704853 5.868842 -11.539453 37.040911 -0.167522 1.887602 0.106055 -0.030710 -38067.900000 0 0 1
-33.908487 6.855842 -10.636253 36.192789 -0.199497 1.869077 0.115124 -0.020554 -219911.000000 0 0 1
-34.775542 7.748742 -9.922653 36.984326 -0.219240 1.842417 0.127074 -0.020557 512597.000000 0 0 1
-35.157314 8.904542 -10.620853 37.790609 -0.248061 1.855679 0.119035 -0.021648 476642.000000 0 0 1
-36.208937 9.783042 -9.845053 38.777830 -0.263882 1.827490 0.124832 -0.022424 310836.000000 0 0 1
-35.606846 10.405742 -8.737553 38.111308 -0.284322 1.802118 0.128015 -0.019275 42664.600000 0 0 1
-36.464707 11.110142 -7.852253 38.920021 -0.295747 1.773944 0.124132 -0.023028 110494.000000 0 0 1
-35.660106 12.013342 -6.868453 38.251003 -0.324943 1.751338 0.140299 -0.032687 311571.000000 0 0 1
-35.021961 13.108442 -7.532353 38.145843 -0.358150 1.769565 0.127214 -0.033788 -50408.100000 0 0 1
-34.773515 14.186242 -6.662053 38.142231 -0.387351 1.746360 0.139754 -0.031343 205631.000000 0 0 1
-33.926077 15.341842 -7.265753 37.936025 -0.424693 1.763513 0.112162 -0.025625 15580.300000 0 0 1
-34.648483 16.114042 -8.204253 39.083110 -0.435317 1.782288 0.091899 -0.024516 405.511000 0 0 1
-34.123414 17.433142 -8.395053 39.227525 -0.472318 1.786474 0.071353 -0.020188 62289.100000 0 0 1
-34.776163 18.190842 -9.557453 40.393479 -0.481944 1.809670 0.066817 -0.024425 108090.000000 0 0 1
-34.340381 17.680842 -10.794053 40.104682 -0.475473 1.843304 0.051894 -0.025395 706472.000000 0 0 1
-35.232047 18.159042 -11.832353 41.364871 -0.475902 1.860897 0.051225 -0.018383 296458.000000 0 0 1
-34.445533 18.363742 -13.114853 41.179135 -0.489794 1.894925 0.032430 -0.010201 404815.000000 0 0 1
-33.447877 19.396542 -12.981453 40.786082 -0.525512 1.894712 0.041709 -0.024030 435004.000000 0 0 1
-33.164217 19.859242 -14.274853 41.207114 -0.539548 1.924545 0.028242 -0.016225 -189305.000000 0 0 1
-32.328917 21.137042 -14.367453 41.211129 -0.579051 1.926906 0.026324 -0.012923 -514734.000000 0 0 1
-31.023277 21.087942 -13.846353 39.985829 -0.597003 1.924401 0.023346 -0.006620 208675.000000 0 0 1
-30.347267 22.363842 -13.755653 40.128743 -0.635084 1.920679 0.028411 -0.015757 258718.000000 0 0 1
-29.745287 22.958942 -15.034553 40.471384 -0.657340 1.951405 0.026677 -0.024899 -1178890.000000 0 0 1
-30.729727 23.102242 -16.032153 41.654047 -0.644644 1.965883 0.041354 -0.008973 -250785.000000 0 0 1
-30.299467 23.305442 -17.364453 41.984825 -0.655657 1.997189 0.060228 -0.009022 -191668.000000 0 0 1
-29.588367 24.663242 -17.665953 42.377268 -0.694863 2.000799 0.068781 -0.014107 -178601.000000 0 0 1
-30.325747 25.798142 -17.223253 43.380128 -0.704901 1.979076 0.099070 -0.031040 -67154.100000 0 0 1
-29.613057 26.974342 -17.398653 43.672204 -0.738801 1.980559 0.106305 -0.040304 -90156.800000 0 0 1
-30.498467 28.186342 -17.054353 44.894068 -0.746019 1.960463 0.111813 -0.044523 82347.200000 0 0 1
-30.717607 28.590742 -15.721653 44.812635 -0.749552 1.929254 0.101453 -0.049945 -346365.000000 0 0 1
-29.605057 29.240142 -15.209053 44.303054 -0.779197 1.921220 0.097580 -0.051291 -554836.000000 0 0 1
-29.823917 29.778642 -13.851453 44.363231 -0.784639 1.888334 0.084128 -0.042142 74878.100000 0 0 1
-30.573617 31.028542 -13.834753 45.704670 -0.792783 1.878319 0.064043 -0.030052 308679.000000 0 0 1
-30.426627 31.872842 -12.700553 45.858061 -0.808608 1.851419 0.051246 -0.035381 254953.000000 0 0 1
-29.201187 32.835742 -12.554253 45.700159 -0.843918 1.849084 0.063753 -0.043932 292881.000000 0 0 1
-29.318427 -33.739405 -13.430053 46.672089 0.855394 1.862677 0.049266 -0.041959 -455038.000000 0 0 1
-28.191837 -32.917505 -13.505653 45.395423 0.862576 1.872881 0.102210 -0.049522 -515672.000000 0 0 1
-28.149217 -31.916405 -14.710453 45.027022 0.848034 1.903609 0.089710 -0.044249 -279677.000000 0 0 1
-27.761917 -32.682205 -15.829053 45.710059 0.866621 1.924413 0.087025 -0.040241 -88480.200000 0 0 1
-28.059317 -32.070505 -17.070653 45.904790 0.852008 1.951820 0.080012 -0.029173 -145726.000000 0 0 1
-27.306697 -32.690705 -18.263053 46.345194 0.874896 1.975847 0.092569 -0.024973 -191279.000000 0 0 1
-27.716387 33.697242 -18.700353 47.470048 -0.882478 1.975711 0.094127 -0.013224 34858.500000 0 0 1
-27.267997 32.604842 -17.847153 46.099244 -0.874300 1.968331 0.079194 -0.036575 -208695.000000 0 0 1
-27.550307 31.199742 -18.487453 45.543707 -0.847436 1.988790 0.094112 -0.043267 1428240.000000 0 0 1
-28.937097 30.819542 -18.701453 46.227093 -0.816890 1.987290 0.117815 -0.033214 1095600.000000 0 0 1
-29.552017 31.452342 -19.795053 47.480687 -0.816539 2.000837 0.112777 -0.025140 269009.000000 0 0 1
-31.110797 31.387842 -19.843453 48.444204 -0.789831 1.992828 0.117176 -0.039442 734997.000000 0 0 1
-31.707297 30.114742 -19.992453 48.082726 -0.759644 1.999611 0.114592 -0.038500 230526.000000 0 0 1
-32.964267 30.166842 -20.636953 49.219560 -0.741116 2.003452 0.125125 -0.036622 -58419.800000 0 0 1
-33.350647 28.783742 -21.123053 48.856451 -0.712030 2.017893 0.127073 -0.040329 -93349.900000 0 0 1
-34.711378 28.496442 -21.387453 49.742840 -0.687388 2.015245 0.128548 -0.038693 305688.000000 0 0 1
-34.902855 27.249242 -21.949953 49.421968 -0.662872 2.031003 0.117019 -0.032804 5889.040000 0 0 1
-36.384617 26.810942 -22.048253 50.287100 -0.635049 2.024667 0.113682 -0.035370 83060.800000 0 0 1
-37.115427 27.523242 -22.986753 51.608862 -0.638076 2.032421 0.113805 -0.030443 -366508.000000 0 0 1
36.855794 26.842142 -23.354353 51.227687 0.629469 2.044172 0.111757 -0.020878 59784.100000 0 0 1
36.049274 27.417342 -24.475353 51.481100 0.650220 2.066242 0.115856 -0.017819 -168278.000000 0 0 1
36.812344 27.229842 -25.628953 52.473385 0.636872 2.081072 0.125686 -0.025304 -96676.200000 0 0 1
36.178594 27.838742 -26.717763 52.893526 0.655853 2.100321 0.142785 -0.021324 -290829.000000 0 0 1
37.114674 27.959542 -27.927513 54.214214 0.645628 2.111959 0.135476 -0.026137 101695.000000 0 0 1
37.526614 26.810942 -28.570553 54.252648 0.620359 2.125416 0.089524 -0.008123 -148213.000000 0 0 1
-37.015207 27.084142 -29.823023 54.709131 -0.631688 2.147328 0.055313 -0.008758 -752011.000000 0 0 1
-36.873337 25.774042 -30.629043 54.425017 -0.610047 2.168535 0.028504 -0.002498 167077.000000 0 0 1
-35.940014 24.864342 -30.090703 53.060065 -0.605221 2.173785 0.015337 0.003479 1107820.000000 0 0 1
-34.557241 25.276942 -30.251053 52.423782 -0.631524 2.185906 -0.015589 0.010542 921709.000000 0 0 1
-33.531847 24.658842 -29.267253 50.882368 -0.634082 2.183638 -0.008624 0.007625 52116.900000 0 0 1
-33.329397 23.265442 -29.478533 50.210690 -0.609413 2.198264 -0.015128 0.008426 -26304.900000 0 0 1
-33.425817 22.553342 -28.270823 49.246095 -0.593563 2.182267 -0.015089 0.009787 382.687000 0 0 1
-33.107047 21.057142 -28.581503 48.542580 -0.566493 2.200360 -0.017729 -0.000188 765210.000000 0 0 1
-31.683407 20.853042 -28.550853 47.474613 -0.582097 2.216039 0.056342 -0.002778 727470.000000 0 0 1
-31.387507 19.525342 -28.879423 46.908801 -0.556492 2.234007 0.041885 -0.001135 185668.000000 0 0 1
-29.906547 19.084842 -29.058153 45.858576 -0.567999 2.257055 0.080410 -0.007354 -156016.000000 0 0 1
-29.351217 19.464642 -30.267833 46.438216 -0.585573 2.280735 0.098613 -0.010202 -349586.000000 0 0 1
-28.130107 18.837642 -30.557333 45.606033 -0.590073 2.305043 0.111232 -0.017591 -309198.000000 0 0 1
-28.150407 17.462242 -31.204343 45.509189 -0.555226 2.326322 0.102756 -0.010451 -431842.000000 0 0 1
-28.441137 16.470542 -30.318073 44.714232 -0.524917 2.315890 0.068188 -0.003532 143347.000000 0 0 1
-28.415657 15.253242 -31.006483 44.738271 -0.492645 2.336527 0.039890 0.003726 -141260.000000 0 0 1
-28.789657 14.071142 -30.041093 43.923896 -0.454613 2.323939 0.038709 0.011980 -36783.800000 0 0 1
-30.169397 14.154442 -29.736583 44.663241 -0.438677 2.299356 0.020266 0.005776 637086.000000 0 0 1
-30.941587 12.915442 -29.793293 44.853436 -0.395427 2.297268 0.013290 0.007263 349178.000000 0 0 1
-30.723687 11.934442 -28.635413 43.661914 -0.370505 2.286097 0.016093 -0.007915 -559362.000000 0 0 1
-31.273137 12.353642 -27.433733 43.396213 -0.376209 2.255145 0.009469 -0.004756 38343.200000 0 0 1
-31.078097 11.490742 -26.281913 42.292129 -0.354149 2.241372 0.011380 -0.001985 -43315.200000 0 0 1
-30.857567 12.286142 -25.013953 41.579281 -0.378916 2.216295 0.019867 -0.014803 -212915.000000 0 0 1
-29.596207 12.893942 -24.893953 40.766384 -0.410867 2.227676 0.039212 -0.018790 -297947.000000 0 0 1
-29.301437 13.202042 -23.563853 39.851265 -0.423319 2.203460 0.044730 -0.015246 4530.160000 0 0 1
-27.813327 13.527842 -23.299853 38.722949 -0.452692 2.216432 0.073198 -0.012583 -447955.000000 0 0 1
-27.431977 14.722642 -23.926553 39.265118 -0.492572 2.226048 0.077613 -0.007246 -411355.000000 0 0 1
-26.084457 15.053042 -23.712453 38.331102 -0.523402 2.237784 0.085477 -0.009638 -24954.600000 0 0 1
-25.553057 15.422942 -22.279453 37.245132 -0.543037 2.212030 0.095008 -0.012264 -564874.000000 0 0 1
-25.861897 16.773542 -21.864053 37.791881 -0.575377 2.187732 0.118765 -0.014018 84078.800000 0 0 1
-25.882817 16.811142 -20.476453 37.038086 -0.576031 2.156575 0.116253 -0.011816 430589.000000 0 0 1
-27.279277 16.689142 -19.778453 37.601511 -0.549042 2.124689 0.104782 -0.017642 176010.000000 0 0 1
-28.004817 15.516342 -20.134053 37.820718 -0.505955 2.132177 0.107008 -0.026409 -847691.000000 0 0 1
-29.170027 15.685242 -19.396353 38.381451 -0.493365 2.100592 0.091334 -0.022147 -971106.000000 0 0 1
-30.238917 14.638542 -19.868553 39.031249 -0.450844 2.104868 0.074932 -0.028801 164830.000000 0 0 1
-30.898927 14.834042 -21.093953 40.246085 -0.447587 2.122483 0.058731 -0.019852 1002810.000000 0 0 1
-31.822297 15.956142 -21.288453 41.478371 -0.464778 2.109755 0.056589 -0.020800 733528.000000 0 0 1
-32.389377 16.073742 -22.755653 42.723023 -0.460656 2.132504 0.021456 -0.008195 181275.000000 0 0 1
-33.464547 15.239542 -23.144253 43.448544 -0.427330 2.132563 0.026200 -0.008518 258230.000000 0 0 1
-33.862107 15.459542 -24.478153 44.551315 -0.428283 2.152487 0.002470 -0.000285 -257412.000000 0 0 1
-35.023480 14.568642 -24.969753 45.413413 -0.394196 2.152960 -0.002682 -0.010521 -42796.200000 0 0 1
-34.808833 13.149642 -25.103473 44.885992 -0.361195 2.164304 -0.004497 -0.010488 -22626.600000 0 0 1
-34.942250 12.491642 -23.867053 44.120722 -0.343335 2.142361 -0.003365 -0.011547 -205627.000000 0 0 1
-34.916303 10.946542 -23.963453 43.740394 -0.303803 2.150596 0.008202 -0.017137 -35103.300000 0 0 1
-36.047257 10.460042 -24.640253 44.899435 -0.282420 2.151710 0.019757 -0.015556 14729.500000 0 0 1
-35.642557 9.336142 -25.349013 44.722789 -0.256183 2.173416 0.018777 -0.013628 -244693.000000 0 0 1
-36.859667 8.752742 -26.039823 45.970838 -0.233143 2.172979 0.052337 -0.009262 -349865.000000 0 0 1
37.364204 8.125542 -25.188463 45.788282 0.214135 2.153289 0.055717 -0.011545 -493776.000000 0 0 1
36.486954 7.347542 -25.940343 45.367230 0.198717 2.179477 0.068909 -0.008217 -751939.000000 0 0 1
35.396884 6.671942 -25.151323 43.932257 0.186304 2.180351 0.090045 -0.023058 -452505.000000 0 0 1
35.924074 5.671842 -24.265553 43.721001 0.156592 2.159170 0.079508 -0.025838 275492.000000 0 0 1
34.928044 4.748542 -23.847653 42.558518 0.135124 2.165604 0.098583 -0.022684 164556.000000 0 0 1
35.444664 3.646242 -22.947953 42.381928 0.102511 2.142964 0.079443 -0.013427 548912.000000 0 0 1
36.431334 2.765742 -23.520953 43.452579 0.075771 2.142781 0.094695 -0.019758 613937.000000 0 0 1
37.094174 1.958742 -22.582653 43.471722 0.052756 2.117038 0.126657 -0.015447 -238314.000000 0 0 1
-37.351927 0.784042 -23.197853 43.976375 -0.020988 2.126460 0.139466 -0.017947 -380411.000000 0 0 1
36.965724 -0.092058 -23.888753 44.013017 -0.002490 2.144523 0.118731 -0.021239 -298026.000000 0 0 1
37.576124 -1.330258 -24.016753 44.615458 -0.035387 2.139222 0.127408 -0.022856 13095.000000 0 0 1
-23.301177 29.149042 26.770345 45.926712 -0.896433 0.948512 0.063890 -0.018976 301649.000000 0 0 1
-24.675077 29.448442 26.450465 46.644370 -0.873364 0.967856 0.056629 -0.025787 1366210.000000 0 0 1
-25.090437 28.907042 25.187065 45.820687 -0.855962 0.988806 0.053976 -0.021651 -133585.000000 0 0 1
-25.491677 27.423942 25.036915 45.041596 -0.821898 0.981397 0.052443 -0.018821 66425.400000 0 0 1
-26.749467 27.086842 25.619315 45.886603 -0.791665 0.978439 0.058118 -0.015661 395144.000000 0 0 1
-26.694867 26.837942 27.031955 46.514704 -0.788071 0.950657 0.063196 -0.016502 -925448.000000 0 0 1
-25.972887 25.536842 27.527435 45.656115 -0.776933 0.923628 0.061120 -0.012148 877688.000000 0 0 1
-24.547877 25.609742 27.630995 44.965866 -0.806566 0.909059 0.056709 -0.016859 382817.000000 0 0 1
-24.264977 26.145242 28.885135 45.898953 -0.822680 0.890118 0.046679 -0.011358 -95588.200000 0 0 1
-22.903777 25.648142 29.454415 45.276625 -0.841862 0.862496 0.057275 -0.006237 145706.000000 0 0 1
-21.734777 26.303142 28.959195 44.753668 -0.880212 0.867048 0.072278 -0.017100 685559.000000 0 0 1
-20.612877 26.035142 29.813545 44.626974 -0.901117 0.839196 0.090921 -0.017584 586608.000000 0 0 1
-19.824777 24.775442 29.293445 43.185070 -0.895947 0.825318 0.085623 -0.019359 -371732.000000 0 0 1
-19.301577 24.910242 27.938615 42.114573 -0.911583 0.845449 0.088230 -0.020679 65510.000000 0 0 1
-19.825077 24.031142 26.949645 41.192388 -0.881012 0.857621 0.080862 -0.021724 -147046.000000 0 0 1
-19.536777 22.507542 27.087655 40.274262 -0.855939 0.833107 0.048257 -0.011965 -11917.200000 0 0 1
-20.311677 21.936642 28.122045 41.044244 -0.823841 0.815967 0.053011 -0.005207 -2115.630000 0 0 1
-20.277577 20.527042 28.175865 40.328885 -0.791512 0.797284 0.071746 -0.007238 -180308.000000 0 0 1
-20.751377 19.982242 29.510855 41.240759 -0.766518 0.773349 0.087277 -0.021539 42142.700000 0 0 1
-19.966577 20.301842 30.656885 41.841052 -0.793724 0.748517 0.069095 -0.022606 4694.890000 0 0 1
-20.630177 19.917742 31.836368 42.847112 -0.767830 0.733221 0.066716 -0.019115 -317168.000000 0 0 1
-19.932177 20.378142 33.156082 43.725121 -0.796461 0.710119 0.069041 -0.019052 -288867.000000 0 0 1
-20.002877 21.786842 33.384496 44.601639 -0.828061 0.724993 0.047969 -0.013432 -198721.000000 0 0 1
-19.085777 22.590242 32.698636 44.088397 -0.869289 0.735253 0.074854 -0.009158 442824.000000 0 0 1
-17.595177 22.680942 33.180806 43.874609 -0.911006 0.713212 0.062098 -0.009845 1201000.000000 0 0 1
-16.816977 21.465942 33.061785 42.856494 -0.906243 0.689674 0.072436 -0.027270 -45768.100000 0 0 1
-15.478177 21.624642 33.433147 42.719720 -0.949568 0.671939 0.064223 -0.024581 -655372.000000 0 0 1
-14.680677 20.309642 33.231631 41.621451 -0.944904 0.646121 0.066505 -0.026428 -85248.700000 0 0 1
-13.318777 20.270442 33.592926 41.433867 -0.989478 0.625347 0.064397 -0.033371 154889.000000 0 0 1
-13.084177 20.275742 -32.726183 40.660847 -0.997724 2.506231 0.080328 -0.030409 543584.000000 0 0 1
-11.542377 20.162342 -32.447003 39.906823 -1.050864 2.520201 0.060796 -0.022053 1181520.000000 0 0 1
-10.746177 21.331142 -32.552423 40.375217 -1.104130 2.508578 0.056281 -0.021716 -544042.000000 0 0 1
-9.400977 21.104142 -32.303663 39.715108 -1.151727 2.520743 0.053768 -0.015485 -375068.000000 0 0 1
-8.479277 22.380342 -32.411953 40.290353 -1.208636 2.505561 0.058419 -0.018453 246960.000000 0 0 1
-8.339277 23.313642 -31.327543 39.930995 -1.227279 2.472753 0.058429 -0.013098 156065.000000 0 0 1
-7.698577 22.788742 -30.162343 38.579292 -1.245010 2.468387 0.048956 -0.011881 -123764.000000 0 0 1
-7.288777 23.850542 -29.143543 38.357798 -1.274208 2.433773 0.064297 -0.011445 -570768.000000 0 0 1
-6.270377 24.685342 -29.530403 38.996518 -1.322045 2.429900 0.070675 -0.017306 -653243.000000 0 0 1
-6.059777 25.779542 -28.692893 39.045970 -1.339926 2.396240 0.099560 -0.016188 163936.000000 0 0 1
-4.728777 26.504842 -29.037473 39.598520 -1.394242 2.393955 0.092533 -0.021631 557513.000000 0 0 1
-3.567777 25.875842 -28.478243 38.643221 -1.433780 2.399348 0.103238 -0.020444 639953.000000 0 0 1
-2.409077 25.837642 -29.287343 39.129731 -1.477826 2.416545 0.115624 -0.026470 169895.000000 0 0 1
-1.451977 27.032142 -29.143743 39.776911 -1.517135 2.393048 0.123035 -0.047653 -309509.000000 0 0 1
-0.681377 26.986442 -27.945093 38.854350 -1.545553 2.373485 0.128057 -0.059899 285995.000000 0 0 1
0.211523 28.093242 -27.893553 39.589459 1.563267 2.352614 0.135441 -0.063159 -356024.000000 0 0 1
0.737923 28.453242 -26.431663 38.842815 1.544868 2.319210 0.129323 -0.073096 451022.000000 0 0 1
1.932923 27.876442 -25.920343 38.114254 1.501568 2.318654 0.169590 -0.082394 903839.000000 0 0 1
3.128123 28.208042 -26.635353 38.921983 1.460353 2.324476 0.168605 -0.079906 253125.000000 0 0 1
4.421823 28.131042 -25.777813 38.410984 1.414885 2.306495 0.165787 -0.082499 99951.600000 0 0 1
4.823623 26.907442 -25.252673 37.215256 1.393413 2.316593 0.150957 -0.064552 -494266.000000 0 0 1
6.022823 27.085442 -24.572953 37.063804 1.351992 2.295603 0.102314 -0.051659 -544211.000000 0 0 1
6.605223 25.853842 -23.917153 35.834066 1.320664 2.301564 0.107419 -0.043816 -292534.000000 0 0 1
7.781723 26.123742 -23.200553 35.794842 1.281286 2.275953 0.096748 -0.041722 -96079.200000 0 0 1
8.393023 24.835542 -22.765753 34.720692 1.244902 2.285883 0.086766 -0.026869 12475.500000 0 0 1
9.819123 24.977442 -22.273953 34.877167 1.196235 2.263526 0.067194 -0.007202 -1303650.000000 0 0 1
9.951223 25.611542 -21.040553 34.607554 1.200204 2.224305 0.078082 -0.015270 47208.600000 0 0 1
11.264323 25.907142 -20.584153 34.953860 1.160658 2.200487 0.095980 -0.019070 441599.000000 0 0 1
12.099923 24.728142 -20.049653 34.056977 1.115731 2.200257 0.060218 -0.002183 -304502.000000 0 0 1
12.357023 23.850242 -21.115653 34.167248 1.092767 2.237003 0.052999 -0.007678 -298537.000000 0 0 1
12.681823 22.496542 -20.802953 33.161512 1.057478 2.248906 0.047011 -0.001511 -249877.000000 0 0 1
12.703423 21.519242 -21.965653 33.270777 1.037519 2.291893 0.051024 -0.003337 -760273.000000 0 0 1
11.563023 21.498842 -22.746653 33.366359 1.077334 2.320913 0.054611 -0.020240 -659240.000000 0 0 1
11.559423 20.439342 -23.689353 33.355245 1.056095 2.360598 0.070354 -0.022915 -48137.500000 0 0 1
10.639023 20.660842 -24.901953 34.061216 1.095271 2.390720 0.084010 -0.020621 100716.000000 0 0 1
9.262623 20.482442 -24.644453 33.356793 1.146096 2.402105 0.067197 -0.024989 -231046.000000 0 0 1
8.557123 20.228042 -25.857273 33.926341 1.170593 2.437438 0.084306 -0.020880 654704.000000 0 0 1
6.985623 20.258342 -25.744883 33.496243 1.238737 2.447431 0.075311 -0.037252 747945.000000 0 0 1
6.523023 21.526942 -25.288153 33.844493 1.276574 2.414615 0.104051 -0.048368 -17216.400000 0 0 1
6.584723 21.615042 -23.880453 32.876202 1.275092 2.383829 0.106343 -0.045206 -104170.000000 0 0 1
5.176523 21.847842 -23.218053 32.298646 1.338151 2.372951 0.135537 -0.052799 694392.000000 0 0 1
4.643923 23.132442 -23.460353 33.272572 1.372676 2.353355 0.137255 -0.055860 -496706.000000 0 0 1
3.254823 23.149042 -23.287753 32.996840 1.431109 2.354288 0.155827 -0.052543 -253107.000000 0 0 1
2.616823 24.128742 -24.341653 34.373827 1.462766 2.357664 0.140573 -0.043528 -1534690.000000 0 0 1
1.258923 24.062242 -24.345553 34.253209 1.518525 2.361364 0.164209 -0.068438 -1801220.000000 0 0 1
0.731923 24.730642 -25.439283 35.486582 1.541209 2.370100 0.154016 -0.062095 -1405550.000000 0 0 1
-0.741177 24.721842 -25.621073 35.611209 -1.540825 2.373830 0.157447 -0.053927 -1282720.000000 0 0 1
-1.306677 23.467542 -26.004023 35.051992 -1.515174 2.406651 0.167888 -0.052562 548294.000000 0 0 1
-2.660577 23.625642 -26.460063 35.572244 -1.458655 2.409594 0.164318 -0.037940 876394.000000 0 0 1
-3.370077 22.388542 -27.048873 35.273868 -1.421391 2.444676 0.134352 -0.038491 -237965.000000 0 0 1
-2.653677 21.842842 -28.133293 35.716017 -1.449899 2.477853 0.163203 -0.050871 -18788.800000 0 0 1
-3.173777 20.625842 -28.574123 35.383311 -1.418120 2.510798 0.110927 -0.046769 138486.000000 0 0 1
-4.481277 20.651242 -29.429343 36.230400 -1.357111 2.518852 0.082529 -0.029884 -72811.500000 0 0 1
-4.393277 20.871142 -30.826363 37.485598 -1.363330 2.536329 0.091614 -0.029555 -46918.700000 0 0 1
-3.960077 22.181642 -31.241563 38.519381 -1.394128 2.516760 0.114667 -0.029330 -144564.000000 0 0 1
-3.517477 22.237942 -32.713183 39.712102 -1.413921 2.538805 0.099641 -0.025894 -80021.000000 0 0 1
-2.314777 21.511742 -32.879243 39.359342 -1.463603 2.559585 0.093335 -0.025594 65700.700000 0 0 1
-1.868977 21.744642 33.586502 40.054659 -1.485056 0.576241 0.093109 -0.012051 -286035.000000 0 0 1
-0.668677 20.914842 33.098375 39.158399 -1.538836 0.563776 0.112765 -0.010886 -452127.000000 0 0 1
-0.912377 19.640342 32.609395 38.078184 -1.524375 0.542579 0.091532 -0.001517 -307577.000000 0 0 1
0.145823 18.882842 32.079133 37.224371 1.563074 0.532033 0.089630 -0.013612 -191465.000000 0 0 1
-0.357277 17.471442 31.768125 36.257313 -1.550350 0.502907 0.070679 -0.010902 578143.000000 0 0 1
-1.200177 17.413942 30.598125 35.226852 -1.501985 0.518422 0.058159 -0.007181 346414.000000 0 0 1
-1.681077 16.143542 30.260235 34.338343 -1.467037 0.492322 0.044739 -0.006424 -774639.000000 0 0 1
-2.646477 16.151542 29.120265 33.404581 -1.408387 0.512044 0.051078 -0.010352 -242613.000000 0 0 1
-3.929477 16.689042 29.436775 34.065946 -1.339556 0.527414 0.030952 -0.015213 202742.000000 0 0 1
-4.070277 18.047842 29.090215 34.475098 -1.348980 0.566464 0.041016 -0.018095 -277584.000000 0 0 1
-5.544777 18.413642 29.357525 35.095172 -1.278309 0.579910 0.034644 -0.029904 207479.000000 0 0 1
-6.427477 17.636142 28.571295 34.185741 -1.221308 0.581269 0.029566 -0.025535 -271294.000000 0 0 1
-7.747577 18.130342 28.673155 34.797760 -1.166957 0.602371 0.046340 -0.026134 195150.000000 0 0 1
-8.799277 17.469342 27.729095 33.933876 -1.104194 0.614346 0.046433 -0.027525 430431.000000 0 0 1
-9.300877 16.165042 27.943295 33.595277 -1.048684 0.588521 0.053348 -0.038807 -155178.000000 0 0 1
-10.264577 16.045742 28.951125 34.655375 -1.001691 0.581935 0.062528 -0.031288 -699381.000000 0 0 1
-10.630777 14.578942 29.235775 34.355342 -0.940749 0.552944 0.059032 -0.031291 352810.000000 0 0 1
-9.596477 13.637642 29.609485 33.982338 -0.957608 0.512911 0.054556 -0.028074 411467.000000 0 0 1
-9.040177 13.806342 30.930085 35.057240 -0.991065 0.490125 0.054156 -0.026129 -227705.000000 0 0 1
-9.795377 13.344142 32.186594 36.193817 -0.937576 0.475018 0.112011 -0.032105 -433696.000000 0 0 1
-10.012677 11.940042 32.214804 35.785639 -0.872970 0.450531 0.122100 -0.027207 472492.000000 0 0 1
-10.655577 11.578942 33.437711 36.955294 -0.826903 0.439851 0.122760 -0.021692 -307911.000000 0 0 1
-10.957277 10.085842 33.565975 36.721395 -0.744010 0.417584 0.117329 -0.024336 -800082.000000 0 0 1
-9.854577 9.238642 33.695785 36.302495 -0.753150 0.381265 0.110643 -0.029037 -239152.000000 0 0 1
-9.862477 8.389042 -32.891803 35.348482 -0.704843 2.766575 0.143506 -0.042983 6791.190000 0 0 1
-9.082377 9.020242 -31.714723 34.200555 -0.781966 2.757973 0.116389 -0.047913 -231581.000000 0 0 1
-9.778877 10.201342 -31.250863 34.297379 -0.806539 2.716920 0.107608 -0.042166 646179.000000 0 0 1
-9.058877 11.117942 -30.419393 33.630512 -0.887097 2.701044 0.098514 -0.047193 -52318.300000 0 0 1
-7.993977 11.998042 -31.126943 34.303691 -0.983066 2.707836 0.068638 -0.038211 232887.000000 0 0 1
-8.477277 13.282642 -31.366833 35.102293 -1.002745 2.676062 0.071398 -0.027426 -101778.000000 0 0 1
-7.487777 14.012142 -32.005883 35.732107 -1.080026 2.680839 0.035091 -0.018542 -466202.000000 0 0 1
-7.895777 15.456042 -32.340483 36.703397 -1.098503 2.649044 0.044072 -0.016158 -288766.000000 0 0 1
-8.803477 15.597142 -33.386973 37.887491 -1.056943 2.649220 0.061995 -0.016759 -49149.200000 0 0 1
-9.069777 16.986342 -33.705383 38.818159 -1.080363 2.622539 0.070783 -0.019975 -736240.000000 0 0 1
-9.402877 17.289942 32.503929 37.998179 -1.072699 0.544459 0.066970 -0.026798 703382.000000 0 0 1
-10.607177 16.742042 31.990224 37.632202 -1.006061 0.554667 0.059806 -0.031360 -383101.000000 0 0 1
-11.814277 17.113142 32.544578 38.621061 -0.966568 0.568584 0.080311 -0.029440 -1006310.000000 0 0 1
-13.047177 16.599842 31.749937 38.129282 -0.904662 0.586845 0.090383 -0.040926 -143319.000000 0 0 1
-13.091177 15.205942 31.697840 37.514700 -0.859994 0.564335 0.091785 -0.035375 246533.000000 0 0 1
-13.973477 14.517842 32.569889 38.299132 -0.804502 0.554036 0.068780 -0.027963 -92023.500000 0 0 1
-13.939077 12.956242 32.393207 37.569695 -0.748871 0.531167 0.074210 -0.021843 -94275.600000 0 0 1
-14.441277 12.420942 31.156625 36.518017 -0.710328 0.548735 0.071184 -0.022352 818526.000000 0 0 1
-13.369077 11.857742 30.374295 35.241114 -0.725560 0.531793 0.095920 -0.019420 634524.000000 0 0 1
-13.856277 11.219042 28.992355 34.035570 -0.680611 0.551337 0.091328 -0.018384 -421501.000000 0 0 1
-14.806577 10.222042 29.177205 34.278772 -0.604235 0.552578 0.088212 -0.012198 -187419.000000 0 0 1
-15.300477 9.681942 27.976565 33.324658 -0.564179 0.574406 0.086949 -0.012050 129285.000000 0 0 1
-16.085077 8.382542 28.172235 33.506292 -0.480415 0.572029 0.079835 -0.013669 -39695.600000 0 0 1
-15.240777 7.324442 28.502215 33.140685 -0.447993 0.535454 0.076185 -0.010868 200983.000000 0 0 1
-15.863577 6.176342 27.962965 32.737253 -0.371284 0.546856 0.069691 -0.003649 522012.000000 0 0 1
-14.990177 4.865142 28.169065 32.278031 -0.313830 0.510089 0.081763 -0.007239 1250350.000000 0 0 1
-13.857777 4.600642 27.312785 30.970827 -0.320541 0.490945 0.084237 -0.018460 696605.000000 0 0 1
-14.221777 4.437142 25.951465 29.923665 -0.302426 0.521133 0.078121 -0.013893 -335234.000000 0 0 1
-13.131377 4.119242 24.874435 28.427782 -0.303973 0.505351 0.068115 -0.012662 24291.200000 0 0 1
-12.606977 2.808842 24.970155 28.112882 -0.219220 0.477361 0.057853 -0.014707 156011.000000 0 0 1
-11.525677 2.629142 24.086165 26.830896 -0.224274 0.456269 0.047075 -0.020332 -396517.000000 0 0 1
-10.562377 1.523742 24.541225 26.761116 -0.143273 0.410183 0.039597 -0.007335 -361856.000000 0 0 1
-9.241077 1.947242 24.331925 26.100419 -0.207678 0.370234 0.036254 -0.023176 -61307.300000 0 0 1
-8.254877 1.034342 24.741425 26.102701 -0.124651 0.324378 0.039043 -0.013046 134818.000000 0 0 1
-6.790177 1.379542 24.419895 25.383872 -0.200439 0.276473 0.042419 -0.021751 -446451.000000 0 0 1
-6.461277 1.365842 23.050175 23.977577 -0.208322 0.279033 0.036234 -0.023206 -12683.200000 0 1 0
-5.198877 1.861242 22.661385 23.324471 -0.343791 0.239017 0.052322 -0.026859 26653.100000 0 1 0
-4.769777 3.339542 23.062975 23.786638 -0.610824 0.247300 0.075481 -0.035345 -596919.000000 0 1 0
-4.458877 3.492942 24.444085 25.091743 -0.664517 0.227699 0.072458 -0.034484 179272.000000 0 0 1
-4.406877 4.864142 24.775915 25.630576 -0.834680 0.258968 0.067130 -0.043348 -242272.000000 0 0 1
4.490023 -23.516858 13.013847 27.250012 -1.382139 1.072907 0.134539 -0.034086 162944.000000 0 0 1
3.984023 -24.819558 13.161247 28.374308 -1.411635 1.088467 0.152258 -0.048706 -901388.000000 0 0 1
2.602423 -24.903558 12.991247 28.208728 -1.466674 1.092193 0.141014 -0.053525 -709225.000000 0 0 1
2.111223 -26.140148 13.728947 29.601496 -1.490206 1.088525 0.133974 -0.052153 -301268.000000 0 0 1
2.372123 -26.030348 15.066247 30.169484 -1.479918 1.047905 0.149693 -0.044578 -83369.000000 0 0 1
2.397423 -27.314458 15.687247 31.589824 -1.483249 1.051129 0.151433 -0.045534 -372671.000000 0 0 1
2.214323 -27.467008 17.202147 32.484668 -1.490353 1.012730 0.157475 -0.040689 -25011.900000 0 0 1
3.160923 -26.797868 18.019147 32.446985 -1.453385 0.982023 0.162808 -0.038334 227674.000000 0 0 1
3.035923 -27.204738 19.347947 33.521003 -1.459661 0.955514 0.153155 -0.040911 167983.000000 0 0 1
3.921223 -26.311228 20.248347 33.431307 -1.422853 0.920188 0.120660 -0.038322 344967.000000 0 0 1
3.293223 -25.043308 20.526447 32.547621 -1.440045 0.888394 0.126620 -0.034340 230933.000000 0 0 1
4.046023 -24.382158 21.494047 32.754450 -1.406353 0.855001 0.090401 -0.023247 216416.000000 0 0 1
3.241923 -23.234658 22.250247 32.333155 -1.432162 0.811852 0.105156 -0.031808 9107.350000 0 0 1
2.892923 -22.091958 21.532547 30.985064 -1.440588 0.802469 0.121886 -0.031936 -119971.000000 0 0 1
3.910523 -21.289858 20.980347 30.145070 -1.389141 0.801013 0.111265 -0.020563 -237102.000000 0 0 1
3.315123 -20.154058 20.095147 28.652941 -1.407767 0.793536 0.078034 -0.006697 -171693.000000 0 0 1
2.741223 -19.145858 20.889847 28.468648 -1.428587 0.746921 0.045997 -0.012888 317380.000000 0 0 1
1.910123 -18.326358 20.046347 27.227927 -1.466943 0.743296 0.024914 -0.012705 278238.000000 0 0 1
1.411723 -16.968158 20.738447 26.832714 -1.487789 0.687430 0.043356 -0.013287 373456.000000 0 0 1
2.274923 -15.837658 20.538447 26.035255 -1.428132 0.661827 0.020591 -0.004748 220796.000000 0 0 1
1.619923 -14.680058 20.952747 25.634857 -1.460892 0.613993 0.021931 -0.008793 -154059.000000 0 0 1
2.510323 -13.445358 20.793547 24.888772 -1.386216 0.581829 0.005029 0.005501 -279121.000000 0 1 0
2.859223 -13.028758 19.430947 23.568738 -1.354766 0.601589 -0.000107 -0.004054 463554.000000 0 1 0
1.748723 -12.676658 18.596247 22.573792 -1.433713 0.602718 0.000290 -0.004672 592053.000000 0 1 0
0.843023 -11.517058 19.047247 22.274446 -1.497729 0.545021 -0.009183 -0.012058 -345350.000000 0 1 0
1.458223 -10.254358 18.859347 21.516349 -1.429538 0.502228 -0.001227 -0.008927 -242318.000000 0 1 0
1.236723 -9.366258 19.938147 22.063227 -1.439516 0.442504 0.007774 -0.017540 821240.000000 0 1 0
-0.170177 -8.671558 20.043147 21.839245 1.551174 0.408398 0.021187 -0.028523 598814.000000 0 1 0
-0.390977 -7.782358 21.068247 22.463059 1.520600 0.354251 0.028878 -0.036926 -150322.000000 0 1 0
-1.711277 -7.273558 21.061747 22.347938 1.339725 0.340921 0.034096 -0.032698 30292.300000 0 1 0
-2.176377 -6.673658 22.361647 23.437526 1.255557 0.304170 0.037306 -0.027153 -255385.000000 0 1 0
-2.501477 -7.631458 23.336247 24.679485 1.254048 0.331446 0.037148 -0.023892 -44877.300000 0 1 0
-2.433277 -7.013058 24.579747 25.676211 1.236829 0.293295 0.044646 -0.018050 -27604.300000 0 0 1
-2.636677 -7.858958 25.837847 27.135026 1.247097 0.310453 0.049542 -0.021042 31824.600000 0 0 1
-1.661577 -8.879658 25.831147 27.365258 1.385814 0.336429 0.039507 -0.016768 -40331.600000 0 0 1
-1.799277 -9.789758 26.850547 28.636142 1.389033 0.355003 0.043083 -0.028105 -934963.000000 0 0 1
-0.627577 -10.717258 26.944847 29.004797 1.512305 0.379152 0.047768 -0.031044 -1671130.000000 0 0 1
0.564523 -10.133958 27.350947 29.173449 -1.515148 0.355339 0.049376 -0.025919 -654474.000000 0 0 1
1.480323 -11.220458 27.553447 29.787287 -1.439623 0.389742 0.069069 -0.040106 -19948.600000 0 0 1
2.707423 -10.728158 28.323147 30.407634 -1.323592 0.372423 0.093284 -0.040814 -302429.000000 0 0 1
2.286123 -10.314158 29.607147 31.435512 -1.352674 0.342739 0.092445 -0.057261 33134.500000 0 0 1
3.363023 -10.049958 30.498747 32.287539 -1.247879 0.334428 0.135999 -0.040138 94281.300000 0 0 1
2.930823 -9.563558 31.933147 33.463073 -1.273426 0.303554 0.132683 -0.051625 -159668.000000 0 0 1
2.120723 -10.494558 32.615547 34.327935 -1.371403 0.317186 0.129119 -0.054028 -76906.100000 0 0 1
1.907023 -10.211358 -33.743091 35.305874 -1.386168 2.842947 0.105993 -0.058237 -166901.000000 0 0 1
3.085423 -10.613258 -32.812691 34.624179 -1.287880 2.816689 0.100153 -0.039029 -157834.000000 0 0 1
4.142623 -9.691258 -32.873291 34.521516 -1.166844 2.831336 0.088448 -0.054932 -104197.000000 0 0 1
4.404823 -8.950758 -31.661391 33.195816 -1.113475 2.836358 0.108663 -0.051636 -196118.000000 0 0 1
3.452523 -7.779358 -31.321891 32.457652 -1.153106 2.876270 0.087725 -0.040308 -251740.000000 0 0 1
3.415523 -6.721658 -32.242091 33.111915 -1.100660 2.911875 0.129046 -0.054000 -47714.800000 0 0 1
2.731723 -5.661158 -31.667191 32.285012 -1.121216 2.945645 0.095866 -0.032124 -150444.000000 0 0 1
3.010923 -4.349358 -32.435991 32.864511 -0.965278 2.979930 0.103810 -0.038301 173989.000000 0 0 1
2.362123 -4.436658 -33.698091 34.070880 -1.081558 2.993528 0.100699 -0.045544 119227.000000 0 0 1
2.754823 -3.328258 33.201847 33.481771 -0.879388 0.129400 0.112170 -0.034277 408719.000000 0 0 1
1.876723 -3.227558 31.918647 32.136261 -1.044115 0.116441 0.127956 -0.036516 308060.000000 0 0 1
0.511923 -2.967758 32.155447 32.296168 -1.399982 0.093385 0.125852 -0.035469 -275558.000000 0 0 1
-0.212177 -3.144758 30.959347 31.119378 1.503428 0.101458 0.123021 -0.027053 -249821.000000 0 0 1
-1.724477 -3.277558 31.014547 31.234890 1.086451 0.118850 0.113535 -0.029541 117551.000000 0 0 1
-2.603077 -2.247558 30.550347 30.743312 0.712236 0.112100 0.113817 -0.028473 -688810.000000 0 0 1
-3.929277 -2.617658 30.626547 30.988333 0.587675 0.152955 0.085331 -0.027910 -494754.000000 0 0 1
-4.861677 -1.590458 29.881147 30.315812 0.316168 0.169542 0.059397 -0.018440 44813.000000 0 0 1
-4.777977 -1.712458 28.483947 28.932626 0.344144 0.176340 0.057629 -0.022115 70008.800000 0 0 1
-5.654177 -0.907558 27.688647 28.274628 0.159154 0.203944 0.040036 -0.023030 210426.000000 0 0 1
-5.690177 0.638942 27.848547 28.431109 -0.111820 0.202784 0.066852 -0.025515 787395.000000 0 0 1
-6.957477 0.988942 28.452647 29.307638 -0.141195 0.242140 0.056385 -0.023935 665565.000000 0 0 1
-7.168777 2.337542 28.426047 29.409108 -0.315202 0.259287 0.068164 -0.029682 -37076.000000 0 0 1
-8.415477 2.827342 29.220247 30.539106 -0.324121 0.294959 0.061500 -0.030840 909680.000000 0 0 1
-9.589777 2.407242 28.493247 30.159970 -0.245940 0.334004 0.062801 -0.021556 1071610.000000 0 0 1
-10.825677 2.758642 29.128947 31.197772 -0.249514 0.366222 0.054686 -0.020151 93949.100000 0 0 1
-12.046777 2.165442 28.483347 31.001856 -0.177853 0.405861 0.053099 -0.014823 -763434.000000 0 0 1
-12.071077 0.773942 28.772547 31.211687 -0.064028 0.397965 0.049702 -0.004815 71068.400000 0 0 1
-12.239877 -0.008958 27.580147 30.174148 0.000732 0.417680 0.040665 0.001072 -869009.000000 0 0 1
-12.251477 -1.541958 27.817747 30.435233 0.125201 0.417765 0.045051 0.003436 -75654.900000 0 0 1
-10.986377 -2.076058 28.178547 30.315690 0.186764 0.377731 0.043271 -0.005267 740877.000000 0 0 1
-9.917277 -1.973758 27.228047 29.045046 0.196455 0.355588 0.043655 -0.005682 -300435.000000 0 0 1
-10.121777 -2.702258 25.881647 27.921537 0.260890 0.384617 0.037268 -0.001028 -628622.000000 0 0 1
-11.054977 -2.098158 24.989447 27.405971 0.187562 0.423089 0.032207 -0.002129 406289.000000 0 0 1
-11.087777 -2.738858 23.707447 26.315076 0.242168 0.448941 0.034059 0.002542 -346121.000000 0 0 1
-10.028177 -2.118758 22.768547 24.969185 0.208218 0.422990 0.033276 -0.004675 476243.000000 0 1 0
-8.715677 -2.539758 23.149447 24.865846 0.283549 0.373726 0.042006 -0.009198 201870.000000 0 1 0
-7.844977 -2.117558 22.097347 23.544012 0.263642 0.352377 0.029695 -0.014512 715297.000000 0 1 0
-6.294277 -2.115458 22.366447 23.331332 0.324232 0.288597 0.041529 -0.018541 977166.000000 0 1 0
-5.739877 -3.406158 22.356547 23.331595 0.535567 0.290121 0.049357 -0.020299 -169091.000000 0 1 0
-5.890777 -4.128358 23.570047 24.643290 0.611274 0.296213 0.042770 -0.014166 -232107.000000 0 1 0
-5.617377 -5.626458 23.288047 24.607826 0.786206 0.328995 0.052565 -0.012980 -293047.000000 0 1 0
-6.488877 -6.236058 22.336847 24.081709 0.765533 0.383010 0.045669 -0.014463 44921.400000 0 1 0
-6.211677 -6.001158 20.926847 22.639165 0.768162 0.391429 0.040910 -0.016341 -230118.000000 0 1 0
-7.463377 -6.155258 20.017647 22.232755 0.689638 0.450183 0.037207 -0.010012 392103.000000 0 1 0
-8.260777 -4.956858 20.175447 22.357539 0.540454 0.445489 0.031193 -0.011200 -467181.000000 0 1 0
-9.270977 -4.896458 19.223447 21.896741 0.485912 0.499309 0.027992 -0.003983 -5343.330000 0 1 0
-10.024977 -3.542758 19.316847 22.049760 0.339694 0.503173 0.020307 -0.005278 189718.000000 0 1 0
-9.183877 -2.606958 18.681847 20.979782 0.276587 0.472421 0.014389 -0.012331 95258.500000 0 1 0
-9.652377 -1.296158 18.814047 21.185297 0.133485 0.477664 0.012393 -0.008649 263006.000000 0 1 0
-8.496977 -0.346258 18.287147 20.167753 0.040728 0.435280 0.004534 -0.008560 794449.000000 0 1 0
-7.453477 0.028042 19.153547 20.552700 -0.003762 0.371115 0.015835 -0.003327 321397.000000 0 1 0
-7.962677 0.783042 20.222947 21.748218 -0.098024 0.376746 0.035322 -0.008109 -427605.000000 0 1 0
-8.023977 2.317842 20.029047 21.700676 -0.281210 0.395072 0.036198 -0.018601 -23022.200000 0 1 0
-8.998877 2.759342 19.113547 21.305432 -0.297530 0.457588 0.023594 -0.023552 263651.000000 0 1 0
-8.708877 4.104242 18.895447 21.206774 -0.440401 0.471231 0.018102 -0.021302 -114301.000000 0 1 0
-9.494277 4.733742 17.764347 20.691101 -0.462518 0.538361 0.020701 -0.009397 -1588680.000000 0 1 0
-10.826377 4.892142 18.067647 21.623676 -0.424410 0.581665 0.030478 -0.004883 -771420.000000 0 1 0
-11.528577 5.702642 17.094847 21.393037 -0.459361 0.645025 0.026048 0.010798 99988.700000 0 1 0
-11.238777 7.211442 17.136947 21.725330 -0.570488 0.661942 0.026470 0.006990 -751633.000000 0 1 0
-9.903877 7.477642 16.803947 20.889580 -0.646707 0.636102 0.007301 0.000962 -66004.000000 0 1 0
-9.739577 8.852842 16.491247 21.099607 -0.737741 0.673585 -0.010849 -0.008242 29064.600000 0 1 0
-8.535177 9.589242 17.110347 21.390811 -0.843490 0.643680 -0.004783 0.004898 -160329.000000 0 1 0
-8.718077 9.885642 18.447547 22.672512 -0.848076 0.620389 0.016167 0.022501 -197379.000000 0 1 0
-8.459477 11.231842 18.830247 23.500963 -0.925270 0.641408 0.037925 0.017163 -63631.100000 0 1 0
-9.072777 12.457642 18.105747 23.776590 -0.941335 0.705180 0.040788 0.006172 -57874.100000 0 1 0
-8.541777 12.747142 16.846047 22.786858 -0.980425 0.738784 0.016358 -0.003725 -251646.000000 0 1 0
-9.309777 13.752842 16.221447 23.215253 -0.975719 0.797160 0.026770 -0.013331 -91177.100000 0 1 0
-8.799777 14.114542 14.820047 22.277571 -1.013309 0.842974 0.023043 -0.014017 1056320.000000 0 1 0
-7.604577 14.925442 14.749547 22.319220 -1.099574 0.848852 0.018077 -0.001145 625414.000000 0 1 0
-7.553977 15.576242 13.514747 21.962019 -1.119247 0.907942 0.012573 -0.006417 226323.000000 0 1 0
-6.476877 16.706042 13.532747 22.453887 -1.200941 0.923928 -0.001482 0.001173 -325296.000000 0 1 0
-5.190177 16.219342 13.728147 21.873889 -1.261094 0.892324 -0.000131 -0.006922 -1499140.000000 0 1 0
-4.337577 17.341142 13.729347 22.539405 -1.325693 0.915838 0.004235 -0.010294 -32887.500000 0 1 0
-2.877677 16.872942 13.476847 21.785376 -1.401872 0.903813 0.014703 -0.020156 212402.000000 0 1 0
-2.127177 16.325642 14.583447 21.993827 -1.441230 0.845884 0.024135 -0.021258 137975.000000 0 1 0
-2.687377 15.185742 15.236547 21.679048 -1.395643 0.791437 0.015410 -0.010608 -591792.000000 0 1 0
-1.765077 14.603242 16.346547 21.990448 -1.450511 0.732735 0.023469 -0.005995 660939.000000 0 1 0
-0.550477 14.126342 15.711047 21.135127 -1.531848 0.732714 0.038661 -0.026728 298157.000000 0 1 0
0.363123 13.647842 16.655247 21.535847 1.544196 0.686651 0.037232 -0.006195 373441.000000 0 1 0
1.431623 14.649942 17.194647 22.634625 1.473384 0.708004 0.036316 -0.017691 -185898.000000 0 1 0
0.881123 15.541742 18.119647 23.888151 1.514163 0.709757 0.038496 -0.023224 -520214.000000 0 1 0
1.706623 16.595542 18.527247 24.931576 1.468320 0.733070 0.066230 -0.026103 -378869.000000 0 1 0
0.881123 17.828042 18.973447 26.050090 1.521413 0.754893 0.073667 -0.023825 320529.000000 0 0 1
0.340823 18.730942 18.055447 26.018523 1.552603 0.803841 0.054711 -0.024417 405683.000000 0 0 1
-0.821977 18.237042 17.366547 25.196474 -1.525755 0.810350 0.051297 -0.018338 -293120.000000 0 0 1
-1.486077 19.258542 16.494847 25.400391 -1.493784 0.864010 0.047952 -0.015548 -383974.000000 0 0 1
-2.178577 20.228542 17.269847 26.686846 -1.463512 0.866983 0.046751 -0.016474 52185.900000 0 0 1
-3.024777 21.023542 16.446047 26.862819 -1.427901 0.911927 0.061204 -0.021240 -260477.000000 0 0 1
-3.613977 22.168142 17.264047 28.329043 -1.409192 0.915478 0.051333 -0.019433 -621791.000000 0 0 1
-4.718477 21.769442 18.010747 28.645412 -1.357350 0.890854 0.068954 -0.017708 -562459.000000 0 0 1
-5.300077 22.804842 18.699047 29.963411 -1.342440 0.896865 0.074440 -0.010164 478708.000000 0 0 1
-6.418377 22.365142 19.735447 30.510376 -1.291326 0.867358 0.064229 -0.014529 484594.000000 0 0 1
-7.697977 22.235642 19.182247 30.358545 -1.237511 0.886850 0.048956 -0.013517 -222342.000000 0 0 1
-8.699777 21.724742 20.036447 30.807625 -1.189898 0.862721 0.026046 -0.014932 -232037.000000 0 0 1
-10.123677 21.986342 19.581247 31.133797 -1.139284 0.890609 0.038211 -0.017279 -604672.000000 0 0 1
-10.435777 23.388542 19.679647 32.298883 -1.151114 0.915621 0.057219 -0.021562 -129831.000000 0 0 1
-11.576077 23.642742 18.889047 32.400323 -1.115483 0.948393 0.036687 -0.017134 -78852.100000 0 0 1
-12.005777 25.123542 19.114547 33.774206 -1.125009 0.969210 0.044036 -0.021365 320205.000000 0 0 1
-12.823777 25.250942 20.298147 34.843566 -1.100886 0.948933 0.039345 -0.021365 561697.000000 0 0 1
-13.268777 26.598242 20.519447 36.118896 -1.108062 0.966591 0.046339 -0.028687 -400929.000000 0 0 1
-14.140277 26.740542 21.776247 37.272094 -1.084379 0.946840 0.070860 -0.039994 -1279960.000000 0 0 1
-15.445377 26.369042 21.540747 37.388365 -1.040929 0.956804 0.077789 -0.040492 -1110630.000000 0 0 1
-16.192977 26.505942 22.705047 38.474623 -1.022387 0.939576 0.068325 -0.032573 -1923760.000000 0 0 1
-17.608577 26.132142 22.620247 38.789514 -0.977852 0.948191 0.084680 -0.030469 -1741900.000000 0 0 1
-17.656177 24.744642 22.533447 37.839056 -0.951044 0.932899 0.090515 -0.031954 -107405.000000 0 0 1
-18.997077 24.308342 22.463747 38.162867 -0.907435 0.941435 0.098712 -0.017544 99433.100000 0 0 1
28.691723 23.913942 23.221145 43.980827 0.694824 1.014572 0.132548 -0.036028 132987.000000 0 0 1
28.357923 23.194842 24.404395 44.019848 0.685580 0.983160 0.128217 -0.044179 117165.000000 0 0 1
28.124823 21.820942 24.161805 43.022692 0.659848 0.974471 0.124337 -0.036320 -61790.200000 0 0 1
27.715423 20.985242 25.377525 43.041188 0.648073 0.940220 0.136995 -0.042074 -678515.000000 0 0 1
26.404723 21.245842 25.760475 42.569911 0.677553 0.920863 0.141598 -0.038390 -716819.000000 0 0 1
26.053623 20.385142 26.802505 42.576045 0.663935 0.889860 0.136676 -0.040759 415976.000000 0 0 1
24.564423 20.580742 27.229495 42.052625 0.697385 0.866484 0.156081 -0.052159 385049.000000 0 0 1
24.314123 21.864042 27.716215 42.864922 0.732391 0.867685 0.153349 -0.059930 -416844.000000 0 0 1
23.104423 21.874442 28.411955 42.656122 0.758059 0.841869 0.204487 -0.058696 -665864.000000 0 0 1
22.842323 23.195442 29.145455 43.695055 0.793068 0.840595 0.194597 -0.066387 -365659.000000 0 0 1
22.665423 24.298042 28.299095 43.645791 0.820148 0.865341 0.162421 -0.052849 96873.800000 0 0 1
22.333723 25.538042 28.978695 44.617839 0.852234 0.863887 0.152737 -0.049310 -53402.500000 0 0 1
20.925623 25.680442 29.586655 44.415504 0.887068 0.841784 0.151492 -0.044350 -964028.000000 0 0 1
19.900523 25.921842 28.649665 43.460051 0.916055 0.851017 0.143827 -0.047585 212972.000000 0 0 1
18.718623 26.510242 29.161235 43.629777 0.955995 0.838769 0.123277 -0.038800 242495.000000 0 0 1
17.755823 25.531842 29.859935 43.113338 0.963138 0.805721 0.090550 -0.027702 -1008220.000000 0 0 1
18.147623 25.183142 31.132195 43.962944 0.946361 0.783927 0.103206 -0.033523 -412953.000000 0 0 1
17.148323 24.555042 31.889729 43.748942 0.961170 0.754045 0.068471 -0.021613 -414131.000000 0 0 1
17.527223 23.956342 33.218413 44.548545 0.939155 0.729260 0.090020 -0.027280 -347502.000000 0 0 1
18.004123 25.007742 -33.720023 45.679049 0.946812 2.401186 0.095292 -0.029574 10064.000000 0 0 1
18.400423 24.574542 -32.435753 44.660516 0.928090 2.383682 0.065104 -0.013667 -280818.000000 0 0 1
18.740923 25.809842 -31.563473 44.873410 0.942757 2.350951 0.045678 0.004534 114003.000000 0 0 1
17.691523 26.439042 -30.836123 44.304395 0.981081 2.340616 0.049114 -0.015076 565425.000000 0 0 1
18.137423 27.762142 -30.414553 44.997196 0.992094 2.313010 0.057056 -0.014405 264455.000000 0 0 1
17.344823 28.278842 -29.194353 44.191017 1.020619 2.292467 0.062894 -0.011424 3477.440000 0 0 1
17.702123 27.491442 -28.076053 43.097671 0.998711 2.280293 0.037706 -0.000846 335813.000000 0 0 1
17.266023 28.149342 -26.909043 42.598094 1.020602 2.254535 0.027050 0.006008 -517831.000000 0 0 1
17.958623 27.591942 -25.646203 41.731943 0.993813 2.232607 0.018324 0.013727 1149120.000000 0 0 1
19.394923 27.753742 -25.660883 42.484281 0.960861 2.219318 0.025169 0.011490 784732.000000 0 0 1
19.985023 27.110942 -24.578853 41.695615 0.935565 2.201215 0.019551 0.007883 289285.000000 0 0 1
21.521723 26.897042 -24.643553 42.354930 0.895963 2.191779 0.024655 0.002622 383083.000000 0 0 1
21.969823 26.638542 -23.342453 41.679193 0.881152 2.165243 0.044711 0.002000 -263076.000000 0 0 1
23.380523 26.723542 -23.315453 42.478311 0.852021 2.151819 0.046139 -0.001488 194991.000000 0 0 1
23.959823 26.620842 -21.873353 41.966485 0.837959 2.119064 0.048817 -0.003771 135400.000000 0 0 1
23.947223 25.343842 -21.315853 40.867412 0.813725 2.119505 0.081262 -0.013489 341085.000000 0 0 1
24.650023 25.445142 -20.061453 40.712907 0.801269 2.086048 0.083704 -0.009008 272491.000000 0 0 1
24.322623 24.207542 -19.163953 39.304607 0.783027 2.080107 0.089649 -0.014803 -623718.000000 0 0 1
24.758223 22.910442 -19.611753 39.018954 0.746655 2.097424 0.086147 -0.005308 231898.000000 0 0 1
24.609223 21.951942 -18.615853 37.868873 0.728389 2.084708 0.097544 -0.016866 -1333060.000000 0 0 1
24.858823 20.478842 -19.005353 37.397159 0.689089 2.103893 0.111607 -0.020317 491677.000000 0 0 1
23.947823 19.871042 -19.945553 36.961894 0.692628 2.140788 0.098053 -0.017044 430258.000000 0 0 1
22.590423 19.796542 -19.575453 35.852875 0.719580 2.148371 0.088667 -0.024201 -647369.000000 0 0 1
21.617623 19.624542 -20.744353 35.815813 0.737109 2.188538 0.081687 -0.007909 -227231.000000 0 0 1
21.528623 20.643042 -21.702753 36.886668 0.764402 2.199829 0.083291 -0.000767 -78787.400000 0 0 1
21.243223 21.996342 -21.338653 37.288761 0.802814 2.180048 0.076576 -0.005296 -18265.100000 0 0 1
20.923223 22.830942 -22.645453 38.364693 0.828971 2.202187 0.059150 -0.000950 726531.000000 0 0 1
19.539423 22.698842 -22.969753 37.744351 0.860059 2.225043 0.068243 0.004226 250785.000000 0 0 1
19.205723 23.402042 -24.164153 38.735276 0.883569 2.244427 0.056144 -0.003288 1045900.000000 0 0 1
17.666023 23.333042 -24.505353 38.171082 0.922751 2.267884 0.048834 0.002366 987505.000000 0 0 1
16.885323 24.053742 -23.566153 37.670415 0.958741 2.246681 0.040629 -0.009944 165922.000000 0 0 1
15.510623 23.981142 -23.940753 37.267066 0.996685 2.268436 0.046886 -0.008518 550974.000000 0 0 1
14.751523 25.201742 -23.349453 37.388931 1.041228 2.245290 0.043320 -0.004928 50684.700000 0 0 1
15.116323 26.416742 -23.956553 38.733240 1.051050 2.237630 0.032557 0.000854 622050.000000 0 0 1
14.061123 27.372342 -23.704453 38.844065 1.096250 2.227168 0.061361 -0.006902 707702.000000 0 0 1
14.361523 28.793442 -24.309353 40.326917 1.108127 2.217811 0.061771 -0.012495 -77960.900000 0 0 1
14.358823 28.785742 -25.735393 41.195936 1.108095 2.245553 0.057667 -0.021548 -99921.800000 0 0 1
13.810523 29.888142 -26.436233 42.224471 1.137947 2.247322 0.089407 -0.035642 -135350.000000 0 0 1
14.669423 31.211942 -26.369103 43.413211 1.131440 2.223578 0.088982 -0.034616 496688.000000 0 0 1
15.870723 30.920442 -27.105483 44.075626 1.096584 2.233153 0.055372 -0.011906 113823.000000 0 0 1
16.634823 32.122842 -27.108513 45.204710 1.092971 2.213902 0.054983 -0.026397 16103.500000 0 0 1
18.103423 31.933042 -27.560333 45.902342 1.055057 2.214813 0.050911 -0.004661 -303526.000000 0 0 1
18.887023 31.367742 -26.575283 45.242685 1.028822 2.198631 0.021349 0.002750 -343901.000000 0 0 1
20.225823 31.255742 -27.023553 46.003019 0.996457 2.198676 0.023495 0.006570 -516394.000000 0 0 1
21.082723 30.630842 -25.945593 45.342072 0.967977 2.180005 0.014507 0.012311 -982057.000000 0 0 1
21.669423 31.406342 -24.858253 45.539597 0.966834 2.148212 0.025429 0.011519 1240670.000000 0 0 1
22.672923 32.412842 -25.170553 46.885077 0.960403 2.137503 0.032072 0.000973 811902.000000 0 0 1
23.971223 31.908542 -25.865333 47.558280 0.926497 2.145834 0.016491 0.006945 -504378.000000 0 0 1
23.763923 31.494642 -27.209083 47.926722 0.924397 2.174533 0.010024 0.016261 103890.000000 0 0 1
24.963123 31.561942 -27.956603 48.998830 0.901614 2.177980 0.008928 0.026219 -396703.000000 0 0 1
24.852423 30.678142 -29.186073 49.098046 0.889926 2.207371 0.014997 0.023109 232881.000000 0 0 1
23.957423 31.285342 -30.099753 49.585541 0.917278 2.223110 0.038561 0.008459 -374538.000000 0 0 1
22.653223 30.811242 -29.963003 48.582740 0.936818 2.235393 0.027944 0.002667 -804608.000000 0 0 1
21.602923 31.452342 -30.906343 49.103341 0.968953 2.251596 0.027265 0.001571 -745933.000000 0 0 1
21.443123 32.844842 -30.655253 49.782885 0.992412 2.234171 0.054569 -0.007055 189837.000000 0 0 1
20.395423 33.424242 -31.392103 50.185828 1.022912 2.246591 0.062512 -0.012844 1352710.000000 0 0 1
18.872823 33.104442 -30.989913 49.116822 1.052653 2.253564 0.059557 -0.017639 1094520.000000 0 0 1
18.358923 31.798242 -31.192653 48.178417 1.047193 2.275017 0.081707 -0.028616 127596.000000 0 0 1
18.379723 31.287642 -32.530243 48.733432 1.039661 2.301661 0.088558 -0.032282 -592524.000000 0 0 1
17.810023 31.978042 -33.809693 49.828580 1.062636 2.316542 0.111458 -0.040087 -326221.000000 0 0 1
18.539223 33.172442 33.638307 50.750856 1.061165 0.846228 0.098088 -0.027607 125850.000000 0 0 1
18.181223 -33.757605 32.460485 50.237594 -1.076762 0.868281 0.098357 -0.033845 1316010.000000 0 0 1
16.665323 -33.276105 32.294988 49.274724 -1.106493 0.856075 0.107652 -0.036862 989516.000000 0 0 1
15.760323 33.336142 32.197414 48.952626 1.129169 0.853000 0.115314 -0.042635 -166092.000000 0 0 1
14.390223 33.698942 32.268766 48.825920 1.167213 0.848787 0.088185 -0.040983 697778.000000 0 0 1
13.614423 -33.334205 31.089305 47.571700 -1.183051 0.858564 0.091273 -0.041064 -406382.000000 0 0 1
14.128523 -32.055605 30.693095 46.575133 -1.155661 0.851306 0.107167 -0.031935 638218.000000 0 0 1
13.331423 -31.512305 29.641015 45.269658 -1.170575 0.856924 0.107728 -0.038836 180213.000000 0 0 1
13.960323 -30.179305 29.164915 44.229779 -1.137531 0.850782 0.117891 -0.035033 26761.800000 0 0 1
13.636523 -29.264105 30.156565 44.178739 -1.134732 0.819477 0.107693 -0.034962 439201.000000 0 0 1
14.146723 -27.922305 29.971985 43.337106 -1.101846 0.807093 0.138408 -0.042868 -425112.000000 0 0 1
13.635523 -26.921605 31.037505 43.290034 -1.101970 0.771355 0.124909 -0.035953 -457870.000000 0 0 1
12.244723 -26.770305 31.029295 42.771481 -1.141806 0.759084 0.086556 -0.037675 -293305.000000 0 0 1
11.678823 -25.837505 30.057735 41.321169 -1.146272 0.756246 0.088328 -0.040293 -225830.000000 0 0 1
12.077623 -24.351705 30.263285 40.678507 -1.110381 0.731815 0.085328 -0.034366 -70258.500000 0 0 1
11.320523 -23.810505 31.327275 40.944994 -1.126987 0.699590 0.091129 -0.034036 234535.000000 0 0 1
11.901023 -22.604205 31.724879 40.731467 -1.086177 0.677920 0.080803 -0.029226 198726.000000 0 0 1
11.141323 -21.910905 32.908691 41.075525 -1.100385 0.641540 0.078055 -0.029079 -184954.000000 0 0 1
11.105823 -22.643605 -33.617083 42.025949 -1.114808 2.497946 0.074600 -0.030999 502189.000000 0 0 1
12.336823 -22.901505 -32.943083 41.975264 -1.076677 2.473204 0.067929 -0.030491 818156.000000 0 0 1
13.164123 -21.733305 -32.297933 41.094855 -1.026187 2.475005 0.057128 -0.030129 130429.000000 0 0 1
13.582623 -20.697805 -33.150293 41.374251 -0.990050 2.500144 0.049659 -0.025869 -186559.000000 0 0 1
14.562923 -19.928505 -32.514923 40.822104 -0.939724 2.492285 0.048180 -0.024907 -283574.000000 0 0 1
14.842923 -18.657005 -33.352533 40.997410 -0.898763 2.520989 0.029392 -0.015737 -539784.000000 0 0 1
15.565823 -19.070705 33.222863 41.349066 -0.886245 0.637690 0.052318 -0.010294 340639.000000 0 0 1
15.367023 -18.234605 32.076934 39.969688 -0.870532 0.639270 0.039394 -0.006789 -281060.000000 0 0 1
16.272623 -17.012905 32.052324 39.769193 -0.807635 0.633503 0.046210 -0.005312 -763198.000000 0 0 1
16.031023 -16.043605 33.096403 40.121850 -0.785790 0.600776 0.037792 -0.002863 423322.000000 0 0 1
16.786923 -14.809205 33.024891 39.896827 -0.722886 0.595697 0.052193 -0.006184 1168800.000000 0 0 1
18.290323 -14.902805 33.513884 40.985485 -0.683695 0.613390 0.069911 0.002818 1135700.000000 0 0 1
19.087323 -15.585705 32.529582 40.809482 -0.684750 0.648305 0.082681 -0.005435 443002.000000 0 0 1
20.473823 -15.442405 32.848879 41.673663 -0.646216 0.662851 0.102740 -0.006283 854757.000000 0 0 1
21.443223 -16.218205 31.887335 41.709041 -0.647542 0.700502 0.118581 -0.018584 70063.100000 0 0 1
21.550023 -15.433205 30.723645 40.577453 -0.621488 0.711841 0.101281 -0.009106 394057.000000 0 0 1
22.117423 -16.150505 29.600915 40.326584 -0.630719 0.746559 0.097810 -0.014674 -45035.200000 0 0 1
22.319723 -15.333905 28.311095 39.176738 -0.601956 0.763167 0.088031 -0.011874 314068.000000 0 0 1
23.333823 -14.313105 28.499775 39.516698 -0.550219 0.765251 0.071660 -0.014334 825202.000000 0 0 1
23.457023 -13.445305 27.368085 38.471031 -0.520472 0.779316 0.071482 -0.018509 337462.000000 0 0 1
24.243723 -12.095805 27.621305 38.691124 -0.462787 0.775755 0.061451 -0.016262 235873.000000 0 0 1
23.529023 -11.199605 28.432195 38.567289 -0.444257 0.741864 0.066361 -0.021612 -428575.000000 0 0 1
24.099423 -9.960205 28.553805 38.669208 -0.391916 0.740084 0.063168 -0.024568 -35121.100000 0 0 1
23.091523 -8.762105 28.551005 37.751196 -0.362667 0.713166 0.076358 -0.016171 453364.000000 0 0 1
22.214823 -8.652905 29.663965 38.056825 -0.371431 0.676985 0.073179 -0.017862 -141572.000000 0 0 1
21.227123 -7.695105 29.358625 37.036931 -0.347778 0.655595 0.077620 -0.018858 666322.000000 0 0 1
19.979223 -7.537005 30.316855 37.082172 -0.360735 0.613638 0.066406 -0.003272 634578.000000 0 0 1
20.213923 -7.241705 31.693525 38.282170 -0.344008 0.595456 0.067841 -0.007838 99744.500000 0 0 1
20.798923 -8.298705 32.497536 39.465853 -0.379641 0.603359 0.067691 -0.014149 -122203.000000 0 0 1
20.978123 -7.888905 -33.779523 40.538532 -0.359694 2.555792 0.072993 -0.021068 -278061.000000 0 0 1
19.725223 -7.839505 -33.166193 39.376879 -0.378294 2.572288 0.050887 -0.023121 -427040.000000 0 0 1
19.824823 -7.249905 -31.909623 38.259753 -0.350591 2.557161 0.058726 -0.033989 53245.500000 0 0 1
18.496123 -7.112405 -31.136063 36.907279 -0.367104 2.574804 0.068306 -0.039408 -10593.800000 0 0 1
18.563823 -6.128505 -30.148293 35.931791 -0.318866 2.566317 0.071958 -0.036221 539961.000000 0 0 1
17.358523 -5.962905 -29.378053 34.640215 -0.330885 2.583168 0.091135 -0.034550 385486.000000 0 0 1
17.212323 -4.669005 -28.520673 33.637664 -0.264885 2.582768 0.084401 -0.031889 -323901.000000 0 0 1
17.907223 -4.606805 -27.278273 32.954445 -0.251799 2.545895 0.085039 -0.026431 -140491.000000 0 0 1
17.690423 -5.611205 -26.277973 32.170927 -0.307151 2.526680 0.089778 -0.031700 661475.000000 0 0 1
16.225723 -5.777805 -25.689723 30.929257 -0.342089 2.550974 0.109358 -0.027375 1060000.000000 0 0 1
15.923823 -4.586005 -24.996953 29.990785 -0.280408 2.556187 0.099732 -0.028915 -858558.000000 0 0 1
14.579023 -4.407205 -24.693253 29.012550 -0.293563 2.588917 0.108579 -0.030829 -393556.000000 0 0 1
14.316023 -3.209905 -23.743553 27.910720 -0.220570 2.588105 0.124614 -0.030561 78402.400000 0 0 1
14.451423 -1.973305 -24.426153 28.449508 -0.135708 2.603288 0.102001 -0.041968 38210.500000 0 0 1
14.050623 -0.873305 -23.614453 27.492272 -0.062074 2.604009 0.110049 -0.043245 -2107.300000 0 0 1
14.373323 0.527695 -24.104853 28.069820 0.036697 2.603614 0.097252 -0.039971 -105595.000000 0 0 1
13.615423 0.888695 -25.252083 28.702564 0.065179 2.646206 0.103781 -0.041103 126786.000000 0 0 1
14.021423 2.149695 -25.757253 29.405060 0.152130 2.638190 0.102252 -0.023279 -423192.000000 0 0 1
13.295123 2.822695 -26.921263 30.157624 0.209204 2.674065 0.098685 -0.027462 -315610.000000 0 0 1
11.970823 3.143695 -26.566753 29.308288 0.256814 2.705618 0.114959 -0.034480 314734.000000 0 0 1
11.303123 3.932695 -27.555383 30.042067 0.334830 2.731858 0.117086 -0.032591 425865.000000 0 0 1
10.092823 4.813695 -27.157293 29.369291 0.445032 2.750999 0.109299 -0.027883 190360.000000 0 0 1
10.480323 5.996695 -26.466803 29.091049 0.519717 2.713579 0.102339 -0.045338 617915.000000 0 0 1
9.305123 6.781695 -26.269913 28.682486 0.629803 2.728508 0.105739 -0.049516 480822.000000 0 0 1
8.819623 5.119342 -30.924803 32.562814 0.525920 2.823063 0.106634 -0.029059 -86550.800000 0 0 1
8.466523 4.312042 -29.840833 31.316944 0.471064 2.833341 0.094002 -0.017415 327414.000000 0 0 1
7.729223 3.167542 -30.183523 31.318034 0.388938 2.871606 0.076945 -0.013847 -186682.000000 0 0 1
7.610223 2.214742 -28.964503 30.029369 0.283200 2.874488 0.089421 -0.017083 717884.000000 0 0 1
8.902223 1.650542 -28.639483 30.036541 0.183326 2.835400 0.126614 -0.031653 1061110.000000 0 0 1
8.832323 0.752242 -27.536183 28.927792 0.084964 2.830154 0.116753 -0.029817 808411.000000 0 0 1
10.217023 0.107642 -27.131363 28.991550 0.010535 2.781423 0.128180 -0.045093 769784.000000 0 0 1
10.723323 -0.839758 -28.011263 30.005427 -0.078152 2.774960 0.136650 -0.041711 -64124.000000 0 0 1
11.962223 -1.310058 -27.525333 30.040888 -0.109082 2.729444 0.121257 -0.042397 107807.000000 0 0 1
12.406923 -2.639758 -28.128873 30.856661 -0.209639 2.717951 0.108938 -0.040501 27696.100000 0 0 1
11.588623 -3.684458 -27.606903 30.166413 -0.307831 2.726685 0.125198 -0.033832 -199353.000000 0 0 1
12.127623 -4.951858 -27.762813 30.698109 -0.387652 2.700725 0.119646 -0.029291 -95113.500000 0 0 1
11.459223 -6.134058 -26.953193 29.923487 -0.491483 2.692260 0.104498 -0.040733 237017.000000 0 0 1
11.465823 -5.766158 -25.624003 28.658388 -0.465965 2.677256 0.123039 -0.031509 124703.000000 0 0 1
10.840523 -6.739458 -24.773753 27.868908 -0.556216 2.665819 0.124139 -0.034803 96146.000000 0 0 1
10.789023 -6.354358 -23.270653 26.425445 -0.532266 2.647956 0.131064 -0.038544 -586739.000000 0 0 1
12.046523 -6.241558 -22.700353 26.445827 -0.478039 2.602884 0.115290 -0.030492 -776425.000000 0 0 1
11.949423 -6.165658 -21.299953 25.189125 -0.476349 2.578487 0.126523 -0.032221 -403669.000000 0 0 1
13.242023 -5.943858 -20.535153 25.147030 -0.421908 2.526298 0.133535 -0.037704 -38737.100000 0 0 1
13.874123 -4.641058 -20.644553 25.302732 -0.322811 2.525084 0.130996 -0.034701 -125107.000000 0 0 1
15.117123 -4.684958 -20.007853 25.510594 -0.300524 2.472357 0.132306 -0.019412 -442774.000000 0 0 1
15.700423 -3.316258 -19.611853 25.340197 -0.208161 2.455840 0.140357 -0.015965 163283.000000 0 0 1
16.678723 -2.837558 -20.549053 26.617571 -0.168517 2.452795 0.133607 -0.013052 369007.000000 0 0 1
17.131923 -1.597058 -20.066853 26.433538 -0.092953 2.432793 0.137850 -0.007989 -202451.000000 0 0 1
18.289723 -0.962858 -20.851953 27.753288 -0.052596 2.420876 0.093751 -0.011463 668873.000000 0 0 1
19.541523 -1.639858 -20.626853 28.460978 -0.083720 2.381455 0.128625 -0.021348 765454.000000 0 0 1
20.559523 -0.993658 -21.372953 29.672958 -0.048293 2.375008 0.131425 -0.017692 105730.000000 0 0 1
21.879023 -1.739758 -21.604453 30.797253 -0.079350 2.348305 0.098626 -0.019228 -451221.000000 0 0 1
22.788523 -1.726058 -20.514953 30.710899 -0.075598 2.302317 0.095257 -0.016930 423319.000000 0 0 1
24.067923 -2.296958 -20.681253 31.815957 -0.095148 2.278417 0.077041 -0.014574 272925.000000 0 0 1
25.085723 -1.550858 -21.546953 33.105435 -0.061744 2.279511 0.069356 -0.016522 -1080260.000000 0 0 1
24.671423 -1.502658 -22.906953 33.699637 -0.060832 2.318203 0.076359 -0.018968 897183.000000 0 0 1
25.565423 -0.709758 -23.779953 34.922496 -0.027755 2.319835 0.077461 -0.016105 832149.000000 0 0 1
26.831023 -1.446658 -24.270753 36.208646 -0.053865 2.305413 0.085447 -0.025881 -294559.000000 0 0 1
27.867823 -1.694058 -23.266153 36.342802 -0.060714 2.265537 0.089937 -0.026111 801140.000000 0 0 1
28.900523 -2.526458 -23.722753 37.475221 -0.087197 2.256251 0.078657 -0.022339 -94746.200000 0 0 1
29.920323 -1.875358 -24.661353 38.819132 -0.062597 2.259179 0.084382 -0.027994 -1067630.000000 0 0 1
29.342623 -1.437658 -25.913493 39.173530 -0.048956 2.293620 0.083255 -0.029892 132602.000000 0 0 1
30.123623 -0.493658 -26.590863 40.183956 -0.016386 2.293918 0.092555 -0.034558 -571684.000000 0 0 1
29.442623 -0.237258 -27.962023 40.605406 -0.008058 2.330392 0.078626 -0.031227 -36593.300000 0 0 1
28.180623 0.373642 -27.980893 39.714197 0.013258 2.352594 0.066240 -0.015090 -87442.700000 0 0 1
28.032923 1.655342 -27.378133 39.219218 0.058981 2.343508 0.057557 -0.010035 -24068.500000 0 0 1
26.555523 2.186742 -27.592933 38.358149 0.082161 2.373662 0.074530 -0.012573 820780.000000 0 0 1
25.665423 1.523742 -26.715303 37.077528 0.059300 2.375356 0.083371 -0.014673 -899413.000000 0 0 1
24.374423 1.860842 -27.075663 36.478305 0.076196 2.407203 0.072921 -0.012172 -968044.000000 0 0 1
23.338023 1.465942 -25.999593 34.968430 0.062731 2.409109 0.075640 -0.015868 -160762.000000 0 0 1
23.413223 2.220942 -24.815253 34.189302 0.094575 2.383021 0.089455 -0.020532 207762.000000 0 0 1
22.411823 1.852542 -23.904553 32.819953 0.082472 2.386713 0.090392 -0.019823 -427618.000000 0 0 1
22.529123 2.538042 -22.499553 31.941085 0.112183 2.352385 0.095120 -0.017715 -342527.000000 0 0 1
22.258423 3.925042 -22.494453 31.887987 0.174545 2.353813 0.116023 -0.028165 419517.000000 0 0 1
22.184323 4.458942 -21.197353 31.005711 0.198352 2.323562 0.102856 -0.030496 -370212.000000 0 0 1
21.856723 5.993742 -21.043853 30.927092 0.267649 2.319151 0.121772 -0.031451 -302318.000000 0 0 1
22.754723 6.900742 -21.635153 32.147745 0.294451 2.309042 0.119887 -0.030895 292803.000000 0 0 1
22.495323 8.213042 -21.195153 31.980120 0.350063 2.295295 0.119991 -0.025844 -523098.000000 0 0 1
22.915423 8.567442 -19.703253 31.412352 0.357782 2.248808 0.117488 -0.031897 709883.000000 0 0 1
24.352123 8.420342 -19.480153 32.301771 0.332905 2.218138 0.098690 -0.022873 1810460.000000 0 0 1
24.809223 8.475642 -18.144653 31.883577 0.329201 2.176196 0.110234 -0.036393 -75291.400000 0 0 1
24.546923 9.798142 -17.331453 31.605921 0.379782 2.151199 0.109535 -0.044467 160361.000000 0 0 1
23.177323 10.081242 -17.046653 30.486195 0.410278 2.164168 0.101683 -0.050647 401034.000000 0 0 1
23.049423 11.504842 -16.938353 30.830911 0.462958 2.152436 0.075857 -0.043609 -275481.000000 0 0 1
21.578523 11.983942 -16.842953 29.881977 0.506952 2.169593 0.061805 -0.043747 -102142.000000 0 0 1
20.753623 11.782642 -17.915953 29.841663 0.516360 2.214756 0.080915 -0.046559 -204143.000000 0 0 1
20.257223 10.484142 -18.085053 29.109130 0.477589 2.241177 0.086729 -0.050424 -1183550.000000 0 0 1
19.380823 10.246042 -19.296953 29.205651 0.486319 2.292583 0.102995 -0.036107 -330485.000000 0 0 1
20.101023 10.151042 -20.529953 30.472508 0.467641 2.310028 0.118689 -0.037419 337913.000000 0 0 1
19.234923 9.996042 -21.646953 30.634844 0.479269 2.355495 0.102352 -0.036044 -249773.000000 0 0 1
19.940823 10.138442 -23.005653 32.088697 0.470366 2.370198 0.133719 -0.035065 -444488.000000 0 0 1
20.256723 11.489142 -23.271053 32.922289 0.515935 2.355829 0.113283 -0.033295 122814.000000 0 0 1
20.880923 11.618642 -24.515753 34.234893 0.507762 2.369001 0.139741 -0.029804 -150227.000000 0 0 1
21.159823 13.064642 -24.861153 35.163900 0.553135 2.356055 0.153985 -0.036732 -235568.000000 0 0 1
21.836723 13.275042 -26.058213 36.497940 0.546225 2.365940 0.161970 -0.035146 -37495.700000 0 0 1
21.923323 14.673642 -26.345163 37.282911 0.589835 2.355518 0.155535 -0.021879 948045.000000 0 0 1
20.622723 15.286942 -27.043843 37.287487 0.637888 2.382236 0.139427 -0.033200 1069910.000000 0 0 1
19.476823 15.164542 -26.249103 36.032282 0.661552 2.386909 0.112761 -0.019499 -132331.000000 0 0 1
18.263623 15.377442 -26.956723 36.009589 0.699814 2.416742 0.112131 -0.029426 1968270.000000 0 0 1
16.887623 14.954842 -26.245203 34.607077 0.724774 2.431615 0.104284 -0.031227 1469490.000000 0 0 1
16.717823 13.586542 -26.172253 33.897884 0.682436 2.452921 0.117921 -0.030090 -161770.000000 0 0 1
15.383523 13.243442 -25.906453 32.911788 0.710779 2.476968 0.077918 -0.032789 -272581.000000 0 0 1
15.162223 11.728442 -25.706163 32.066433 0.658391 2.500852 0.068582 -0.030218 -599661.000000 0 0 1
13.828623 11.412942 -25.467743 31.146299 0.689986 2.528168 0.068131 -0.034693 -533951.000000 0 0 1
13.709023 10.089842 -24.991653 30.237806 0.634481 2.543664 0.082769 -0.033878 91658.800000 0 0 1
12.279223 9.518242 -24.774653 29.243113 0.659404 2.581482 0.121283 -0.052880 206212.000000 0 0 1
11.541523 10.150642 -23.747453 28.287520 0.721367 2.567164 0.144097 -0.058736 13277.000000 0 0 1
10.327023 9.437742 -23.566053 27.405788 0.740435 2.605857 0.133209 -0.054100 340614.000000 0 0 1
9.370223 10.130142 -22.513053 26.405651 0.824348 2.591708 0.118838 -0.048231 -168369.000000 0 0 1
8.760123 11.246942 -23.029753 27.085106 0.909061 2.587301 0.117154 -0.047952 -272498.000000 0 0 1
8.164823 12.168842 -22.103153 26.519698 0.979826 2.556139 0.114132 -0.045728 969339.000000 0 0 1
9.196623 13.076942 -21.266353 26.605301 0.957879 2.496972 0.120737 -0.044730 1164250.000000 0 0 1
10.038723 12.205142 -20.475853 25.865073 0.882486 2.484287 0.140792 -0.045104 230910.000000 0 0 1
11.024423 12.909342 -19.750353 26.043530 0.863992 2.431589 0.162134 -0.047081 -26663.300000 0 0 1
11.939523 11.908542 -18.973453 25.384197 0.784099 2.415014 0.170159 -0.046903 -178152.000000 0 0 1
12.953923 11.241742 -19.664953 26.093893 0.714752 2.424353 0.154318 -0.043191 -110651.000000 0 0 1
12.562523 10.141642 -20.469453 26.070450 0.679172 2.473749 0.161032 -0.047444 -610545.000000 0 0 1
13.732623 9.389942 -21.153953 26.911812 0.599749 2.475185 0.150995 -0.051820 -77694.300000 0 0 1
14.422023 8.659542 -20.146453 26.246180 0.540742 2.445878 0.169011 -0.067467 754728.000000 0 0 1
15.509223 7.973042 -20.805553 27.147309 0.474851 2.444006 0.138362 -0.060981 505330.000000 0 0 1
16.251023 6.920242 -19.953353 26.648110 0.402577 2.417003 0.196170 -0.065291 -115018.000000 0 0 1
17.066123 7.402142 -18.930153 26.540440 0.409244 2.364930 0.146871 -0.055100 13417.700000 0 0 1
17.666523 6.301842 -18.253753 26.172862 0.342641 2.342602 0.139137 -0.063808 -31261.300000 0 0 1
18.686823 6.755542 -17.189153 26.273592 0.346895 2.283969 0.193002 -0.051895 -225350.000000 0 0 1
19.900023 7.320642 -17.746453 27.650304 0.352506 2.267662 0.142996 -0.060054 1309260.000000 0 0 1
20.987323 7.423342 -16.829053 27.906822 0.339973 2.218108 0.132226 -0.069146 179191.000000 0 0 1
21.516523 6.143742 -16.219553 27.636574 0.278135 2.198005 0.121673 -0.060094 -1098930.000000 0 0 1
22.876423 5.831242 -16.512253 28.809523 0.249587 2.181144 0.108439 -0.062821 801422.000000 0 0 1
23.207923 4.491042 -16.255953 28.688554 0.191151 2.173213 0.155499 -0.064576 791009.000000 0 0 1
24.760023 4.257642 -16.418553 30.012583 0.170291 2.149639 0.081368 -0.016372 860196.000000 0 0 1
25.181623 3.063342 -15.740753 29.854137 0.121055 2.126164 0.097046 -0.025409 642300.000000 0 0 1
26.523323 2.704342 -16.046453 31.117339 0.101610 2.112592 0.089838 -0.028081 322172.000000 0 0 1
27.147823 1.571042 -15.232153 31.168749 0.057805 2.081395 0.121986 -0.048665 95841.700000 0 0 1
26.486423 0.322942 -15.455553 30.667719 0.012192 2.098983 0.129947 -0.043720 624803.000000 0 0 1
27.443123 -0.691758 -15.707053 31.627757 -0.025202 2.090499 0.111030 -0.031967 -104433.000000 0 0 1
26.771923 -2.019058 -15.979253 31.243383 -0.075274 2.107661 0.088468 -0.024052 -165260.000000 0 0 1
26.123823 -2.672758 -14.915453 30.200471 -0.101956 2.087344 0.099886 -0.027762 333759.000000 0 0 1
25.884623 -3.989458 -15.287953 30.325748 -0.152921 2.099164 0.090076 -0.021568 -650184.000000 0 0 1
25.381023 -4.975458 -14.159553 29.486343 -0.193576 2.071687 0.095425 -0.022977 1352880.000000 0 0 1
24.068123 -4.702258 -13.611253 28.047316 -0.192942 2.077498 0.127603 -0.016258 1708770.000000 0 0 1
22.948123 -4.985758 -14.469353 27.583261 -0.213937 2.123006 0.135338 -0.014788 -165591.000000 0 0 1
21.605023 -4.822858 -13.765853 26.067905 -0.219628 2.127130 0.162630 -0.027611 -517221.000000 0 0 1
21.144723 -5.804058 -12.820153 25.399660 -0.267894 2.099874 0.169001 -0.030943 508632.000000 0 0 1
21.234823 -5.391558 -11.463753 24.726589 -0.248647 2.052873 0.186732 -0.028022 -355017.000000 0 1 0
20.988623 -6.601958 -10.527653 24.391384 -0.304751 2.017077 0.174315 -0.031529 1193060.000000 0 1 0
19.671423 -7.227358 -10.515353 23.447222 -0.352095 2.035848 0.159344 -0.031749 1639840.000000 0 1 0
19.528923 -8.097858 -11.593053 24.111263 -0.393080 2.072380 0.159363 -0.036214 -799695.000000 0 1 0
18.301723 -9.004058 -11.492953 23.411836 -0.457210 2.083923 0.184786 -0.036871 146564.000000 0 1 0
17.114323 -8.276858 -11.783053 22.366197 -0.450459 2.125656 0.160994 -0.029678 1022830.000000 0 1 0
15.878723 -9.045258 -11.798653 21.752212 -0.517802 2.144101 0.155279 -0.032896 1315480.000000 0 1 0
14.677023 -8.119558 -12.107453 20.686533 -0.505309 2.196024 0.109247 -0.020033 -436236.000000 0 1 0
14.720323 -7.419958 -13.355953 21.216153 -0.466892 2.251729 0.114919 -0.014914 303957.000000 0 1 0
15.581523 -6.295058 -13.454553 21.527577 -0.383957 2.245917 0.103793 -0.015094 -174166.000000 0 1 0
15.268723 -5.311158 -14.621653 21.797592 -0.334754 2.306073 0.092309 -0.006796 71690.800000 0 1 0
14.147823 -4.546858 -14.202853 20.556163 -0.310956 2.333570 0.093605 -0.015003 518223.000000 0 1 0
13.650623 -3.554958 -15.140453 20.693249 -0.254766 2.391552 0.073556 -0.020111 -404170.000000 0 1 0
14.496023 -2.272958 -15.215253 21.137761 -0.155532 2.374330 0.096945 -0.026530 -654786.000000 0 1 0
15.492523 -2.411358 -16.200753 22.545450 -0.154408 2.372557 0.094248 -0.016078 355686.000000 0 1 0
16.622023 -1.552258 -16.131353 23.214687 -0.093116 2.339045 0.098296 -0.021282 1149970.000000 0 1 0
17.765423 -2.139658 -15.197253 23.476475 -0.119862 2.274885 0.125837 -0.025890 35405.400000 0 1 0
17.394323 -2.049558 -13.881453 22.348554 -0.117288 2.240986 0.099052 -0.017069 215463.000000 0 1 0
18.324423 -2.787158 -13.115353 22.706061 -0.150944 2.186600 0.092788 -0.011343 -75621.900000 0 1 0
17.995523 -2.843958 -11.653153 21.626902 -0.156741 2.139840 0.099651 -0.013717 -537984.000000 0 1 0
18.208323 -1.614258 -10.950653 21.308816 -0.088424 2.110524 0.116105 -0.016937 744014.000000 0 1 0
17.764023 -1.778858 -9.597353 20.269041 -0.099806 2.064054 0.109215 -0.021697 -505188.000000 0 1 0
17.596223 -0.443958 -8.839353 19.696657 -0.025225 2.036190 0.094954 -0.019506 655394.000000 0 1 0
18.818323 0.102642 -8.274653 20.557473 0.005454 1.985057 0.109245 -0.016486 2118470.000000 0 1 0
19.744523 0.790242 -9.159453 21.779950 0.040002 2.004842 0.120662 -0.010523 262075.000000 0 1 0
19.293623 2.134342 -9.745453 21.720339 0.110176 2.036083 0.117856 -0.020022 -830142.000000 0 1 0
19.253323 3.161642 -8.753453 21.384793 0.162760 1.992517 0.103804 -0.015943 487294.000000 0 1 0
18.678723 4.286442 -9.382653 21.337817 0.225577 2.026083 0.099165 -0.023323 -345797.000000 0 1 0
18.888723 5.681142 -8.752553 21.579305 0.292162 1.988431 0.109301 -0.012342 -226428.000000 0 1 0
18.222223 6.759442 -9.423553 21.599602 0.355211 2.022261 0.090906 -0.015404 795456.000000 0 1 0
18.898523 8.002842 -9.221153 22.499540 0.400569 1.993072 0.128420 -0.001679 159913.000000 0 1 0
-27.014487 -29.180748 5.665647 40.167128 0.823928 1.429273 0.093254 -0.008936 121181.000000 0 0 1
-27.171487 -27.871318 6.080947 39.396421 0.798112 1.415824 0.130469 -0.018741 20111.500000 0 0 1
-25.903657 -27.305898 6.333147 38.167005 0.811745 1.404093 0.121264 -0.023052 -257014.000000 0 0 1
-26.025917 -26.087278 7.291247 37.564035 0.786576 1.375455 0.135033 -0.029936 -73961.700000 0 0 1
-26.980287 -25.037828 6.937447 37.456066 0.748074 1.384505 0.167489 -0.034607 1145040.000000 0 0 1
-28.344297 -25.329808 7.213847 38.691575 0.729294 1.383254 0.147641 -0.039299 333723.000000 0 0 1
-28.858887 -25.633338 8.690147 39.565415 0.726274 1.349351 0.144636 -0.039363 -401701.000000 0 0 1
-28.078857 -26.619868 9.294847 39.792383 0.758731 1.335035 0.125349 -0.033128 -39819.700000 0 0 1
-28.591037 -26.907488 10.650947 40.680499 0.755072 1.305889 0.107259 -0.027578 -35910.300000 0 0 1
-27.568497 -27.762978 11.441347 40.764070 0.788913 1.286302 0.069850 -0.016812 412501.000000 0 0 1
-26.483007 -26.993198 11.945747 39.657071 0.794938 1.264818 0.075688 -0.017943 147758.000000 0 0 1
-26.806207 -26.203428 13.084047 39.703711 0.774028 1.234978 0.073420 -0.016563 -124484.000000 0 0 1
-25.524907 -25.543298 13.678047 38.614375 0.785758 1.208715 0.078325 -0.018614 515716.000000 0 0 1
-24.696677 -26.520278 14.290747 38.954800 0.820989 1.195171 0.074557 -0.021888 -665353.000000 0 0 1
-23.544777 -25.974928 14.839347 38.069143 0.834433 1.170382 0.093816 -0.032082 -418639.000000 0 0 1
-22.715677 -27.056298 15.591147 38.615141 0.872388 1.155176 0.090254 -0.033344 -85622.700000 0 0 1
-23.437377 -27.774308 16.595547 39.951659 0.869883 1.142424 0.083364 -0.024362 391417.000000 0 0 1
-22.637777 -28.757318 17.261847 40.465092 0.903909 1.130081 0.080749 -0.021189 52604.600000 0 0 1
-23.471377 -29.714728 18.144247 41.989098 0.902250 1.123956 0.093101 -0.031600 -17712.200000 0 0 1
-24.408277 -30.413398 17.342547 42.679067 0.894502 1.152343 0.079393 -0.025897 349998.000000 0 0 1
-25.074127 -31.421828 18.106847 44.089693 0.897286 1.147594 0.087690 -0.025789 464540.000000 0 0 1
-26.241537 -32.188608 17.355947 45.010595 0.886830 1.174942 0.077752 -0.031650 583726.000000 0 0 1
-25.740777 -32.983958 16.326447 44.911936 0.908120 1.198751 0.081695 -0.031480 151982.000000 0 0 1
-26.460507 33.465360 16.200047 45.634749 -0.901762 1.207889 0.070837 -0.035557 -486112.000000 0 0 1
-25.940497 32.436270 15.115547 44.198425 -0.896216 1.221759 0.074284 -0.038530 201812.000000 0 0 1
-24.624377 31.937678 15.265947 43.121043 -0.913982 1.208924 0.065294 -0.044354 643778.000000 0 0 1
-23.623077 32.825836 14.742047 43.045479 -0.947005 1.221245 0.067218 -0.040378 235947.000000 0 0 1
-22.174977 32.278340 14.769147 41.853895 -0.968854 1.210156 0.074762 -0.045195 325484.000000 0 0 1
-21.922877 31.413259 13.658947 40.669057 -0.961490 1.228282 0.058636 -0.031412 1122780.000000 0 0 1
-20.581077 30.852309 13.679447 39.529394 -0.982505 1.217431 0.057448 -0.030179 1132240.000000 0 0 1
-20.357477 29.952259 12.432447 38.290083 -0.973849 1.240111 0.050159 -0.030107 49969.300000 0 0 1
-20.119477 30.684989 11.304447 38.394693 -0.990440 1.271940 0.029871 -0.018873 -119246.000000 0 0 1
-20.343377 29.872339 10.186947 37.549747 -0.972929 1.296061 0.042778 -0.019795 24581.000000 0 0 1
-19.962777 30.587369 8.864447 37.585609 -0.992562 1.332706 0.036472 -0.016633 13267.200000 0 0 1
-18.567077 30.476109 8.702547 36.732328 -1.023615 1.331604 0.029969 -0.023486 -452267.000000 0 0 1
-18.077477 30.991579 7.458647 36.645662 -1.042745 1.365830 0.055222 -0.029167 -100650.000000 0 0 1
-17.706777 29.901149 6.396147 35.334393 -1.036149 1.388775 0.058574 -0.029496 -9613.660000 0 0 1
-18.790177 29.112839 5.901147 35.148993 -0.997643 1.402108 0.045209 -0.018930 64388.100000 0 0 1
-18.902977 27.958019 6.681047 34.403630 -0.976278 1.375359 0.017531 -0.013099 -37688.800000 0 0 1
-20.019377 27.021369 6.179047 34.192257 -0.933163 1.389083 0.026898 -0.007708 -186857.000000 0 0 1
-19.703577 26.313599 4.994247 33.250247 -0.928065 1.420024 0.039764 -0.017924 -605282.000000 0 0 1
-20.700077 25.500339 4.535647 33.156185 -0.888928 1.433570 0.059799 -0.018443 -1379020.000000 0 0 1
-20.296577 24.732949 3.268347 32.161342 -0.883603 1.468997 0.080648 -0.028624 -860466.000000 0 0 1
-20.003277 25.457809 2.088147 32.443666 -0.904810 1.506390 0.091587 -0.025912 1573610.000000 0 0 1
-18.686677 26.062419 1.981147 32.130461 -0.948754 1.509098 0.085681 -0.029178 1459940.000000 0 0 1
-17.368477 25.213489 2.136547 30.691185 -0.967588 1.501126 0.073978 -0.035266 37176.700000 0 0 1
-17.126577 24.153249 1.245747 29.635299 -0.954003 1.528748 0.119902 -0.045874 162609.000000 0 0 1
-16.809277 24.583709 -0.071653 29.781130 -0.971055 1.573202 0.126794 -0.045490 -383266.000000 0 0 1
-16.475677 23.314959 -0.933053 28.564065 -0.955617 1.603467 0.124991 -0.048509 -70426.100000 0 0 1
-17.523277 22.353989 -0.997153 28.421125 -0.905950 1.605888 0.138335 -0.055957 232356.000000 0 0 1
-17.349477 21.314889 -1.952253 27.552498 -0.887601 1.641711 0.135751 -0.055345 173463.000000 0 0 1
-16.235977 20.256389 -1.607353 26.009841 -0.895127 1.632634 0.121510 -0.056157 346296.000000 0 0 1
-16.569777 19.380989 -0.547553 25.504511 -0.863436 1.592267 0.135892 -0.061436 176697.000000 0 0 1
-15.477577 18.564089 -0.165153 24.170396 -0.875820 1.577629 0.139608 -0.062285 156973.000000 0 1 0
-15.907877 17.397889 0.766647 23.586751 -0.830106 1.538287 0.117142 -0.058961 -74764.200000 0 1 0
-16.575977 16.372989 0.107447 23.299127 -0.779238 1.566185 0.109786 -0.055546 18881.900000 0 1 0
-17.234977 15.548289 1.011747 23.233970 -0.733994 1.527237 0.132560 -0.068237 -225803.000000 0 1 0
-17.918077 14.360689 0.300847 22.964699 -0.675633 1.557696 0.124614 -0.060230 -492265.000000 0 1 0
-19.039577 14.631489 -0.509853 24.017617 -0.655222 1.592026 0.161204 -0.065888 154834.000000 0 1 0
-19.744477 13.408989 -0.705853 23.877680 -0.596579 1.600362 0.169264 -0.062592 -2044950.000000 0 1 0
-20.941277 13.642289 -1.558053 25.041499 -0.577397 1.633055 0.163732 -0.049108 -1649650.000000 0 0 1
-21.795877 12.554289 -1.737253 25.212863 -0.522581 1.639754 0.158655 -0.050457 223394.000000 0 0 1
-22.502677 12.142389 -0.594253 25.576576 -0.494822 1.594033 0.174730 -0.056372 -864699.000000 0 0 1
-23.944377 12.752389 -0.564953 27.134402 -0.489374 1.591618 0.192998 -0.056384 5158.770000 0 0 1
-23.888577 14.084489 -0.178253 27.732088 -0.532731 1.577224 0.203745 -0.057402 -36794.200000 0 0 1
-25.158417 14.649189 -0.307453 29.114244 -0.527287 1.581357 0.179772 -0.043165 -460191.000000 0 0 1
-25.225107 16.051189 0.321247 29.900667 -0.566697 1.560052 0.185693 -0.048147 -206552.000000 0 0 1
-24.966077 16.030889 1.738247 29.720631 -0.570806 1.512277 0.195611 -0.047442 151333.000000 0 0 1
-25.131877 17.320389 2.380447 30.614925 -0.603427 1.492963 0.172220 -0.044248 82923.500000 0 0 1
-26.558487 17.897089 2.489747 32.122545 -0.592976 1.493211 0.169958 -0.039540 -749652.000000 0 0 1
-27.418577 17.301489 3.463547 32.605460 -0.562912 1.464370 0.166795 -0.040536 347153.000000 0 0 1
-28.678797 17.927089 3.512647 34.002832 -0.558671 1.467307 0.150970 -0.036517 163522.000000 0 0 1
-29.690737 17.919189 2.320147 34.756586 -0.543010 1.503992 0.102385 -0.041570 -650998.000000 0 0 1
-30.770017 18.775789 2.681747 36.145760 -0.547884 1.496536 0.092327 -0.040275 22894.100000 0 0 1
-31.574837 19.029089 1.557547 36.898544 -0.542378 1.528572 0.080050 -0.032222 499078.000000 0 0 1
-32.854627 19.891389 1.910947 38.454461 -0.544407 1.521082 0.095951 -0.034045 843746.000000 0 0 1
-34.009757 19.078189 2.202547 39.057548 -0.511221 1.514374 0.106048 -0.028862 391459.000000 0 0 1
-35.092120 19.881289 2.599147 40.416310 -0.515457 1.506443 0.123676 -0.024839 -238877.000000 0 0 1
-35.207242 20.339489 4.089947 40.865296 -0.523867 1.470545 0.099826 -0.023327 -635536.000000 0 0 1
-34.356302 21.409489 4.456547 40.725699 -0.557275 1.461148 0.099042 -0.025925 377397.000000 0 0 1
-34.608128 21.845489 5.798247 41.334823 -0.563063 1.430057 0.086192 -0.028269 519779.000000 0 0 1
-33.426677 22.752249 6.323347 40.926670 -0.597629 1.415671 0.106038 -0.028060 211101.000000 0 0 1
-33.388267 23.957019 5.559347 41.468319 -0.622393 1.436329 0.089255 -0.015053 675562.000000 0 0 1
-32.230897 24.770369 5.726147 41.051074 -0.655254 1.430852 0.093379 -0.028514 236260.000000 0 0 1
-32.652467 26.220659 5.540847 42.242248 -0.676581 1.439249 0.087496 -0.024792 -16908.500000 0 0 1
-33.423647 26.683939 6.633347 43.280181 -0.673737 1.416925 0.095114 -0.014837 22138.800000 0 0 1
-34.106872 27.868189 6.309847 44.494144 -0.685072 1.428504 0.086431 -0.012137 66737.700000 0 0 1
-35.182748 28.291879 7.343047 45.740316 -0.677261 1.409561 0.077535 -0.005463 -279806.000000 0 0 1
-34.560391 28.618469 8.592347 45.686605 -0.691625 1.381598 0.094271 -0.015341 634171.000000 0 0 1
-35.330359 29.190449 9.709247 46.846409 -0.690522 1.362026 0.096175 -0.013586 -154871.000000 0 0 1
-36.609627 28.527799 10.212047 47.522479 -0.661956 1.354218 0.077469 -0.006477 -253099.000000 0 0 1
-36.279807 27.268089 10.683947 46.625313 -0.644528 1.339597 0.093911 -0.011405 829167.000000 0 0 1
-37.349987 26.698099 11.493547 47.327705 -0.620596 1.325493 0.083983 -0.008597 684083.000000 0 0 1
-37.022597 25.353999 12.212247 46.504161 -0.600469 1.305075 0.116183 -0.010982 -51751.400000 0 0 1
-36.019947 25.496489 13.219647 46.068065 -0.615971 1.279745 0.151913 -0.033303 46621.700000 0 0 1
-35.721511 24.295269 13.878047 45.374956 -0.597265 1.259963 0.161848 -0.035975 165106.000000 0 0 1
-34.384754 24.623999 14.603747 44.742844 -0.621470 1.238311 0.163832 -0.044244 237842.000000 0 0 1
-34.527844 25.615909 15.607647 45.737790 -0.638291 1.222559 0.157045 -0.041849 115890.000000 0 0 1
-33.252447 26.167139 15.926847 45.211822 -0.666717 1.210799 0.164504 -0.035346 425394.000000 0 0 1
-33.356407 27.362799 16.952247 46.354626 -0.687007 1.196403 0.163050 -0.033523 -60633.900000 0 0 1
-33.536097 28.582679 16.347147 46.998602 -0.705825 1.215549 0.173153 -0.034196 55767.000000 0 0 1
-33.416907 29.603129 17.288747 47.874165 -0.724955 1.201318 0.147044 -0.028571 -117295.000000 0 0 1
-33.244037 30.950719 16.624347 48.368191 -0.749689 1.219938 0.135718 -0.036584 864667.000000 0 0 1
-31.932887 30.995369 16.031247 47.301407 -0.770501 1.225031 0.118538 -0.030157 556256.000000 0 0 1
-31.545457 32.344940 15.675347 47.822877 -0.797911 1.236844 0.107063 -0.024010 -370341.000000 0 0 1
-30.102637 32.455657 15.138647 46.783727 -0.822994 1.241277 0.122568 -0.032519 -78790.700000 0 0 1
-29.877537 31.647689 14.002047 45.719807 -0.814161 1.259537 0.108716 -0.031474 77083.000000 0 0 1
-29.400007 30.330839 14.260647 44.583475 -0.800981 1.245210 0.122456 -0.035759 497789.000000 0 0 1
-30.472187 29.192139 13.911447 44.432685 -0.763947 1.252351 0.152402 -0.039310 815339.000000 0 0 1
-30.685697 29.104609 12.527847 44.109378 -0.758960 1.282814 0.162580 -0.045306 32803.500000 0 0 1
-31.609967 28.111709 12.120947 44.004268 -0.726889 1.291739 0.158510 -0.042889 198057.000000 0 0 1
-31.698057 27.958689 10.558147 43.565234 -0.722799 1.326006 0.140220 -0.028136 459992.000000 0 0 1
-30.557457 27.298119 10.004747 42.178673 -0.729122 1.331315 0.121191 -0.019129 93979.800000 0 0 1
-30.681037 27.153309 8.612747 41.866546 -0.724477 1.363598 0.119502 -0.022138 248912.000000 0 0 1
-29.510597 26.408339 7.915547 40.384794 -0.729977 1.373516 0.133933 -0.024206 174337.000000 0 0 1
-29.374217 26.680209 6.510547 40.212752 -0.737375 1.408178 0.124715 -0.035222 -417398.000000 0 0 1
-28.237897 26.017589 6.021047 38.865753 -0.744498 1.415251 0.120887 -0.028835 -214329.000000 0 0 1
-27.779787 26.314599 4.597747 38.539771 -0.758319 1.451213 0.104678 -0.024262 -203321.000000 0 0 1
-27.222277 27.627659 4.480647 39.043772 -0.792789 1.455783 0.077479 -0.019833 136740.000000 0 0 1
-26.876477 27.909209 3.131647 38.872563 -0.804246 1.490147 0.060177 -0.019196 -294146.000000 0 0 1
-25.884637 29.055059 2.947047 39.024300 -0.843042 1.495206 0.051558 -0.022913 823817.000000 0 0 1
-24.522277 28.642969 3.165747 37.838918 -0.862751 1.487035 0.059041 -0.015758 569441.000000 0 0 1
-23.574377 29.584429 2.683547 37.923490 -0.897979 1.499975 0.058400 -0.015773 2036050.000000 0 0 1
-22.075777 29.036069 2.882247 36.588804 -0.920743 1.491941 0.054908 -0.022275 1967700.000000 0 0 1
-21.071477 30.019759 2.743847 36.779366 -0.958783 1.496124 0.061338 -0.026406 -497434.000000 0 0 1
-19.763977 29.522229 2.908447 35.645980 -0.980862 1.489113 0.082047 -0.035661 37627.600000 0 0 1
-18.768177 30.638309 2.560247 36.020901 -1.021184 1.499660 0.081194 -0.038760 -236707.000000 0 0 1
-18.630077 31.774987 3.433547 36.993497 -1.040502 1.477848 0.090230 -0.039744 295476.000000 0 0 1
-17.549577 32.628199 3.030947 37.172216 -1.077317 1.489168 0.101325 -0.034180 288211.000000 0 0 1
-17.379777 -33.819348 3.975947 38.231049 1.096090 1.466610 0.104483 -0.032805 -352795.000000 0 0 1
-18.334477 -32.805278 3.862247 37.779045 1.061155 1.468385 0.094099 -0.029623 -285025.000000 0 0 1
-18.048877 -31.769998 4.778147 36.850040 1.054155 1.440766 0.072334 -0.033854 66561.500000 0 0 1
-19.160277 -30.699718 4.861947 36.513387 1.012831 1.437244 0.078773 -0.023337 62257.500000 0 0 1
-19.304477 -29.909788 3.715047 35.791896 0.997645 1.466813 0.089993 -0.018529 261712.000000 0 0 1
-20.258677 -28.889658 3.996147 35.510499 0.959236 1.458023 0.093787 -0.021503 97633.000000 0 0 1
-20.518377 -27.979898 2.755347 34.806184 0.938052 1.491551 0.083594 -0.026411 171733.000000 0 0 1
-19.464277 -27.057268 2.599247 33.432169 0.947186 1.492971 0.092491 -0.026395 -222595.000000 0 0 1
-19.813277 -26.060788 1.695647 32.781181 0.920754 1.519047 0.086834 -0.027259 452466.000000 0 0 1
-18.809277 -24.847358 1.638447 31.206804 0.922835 1.518269 0.081897 -0.024083 708891.000000 0 0 1
-17.493677 -25.185728 1.247447 30.690483 0.963713 1.530139 0.091123 -0.032432 -257718.000000 0 0 1
-16.647577 -24.040958 1.259347 29.269360 0.965144 1.527757 0.087259 -0.025193 868518.000000 0 0 1
-15.190277 -24.352558 0.763747 28.711930 1.013085 1.544193 0.081732 -0.030443 444056.000000 0 0 1
-15.076277 -24.712758 -0.607353 28.954851 1.023012 1.591774 0.065752 -0.025628 47661.000000 0 0 1
-15.071877 -23.566858 -1.463753 28.012512 1.001812 1.623074 0.059300 -0.025466 -341032.000000 0 0 1
-15.412077 -23.850558 -2.928853 28.547494 0.997102 1.673573 0.034552 -0.010252 399164.000000 0 0 1
-14.260577 -24.213858 -3.673953 28.340305 1.038547 1.700799 0.058567 -0.010806 186649.000000 0 0 1
-14.654677 -24.236158 -4.969653 28.754971 1.026956 1.744496 0.050556 -0.007666 -37121.600000 0 0 1
-13.532077 -24.720358 -5.952653 28.803598 1.069947 1.778960 0.076683 -0.006971 574486.000000 0 0 1
-13.374277 -26.110698 -6.143453 29.973019 1.097425 1.777225 0.038141 -0.004138 -258024.000000 0 0 1
-12.231577 -26.330228 -6.937553 29.849992 1.135913 1.805355 0.059591 -0.012549 149528.000000 0 0 1
23.848423 12.653242 27.853675 38.790193 0.487803 0.769786 0.074709 -0.017476 145685.000000 0 0 1
25.061523 12.208542 28.470655 39.846037 0.453309 0.774863 0.055081 -0.021739 687542.000000 0 0 1
24.954723 11.647742 29.752245 40.541389 0.436700 0.746790 0.062732 -0.012419 -256416.000000 0 0 1
24.798123 12.496542 31.028905 41.640166 0.466787 0.730010 0.090694 -0.041452 96755.300000 0 0 1
23.563723 13.195142 31.005725 41.118315 0.510471 0.716573 0.091030 -0.029240 229434.000000 0 0 1
23.460123 13.985442 32.150161 42.185339 0.537574 0.704220 0.107988 -0.024470 -47180.500000 0 0 1
22.161323 14.816742 32.318268 41.894278 0.589330 0.689720 0.093278 -0.029194 -120262.000000 0 0 1
21.040523 14.047042 32.634097 41.291734 0.588661 0.659449 0.086547 -0.010645 -363723.000000 0 0 1
20.372523 14.557342 33.763195 42.034620 0.620430 0.638109 0.104988 -0.014440 -217444.000000 0 0 1
19.250723 13.658542 -33.423343 40.917795 0.617079 2.526710 0.102312 -0.009087 -977965.000000 0 0 1
18.120623 13.474842 33.570790 40.458946 0.639405 0.592138 0.079833 0.003864 -1050690.000000 0 0 1
17.335823 12.637642 -33.382773 39.681863 0.629919 2.570406 0.063606 -0.001657 741392.000000 0 0 1
15.905323 12.196542 33.842475 39.332532 0.654180 0.534704 0.056772 -0.000126 1225150.000000 0 0 1
15.983323 11.327142 32.708678 38.126479 0.616531 0.539629 0.045784 0.007354 629827.000000 0 0 1
14.673923 10.795542 32.437022 37.202529 0.634283 0.511720 0.071556 0.000000 622260.000000 0 0 1
14.575623 9.653442 31.380825 35.922053 0.584974 0.508284 0.086112 -0.002129 -39442.100000 0 0 1
15.097323 8.373942 31.743111 36.134155 0.506417 0.498126 0.066372 -0.006983 71876.700000 0 0 1
15.223523 7.507142 30.642405 35.029557 0.458135 0.505859 0.078192 -0.024162 243646.000000 0 0 1
15.723623 6.055842 31.009865 35.291887 0.367633 0.497730 0.129549 -0.031244 514890.000000 0 0 1
14.614823 5.200642 31.258825 34.896331 0.341874 0.460653 0.135528 -0.023024 151458.000000 0 0 1
15.049323 3.894642 31.605065 35.221166 0.253236 0.457110 0.139486 -0.029936 -584335.000000 0 0 1
13.979923 2.872542 31.892204 34.939983 0.202656 0.420779 0.111498 -0.027860 -869321.000000 0 0 1
14.487223 1.627442 32.203792 35.349858 0.111867 0.425089 0.120252 -0.036247 -184012.000000 0 0 1
13.463223 0.798342 32.696734 35.369084 0.059229 0.391222 0.109824 -0.036826 -380713.000000 0 0 1
14.055623 -0.562958 33.269829 36.121448 -0.040031 0.400016 0.085389 -0.033981 91086.900000 0 0 1
14.384023 -1.453658 32.282644 35.372056 -0.100719 0.421052 0.058325 -0.027385 95919.200000 0 0 1
14.979323 -2.604258 32.887181 36.231602 -0.172136 0.433042 0.095639 -0.031647 -402953.000000 0 0 1
15.271423 -3.797958 31.958768 35.623078 -0.243752 0.457552 0.096658 -0.030000 -441960.000000 0 0 1
15.932123 -4.908958 32.518632 36.543014 -0.298887 0.473730 0.099121 -0.028418 935137.000000 0 0 1
17.295923 -4.766758 32.949282 37.517011 -0.268924 0.498608 0.085177 -0.019888 1229440.000000 0 0 1
18.436423 -4.353658 31.953182 37.146492 -0.231896 0.535147 0.084653 -0.024927 -81923.700000 0 0 1
18.438423 -2.977558 31.815223 36.892407 -0.160104 0.530847 0.092905 -0.029188 107527.000000 0 0 1
19.513423 -2.621558 30.978915 36.706123 -0.133547 0.566152 0.125037 -0.035034 -184947.000000 0 0 1
19.727023 -1.094758 30.770525 36.567460 -0.055438 0.570793 0.144490 -0.045204 -260908.000000 0 0 1
20.000223 -0.317758 31.925111 37.673898 -0.015886 0.559715 0.128958 -0.036213 17898.100000 0 0 1
19.929723 1.099942 31.827857 37.568820 0.055135 0.560126 0.123312 -0.032140 146462.000000 0 0 1
21.131923 1.828342 31.140225 37.677774 0.086305 0.597956 0.143547 -0.030956 30295.600000 0 0 1
21.294923 1.604142 29.744825 36.616958 0.075188 0.622671 0.158478 -0.035347 370946.000000 0 0 1
22.403823 2.326242 29.209445 36.885422 0.103462 0.656887 0.120992 -0.031914 290615.000000 0 0 1
22.174323 3.864242 28.883185 36.617910 0.172534 0.661988 0.120551 -0.020241 -193589.000000 0 0 1
21.889623 4.490242 30.087465 37.477639 0.202324 0.638801 0.116945 -0.014840 356908.000000 0 0 1
21.191723 5.727042 29.930555 37.117735 0.263944 0.632811 0.123456 -0.012443 -76866.500000 0 0 1
20.858823 6.257842 31.320135 38.147109 0.291465 0.607574 0.125152 -0.007331 43821.100000 0 0 1
19.762723 5.638642 31.975176 38.010149 0.277932 0.571247 0.124460 -0.002018 290361.000000 0 0 1
19.588323 6.088742 33.287611 39.100387 0.301368 0.552267 0.109570 -0.009095 560055.000000 0 0 1
18.294123 5.485842 -33.789703 38.813830 0.291337 2.627132 0.112412 -0.015806 453207.000000 0 0 1
18.443023 4.062642 -33.562573 38.510991 0.216818 2.629062 0.113041 -0.016664 -78170.200000 0 0 1
17.347523 3.564342 -32.860663 37.329134 0.202647 2.647281 0.106303 -0.027180 -229162.000000 0 0 1
17.242723 2.018242 -33.043163 37.326068 0.116519 2.657843 0.118943 -0.044522 566431.000000 0 0 1
18.377723 1.383342 -32.439883 37.309520 0.075131 2.624945 0.095592 -0.026275 575301.000000 0 0 1
18.388023 -0.018158 -32.638673 37.462016 -0.000987 2.628534 0.103625 -0.027787 -256409.000000 0 0 1
19.397723 -0.795858 -31.769953 37.232176 -0.041005 2.593065 0.099480 -0.020901 -209337.000000 0 0 1
19.176423 -0.922358 -30.368143 35.927845 -0.048062 2.577836 0.101209 -0.021249 173847.000000 0 0 1
19.289023 0.325542 -29.669173 35.389719 0.016875 2.565056 0.101303 -0.014905 -252798.000000 0 0 1
18.813523 0.241442 -28.203103 33.903126 0.012833 2.553271 0.091106 -0.006322 -805488.000000 0 0 1
17.456623 -0.047758 -28.152683 33.125662 -0.002736 2.586545 0.107478 -0.018102 -526504.000000 0 0 1
16.872423 -0.357558 -26.876423 31.735604 -0.021189 2.580897 0.104533 -0.017669 184876.000000 0 0 1
17.521623 -1.451558 -25.981833 31.371482 -0.082655 2.546683 0.118213 -0.014353 -389355.000000 0 0 1
18.792823 -1.210458 -25.387623 31.609599 -0.064322 2.503380 0.117581 -0.014236 69380.900000 0 0 1
19.489223 -2.384558 -25.033453 31.814928 -0.121748 2.476478 0.097651 -0.015199 285194.000000 0 0 1
20.335823 -2.879958 -26.223193 33.309093 -0.140684 2.477163 0.105077 -0.023189 -1268100.000000 0 0 1
21.454623 -2.140858 -26.557603 34.208045 -0.099456 2.459659 0.100951 -0.012926 -868422.000000 0 0 1
22.065223 -2.808758 -27.670063 35.502050 -0.126613 2.464493 0.098059 -0.018496 544296.000000 0 0 1
23.307123 -1.974358 -28.187393 36.628529 -0.084509 2.448929 0.079068 -0.019320 139719.000000 0 0 1
24.452023 -2.611558 -27.726153 37.060237 -0.106400 2.416047 0.078452 -0.027851 -537903.000000 0 0 1
25.633223 -1.951158 -28.213983 38.169332 -0.075972 2.402647 0.057873 -0.030878 503402.000000 0 0 1
26.885423 -2.808658 -27.966323 38.895112 -0.104090 2.373186 0.089888 -0.031485 -576721.000000 0 0 1
26.909023 -3.909158 -28.821673 39.624056 -0.144264 2.385290 0.108420 -0.036604 170020.000000 0 0 1
28.186123 -4.494358 -28.934813 40.643328 -0.158122 2.363025 0.102015 -0.036119 -16563.100000 0 0 1
28.472223 -5.662458 -28.007923 40.338253 -0.196315 2.338280 0.103813 -0.028315 -156088.000000 0 0 1
28.426423 -5.342058 -26.632803 39.318002 -0.185759 2.314977 0.089649 -0.010719 291972.000000 0 0 1
28.486523 -6.529958 -25.893233 39.045894 -0.225337 2.295814 0.062354 -0.011610 -137625.000000 0 0 1
28.595423 -6.389158 -24.339953 38.091375 -0.219822 2.263979 0.049492 -0.010058 -75218.600000 0 0 1
29.894423 -6.090858 -23.884953 38.746174 -0.200995 2.235018 0.045444 -0.006503 115.664000 0 0 1
30.002323 -5.816558 -22.527953 37.966832 -0.191495 2.206021 0.049473 -0.007776 -992442.000000 0 0 1
31.372123 -5.431858 -22.032153 38.718612 -0.171443 2.176125 0.048594 0.000424 -987225.000000 0 0 1
31.741923 -4.116158 -22.416953 39.077003 -0.128956 2.181765 0.073123 -0.018724 -140638.000000 0 0 1
33.057023 -3.862458 -21.995753 39.893589 -0.116315 2.154791 0.087843 -0.013571 -227067.000000 0 0 1
33.588323 -2.481958 -22.372053 40.433208 -0.073759 2.157128 0.095572 -0.024313 -334156.000000 0 0 1
32.849923 -1.430258 -21.850653 39.479287 -0.043512 2.157323 0.077829 -0.026709 21324.900000 0 0 1
33.244023 -0.139058 -22.359453 40.064068 -0.004183 2.162881 0.084326 -0.027600 -47561.000000 0 0 1
32.155023 0.880442 -22.045753 38.996614 0.027374 2.171623 0.070689 -0.021071 56435.800000 0 0 1
30.918423 0.773842 -22.728353 38.381320 0.025023 2.204548 0.055258 -0.020719 193364.000000 0 0 1
30.028423 1.796042 -22.378353 37.492967 0.059740 2.210388 0.057422 -0.012674 -411489.000000 0 0 1
28.825023 1.816842 -23.333453 37.129946 0.062947 2.250325 0.064426 -0.013335 -759139.000000 0 0 1
27.860923 2.736342 -22.929653 36.186842 0.097900 2.257054 0.069374 -0.017786 -413095.000000 0 0 1
26.973823 2.915242 -24.001453 36.223687 0.107659 2.295068 0.089154 -0.021628 -252994.000000 0 0 1
25.955923 4.047042 -23.704053 35.383196 0.154674 2.304903 0.090571 -0.015628 111944.000000 0 0 1
26.587423 5.349542 -23.531553 35.906025 0.198555 2.285462 0.079937 -0.010891 95040.100000 0 0 1
25.657723 6.332042 -23.261253 35.206524 0.241954 2.292559 0.114869 -0.029598 -343273.000000 0 0 1
26.325223 7.685042 -22.830853 35.683681 0.284034 2.265050 0.135881 -0.027474 332629.000000 0 0 1
27.116823 8.323242 -23.830453 37.047117 0.297812 2.269528 0.130565 -0.023065 295235.000000 0 0 1
27.747323 9.453142 -23.290453 37.439565 0.328354 2.242194 0.155211 -0.024818 -173659.000000 0 0 1
28.678423 10.173242 -24.329653 38.959964 0.340887 2.245260 0.193469 -0.023561 -43009.100000 0 0 1
28.169223 10.818842 -25.522273 39.521372 0.366695 2.272846 0.218537 -0.042108 -213038.000000 0 0 1
27.086423 11.694242 -25.405293 38.934027 0.407564 2.281704 0.219619 -0.041132 -229246.000000 0 0 1
26.819223 12.250042 -26.814833 39.854353 0.428464 2.308811 0.214440 -0.037583 -406956.000000 0 0 1
26.322823 11.361342 -27.840863 39.963542 0.407461 2.341523 0.186390 -0.032646 246247.000000 0 0 1
27.178623 10.336442 -28.277913 40.560571 0.363422 2.342249 0.174508 -0.040113 -540137.000000 0 0 1
28.187623 10.675242 -29.367963 42.083014 0.362029 2.343199 0.178114 -0.034777 -558617.000000 0 0 1
29.423923 11.221142 -28.869873 42.721784 0.364336 2.312798 0.172844 -0.037865 1085190.000000 0 0 1
30.344023 11.494642 -29.938263 44.149588 0.362107 2.315984 0.191033 -0.032747 837589.000000 0 0 1
31.060023 10.226542 -30.569483 44.763830 0.318072 2.322530 0.138418 -0.024628 -496114.000000 0 0 1
30.128423 9.507142 -31.359373 44.514243 0.305665 2.352486 0.131364 -0.018532 286436.000000 0 0 1
30.676123 8.279442 -31.778423 44.938200 0.263617 2.356267 0.107297 -0.010599 59731.600000 0 0 1
29.676223 7.426542 -32.605623 44.709712 0.245216 2.388056 0.112807 -0.014674 648606.000000 0 0 1
28.518523 7.053742 -31.841993 43.324057 0.242473 2.396423 0.115896 -0.023922 91712.000000 0 0 1
27.536523 6.506742 -32.663903 43.214908 0.232039 2.427745 0.070392 -0.013572 -516827.000000 0 0 1
26.152323 6.539342 -31.996403 41.838699 0.245024 2.441459 0.093604 -0.008568 -587805.000000 0 0 1
25.800723 7.896542 -31.744353 41.662172 0.297006 2.437110 0.103819 -0.006115 6089.850000 0 0 1
24.764723 8.156442 -30.840893 40.385390 0.318168 2.439767 0.120572 -0.011905 841676.000000 0 0 1
23.253423 7.942242 -31.215573 39.726727 0.329129 2.474716 0.136293 -0.013410 657967.000000 0 0 1
22.734223 8.817042 -32.163943 40.362164 0.369972 2.492915 0.136682 -0.014536 -365155.000000 0 0 1
21.382623 8.528642 -32.419593 39.761593 0.379522 2.524129 0.131256 -0.011172 -324285.000000 0 0 1
20.836723 9.521542 -33.425503 40.522747 0.428626 2.540747 0.131214 -0.008208 -342079.000000 0 0 1
21.524723 9.424742 33.073332 40.570738 0.412710 0.617719 0.108110 -0.015939 102004.000000 0 0 1
21.304623 10.568542 32.235762 40.059024 0.460497 0.635615 0.089540 -0.011771 460873.000000 0 0 1
20.090823 10.351242 31.259055 38.573539 0.475751 0.626003 0.104235 -0.015032 497906.000000 0 0 1
20.211123 9.251642 30.362465 37.629266 0.429280 0.631938 0.097701 -0.014794 154345.000000 0 0 1
21.100623 9.441642 29.244955 37.277987 0.420738 0.668891 0.103472 -0.011591 400557.000000 0 0 1
20.446423 10.119642 27.947805 36.076907 0.459587 0.684599 0.095599 -0.004193 429076.000000 0 0 1
19.487823 9.287142 27.286215 34.793157 0.444721 0.669325 0.102392 -0.000485 569134.000000 0 0 1
18.193423 9.852242 27.475155 34.394062 0.496315 0.645441 0.106013 -0.018249 949294.000000 0 0 1
17.001223 8.967942 26.871375 33.038408 0.485395 0.620930 0.120975 -0.017737 630888.000000 0 0 1
16.830823 8.942942 25.469135 31.810842 0.488407 0.642428 0.114056 -0.016061 -84516.500000 0 0 1
15.581023 8.490942 25.034295 30.685181 0.498961 0.616611 0.129944 -0.015885 -148711.000000 0 0 1
15.337023 6.998942 25.016645 30.166902 0.428116 0.592988 0.136720 -0.023359 -191032.000000 0 0 1
15.346023 6.347142 26.297755 31.102388 0.392177 0.563254 0.123920 -0.031990 -52256.600000 0 0 1
15.141423 4.961142 26.164875 30.634561 0.316630 0.546985 0.142308 -0.030970 -56873.800000 0 0 1
15.703723 4.099042 27.327525 31.783686 0.255327 0.535924 0.128552 -0.033869 504163.000000 0 0 1
17.129423 4.138642 27.454935 32.623902 0.237067 0.570634 0.135211 -0.024987 727654.000000 0 0 1
17.505023 3.496442 28.682055 33.783298 0.197145 0.556704 0.132140 -0.023971 -77439.600000 0 0 1
17.759623 1.922242 28.787005 33.879063 0.107817 0.555382 0.153677 -0.022190 -1091450.000000 0 0 1
16.690223 1.176742 28.385595 32.949815 0.070388 0.532620 0.130488 -0.043717 -711151.000000 0 0 1
16.020523 0.489242 29.429695 33.511244 0.030529 0.498703 0.113093 -0.042457 462.606000 0 0 1
16.125023 -1.049158 29.379925 33.530540 -0.064972 0.502847 0.119035 -0.036506 -535393.000000 0 0 1
15.464123 -1.699158 28.321045 32.312658 -0.109438 0.502318 0.108663 -0.034028 27473.200000 0 0 1
15.980123 -1.578358 27.004835 31.418413 -0.098451 0.536461 0.127989 -0.032415 -69958.700000 0 0 1
17.272823 -2.457458 26.723285 31.914315 -0.141325 0.578388 0.118523 -0.026286 846217.000000 0 0 1
18.500623 -2.096958 27.328735 33.068566 -0.112864 0.598065 0.121531 -0.039931 104534.000000 0 0 1
19.071623 -0.921258 26.753635 32.868412 -0.048268 0.619856 0.120281 -0.038294 -1143100.000000 0 0 1
20.515123 -0.727358 27.206515 34.082162 -0.035440 0.646391 0.140006 -0.035562 -92749.100000 0 0 1
21.443523 -1.612958 26.557665 34.172151 -0.075078 0.680636 0.117301 -0.039161 1760880.000000 0 0 1
22.824823 -1.243258 26.943575 35.333758 -0.054416 0.703559 0.118988 -0.040980 2242930.000000 0 0 1
23.834223 -1.880158 25.918555 35.261547 -0.078722 0.745074 0.112195 -0.027351 -137441.000000 0 0 1
23.799023 -1.338058 24.593635 34.249537 -0.056164 0.769768 0.121335 -0.019474 328746.000000 0 0 1
22.991323 -2.202858 23.788395 33.156316 -0.095521 0.770644 0.126861 -0.009012 217837.000000 0 0 1
22.778123 -1.547458 22.362485 31.958070 -0.067832 0.795756 0.116780 -0.027775 -514437.000000 0 0 1
21.891523 -0.505658 22.438285 31.352370 -0.023094 0.773198 0.091953 -0.024987 -478194.000000 0 0 1
21.641823 -0.019458 21.173185 30.276602 -0.000899 0.796344 0.103508 -0.016606 -153944.000000 0 0 1
-31.304907 -26.941105 -10.224553 42.548347 0.710618 1.813476 0.050879 0.004147 -74692.900000 0 0 1
-31.333397 -25.737005 -9.474053 41.640520 0.687649 1.800326 0.063395 0.009481 -39428.800000 0 0 1
-32.139137 -25.892005 -8.312853 42.100161 0.678160 1.769557 0.059944 0.002335 -190367.000000 0 0 1
-32.334237 -24.589605 -7.502653 41.309095 0.650176 1.753432 0.091251 -0.006398 214928.000000 0 0 1
-31.232677 -23.967905 -6.867553 39.963782 0.654543 1.743498 0.118465 -0.021029 -41571.000000 0 0 1
-30.471357 -24.723405 -5.881353 39.677962 0.681633 1.719572 0.117594 -0.016123 -624268.000000 0 0 1
-29.264207 -24.049505 -5.361253 38.255922 0.687897 1.711401 0.133179 -0.014651 -1405640.000000 0 0 1
-29.420407 -22.984605 -4.438453 37.597238 0.663201 1.689125 0.137210 -0.023968 3966.520000 0 0 1
-29.990337 -21.766305 -4.965153 37.387767 0.627817 1.703991 0.150471 -0.027866 187104.000000 0 0 1
-30.048007 -20.619105 -3.927553 36.653184 0.601408 1.678157 0.145345 -0.033188 -703847.000000 0 0 1
-28.868077 -19.922305 -4.002153 35.302710 0.604061 1.684407 0.163022 -0.039025 -600158.000000 0 0 1
-28.920507 -18.869605 -3.062553 34.667520 0.578106 1.659252 0.170169 -0.029013 219919.000000 0 0 1
-27.727347 -17.878005 -3.208653 33.147010 0.572696 1.667749 0.155095 -0.022654 212735.000000 0 0 1
-27.728817 -17.159805 -4.382553 32.902173 0.554160 1.704393 0.151009 -0.033247 93123.800000 0 0 1
-26.707437 -16.187305 -4.466353 31.547810 0.544891 1.712848 0.132749 -0.031750 -58090.200000 0 0 1
-27.073557 -15.107605 -5.465653 31.481591 0.508980 1.745295 0.143015 -0.049419 666035.000000 0 0 1
-28.321737 -14.515205 -5.074653 32.226760 0.473606 1.728921 0.128927 -0.036065 452035.000000 0 0 1
-28.687897 -13.475805 -5.929753 32.245228 0.439147 1.755744 0.150899 -0.051989 -79145.400000 0 0 1
-30.074987 -12.857905 -5.639953 33.190957 0.404010 1.741549 0.138306 -0.042950 137503.000000 0 0 1
-31.135127 -13.675005 -6.121953 34.552572 0.413849 1.748915 0.141852 -0.038501 -280571.000000 0 0 1
-32.332987 -12.951905 -6.061453 35.354138 0.381005 1.743097 0.114099 -0.032520 -815263.000000 0 0 1
-33.417227 -13.675005 -6.839853 36.749155 0.388429 1.758011 0.089810 -0.031630 -771415.000000 0 0 1
-34.057358 -14.779205 -6.251153 37.648446 0.409427 1.737609 0.091053 -0.032541 -106836.000000 0 0 1
-34.682655 -15.510005 -7.255953 38.679396 0.420521 1.759507 0.105789 -0.036692 -50528.500000 0 0 1
-35.683922 -16.529305 -6.600953 39.876469 0.433788 1.737097 0.103510 -0.037837 422538.000000 0 0 1
-37.033367 -16.255805 -6.294453 40.930937 0.413627 1.725191 0.090207 -0.034341 125267.000000 0 0 1
-37.274477 -15.370505 -5.237253 40.657938 0.391116 1.699968 0.099589 -0.034791 -27159.100000 0 0 1
36.342784 -15.265805 -5.054053 39.741492 -0.397671 1.698315 0.124327 -0.035977 -223341.000000 0 0 1
35.672484 -14.741405 -6.209653 39.094691 -0.391870 1.730308 0.141146 -0.052705 1323280.000000 0 0 1
34.251444 -14.812405 -6.405653 37.862925 -0.408173 1.740794 0.150872 -0.043530 853006.000000 0 0 1
33.372754 -14.128405 -5.387453 36.638466 -0.400474 1.718375 0.179129 -0.051074 -1003620.000000 0 0 1
33.377954 -14.860905 -4.166853 36.773590 -0.418881 1.684351 0.172300 -0.052441 752856.000000 0 0 1
32.374364 -14.339905 -3.277553 35.559452 -0.416967 1.663098 0.201090 -0.045175 -622985.000000 0 0 1
32.345264 -14.961505 -1.847053 35.685772 -0.433247 1.622578 0.221081 -0.040743 -367174.000000 0 0 1
33.440544 -14.760705 -0.960853 36.565990 -0.415680 1.597077 0.247099 -0.041763 718632.000000 0 0 1
34.729084 -15.257305 -1.315253 37.955559 -0.413940 1.605456 0.190959 -0.051437 -12480.300000 0 0 1
34.908864 -16.755205 -1.597953 38.754601 -0.447496 1.612041 0.168500 -0.054637 -1187610.000000 0 0 1
34.928994 -17.598905 -0.459953 39.114800 -0.466721 1.582556 0.154127 -0.040209 70688.100000 0 0 1
34.737014 -18.920005 -0.825053 39.563966 -0.498737 1.591651 0.120578 -0.041088 174955.000000 0 0 1
35.793254 -19.689205 -1.700153 40.886579 -0.502906 1.612390 0.104034 -0.054411 124336.000000 0 0 1
36.006244 -19.186405 -2.963353 40.906591 -0.489591 1.643302 0.072457 -0.052485 -194445.000000 0 0 1
36.918134 -19.963305 -3.699453 42.132744 -0.495710 1.658714 0.074228 -0.042360 -55153.800000 0 0 1
37.046924 -19.423205 -5.172053 42.148376 -0.482888 1.693817 0.099886 -0.046760 -695170.000000 0 0 1
35.873084 -19.557705 -5.920853 41.284845 -0.499144 1.714707 0.084891 -0.048973 -233415.000000 0 0 1
35.766934 -18.612605 -6.999753 40.923088 -0.479823 1.742688 0.094954 -0.039530 495901.000000 0 0 1
34.532724 -18.708605 -7.976953 40.076835 -0.496498 1.771176 0.109783 -0.045797 593520.000000 0 0 1
34.679854 -19.873605 -8.730053 40.912910 -0.520374 1.785831 0.114464 -0.049235 754310.000000 0 0 1
33.638704 -19.889205 -9.713453 40.267779 -0.533968 1.814421 0.107762 -0.046870 339744.000000 0 0 1
33.573404 -21.180405 -10.538553 41.071207 -0.562808 1.830291 0.100611 -0.034535 19068.600000 0 0 1
33.375534 -22.341305 -9.720153 41.322409 -0.589887 1.808249 0.085347 -0.040858 101348.000000 0 0 1
33.042984 -23.445405 -10.530453 41.861871 -0.617102 1.825080 0.064317 -0.030231 -198953.000000 0 0 1
32.348664 -24.573405 -9.692053 41.763910 -0.649644 1.804999 0.079010 -0.029435 476243.000000 0 0 1
31.008654 -24.187905 -9.405053 40.435706 -0.662449 1.805539 0.094185 -0.039109 261507.000000 0 0 1
30.323984 -25.274105 -8.752453 40.434265 -0.694818 1.788985 0.062246 -0.029463 71978.100000 0 0 1
28.910564 -24.930905 -8.261653 39.059258 -0.711618 1.783922 0.071312 -0.032137 106786.000000 0 0 1
28.075364 -24.566905 -9.353853 38.461064 -0.718849 1.816463 0.075752 -0.024885 1084510.000000 0 0 1
26.750364 -24.123805 -8.935853 37.113197 -0.733815 1.813958 0.080729 -0.034379 932555.000000 0 0 1
25.851464 -23.649405 -10.084953 36.459550 -0.740942 1.851057 0.111852 -0.037415 -394529.000000 0 0 1
25.539564 -24.656805 -10.991153 37.162249 -0.767814 1.871049 0.092304 -0.029356 -93399.100000 0 0 1
24.893464 -24.102905 -12.066853 36.691191 -0.769265 1.905909 0.100735 -0.023371 -341793.000000 0 0 1
23.935264 -25.026505 -12.848353 36.936472 -0.807682 1.926073 0.103910 -0.030966 -192658.000000 0 0 1
24.563264 -26.033805 -13.596853 38.288214 -0.814454 1.933837 0.098468 -0.029422 -433638.000000 0 0 1
23.859964 -27.206105 -13.637853 38.671191 -0.850830 1.931210 0.110826 -0.014431 -336425.000000 0 0 1
24.541764 -28.435005 -14.390253 40.223464 -0.858756 1.936662 0.094740 -0.022110 9675.450000 0 0 1
24.579964 -28.328205 -15.806853 40.700349 -0.856124 1.969660 0.102298 -0.019838 223010.000000 0 0 1
25.143964 -29.484805 -16.344853 42.056234 -0.864692 1.969954 0.082131 -0.017664 -370495.000000 0 0 1
25.081864 -29.575105 -17.898553 42.710009 -0.867422 2.003219 0.085973 -0.021659 -1377650.000000 0 0 1
23.793664 -29.505705 -18.337553 42.106898 -0.892160 2.021390 0.085229 -0.020470 -1338350.000000 0 0 1
23.700864 -29.782405 -19.703053 42.859455 -0.898621 2.048468 0.065657 -0.011759 -46395.400000 0 0 1
22.268764 -29.465405 -20.163453 42.079362 -0.923619 2.070513 0.064134 -0.009995 -53525.800000 0 0 1
22.170164 -29.616205 -21.572553 42.825352 -0.928203 2.098711 0.046718 -0.001354 -266265.000000 0 0 1
20.840764 -29.408405 -21.960553 42.207317 -0.954277 2.118001 0.068810 -0.012801 -462936.000000 0 0 1
20.543064 -29.602605 -23.470653 43.002363 -0.964135 2.148139 0.063818 -0.011494 -417584.000000 0 0 1
21.205864 -28.662005 -24.262953 43.126443 -0.933817 2.168324 0.072084 -0.013447 215126.000000 0 0 1
21.209964 -29.037305 -25.624883 44.154980 -0.939933 2.189942 0.074430 -0.011510 -529381.000000 0 0 1
21.657464 -27.823705 -26.481933 44.096452 -0.909377 2.214980 0.079797 -0.019782 214109.000000 0 0 1
20.762864 -26.719305 -26.489423 42.973332 -0.910192 2.234979 0.110664 -0.032524 -532189.000000 0 0 1
19.690864 -26.877705 -27.341683 43.101145 -0.938518 2.257978 0.116178 -0.038004 -1067670.000000 0 0 1
18.901864 -25.652505 -27.707653 42.226123 -0.935769 2.286533 0.114964 -0.036468 -554249.000000 0 0 1
17.959864 -25.269705 -26.729113 40.933607 -0.952907 2.282318 0.092318 -0.024043 -145683.000000 0 0 1
17.355564 -24.067505 -27.177733 40.237912 -0.946036 2.312339 0.079178 -0.009996 -701345.000000 0 0 1
16.164564 -23.686905 -26.313373 38.919868 -0.971963 2.313241 0.074030 -0.009066 -331454.000000 0 0 1
15.072764 -24.595505 -26.526483 39.189046 -1.020999 2.314319 0.100789 -0.023469 84786.600000 0 0 1
13.934764 -24.315305 -25.728403 38.044216 -1.050402 2.313492 0.079074 -0.012689 287872.000000 0 0 1
13.973364 -24.629005 -24.205053 37.252213 -1.054727 2.278067 0.082648 -0.016876 -662106.000000 0 0 1
14.730364 -23.701205 -23.512953 36.490953 -1.014716 2.270970 0.046507 -0.009380 -554751.000000 0 0 1
14.902864 -24.002105 -22.132553 35.889361 -1.015152 2.235325 0.051948 -0.014794 -53193.300000 0 0 1
16.112764 -23.313205 -21.503853 35.574462 -0.966039 2.219902 0.036727 -0.011286 -136392.000000 0 0 1
15.882964 -21.994605 -21.173853 34.414578 -0.945372 2.233510 0.020347 -0.004958 -405276.000000 0 0 1
17.090264 -21.368505 -20.862153 34.408132 -0.896185 2.222214 0.037381 -0.001098 -568600.000000 0 0 1
16.853464 -19.943005 -20.276253 33.058873 -0.869165 2.231076 0.059289 0.000780 320991.000000 0 0 1
16.199764 -19.820605 -19.019253 31.890762 -0.885584 2.209789 0.054487 0.004510 -1179130.000000 0 0 1
14.832364 -19.772005 -19.100053 31.236888 -0.927186 2.228698 0.043262 0.005436 -1695250.000000 0 0 1
14.135364 -19.754205 -17.716653 30.065211 -0.949702 2.200957 0.057361 0.001781 -64336.600000 0 0 1
14.259264 -18.524005 -17.045953 28.931468 -0.914761 2.200845 0.079691 -0.008278 281783.000000 0 0 1
13.821764 -18.676205 -15.680653 28.030780 -0.933679 2.164468 0.077236 -0.015751 12490.200000 0 0 1
13.616664 -17.408305 -14.786853 26.591608 -0.907008 2.160449 0.094884 -0.019451 -442498.000000 0 0 1
12.472164 -16.654605 -15.053853 25.681690 -0.928018 2.197121 0.096443 -0.031736 -239809.000000 0 0 1
12.578464 -15.312205 -14.645153 24.640655 -0.883102 2.207252 0.088225 -0.039054 -270892.000000 0 1 0
11.208864 -14.712705 -14.279653 23.366874 -0.919755 2.228254 0.093152 -0.036136 -201701.000000 0 1 0
10.469064 -14.320805 -15.405653 23.495125 -0.939541 2.285900 0.114104 -0.028642 -303157.000000 0 1 0
9.164064 -13.924305 -15.083053 22.480320 -0.988724 2.306278 0.103430 -0.027980 -57434.300000 0 1 0
8.365964 -13.282105 -16.250453 22.593824 -1.008705 2.373509 0.075696 -0.019206 -44459.500000 0 1 0
8.728464 -11.973705 -16.704253 22.329078 -0.940891 2.415982 0.073125 -0.016553 123558.000000 0 1 0
9.865664 -11.953105 -17.568953 23.428106 -0.880780 2.418721 0.102238 -0.018656 350752.000000 0 1 0
10.134664 -10.747505 -18.488653 23.665387 -0.814737 2.467467 0.100768 -0.012125 -94799.700000 0 1 0
9.210064 -10.770805 -19.564753 24.158126 -0.863352 2.514713 0.096159 -0.014439 279335.000000 0 1 0
9.470264 -9.678205 -20.416253 24.498508 -0.796257 2.555968 0.089259 -0.014263 30803.100000 0 1 0
9.227264 -9.740705 -21.911253 25.692931 -0.812460 2.592144 0.099708 -0.014527 -472237.000000 0 0 1
10.291164 -10.248805 -22.635653 26.894587 -0.783336 2.571116 0.107005 -0.018631 -628736.000000 0 0 1
9.969864 -10.383305 -24.007753 27.992559 -0.805709 2.601474 0.106806 -0.014040 824864.000000 0 0 1
11.284764 -10.955305 -24.663053 29.251167 -0.770585 2.573907 0.111105 -0.011602 800406.000000 0 0 1
11.457964 -12.304205 -24.247153 29.505979 -0.820996 2.535308 0.094138 -0.013588 -64230.300000 0 0 1
12.542764 -12.894005 -24.957253 30.764277 -0.799206 2.517068 0.074711 -0.024202 230167.000000 0 0 1
12.629264 -14.412905 -24.785353 31.329600 -0.851261 2.483428 0.055805 -0.014259 102218.000000 0 0 1
11.482664 -15.094405 -25.266633 31.592647 -0.920468 2.497697 0.047061 -0.013800 -85220.800000 0 0 1
11.530364 -16.393305 -24.676353 31.790126 -0.957820 2.459455 0.034829 -0.007133 297246.000000 0 0 1
10.353864 -17.329805 -25.054753 32.175538 -1.032247 2.463371 0.036101 -0.003989 247034.000000 0 0 1
10.381664 -17.826005 -26.373463 33.482905 -1.043427 2.477813 0.039999 -0.012501 214156.000000 0 0 1
9.175564 -18.541105 -26.632953 33.723548 -1.111256 2.481187 0.048382 -0.014472 334687.000000 0 0 1
9.207664 -19.364705 -27.968893 35.242472 -1.126951 2.487521 0.057173 -0.016318 -300724.000000 0 0 1
10.117764 -20.428905 -27.948693 36.067142 -1.110942 2.457365 0.038234 -0.019739 -167532.000000 0 0 1
10.138564 -21.252505 -29.119953 37.449046 -1.125675 2.461618 0.046179 -0.020841 215807.000000 0 0 1
10.988664 -22.539505 -28.838133 38.215414 -1.117175 2.425872 0.046313 -0.012138 277393.000000 0 0 1
10.906264 -23.575205 -29.832433 39.556427 -1.137501 2.425192 0.058351 -0.011395 79805.500000 0 0 1
11.678264 -24.731905 -29.541243 40.258340 -1.129640 2.394683 0.083916 -0.019582 -269755.000000 0 0 1
11.090564 -25.734405 -28.566913 40.016605 -1.163886 2.365815 0.087092 -0.024000 -61164.300000 0 0 1
10.670164 -25.261605 -27.324363 38.712038 -1.171141 2.354399 0.092922 -0.024660 -241217.000000 0 0 1
10.205264 -26.338705 -26.493813 38.727211 -1.201145 2.324184 0.088561 -0.019912 -59340.100000 0 0 1
9.514764 -25.647305 -25.351843 37.296527 -1.215550 2.318201 0.066122 -0.011948 -455806.000000 0 0 1
10.339464 -24.701905 -24.724153 36.446843 -1.174385 2.316327 0.055400 -0.008583 -373589.000000 0 0 1
9.739964 -23.439205 -24.718653 35.429860 -1.176964 2.342948 0.046711 -0.000835 -68529.800000 0 0 1
10.723064 -22.254505 -24.603153 34.864914 -1.121784 2.354166 0.056044 0.009726 -103091.000000 0 0 1
11.083064 -21.956805 -23.284153 33.868678 -1.103343 2.328814 0.056407 -0.000215 -179289.000000 0 0 1
12.105164 -20.993605 -23.329653 33.638358 -1.047751 2.337192 0.048626 -0.004393 -39169.900000 0 0 1
12.817664 -20.690405 -21.960853 32.782074 -1.016163 2.304876 0.044006 0.009975 -145309.000000 0 0 1
12.019064 -20.147105 -20.938753 31.445112 -1.032906 2.299473 0.038261 0.010475 -240027.000000 0 0 1
11.621964 -18.741705 -21.137053 30.546629 -1.015719 2.334997 0.030445 0.010707 -404933.000000 0 0 1
12.721864 -17.726405 -20.891453 30.208013 -0.948304 2.334479 0.045217 -0.000072 -336094.000000 0 0 1
13.768664 -17.769705 -21.852253 31.350589 -0.911587 2.342041 0.041516 0.003532 54868.000000 0 0 1
14.561664 -16.575905 -21.718553 30.959622 -0.849997 2.348314 0.060780 -0.003306 26878.000000 0 0 1
15.768364 -16.515405 -22.674453 32.179663 -0.808534 2.352685 0.046696 -0.002012 -546575.000000 0 0 1
16.883864 -17.126805 -22.070253 32.641819 -0.792541 2.313299 0.053839 0.003062 -152146.000000 0 0 1
18.032164 -16.643705 -22.759953 33.469199 -0.745378 2.318596 0.083580 0.001872 62925.000000 0 0 1
19.356964 -17.122805 -22.126353 34.021434 -0.724231 2.278861 0.083363 0.002058 -69103.500000 0 0 1
19.595364 -18.495105 -22.290953 34.970470 -0.756521 2.261944 0.079904 -0.003142 -384230.000000 0 0 1
20.890564 -18.714105 -21.815053 35.532097 -0.730499 2.231856 0.065228 -0.007224 -334668.000000 0 0 1
21.230864 -20.198705 -21.585053 36.395765 -0.760490 2.205657 0.091399 -0.011124 -45561.100000 0 0 1
20.488664 -20.789605 -20.527153 35.684128 -0.792689 2.183701 0.081502 -0.012958 261902.000000 0 0 1
20.841064 -22.154605 -20.452553 36.653559 -0.815939 2.162766 0.107937 -0.013797 -181157.000000 0 0 1
-16.817777 13.343642 28.778525 35.903954 -0.670719 0.640927 0.097315 -0.023426 141498.000000 0 0 1
-18.052177 13.858442 28.285785 36.304589 -0.654726 0.677529 0.099910 -0.029122 339239.000000 0 0 1
-18.379177 13.414042 26.973985 35.289185 -0.630480 0.700733 0.096509 -0.031038 60915.400000 0 0 1
-19.582777 14.074142 26.276815 35.665637 -0.623166 0.742539 0.099114 -0.023802 -18795.100000 0 0 1
-19.408477 15.474042 26.292155 36.158158 -0.673082 0.756645 0.104161 -0.025000 180258.000000 0 0 1
-20.330377 16.136042 25.440245 36.344218 -0.670882 0.795426 0.108193 -0.025600 -501079.000000 0 0 1
-20.336877 17.636742 25.745495 37.248809 -0.714412 0.807681 0.106117 -0.017974 478495.000000 0 0 1
-19.160977 18.380342 25.431275 36.765878 -0.764607 0.806944 0.053996 -0.018960 -3333.680000 0 0 1
-18.066077 18.248842 26.269115 36.735130 -0.790431 0.774036 0.044714 -0.006432 400332.000000 0 0 1
-16.783477 19.086142 25.787495 36.207193 -0.849506 0.778140 0.055706 -0.013273 1045210.000000 0 0 1
-16.889677 20.491242 25.920195 37.108068 -0.881449 0.797489 0.068477 -0.018471 33365.000000 0 0 1
-15.869977 21.151942 25.211425 36.535966 -0.927113 0.809246 0.084051 -0.031044 -151598.000000 0 0 1
-16.153777 22.662242 25.173805 37.526553 -0.951527 0.835474 0.090469 -0.034493 -14440.900000 0 0 1
-15.771577 23.379542 26.290175 38.555401 -0.977329 0.820466 0.085091 -0.024536 -45241.200000 0 0 1
-15.977277 24.787342 26.017795 39.326980 -0.998245 0.847878 0.082392 -0.029380 37066.800000 0 0 1
-15.436277 25.776642 27.122385 40.476385 -1.031225 0.836481 0.061218 -0.015027 221441.000000 0 0 1
-14.028777 25.913342 27.107125 40.038783 -1.074601 0.827088 0.068094 -0.021122 -100699.000000 0 0 1
-13.652277 26.978042 27.924915 41.158235 -1.102319 0.825109 0.082826 -0.010343 186931.000000 0 0 1
-12.108777 26.987042 28.009315 40.736282 -1.149034 0.812650 0.088023 -0.022452 486197.000000 0 0 1
-11.373177 27.402442 26.868245 40.026811 -1.177390 0.834894 0.070301 -0.019067 -230599.000000 0 0 1
-9.985077 27.243442 26.950005 39.600627 -1.219487 0.822290 0.055688 -0.004796 -348191.000000 0 0 1
-9.191077 28.265942 26.099115 39.555066 -1.256416 0.850221 0.055895 -0.014230 283968.000000 0 0 1
-7.827477 27.842942 26.001335 38.891751 -1.296740 0.838530 0.045304 -0.008079 599650.000000 0 0 1
-7.224977 28.594542 24.939665 38.624280 -1.323306 0.868858 0.063173 -0.015850 407909.000000 0 0 1
-5.679977 28.382442 24.861475 38.156495 -1.373283 0.861149 0.059883 -0.012849 -371811.000000 0 0 1
-5.021077 29.178442 25.833935 39.293573 -1.400384 0.853354 0.083438 -0.015747 43278.500000 0 0 1
-3.616077 29.068142 25.808325 39.039756 -1.447032 0.848542 0.071842 -0.015280 124021.000000 0 0 1
-2.879277 29.771242 24.663365 38.767237 -1.474383 0.881245 0.078519 -0.014606 -878162.000000 0 0 1
-3.163077 29.313742 23.372925 37.624383 -1.463308 0.900501 0.078370 -0.015749 -208555.000000 0 0 1
-2.613177 30.181742 22.392785 37.672312 -1.484430 0.934265 0.080198 -0.021846 -43147.100000 0 0 1
-3.113077 29.733342 20.964285 36.513890 -1.466477 0.959236 0.067183 -0.020630 -340799.000000 0 0 1
-4.494777 29.826742 20.845185 36.665506 -1.421226 0.966087 0.069307 -0.017308 -744657.000000 0 0 1
-5.186977 28.619242 21.143885 35.958721 -1.391502 0.942207 0.081196 -0.014933 -221621.000000 0 0 1
-6.651877 28.708342 20.649585 35.983632 -1.343109 0.959584 0.063424 -0.023239 -314408.000000 0 0 1
-6.889277 28.509142 19.264085 35.090430 -1.333690 0.989648 0.064849 -0.024260 210053.000000 0 0 1
-7.805477 27.457942 18.980585 34.280121 -1.293832 0.984006 0.051132 -0.019556 -711170.000000 0 0 1
-7.228877 26.017442 18.799785 32.902825 -1.299785 0.962618 0.051299 -0.024230 619430.000000 0 0 1
-6.218477 25.844642 17.791085 31.986524 -1.334675 0.980983 0.055909 -0.025180 1190980.000000 0 0 1
-4.928277 26.417742 18.009985 32.350341 -1.386365 0.980368 0.066261 -0.020317 82969.000000 0 0 1
-3.996877 26.529042 16.797585 31.653183 -1.421261 1.011398 0.056038 -0.022562 81097.000000 0 0 1
-3.456777 25.310542 16.322585 30.315007 -1.435062 1.002220 0.068267 -0.026873 429597.000000 0 0 1
-2.695377 25.452442 15.091185 29.712552 -1.465291 1.038044 0.078205 -0.040672 233423.000000 0 0 1
-2.064777 24.105542 14.665085 28.291433 -1.485349 1.025867 0.073700 -0.037877 -730201.000000 0 0 1
-0.919177 23.772142 15.355385 28.315146 -1.532149 0.997621 0.065354 -0.033346 -823660.000000 0 0 1
-0.151077 22.860042 14.630685 27.141505 -1.564188 1.001485 0.052865 -0.041034 158362.000000 0 0 1
1.289523 22.603942 15.131985 27.231931 1.513810 0.981627 0.039580 -0.035510 544090.000000 0 0 1
2.258823 23.644742 14.997385 28.090882 1.475554 1.007604 0.052974 -0.043953 718693.000000 0 0 1
3.513723 23.158142 15.494585 28.084301 1.420218 0.986375 0.066018 -0.040538 158227.000000 0 0 1
4.619223 24.225542 15.500685 29.128772 1.382382 1.009666 0.073062 -0.039734 -785496.000000 0 0 1
5.848223 23.584342 15.536285 28.840927 1.327729 1.001916 0.086760 -0.036807 -594900.000000 0 0 1
6.898623 24.546942 15.636685 29.910689 1.296825 1.020688 0.112850 -0.038440 -231736.000000 0 0 1
8.323523 23.998442 15.660085 29.840317 1.236943 1.018321 0.134191 -0.034015 -193221.000000 0 0 1
8.782523 23.298442 14.508985 28.817716 1.210311 1.043181 0.124014 -0.025975 -193897.000000 0 0 1
9.521623 24.164742 13.693085 29.361482 1.195447 1.085622 0.141852 -0.029772 -292257.000000 0 0 1
10.024123 23.296242 12.440985 28.248470 1.164454 1.114738 0.116727 -0.025823 1315590.000000 0 0 1
11.350823 22.737542 12.650885 28.388059 1.107780 1.108906 0.128601 -0.024218 1072170.000000 0 0 1
11.845823 22.115742 11.446585 27.576328 1.079054 1.142757 0.117859 -0.022946 830514.000000 0 0 1
13.213423 21.376942 11.680285 27.712763 1.017163 1.135723 0.116695 -0.033715 688123.000000 0 0 1
13.153523 20.274842 12.549885 27.232040 0.995293 1.091844 0.111431 -0.025312 -831784.000000 0 0 1
14.353023 19.590842 12.577585 27.349699 0.938499 1.092936 0.092120 -0.025317 -883215.000000 0 0 1
14.582323 19.114142 14.029685 27.835708 0.919085 1.042552 0.101707 -0.029028 -10216.400000 0 0 1
15.796423 18.388542 14.096585 28.042453 0.861080 1.044092 0.085389 -0.029417 296961.000000 0 0 1
16.191523 18.212642 15.448985 28.853715 0.844077 1.005786 0.071506 -0.033480 261661.000000 0 0 1
17.271623 17.084942 15.468785 28.800825 0.779965 1.003807 0.050368 -0.031163 465576.000000 0 0 1
18.047023 17.035042 16.657585 29.889176 0.756560 0.979652 0.053791 -0.039442 38570.700000 0 0 1
19.163023 16.204242 16.600885 30.089671 0.701934 0.986379 0.051224 -0.037658 -321495.000000 0 0 1
19.661423 15.715742 17.968885 30.926315 0.674325 0.950812 0.054274 -0.041482 -407091.000000 0 0 1
20.206323 16.705742 18.813185 32.269386 0.690845 0.948375 0.071389 -0.033832 -1598.400000 0 0 1
19.255323 17.440342 19.524885 32.498525 0.735978 0.926304 0.062153 -0.030405 -414639.000000 0 0 1
19.884623 18.519642 20.412385 33.985892 0.749871 0.926528 0.062432 -0.028886 -1024340.000000 0 0 1
18.921223 19.268842 21.027285 34.226418 0.794500 0.909224 0.078947 -0.033126 -563225.000000 0 0 1
19.427023 20.386742 21.763485 35.590417 0.809499 0.912843 0.083772 -0.024329 -296959.000000 0 0 1
18.367523 21.366142 22.237585 35.894124 0.860723 0.902649 0.094047 -0.023557 -201683.000000 0 0 1
17.463023 20.904942 23.223495 35.795314 0.874867 0.864808 0.099404 -0.022730 -263017.000000 0 0 1
16.718023 21.974242 23.682465 36.376074 0.920418 0.861836 0.098203 -0.031648 -37871.000000 0 0 1
16.008723 21.600442 25.042595 36.742209 0.932997 0.820883 0.112988 -0.030818 229240.000000 0 0 1
15.024423 20.610242 24.958155 35.685079 0.940885 0.796238 0.100115 -0.026250 -283891.000000 0 0 1
14.314823 20.356842 26.161175 36.107094 0.957930 0.760424 0.086025 -0.024404 331045.000000 0 0 1
13.197123 19.280142 26.082535 35.016947 0.970554 0.730479 0.082908 -0.021503 89748.300000 0 0 1
13.614423 17.933542 26.077345 34.452756 0.921459 0.712237 0.084079 -0.024779 -185475.000000 0 0 1
14.211023 17.467042 24.845905 33.531623 0.887823 0.736284 0.100008 -0.028995 47040.600000 0 0 1
13.402423 17.334342 23.465815 32.105278 0.912630 0.751153 0.102221 -0.025105 -422327.000000 0 0 1
13.289323 18.499542 22.675985 32.140931 0.947854 0.787643 0.098208 -0.024030 -172354.000000 0 0 1
14.445823 18.977342 22.028585 32.466596 0.920157 0.825078 0.102639 -0.028346 -32675.600000 0 0 1
15.098723 18.124842 20.939885 31.542989 0.876231 0.844838 0.104356 -0.026638 -595092.000000 0 0 1
14.251023 17.876942 19.866885 30.288114 0.897781 0.855382 0.105758 -0.022008 -138564.000000 0 0 1
14.769023 16.885342 19.064985 29.439981 0.852156 0.866381 0.087816 -0.019881 -299773.000000 0 0 1
13.674023 16.316142 18.184185 27.997500 0.873271 0.863879 0.082616 -0.013489 -272075.000000 0 0 1
13.063723 17.145342 17.227385 27.593594 0.919697 0.896528 0.101581 -0.023781 240920.000000 0 0 1
12.030123 16.379842 16.628985 26.259212 0.937324 0.885034 0.081190 -0.021600 265441.000000 0 0 1
11.273323 16.945742 15.392585 25.518183 0.983768 0.923288 0.089445 -0.020712 189184.000000 0 0 1
10.450523 18.063542 15.604185 26.057544 1.046304 0.928750 0.097036 -0.027813 -72380.600000 0 0 1
9.942523 18.503842 14.389285 25.461686 1.077739 0.970200 0.087558 -0.022110 -451550.000000 0 0 1
8.883123 19.580242 14.454685 25.908178 1.144888 0.978919 0.099329 -0.026705 -148304.000000 0 0 1
7.607323 19.235542 14.962785 25.529637 1.194190 0.944566 0.069274 -0.022572 -226647.000000 0 0 1
6.732223 20.282242 14.664385 25.917877 1.250312 0.969391 0.080004 -0.026595 1087990.000000 0 0 1
5.299223 20.161242 15.362785 25.895417 1.313768 0.935690 0.070547 -0.023550 688111.000000 0 0 1
4.485923 19.198842 14.759185 24.628288 1.341259 0.928198 0.057938 -0.031583 -693212.000000 0 1 0
3.353223 19.171642 15.600585 24.943421 1.397642 0.895102 0.055282 -0.028062 -620276.000000 0 1 0
2.102623 18.527842 15.038485 23.955333 1.457795 0.892109 0.041656 -0.027713 -491379.000000 0 1 0
1.417323 19.399142 14.139385 24.046990 1.497865 0.942225 0.039182 -0.029658 -45253.000000 0 1 0
0.529823 18.611342 13.349485 22.910075 1.542336 0.948761 0.027699 -0.034293 270351.000000 0 1 0
-0.396477 19.450642 12.416085 23.079078 -1.550415 1.002757 0.029554 -0.039753 182740.000000 0 1 0
-1.412377 20.193542 13.076185 24.098975 -1.500968 0.997263 0.043466 -0.035546 -106208.000000 0 1 0
-2.485877 20.278942 12.160885 23.776085 -1.448821 1.033895 0.047752 -0.043218 492617.000000 0 1 0
-3.674177 21.248742 12.445685 24.897865 -1.399577 1.047348 0.048590 -0.034319 843550.000000 0 1 0
-4.513977 20.850742 13.536985 25.266171 -1.357596 1.005371 0.056827 -0.029427 -286864.000000 0 0 1
-5.567977 21.747442 13.683985 26.290779 -1.320151 1.023376 0.058056 -0.017331 -647783.000000 0 0 1
-6.480277 21.348442 14.830585 26.789853 -1.276088 0.984128 0.042868 -0.022068 -867213.000000 0 0 1
-7.159377 20.097742 14.734385 25.928325 -1.228584 0.966390 0.037518 -0.017240 65961.100000 0 0 1
-7.589477 19.535942 15.936485 26.329162 -1.200253 0.920680 0.031240 -0.000020 36161.400000 0 0 1
-8.906177 20.083542 16.527185 27.492117 -1.153397 0.925843 0.025295 0.005476 225985.000000 0 0 1
-10.073677 19.658942 15.821585 27.171226 -1.097260 0.949251 0.012244 -0.004290 152876.000000 0 0 1
-11.231577 19.838242 16.611885 28.207427 -1.055633 0.941076 -0.003069 0.005431 -103456.000000 0 0 1
-12.537977 19.376442 15.962785 28.061680 -0.996481 0.965694 0.009075 -0.006398 -126806.000000 0 0 1
-13.080177 20.415342 15.139785 28.584792 -1.000984 1.012615 0.002472 0.006875 333213.000000 0 0 1
-14.183977 20.041542 14.334185 28.430925 -0.954902 1.042369 0.002655 -0.005755 -42085.500000 0 0 1
-15.197277 21.127842 13.911485 29.510547 -0.947234 1.079911 0.013293 -0.015953 409413.000000 0 0 1
-16.209177 21.272042 14.929085 30.628660 -0.919663 1.061661 0.006416 -0.020901 415540.000000 0 0 1
-17.109377 22.321842 14.545785 31.663469 -0.916827 1.093491 0.030367 -0.026442 683268.000000 0 0 1
-18.464977 22.252242 15.324585 32.725534 -0.878145 1.083458 0.094555 -0.028465 -355125.000000 0 0 1
-19.266577 21.187942 14.855285 32.261578 -0.832857 1.092279 0.088487 -0.027633 -100893.000000 0 0 1
-20.453477 21.039142 15.590485 33.227300 -0.799512 1.082404 0.108574 -0.029695 56620.600000 0 0 1
-21.609777 22.043542 15.635385 34.602969 -0.795334 1.101957 0.105305 -0.027120 -1051600.000000 0 0 1
-22.348777 22.047842 14.463085 34.565243 -0.778620 1.139082 0.125276 -0.028663 621131.000000 0 0 1
-23.455677 22.961042 14.398685 35.842717 -0.774742 1.157404 0.133897 -0.037790 664636.000000 0 0 1
-23.023077 24.309542 13.821785 36.222337 -0.812571 1.179289 0.119898 -0.029733 158723.000000 0 0 1
-21.997877 24.984642 14.548285 36.328935 -0.848885 1.158778 0.070000 -0.030827 340004.000000 0 0 1
-21.579077 26.125042 13.798085 36.586358 -0.880406 1.184093 0.061831 -0.025360 345833.000000 0 0 1
-20.090577 26.472442 14.129485 36.111824 -0.921608 1.168785 0.041015 -0.019755 912768.000000 0 0 1
-19.138277 25.602942 13.488485 34.694719 -0.928895 1.171493 0.031419 -0.009673 436286.000000 0 0 1
-17.822677 26.077642 13.691985 34.426178 -0.971267 1.161766 -0.004588 -0.007701 57961.900000 0 0 1
-16.728677 25.544242 12.753585 33.090949 -0.990991 1.175144 -0.000335 -0.007769 353255.000000 0 0 1
-15.487877 26.223242 12.927485 33.085535 -1.037305 1.169373 0.008363 -0.011877 670133.000000 0 0 1
-14.509277 25.711342 12.016685 31.874645 -1.057030 1.184243 0.011994 -0.002187 1109890.000000 0 0 1
-13.074077 26.357542 12.077885 31.804510 -1.110331 1.181266 0.022994 -0.004311 907689.000000 0 0 1
-12.107677 25.704842 11.231885 30.553069 -1.130595 1.194349 0.032031 -0.006128 1502870.000000 0 0 1
-10.721077 26.003642 11.475785 30.378027 -1.179739 1.183414 0.058344 -0.016597 1038930.000000 0 0 1
-10.262477 27.412042 11.031685 31.279971 -1.212571 1.210367 0.072338 -0.027281 -667444.000000 0 0 1
-9.059577 27.821242 11.641685 31.490098 -1.255990 1.192117 0.103468 -0.036993 187718.000000 0 0 1
-8.576877 29.046442 11.084585 32.250995 -1.283674 1.219945 0.116328 -0.038923 -942704.000000 0 0 1
-7.333877 29.573342 11.733185 32.650206 -1.327711 1.203214 0.105766 -0.038727 -1207300.000000 0 0 1
-6.143977 29.025342 11.262285 31.734177 -1.362199 1.207995 0.116273 -0.036047 -271480.000000 0 0 1
-5.079777 29.452342 12.140985 32.259078 -1.400002 1.184933 0.122588 -0.044450 801416.000000 0 0 1
-3.671277 29.073342 11.581485 31.509813 -1.445185 1.194421 0.106358 -0.048066 -9671.160000 0 0 1
-3.200977 29.890142 10.560185 31.861958 -1.464112 1.232972 0.132671 -0.047727 -349967.000000 0 0 1
-1.943077 29.411042 10.169985 31.180339 -1.504826 1.238551 0.105390 -0.043452 -20541.600000 0 0 1
-1.324477 30.050842 8.911685 31.372368 -1.526750 1.282769 0.101428 -0.044654 296625.000000 0 0 1
-1.721877 29.326542 7.734085 30.378068 -1.512150 1.313368 0.134518 -0.044899 149059.000000 0 0 1
-1.282877 30.022542 6.611385 30.768640 -1.528092 1.354233 0.138096 -0.041898 -239646.000000 0 0 1
12.217623 -33.588605 -26.525553 44.509208 -1.221931 2.209253 0.156205 -0.062038 -232806.000000 0 0 1
12.831523 -33.468805 -25.274983 43.859248 -1.204693 2.184960 0.154479 -0.058013 -183084.000000 0 0 1
14.040323 -32.765905 -25.335163 43.733347 -1.165961 2.188678 0.151579 -0.048749 -487552.000000 0 0 1
14.665223 -32.615805 -23.958153 43.044774 -1.148246 2.161068 0.137377 -0.037946 -673678.000000 0 0 1
13.975823 -31.741405 -23.080653 41.660016 -1.156036 2.157987 0.163321 -0.045599 264409.000000 0 0 1
14.442323 -31.748305 -21.712453 41.084865 -1.143875 2.127603 0.131247 -0.035853 1258080.000000 0 0 1
15.986323 -31.475905 -21.450853 41.309008 -1.100856 2.116802 0.091282 -0.019772 1323580.000000 0 0 1
16.803923 -32.635205 -21.617653 42.599898 -1.095299 2.103028 0.099779 -0.018731 481315.000000 0 0 1
18.176223 -32.309105 -21.349353 42.779062 -1.058352 2.093311 0.083457 -0.024580 640062.000000 0 0 1
19.112323 -33.507805 -21.660353 44.240533 -1.052438 2.082432 0.046401 -0.005421 857615.000000 0 0 1
20.489923 -33.140705 -21.437453 44.471425 -1.017051 2.073789 0.035883 0.005637 1364330.000000 0 0 1
21.382923 33.409642 -21.517153 45.126726 1.001467 2.067825 0.026479 0.006735 853107.000000 0 0 1
22.886223 33.731042 -21.229853 45.959428 0.974652 2.050962 0.030526 0.011308 253503.000000 0 0 1
23.572523 -33.314805 -22.286553 46.499790 -0.955009 2.070634 0.023302 0.015850 -563776.000000 0 0 1
24.927623 -33.383905 -21.953553 47.093842 -0.929413 2.055749 0.016222 0.020301 -209272.000000 0 0 1
25.905423 -32.690705 -22.961053 47.612845 -0.900682 2.074012 0.032531 0.015743 128746.000000 0 0 1
25.836323 -31.286605 -23.261353 46.770266 -0.880523 2.091342 0.032312 0.007745 -534160.000000 0 0 1
24.677223 -30.837505 -23.906853 46.167679 -0.895913 2.115105 0.019693 0.011028 -101248.000000 0 0 1
24.408023 -29.340405 -23.727353 44.939940 -0.876910 2.127016 0.037826 -0.006241 -1149840.000000 0 0 1
25.432823 -28.665405 -24.316453 45.385281 -0.845081 2.136226 0.047459 -0.011578 -897652.000000 0 0 1
25.432223 -27.357205 -23.853753 44.319478 -0.821847 2.139123 0.069947 -0.009860 361433.000000 0 0 1
26.038523 -26.437805 -24.995353 44.740696 -0.793007 2.163580 0.070543 -0.016925 625379.000000 0 0 1
25.218723 -26.308205 -26.157993 44.859182 -0.806539 2.193352 0.065337 -0.018863 210523.000000 0 0 1
25.907923 -25.431705 -27.034463 45.264271 -0.776123 2.210875 0.065481 -0.022982 66085.400000 0 0 1
24.937723 -25.066105 -28.190913 45.220871 -0.787966 2.243886 0.067422 -0.019821 556008.000000 0 0 1
24.075223 -23.962205 -27.911813 43.964450 -0.783045 2.258640 0.089220 -0.017664 -300372.000000 0 0 1
22.787423 -24.427905 -27.555473 43.304656 -0.820129 2.260510 0.082452 -0.018455 -89273.900000 0 0 1
21.792223 -23.202605 -27.473723 42.048392 -0.816733 2.282842 0.091789 -0.018631 61110.400000 0 0 1
21.547023 -22.675605 -28.748533 42.484531 -0.810913 2.314044 0.122871 -0.026957 49596.900000 0 0 1
21.204723 -21.292905 -28.686273 41.544317 -0.787473 2.332974 0.111148 -0.006966 -641451.000000 0 0 1
20.144723 -20.975605 -29.740053 41.596353 -0.805602 2.367374 0.119454 -0.023911 -109741.000000 0 0 1
18.922423 -21.560905 -29.308033 41.010870 -0.850481 2.366906 0.099095 -0.027239 50261.100000 0 0 1
17.815323 -20.914905 -29.884583 40.594424 -0.865258 2.398197 0.076885 -0.026195 277376.000000 0 0 1
16.463723 -21.675505 -29.707603 40.291728 -0.921208 2.399880 0.062348 -0.029543 248201.000000 0 0 1
16.272923 -22.697405 -30.670933 41.481156 -0.948784 2.402967 0.066379 -0.026369 78190.300000 0 0 1
15.378823 -23.669405 -30.172603 41.317489 -0.994608 2.389502 0.076460 -0.026850 -331463.000000 0 0 1
15.264423 -24.989705 -30.940983 42.600849 -1.022453 2.383720 0.111846 -0.033947 -62823.700000 0 0 1
14.541023 -26.045105 -30.329113 42.539909 -1.061602 2.364502 0.104202 -0.029970 -95836.300000 0 0 1
14.889423 -27.259105 -30.876593 43.796320 -1.070861 2.353225 0.158587 -0.034465 65049.700000 0 0 1
14.543923 -28.501205 -30.007173 43.866556 -1.098949 2.324105 0.124980 -0.039048 141690.000000 0 0 1
15.214023 -28.595605 -28.738313 43.302029 -1.081846 2.296512 0.145078 -0.051677 43956.200000 0 0 1
14.883623 -27.610405 -27.763243 41.888594 -1.076392 2.295332 0.118050 -0.044075 112816.000000 0 0 1
15.729423 -27.744305 -26.450393 41.434098 -1.055039 2.263178 0.097094 -0.023796 -3736.720000 0 0 1
15.443423 -28.792905 -25.619063 41.519478 -1.078484 2.235768 0.110411 -0.030206 -43273.100000 0 0 1
16.284823 -28.891805 -24.479353 41.220996 -1.057535 2.206640 0.108293 -0.032611 -870922.000000 0 0 1
15.832723 -28.010105 -23.290053 39.719864 -1.056320 2.197352 0.094333 -0.024366 415662.000000 0 0 1
14.710023 -28.373205 -22.505253 39.088488 -1.092500 2.184319 0.106630 -0.032004 -265579.000000 0 0 1
13.506323 -28.359705 -23.221853 39.063385 -1.126328 2.207398 0.121995 -0.031841 -724469.000000 0 0 1
12.266623 -28.152105 -22.285153 37.942576 -1.159875 2.198563 0.096967 -0.026384 369620.000000 0 0 1
12.117323 -26.789905 -21.906153 36.666170 -1.146024 2.211112 0.079013 -0.019977 137206.000000 0 0 1
10.824223 -26.494405 -21.409653 35.741999 -1.182943 2.213055 0.077917 -0.020844 162477.000000 0 0 1
10.560323 -24.982705 -21.245353 34.453171 -1.170871 2.235269 0.071192 -0.015285 -60108.400000 0 0 1
11.083123 -24.470205 -20.051953 33.521744 -1.145514 2.212021 0.068136 -0.010898 -16201.000000 0 0 1
10.755123 -23.125005 -19.850153 32.318216 -1.135468 2.232180 0.069200 -0.009572 -105138.000000 0 0 1
11.462323 -22.515305 -18.643953 31.399375 -1.099903 2.206530 0.068564 -0.011161 -272705.000000 0 0 1
10.904623 -23.026605 -17.508253 30.913981 -1.128518 2.172871 0.085686 -0.016737 -183882.000000 0 0 1
10.812423 -22.107605 -16.388853 29.567705 -1.115922 2.158297 0.088467 -0.017737 99106.400000 0 0 1
9.977123 -22.634605 -15.180753 29.022811 -1.155627 2.121237 0.085918 -0.015397 111639.000000 0 0 1
10.525623 -23.846805 -14.735753 29.943300 -1.155130 2.085322 0.093356 -0.012577 -146926.000000 0 0 1
10.022423 -24.358105 -13.531353 29.611885 -1.180449 2.045367 0.104049 -0.013703 -298246.000000 0 0 1
10.134023 -25.835405 -13.469453 30.847896 -1.196986 2.022658 0.106490 -0.017374 85269.500000 0 0 1
11.409023 -26.224705 -13.012953 31.420342 -1.160445 1.997813 0.084425 -0.015913 -300294.000000 0 0 1
11.569123 -27.607105 -12.974053 32.623962 -1.173965 1.979788 0.092341 -0.013165 -382973.000000 0 0 1
12.912123 -27.970005 -12.286453 33.166263 -1.138303 1.950290 0.082607 -0.015832 860817.000000 0 0 1
14.128323 -27.582405 -12.941253 33.583844 -1.097419 1.966374 0.084824 -0.016222 636043.000000 0 0 1
14.415023 -28.134805 -14.211253 34.660061 -1.097313 1.993270 0.091281 -0.022230 -496909.000000 0 0 1
15.672623 -27.550105 -14.910153 35.027875 -1.053576 2.010493 0.079997 -0.017379 177741.000000 0 0 1
16.889923 -28.170705 -14.592053 35.941426 -1.030703 1.988864 0.102370 -0.019126 -136022.000000 0 0 1
17.947823 -27.470605 -15.233653 36.177654 -0.992072 2.005431 0.123443 -0.018202 -117866.000000 0 0 1
19.363423 -27.968705 -15.001153 37.178289 -0.965240 1.986127 0.128015 -0.021416 -277036.000000 0 0 1
19.613323 -28.996705 -15.930553 38.461329 -0.976087 1.997856 0.103166 -0.009851 -983468.000000 0 0 1
20.929223 -29.428905 -15.893953 39.455171 -0.952607 1.985409 0.101843 -0.012843 -629967.000000 0 0 1
21.156323 -30.654805 -16.768353 40.847089 -0.966714 1.993815 0.080790 -0.017326 -342147.000000 0 0 1
20.652823 -31.869005 -16.341153 41.342543 -0.995791 1.977150 0.080788 -0.005816 -245948.000000 0 0 1
20.729323 -32.733805 -17.470653 42.502123 -1.006272 1.994406 0.070041 -0.005215 147146.000000 0 0 1
20.517523 33.467542 -17.001953 42.779803 1.020831 1.979510 0.050374 -0.001280 -83857.400000 0 0 1
21.609323 33.049242 -16.208953 42.684252 0.991718 1.960312 0.063313 -0.008215 145023.000000 0 0 1
21.505223 31.750442 -15.793253 41.472786 0.975454 1.961468 0.063730 -0.011926 -4171.590000 0 0 1
22.487423 31.351042 -14.618453 41.258589 0.948568 1.932976 0.045558 -0.022528 -14648.800000 0 0 1
23.743223 30.886242 -15.055453 41.765623 0.915415 1.939573 0.044957 -0.014170 -427644.000000 0 0 1
24.647823 30.557642 -14.057953 41.700248 0.892043 1.914652 0.045877 -0.018877 -417857.000000 0 0 1
24.285623 29.433842 -13.090353 40.342284 0.880942 1.901261 0.048706 -0.012331 -1109740.000000 0 0 1
24.445323 28.150042 -13.610353 39.689298 0.855720 1.920823 0.051716 0.002605 -62086.800000 0 0 1
23.960723 27.130842 -12.810153 38.396599 0.847367 1.910945 0.035155 -0.002679 129693.000000 0 0 1
22.432023 26.928742 -12.651553 37.261436 0.876246 1.917219 0.040719 -0.007413 -557523.000000 0 0 1
21.802823 26.358042 -13.789353 36.881645 0.879701 1.953986 0.055360 -0.010137 790414.000000 0 0 1
20.368423 26.397442 -13.727853 36.057614 0.913610 1.961371 0.068453 -0.014615 851702.000000 0 0 1
19.644923 27.764342 -13.853053 36.724498 0.955015 1.957584 0.086590 -0.019335 -537250.000000 0 0 1
19.610023 28.477842 -15.053253 37.711283 0.967758 1.981409 0.081392 -0.015985 -99117.600000 0 0 1
18.922123 27.829742 -16.086253 37.300252 0.973671 2.016690 0.069042 -0.011418 -433034.000000 0 0 1
18.983023 28.676042 -17.440653 38.559654 0.986044 2.040142 0.062724 -0.007788 220317.000000 0 0 1
18.261623 29.908342 -17.338553 39.097586 1.022629 2.030261 0.064125 -0.010087 225256.000000 0 0 1
18.551223 30.619042 -18.494253 40.295297 1.026070 2.047630 0.055572 -0.006442 -679423.000000 0 0 1
17.574223 31.708642 -18.817953 40.846134 1.064703 2.049584 0.062243 -0.003364 -537823.000000 0 0 1
17.544023 32.837242 -17.993553 41.350274 1.080108 2.021001 0.074020 -0.022518 -32490.500000 0 0 1
16.549023 33.718642 -18.470353 41.856551 1.114538 2.027818 0.084601 -0.024268 30040.300000 0 0 1
16.236523 -32.730605 -17.543453 40.530111 -1.110301 2.018448 0.098342 -0.021937 1194860.000000 0 0 1
15.125123 -31.920305 -18.060553 39.671889 -1.128295 2.043447 0.095457 -0.022894 882965.000000 0 0 1
14.662623 -31.122305 -17.027453 38.386515 -1.130511 2.030384 0.099273 -0.025978 279042.000000 0 0 1
13.425623 -30.203905 -17.259753 37.288366 -1.152526 2.052029 0.087729 -0.024838 559163.000000 0 0 1
12.232423 -30.913505 -17.490053 37.565661 -1.194004 2.055093 0.109177 -0.025989 -333330.000000 0 0 1
11.107623 -30.093705 -17.649453 36.613024 -1.217207 2.073794 0.090121 -0.018351 743393.000000 0 0 1
9.745423 -30.738705 -18.063953 36.961434 -1.263780 2.081423 0.089667 -0.025969 -329875.000000 0 0 1
9.140723 -31.532305 -17.058253 36.997609 -1.288646 2.049990 0.095279 -0.025864 121727.000000 0 0 1
7.983023 -32.243705 -17.411653 37.504010 -1.328093 2.053596 0.102745 -0.022730 603369.000000 0 0 1
6.753323 -31.535705 -18.094353 36.979909 -1.359834 2.082086 0.094914 -0.016354 -531532.000000 0 0 1
6.821023 -31.100705 -19.490953 37.331989 -1.354894 2.120105 0.082003 -0.016945 -273046.000000 0 0 1
6.647823 -32.159905 -20.357953 38.638055 -1.366956 2.125732 0.096542 -0.033782 -903196.000000 0 0 1
7.162823 -31.715605 -21.726253 39.105187 -1.348677 2.159863 0.094910 -0.024237 403363.000000 0 0 1
8.549123 -31.311405 -21.806553 39.102651 -1.304257 2.162378 0.098758 -0.031091 1191700.000000 0 0 1
9.542323 -32.335005 -21.796853 40.146124 -1.283834 2.144728 0.109110 -0.038713 71303.600000 0 0 1
9.442123 -33.323505 -22.969953 41.559937 -1.294686 2.156390 0.134744 -0.057754 -605957.000000 0 0 1
8.376923 33.432042 -22.787853 41.317799 1.325285 2.154989 0.150932 -0.065142 -280230.000000 0 0 1
8.205923 32.576942 -23.942153 41.253133 1.324036 2.189981 0.162839 -0.076546 -412276.000000 0 0 1
6.994623 31.663542 -23.642653 40.130782 1.353383 2.200791 0.161610 -0.080737 67604.700000 0 0 1
5.735523 32.267542 -23.790753 40.498030 1.394885 2.198706 0.147432 -0.080450 -234796.000000 0 0 1
5.326623 33.039242 -22.648653 40.409478 1.410951 2.165760 0.108885 -0.071291 -1406450.000000 0 0 1
4.018723 33.724442 -22.985753 41.010157 1.452192 2.165773 0.089755 -0.059535 -192021.000000 0 0 1
2.823223 32.957342 -22.841453 40.198121 1.485342 2.175140 0.075722 -0.060594 433194.000000 0 0 1
1.716223 33.750242 -23.209553 40.996434 1.519989 2.172607 0.069064 -0.049863 -545886.000000 0 0 1
0.349523 33.233442 -22.806453 40.307792 1.560280 2.172209 0.053723 -0.050471 -533771.000000 0 0 1
0.016823 33.373342 -21.438553 39.666003 1.570292 2.141800 0.036779 -0.045819 -124413.000000 0 0 1
-1.294777 33.017542 -21.062553 39.185018 -1.531602 2.138284 0.039949 -0.044595 -18868.500000 0 0 1
-1.588677 33.185042 -19.557953 38.552359 -1.522960 2.102855 0.052300 -0.036825 63969.700000 0 0 1
-0.815177 32.325942 -18.765153 37.386655 -1.545584 2.096615 0.056128 -0.040877 -80310.900000 0 0 1
-1.396577 32.230842 -17.461653 36.683606 -1.527493 2.066905 0.033597 -0.029839 250260.000000 0 0 1
-0.606877 31.333742 -16.459353 35.398898 -1.551431 2.054395 0.031411 -0.026586 515568.000000 0 0 1
0.638523 31.898442 -16.073553 35.725025 1.550782 2.037477 0.024951 -0.021254 83814.000000 0 0 1
1.191823 31.048742 -15.091353 34.542637 1.532430 2.022935 0.041390 -0.015047 35346.100000 0 0 1
2.313823 31.537642 -14.156153 34.646404 1.497561 1.991704 0.064831 -0.029816 -584072.000000 0 0 1
3.443923 31.916242 -14.876553 35.381053 1.463307 2.004756 0.064491 -0.035145 -783337.000000 0 0 1
4.247823 32.679042 -14.030053 35.816283 1.441535 1.973300 0.077712 -0.040980 -1197750.000000 0 0 1
5.630423 32.927642 -14.573553 36.446121 1.401440 1.982167 0.089137 -0.049895 -410377.000000 0 0 1
6.525523 31.794442 -14.571653 35.578112 1.368366 1.992777 0.088839 -0.036880 -153568.000000 0 0 1
7.639123 32.111142 -15.364253 36.407992 1.337241 2.006449 0.087809 -0.028373 227044.000000 0 0 1
8.679523 30.951542 -15.417453 35.651506 1.297395 2.018003 0.082883 -0.036776 615367.000000 0 0 1
9.577023 30.744442 -14.315753 35.240330 1.268819 1.989123 0.075915 -0.039408 442588.000000 0 0 1
10.552623 29.730042 -14.569653 34.749216 1.229720 2.003448 0.086731 -0.044253 309730.000000 0 0 1
10.221223 28.257042 -14.109053 33.196373 1.223716 2.009778 0.084700 -0.036414 215798.000000 0 0 1
9.292823 27.717342 -15.069753 32.889285 1.247303 2.046761 0.093997 -0.037286 426183.000000 0 0 1
8.802823 26.438542 -14.691753 31.501330 1.249387 2.055996 0.075382 -0.027003 -196650.000000 0 0 1
8.120023 25.574142 -15.754453 31.115499 1.263355 2.101710 0.085796 -0.024668 -53208.600000 0 0 1
8.927923 24.938842 -16.731253 31.330312 1.227019 2.134154 0.085894 -0.018731 -455114.000000 0 0 1
8.172523 24.006142 -17.486553 30.803644 1.242668 2.174479 0.072930 -0.015633 479111.000000 0 0 1
9.058723 23.160042 -18.432553 30.954919 1.197955 2.208640 0.074754 -0.014001 596542.000000 0 0 1
8.200123 22.241342 -19.101153 30.442952 1.217571 2.249059 0.094296 -0.024590 649871.000000 0 0 1
9.011823 21.533842 -20.070053 30.785164 1.174448 2.280935 0.076248 -0.018869 440536.000000 0 0 1
8.235123 20.475742 -20.882553 30.383454 1.188404 2.328562 0.067701 -0.028818 -46408.000000 0 0 1
7.943923 19.306842 -20.108653 28.986514 1.180453 2.337444 0.080962 -0.034645 -48686.600000 0 0 1
7.516823 18.255242 -20.966553 28.798486 1.180191 2.386260 0.070559 -0.039332 -145670.000000 0 0 1
25.268123 -12.216758 -9.546253 29.645542 -0.450349 1.898651 0.103352 -0.017569 650522.000000 0 0 1
26.098023 -11.627558 -8.509453 29.811368 -0.419134 1.860265 0.120323 -0.027615 767993.000000 0 0 1
25.310623 -11.725458 -7.376453 28.853527 -0.433828 1.829318 0.111983 -0.018446 -864376.000000 0 0 1
25.899823 -11.293758 -6.016353 28.888515 -0.411197 1.780593 0.092560 -0.022988 -570658.000000 0 0 1
26.178923 -9.914858 -5.728253 28.573647 -0.362041 1.772637 0.120320 -0.033306 729468.000000 0 0 1
27.086323 -9.292558 -6.631353 29.393798 -0.330490 1.798359 0.101604 -0.043402 -1120400.000000 0 0 1
27.494123 -7.827058 -6.303253 29.273206 -0.277344 1.787821 0.152857 -0.043081 90715.300000 0 0 1
28.178323 -7.619458 -5.060053 29.625633 -0.264086 1.742438 0.147732 -0.054960 -100374.000000 0 0 1
29.434723 -8.203358 -4.987753 30.960873 -0.271800 1.732600 0.144333 -0.055095 -1432470.000000 0 0 1
29.987023 -8.131458 -3.584253 31.276013 -0.264798 1.685649 0.155354 -0.061177 -526310.000000 0 0 1
30.277523 -6.854158 -3.138053 31.201847 -0.222625 1.671539 0.163723 -0.052715 388826.000000 0 0 1
30.958423 -6.849158 -1.888253 31.763193 -0.217730 1.630279 0.170045 -0.042714 240779.000000 0 0 1
31.458223 -5.433058 -1.393653 31.954345 -0.171020 1.614424 0.160822 -0.051301 203276.000000 0 0 1
30.389923 -4.554458 -1.045153 30.747079 -0.148760 1.604795 0.193384 -0.048799 294406.000000 0 0 1
30.833523 -3.316658 -0.555353 31.016363 -0.107155 1.588702 0.176325 -0.037616 -476033.000000 0 0 1
31.476423 -3.264458 0.830047 31.656135 -0.103342 1.544573 0.170460 -0.037381 -493427.000000 0 0 1
30.618723 -3.498858 1.889647 30.875864 -0.113778 1.509557 0.214256 -0.058314 88339.500000 0 0 1
31.248623 -3.124058 3.138847 31.560870 -0.099643 1.471178 0.177533 -0.045390 82365.300000 0 0 1
30.684423 -3.880258 4.373347 31.236459 -0.125789 1.430327 0.198141 -0.049219 -174252.000000 0 0 1
31.023223 -5.235658 4.292847 31.753441 -0.167190 1.435188 0.179106 -0.048689 151860.000000 0 0 1
31.062123 -5.727258 5.641147 32.085503 -0.182333 1.394062 0.173786 -0.043308 -31693.800000 0 0 1
31.853023 -7.066858 5.713347 33.123977 -0.218322 1.397446 0.143596 -0.037563 251152.000000 0 0 1
33.244923 -6.901458 5.507947 34.397565 -0.204687 1.409978 0.152127 -0.048889 -64212.900000 0 0 1
33.881423 -8.142058 5.434747 35.267271 -0.235838 1.416078 0.148709 -0.038510 -276807.000000 0 0 1
35.412923 -8.139158 5.557647 36.758787 -0.225912 1.419022 0.178511 -0.046293 -183294.000000 0 0 1
36.054823 -7.889858 4.338847 37.162154 -0.215434 1.453775 0.194337 -0.049749 -283270.000000 0 0 1
37.436023 -7.725458 4.557847 38.495616 -0.203508 1.452119 0.196548 -0.043002 505394.000000 0 0 1
-36.747118 -7.688858 3.304247 37.688026 0.206261 1.483010 0.198783 -0.037237 490336.000000 0 0 1
-36.667018 -8.948658 2.728047 37.841656 0.239373 1.498643 0.232010 -0.049872 375743.000000 0 0 1
-35.668218 -8.876458 1.714047 36.796077 0.243907 1.524197 0.234473 -0.054611 99793.600000 0 0 1
-35.293618 -10.187258 0.969847 36.747249 0.281005 1.544401 0.235281 -0.045772 -196359.000000 0 0 1
-34.444318 -10.988258 1.794247 36.199063 0.308809 1.521210 0.224423 -0.045951 224673.000000 0 0 1
-34.077318 -12.214058 1.176947 36.219222 0.344158 1.538296 0.238990 -0.049428 -357263.000000 0 0 1
-33.297318 -13.145658 2.132047 35.861753 0.376012 1.511309 0.159756 -0.052735 1215560.000000 0 0 1
-31.935618 -12.884458 2.541947 34.530486 0.383478 1.497115 0.164806 -0.042464 1345470.000000 0 0 1
-30.994018 -13.135058 1.504447 33.696028 0.400848 1.526134 0.174125 -0.028175 -538380.000000 0 0 1
-29.593518 -13.479958 2.051147 32.583628 0.427421 1.507804 0.163318 -0.024836 -153501.000000 0 0 1
-28.860518 -12.297958 2.319347 31.457092 0.402816 1.496999 0.145794 -0.036273 382420.000000 0 0 1
-27.566818 -12.622858 2.811247 30.449452 0.429404 1.478340 0.149568 -0.015719 -36157.300000 0 0 1
-26.746118 -11.465258 3.358047 29.293062 0.404975 1.455907 0.136249 -0.015283 -916990.000000 0 0 1
-25.609218 -11.977058 3.962147 28.547865 0.437463 1.431557 0.120161 -0.001163 -632150.000000 0 0 1
-25.145318 -11.053958 4.910747 27.903270 0.414174 1.393883 0.118550 -0.002103 -1229830.000000 0 0 1
-23.845918 -11.416658 5.555247 27.015341 0.446518 1.363686 0.107358 0.010975 -1144060.000000 0 0 1
-23.830918 -12.736358 6.127247 27.706870 0.490824 1.347808 0.093601 0.002252 291814.000000 0 0 1
-22.558518 -13.191058 6.583247 26.948653 0.529130 1.324010 0.089993 0.009317 589028.000000 0 0 1
-22.010818 -12.753558 7.995447 26.665643 0.525151 1.266271 0.092881 -0.006172 -528820.000000 0 0 1
-21.665118 -11.438558 8.266947 25.856534 0.485773 1.245358 0.082489 -0.002157 -42683.500000 0 0 1
-22.679618 -10.629958 8.780447 26.541615 0.438296 1.233626 0.090453 0.001541 -1045120.000000 0 0 1
-23.088318 -10.881758 10.252147 27.506174 0.440433 1.188856 0.077270 0.008732 -671791.000000 0 0 1
-23.654518 -12.163458 10.505047 28.597936 0.474953 1.194653 0.073645 -0.010190 445379.000000 0 0 1
-24.991318 -12.372358 10.098247 29.658318 0.459693 1.223362 0.070695 -0.016783 31502.800000 0 0 1
-26.136618 -11.680758 10.906147 30.635061 0.420283 1.206810 0.083297 -0.007351 -708335.000000 0 0 1
-26.238918 -12.132158 12.250647 31.396631 0.433095 1.169959 0.079658 -0.017349 373390.000000 0 0 1
-27.320318 -11.509658 12.932947 32.343982 0.398720 1.159436 0.078235 -0.023145 36207.400000 0 0 1
-27.669318 -12.270858 14.212347 33.438839 0.417421 1.131807 0.079278 -0.026401 -253854.000000 0 0 1
-28.259018 -13.525058 13.857047 34.256635 0.446390 1.154357 0.075601 -0.025858 319651.000000 0 0 1
-28.720918 -14.201758 14.971947 35.365807 0.459217 1.133662 0.097817 -0.022635 -290412.000000 0 0 1
-28.499318 -15.695958 14.717947 35.709834 0.503418 1.145979 0.090509 -0.016941 72440.200000 0 0 1
-29.461818 -16.496058 15.372947 37.100488 0.510422 1.143557 0.073934 -0.010014 97382.000000 0 0 1
-29.077518 -17.861758 15.385847 37.433525 0.550854 1.147226 0.072642 -0.012202 -304232.000000 0 0 1
-30.062518 -18.791958 16.113647 38.942808 0.558668 1.144197 0.054433 0.000621 -260059.000000 0 0 1
-30.141518 -18.526758 17.516647 39.478916 0.551129 1.111077 0.052290 0.003472 -132815.000000 0 0 1
-30.453418 -19.626458 18.351747 40.612746 0.572481 1.101934 0.067690 0.005119 -249813.000000 0 0 1
-29.532318 -20.897158 18.392647 40.584954 0.615810 1.100457 0.043972 0.007683 765543.000000 0 0 1
-28.231918 -20.505758 18.888847 39.677650 0.628181 1.074630 0.052958 0.008728 760098.000000 0 0 1
-27.548518 -21.636758 19.375347 40.030916 0.665778 1.065565 0.052232 0.005208 -94737.200000 0 0 1
-26.093918 -21.353658 19.803047 39.102838 0.685823 1.039751 0.066825 0.003729 566758.000000 0 0 1
-25.109018 -21.259758 18.737547 37.862063 0.702574 1.053088 0.088614 -0.006539 418492.000000 0 0 1
-23.838818 -21.201358 19.336747 37.305450 0.726907 1.025893 0.095176 -0.005632 -376137.000000 0 0 1
-22.696718 -20.987858 18.337647 35.943018 0.746300 1.035395 0.102130 -0.016797 -160677.000000 0 0 1
-22.512518 -22.121458 17.510547 36.094205 0.776637 1.064279 0.096099 -0.018398 505880.000000 0 0 1
-21.237918 -21.935658 16.893947 34.894523 0.801558 1.065413 0.097104 -0.021736 474086.000000 0 0 1
-20.859718 -23.037958 15.829647 34.877688 0.834978 1.099702 0.101225 -0.019118 -805223.000000 0 0 1
-20.787018 -24.361458 16.291547 35.930423 0.864404 1.100198 0.100837 -0.026599 340882.000000 0 0 1
-19.709318 -24.707558 17.173147 35.969955 0.897457 1.073068 0.106831 -0.029130 192222.000000 0 0 1
-18.321918 -24.721958 16.496147 34.914048 0.933003 1.078695 0.095904 -0.030846 -730308.000000 0 0 1
-17.725718 -23.483058 16.268547 33.620243 0.924211 1.065700 0.095217 -0.035318 -97691.200000 0 0 1
-16.430318 -23.734858 15.732447 32.875656 0.965295 1.071801 0.097411 -0.031994 413166.000000 0 0 1
-15.565018 -22.411258 15.733447 31.497232 0.963759 1.047754 0.084191 -0.029195 -249307.000000 0 0 1
-15.813518 -21.330658 14.786647 30.392586 0.932853 1.062692 0.086709 -0.020094 -194918.000000 0 0 1
-16.980518 -20.588958 15.020947 30.624697 0.881152 1.058150 0.092084 -0.020336 -350193.000000 0 0 1
-16.700118 -19.355058 15.965547 30.139856 0.858901 1.012531 0.093517 -0.017144 297477.000000 0 0 1
-15.973518 -18.248558 15.325747 28.688703 0.851779 1.007225 0.082236 -0.012209 523870.000000 0 0 1
-15.915918 -17.110958 16.166047 28.415531 0.821566 0.965609 0.080477 -0.011995 -142949.000000 0 0 1
-15.250518 -15.910058 15.382847 26.876388 0.806561 0.961421 0.062656 -0.004395 424182.000000 0 0 1
-16.066618 -15.323158 14.372047 26.447895 0.761718 0.996303 0.064728 -0.016317 277823.000000 0 0 1
-16.339018 -16.092158 13.217547 26.469315 0.777786 1.047944 0.092381 -0.014102 -283312.000000 0 0 1
-17.257618 -15.261758 12.290447 26.111334 0.724101 1.080719 0.080326 -0.010459 -1112050.000000 0 0 1
-18.585118 -15.383758 12.637747 27.235625 0.691432 1.088274 0.078488 -0.014004 -1265590.000000 0 0 1
-19.333818 -14.407758 11.919847 26.897263 0.640429 1.111673 0.102613 -0.018544 -1106680.000000 0 0 1
-20.820918 -14.621458 12.192947 28.212863 0.612233 1.123891 0.088949 -0.025721 -592358.000000 0 0 1
-21.461618 -15.726158 11.586147 29.019854 0.632374 1.160099 0.095119 -0.029869 45030.400000 0 0 1
-21.405118 -15.737858 10.150147 28.440899 0.633986 1.205865 0.101690 -0.022966 -649080.000000 0 0 1
-22.152518 -16.944458 9.545247 29.478135 0.652969 1.241045 0.102123 -0.015894 826734.000000 0 0 1
-21.338618 -18.156258 9.647247 29.632005 0.704995 1.239183 0.103551 -0.009115 724557.000000 0 0 1
-22.003018 -19.221358 8.951747 30.556950 0.718024 1.273483 0.128122 -0.021677 252389.000000 0 0 1
-21.241718 -20.557358 8.899847 30.871068 0.769027 1.278355 0.122020 -0.016457 117172.000000 0 0 1
-20.064518 -20.610458 8.103947 29.883939 0.798819 1.296177 0.141795 -0.017464 -5187.420000 0 0 1
-19.669918 -21.997458 8.147747 30.613390 0.841200 1.301400 0.114791 -0.025150 599694.000000 0 0 1
-18.300418 -22.195258 7.411547 29.706326 0.881282 1.318639 0.097165 -0.031032 574351.000000 0 0 1
-17.162318 -21.716658 8.103947 28.841504 0.902008 1.285979 0.066570 -0.027480 -24891.500000 0 0 1
-16.017518 -21.975458 7.317947 28.160859 0.940948 1.307917 0.076273 -0.029116 1015170.000000 0 0 1
-14.655418 -21.625058 8.074147 27.342573 0.975190 1.271031 0.032737 -0.018291 1286010.000000 0 0 1
-13.504018 -22.281958 7.552647 27.127231 1.025939 1.288652 0.046279 -0.006842 232493.000000 0 0 1
-12.364318 -22.037258 8.356747 26.614889 1.059498 1.251406 0.041753 -0.004655 233613.000000 0 0 1
-11.074018 -22.668158 7.810447 26.409891 1.116369 1.270567 0.031497 -0.003217 -181262.000000 0 0 1
-10.990718 -24.113458 7.861547 27.641611 1.143136 1.282405 0.032729 -0.003064 -1008150.000000 0 0 1
-9.722218 -24.521058 7.457647 27.412047 1.193324 1.295266 0.073398 -0.006507 -313439.000000 0 0 1
-9.517218 -26.057118 7.345147 28.696725 1.220606 1.311958 0.073427 -0.009638 649876.000000 0 0 1
-10.408618 -26.588718 6.313947 29.243208 1.197667 1.353171 0.076502 -0.008888 395879.000000 0 0 1
-10.422618 -27.968938 6.296547 30.504737 1.214088 1.362890 0.103456 -0.010230 373185.000000 0 0 1
-9.365218 -28.728668 5.398447 30.695063 1.255671 1.394003 0.117477 -0.016376 1602110.000000 0 0 1
-8.004218 -28.320288 5.736847 29.983623 1.295349 1.378277 0.113764 -0.021591 1183890.000000 0 0 1
-6.997218 -29.215028 5.289447 30.503396 1.335717 1.396510 0.119950 -0.018912 348188.000000 0 0 1
-6.843218 -30.572548 6.061847 31.910129 1.350591 1.379669 0.139429 -0.034419 -442484.000000 0 0 1
-6.576218 -30.414348 7.432347 31.992483 1.357853 1.336339 0.138622 -0.026733 73119.100000 0 0 1
-6.493218 -31.673188 8.051147 33.319269 1.368591 1.326744 0.181929 -0.039678 -9166.580000 0 0 1
-7.049218 -31.609038 9.546647 33.763312 1.351374 1.284134 0.155536 -0.041920 76271.300000 0 0 1
-6.312218 -30.899448 10.554647 33.256887 1.369286 1.247844 0.130671 -0.035955 258669.000000 0 0 1
-6.793218 -31.137868 11.893347 34.017148 1.355996 1.213622 0.113056 -0.025862 6872.930000 0 0 1
-5.921218 -30.388198 12.938347 33.554496 1.378355 1.174947 0.094815 -0.031070 189541.000000 0 0 1
-6.036218 -28.981098 12.857347 32.274624 1.365451 1.161054 0.080323 -0.024489 -476002.000000 0 0 1
-5.174218 -28.350938 13.704747 31.911884 1.390277 1.126906 0.074807 -0.033148 -538189.000000 0 0 1
-5.890218 -27.603048 14.923947 31.927216 1.360559 1.084408 0.068842 -0.034201 -15253.800000 0 0 1
-6.669218 -28.375948 15.814347 33.162727 1.339955 1.073705 0.063420 -0.030997 19189.500000 0 0 1
-5.960218 -29.305558 16.602347 34.204939 1.370151 1.064000 0.054165 -0.032912 -60923.200000 0 0 1
-6.787218 -30.584798 16.960747 35.625316 1.352420 1.074597 0.053708 -0.033624 222954.000000 0 0 1
-7.238218 -31.298748 15.783047 35.792569 1.343529 1.114130 0.066630 -0.031342 208323.000000 0 0 1
-7.763218 -32.586828 15.996947 37.122382 1.336924 1.125279 0.075702 -0.038459 -732526.000000 0 0 1
-6.779218 -33.699208 15.739447 37.806410 1.372277 1.141406 0.074691 -0.036961 -442706.000000 0 0 1
-6.515218 33.780439 14.342047 37.272784 -1.380266 1.175820 0.081202 -0.039700 206498.000000 0 0 1
-5.557218 32.751454 14.141947 36.104503 -1.402719 1.168323 0.094661 -0.043891 42353.400000 0 0 1
-4.334218 33.186866 13.323147 36.023045 -1.440931 1.191948 0.112207 -0.044292 16435.100000 0 0 1
-4.673218 33.246065 11.962247 35.640359 -1.431147 1.228514 0.130843 -0.041237 -585560.000000 0 0 1
-3.583218 33.714269 11.278447 35.730866 -1.464912 1.249655 0.131420 -0.044251 -1243510.000000 0 0 1
-3.859218 -33.728928 9.740247 35.318643 1.456873 1.291393 0.137652 -0.045774 -603578.000000 0 0 1
-4.027218 32.859012 8.809147 34.256886 -1.448844 1.310725 0.146030 -0.055541 391690.000000 0 0 1
-5.063218 31.932003 9.063347 33.577273 -1.413543 1.297481 0.157097 -0.056823 1113110.000000 0 0 1
-6.562218 32.285801 9.385047 34.256602 -1.370274 1.293285 0.183958 -0.052518 1013130.000000 0 0 1
-7.390218 32.777831 8.330347 34.617860 -1.349040 1.327774 0.191232 -0.040783 -770495.000000 0 0 1
-8.693218 32.987787 8.766147 35.222315 -1.313126 1.319272 0.166707 -0.039120 -122051.000000 0 0 1
-9.742218 33.066688 7.610447 35.302062 -1.284280 1.353510 0.174052 -0.046409 253880.000000 0 0 1
-9.795218 -33.373638 6.859047 35.451270 1.285312 1.376090 0.179742 -0.038833 347067.000000 0 0 1
-10.790518 -33.633218 5.852047 35.803283 1.260341 1.406610 0.166456 -0.029333 681840.000000 0 0 1
-11.400618 -32.336318 5.190447 34.677836 1.231839 1.420556 0.146549 -0.034013 120391.000000 0 0 1
-12.217618 -31.669568 6.103747 34.488947 1.202605 1.392882 0.149536 -0.037811 -446752.000000 0 0 1
-13.009218 -30.727748 5.455247 33.811152 1.170307 1.408743 0.151066 -0.033770 -50947.100000 0 0 1
-13.979818 -29.883988 6.304347 33.589178 1.133236 1.381987 0.118094 -0.029483 -167876.000000 0 0 1
-14.974518 -30.611168 6.945747 34.778200 1.115838 1.369729 0.123868 -0.031717 427521.000000 0 0 1
-15.900618 -29.774108 7.703047 34.621729 1.080288 1.346427 0.110082 -0.028687 678827.000000 0 0 1
34.370774 -12.244658 -12.832253 38.677493 -0.342234 1.908982 0.123535 -0.037678 -209662.000000 0 0 1
33.564904 -12.424158 -11.670353 37.645180 -0.354515 1.885999 0.141793 -0.040185 358287.000000 0 0 1
33.472954 -13.779958 -11.398553 37.950664 -0.390530 1.875858 0.143118 -0.034135 150402.000000 0 0 1
34.471044 -14.330558 -10.299253 38.725862 -0.393991 1.839989 0.123158 -0.030333 139790.000000 0 0 1
35.737534 -14.571158 -10.827653 40.084012 -0.387150 1.844318 0.127038 -0.034166 -400868.000000 0 0 1
36.680104 -14.964958 -9.861353 40.824334 -0.387372 1.814765 0.098771 -0.032407 -509206.000000 0 0 1
-37.056977 -15.323858 -10.269853 41.394566 0.392108 1.821511 0.087453 -0.033670 -803193.000000 0 0 1
-36.308467 -14.180658 -10.500753 40.369068 0.372343 1.833942 0.097076 -0.028063 382284.000000 0 0 1
-34.924582 -14.493458 -10.721553 39.303160 0.393364 1.847089 0.090855 -0.031147 901365.000000 0 0 1
-34.033204 -13.282758 -11.118753 38.187921 0.372106 1.866234 0.091787 -0.033846 -49059.700000 0 0 1
-33.889667 -12.385858 -10.056553 37.457353 0.350395 1.842611 0.102208 -0.031786 417077.000000 0 0 1
-33.458047 -11.084058 -10.480653 36.771475 0.319903 1.859825 0.117264 -0.031554 -34707.600000 0 0 1
-34.021817 -10.012858 -9.486953 36.711628 0.286226 1.832181 0.130221 -0.037762 235023.000000 0 0 1
-33.426527 -10.003458 -8.188853 35.839353 0.290784 1.801320 0.133200 -0.031344 639599.000000 0 0 1
-34.053494 -8.920258 -7.430753 35.978154 0.256192 1.778829 0.172458 -0.049445 307944.000000 0 0 1
-33.455637 -8.714258 -6.010153 35.090453 0.254810 1.742921 0.151039 -0.041521 66295.900000 0 0 1
-32.157567 -8.115258 -6.067953 33.716266 0.247198 1.751753 0.154353 -0.056560 630045.000000 0 0 1
-31.531967 -7.913458 -4.808553 32.863505 0.245888 1.717642 0.154953 -0.047348 -252770.000000 0 0 1
-30.745137 -9.145258 -4.266653 32.358979 0.289119 1.703035 0.141634 -0.040039 -540370.000000 0 0 1
-31.529447 -10.298258 -3.907653 33.398052 0.315700 1.688067 0.144015 -0.041998 358850.000000 0 0 1
-32.101177 -10.249158 -2.626453 33.799838 0.309047 1.648581 0.139122 -0.048111 -153923.000000 0 0 1
-32.810967 -11.550658 -2.256753 34.857857 0.338488 1.635583 0.152949 -0.042844 -234342.000000 0 0 1
-34.061392 -11.815458 -2.835053 36.163808 0.333899 1.649272 0.169450 -0.055990 -190423.000000 0 0 1
-34.602308 -13.020158 -2.415453 37.049678 0.359892 1.636038 0.179361 -0.058325 442868.000000 0 0 1
-36.169607 -12.932758 -2.446553 38.490029 0.343393 1.634402 0.158192 -0.051054 567817.000000 0 0 1
-36.716627 -12.246558 -1.362553 38.729129 0.321939 1.605985 0.198512 -0.057659 54582.300000 0 0 1
37.029124 -12.189958 -1.328153 39.006603 -0.318025 1.604852 0.254986 -0.053860 24576.000000 0 0 1
36.629824 -11.382258 -0.076653 38.357602 -0.301278 1.572795 0.230515 -0.059323 -249175.000000 0 0 1
37.057434 -11.942958 1.160547 38.951695 -0.311772 1.540997 0.247035 -0.054747 -122676.000000 0 0 1
36.282814 -11.449458 2.190247 38.109446 -0.305672 1.513292 0.243015 -0.042748 -112632.000000 0 0 1
36.725234 -11.995258 3.546847 38.797025 -0.315698 1.479248 0.237233 -0.049932 343760.000000 0 0 1
35.680274 -11.852958 4.503747 37.866321 -0.320729 1.451576 0.215927 -0.052743 75259.900000 0 0 1
36.086084 -12.187958 5.762747 38.522215 -0.325717 1.420637 0.203904 -0.050265 516611.000000 0 0 1
34.961324 -12.106858 6.884847 37.633380 -0.333368 1.386815 0.169259 -0.041047 847178.000000 0 0 1
34.401974 -10.837058 7.245347 36.789029 -0.305172 1.372557 0.164958 -0.032385 315370.000000 0 0 1
33.699064 -10.860258 8.466847 36.404115 -0.311762 1.336067 0.129752 -0.015163 -385959.000000 0 0 1
32.998094 -9.551258 8.845847 35.473226 -0.281749 1.318770 0.122395 -0.032885 -668684.000000 0 0 1
31.720994 -9.378158 8.303547 34.104548 -0.287457 1.324851 0.142343 -0.029765 -402477.000000 0 0 1
30.923054 -8.486458 9.033047 33.314429 -0.267844 1.296214 0.149383 -0.016499 -1456350.000000 0 0 1
29.474464 -8.697158 8.744447 31.950742 -0.286932 1.293574 0.146068 -0.013132 -1340580.000000 0 0 1
29.050964 -8.149058 7.477347 31.084986 -0.273481 1.327869 0.165814 -0.017061 -228430.000000 0 0 1
28.154364 -8.981658 6.828547 30.330965 -0.308809 1.343715 0.180423 -0.030399 -630038.000000 0 0 1
27.300864 -8.281658 5.777847 29.108530 -0.294525 1.370976 0.179590 -0.033820 -1087640.000000 0 0 1
26.075064 -7.883758 6.269347 27.952948 -0.293610 1.344590 0.191751 -0.037956 -794539.000000 0 0 1
25.167664 -7.304058 5.384747 26.753618 -0.282457 1.368140 0.208017 -0.048781 -301935.000000 0 0 1
25.390264 -5.878958 4.736447 26.488895 -0.227534 1.391021 0.197452 -0.053122 -1336030.000000 0 0 1
26.432464 -5.905058 3.852147 27.356606 -0.219793 1.429514 0.189186 -0.050490 -547049.000000 0 0 1
26.862264 -4.604558 3.511147 27.479289 -0.169764 1.442672 0.185190 -0.058405 -299328.000000 0 0 1
27.616864 -4.653258 2.209347 28.093152 -0.166925 1.492071 0.188989 -0.060888 -608273.000000 0 0 1
26.832064 -5.046258 1.091747 27.324280 -0.185897 1.530830 0.204654 -0.059035 -224658.000000 0 0 1
27.444064 -4.877158 -0.136753 27.874397 -0.175877 1.575702 0.191829 -0.062162 -611811.000000 0 0 1
26.539964 -5.289058 -1.325353 27.094287 -0.196709 1.619732 0.190730 -0.051923 1006760.000000 0 0 1
25.454364 -4.374258 -1.646853 25.879932 -0.170185 1.634474 0.229592 -0.051712 869346.000000 0 0 1
24.845464 -4.663858 -2.893453 25.444463 -0.185555 1.684759 0.237275 -0.052862 508870.000000 0 0 1
23.509164 -3.889658 -3.160253 24.037417 -0.163967 1.702650 0.201561 -0.043531 355102.000000 0 1 0
23.651764 -2.469358 -3.220453 23.997395 -0.104028 1.705403 0.185194 -0.048937 60215.000000 0 1 0
24.353264 -1.965358 -4.313853 24.810349 -0.080528 1.745558 0.195353 -0.045741 -128127.000000 0 1 0
23.388464 -1.338658 -5.381953 24.037006 -0.057173 1.796613 0.208479 -0.032826 180974.000000 0 1 0
22.727664 -0.219058 -4.834853 23.237265 -0.009638 1.780392 0.176065 -0.018791 291367.000000 0 1 0
21.986764 0.545442 -5.771253 22.738132 0.024803 1.827418 0.189515 -0.012250 -331256.000000 0 1 0
21.449964 1.855642 -5.163753 22.140657 0.086295 1.806189 0.155286 -0.002850 -470989.000000 0 1 0
22.327164 2.945542 -4.945553 23.057254 0.131169 1.786966 0.170222 -0.014174 325125.000000 0 1 0
23.281764 2.691542 -3.910053 23.760754 0.115096 1.736108 0.193943 -0.016634 -85200.800000 0 1 0
24.430364 3.732942 -3.939853 25.025986 0.151627 1.728884 0.198172 -0.029436 -183647.000000 0 0 1
24.102864 5.128942 -3.797853 24.933467 0.209667 1.723711 0.168231 -0.019278 418726.000000 0 1 0
25.066364 5.802142 -2.986953 25.901917 0.227465 1.686371 0.162515 -0.022887 101034.000000 0 0 1
24.774164 7.257942 -2.801253 25.966978 0.284989 1.678884 0.139719 -0.028224 -549389.000000 0 0 1
23.597664 7.419142 -2.066853 24.822677 0.304616 1.654158 0.154359 -0.034641 -135331.000000 0 1 0
22.996764 8.616742 -2.472053 24.682189 0.358502 1.671120 0.143739 -0.029121 -779974.000000 0 1 0
21.823864 9.026042 -1.611453 23.671655 0.392163 1.638924 0.118859 -0.024728 -695430.000000 0 1 0
22.221264 9.520642 -0.324653 24.177109 0.404787 1.584225 0.084379 -0.027503 1265510.000000 0 1 0
21.077264 9.868342 0.488847 23.278191 0.437884 1.549795 0.052657 -0.025184 685300.000000 0 1 0
21.586964 10.203342 1.941247 23.955660 0.441539 1.489672 0.067862 -0.024600 27557.300000 0 1 0
22.550364 11.232942 2.165647 25.286121 0.462148 1.485046 0.082049 -0.030875 508519.000000 0 0 1
22.206364 12.563742 1.941147 25.587854 0.514872 1.494861 0.092981 -0.018151 -464289.000000 0 0 1
21.096564 13.296242 2.718947 25.084811 0.562370 1.462193 0.078791 -0.007803 367001.000000 0 0 1
19.749364 12.875642 2.505047 23.708538 0.577746 1.464939 0.111032 -0.016905 1413810.000000 0 1 0
18.730564 13.655642 3.158047 23.394098 0.629962 1.435390 0.093090 -0.018424 525901.000000 0 1 0
18.487864 13.539542 4.644047 23.381349 0.632108 1.370845 0.066751 -0.012938 -570798.000000 0 1 0
18.102364 12.283242 5.086947 22.459979 0.596180 1.342324 0.053525 -0.011077 369979.000000 0 1 0
18.233364 12.188142 6.548347 22.888583 0.589238 1.280646 0.062315 -0.023030 -61129.000000 0 1 0
18.407664 10.769942 7.088547 22.474013 0.529376 1.249907 0.044531 -0.029944 -696615.000000 0 1 0
19.582564 10.138342 6.719647 23.052472 0.477725 1.275008 0.040389 -0.037176 -203670.000000 0 1 0
19.671264 8.922642 7.379347 22.826014 0.425833 1.241596 0.050406 -0.026898 150528.000000 0 1 0
20.577164 7.920942 6.616647 23.020448 0.367455 1.279259 0.061033 -0.031027 216154.000000 0 1 0
20.009564 7.555442 5.322347 22.040752 0.361041 1.326908 0.035064 -0.036407 570086.000000 0 1 0
20.818164 6.639042 4.617247 22.333647 0.308710 1.362555 0.050752 -0.041794 -396637.000000 0 1 0
20.580064 6.675842 3.110447 21.858197 0.313675 1.428010 0.066366 -0.026918 69104.000000 0 1 0
21.498964 5.828742 2.400747 22.404090 0.264753 1.463434 0.064230 -0.035519 648922.000000 0 1 0
21.350664 5.935642 1.026647 22.184154 0.271160 1.524501 0.081611 -0.017702 394422.000000 0 1 0
22.508664 5.206642 0.225347 23.104109 0.227319 1.561043 0.142110 -0.028131 585519.000000 0 1 0
22.475564 3.810342 0.355047 22.799029 0.167936 1.555223 0.136878 -0.030693 -254265.000000 0 1 0
23.581464 3.281042 -0.264553 23.810096 0.138249 1.581907 0.160909 -0.037345 -726035.000000 0 1 0
23.598664 1.751542 -0.406453 23.667066 0.074086 1.587971 0.197447 -0.040718 50462.200000 0 1 0
22.422264 1.296342 -1.066353 22.485007 0.057751 1.618239 0.150412 -0.029913 743946.000000 0 1 0
22.504864 -0.016758 -1.576453 22.560017 -0.000745 1.640731 0.172952 -0.032503 -1107290.000000 0 1 0
22.398864 -1.183958 -0.542153 22.436684 -0.052809 1.594962 0.190448 -0.027581 338978.000000 0 1 0
23.373264 -1.306558 0.531247 23.415780 -0.055842 1.548107 0.192784 -0.035914 801602.000000 0 1 0
24.656064 -1.680458 0.065447 24.713351 -0.068051 1.568148 0.210188 -0.050303 372810.000000 0 1 0
25.764164 -1.640558 1.210347 25.844700 -0.063590 1.523948 0.210308 -0.045094 447293.000000 0 0 1
25.930464 -0.284058 1.681747 25.986495 -0.010954 1.506035 0.208465 -0.044997 407068.000000 0 0 1
26.789664 -0.183458 2.811247 26.937388 -0.006848 1.466244 0.218508 -0.048978 -208636.000000 0 0 1
26.749464 1.173742 3.527247 27.006535 0.043851 1.439815 0.215599 -0.041623 115570.000000 0 0 1
27.274764 2.294442 2.866347 27.520777 0.083926 1.466455 0.238940 -0.040789 -341538.000000 0 0 1
28.582864 2.335142 2.377747 28.776495 0.081516 1.488074 0.235023 -0.043833 -451562.000000 0 0 1
28.945964 3.483242 1.451147 29.190882 0.119760 1.521063 0.255140 -0.051824 -153257.000000 0 0 1
28.427464 3.135942 0.182147 28.600490 0.109870 1.564428 0.268235 -0.046365 340271.000000 0 0 1
28.764664 4.185042 -0.767153 29.077637 0.144479 1.597182 0.245797 -0.041985 31909.300000 0 0 1
30.130664 4.012842 -1.479353 30.432684 0.132402 1.619426 0.216174 -0.035806 -307281.000000 0 0 1
31.208074 4.307742 -0.637253 31.510420 0.137166 1.591021 0.209762 -0.031332 -373594.000000 0 0 1
32.446194 4.104842 -1.302253 32.730736 0.125844 1.610594 0.169234 -0.028227 21098.600000 0 0 1
33.599904 4.587042 -0.410053 33.914048 0.135681 1.582888 0.122869 -0.016485 -330518.000000 0 0 1
33.872584 3.718342 0.691147 34.083070 0.109337 1.550517 0.142056 -0.030303 69219.700000 0 0 1
33.346744 4.198142 1.893647 33.663268 0.125235 1.514514 0.157914 -0.020129 -25960.800000 0 0 1
33.633044 3.152242 2.940447 33.908177 0.093452 1.483969 0.166288 -0.027504 302879.000000 0 0 1
32.783304 1.975142 2.839247 32.965247 0.060176 1.484561 0.193540 -0.038520 616348.000000 0 0 1
33.039294 1.037942 3.909147 33.285938 0.031405 1.453083 0.190445 -0.039060 39458.700000 0 0 1
34.324334 0.184542 3.923547 34.548345 0.005376 1.456984 0.168971 -0.026793 -527737.000000 0 0 1
35.506924 0.871442 4.152347 35.759517 0.024538 1.454415 0.164128 -0.033500 -431810.000000 0 0 1
36.545054 -0.053358 4.363347 36.804655 -0.001460 1.451963 0.156095 -0.032350 -177763.000000 0 0 1
-37.176917 0.427842 4.733347 37.479472 -0.011508 1.444166 0.152767 -0.046157 842063.000000 0 0 1
-36.568937 1.331642 3.745547 36.784366 -0.036398 1.468795 0.158496 -0.050337 606120.000000 0 0 1
-36.038057 0.621542 2.604447 36.137391 -0.017245 1.498663 0.148529 -0.040378 -495733.000000 0 0 1
-35.673573 1.570042 1.497147 35.739478 -0.043983 1.528893 0.158975 -0.043568 35254.800000 0 0 1
-34.629803 2.425942 1.948847 34.769332 -0.069939 1.514716 0.168373 -0.064240 167487.000000 0 0 1
-34.025391 3.113642 0.874647 34.178751 -0.091255 1.545203 0.191444 -0.030272 -535910.000000 0 0 1
-32.959767 4.027642 1.463747 33.237189 -0.121596 1.526743 0.211016 -0.038769 -727566.000000 0 0 1
-31.966317 3.330442 2.175647 32.212897 -0.103811 1.503205 0.208000 -0.051481 -36195.800000 0 0 1
-31.210097 4.291942 2.937147 31.640445 -0.136661 1.477834 0.225993 -0.046012 -451812.000000 0 0 1
-31.475687 4.443842 4.492847 32.103774 -0.140256 1.430388 0.230086 -0.043405 1215260.000000 0 0 1
-32.829167 4.947242 4.735847 33.535916 -0.149571 1.429106 0.213310 -0.018408 2658540.000000 0 0 1
-33.909597 3.956642 4.852947 34.482849 -0.116157 1.429592 0.193322 -0.018572 906397.000000 0 0 1
-34.020556 3.167042 6.151547 34.716998 -0.092824 1.392665 0.160459 -0.019478 -469388.000000 0 0 1
-34.298151 4.030942 7.307747 35.298935 -0.116990 1.362264 0.167049 -0.025367 399657.000000 0 0 1
-34.079880 3.265342 8.509347 35.277609 -0.095523 1.327183 0.141719 -0.025634 206476.000000 0 0 1
-35.220541 2.307842 8.980747 36.420688 -0.065432 1.321643 0.140336 -0.021117 133483.000000 0 0 1
-35.079313 1.093942 8.248047 36.052533 -0.031175 1.339974 0.147290 -0.027321 581036.000000 0 0 1
-36.027657 0.114842 8.706647 37.064956 -0.003188 1.333678 0.142519 -0.026085 5350.850000 0 0 1
-35.675474 -0.647158 10.015547 37.060349 0.018138 1.297144 0.166788 -0.026255 -245307.000000 0 0 1
-34.484033 -1.386258 9.870947 35.895764 0.040178 1.292218 0.149907 -0.017740 -40801.500000 0 0 1
-34.336135 -2.426958 10.841447 36.088742 0.070565 1.265673 0.135473 -0.011177 -720987.000000 0 0 1
-33.118907 -3.300058 10.697047 34.959680 0.099315 1.259826 0.158155 -0.002094 -806657.000000 0 0 1
-33.226877 -4.104758 9.545347 34.813619 0.122915 1.293055 0.161354 -0.006679 -660050.000000 0 0 1
-32.242377 -5.038158 9.375347 33.953661 0.155005 1.291040 0.158395 -0.010882 -701318.000000 0 0 1
-32.349147 -5.889258 8.074547 33.857776 0.180081 1.329992 0.175792 -0.012602 661833.000000 0 0 1
-33.404137 -6.861558 8.192447 35.071834 0.202592 1.335028 0.188073 -0.017805 381583.000000 0 0 1
-33.898217 -7.249258 6.945847 35.353722 0.210680 1.373043 0.191755 -0.035372 121990.000000 0 0 1
-34.856160 -8.468458 7.079447 36.562074 0.238337 1.375937 0.196143 -0.042332 527077.000000 0 0 1
-36.068627 -8.173958 7.756247 37.787813 0.222858 1.364069 0.180885 -0.041887 -658.623000 0 0 1
-36.842047 -9.290158 8.045247 38.837733 0.247012 1.362135 0.179019 -0.044488 -73244.400000 0 0 1
8.111023 -23.834658 10.632247 27.329916 -1.242786 1.171214 0.142411 -0.049196 163894.000000 0 0 1
7.513223 -24.503658 9.527747 27.343294 -1.273281 1.214880 0.147352 -0.050228 830880.000000 0 0 1
6.146923 -24.926658 9.737747 27.458089 -1.329020 1.208267 0.140580 -0.053693 1361010.000000 0 0 1
5.701923 -25.823428 8.574747 27.800857 -1.353479 1.257249 0.124836 -0.038933 22.496300 0 0 1
5.117923 -25.246158 7.419747 26.806982 -1.370786 1.290350 0.117872 -0.034382 -190028.000000 0 0 1
4.939023 -26.253138 6.442347 27.479539 -1.384839 1.334152 0.105778 -0.026623 -393023.000000 0 0 1
4.105323 -25.845518 5.166847 26.674722 -1.413272 1.375866 0.081479 -0.023566 784517.000000 0 0 1
2.699623 -25.751668 5.342947 26.438295 -1.466345 1.367304 0.076123 -0.027531 142052.000000 0 0 1
2.036723 -27.011248 5.272347 27.596257 -1.495536 1.378562 0.070752 -0.030044 -251933.000000 0 0 1
0.495723 -26.882438 5.164647 27.378546 -1.552358 1.381021 0.091546 -0.041426 -413801.000000 0 0 1
-0.001477 -26.424008 6.415447 27.191656 1.570740 1.332616 0.079366 -0.040922 -1174230.000000 0 0 1
-1.388677 -26.466348 6.371247 27.257821 1.518375 1.334874 0.070722 -0.037249 -330684.000000 0 0 1
-2.126477 -27.829528 6.635347 28.688541 1.494534 1.337394 0.086795 -0.039500 -482282.000000 0 0 1
-1.883477 -28.358838 7.954147 29.513381 1.504478 1.297912 0.077831 -0.039555 192218.000000 0 0 1
-2.461177 -29.674278 8.032647 30.840616 1.488046 1.307301 0.101161 -0.038320 27310.000000 0 0 1
-2.261177 -30.303568 9.433347 31.818347 1.496317 1.269797 0.095744 -0.034928 27531.000000 0 0 1
-0.909777 -30.598838 9.688347 32.108887 1.541073 1.264285 0.098369 -0.036009 -282289.000000 0 0 1
-0.586977 -30.848868 11.020047 32.763373 1.551771 1.227755 0.106781 -0.032417 118972.000000 0 0 1
0.916223 -30.917828 11.371347 32.955411 -1.541171 1.218502 0.079910 -0.030878 112442.000000 0 0 1
1.565423 -32.091398 10.822647 33.903364 -1.522055 1.245890 0.080072 -0.026291 561696.000000 0 0 1
2.951323 -32.150148 11.163947 34.161031 -1.479255 1.237877 0.098389 -0.024561 674943.000000 0 0 1
3.303323 -32.766668 12.554447 35.244583 -1.470322 1.206588 0.102940 -0.024015 -418694.000000 0 0 1
2.808123 -32.054858 13.624847 34.943325 -1.483416 1.170259 0.099773 -0.022661 212525.000000 0 0 1
3.454823 -32.480178 14.847747 35.879707 -1.464828 1.144150 0.106383 -0.021716 -111309.000000 0 0 1
3.185723 -31.563628 16.101747 35.576364 -1.470207 1.101121 0.126580 -0.031517 296408.000000 0 0 1
3.830023 -30.290158 15.963347 34.452739 -1.445019 1.089035 0.139493 -0.035799 215290.000000 0 0 1
5.211323 -30.176128 16.220047 34.653232 -1.399786 1.083694 0.124991 -0.027403 -340065.000000 0 0 1
5.738823 -28.912138 15.597347 33.348509 -1.374851 1.084101 0.136550 -0.026210 -563224.000000 0 0 1
5.951023 -28.942088 14.174647 32.771630 -1.368004 1.123502 0.123450 -0.025360 712386.000000 0 0 1
4.738723 -28.928918 13.380647 32.223897 -1.408433 1.142590 0.125744 -0.023201 40219.900000 0 0 1
4.938823 -28.662498 11.847647 31.405374 -1.400162 1.183972 0.112972 -0.026499 72267.600000 0 0 1
5.454323 -29.746988 11.090947 32.212452 -1.389454 1.219297 0.110754 -0.031596 197774.000000 0 0 1
6.800923 -30.095408 11.361547 32.879642 -1.348550 1.217972 0.109771 -0.019038 -348819.000000 0 0 1
7.218123 -31.448858 10.775047 34.018136 -1.345184 1.248501 0.101329 -0.015386 -187243.000000 0 0 1
6.810923 -32.652088 11.423547 35.256843 -1.365154 1.240832 0.080225 -0.022113 45964.900000 0 0 1
7.147723 33.822159 10.779347 36.210809 1.362528 1.268531 0.089325 -0.018935 -25076.100000 0 0 1
7.008123 32.619436 11.680547 35.349350 1.359168 1.234035 0.079386 -0.017130 652465.000000 0 0 1
5.664523 32.412264 12.119447 35.064550 1.397779 1.217884 0.083101 -0.021012 469845.000000 0 0 1
5.296223 31.096609 12.561147 33.953372 1.402100 1.191838 0.090356 -0.021867 724401.000000 0 0 1
3.970223 31.036179 13.381547 34.030470 1.443565 1.166662 0.092895 -0.030424 545144.000000 0 0 1
4.235423 31.393899 14.728447 34.934837 1.436694 1.135590 0.108206 -0.026831 -235294.000000 0 0 1
3.155923 31.326319 15.615747 35.144696 1.470392 1.110373 0.103458 -0.030918 -206631.000000 0 0 1
3.636523 31.479399 17.110847 36.013302 1.455785 1.075689 0.111026 -0.034581 110610.000000 0 0 1
4.171323 32.755485 17.401047 37.324498 1.444131 1.085795 0.130852 -0.032589 -100343.000000 0 0 1
4.597523 32.700138 18.690147 37.944141 1.431115 1.055756 0.124098 -0.031731 -283161.000000 0 0 1
4.725723 -33.541728 19.352147 39.011352 -1.430827 1.051736 0.121031 -0.036505 -237918.000000 0 0 1
3.469523 -32.969538 19.516747 38.469877 -1.465948 1.038718 0.129361 -0.039086 -530925.000000 0 0 1
3.558623 -32.114398 20.653747 38.348085 -1.460436 1.002038 0.119287 -0.040963 92760.800000 0 0 1
2.283023 -31.285658 20.989847 37.743586 -1.497952 0.981090 0.135397 -0.036084 59820.000000 0 0 1
1.237423 -32.137338 21.437447 38.651052 -1.532311 0.982865 0.150074 -0.032963 -522841.000000 0 0 1
0.226923 -31.253088 21.846247 38.132211 -1.563536 0.960747 0.132155 -0.029109 -731681.000000 0 0 1
-0.964477 -31.950828 22.531847 39.108436 1.540619 0.956801 0.147823 -0.023964 -917131.000000 0 0 1
-1.709077 -32.568368 21.534747 39.081516 1.518368 0.987209 0.145418 -0.030257 -596881.000000 0 0 1
-2.384877 -33.740138 21.824547 40.254135 1.500230 0.997780 0.136808 -0.025087 461341.000000 0 0 1
-3.647077 -33.637008 22.777847 40.787005 1.462794 0.978270 0.146034 -0.033892 329150.000000 0 0 1
-4.675377 -32.867128 22.230247 39.953612 1.429493 0.980748 0.130666 -0.035923 -627953.000000 0 0 1
-5.742177 -32.655178 23.112047 40.416581 1.396733 0.962042 0.113708 -0.038182 156306.000000 0 0 1
-6.964777 -31.934838 22.472247 39.665399 1.356065 0.968489 0.082819 -0.025547 -37958.800000 0 0 1
-7.664977 -32.723438 21.574447 39.937852 1.340709 1.000121 0.066249 -0.025053 -440402.000000 0 0 1
-8.790677 -32.042568 21.073547 39.345858 1.303040 1.005581 0.068117 -0.030921 272974.000000 0 0 1
-9.818777 -33.067998 20.479847 40.116393 1.282161 1.035018 0.041905 -0.035142 299058.000000 0 0 1
-10.556977 -33.814428 21.425747 41.399613 1.268182 1.026829 0.048806 -0.035542 -541312.000000 0 0 1
-11.907577 33.789059 21.064947 41.559871 -1.231977 1.039261 0.038737 -0.037105 551412.000000 0 0 1
-12.870877 33.332985 22.271147 42.104054 -1.202303 1.013428 0.044437 -0.030085 319496.000000 0 0 1
-13.087277 -33.403258 23.323547 42.790680 1.197382 0.994334 0.049516 -0.028822 839761.000000 0 0 1
-11.919577 -32.938728 24.041747 42.485783 1.223585 0.969299 0.067117 -0.026608 295751.000000 0 0 1
-12.156977 -31.522688 24.615047 41.801585 1.202715 0.941156 0.069620 -0.030926 111047.000000 0 0 1
-13.029677 -31.503838 25.740047 42.717846 1.178629 0.924092 0.045306 -0.025388 249647.000000 0 0 1
-13.379277 -30.161758 26.003847 42.011151 1.153291 0.903359 0.077736 -0.031129 124945.000000 0 0 1
-14.198777 -29.908018 27.287147 42.903184 1.127553 0.881471 0.076495 -0.024264 721692.000000 0 0 1
-13.396177 -29.874958 28.510547 43.414537 1.149267 0.854355 0.064761 -0.017727 1352280.000000 0 0 1
-14.299077 -29.503018 29.563947 44.146559 1.119492 0.837022 0.080364 -0.015648 386513.000000 0 0 1
-13.529077 -29.235648 30.863147 44.612699 1.137382 0.806815 0.070168 -0.016228 -310596.000000 0 0 1
-14.428877 -28.762168 31.841447 45.269555 1.105820 0.790663 0.088568 -0.018072 361853.000000 0 0 1
-13.886177 -28.393118 33.085947 45.756693 1.115932 0.762539 0.074475 -0.012535 -507743.000000 0 0 1
-13.092677 -29.255128 -33.696991 46.505568 1.149995 2.381221 0.069121 -0.006992 -605903.000000 0 0 1
-11.763877 -29.486278 33.699247 46.297610 1.191186 0.755567 0.048827 -0.004272 -614705.000000 0 0 1
-11.335777 -30.639878 -33.340391 46.678513 1.216444 2.366356 0.059087 -0.001227 -431746.000000 0 0 1
-9.860077 -30.997348 -33.463891 46.667855 1.262823 2.370379 0.070787 -0.012077 -388663.000000 0 0 1
-8.951777 -30.069168 -32.908491 45.467108 1.281445 2.380071 0.081180 -0.020969 -264376.000000 0 0 1
-7.682877 -30.654888 -32.739991 45.504459 1.325230 2.373864 0.093963 -0.036382 -130538.000000 0 0 1
-6.836477 -29.849238 -31.710291 44.082388 1.345646 2.373650 0.108551 -0.038455 52962.200000 0 0 1
-7.395977 -29.743008 -30.388691 43.160393 1.327077 2.351934 0.106650 -0.039719 387838.000000 0 0 1
-6.434877 -29.136148 -29.524791 41.976613 1.353430 2.350914 0.108582 -0.041184 533820.000000 0 0 1
-6.826677 -29.308848 -27.992291 41.099640 1.341954 2.320038 0.115241 -0.035957 130031.000000 0 0 1
-6.273177 -30.476928 -27.429591 41.479855 1.367798 2.293313 0.100208 -0.035205 -518779.000000 0 0 1
-7.051677 -30.939248 -26.418691 41.290561 1.346704 2.265066 0.110965 -0.034281 -390373.000000 0 0 1
-6.450977 -32.167638 -25.719391 41.687637 1.372879 2.235664 0.101992 -0.045801 380120.000000 0 0 1
-5.599277 -31.775748 -24.633991 40.594132 1.396375 2.222870 0.079731 -0.043701 3477.790000 0 0 1
-5.187077 -32.981198 -24.030291 41.135387 1.414800 2.194660 0.088439 -0.054281 -56289.800000 0 0 1
-4.159877 -32.857348 -22.882091 40.255434 1.444862 2.175383 0.098136 -0.062237 37738.300000 0 0 1
-4.641977 -32.306238 -21.627791 39.153573 1.428086 2.156017 0.117640 -0.050454 112049.000000 0 0 1
-4.888077 -30.902808 -21.691591 38.071012 1.413920 2.177018 0.090071 -0.031610 -633677.000000 0 0 1
-5.487477 -30.314018 -20.398191 36.947778 1.391714 2.155655 0.139892 -0.045112 138342.000000 0 0 1
-6.883577 -30.559068 -20.198391 37.272178 1.349239 2.143512 0.147221 -0.054801 1284750.000000 0 0 1
-7.725277 -29.362848 -20.287991 36.516562 1.313530 2.159861 0.148793 -0.048854 649479.000000 0 0 1
-7.986377 -28.818488 -21.689691 36.942254 1.300454 2.198298 0.183100 -0.063567 -812274.000000 0 0 1
-6.837677 -28.196308 -22.219891 36.544619 1.332886 2.224362 0.181334 -0.040474 -297948.000000 0 0 1
-6.826177 -28.146398 -23.655491 37.395169 1.332866 2.255678 0.230727 -0.051731 -803564.000000 0 0 1
-5.415177 -28.069118 -24.249391 37.486431 1.380215 2.274288 0.212609 -0.046088 -36328.600000 0 0 1
-4.684177 -26.841298 -24.068491 36.355041 1.398022 2.294334 0.200186 -0.051102 172274.000000 0 0 1
-4.206877 -26.553388 -22.778891 35.237169 1.413671 2.273712 0.139243 -0.043102 -942281.000000 0 0 1
-2.683877 -26.796888 -22.657491 35.194293 1.470973 2.270228 0.115004 -0.036184 -140355.000000 0 0 1
-1.870177 -25.840268 -23.254091 34.813356 1.498548 2.302267 0.123054 -0.040610 -57480.300000 0 0 1
-1.530977 -24.744758 -22.397191 33.410793 1.509004 2.305487 0.124386 -0.042203 -707976.000000 0 0 1
-0.991277 -23.521258 -23.193691 33.048139 1.528677 2.348739 0.143096 -0.040720 -140580.000000 0 0 1
-1.938777 -22.863758 -23.985491 33.193584 1.486202 2.378344 0.236093 -0.051571 -105302.000000 0 0 1
-3.022677 -22.253058 -23.290491 32.354012 1.435791 2.374403 0.235678 -0.052924 -280370.000000 0 0 1
-4.102177 -21.766058 -24.249191 32.842235 1.384515 2.401423 0.215440 -0.064933 -488790.000000 0 0 1
-3.647177 -20.763958 -25.151391 32.818231 1.396921 2.443990 0.222823 -0.054152 -228835.000000 0 0 1
-4.493177 -20.519958 -26.240191 33.612571 1.355232 2.466527 0.272852 -0.061046 -65285.400000 0 0 1
-4.019777 -21.206458 -27.566591 35.011275 1.383464 2.477316 0.222514 -0.056288 42237.200000 0 0 1
-4.959677 -20.958158 -28.574691 35.782059 1.338424 2.495722 0.224344 -0.060418 -38441.900000 0 0 1
-4.462177 -21.492058 -29.801991 37.013217 1.366085 2.506761 0.235087 -0.059256 96934.700000 0 0 1
-5.521277 -21.732858 -30.896391 38.175759 1.322008 2.513789 0.215887 -0.062245 -426094.000000 0 0 1
-6.008477 -20.532058 -31.433591 38.022859 1.286107 2.544018 0.200891 -0.058038 -136459.000000 0 0 1
-7.135177 -20.786158 -32.246191 39.022967 1.240133 2.543372 0.187586 -0.055078 -59731.900000 0 0 1
-6.944777 -20.211758 -33.677991 39.886742 1.239834 2.576129 0.179276 -0.053926 19768.600000 0 0 1
-5.857777 -20.771258 33.375447 39.745178 1.295921 0.574000 0.147396 -0.046840 -522408.000000 0 0 1
-5.622277 -20.098658 32.150747 38.330622 1.298034 0.575768 0.156914 -0.043918 1101980.000000 0 0 1
-4.298777 -20.555958 31.385647 37.763551 1.364642 0.589696 0.106319 -0.049709 -492995.000000 0 0 1
-4.340677 -21.870358 30.790747 38.016104 1.374869 0.626747 0.122420 -0.041954 195731.000000 0 0 1
-3.215777 -22.243658 30.009147 37.492272 1.427221 0.642819 0.110537 -0.030010 475548.000000 0 0 1
-1.783377 -21.999858 30.530447 37.673365 1.489910 0.625964 0.092916 -0.037049 -1005570.000000 0 0 1
-1.338677 -20.673058 30.478047 36.852120 1.506132 0.596981 0.096992 -0.031054 -1148540.000000 0 0 1
-0.317777 -20.355558 31.336947 37.369158 1.555186 0.576129 0.099733 -0.033312 -973473.000000 0 0 1
-0.638377 -20.039858 32.834747 38.472381 1.538952 0.548202 0.080505 -0.031323 -96324.900000 0 0 1
-1.411677 -18.822158 32.936947 37.961941 1.495936 0.520379 0.068432 -0.027319 -12341.500000 0 0 1
-1.697377 -18.661658 -33.478991 38.366410 1.480091 2.631321 0.072507 -0.029481 223872.000000 0 0 1
-2.801977 -17.561158 -33.329591 37.777069 1.412575 2.651460 0.088031 -0.043126 313639.000000 0 0 1
-2.403377 -16.288758 -33.773491 37.573242 1.424305 2.687982 0.089063 -0.036356 -294637.000000 0 0 1
-3.460177 -15.367458 -33.681891 37.183348 1.349327 2.704137 0.123669 -0.042311 -36075.700000 0 0 1
-3.097777 -13.892358 33.668747 36.553774 1.351401 0.399965 0.104312 -0.036965 -193127.000000 0 0 1
-2.501077 -13.180358 -33.028391 35.649009 1.383268 2.755768 0.083683 -0.040287 -290308.000000 0 0 1
-2.522277 -11.775758 -33.070291 35.194808 1.359792 2.792360 0.081246 -0.036745 -6267.760000 0 0 1
-1.788677 -10.944058 33.600147 35.382788 1.408790 0.318780 0.077139 -0.034151 -379306.000000 0 0 1
-2.365977 -11.153158 32.318147 34.270300 1.361760 0.339154 0.094059 -0.036570 279794.000000 0 0 1
-1.595877 -10.587858 31.240247 33.024273 1.421195 0.330197 0.107422 -0.034871 185035.000000 0 0 1
-0.462077 -11.469658 30.711247 32.786389 1.530531 0.357692 0.075255 -0.038782 -171053.000000 0 0 1
-0.974977 -12.592058 29.913947 32.470829 1.493523 0.399499 0.093065 -0.041940 169589.000000 0 0 1
-0.069277 -13.670258 29.848247 32.829843 1.565729 0.429485 0.064847 -0.043452 -128480.000000 0 0 1
-0.556977 -14.972658 30.577047 34.050647 1.533614 0.455623 0.073763 -0.037066 -209252.000000 0 0 1
-1.497577 -15.639858 29.802747 33.690528 1.475333 0.485154 0.084178 -0.042635 -188966.000000 0 0 1
-1.799977 -16.852158 30.483847 34.878361 1.464390 0.507413 0.099191 -0.040269 -148861.000000 0 0 1
-2.144377 -17.953258 29.494647 34.595550 1.451917 0.549940 0.109195 -0.020551 -6950.520000 0 0 1
-3.435677 -17.811058 28.914247 34.133142 1.380241 0.560288 0.120429 -0.022500 87104.900000 0 0 1
-3.815977 -18.932258 28.165947 34.151320 1.371902 0.601055 0.130566 -0.028188 -281987.000000 0 0 1
-5.151477 -18.844958 27.439447 33.683726 1.303954 0.618722 0.094990 -0.036465 -793835.000000 0 0 1
-5.569977 -19.959758 26.666747 33.771763 1.298659 0.660612 0.111844 -0.034794 -964075.000000 0 0 1
-4.775377 -20.527658 25.700647 33.237212 1.342230 0.686847 0.124446 -0.027335 -963364.000000 0 0 1
-30.485937 -33.279305 -0.179553 45.132435 0.829177 1.574775 0.049396 -0.027906 -395832.000000 0 0 1
-29.435557 -32.376205 -0.001853 43.756950 0.832937 1.570839 0.062060 -0.018487 -245024.000000 0 0 1
-29.796637 -31.589105 1.078547 43.438167 0.814590 1.545964 0.057618 -0.018509 284437.000000 0 0 1
-28.863257 -30.351905 1.276647 41.904124 0.810533 1.540326 0.079899 -0.022521 780072.000000 0 0 1
-27.530327 -30.763505 1.560847 41.312811 0.840805 1.533006 0.095019 -0.019581 286877.000000 0 0 1
-26.659757 -29.625205 1.638647 39.888351 0.838036 1.529704 0.113012 -0.007102 1119880.000000 0 0 1
-25.162147 -29.831605 2.047647 39.080061 0.870104 1.518376 0.075195 -0.010263 643516.000000 0 0 1
-24.980977 -30.542605 3.276647 39.593388 0.885232 1.487944 0.071817 -0.004587 -582058.000000 0 0 1
-23.644277 -30.461705 3.675147 38.735952 0.910739 1.475776 0.065845 -0.003518 -382353.000000 0 0 1
-23.457477 -31.102705 5.071447 39.285507 0.924616 1.441343 0.075682 -0.002738 116451.000000 0 0 1
-23.968977 -30.286905 6.113347 39.104750 0.901323 1.413820 0.073191 -0.000471 48731.800000 0 0 1
-23.537777 -30.816605 7.380747 39.473605 0.918520 1.382710 0.065508 -0.010200 5894.170000 0 0 1
-24.118077 -30.037005 8.579247 39.465261 0.894262 1.351659 0.063765 -0.012287 -136450.000000 0 0 1
-23.526977 -28.765705 8.778947 38.184478 0.885246 1.338812 0.086173 -0.015172 -145572.000000 0 0 1
-24.026777 -28.155405 9.910847 38.317590 0.864353 1.309172 0.065599 -0.011231 -250925.000000 0 0 1
-23.163977 -27.007105 10.484347 37.092790 0.861849 1.284239 0.080463 -0.022962 890077.000000 0 0 1
-21.898877 -27.425805 11.013547 36.783608 0.896985 1.266717 0.072283 -0.020981 -24576.900000 0 0 1
-21.234377 -26.485105 11.733147 35.916936 0.894990 1.238013 0.089793 -0.026269 42669.700000 0 0 1
-19.889477 -26.856505 12.407847 35.648532 0.933349 1.215295 0.086831 -0.029461 199608.000000 0 0 1
-19.855877 -27.904405 13.359547 36.761246 0.952349 1.198867 0.095071 -0.029046 -604246.000000 0 0 1
-18.647077 -27.908705 14.063447 36.392167 0.981771 1.174026 0.100480 -0.032631 -130305.000000 0 0 1
-18.610477 -29.044005 15.130647 37.667500 1.000938 1.157435 0.098995 -0.038853 -113018.000000 0 0 1
-18.266877 -30.272005 14.601547 38.252820 1.027862 1.179149 0.108416 -0.033175 -30882.900000 0 0 1
-18.766277 -31.201605 15.503647 39.573683 1.029310 1.168245 0.095338 -0.033993 -5351.970000 0 0 1
-18.199977 -32.561805 15.130147 40.254586 1.061118 1.185470 0.091406 -0.035668 32805.300000 0 0 1
-18.582477 -33.684805 15.934147 41.639784 1.066681 1.178116 0.086860 -0.034282 -28573.000000 0 0 1
-17.990177 32.803642 15.469647 40.485002 -1.069167 1.178720 0.073315 -0.033801 -243411.000000 0 0 1
-18.030877 31.640542 16.505147 39.983201 -1.052829 1.145268 0.077801 -0.039538 -406718.000000 0 0 1
-19.275477 30.983342 16.623647 40.098094 -1.014268 1.143321 0.085261 -0.040276 72555.000000 0 0 1
-19.313977 29.954242 17.579547 39.740745 -0.998098 1.112573 0.067705 -0.034216 -223875.000000 0 0 1
-19.793077 30.483642 18.929447 40.979779 -0.994912 1.090636 0.070938 -0.042590 -333431.000000 0 0 1
-18.893677 31.263642 19.658147 41.482877 -1.027196 1.077098 0.073733 -0.040015 -101876.000000 0 0 1
-19.622877 31.714342 20.779947 42.692658 -1.016713 1.062450 0.076865 -0.036867 292699.000000 0 0 1
-18.949577 32.847742 21.640647 43.662092 -1.047542 1.052226 0.061804 -0.025680 911411.000000 0 0 1
-17.837077 32.333742 22.427647 43.204532 -1.066683 1.024994 0.051283 -0.030769 451593.000000 0 0 1
-17.554577 33.066642 23.597147 44.253716 -1.082747 1.008389 0.053362 -0.031875 -373170.000000 0 0 1
-18.417877 32.725542 24.789547 44.996677 -1.058180 0.987331 0.046926 -0.029358 234323.000000 0 0 1
-19.807677 33.009042 24.621447 45.696352 -1.030327 1.001778 0.032207 -0.033059 407220.000000 0 0 1
-20.553977 32.065142 25.383447 45.770719 -1.000769 0.982940 0.042439 -0.021818 853390.000000 0 0 1
-22.096077 32.119042 25.084547 46.358430 -0.968208 0.999052 0.102423 -0.036437 669792.000000 0 0 1
-22.478277 31.709342 23.824147 45.588873 -0.954132 1.020914 0.086787 -0.024202 920869.000000 0 0 1
-23.890877 31.927942 23.608947 46.341665 -0.928400 1.036246 0.069973 -0.034072 942307.000000 0 0 1
-24.339577 31.508042 22.233547 45.601561 -0.913058 1.061502 0.069468 -0.039222 -232486.000000 0 0 1
-23.995477 32.459342 21.275147 45.629198 -0.934213 1.085736 0.066918 -0.037567 59898.200000 0 0 1
-24.093977 31.863542 19.969047 44.660586 -0.923364 1.107243 0.048359 -0.028995 -13316.000000 0 0 1
-23.435277 32.710842 18.838647 44.430913 -0.949123 1.132940 0.056543 -0.029003 357729.000000 0 0 1
-22.095877 33.095942 19.141447 44.158399 -0.982126 1.122454 0.065438 -0.027322 364629.000000 0 0 1
-21.594477 -33.775405 18.080647 43.977372 1.001941 1.147097 0.080316 -0.021067 -41509.300000 0 0 1
-20.338777 -32.963905 18.420347 42.890489 1.017969 1.126886 0.075308 -0.026993 -231571.000000 0 0 1
-20.576377 -32.039805 19.482247 42.772589 0.999915 1.097880 0.075272 -0.031226 600660.000000 0 0 1
-19.385877 -31.321205 19.790547 41.815020 1.016568 1.077777 0.059358 -0.033605 172061.000000 0 0 1
-19.588577 -30.156605 20.789847 41.537344 0.994729 1.046609 0.056620 -0.027676 -124234.000000 0 0 1
-20.336877 -29.068005 20.311047 40.878798 0.960318 1.050819 0.080688 -0.030456 451311.000000 0 0 1
-20.958477 -28.277505 21.318847 41.150556 0.932970 1.026204 0.079421 -0.025152 19490.600000 0 0 1
-21.850677 -27.073305 20.931847 40.602440 0.891745 1.029168 0.065783 -0.034498 -195361.000000 0 0 1
-21.144177 -25.925505 20.456147 39.213033 0.886631 1.021993 0.069856 -0.027067 -32373.400000 0 0 1
-21.946077 -24.821405 20.251247 38.830986 0.846802 1.022162 0.058922 -0.014274 -581448.000000 0 0 1
-22.900977 -24.946905 19.035447 38.847794 0.828131 1.058706 0.071701 -0.015313 -26404.600000 0 0 1
-24.214677 -25.366605 19.398147 40.076219 0.808627 1.065540 0.064308 -0.013621 -21574.900000 0 0 1
-24.985077 -25.415905 18.242147 40.037460 0.793946 1.097720 0.064189 -0.013183 -1047370.000000 0 0 1
-26.486587 -25.441705 18.522747 41.132856 0.765279 1.103678 0.051004 -0.007997 -307960.000000 0 0 1
-27.111077 -26.601405 19.041447 42.487904 0.775910 1.106089 0.041934 -0.015513 137704.000000 0 0 1
-27.237467 -27.664705 18.121747 42.844057 0.793180 1.134076 0.057017 -0.017400 -685989.000000 0 0 1
-28.158457 -28.802205 18.580947 44.358960 0.796699 1.138588 0.069792 -0.024562 1050440.000000 0 0 1
-29.543327 -28.506005 18.886047 45.189416 0.767530 1.139630 0.052693 -0.022733 909696.000000 0 0 1
-30.337257 -28.948705 17.812547 45.559450 0.761981 1.169107 0.057590 -0.018946 -259788.000000 0 0 1
-31.834957 -28.640505 18.043747 46.468482 0.732625 1.172009 0.065961 -0.021377 104999.000000 0 0 1
-32.235347 -27.373205 17.530147 45.778991 0.704010 1.177830 0.074201 -0.012569 311016.000000 0 0 1
-33.594067 -27.092205 17.840747 46.699477 0.678666 1.178801 0.090197 -0.004842 230827.000000 0 0 1
-34.242168 -25.789605 17.300847 46.227147 0.645516 1.187201 0.106397 -0.018927 -112892.000000 0 0 1
-34.566287 -25.762405 15.876547 45.941207 0.640489 1.217935 0.125232 -0.032122 447982.000000 0 0 1
-35.252607 -24.580505 15.511247 45.689674 0.608890 1.224420 0.113939 -0.031232 -158501.000000 0 0 1
-34.414186 -23.533405 14.714847 44.211809 0.599790 1.231497 0.093688 -0.027589 899844.000000 0 0 1
-33.362367 -22.942005 15.538847 43.368640 0.602397 1.204353 0.086833 -0.013848 848686.000000 0 0 1
-33.145437 -21.555405 15.251947 42.377794 0.576606 1.202631 0.084389 -0.010937 249027.000000 0 0 1
-34.276751 -20.539805 15.673047 42.923463 0.539856 1.197014 0.082755 -0.019816 321971.000000 0 0 1
-34.454456 -20.526505 17.081447 43.591545 0.537294 1.168152 0.083500 -0.013995 485064.000000 0 0 1
-35.295447 -19.403805 17.366947 43.862137 0.502654 1.163701 0.087911 -0.016463 -213961.000000 0 0 1
-35.641904 -19.357505 18.898947 44.746268 0.497539 1.134751 0.070301 -0.014029 -591991.000000 0 0 1
-36.914707 -19.871705 19.157747 46.093379 0.493827 1.142162 0.078491 -0.007254 -309845.000000 0 0 1
-37.226147 -19.391905 20.479247 46.703657 0.480244 1.116875 0.086726 -0.005455 646132.000000 0 0 1
36.500504 -19.691605 21.099547 46.532107 -0.494737 1.100174 0.088980 -0.002315 749343.000000 0 0 1
36.117884 -21.044505 21.243647 46.889927 -0.527573 1.100609 0.093230 -0.007721 304108.000000 0 0 1
36.890514 -21.795705 22.201047 48.258152 -0.533643 1.092748 0.083315 0.000264 -2294.940000 0 0 1
36.106974 -23.014805 22.698947 48.462738 -0.567471 1.083341 0.096997 0.004667 284831.000000 0 0 1
35.027534 -22.670005 23.573347 47.922437 -0.574408 1.056518 0.097784 -0.006892 519186.000000 0 0 1
34.493544 -23.822405 24.231047 48.419574 -0.604412 1.046690 0.098076 -0.021611 718516.000000 0 0 1
33.330494 -23.538005 25.271447 47.995891 -0.614875 1.016278 0.112294 -0.021776 1461410.000000 0 0 1
31.984194 -23.809405 24.870447 46.993782 -0.639915 1.013105 0.096733 -0.018571 464979.000000 0 0 1
31.216534 -24.177405 25.973147 47.261224 -0.659002 0.988952 0.048888 -0.011934 -1062920.000000 0 0 1
29.896864 -24.819105 25.636247 46.551344 -0.692861 0.987583 0.045505 -0.017010 -581928.000000 0 0 1
28.897864 -23.845905 25.362947 45.243705 -0.689906 0.975704 0.049768 -0.013849 -306773.000000 0 0 1
27.659764 -24.432205 25.061847 44.610440 -0.723518 0.974244 0.047833 -0.009957 -297089.000000 0 0 1
26.642264 -23.382105 24.565347 43.127594 -0.720319 0.964781 0.037610 -0.007867 -565592.000000 0 0 1
26.806164 -22.866705 23.208347 42.191042 -0.706256 0.988339 0.045446 -0.014330 -63928.500000 0 0 1
27.874164 -21.957805 23.052347 42.314595 -0.667225 0.994664 0.031796 -0.006310 64574.800000 0 0 1
28.043364 -21.300505 21.658347 41.342784 -0.649589 1.019405 0.037428 -0.009028 391121.000000 0 0 1
27.196864 -20.142505 21.649047 40.175504 -0.637470 1.001711 0.039435 -0.011944 318657.000000 0 0 1
27.243364 -19.532705 20.403747 39.243348 -0.622025 1.024029 0.022513 -0.008944 -23807.400000 0 0 1
26.601664 -18.132305 20.208647 38.010767 -0.598286 1.010242 0.043259 -0.002790 -57708.700000 0 0 1
27.012364 -17.047605 21.039847 38.248710 -0.562977 0.988336 0.045416 -0.019448 -37176.300000 0 0 1
26.801364 -17.119105 22.473947 38.941689 -0.568419 0.955601 0.053041 -0.019195 -150487.000000 0 0 1
26.887864 -15.684205 23.053147 38.734985 -0.528064 0.933343 0.068671 -0.017888 389133.000000 0 0 1
25.641564 -14.973505 22.988647 37.552277 -0.528538 0.911985 0.041191 -0.023298 279818.000000 0 0 1
25.636264 -13.757005 23.681047 37.513534 -0.492515 0.887611 0.043125 -0.024281 -63951.900000 0 0 1
24.332164 -12.960305 23.557947 36.262937 -0.489418 0.863682 0.049474 -0.025603 96403.400000 0 0 1
23.216764 -13.593405 24.145547 36.149775 -0.529689 0.839371 0.064174 -0.022168 -755038.000000 0 0 1
22.018064 -13.008705 23.795947 34.932344 -0.533642 0.821394 0.079953 -0.023572 -673917.000000 0 0 1
20.763864 -13.736405 24.296947 34.787476 -0.584454 0.797582 0.078655 -0.021007 -141121.000000 0 0 1
20.434064 -14.843205 23.470447 34.478016 -0.628222 0.822029 0.088196 -0.025567 734029.000000 0 0 1
19.039464 -15.168405 23.539147 33.862563 -0.672715 0.802185 0.110937 -0.026823 679660.000000 0 0 1
18.702464 -16.332405 22.632747 33.597185 -0.717852 0.831660 0.120646 -0.030349 -96803.500000 0 0 1
19.233764 -17.553405 23.101647 34.810139 -0.739752 0.845113 0.100507 -0.022870 177140.000000 0 0 1
18.784164 -18.596705 22.289947 34.576350 -0.780383 0.870219 0.128212 -0.024352 -226998.000000 0 0 1
19.257064 -19.974205 22.667247 35.827468 -0.803676 0.885790 0.103267 -0.019955 -162434.000000 0 0 1
18.529664 -20.501205 23.793847 36.466354 -0.835868 0.859934 0.112751 -0.023673 391072.000000 0 0 1
18.730664 -21.848005 24.054447 37.507193 -0.862070 0.874567 0.114575 -0.027180 -425077.000000 0 0 1
18.261064 -22.917905 23.015047 37.261095 -0.898008 0.905020 0.117396 -0.027224 417946.000000 0 0 1
19.116464 -23.174305 21.877647 37.163410 -0.881056 0.941362 0.106990 -0.016227 1021850.000000 0 0 1
20.339064 -23.896905 22.098047 38.380506 -0.865654 0.957260 0.087773 -0.021727 620024.000000 0 0 1
21.316464 -23.961805 20.912347 38.286891 -0.843756 0.992974 0.073090 -0.011269 -65837.600000 0 0 1
20.734264 -24.728205 19.864947 37.894722 -0.873025 1.019004 0.080948 -0.022607 699070.000000 0 0 1
21.639464 -25.097605 18.800247 38.099940 -0.859255 1.054750 0.079297 -0.016510 658552.000000 0 0 1
20.858264 -25.849805 17.684747 37.630172 -0.891861 1.081549 0.085271 -0.023406 481381.000000 0 0 1
20.203764 -27.060505 18.117447 38.323686 -0.929465 1.078390 0.089843 -0.031935 67958.100000 0 0 1
19.574464 -27.650605 17.030547 37.917741 -0.954774 1.104989 0.096161 -0.033325 -575855.000000 0 0 1
18.627364 -28.772005 17.415647 38.446218 -0.996242 1.100683 0.085408 -0.029080 -1013980.000000 0 0 1
17.632964 -28.308805 18.248847 38.017499 -1.013724 1.070128 0.112996 -0.039943 -784564.000000 0 0 1
16.860164 -29.441005 18.621047 38.701179 -1.050710 1.068831 0.125587 -0.043176 -370244.000000 0 0 1
15.675164 -29.088105 19.509947 38.372733 -1.076526 1.037433 0.122502 -0.039780 -354121.000000 0 0 1
14.727564 -28.284605 18.830447 37.033846 -1.090733 1.037394 0.114780 -0.038918 -188322.000000 0 0 1
13.522064 -28.175205 19.564847 36.871013 -1.123335 1.011453 0.099410 -0.035495 845291.000000 0 0 1
12.372064 -27.529605 18.670247 35.489791 -1.148434 1.016819 0.106348 -0.043496 650419.000000 0 0 1
11.805764 -28.533805 17.811147 35.648156 -1.178496 1.047616 0.120111 -0.047921 101164.000000 0 0 1
11.332264 -27.938805 16.617547 34.425861 -1.185463 1.067055 0.120844 -0.040770 -29258.000000 0 0 1
11.108964 -29.043305 15.548247 34.765941 -1.205470 1.107134 0.122722 -0.036215 164639.000000 0 0 1
9.975264 -29.883605 15.745347 35.220047 -1.248622 1.107324 0.127313 -0.038018 177211.000000 0 0 1
9.755364 -30.721405 14.649847 35.406071 -1.263324 1.144209 0.116560 -0.029631 6129.320000 0 0 1
8.360964 -31.384005 14.543147 35.586017 -1.310435 1.149794 0.118614 -0.025853 -144705.000000 0 0 1
8.175864 -32.380705 15.531047 36.831620 -1.323474 1.135502 0.140357 -0.034113 223439.000000 0 0 1
7.217864 -33.373305 15.156947 37.357838 -1.357800 1.153026 0.109097 -0.028219 155775.000000 0 0 1
7.231064 33.140342 16.206847 37.592984 1.355968 1.125070 0.116140 -0.036512 -454414.000000 0 0 1
8.325564 32.275742 16.223547 37.070770 1.318348 1.117827 0.134461 -0.038215 -456348.000000 0 0 1
8.180264 31.339542 17.274347 36.708128 1.315473 1.080841 0.116460 -0.047150 -478998.000000 0 0 1
9.506864 30.684542 17.620447 36.638801 1.270350 1.069089 0.150168 -0.045611 -552480.000000 0 0 1
10.008664 29.912142 16.546347 35.618692 1.247904 1.087680 0.140770 -0.041129 1167040.000000 0 0 1
11.391764 29.521342 16.770747 35.812566 1.202519 1.083439 0.144918 -0.045175 1511830.000000 0 0 1
12.043264 28.734042 15.581847 34.835030 1.173909 1.107048 0.138968 -0.036847 64919.200000 0 0 1
11.651164 27.393842 15.387547 33.510428 1.168654 1.093717 0.162237 -0.038145 -36042.900000 0 0 1
12.415464 26.782442 14.354147 32.825059 1.136717 1.118211 0.150957 -0.030885 295394.000000 0 0 1
-9.476177 -9.303158 19.142185 23.297424 0.776185 0.606507 0.055081 -0.017815 -28358.700000 0 1 0
-9.583277 -9.301858 17.740485 22.205598 0.770498 0.645300 0.051134 -0.021575 -24574.000000 0 1 0
-9.522377 -10.634058 17.234585 22.378333 0.840495 0.691726 0.062551 -0.026377 66151.000000 0 1 0
-9.857877 -10.877758 15.721285 21.509583 0.834543 0.751161 0.068298 -0.025443 -56974.600000 0 1 0
-11.239977 -10.622658 15.543485 21.926648 0.757169 0.782879 0.065069 -0.022339 159359.000000 0 1 0
-11.838277 -11.144958 14.383385 21.707986 0.755241 0.846532 0.084444 -0.025044 89113.800000 0 1 0
-11.864977 -12.678058 14.201285 22.431838 0.818515 0.885263 0.066980 -0.022853 -699209.000000 0 1 0
-10.590577 -13.183758 13.869785 21.871048 0.894043 0.883872 0.083566 -0.026013 6735.940000 0 1 0
-10.532377 -14.610658 14.014685 22.821343 0.946201 0.909546 0.088582 -0.020943 -124267.000000 0 1 0
-10.345577 -15.120958 15.496785 23.996348 0.970761 0.868729 0.101648 -0.020167 155650.000000 0 1 0
-11.482077 -14.952358 16.314785 24.931573 0.915931 0.857431 0.097074 -0.014827 -109910.000000 0 1 0
-11.077277 -15.130358 17.652185 25.753319 0.938835 0.815598 0.122021 -0.019235 -126594.000000 0 0 1
-12.117477 -14.667558 18.682985 26.665042 0.880317 0.794482 0.076872 -0.016210 -715099.000000 0 0 1
-12.405777 -13.274158 18.647585 26.035342 0.819201 0.772395 0.077027 -0.013953 177402.000000 0 0 1
-13.533277 -12.950958 17.845885 25.871848 0.763414 0.809611 0.087061 -0.020051 373365.000000 0 0 1
-14.921977 -13.211258 18.494685 27.189265 0.724665 0.822733 0.057708 -0.014267 -229843.000000 0 0 1
-15.343777 -14.554758 18.683185 28.219389 0.759014 0.847220 0.067918 -0.016371 -59675.400000 0 0 1
-16.383677 -14.549458 19.655785 29.435718 0.726171 0.839610 0.078590 -0.018136 95024.200000 0 0 1
-16.921077 -15.939058 20.063685 30.707131 0.755522 0.858744 0.096420 -0.028088 -90270.600000 0 0 1
-17.892477 -16.394358 19.135185 30.904224 0.741732 0.903102 0.094150 -0.018824 41499.800000 0 0 1
-18.218577 -17.749258 19.463785 32.027982 0.772351 0.917620 0.080667 -0.019272 -175654.000000 0 0 1
-19.543777 -18.194858 18.818885 32.667454 0.749670 0.956878 0.091672 -0.020963 -154930.000000 0 0 1
-19.546377 -18.380558 17.375085 31.965597 0.754669 0.996129 0.101328 -0.024576 27383.700000 0 0 1
-19.877677 -17.183658 16.659185 31.111551 0.712835 1.005737 0.104752 -0.028173 -208850.000000 0 0 1
-19.529377 -17.134658 15.128585 30.064384 0.720176 1.043491 0.102722 -0.023949 -21411.900000 0 0 1
-20.207177 -18.209558 14.450685 30.801629 0.733446 1.082465 0.107391 -0.025063 388180.000000 0 0 1
-19.741677 -18.300258 13.108885 29.941211 0.747526 1.117623 0.096589 -0.026797 137370.000000 0 0 1
-20.115177 -19.635458 12.383785 30.716929 0.773331 1.155831 0.104282 -0.022644 472919.000000 0 0 1
-19.336777 -20.734858 12.946085 31.168035 0.820274 1.142453 0.108765 -0.028057 452446.000000 0 0 1
-19.233877 -21.863058 12.096385 31.531855 0.849286 1.177079 0.092994 -0.025648 -426034.000000 0 0 1
-18.446177 -23.041658 12.670285 32.120330 0.895715 1.165313 0.090610 -0.022438 -182282.000000 0 0 1
-18.164977 -24.132258 11.816685 32.434030 0.925553 1.197883 0.102049 -0.037371 302046.000000 0 0 1
-17.156077 -23.992758 10.828585 31.420402 0.950039 1.218946 0.083053 -0.033170 -190509.000000 0 0 1
-17.279577 -25.144168 9.792485 32.042249 0.968699 1.260216 0.076375 -0.036390 -715630.000000 0 0 1
-18.417377 -25.021778 9.022485 32.352657 0.936281 1.288169 0.066768 -0.032081 -887551.000000 0 0 1
-18.761477 -26.188468 8.327085 33.274153 0.949147 1.317851 0.083196 -0.031842 341056.000000 0 0 1
-20.054877 -26.100198 7.474785 33.753383 0.915635 1.347492 0.066728 -0.030009 261691.000000 0 0 1
-20.042777 -25.101898 6.427385 32.758655 0.896997 1.373311 0.076283 -0.032905 -261025.000000 0 0 1
-21.074077 -25.298628 5.498985 33.382273 0.876247 1.405314 0.096081 -0.027227 -66222.500000 0 0 1
-21.046077 -24.042258 4.634285 32.286903 0.851752 1.426764 0.102920 -0.031787 6785.800000 0 0 1
-21.987277 -23.964758 3.587685 32.720353 0.828405 1.460929 0.112400 -0.032253 -52930.100000 0 0 1
-22.001677 -22.642258 3.005585 31.714022 0.799746 1.475882 0.124646 -0.028201 295892.000000 0 0 1
-22.735177 -22.531558 1.649185 32.051197 0.780900 1.519319 0.119618 -0.023010 85797.900000 0 0 1
-22.014377 -23.297258 0.724185 32.061183 0.813703 1.548207 0.098142 -0.029123 79203.300000 0 0 1
-22.467677 -23.170758 -0.631215 32.281248 0.800802 1.590351 0.122912 -0.031342 1563.330000 0 0 1
-21.665277 -24.107458 -1.575715 32.450526 0.838702 1.619373 0.123640 -0.034042 -504927.000000 0 0 1
-20.318077 -23.759058 -1.724115 31.309578 0.863307 1.625891 0.113351 -0.034892 -22212.300000 0 0 1
-19.637377 -24.299958 -2.884115 31.375670 0.891121 1.662848 0.090910 -0.021210 234729.000000 0 0 1
-19.421777 -25.807478 -2.979615 32.436237 0.925656 1.662787 0.106035 -0.022382 -490919.000000 0 0 1
-20.562077 -26.616518 -3.151315 33.781191 0.913031 1.664218 0.161823 -0.032257 -90338.500000 0 0 1
-20.098177 -27.912568 -3.514915 34.574598 0.946747 1.672634 0.165064 -0.023374 -159819.000000 0 0 1
-21.168077 -28.859138 -4.049815 36.018583 0.937941 1.683471 0.174885 -0.029403 -541000.000000 0 0 1
-21.729477 -28.372348 -5.206415 36.114638 0.917217 1.715464 0.170457 -0.023145 -471227.000000 0 0 1
-22.679577 -29.222238 -5.778715 37.439230 0.910795 1.725765 0.187272 -0.047659 -315090.000000 0 0 1
-23.156077 -28.556338 -7.045415 37.434025 0.889450 1.760134 0.167450 -0.011904 -421566.000000 0 0 1
-22.136577 -28.333948 -7.991215 36.833411 0.907578 1.789491 0.179715 -0.010256 -24419.100000 0 0 1
-22.516577 -28.326058 -9.354615 37.374732 0.899169 1.823779 0.164672 -0.010873 40680.000000 0 0 1
-23.471877 -27.221868 -9.961415 37.298645 0.859237 1.841149 0.135770 0.001706 146477.000000 0 0 1
-23.030977 -25.926168 -10.319615 36.181301 0.844467 1.860032 0.134378 0.001979 -52924.200000 0 0 1
-22.496477 -25.135128 -9.279815 34.985441 0.840739 1.839257 0.124570 -0.007472 84926.000000 0 0 1
-22.109977 -23.638958 -9.624715 33.768129 0.818807 1.859827 0.085263 -0.007812 18904.400000 0 0 1
-23.191077 -22.743758 -9.732015 33.908947 0.775660 1.861894 0.115565 -0.008970 29367.200000 0 0 1
-22.776077 -21.518658 -10.221015 32.958633 0.757018 1.886112 0.096884 -0.007042 -364998.000000 0 0 1
-23.973377 -20.588158 -10.239315 33.218047 0.709577 1.884145 0.111894 -0.002460 -599641.000000 0 0 1
-24.812277 -20.861658 -11.362615 34.350646 0.699117 1.907930 0.108649 -0.004943 -109649.000000 0 0 1
-26.048697 -20.208758 -11.350515 34.867789 0.659814 1.902369 0.110925 -0.006937 -359871.000000 0 0 1
-26.174857 -18.688758 -11.493015 34.153802 0.620058 1.914002 0.129224 -0.023833 -1251050.000000 0 0 1
-25.798997 -18.255858 -12.791215 34.095158 0.615821 1.955368 0.140465 -0.020543 424687.000000 0 0 1
-25.526587 -16.876058 -12.923015 33.217650 0.584151 1.970386 0.139680 -0.030819 881534.000000 0 0 1
-24.187577 -16.344258 -12.237315 31.653207 0.594251 1.967745 0.124740 -0.028471 459584.000000 0 0 1
-24.320877 -16.339158 -10.831615 31.237750 0.591559 1.924898 0.162349 -0.033151 107051.000000 0 0 1
-23.127977 -16.762758 -10.231815 30.341118 0.627166 1.914765 0.138307 -0.029808 -275282.000000 0 0 1
-23.283477 -16.870858 -8.691515 30.038119 0.627036 1.864344 0.115506 -0.046273 -2954.870000 0 0 1
-23.930777 -18.063058 -8.323215 31.116428 0.646569 1.841580 0.149014 -0.037042 139981.000000 0 0 1
-24.518477 -17.923658 -7.032615 31.174844 0.631247 1.798341 0.153980 -0.026731 -102850.000000 0 0 1
-25.310387 -19.160858 -6.610015 32.426015 0.647989 1.776084 0.164806 -0.018723 213124.000000 0 0 1
-26.296857 -19.611358 -7.534515 33.658565 0.640787 1.796561 0.141875 -0.036723 225850.000000 0 0 1
-26.884067 -20.844058 -7.172615 34.765992 0.659517 1.778600 0.145839 -0.018790 115192.000000 0 0 1
-26.578467 -21.972058 -8.138815 35.431999 0.690803 1.802568 0.123631 -0.016354 338560.000000 0 0 1
-27.429917 -23.098758 -7.913915 36.723058 0.699890 1.788003 0.128911 -0.010879 41006.400000 0 0 1
-26.921577 -24.195258 -8.663815 37.218860 0.732114 1.805732 0.108335 0.002106 542041.000000 0 0 1
-27.681787 -25.567218 -8.538215 38.637612 0.745708 1.793618 0.108679 -0.005769 234442.000000 0 0 1
-27.440227 -26.234548 -7.309815 38.660716 0.762939 1.761017 0.141825 -0.026123 26665.600000 0 0 1
-28.027827 -27.520508 -7.246915 39.943150 0.776265 1.753237 0.126797 -0.029036 87012.600000 0 0 1
-27.671487 -28.251588 -5.892515 39.982311 0.795771 1.718713 0.136092 -0.032637 238566.000000 0 0 1
-28.463467 -27.773948 -4.790115 40.056290 0.773138 1.690668 0.105867 -0.027884 548944.000000 0 0 1
-27.766097 -27.892768 -3.533915 39.515202 0.787674 1.660348 0.121782 -0.037033 231326.000000 0 0 1
-28.056487 -29.194188 -2.714115 40.581196 0.805268 1.637727 0.096936 -0.021972 -162754.000000 0 0 1
-27.395547 -30.234728 -3.391915 40.940931 0.834624 1.653740 0.114788 -0.040729 -34968.200000 0 0 1
-27.472157 -31.468098 -2.712815 41.860721 0.853091 1.635648 0.095761 -0.046313 -6369.840000 0 0 1
-26.476647 -31.725388 -1.546515 41.350995 0.875336 1.608205 0.103497 -0.043118 -95334.400000 0 0 1
-25.133777 -31.719988 -2.005615 40.520203 0.900729 1.620313 0.122924 -0.054760 -17746.600000 0 0 1
-24.283077 -31.906758 -0.865615 40.105590 0.920252 1.592381 0.145693 -0.034032 594955.000000 0 0 1
-23.086377 -30.883508 -0.851115 38.568073 0.928877 1.592866 0.148499 -0.031748 196580.000000 0 0 1
-23.377577 -29.557638 -0.561915 37.689267 0.901620 1.585706 0.122580 -0.029364 -165524.000000 0 0 1
-23.896477 -28.879988 -1.720315 37.524056 0.879546 1.616658 0.155842 -0.034058 -287228.000000 0 0 1
-24.434777 -27.470118 -1.447015 36.793472 0.843811 1.610134 0.095316 -0.021072 -816253.000000 0 0 1
-25.687167 -27.539008 -0.867615 37.669355 0.820176 1.593831 0.116927 -0.024455 -973658.000000 0 0 1
-26.214277 -26.299178 -0.400915 37.134833 0.787015 1.581593 0.143451 -0.038853 48046.900000 0 0 1
-25.578897 -25.600008 0.809285 36.198002 0.785811 1.548437 0.144297 -0.030709 -203755.000000 0 0 1
-25.737097 -26.257228 2.075785 36.825929 0.795401 1.514399 0.129188 -0.030481 -201438.000000 0 0 1
-25.072277 -25.651978 3.180485 36.010534 0.796826 1.482360 0.149027 -0.024983 228800.000000 0 0 1
-25.772867 -24.439458 3.883685 35.729691 0.758849 1.461885 0.174768 -0.035887 147284.000000 0 0 1
-26.084667 -23.334658 3.005185 35.127586 0.729809 1.485141 0.163110 -0.031579 424493.000000 0 0 1
-26.998077 -22.474158 3.700685 35.322500 0.694208 1.465835 0.178581 -0.023792 298492.000000 0 0 1
-27.386967 -21.304458 2.832885 34.813089 0.661122 1.489332 0.165911 -0.017686 474329.000000 0 0 1
-26.267417 -20.433258 2.684485 33.387149 0.661115 1.490305 0.148741 -0.017713 426911.000000 0 0 1
-26.316287 -19.749358 1.463185 32.935164 0.643796 1.526355 0.122578 -0.006768 145164.000000 0 0 1
-25.127847 -18.806058 1.277485 31.411916 0.642486 1.530116 0.126826 0.000388 -331393.000000 0 0 1
-23.815277 -19.247958 1.163485 30.643189 0.679732 1.532818 0.134912 -0.009164 -569516.000000 0 0 1
-22.890077 -18.206858 1.264985 29.275339 0.671932 1.527573 0.119799 -0.008388 644578.000000 0 0 1
-21.423177 -18.760558 1.454985 28.513647 0.719234 1.519746 0.098136 -0.016257 927746.000000 0 0 1
-20.868677 -19.307858 0.254785 28.431672 0.746569 1.561835 0.064199 -0.012710 873263.000000 0 0 1
-19.741377 -20.205258 0.381885 28.251022 0.797010 1.557278 0.093739 -0.018133 660813.000000 0 0 1
-19.222077 -20.779858 -0.925715 28.322212 0.824321 1.603487 0.093105 -0.017848 -348962.000000 0 0 1
-18.658277 -19.795558 -1.735815 27.258182 0.814965 1.634520 0.097725 -0.024091 -90522.500000 0 0 1
-18.313477 -20.444458 -2.927715 27.603094 0.840325 1.677061 0.081331 -0.016599 -86046.500000 0 0 1
-17.735377 -19.424958 -3.905815 26.591878 0.830834 1.718210 0.092272 -0.010367 -552134.000000 0 0 1
-16.431677 -19.013158 -3.656115 25.394239 0.858101 1.715273 0.126093 -0.030123 -575045.000000 0 0 1
-15.905177 -18.343558 -4.772715 24.743476 0.856474 1.764901 0.130229 -0.024664 -100861.000000 0 1 0
-14.407177 -17.993958 -4.755215 23.536383 0.895649 1.774233 0.142826 -0.034353 229096.000000 0 1 0
-13.501677 -19.086858 -4.997415 23.907689 0.955134 1.781379 0.106161 -0.032583 481615.000000 0 1 0
-12.243577 -18.644058 -5.478015 22.967689 0.989725 1.811627 0.110305 -0.043352 130662.000000 0 1 0
-11.109277 -19.675558 -5.483215 23.251006 1.056795 1.808866 0.103364 -0.049009 88907.500000 0 1 0
-11.422877 -20.823358 -6.335715 24.581205 1.069059 1.831485 0.084991 -0.037500 581709.000000 0 1 0
-10.203277 -21.521158 -6.664815 24.732304 1.128079 1.843647 0.095747 -0.031595 574829.000000 0 1 0
-10.374977 -22.898158 -7.380215 26.199873 1.145374 1.856350 0.079011 -0.004154 -282534.000000 0 0 1
-10.897177 -22.759358 -8.651515 26.675561 1.124252 1.901093 0.075825 -0.007414 -209760.000000 0 0 1
-10.519177 -23.820958 -9.469215 27.708431 1.154955 1.919569 0.097884 -0.007556 94549.700000 0 0 1
-11.164077 -23.700858 -10.897015 28.374499 1.130583 1.964967 0.139394 -0.011517 395392.000000 0 0 1
-10.563177 -22.720958 -11.742215 27.671325 1.135614 2.009036 0.117363 -0.011551 302477.000000 0 0 1
-11.435077 -22.460258 -12.836915 28.284458 1.099875 2.041878 0.127324 -0.022056 -261476.000000 0 0 1
-11.055477 -21.239958 -13.692115 27.583209 1.090881 2.090235 0.097319 -0.001027 -316071.000000 0 0 1
-11.062577 -19.986658 -12.967115 26.267721 1.065271 2.087081 0.094400 -0.011793 -88443.700000 0 0 1
-10.774177 -18.907258 -13.799615 25.768133 1.052846 2.135932 0.082968 0.003328 -249012.000000 0 0 1
-10.647777 -17.603258 -13.033415 24.354050 1.026800 2.135498 0.099827 0.006764 430393.000000 0 1 0
-11.886077 -17.135658 -12.480015 24.303505 0.964348 2.110063 0.127272 -0.005283 427453.000000 0 1 0
-11.749477 -16.069358 -11.529615 23.004489 0.939454 2.095769 0.131290 -0.017936 11818.200000 0 1 0
-11.290477 -14.667858 -12.001915 22.060528 0.914779 2.146047 0.117761 -0.014214 -64549.500000 0 1 0
-12.293877 -13.930258 -12.661715 22.483561 0.847717 2.168994 0.104952 -0.007238 -405617.000000 0 1 0
-12.034977 -13.701758 -14.014515 22.999684 0.850071 2.226018 0.106722 -0.006870 -285276.000000 0 1 0
-13.106477 -12.837058 -14.689415 23.502100 0.775014 2.245961 0.091115 -0.003650 -193737.000000 0 1 0
-13.265477 -11.541958 -14.169215 22.582212 0.716034 2.249071 0.079473 -0.007985 10163.500000 0 1 0
-14.178077 -10.841458 -14.997915 23.312926 0.652820 2.269637 0.070368 -0.013573 -111553.000000 0 1 0
-14.385377 -9.430058 -14.351315 22.401458 0.580253 2.266130 0.063051 -0.020371 728736.000000 0 1 0
-13.267177 -8.512558 -14.467715 21.396177 0.570465 2.313365 0.053338 -0.019277 948502.000000 0 1 0
-13.203077 -7.910558 -15.712415 21.994957 0.539791 2.366512 0.057638 -0.016983 -49329.700000 0 1 0
-12.041877 -6.886558 -15.818315 21.039262 0.519489 2.421656 0.043491 -0.012770 1060780.000000 0 1 0
-10.778977 -7.545358 -16.092415 20.786644 0.610731 2.456200 0.042979 -0.009101 1097130.000000 0 1 0
-9.691077 -6.686058 -15.765015 19.676281 0.603928 2.500126 0.028642 -0.004666 237932.000000 0 1 0
11.809123 21.787542 15.738685 29.357428 1.074106 1.004979 0.147078 -0.023562 -247011.000000 0 0 1
12.744323 21.819642 16.765285 30.324731 1.042168 0.985006 0.150727 -0.028026 -320764.000000 0 0 1
13.177223 20.509842 17.063985 29.756889 0.999724 0.960090 0.120585 -0.031209 -31516.000000 0 0 1
14.248323 20.517242 18.191685 30.901607 0.963801 0.941350 0.113382 -0.034756 292204.000000 0 0 1
15.467023 21.071342 17.711685 31.574262 0.937594 0.975259 0.098521 -0.032441 718104.000000 0 0 1
16.571023 20.700442 18.585485 32.380972 0.895741 0.959459 0.111260 -0.036938 918166.000000 0 0 1
17.951023 21.109442 18.027185 33.057937 0.866082 0.994024 0.079626 -0.029419 -895251.000000 0 0 1
18.233323 22.514042 18.001285 34.108392 0.890069 1.014827 0.089016 -0.029039 644629.000000 0 0 1
19.510723 22.779542 17.397985 34.673704 0.862540 1.045160 0.078063 -0.022453 1209670.000000 0 0 1
20.837223 22.365942 18.109385 35.529918 0.820768 1.035967 0.062660 -0.026446 -176898.000000 0 0 1
21.066523 20.945042 18.116385 34.795066 0.782507 1.023173 0.079266 -0.022981 770727.000000 0 0 1
22.405123 20.668642 18.579885 35.698661 0.745106 1.023401 0.103391 -0.027963 856469.000000 0 0 1
22.767923 19.193542 18.297885 34.951151 0.700421 1.019811 0.100194 -0.029012 -294568.000000 0 0 1
23.000223 18.971642 16.928985 34.285915 0.689708 1.054389 0.061826 -0.022502 145779.000000 0 0 1
22.688523 17.599142 16.555785 33.145028 0.659738 1.047780 0.058853 -0.022083 -263366.000000 0 0 1
23.736523 16.516742 16.964085 33.526191 0.607926 1.040261 0.059295 -0.022700 -455780.000000 0 0 1
24.919523 16.664342 16.233885 34.091376 0.589427 1.074482 0.069809 -0.037992 -698765.000000 0 0 1
25.810923 15.736642 16.755185 34.562724 0.547514 1.064689 0.052054 -0.021089 -765940.000000 0 0 1
27.080723 15.497742 15.885485 35.012772 0.519787 1.099877 0.179728 -0.050113 -40014.400000 0 0 1
28.065923 16.539342 15.994985 36.291671 0.532517 1.114380 0.154549 -0.041998 644896.000000 0 0 1
29.019523 16.429842 17.066085 37.460962 0.515169 1.097784 0.166751 -0.050658 -617304.000000 0 0 1
30.169223 15.569042 16.589485 37.786083 0.476411 1.116270 0.161431 -0.055800 -1166520.000000 0 0 1
30.994823 16.120542 15.544585 38.238528 0.479601 1.152158 0.213184 -0.055637 1225900.000000 0 0 1
31.891923 15.178042 14.867185 38.321024 0.444200 1.172375 0.213866 -0.061344 1019680.000000 0 0 1
31.154323 14.706042 13.591085 37.034809 0.441029 1.195034 0.180711 -0.057247 -187866.000000 0 0 1
31.327223 15.463842 12.399385 37.071149 0.458533 1.229748 0.183673 -0.041937 282082.000000 0 0 1
30.338623 15.217942 11.392785 35.802421 0.464929 1.246953 0.167879 -0.038604 824488.000000 0 0 1
28.919923 15.808842 11.611585 34.944389 0.500261 1.232068 0.148626 -0.043969 -127377.000000 0 0 1
28.803523 17.171442 11.160385 35.341980 0.537589 1.249515 0.129670 -0.028518 -105942.000000 0 0 1
29.405023 18.257842 11.889885 36.597453 0.555652 1.239908 0.141104 -0.044335 26460.500000 0 0 1
28.880523 18.493342 13.336485 36.796061 0.569554 1.199908 0.142653 -0.046613 -586448.000000 0 0 1
27.600723 19.027842 13.386985 36.098062 0.603574 1.190872 0.141787 -0.035808 -433407.000000 0 0 1
26.949123 18.905642 14.689285 36.047935 0.611753 1.151089 0.115385 -0.033679 -57818.400000 0 0 1
27.473723 19.683042 15.905785 37.352665 0.621669 1.130920 0.118550 -0.030364 -293485.000000 0 0 1
27.390123 21.078942 15.861185 38.027856 0.655916 1.140551 0.097066 -0.016550 -267225.000000 0 0 1
26.118023 21.477142 16.309385 37.542174 0.688198 1.121393 0.084559 -0.014855 -127341.000000 0 0 1
25.951323 22.995442 16.200185 38.271497 0.725082 1.133716 0.079671 -0.011469 -28057.700000 0 0 1
25.778123 23.431042 14.845285 37.866976 0.737738 1.167951 0.101667 -0.026132 44316.500000 0 0 1
26.088123 24.771942 14.651685 38.844706 0.759525 1.184040 0.106450 -0.026807 -239340.000000 0 0 1
25.784123 25.184242 13.167385 38.372478 0.773629 1.220531 0.095483 -0.032290 -404224.000000 0 0 1
24.438023 25.367442 12.839085 37.490881 0.804057 1.221264 0.108894 -0.030844 -447932.000000 0 0 1
24.156623 25.601742 11.470285 37.021062 0.814433 1.255781 0.104979 -0.043848 58277.900000 0 0 1
23.533323 24.387542 10.714085 35.543791 0.803222 1.264601 0.117571 -0.046950 -500808.000000 0 0 1
22.175423 24.134142 10.982085 34.566058 0.827669 1.247480 0.109770 -0.041213 -298936.000000 0 0 1
21.767123 22.829042 10.575885 33.268937 0.809206 1.247292 0.105176 -0.034451 70058.600000 0 0 1
21.482423 22.634342 9.092285 32.503501 0.811503 1.287281 0.124327 -0.033507 899606.000000 0 0 1
20.166823 23.008242 8.599985 31.781122 0.851115 1.296780 0.129334 -0.034853 1293550.000000 0 0 1
20.404123 23.469742 7.308785 31.946445 0.855158 1.339970 0.126600 -0.039921 1044750.000000 0 0 1
19.102823 23.832842 6.451585 31.217706 0.895121 1.362632 0.117392 -0.039052 -18941.800000 0 0 1
18.466523 22.656942 6.044985 29.847803 0.886946 1.366859 0.116114 -0.029381 3146.560000 0 0 1
17.687623 22.796242 4.877585 29.262800 0.910924 1.403333 0.127294 -0.036143 -981954.000000 0 0 1
16.332323 23.448442 5.028285 29.014787 0.962409 1.396616 0.080075 -0.028685 -1432910.000000 0 0 1
16.311023 24.791542 5.394185 30.162348 0.988869 1.390991 0.088796 -0.031764 1615000.000000 0 0 1
14.919023 25.135842 5.712685 29.782924 1.035143 1.377789 0.083531 -0.033437 1723830.000000 0 0 1
14.604423 26.606742 5.394585 30.827089 1.068799 1.394896 0.068584 -0.028589 -405558.000000 0 0 1
14.451423 26.807842 3.970085 30.712629 1.076380 1.441168 0.051527 -0.023400 264906.000000 0 0 1
14.431723 28.211542 3.688485 31.902518 1.097948 1.454920 0.031452 -0.021535 -200038.000000 0 0 1
13.857323 28.627842 2.342185 31.891450 1.119989 1.497288 0.045999 -0.022160 104073.000000 0 0 1
14.715123 28.277142 1.250185 31.901325 1.090971 1.531597 0.073707 -0.027464 29561.000000 0 0 1
14.229023 27.164442 0.617185 30.671696 1.088282 1.550673 0.045905 -0.020072 79278.600000 0 0 1
15.181023 26.588242 -0.469215 30.620552 1.051998 1.586120 0.058856 -0.023527 240683.000000 0 0 1
15.329123 27.299142 -1.685515 31.353885 1.059149 1.624580 0.056316 -0.008771 -357449.000000 0 0 1
16.241523 26.689742 -2.569515 31.348553 1.024128 1.652854 0.067954 -0.007507 49557.500000 0 0 1
16.253023 27.347642 -3.944515 32.056411 1.034570 1.694158 0.094656 -0.018726 246557.000000 0 0 1
15.047523 27.051642 -4.628215 31.299196 1.063166 1.719211 0.121194 -0.025166 -349078.000000 0 0 1
15.122223 27.446442 -6.008715 31.907577 1.067207 1.760244 0.127580 -0.031585 941009.000000 0 0 1
13.817123 27.137942 -6.839415 31.211510 1.099860 1.791720 0.141187 -0.041816 883732.000000 0 0 1
13.655223 25.752042 -7.143315 30.010993 1.083236 1.811126 0.128237 -0.027349 -26588.300000 0 0 1
12.513823 25.483042 -7.953815 29.482950 1.114322 1.843958 0.113383 -0.034644 297497.000000 0 0 1
12.253623 23.953442 -8.132715 28.108001 1.097944 1.864332 0.117140 -0.022375 -218800.000000 0 0 1
13.102923 23.274042 -9.001015 28.184852 1.058039 1.895847 0.114429 -0.025914 -201249.000000 0 0 1
12.530523 22.072242 -9.334615 27.043167 1.054462 1.923221 0.126618 -0.021289 36656.400000 0 0 1
13.156323 21.533242 -10.680315 27.401432 1.022344 1.971180 0.138979 -0.032274 113037.000000 0 0 1
12.586423 20.309542 -11.117915 26.353435 1.015996 2.006311 0.155667 -0.038246 -143893.000000 0 0 1
12.717623 19.989042 -12.485115 26.780176 1.004162 2.055795 0.141357 -0.041436 1269200.000000 0 0 1
14.035223 19.310442 -13.086515 27.223841 0.942296 2.072250 0.142453 -0.035346 1372980.000000 0 0 1
15.245123 20.035142 -13.091915 28.376379 0.920344 2.050331 0.115790 -0.031115 -87076.400000 0 0 1
16.280423 19.316942 -13.735315 28.755091 0.870494 2.068792 0.107489 -0.026533 -46696.100000 0 0 1
17.625423 20.066942 -13.714915 30.023933 0.850083 2.045190 0.103455 -0.017599 -349158.000000 0 0 1
17.740023 21.276642 -14.397815 31.220201 0.875795 2.050109 0.103205 -0.024611 167696.000000 0 0 1
17.016523 22.415842 -13.896615 31.387066 0.921478 2.029459 0.102204 -0.026383 -148719.000000 0 0 1
17.613423 23.665442 -14.514615 32.877954 0.930974 2.028032 0.089650 -0.025458 -92982.900000 0 0 1
17.526323 23.969442 -15.913915 33.689150 0.939440 2.062780 0.080851 -0.016547 546617.000000 0 0 1
16.177923 24.137342 -16.382715 33.357605 0.980321 2.084176 0.068986 -0.013448 642404.000000 0 0 1
16.151723 24.339442 -17.914615 34.266894 0.984918 2.120925 0.065237 0.001210 274602.000000 0 0 1
16.604223 23.183342 -18.631215 34.063026 0.949271 2.149528 0.070103 0.004411 -87615.000000 0 0 1
16.483023 23.285842 -20.037515 34.862910 0.954817 2.183097 0.059534 0.008169 -278344.000000 0 0 1
16.786823 21.985942 -20.840515 34.633887 0.918695 2.216471 0.079022 0.006515 92272.100000 0 0 1
15.900423 20.853242 -20.777615 33.457292 0.919348 2.240838 0.081705 -0.001263 -3173.120000 0 0 1
16.387523 19.694442 -21.423615 33.397503 0.876793 2.267214 0.096888 -0.001341 -72583.400000 0 0 1
15.288223 18.645342 -21.674615 32.421713 0.884009 2.303015 0.089160 -0.005777 -52192.800000 0 0 1
14.868023 17.846942 -20.553515 31.016421 0.876205 2.295169 0.085136 -0.006927 523143.000000 0 0 1
13.866223 16.905942 -20.935315 30.271611 0.883860 2.334474 0.072662 -0.007525 748346.000000 0 0 1
12.360823 17.193742 -20.672715 29.593510 0.947489 2.344173 0.081097 -0.020024 147166.000000 0 0 1
11.985423 17.180042 -19.338515 28.509338 0.961658 2.316273 0.081534 -0.029473 348684.000000 0 0 1
10.658323 17.728242 -19.284815 28.280638 1.029491 2.321165 0.082420 -0.037761 114815.000000 0 0 1
9.965923 17.246042 -17.992915 26.841955 1.046810 2.305447 0.099982 -0.037827 -733884.000000 0 0 1
9.714923 15.830242 -18.001615 25.865700 1.020369 2.340559 0.120405 -0.064396 1104870.000000 0 0 1
8.343723 15.453642 -18.288915 25.355811 1.075725 2.376461 0.136941 -0.046695 1243620.000000 0 0 1
7.383523 15.444642 -17.084915 24.185692 1.124851 2.355204 0.138274 -0.047730 -68714.000000 0 1 0
7.070123 16.764942 -16.667715 24.675142 1.171707 2.312420 0.144286 -0.045883 -702223.000000 0 1 0
6.424723 16.814042 -15.458615 23.726733 1.205812 2.280392 0.122674 -0.052453 -558217.000000 0 1 0
6.015923 18.288442 -15.070615 24.449578 1.252999 2.234954 0.101743 -0.049818 955822.000000 0 1 0
7.140623 19.208342 -14.805015 25.281166 1.214882 2.196434 0.106275 -0.045883 1291500.000000 0 0 1
7.948523 19.546742 -15.943615 26.447173 1.184577 2.217862 0.114156 -0.037920 -16979.200000 0 0 1
9.106023 20.495142 -15.570015 27.301939 1.152691 2.177655 0.101459 -0.023436 -17014.400000 0 0 1
8.695523 21.705542 -15.036915 27.800206 1.189762 2.142294 0.088624 -0.029194 -271067.000000 0 0 1
8.923623 21.783542 -13.626315 27.199820 1.181999 2.095516 0.100505 -0.027013 47557.600000 0 0 1
8.354723 23.063742 -12.916215 27.723026 1.223255 2.055450 0.092195 -0.033349 790947.000000 0 0 1
6.924123 23.176042 -13.020415 27.470049 1.280476 2.064608 0.067060 -0.029535 883459.000000 0 0 1
6.282423 24.073842 -12.087015 27.660705 1.315525 2.023028 0.061992 -0.032950 129337.000000 0 0 1
5.985923 23.500342 -10.711415 26.510974 1.321384 1.986722 0.054680 -0.039563 -690880.000000 0 0 1
7.043823 23.494542 -9.808015 26.416020 1.279517 1.951195 0.047281 -0.031942 -107934.000000 0 0 1
6.545623 22.818742 -8.676515 25.274930 1.291444 1.921209 0.049142 -0.041438 229040.000000 0 0 1
7.605523 22.768242 -7.550615 25.164431 1.248409 1.875543 0.050555 -0.033966 146713.000000 0 0 1
7.739723 24.029642 -6.934515 26.180422 1.259198 1.838870 0.047807 -0.032167 -207337.000000 0 0 1
8.930923 24.147142 -6.223115 26.487223 1.216545 1.807961 0.069824 -0.023079 -620547.000000 0 0 1
9.120123 25.588242 -5.790715 27.775297 1.228415 1.780821 0.061300 -0.022695 5501.710000 0 0 1
9.528023 26.512142 -6.769115 28.974088 1.225787 1.806602 0.077498 -0.037338 -80631.000000 0 0 1
9.481423 27.840242 -6.305315 30.078787 1.242551 1.781989 0.063792 -0.029582 50092.900000 0 0 1
9.818123 28.902942 -7.354715 31.398526 1.243333 1.807231 0.064705 -0.019697 216983.000000 0 0 1
11.206523 28.908442 -7.659015 31.936573 1.200977 1.812976 0.087605 -0.027567 52827.700000 0 0 1
11.534523 30.074942 -8.428615 33.295479 1.204572 1.826727 0.076815 -0.024527 48061.500000 0 0 1
12.991523 30.094042 -8.922515 33.971198 1.163267 1.836563 0.113687 -0.037384 -78453.300000 0 0 1
13.944823 30.315342 -7.922115 34.296326 1.139664 1.803892 0.105261 -0.028826 -1210600.000000 0 0 1
15.195323 30.389942 -8.518215 35.028651 1.107139 1.816438 0.104087 -0.029411 -594616.000000 0 0 1
16.370023 30.851642 -7.628415 35.749044 1.082966 1.785838 0.112884 -0.033308 107408.000000 0 0 1
17.016423 29.752042 -7.048215 34.991713 1.051264 1.773609 0.101220 -0.032225 -339062.000000 0 0 1
18.216223 30.170342 -6.435615 35.825933 1.027603 1.751412 0.090760 -0.025286 686241.000000 0 0 1
19.409623 29.190242 -6.212415 35.600531 0.983993 1.746198 0.083532 -0.024423 162463.000000 0 0 1
19.118123 28.212842 -5.257715 34.483484 0.975236 1.723864 0.090639 -0.029010 481082.000000 0 0 1
20.254123 27.444842 -4.808715 34.446663 0.935024 1.710853 0.076398 -0.025084 412567.000000 0 0 1
20.674323 26.229342 -5.643915 33.871223 0.903284 1.738206 0.079390 -0.016164 -196008.000000 0 0 1
21.032923 26.679242 -6.943215 34.675265 0.903192 1.772394 0.070481 -0.015664 177915.000000 0 0 1
20.831723 25.638142 -7.875715 33.960299 0.888463 1.804837 0.066826 -0.021995 -1366990.000000 0 0 1
21.356023 25.946442 -9.280315 34.862900 0.882139 1.840239 0.062258 -0.022315 853235.000000 0 0 1
22.784523 25.984842 -9.376615 35.808761 0.850926 1.835738 0.042929 -0.017927 734293.000000 0 0 1
23.499623 24.807342 -9.055115 35.350129 0.812463 1.829839 0.043668 -0.015738 -819885.000000 0 0 1
25.040623 24.946642 -9.139215 36.508807 0.783518 1.823816 0.035078 -0.009198 253731.000000 0 0 1
25.580623 25.130442 -10.449415 37.351006 0.776521 1.854343 0.034055 -0.005079 361157.000000 0 0 1
26.998023 25.182042 -10.320915 38.334707 0.750610 1.843391 0.033114 0.000069 655037.000000 0 0 1
27.815723 25.358942 -11.625915 39.394825 0.739229 1.870370 0.029300 0.001190 333408.000000 0 0 1
27.496223 26.609942 -12.305415 40.193961 0.769019 1.881943 0.029358 -0.000120 121629.000000 0 0 1
28.334023 26.722242 -13.465815 41.209504 0.756131 1.903675 0.031077 0.005118 376515.000000 0 0 1
28.139823 27.921542 -14.443615 42.190996 0.781505 1.920201 0.040404 -0.005298 -89135.500000 0 0 1
28.506723 29.232842 -14.018915 43.170850 0.797973 1.901524 0.048789 -0.014193 203647.000000 0 0 1
28.263623 30.146542 -15.110815 43.999808 0.817623 1.921362 0.053193 -0.013678 -375278.000000 0 0 1
28.609523 31.659142 -14.920115 45.204158 0.835955 1.907164 0.057952 -0.025828 -173436.000000 0 0 1
29.989123 31.760442 -14.665715 46.077721 0.814076 1.894713 0.053226 -0.024412 -170158.000000 0 0 1
30.536423 33.047442 -14.614115 47.309395 0.824869 1.884838 0.049235 -0.038338 -28230.100000 0 0 1
16.606423 -31.847305 -27.836783 45.441287 -1.090145 2.230127 0.087874 -0.047069 -521944.000000 0 0 1
17.727623 -32.494905 -27.318183 46.005114 -1.071375 2.206579 0.069304 -0.037717 -195605.000000 0 0 1
18.235523 -31.886905 -26.121933 45.073988 -1.051309 2.188954 0.074603 -0.038608 -252047.000000 0 0 1
19.517623 -32.634805 -25.689533 45.890306 -1.031803 2.164944 0.014284 -0.025015 315965.000000 0 0 1
20.732823 -32.199605 -26.288293 46.451467 -0.998732 2.172358 0.038349 -0.020073 554821.000000 0 0 1
21.028123 -32.654405 -27.609493 47.652662 -0.998679 2.188777 0.051485 -0.016658 695138.000000 0 0 1
22.513823 -32.280205 -28.036653 48.321193 -0.961784 2.189788 0.065699 -0.009278 1130180.000000 0 0 1
22.694723 -30.887805 -28.190503 47.579527 -0.937129 2.204945 0.072163 -0.022537 401416.000000 0 0 1
24.049023 -30.558705 -27.894733 47.857142 -0.904046 2.193059 0.037879 -0.009785 407217.000000 0 0 1
24.649723 -29.334705 -28.629713 47.830891 -0.871965 2.212500 0.025325 -0.003909 111340.000000 0 0 1
25.037923 -29.584705 -29.979533 48.999232 -0.868447 2.229177 0.035103 -0.011227 333086.000000 0 0 1
25.894323 -28.533005 -30.470843 49.123524 -0.833841 2.239909 0.037790 -0.028322 378970.000000 0 0 1
26.064023 -28.708405 -32.020243 50.287192 -0.833640 2.261069 0.054085 -0.016113 -44152.700000 0 0 1
26.939123 -29.751305 -32.312573 51.526293 -0.834963 2.248632 0.065737 -0.026022 -451913.000000 0 0 1
26.981123 -29.971005 -33.704103 52.556718 -0.837848 2.266975 0.066652 -0.033182 -377482.000000 0 0 1
28.181623 -30.792805 33.595607 53.582325 -0.829646 0.893112 0.063223 -0.040261 -290049.000000 0 0 1
29.405323 -30.184305 -33.818323 54.031881 -0.798470 2.247076 0.069732 -0.049381 -375201.000000 0 0 1
30.514123 -31.005405 33.620840 54.980067 -0.793384 0.912829 0.072806 -0.039310 -204841.000000 0 0 1
31.870723 -30.329205 33.612311 55.365974 -0.760620 0.918399 0.076813 -0.043365 -454668.000000 0 0 1
32.042423 -29.529705 32.495359 54.356864 -0.744611 0.930023 0.068058 -0.034621 185880.000000 0 0 1
33.273723 -28.810405 32.439753 54.676482 -0.713630 0.935640 0.070915 -0.037475 435028.000000 0 0 1
33.269423 -27.787705 31.224765 53.422814 -0.695858 0.946553 0.057649 -0.031018 -469578.000000 0 0 1
34.505623 -27.195005 30.928015 53.728469 -0.667463 0.957415 0.061719 -0.028680 -77968.500000 0 0 1
34.390223 -26.058605 30.034505 52.571949 -0.648432 0.962704 0.053678 -0.021052 -318678.000000 0 0 1
35.087123 -26.374505 28.735405 52.463742 -0.644579 0.991160 0.067898 -0.016138 -331455.000000 0 0 1
34.515623 -27.498905 28.071195 52.302103 -0.672731 1.004260 0.057643 -0.024409 562092.000000 0 0 1
33.469423 -27.005205 27.227785 50.900252 -0.678911 1.006378 0.066827 -0.021266 299295.000000 0 0 1
32.655923 -28.154805 26.528755 50.624867 -0.711514 1.019225 0.055299 -0.013796 278838.000000 0 0 1
31.469223 -27.774205 25.846115 49.292394 -0.723109 1.018853 0.045126 -0.004841 295101.000000 0 0 1
30.880423 -29.014905 25.408605 49.407109 -0.754262 1.030640 0.021795 0.006305 -511503.000000 0 0 1
29.532323 -28.874305 24.736925 48.143525 -0.774132 1.031169 0.013981 0.008362 -361218.000000 0 0 1
28.472223 -28.417605 25.579345 47.671067 -0.784438 1.004417 0.021086 0.004984 126582.000000 0 0 1
27.332423 -28.234205 24.746675 46.439526 -0.801626 1.008796 0.037069 0.007529 325512.000000 0 0 1
26.062423 -27.971405 25.614415 46.018992 -0.820713 0.980502 0.056996 -0.003066 -201892.000000 0 0 1
25.969623 -26.695605 26.221405 45.548202 -0.799182 0.957355 0.061349 -0.010975 -724050.000000 0 0 1
24.831723 -26.529305 26.986245 45.262301 -0.818438 0.932013 0.077518 -0.019635 -752103.000000 0 0 1
24.912523 -25.410205 28.068175 45.322564 -0.795288 0.902948 0.088462 -0.016151 294123.000000 0 0 1
23.639123 -25.307305 28.714125 44.986318 -0.819467 0.878527 0.107472 -0.019106 775363.000000 0 0 1
23.635123 -24.249105 29.612005 44.983430 -0.798220 0.852255 0.108448 -0.018810 -181652.000000 0 0 1
23.067523 -22.889105 29.109235 43.627621 -0.781516 0.840326 0.101167 -0.021690 -786481.000000 0 0 1
23.679123 -22.376705 27.989845 42.951708 -0.757127 0.861027 0.096572 -0.019112 -121878.000000 0 0 1
23.457223 -21.026305 27.799545 42.013825 -0.730805 0.847744 0.097788 -0.016345 335070.000000 0 0 1
24.278523 -20.047605 28.776415 42.654838 -0.690237 0.830327 0.102004 -0.015609 399873.000000 0 0 1
23.858323 -20.007105 30.113995 43.316931 -0.697827 0.802096 0.114555 -0.015700 433001.000000 0 0 1
24.770923 -19.152805 30.802865 43.923172 -0.658183 0.793591 0.108985 -0.013171 319387.000000 0 0 1
24.241423 -18.789705 32.208146 44.475435 -0.659377 0.760954 0.123499 -0.013246 6546.270000 0 0 1
24.307323 -19.914505 33.009862 45.575042 -0.686387 0.760782 0.103020 -0.009454 200701.000000 0 0 1
23.796123 -19.587605 -33.465963 45.496158 -0.688694 2.397315 0.115947 -0.014080 33884.700000 0 0 1
23.681723 -20.790605 -32.498203 45.268161 -0.720480 2.371583 0.100444 -0.009953 -318013.000000 0 0 1
24.876623 -21.088605 -31.836383 45.575551 -0.703173 2.344153 0.108513 -0.011909 -287129.000000 0 0 1
24.693323 -21.949105 -30.719193 45.113104 -0.726631 2.319838 0.105370 -0.012300 -84988.600000 0 0 1
25.987523 -22.199805 -29.943063 45.439737 -0.706955 2.290234 0.080622 -0.006279 395044.000000 0 0 1
27.050923 -22.981905 -30.495183 46.796117 -0.704250 2.280568 0.065702 -0.005681 345739.000000 0 0 1
28.029623 -23.317305 -29.532093 46.920155 -0.693880 2.251592 0.057618 -0.011346 109604.000000 0 0 1
29.208123 -24.173605 -30.056653 48.382641 -0.691365 2.241105 0.036838 -0.004727 129249.000000 0 0 1
30.165023 -23.534705 -30.913213 49.187779 -0.662550 2.250385 0.036205 -0.005879 209703.000000 0 0 1
29.894223 -23.497005 -32.327853 49.908555 -0.666149 2.275413 0.039574 -0.004815 -219767.000000 0 0 1
30.374423 -24.854705 -32.926893 51.230286 -0.685787 2.268844 0.035196 -0.011058 45803.400000 0 0 1
29.444523 -25.910305 -32.717653 51.076106 -0.721638 2.266032 0.059847 -0.009765 126508.000000 0 0 1
29.784523 -27.096305 -33.428313 52.333351 -0.738173 2.263678 0.066189 -0.027585 36353.700000 0 0 1
29.385223 -27.027205 32.806085 51.673981 -0.743623 0.882960 0.059757 -0.023489 -44211.300000 0 0 1
29.951723 -25.981105 32.028581 50.970124 -0.714528 0.891328 0.039673 -0.023184 -134144.000000 0 0 1
29.465923 -26.041005 30.740195 49.913266 -0.723774 0.907304 0.038565 -0.023115 -25019.100000 0 0 1
30.487723 -25.431705 29.714525 49.590582 -0.695227 0.928299 0.046615 -0.020080 206836.000000 0 0 1
30.678223 -23.985805 29.655975 48.948433 -0.663576 0.919948 0.041231 -0.010846 132543.000000 0 0 1
31.174023 -23.347905 30.832605 49.674882 -0.642831 0.901176 0.042997 -0.001543 -1158570.000000 0 0 1
31.849723 -21.976505 30.510035 49.277113 -0.603987 0.903134 0.040959 0.008675 1161660.000000 0 0 1
33.156223 -21.938905 29.903675 49.748170 -0.584544 0.925918 0.044490 0.001827 804782.000000 0 0 1
34.161723 -22.497405 30.720105 51.155463 -0.582366 0.926640 0.044481 -0.002290 -318277.000000 0 0 1
35.625823 -22.050505 30.410745 51.771010 -0.554235 0.942943 0.047036 -0.017595 590025.000000 0 0 1
36.091223 -22.446105 29.108305 51.514051 -0.556386 0.970296 0.060469 -0.019519 420998.000000 0 0 1
37.322023 -21.815005 28.768425 51.927354 -0.528950 0.983619 0.064445 -0.024190 408137.000000 0 0 1
-37.451718 -22.117305 27.265665 51.334422 0.533446 1.010853 0.089615 -0.022781 -62950.400000 0 0 1
-37.042618 -23.428005 26.982775 51.469381 0.563946 1.018963 0.090058 -0.020587 186069.000000 0 0 1
-37.005518 -23.666405 25.594815 50.838978 0.568985 1.043211 0.098272 -0.020777 3829.500000 0 0 1
-36.778218 -25.169205 25.369085 51.280763 0.600146 1.053296 0.094280 -0.023888 100556.000000 0 0 1
37.188723 -25.802705 25.812895 52.106489 -0.606574 1.052516 0.104651 -0.019137 271762.000000 0 0 1
37.143223 -27.217705 25.566625 52.669486 -0.632387 1.063957 0.101516 -0.017725 847469.000000 0 0 1
-36.955618 -28.017105 26.483455 53.404581 0.648683 1.051923 0.097520 -0.025053 523968.000000 0 0 1
-36.589718 -29.335905 25.960245 53.603518 0.675809 1.065232 0.086642 -0.022582 853977.000000 0 0 1
-35.431918 -29.977405 26.526935 53.457871 0.702200 1.051555 0.093677 -0.037148 1480090.000000 0 0 1
-34.037318 -29.319005 26.223995 52.017699 0.711063 1.042415 0.099861 -0.036421 -100635.000000 0 0 1
-33.763318 -29.387705 24.840315 51.192188 0.716221 1.064163 0.100430 -0.037151 633693.000000 0 0 1
-32.408818 -28.982605 24.605735 49.957633 0.729647 1.055800 0.078830 -0.034887 590093.000000 0 0 1
-31.849218 -29.160005 23.218125 49.028154 0.741348 1.077460 0.074409 -0.034107 -257766.000000 0 0 1
-31.529718 -30.410805 22.739825 49.356254 0.767336 1.091981 0.087315 -0.033999 379541.000000 0 0 1
-30.929118 -30.312905 21.466285 48.335121 0.775337 1.110612 0.080237 -0.029607 -593942.000000 0 0 1
-30.855718 -31.646105 20.675885 48.795938 0.798043 1.133246 0.088857 -0.024636 24631.000000 0 0 1
-29.970018 -32.634305 21.161485 49.102019 0.827930 1.125229 0.088845 -0.038770 114126.000000 0 0 1
-28.614818 -32.362205 20.856185 47.969788 0.846777 1.121005 0.107714 -0.037275 60886.400000 0 0 1
-27.646018 -33.582505 20.866085 48.243968 0.882052 1.123520 0.097758 -0.028952 157037.000000 0 0 1
-27.978518 33.162342 19.787185 47.687222 -0.869981 1.142923 0.081891 -0.027204 296146.000000 0 0 1
-29.184618 32.433642 19.925185 47.965572 -0.838078 1.142407 0.087123 -0.023877 61478.400000 0 0 1
-29.162818 31.318442 21.014185 47.675054 -0.821024 1.114329 0.092979 -0.019923 -186053.000000 0 0 1
-28.384418 30.184742 20.710085 46.321717 -0.816127 1.107284 0.079083 -0.019968 -141214.000000 0 0 1
-28.158618 29.344342 21.861585 46.172796 -0.806015 1.077566 0.077858 -0.019033 -73464.100000 0 0 1
-27.213518 28.173842 21.606285 44.734467 -0.802735 1.066730 0.059869 -0.016463 324880.000000 0 0 1
-25.850818 28.533442 21.428385 44.063566 -0.834685 1.062939 0.063435 -0.016578 872697.000000 0 0 1
-24.947318 27.542542 20.820985 42.596640 -0.834800 1.060089 0.052049 -0.021274 350171.000000 0 0 1
-23.543718 28.129142 20.803885 42.170570 -0.873906 1.054886 0.044045 -0.021353 -596440.000000 0 0 1
-22.986518 28.146842 22.131385 42.549065 -0.885977 1.023784 0.057348 -0.025736 -222787.000000 0 0 1
-21.648118 28.538442 22.110885 42.094833 -0.921839 1.017771 0.082759 -0.029637 -501888.000000 0 0 1
-21.056318 28.592542 23.550955 42.609265 -0.936039 0.985173 0.082962 -0.029015 -758591.000000 0 0 1
-20.925818 27.301842 24.076445 41.987566 -0.916843 0.960124 0.095471 -0.036108 417702.000000 0 0 1
-20.411918 27.320942 25.401275 42.524170 -0.929143 0.930619 0.088577 -0.033300 187231.000000 0 0 1
-18.954618 27.705142 25.776785 42.323694 -0.970784 0.915948 0.088008 -0.031128 -140903.000000 0 0 1
-18.433218 29.001242 25.437435 42.754166 -1.004610 0.933568 0.059072 -0.024149 -210700.000000 0 0 1
-17.176418 29.366842 25.917325 42.768546 -1.041560 0.919786 0.058518 -0.013315 -483424.000000 0 0 1
-16.955518 29.579042 27.449295 43.770688 -1.050295 0.892951 0.048351 -0.006705 -339267.000000 0 0 1
-16.960218 28.466242 28.288105 43.568255 -1.033470 0.864156 0.065248 -0.008884 306077.000000 0 0 1
-17.382618 28.732242 29.638435 44.789887 -1.026718 0.847684 0.061666 0.001648 -160113.000000 0 0 1
-17.181918 27.454342 30.469125 44.467143 -1.011596 0.815911 0.059467 0.008616 -216490.000000 0 0 1
-15.834318 27.117642 30.748305 43.949408 -1.042290 0.795917 0.063752 0.009314 203443.000000 0 0 1
-15.718018 26.091842 31.748240 43.997626 -1.028606 0.764700 0.072131 0.004720 -486855.000000 0 0 1
-16.224218 26.294942 33.150312 45.316580 -1.017964 0.750237 0.058459 0.006746 -945612.000000 0 0 1
-17.595218 26.115342 33.243043 45.789767 -0.977906 0.758319 0.047889 0.003244 -1023040.000000 0 0 1
-18.144318 27.019142 -33.585943 46.768214 -0.979430 2.371917 0.059779 -0.001252 301214.000000 0 0 1
-19.406518 26.499142 -32.825633 46.436404 -0.938690 2.355894 0.046960 0.002601 793238.000000 0 0 1
-20.512818 26.230642 -33.692283 47.370795 -0.907117 2.362065 0.044723 0.009153 -318608.000000 0 0 1
-21.543318 25.622542 -32.990713 47.000174 -0.871670 2.348896 0.064915 0.004910 -90923.900000 0 0 1
-22.857418 25.542342 -33.854013 48.176415 -0.840815 2.349995 0.080811 -0.005452 264289.000000 0 0 1
-22.901918 24.690042 32.803430 47.012350 -0.822952 0.798528 0.084156 0.000144 -72826.200000 0 0 1
-22.854218 23.307042 33.081421 46.474874 -0.795207 0.778720 0.078372 -0.010492 -356707.000000 0 0 1
-23.074718 22.526142 31.786079 45.279405 -0.773369 0.792596 0.068944 -0.013326 755669.000000 0 0 1
-24.486718 22.403942 31.529515 45.778230 -0.741010 0.811040 0.095437 -0.014049 802347.000000 0 0 1
-24.662018 22.158342 30.145875 44.810502 -0.731975 0.832889 0.106769 -0.018161 864300.000000 0 0 1
-26.168418 21.951142 29.748675 45.294839 -0.697980 0.854258 0.114453 -0.024132 819910.000000 0 0 1
-26.661218 20.690042 30.173225 45.269437 -0.659956 0.841258 0.120599 -0.020615 451747.000000 0 0 1
-27.964418 20.406942 29.645925 45.577767 -0.630412 0.862623 0.114808 -0.021731 576207.000000 0 0 1
-28.474318 19.067142 30.268805 45.722459 -0.590049 0.847297 0.125589 -0.019356 -377923.000000 0 0 1
-28.973718 19.116142 31.593745 46.936851 -0.583216 0.832388 0.119922 -0.012121 76598.600000 0 0 1
-29.113518 17.850842 32.224161 46.953659 -0.550030 0.814411 0.094136 -0.002798 227873.000000 0 0 1
-30.079618 16.792942 31.539645 46.706911 -0.509180 0.829469 0.068950 -0.000319 -278418.000000 0 0 1
-31.433718 17.136942 31.629995 47.772482 -0.499133 0.847183 0.052852 -0.000367 -539511.000000 0 0 1
-32.159718 15.958042 31.261415 47.604440 -0.460613 0.854373 0.064042 0.004112 929008.000000 0 0 1
-33.718118 16.142042 31.349125 48.787751 -0.446491 0.872960 0.078895 0.001891 637571.000000 0 0 1
-34.198118 16.386642 32.610092 50.014512 -0.446844 0.860561 0.055547 0.005751 186389.000000 0 0 1
-35.598318 16.351342 32.786418 51.083812 -0.430585 0.873932 0.093536 -0.004955 -4858.080000 0 0 1
-36.095918 17.093042 -33.702413 52.258397 -0.442261 2.271713 0.069456 0.004945 -261217.000000 0 0 1
-37.505618 17.161542 -33.669843 53.243293 -0.429133 2.255414 0.074421 -0.005475 -241947.000000 0 0 1
37.210023 17.739942 -32.484623 52.483731 0.444877 2.238197 0.063954 -0.008706 -874106.000000 0 0 1
35.702123 17.789942 -32.465713 51.430984 0.462277 2.253958 0.090835 -0.012829 -1011420.000000 0 0 1
35.057023 16.570242 -32.315213 50.476140 0.441542 2.265565 0.093616 -0.006706 194130.000000 0 0 1
33.752023 16.775042 -31.788423 49.306236 0.461252 2.271445 0.100330 -0.009686 -28516.800000 0 0 1
32.756823 15.631742 -31.755093 48.225996 0.445246 2.289573 0.110841 -0.013144 -151910.000000 0 0 1
32.066223 15.372742 -32.962243 48.487867 0.447037 2.318292 0.114289 -0.020726 -46435.300000 0 0 1
31.348523 14.157642 -32.957623 47.637943 0.424201 2.334824 0.120512 -0.022020 -47183.500000 0 0 1
32.206223 12.961442 -33.364443 48.150034 0.382618 2.336337 0.121680 -0.009802 -222816.000000 0 0 1
32.948323 12.441542 -32.309463 47.794198 0.361055 2.313134 0.108887 -0.005434 -37554.500000 0 0 1
33.755023 11.338542 -32.671943 48.326183 0.324065 2.313214 0.105864 -0.009219 -137160.000000 0 0 1
18.392523 -20.687058 9.772947 29.355575 -0.844045 1.231402 0.062883 -0.024718 -270813.000000 0 0 1
18.193323 -21.943358 10.312647 30.312681 -0.878559 1.223657 0.052774 -0.026227 251161.000000 0 0 1
19.334723 -22.753558 10.608447 31.687459 -0.866450 1.229421 0.039859 -0.026164 -177567.000000 0 0 1
19.016723 -24.046858 11.410847 32.712300 -0.901678 1.214480 0.043034 -0.022008 -279844.000000 0 0 1
18.224523 -25.042038 10.848547 32.816579 -0.941683 1.233877 0.041343 -0.025589 -1395130.000000 0 0 1
16.893423 -24.893958 11.131547 32.078158 -0.974567 1.216412 0.039247 -0.023007 -1181150.000000 0 0 1
15.956723 -25.882438 10.375447 32.127364 -1.018327 1.241954 0.059491 -0.027418 132963.000000 0 0 1
15.948023 -25.482508 9.040847 31.391632 -1.011592 1.278657 0.069646 -0.036537 -380695.000000 0 0 1
15.152023 -26.334698 8.311447 31.498893 -1.048689 1.303770 0.082065 -0.024299 -920998.000000 0 0 1
14.752523 -25.745648 6.929747 30.471244 -1.050459 1.341370 0.082874 -0.026931 -358910.000000 0 0 1
13.804123 -24.739058 7.116347 29.209882 -1.061840 1.324691 0.085875 -0.032579 -243889.000000 0 0 1
13.201823 -24.282258 5.932647 28.268578 -1.072817 1.359357 0.091687 -0.019795 -217906.000000 0 0 1
12.563423 -22.887258 6.058447 26.802443 -1.068778 1.342785 0.107748 -0.017523 -282353.000000 0 0 1
11.927323 -22.417358 4.900247 25.861388 -1.081833 1.380163 0.105386 -0.015087 118789.000000 0 0 1
11.207323 -21.219058 5.172147 24.547986 -1.084866 1.358510 0.109543 -0.014564 409772.000000 0 1 0
10.354123 -20.627958 3.994047 23.423768 -1.105593 1.399446 0.088962 -0.014078 -311099.000000 0 1 0
11.096523 -19.904458 3.074647 22.995080 -1.062221 1.436686 0.079462 -0.009780 -249244.000000 0 1 0
10.370923 -19.275158 2.007047 21.979900 -1.077177 1.479356 0.053307 -0.003334 -244973.000000 0 1 0
11.223723 -18.974658 0.799847 22.060130 -1.036642 1.534531 0.059066 0.001579 210844.000000 0 1 0
12.163623 -17.902358 0.873147 21.661268 -0.974001 1.530476 0.062683 -0.000305 -40562.900000 0 1 0
12.797023 -17.708658 -0.359053 21.851528 -0.945035 1.587229 0.071057 -0.008158 -317842.000000 0 1 0
13.990123 -16.742458 -0.261753 21.819760 -0.874717 1.582793 0.070309 -0.003327 -325408.000000 0 1 0
15.061923 -17.341758 0.421547 22.973371 -0.855640 1.552446 0.076643 -0.007805 -692175.000000 0 1 0
16.193523 -16.540758 0.209347 23.148881 -0.796005 1.561753 0.079192 -0.019100 -279503.000000 0 1 0
17.459023 -16.988258 0.964847 24.379280 -0.771733 1.531209 0.072710 -0.017076 -220899.000000 0 1 0
17.978023 -18.177258 0.478347 25.570507 -0.790909 1.552088 0.071000 -0.013570 248931.000000 0 0 1
19.209623 -18.542758 1.098347 26.721711 -0.767736 1.529682 0.063084 -0.011145 718562.000000 0 0 1
19.736623 -19.910658 0.561847 28.040761 -0.789788 1.550758 0.048387 -0.009710 216679.000000 0 0 1
18.989623 -20.988658 1.122447 28.326479 -0.835360 1.531161 0.058215 -0.006088 309307.000000 0 0 1
19.164323 -22.164758 0.302947 29.302552 -0.857870 1.560458 0.068002 -0.012971 -145271.000000 0 0 1
18.115923 -23.246458 0.618747 29.478252 -0.908807 1.549805 0.076849 -0.010942 -127997.000000 0 0 1
18.303523 -23.936158 1.810047 30.186667 -0.917965 1.510799 0.059014 -0.008656 1342680.000000 0 0 1
17.055323 -24.600858 2.190147 30.014713 -0.964594 1.497762 0.063173 -0.007052 951320.000000 0 0 1
17.172723 -25.324398 3.498947 30.797243 -0.974913 1.456938 0.066754 -0.019193 406185.000000 0 0 1
18.103023 -26.411088 3.466947 32.206905 -0.969914 1.462941 0.059086 -0.013683 808119.000000 0 0 1
19.431023 -25.966458 3.774747 32.650732 -0.928376 1.454927 0.060523 -0.012561 -185375.000000 0 0 1
20.492523 -27.061288 3.851947 34.162762 -0.922663 1.457803 0.072194 -0.016407 -226170.000000 0 0 1
20.897323 -27.461728 2.545347 34.602361 -0.920317 1.497170 0.081531 -0.009772 408193.000000 0 0 1
21.872723 -28.549638 2.509747 36.052693 -0.917052 1.501127 0.119174 -0.011554 561535.000000 0 0 1
21.423323 -29.997968 2.944147 36.979790 -0.950631 1.491097 0.113804 -0.011383 82168.200000 0 0 1
21.185023 -30.157858 4.400047 37.116870 -0.958414 1.451971 0.124144 -0.018187 379845.000000 0 0 1
20.313523 -31.291308 4.604647 37.589732 -0.995002 1.447990 0.113067 -0.021815 141120.000000 0 0 1
20.236523 -31.793338 6.056047 38.170786 -1.003969 1.411466 0.118564 -0.029105 -97759.200000 0 0 1
21.225423 -32.709538 6.459347 39.524114 -0.995190 1.406632 0.127387 -0.038386 -166038.000000 0 0 1
21.059123 -33.223828 7.762347 40.094431 -1.005854 1.375964 0.112021 -0.031568 245882.000000 0 0 1
22.214023 33.510379 8.246047 41.041511 0.985406 1.368500 0.125412 -0.040527 672865.000000 0 0 1
23.365823 -33.437388 8.654947 41.700464 -0.960881 1.361726 0.124657 -0.039670 11755.000000 0 0 1
24.359623 33.333411 9.112747 42.279424 0.939705 1.353555 0.141354 -0.047048 237255.000000 0 0 1
25.390923 -33.599268 10.006447 43.286704 -0.923658 1.337520 0.123473 -0.036346 -24222.100000 0 0 1
26.061823 -32.554138 9.329947 42.732171 -0.895709 1.350688 0.112935 -0.037842 353153.000000 0 0 1
26.992623 -31.881408 10.188647 42.998074 -0.868246 1.331565 0.084212 -0.034276 485660.000000 0 0 1
27.786223 -30.734518 9.469247 42.501193 -0.835736 1.346111 0.094280 -0.041548 99512.600000 0 0 1
26.989223 -29.607758 9.121947 41.088288 -0.831632 1.346922 0.093154 -0.039909 197649.000000 0 0 1
27.575723 -28.784368 8.096647 40.675742 -0.806840 1.370404 0.110961 -0.038677 -12953.600000 0 0 1
26.834323 -27.470298 7.927247 39.211470 -0.797109 1.367227 0.099483 -0.034407 -198799.000000 0 0 1
27.096923 -26.707148 9.106447 39.120869 -0.778154 1.335864 0.095096 -0.038945 77050.700000 0 0 1
26.679023 -25.374758 8.941247 37.889240 -0.760347 1.332565 0.073421 -0.024436 3783.030000 0 0 1
27.415223 -24.404758 9.908347 38.017917 -0.727369 1.307129 0.075597 -0.037649 1938680.000000 0 0 1
28.825323 -24.203258 9.580047 38.839081 -0.698456 1.321564 0.084222 -0.030508 1191670.000000 0 0 1
29.538123 -23.380758 10.460047 39.096971 -0.669564 1.299956 0.052723 -0.032450 665429.000000 0 0 1
31.009723 -23.121458 10.000047 39.952543 -0.640692 1.317808 0.071359 -0.035307 668975.000000 0 0 1
31.081923 -22.308158 8.798247 39.257471 -0.622521 1.344760 0.088073 -0.036679 -383069.000000 0 0 1
32.355323 -22.210558 8.203047 40.093214 -0.601579 1.364742 0.090666 -0.037753 -168589.000000 0 0 1
32.366523 -21.395758 6.893347 39.406706 -0.584101 1.394963 0.093776 -0.017991 -226867.000000 0 0 1
32.039923 -20.070558 7.174247 38.481863 -0.559622 1.383267 0.093056 -0.012744 -99391.800000 0 0 1
32.004023 -19.283158 6.007847 37.844311 -0.542273 1.411370 0.082940 -0.012527 -43766.300000 0 0 1
31.686923 -17.774458 6.315647 36.876549 -0.511204 1.398683 0.100384 -0.005795 504759.000000 0 0 1
32.685523 -17.163858 7.123847 37.599077 -0.483542 1.380175 0.109784 -0.011019 374522.000000 0 0 1
32.112523 -15.994258 7.619347 36.675399 -0.462102 1.361521 0.114172 -0.015075 626970.000000 0 0 1
32.927523 -15.529758 8.899847 37.478026 -0.440699 1.331037 0.113560 -0.038134 1890620.000000 0 0 1
34.310723 -15.116158 8.663647 38.480940 -0.414981 1.343708 0.107344 -0.031128 1376590.000000 0 0 1
34.986523 -14.917458 9.883847 39.297300 -0.403037 1.316551 0.089869 -0.043049 -423865.000000 0 0 1
36.501723 -15.075158 9.873447 40.707753 -0.391662 1.325808 0.084370 -0.052319 -514100.000000 0 0 1
37.144923 -13.976058 9.237147 40.748011 -0.359873 1.342119 0.126693 -0.036679 -447708.000000 0 0 1
-36.631018 -14.200158 9.182247 40.345875 0.369818 1.341196 0.128995 -0.043937 -465038.000000 0 0 1
-35.772118 -13.180858 8.488147 39.056729 0.353031 1.351719 0.141267 -0.039803 -366258.000000 0 0 1
-35.993518 -13.275058 7.091447 39.013448 0.353340 1.388011 0.181174 -0.052179 199044.000000 0 0 1
-35.059118 -12.519858 6.324447 37.760922 0.342992 1.402517 0.177283 -0.039964 -170718.000000 0 0 1
-33.994218 -13.394458 5.691847 36.978582 0.375342 1.416259 0.147981 -0.038276 -236383.000000 0 0 1
-33.206418 -14.080858 6.647447 36.675950 0.401057 1.388541 0.146961 -0.028163 -1792.170000 0 0 1
-32.262918 -14.986258 6.145847 36.100627 0.434850 1.399721 0.142026 -0.013355 100897.000000 0 0 1
-31.578618 -15.915258 7.179547 36.083936 0.466833 1.370492 0.132756 -0.028625 234777.000000 0 0 1
-32.467318 -16.880558 7.710547 37.396959 0.479460 1.363126 0.135272 -0.039048 -33604.000000 0 0 1
-32.184418 -17.199858 9.052147 37.598049 0.490800 1.327646 0.121299 -0.034984 -753039.000000 0 0 1
-33.337518 -17.905758 9.700247 39.065344 0.492889 1.319863 0.064478 -0.039292 -1411850.000000 0 0 1
-34.550218 -17.144658 9.687047 39.768024 0.460622 1.324732 0.075320 -0.027530 445996.000000 0 0 1
-35.606018 -17.548458 10.505747 41.062241 0.457912 1.312070 0.096084 -0.041403 80008.400000 0 0 1
-36.222818 -18.950958 10.226747 42.140452 0.482017 1.325666 0.096071 -0.038806 -641418.000000 0 0 1
-35.274718 -19.995458 10.469347 41.877575 0.515687 1.318117 0.112209 -0.031804 13785.100000 0 0 1
-35.088518 -20.395858 11.859547 42.282904 0.526533 1.286501 0.118536 -0.049856 133167.000000 0 0 1
-36.369218 -21.038858 12.442847 43.819836 0.524446 1.282880 0.093156 -0.060862 269767.000000 0 0 1
-36.404418 -22.432358 12.176547 44.460777 0.552245 1.293380 0.119640 -0.065500 615892.000000 0 0 1
37.380523 -22.810458 11.961047 45.394792 -0.547903 1.304159 0.114423 -0.048308 784147.000000 0 0 1
37.169423 -24.317358 11.749047 45.944967 -0.579343 1.312204 0.107663 -0.042207 -496887.000000 0 0 1
37.444023 -25.032848 12.981047 46.874363 -0.589299 1.290196 0.124474 -0.039311 155768.000000 0 0 1
36.835923 -26.296768 13.142247 47.128801 -0.619987 1.288192 0.108980 -0.038302 32289.600000 0 0 1
35.326523 -26.389658 13.442147 46.098466 -0.641592 1.274901 0.107792 -0.042987 -209912.000000 0 0 1
34.502023 -25.941368 12.381447 44.907064 -0.644703 1.291465 0.086885 -0.039415 4336.570000 0 0 1
33.225023 -25.468098 12.774347 43.768826 -0.653999 1.274626 0.074400 -0.009525 185768.000000 0 0 1
33.187523 -23.968358 13.315047 43.048628 -0.625477 1.256337 0.077484 -0.021635 -924081.000000 0 0 1
33.974923 -23.717158 14.409347 43.868306 -0.609435 1.236115 0.102335 -0.034539 -504797.000000 0 0 1
33.928023 -22.400658 14.894247 43.298254 -0.583541 1.219631 0.095678 -0.044303 -46473.500000 0 0 1
35.286823 -21.970058 15.493347 44.360874 -0.556881 1.214018 0.087780 -0.037508 39553.300000 0 0 1
35.408923 -20.599458 15.751447 43.888923 -0.526899 1.203714 0.114201 -0.018752 113031.000000 0 0 1
34.996923 -20.320258 17.082847 43.926315 -0.526055 1.171361 0.094956 -0.020442 -74780.200000 0 0 1
35.497123 -18.938758 17.551047 43.894892 -0.490110 1.159451 0.075103 -0.008769 -474436.000000 0 0 1
34.834123 -17.842558 17.015447 42.676673 -0.473372 1.160691 0.077826 -0.024878 -174793.000000 0 0 1
34.828323 -16.661358 17.815347 42.520578 -0.446207 1.138473 0.066639 -0.019187 -627099.000000 0 0 1
36.100523 -15.843758 17.993747 43.336444 -0.413567 1.142622 0.059212 -0.028394 -497400.000000 0 0 1
36.951123 -16.371358 18.995847 44.657016 -0.417063 1.131423 0.056293 -0.008807 717511.000000 0 0 1
-36.980918 -15.608158 19.025147 44.420256 0.399378 1.128187 0.052365 -0.015796 630946.000000 0 0 1
-36.382518 -15.493658 20.459547 44.523411 0.402594 1.093338 0.050552 -0.007840 -82350.000000 0 0 1
-35.747118 -16.639958 20.974547 44.661799 0.435661 1.081924 0.059773 -0.007776 105259.000000 0 0 1
-35.327718 -16.357358 22.307747 44.869215 0.433627 1.050459 0.051987 -0.008995 -120029.000000 0 0 1
-34.434218 -17.389258 22.976047 44.899893 0.467639 1.033614 0.057125 -0.002170 -1043640.000000 0 0 1
-35.051518 -18.634758 23.033747 45.895715 0.488637 1.045035 0.059154 -0.003323 191922.000000 0 0 1
-34.254718 -19.628458 23.633947 46.013319 0.520341 1.031383 0.054873 0.003790 -244109.000000 0 0 1
-33.125518 -20.286658 22.815647 45.048887 0.549500 1.039717 0.047659 0.006126 -382679.000000 0 0 1
-32.020918 -19.478958 22.569047 43.750782 0.546515 1.028791 0.044101 0.014385 -124839.000000 0 0 1
-30.903318 -20.270658 22.153147 43.089170 0.580538 1.030811 0.043083 0.013639 718242.000000 0 0 1
-29.620718 -19.376258 22.012747 41.681979 0.579284 1.014421 0.057637 0.011324 247110.000000 0 0 1
-29.172518 -18.978558 23.280147 41.871073 0.576771 0.981236 0.038869 0.008713 -437577.000000 0 0 1
-28.101918 -18.116758 23.194147 40.692791 0.572627 0.964313 0.076917 -0.000663 -659819.000000 0 0 1
-27.606518 -17.561058 24.572847 40.918644 0.566556 0.926633 0.077661 -0.014912 -514492.000000 0 0 1
-26.472418 -16.733358 24.460347 39.737926 0.563692 0.907723 0.085309 -0.019355 -5989.800000 0 0 1
-26.105618 -16.103158 25.641347 39.978665 0.552715 0.874506 0.078354 -0.024810 -213261.000000 0 0 1
-24.922918 -16.810858 26.300147 39.943141 0.593416 0.852053 0.064897 -0.012909 -659937.000000 0 0 1
-25.230618 -18.080958 26.795647 41.006242 0.621798 0.858659 0.065995 -0.012976 -191319.000000 0 0 1
-24.296418 -18.458658 27.771247 41.258698 0.649698 0.832403 0.054689 -0.007836 -182854.000000 0 0 1
-24.700418 -19.860258 28.333547 42.512709 0.677203 0.841329 0.038240 0.001417 213058.000000 0 0 1
-25.865718 -19.712358 29.142647 43.668139 0.651203 0.840130 0.045415 -0.014248 72631.200000 0 0 1
-26.323418 -20.883458 29.762247 44.886886 0.670668 0.845911 0.040011 -0.012327 -765007.000000 0 0 1
-27.520618 -20.648158 30.661947 46.085636 0.643680 0.842867 0.049198 -0.022508 -936977.000000 0 0 1
-27.213118 -20.022358 31.932447 46.487953 0.634326 0.813585 0.063624 -0.033363 235307.000000 0 0 1
-28.293518 -20.162858 32.818747 47.792617 0.619153 0.813869 0.084411 -0.033979 -47441.300000 0 0 1
-29.590318 -19.361258 32.669047 48.142620 0.579400 0.824957 0.067809 -0.041842 -535891.000000 0 0 1
-30.407618 -19.831558 31.628647 48.148575 0.577914 0.854101 0.073691 -0.042694 671437.000000 0 0 1
-31.749318 -19.359058 31.859247 48.967377 0.547556 0.862393 0.081812 -0.046475 367652.000000 0 0 1
-32.822318 -19.863258 30.901647 49.262211 0.544216 0.892729 0.076420 -0.018875 -492007.000000 0 0 1
-32.943718 -19.150258 29.671447 48.295090 0.526558 0.909199 0.061958 -0.034260 2437.910000 0 0 1
-34.088118 -19.597158 29.001547 48.858348 0.521757 0.935291 0.060638 -0.029603 -292556.000000 0 0 1
-34.455318 -18.768358 27.759347 48.062476 0.498777 0.955050 0.056182 -0.020387 217260.000000 0 0 1
-35.682218 -19.151958 27.138047 48.749275 0.492603 0.980405 0.044959 -0.018389 574623.000000 0 0 1
-36.221418 -18.144558 26.318747 48.310378 0.464395 0.994664 0.056989 -0.016630 127164.000000 0 0 1
-37.352118 -18.727158 25.415947 48.906621 0.464741 1.024316 0.043202 -0.012803 -7623.520000 0 0 1
36.656223 -19.123558 26.133747 48.911777 -0.480857 1.007112 0.049011 -0.013730 -72688.400000 0 0 1
35.576623 -19.405658 25.243747 47.744344 -0.499352 1.013696 0.091110 -0.012356 -973572.000000 0 0 1
34.504223 -20.070858 25.995447 47.635533 -0.526850 0.993554 0.084119 -0.018395 -1461080.000000 0 0 1
33.746523 -19.089458 26.681447 47.065219 -0.514796 0.968054 0.081536 -0.028516 -326475.000000 0 0 1
32.585523 -19.738858 27.126147 46.768223 -0.544641 0.952052 0.072577 -0.018536 -362405.000000 0 0 1
-29.521667 -5.252458 33.679135 45.093251 0.176076 0.727442 0.096554 -0.034952 182913.000000 0 0 1
-30.523317 -5.223858 32.645974 44.996902 0.169501 0.759012 0.113924 -0.027455 516256.000000 0 0 1
-30.540297 -4.137158 31.804356 44.287051 0.134646 0.769669 0.094710 -0.027881 4799.570000 0 0 1
-31.580407 -4.208458 30.659565 44.215859 0.132481 0.804590 0.098690 -0.028118 203076.000000 0 0 1
-31.352627 -5.285858 29.759705 43.549599 0.167023 0.818452 0.095715 -0.027181 1065050.000000 0 0 1
-30.179527 -5.034958 28.911665 42.095594 0.165311 0.813706 0.092119 -0.026031 1199430.000000 0 0 1
-29.983137 -6.211758 27.952695 41.459952 0.204285 0.830902 0.074710 -0.023028 132169.000000 0 0 1
-30.731677 -6.062558 26.723205 41.174268 0.194773 0.864492 0.072154 -0.022560 29759.900000 0 0 1
-30.226257 -6.865658 25.687985 40.257130 0.223352 0.878771 0.095291 -0.022449 90885.700000 0 0 1
-30.826737 -6.713158 24.246415 39.789985 0.214423 0.915543 0.089434 -0.016467 149013.000000 0 0 1
-30.462597 -5.483658 23.746385 39.011936 0.178105 0.916381 0.083909 -0.020223 403348.000000 0 0 1
-31.276177 -5.272058 22.568785 38.927419 0.166995 0.952355 0.086488 -0.015361 569282.000000 0 0 1
-30.974967 -3.936358 21.897185 38.136993 0.126404 0.959204 0.092084 -0.017880 659093.000000 0 0 1
-29.668297 -3.849358 21.324885 36.739300 0.129026 0.951530 0.112011 -0.017155 348437.000000 0 0 1
-29.353127 -2.613758 20.726185 36.027942 0.088811 0.957849 0.121084 -0.022180 -55114.500000 0 0 1
-27.865597 -2.635558 20.328385 34.593076 0.094301 0.942653 0.126545 -0.020965 -188026.000000 0 0 1
-27.601557 -3.321558 19.155185 33.760922 0.119764 0.967479 0.138900 -0.015236 172606.000000 0 0 1
-26.261477 -3.124858 18.724285 32.404148 0.118433 0.954722 0.147886 -0.016302 41436.000000 0 0 1
-26.030917 -3.896958 17.415885 31.561179 0.148601 0.986259 0.144838 -0.017472 -34848.700000 0 0 1
-26.936617 -3.575758 16.378485 31.727310 0.131976 1.028357 0.141694 -0.011997 99153.500000 0 0 1
-26.668897 -4.357558 15.227385 31.017602 0.161964 1.057643 0.140223 -0.010838 172396.000000 0 0 1
-27.788747 -4.314658 14.146785 31.479553 0.154036 1.104707 0.158268 -0.007923 259480.000000 0 0 1
-28.012237 -3.069358 13.521685 31.256077 0.109137 1.123411 0.156916 -0.010461 -379957.000000 0 0 1
-29.296197 -3.073958 12.977885 32.189158 0.104544 1.155812 0.162658 -0.010148 -191704.000000 0 0 1
-29.783907 -1.767358 12.230985 32.245956 0.059270 1.181754 0.160089 -0.007561 -33399.500000 0 0 1
-29.117887 -1.568758 11.008685 31.168951 0.053824 1.209813 0.162788 -0.014726 107168.000000 0 0 1
-29.460497 -0.378058 10.353085 31.228996 0.012832 1.232880 0.163989 -0.015228 718677.000000 0 0 1
-30.825677 -0.354458 9.546185 32.271933 0.011498 1.270499 0.168000 -0.010806 979398.000000 0 0 1
-30.740197 -0.950558 8.272385 31.848009 0.030912 1.308037 0.169243 -0.013723 280162.000000 0 0 1
-32.043907 -1.151758 7.728685 32.982891 0.035928 1.334273 0.162054 -0.020577 414889.000000 0 0 1
-32.049037 -1.988858 6.390085 32.740335 0.061977 1.374361 0.186397 -0.029827 -216153.000000 0 0 1
-31.610907 -1.300858 5.212285 32.064148 0.041129 1.407514 0.181861 -0.043283 66135.100000 0 0 1
-32.492667 -0.363858 4.640485 32.824380 0.011198 1.428948 0.193990 -0.034946 -400576.000000 0 0 1
-32.242847 0.076542 3.177385 32.399118 -0.002374 1.472568 0.162982 -0.020317 -277305.000000 0 0 1
-32.497617 -0.963758 2.316385 32.594318 0.029648 1.499669 0.149779 -0.038528 419823.000000 0 0 1
-32.090917 -0.620258 0.980685 32.111889 0.019326 1.540252 0.153895 -0.050281 -199847.000000 0 0 1
-32.919317 -1.361258 -0.075315 32.947536 0.041328 1.573082 0.151346 -0.053095 688838.000000 0 0 1
-34.322593 -1.078758 0.001085 34.339542 0.031420 1.570765 0.166193 -0.046180 579698.000000 0 0 1
-35.047731 -1.427758 -1.125015 35.094837 0.040715 1.602858 0.160233 -0.044730 -66968.600000 0 0 1
-36.557267 -1.109558 -1.010815 36.588067 0.030342 1.598427 0.148283 -0.040299 -68077.800000 0 0 1
-37.236787 -1.894558 -0.006815 37.284953 0.050835 1.570979 0.150495 -0.034967 134384.000000 0 0 1
36.586384 -1.426258 0.048085 36.614205 -0.038964 1.569483 0.134895 -0.031594 -558519.000000 0 0 1
35.673324 -2.468058 0.705785 35.765563 -0.069075 1.551061 0.145632 -0.039491 -405616.000000 0 0 1
35.762804 -2.644058 2.112385 35.922574 -0.073799 1.511959 0.155030 -0.038295 81964.000000 0 0 1
35.124094 -3.826358 2.524285 35.421956 -0.108510 1.499473 0.153297 -0.031684 -59779.800000 0 0 1
35.044124 -3.895258 4.061885 35.493134 -0.110699 1.456104 0.160494 -0.019990 -362013.000000 0 0 1
34.197734 -3.009958 4.699885 34.650163 -0.087790 1.434739 0.183254 -0.032606 -243148.000000 0 0 1
34.185234 -3.155458 6.091285 34.866759 -0.092044 1.395193 0.182024 -0.045773 -60667.000000 0 0 1
33.528594 -1.917258 6.760085 34.256988 -0.057121 1.372158 0.206035 -0.035762 207801.000000 0 0 1
32.115234 -1.965958 6.778385 32.881602 -0.061139 1.363162 0.208077 -0.039221 32307.800000 0 0 1
31.541594 -0.714658 7.098185 32.338323 -0.022654 1.349497 0.232677 -0.034699 842491.000000 0 0 1
30.006164 -0.820858 7.426385 30.922401 -0.027349 1.328264 0.202253 -0.037032 465191.000000 0 0 1
29.192264 -0.837658 6.272085 29.870202 -0.028687 1.359244 0.218221 -0.044838 -891105.000000 0 0 1
27.852364 -0.860558 6.559385 28.627264 -0.030887 1.339612 0.220652 -0.027265 -980604.000000 0 0 1
27.130164 -2.228858 6.691885 28.032034 -0.081970 1.329746 0.226040 -0.041362 -270887.000000 0 0 1
27.659864 -3.058758 7.764885 28.891478 -0.110137 1.298690 0.206504 -0.043800 669888.000000 0 0 1
27.197764 -4.396458 7.697485 28.605917 -0.160261 1.298351 0.197570 -0.053259 -153076.000000 0 0 1
27.609564 -5.219258 8.970085 29.495611 -0.186833 1.261786 0.188016 -0.037605 51056.700000 0 0 1
26.834464 -4.907758 10.108385 29.092164 -0.180891 1.215935 0.187254 -0.034000 527314.000000 0 0 1
27.268064 -5.792458 11.170885 30.031459 -0.209315 1.189663 0.170833 -0.026952 -218205.000000 0 0 1
26.253364 -6.094758 12.283185 29.618606 -0.228111 1.143170 0.152716 -0.020337 407249.000000 0 0 1
25.004364 -6.663758 11.841385 28.457728 -0.260450 1.141639 0.191707 -0.031618 549495.000000 0 0 1
24.009364 -6.110558 12.689185 27.835299 -0.249216 1.097451 0.192836 -0.040513 -260015.000000 0 0 1
22.774864 -7.013358 12.698085 27.002277 -0.298728 1.081211 0.176297 -0.051919 -457782.000000 0 0 1
23.109464 -8.262958 13.314085 27.921115 -0.343391 1.073733 0.157985 -0.040713 964005.000000 0 0 1
22.019564 -9.209758 13.378585 27.361787 -0.396142 1.059909 0.206734 -0.070568 417392.000000 0 0 1
22.538064 -10.458558 14.132685 28.584586 -0.434468 1.053633 0.158557 -0.055793 -39579.700000 0 0 1
22.575264 -10.296558 15.495385 29.253523 -0.427914 1.012558 0.120041 -0.044938 448699.000000 0 0 1
22.986764 -11.517058 16.110885 30.341301 -0.464471 1.011030 0.108325 -0.044383 -229774.000000 0 0 1
22.957964 -11.639958 17.680985 31.227776 -0.469241 0.968915 0.117849 -0.045961 484097.000000 0 0 1
21.621564 -11.824658 18.162885 30.613803 -0.500454 0.935656 0.115153 -0.039378 523201.000000 0 0 1
21.479264 -12.274058 19.528085 31.517573 -0.519153 0.902572 0.133434 -0.030051 135398.000000 0 0 1
21.879364 -11.290558 20.704585 32.169288 -0.476395 0.871586 0.112969 -0.032300 80087.700000 0 0 1
21.032564 -10.169558 20.863585 31.322162 -0.450373 0.841833 0.123039 -0.037123 31898.000000 0 0 1
21.096964 -9.210158 19.824385 30.379519 -0.411624 0.859841 0.124173 -0.023196 -1070270.000000 0 0 1
21.844864 -7.890558 20.283985 30.836651 -0.346625 0.852918 0.109633 -0.002312 170117.000000 0 0 1
23.220264 -8.051658 20.507085 32.008599 -0.333778 0.875420 0.130588 -0.012461 -129769.000000 0 0 1
23.952864 -8.201358 19.293885 31.831682 -0.329884 0.919620 0.131001 -0.016435 -972832.000000 0 0 1
25.429664 -8.602358 19.459785 33.156472 -0.326196 0.943562 0.118625 -0.015280 -27790.200000 0 0 1
25.561364 -9.826858 20.069385 33.951888 -0.367023 0.938359 0.091161 -0.024989 377452.000000 0 0 1
26.847664 -10.402458 19.825485 34.957947 -0.369652 0.967787 0.077450 -0.029296 627007.000000 0 0 1
26.851264 -11.876858 20.202285 35.639619 -0.416449 0.968120 0.051162 -0.030015 201851.000000 0 0 1
25.939564 -12.557058 19.355585 34.715693 -0.450838 0.979370 0.087591 -0.038149 172114.000000 0 0 1
25.981964 -13.880858 19.596685 35.380372 -0.490671 0.983772 0.072695 -0.036027 51085.400000 0 0 1
24.924364 -14.691358 18.784585 34.495225 -0.532617 0.994937 0.095294 -0.033962 -80002.700000 0 0 1
25.133964 -14.575358 17.367285 33.849369 -0.525514 1.032032 0.098129 -0.038353 424144.000000 0 0 1
24.183464 -15.279758 16.567785 33.057562 -0.563493 1.045835 0.079992 -0.036348 -12682.100000 0 0 1
24.189064 -16.834358 16.751185 33.898505 -0.608002 1.053931 0.060474 -0.028457 -1110990.000000 0 0 1
25.331864 -17.415458 16.262385 34.777387 -0.602282 1.084207 0.070684 -0.030234 -1034110.000000 0 0 1
25.313564 -18.819058 16.420985 35.560965 -0.639288 1.090807 0.058059 -0.014794 556127.000000 0 0 1
26.670864 -19.603758 16.200985 36.852601 -0.633848 1.115625 0.047961 -0.008475 726091.000000 0 0 1
26.999964 -19.645858 14.809085 36.527617 -0.629027 1.153356 0.069793 -0.021676 150954.000000 0 0 1
27.338664 -20.929958 14.406985 37.323276 -0.653399 1.174499 0.050442 -0.019156 -302107.000000 0 0 1
27.569364 -21.022758 12.884585 36.987007 -0.651479 1.214981 0.035672 -0.030714 -309763.000000 0 0 1
26.370764 -21.249458 12.174785 35.988638 -0.678265 1.225692 0.048669 -0.017464 226522.000000 0 0 1
26.480564 -20.815158 10.803685 35.372456 -0.666179 1.260410 0.076690 -0.017601 -93071.800000 0 0 1
25.097664 -20.885158 10.134985 34.187724 -0.694043 1.269822 0.052045 -0.016821 -24921.100000 0 0 1
24.643364 -22.209358 9.960385 34.637555 -0.733495 1.279118 0.046367 -0.020039 -885158.000000 0 0 1
23.350764 -22.204758 9.475685 33.587171 -0.760247 1.284791 0.033185 -0.012859 -809209.000000 0 0 1
23.127264 -23.135258 8.281285 33.744484 -0.785571 1.322852 0.035052 -0.011861 -250126.000000 0 0 1
23.244864 -24.469558 8.656485 34.842757 -0.811060 1.319722 0.035101 -0.008847 191304.000000 0 0 1
22.907964 -25.351688 7.585385 35.000299 -0.835992 1.352339 0.044145 -0.008578 627610.000000 0 0 1
21.429664 -25.855428 7.559285 34.422034 -0.878724 1.349386 0.042243 -0.011721 955550.000000 0 0 1
20.425564 -24.919458 7.203585 33.016279 -0.884180 1.350844 0.044318 -0.015162 -383606.000000 0 0 1
19.111764 -25.373588 7.351785 32.605632 -0.925241 1.343365 0.051741 -0.030564 -127706.000000 0 0 1
18.136064 -24.167058 7.312185 31.087482 -0.927010 1.333358 0.064520 -0.026883 -461807.000000 0 0 1
17.979764 -23.511058 6.091085 30.218257 -0.917930 1.367836 0.070544 -0.025923 17745.900000 0 0 1
17.082364 -22.446658 6.292885 28.900865 -0.920279 1.351298 0.088610 -0.016405 -56358.700000 0 0 1
16.740264 -21.730558 4.947585 27.873503 -0.914394 1.392349 0.093034 -0.009676 71026.200000 0 0 1
15.783564 -20.704558 5.134185 26.536003 -0.919455 1.376088 0.120155 -0.011144 19429.900000 0 0 1
15.251364 -20.249758 3.930285 25.653537 -0.925274 1.416984 0.106997 -0.010262 63301.000000 0 0 1
14.516764 -18.902258 3.994085 24.165771 -0.915880 1.404756 0.113017 -0.006361 246435.000000 0 1 0
15.347364 -17.766558 4.272385 23.863056 -0.858325 1.390788 0.101201 -0.006852 285611.000000 0 1 0
14.637464 -16.528958 4.209385 22.476226 -0.846014 1.382402 0.069285 -0.006570 -137043.000000 0 1 0
15.578764 -15.335858 4.131385 22.247579 -0.777541 1.384012 0.064597 -0.016066 -664752.000000 0 1 0
16.102064 -15.089058 5.452885 22.730818 -0.752932 1.328544 0.091277 -0.025842 563314.000000 0 1 0
17.105664 -14.054458 5.449685 22.799794 -0.687789 1.329436 0.085093 -0.032021 1024180.000000 0 1 0
18.566364 -14.585558 5.315085 24.201209 -0.665893 1.349371 0.108190 -0.032174 735319.000000 0 1 0
19.567064 -13.552258 5.338685 24.393344 -0.605746 1.350152 0.133696 -0.031905 1252060.000000 0 1 0
20.885064 -14.062358 5.074385 25.684337 -0.592596 1.371921 0.147740 -0.022491 1465810.000000 0 0 1
22.020664 -12.991858 4.870485 26.027286 -0.533023 1.382557 0.138639 -0.022909 600516.000000 0 0 1
22.176464 -12.137958 6.029085 25.989910 -0.500795 1.336686 0.169788 -0.034772 -84066.800000 0 0 1
23.281164 -11.290358 5.926985 26.544565 -0.451541 1.345614 0.169096 -0.031639 -222588.000000 0 0 1
23.573864 -10.387258 7.170685 26.740249 -0.415031 1.299313 0.194686 -0.037726 -170469.000000 0 0 1
24.182364 -11.098358 8.202485 27.843151 -0.430267 1.271763 0.199157 -0.017530 67264.400000 0 0 1
24.169764 -10.418958 9.436685 27.960386 -0.407004 1.226534 0.230342 -0.043262 49351.500000 0 0 1
24.727564 -11.215958 10.644285 29.164206 -0.425828 1.197187 0.187256 -0.034570 636410.000000 0 0 1
23.842264 -12.315958 11.019985 29.009937 -0.476808 1.181141 0.198905 -0.045037 1112210.000000 0 0 1
24.380064 -13.070458 12.132085 30.206156 -0.492119 1.157486 0.188334 -0.043883 338544.000000 0 0 1
23.386964 -14.238658 12.418785 30.065191 -0.546886 1.144983 0.148648 -0.043331 273714.000000 0 0 1
22.232764 -13.810758 13.089285 29.263667 -0.555854 1.107066 0.134039 -0.049754 19724.800000 0 0 1
21.301564 -14.887258 13.320385 29.203078 -0.609975 1.097155 0.112001 -0.049093 1263440.000000 0 0 1
19.945764 -14.326058 13.907285 28.222013 -0.622870 1.055513 0.110986 -0.052996 91327.700000 0 0 1
20.169964 -13.828058 15.209785 28.798962 -0.600980 1.014392 0.111894 -0.058309 406068.000000 0 0 1
19.534864 -12.570458 15.494485 27.923223 -0.571784 0.982558 0.136548 -0.066650 587581.000000 0 0 1
17.969964 -12.540758 15.548585 26.869103 -0.609297 0.953688 0.155915 -0.068174 100726.000000 0 0 1
17.353564 -12.669158 14.251985 25.783189 -0.630617 0.985120 0.173711 -0.078587 711220.000000 0 0 1
15.918764 -12.712858 14.302985 24.891749 -0.673892 0.958672 0.208734 -0.075717 611282.000000 0 1 0
15.356964 -11.298058 14.186485 23.764234 -0.634284 0.931080 0.167650 -0.065728 -842454.000000 0 1 0
15.596664 -10.339858 15.173585 24.091623 -0.585427 0.889464 0.152960 -0.057569 16041.600000 0 1 0
15.384064 -8.999658 14.821385 23.180525 -0.529316 0.877092 0.141799 -0.047931 -472496.000000 0 1 0
15.931364 -7.957258 15.935285 23.896854 -0.463225 0.840841 0.152623 -0.037904 466427.000000 0 1 0
17.344064 -7.869858 15.818785 24.758538 -0.425968 0.877700 0.146204 -0.049585 124676.000000 0 1 0
18.032464 -8.704358 16.669885 26.054187 -0.449716 0.876538 0.151893 -0.046098 -699483.000000 0 0 1
19.561264 -8.718458 16.481385 27.023890 -0.419272 0.914885 0.139342 -0.042792 28530.500000 0 0 1
20.121364 -7.455058 16.920685 27.326851 -0.354824 0.903078 0.125546 -0.040068 -404901.000000 0 0 1
21.313264 -7.131158 16.298785 27.762547 -0.322879 0.943352 0.111497 -0.029372 -886896.000000 0 0 1
21.791564 -5.769158 16.682185 28.043729 -0.258805 0.933701 0.112150 -0.020012 -432322.000000 0 0 1
22.388164 -5.667158 17.949485 29.249454 -0.247924 0.910097 0.140919 -0.013947 227488.000000 0 0 1
22.799664 -4.331158 18.164385 29.470808 -0.187729 0.906695 0.146838 -0.008340 -1869.250000 0 0 1
-5.491677 -33.119905 -6.533253 34.201901 1.406479 1.762998 0.068779 -0.028514 -123547.000000 0 0 1
-6.212477 -31.866305 -6.483153 33.107213 1.378257 1.767893 0.058622 -0.027488 233568.000000 0 0 1
-5.816877 -31.202605 -5.330353 32.184643 1.386489 1.737181 0.066410 -0.030676 -775200.000000 0 0 1
-6.347277 -29.755105 -5.226453 30.870212 1.360629 1.740920 0.070562 -0.024051 1528160.000000 0 0 1
-7.761477 -29.502605 -5.044153 30.920668 1.313548 1.734661 0.054992 -0.024583 960345.000000 0 0 1
-8.608177 -29.999405 -6.049353 31.790874 1.291359 1.762250 0.048403 -0.024811 500078.000000 0 0 1
-10.138877 -29.800705 -5.667953 31.984442 1.242858 1.748947 0.084950 -0.014792 1839640.000000 0 0 1
-11.086777 -30.276105 -6.658153 32.922487 1.219773 1.774438 0.055639 -0.018797 1350470.000000 0 0 1
-12.418377 -29.929605 -6.196853 32.990882 1.177495 1.759754 0.066467 -0.014157 965626.000000 0 0 1
-13.603477 -30.398805 -7.033553 34.038402 1.150023 1.778932 0.066860 -0.021143 -127539.000000 0 0 1
-13.657777 -29.790505 -8.312953 33.809972 1.140929 1.819216 0.083288 -0.029419 205192.000000 0 0 1
-14.846477 -30.197905 -8.978753 34.827422 1.113860 1.831548 0.094323 -0.027690 309721.000000 0 0 1
-15.106377 -29.592805 -10.379453 34.809047 1.098804 1.873584 0.131035 -0.023368 81486.500000 0 0 1
-15.659577 -28.237505 -10.370653 33.913559 1.064454 1.881571 0.144168 -0.026814 263425.000000 0 0 1
-14.671277 -27.258705 -10.144553 32.575993 1.077039 1.887475 0.111712 -0.020459 222.328000 0 0 1
-15.198577 -25.852805 -9.664053 31.508065 1.039330 1.882538 0.108910 -0.006457 161082.000000 0 0 1
-15.846677 -25.095305 -10.676353 31.541655 1.007565 1.916102 0.124801 -0.019877 374211.000000 0 0 1
-16.395077 -23.866705 -10.201553 30.699997 0.968887 1.909535 0.084271 0.001871 -235563.000000 0 0 1
-17.132077 -23.046305 -11.247353 30.840609 0.931548 1.944099 0.116842 -0.001013 308301.000000 0 0 1
-18.357277 -23.685705 -11.623853 32.142125 0.911464 1.940822 0.140361 -0.017877 239971.000000 0 0 1
-18.920277 -23.046305 -12.788453 32.444623 0.883400 1.975953 0.154829 -0.021537 768858.000000 0 0 1
-20.358477 -23.666805 -12.997753 33.816073 0.860403 1.965317 0.152149 -0.015749 667985.000000 0 0 1
-20.579777 -25.030805 -13.426653 35.076251 0.882678 1.963605 0.194439 -0.025840 -7449.080000 0 0 1
-20.198177 -25.948605 -12.409053 35.146565 0.909371 1.931642 0.207974 -0.020289 -1108980.000000 0 0 1
-19.984177 -27.399805 -12.781953 36.242171 0.940640 1.931232 0.211588 -0.032228 526688.000000 0 0 1
-18.907777 -27.840205 -13.613053 36.302841 0.974199 1.955178 0.207215 -0.043237 -568656.000000 0 0 1
-17.631377 -27.508805 -13.198753 35.239280 1.000820 1.954704 0.192115 -0.043023 -1673560.000000 0 0 1
-16.674777 -28.531405 -13.794053 35.810126 1.041900 1.966221 0.170422 -0.038128 -645050.000000 0 0 1
-16.534777 -28.565805 -15.173853 36.326985 1.046088 2.001711 0.200142 -0.053137 78306.000000 0 0 1
-15.825777 -29.720205 -15.678253 37.142340 1.081494 2.006571 0.178521 -0.048042 -63049.000000 0 0 1
-16.540977 -31.056105 -15.667653 38.517021 1.081398 1.989714 0.181273 -0.049492 -490213.000000 0 0 1
-16.754277 -31.490005 -14.368853 38.455040 1.081838 1.953741 0.176123 -0.045447 -95500.400000 0 0 1
-17.056477 -32.884205 -14.339553 39.723005 1.092314 1.940124 0.155671 -0.043361 -1064940.000000 0 0 1
-17.517877 -33.428605 -12.964053 39.905066 1.088103 1.901673 0.179069 -0.033257 -327.892000 0 0 1
-18.830077 -33.036205 -12.609553 40.061995 1.052741 1.890991 0.206065 -0.041494 303824.000000 0 0 1
-19.207977 -31.618005 -12.624953 39.090076 1.024879 1.899663 0.209724 -0.043996 -1056980.000000 0 0 1
-18.622277 -30.715005 -11.520253 37.721571 1.025763 1.881157 0.213941 -0.041178 -455114.000000 0 0 1
-19.020277 -31.041705 -10.216153 37.811746 1.021067 1.844381 0.213174 -0.045352 127910.000000 0 0 1
-18.757177 -30.040505 -9.236553 36.600239 1.012631 1.825918 0.206986 -0.034294 -275596.000000 0 0 1
-19.006477 -30.352605 -7.748253 36.640991 1.011342 1.783869 0.207188 -0.039763 -398480.000000 0 0 1
-18.047877 -31.139305 -7.124753 36.689839 1.045523 1.766227 0.167539 -0.037882 -410667.000000 0 0 1
-18.265177 -31.416705 -5.753153 36.792999 1.044177 1.727806 0.189372 -0.040670 -434720.000000 0 0 1
-17.422177 -32.560305 -5.152453 37.286103 1.079485 1.709427 0.175089 -0.032407 -666440.000000 0 0 1
-16.112877 -32.413105 -4.740153 36.506208 1.109463 1.701009 0.154777 -0.026157 -611608.000000 0 0 1
-16.045777 -31.716805 -3.504953 35.717046 1.102434 1.669086 0.133659 -0.031693 243139.000000 0 0 1
-14.661677 -31.093305 -3.146753 34.520435 1.130176 1.662079 0.128469 -0.027609 806740.000000 0 0 1
-13.490777 -31.906905 -3.078953 34.778321 1.170776 1.659443 0.076417 -0.025867 -60263.700000 0 0 1
-12.435577 -31.086205 -2.684953 33.588758 1.190260 1.650818 0.088821 -0.019037 -163971.000000 0 0 1
-11.155877 -31.820005 -2.211953 33.791405 1.233593 1.636302 0.090851 -0.022118 68547.000000 0 0 1
-11.269877 -32.540005 -0.999853 34.450860 1.237387 1.599823 0.100130 -0.017731 577256.000000 0 0 1
-10.108277 -33.395705 -0.881253 34.903108 1.276881 1.596048 0.107759 -0.020576 1717670.000000 0 0 1
-8.910277 -32.815305 -0.016753 34.003493 1.305661 1.571289 0.116569 -0.037191 552154.000000 0 0 1
-9.305177 -32.621405 1.293347 33.947240 1.292928 1.532688 0.133729 -0.034696 562483.000000 0 0 1
-8.192877 -32.220705 2.139547 33.314782 1.321799 1.506530 0.133941 -0.039149 1387790.000000 0 0 1
-7.196377 -33.312505 2.634547 34.182622 1.358039 1.493647 0.155078 -0.049268 -470689.000000 0 0 1
-7.821777 33.397942 3.414747 34.471194 -1.340743 1.471573 0.177787 -0.054814 -736282.000000 0 0 1
-7.044577 32.388742 3.989747 33.385248 -1.356631 1.451004 0.175939 -0.049894 -125415.000000 0 0 1
-6.046777 32.829642 5.085047 33.766946 -1.388651 1.419629 0.171552 -0.044561 -56805.900000 0 0 1
-4.900677 33.447242 4.589247 34.114452 -1.425312 1.435862 0.160310 -0.045676 -378260.000000 0 0 1
-4.062477 -33.641805 5.590547 34.344271 1.450621 1.407289 0.138186 -0.049940 598576.000000 0 0 1
-2.912977 -32.779005 4.994047 33.284968 1.482162 1.420188 0.144521 -0.050722 52208.400000 0 0 1
-3.232177 -31.473505 4.571747 31.967630 1.468460 1.427293 0.126818 -0.045349 13708.600000 0 0 1
-4.071177 -31.431505 3.431147 31.879253 1.441988 1.462958 0.113467 -0.049452 -225929.000000 0 0 1
-4.046777 -30.123105 2.574847 30.502585 1.437255 1.486282 0.120441 -0.044042 -1045140.000000 0 0 1
-2.786177 -29.831105 2.103947 30.034716 1.477668 1.500688 0.102436 -0.046457 -1046020.000000 0 0 1
-2.715877 -28.595905 1.409347 28.759138 1.476106 1.521771 0.095898 -0.040286 -104848.000000 0 0 1
-2.760577 -27.339105 2.288447 27.573256 1.470162 1.487706 0.101725 -0.038417 -134072.000000 0 0 1
-2.964777 -26.183205 1.509647 26.393733 1.458045 1.513568 0.108992 -0.039669 -211833.000000 0 0 1
-2.825677 -24.946605 2.186847 25.201187 1.458008 1.483911 0.081920 -0.032946 -265600.000000 0 0 1
-3.902277 -24.572405 3.222547 25.088158 1.413304 1.441992 0.071838 -0.024005 -196445.000000 0 0 1
-3.907177 -25.291405 4.486647 25.981747 1.417522 1.397242 0.073386 -0.024992 263368.000000 0 0 1
-4.959577 -24.689105 5.244947 25.722729 1.372554 1.365453 0.067540 -0.017086 402030.000000 0 0 1
-5.728577 -25.709105 6.104147 27.037664 1.351555 1.343069 0.083859 -0.023290 -151967.000000 0 0 1
-5.022077 -26.050905 7.289847 27.513865 1.380353 1.302642 0.074592 -0.023114 67396.800000 0 0 1
-5.655077 -27.064405 8.071147 28.802870 1.364811 1.286773 0.079102 -0.028928 -214093.000000 0 0 1
-5.005477 -27.448305 9.389247 29.438448 1.390418 1.246180 0.069665 -0.029491 -482138.000000 0 0 1
-4.777877 -26.386505 10.253947 28.709218 1.391664 1.205565 0.065822 -0.039618 197048.000000 0 0 1
-5.883577 -25.772905 10.935847 28.608598 1.346357 1.178558 0.057110 -0.037810 320786.000000 0 0 1
-5.445477 -24.622805 11.878047 27.875146 1.353144 1.130601 0.057307 -0.037317 280957.000000 0 0 1
-4.753777 -25.240105 12.999647 28.786318 1.384635 1.102248 0.075674 -0.046102 73850.100000 0 0 1
-4.130177 -24.142505 13.668547 28.049030 1.401362 1.061791 0.063002 -0.036722 -267393.000000 0 0 1
-3.173277 -24.506705 14.791447 28.799916 1.442027 1.031429 0.066401 -0.042446 -406259.000000 0 0 1
-3.751977 -24.918305 16.052947 29.878025 1.421348 1.003584 0.070891 -0.047029 112084.000000 0 0 1
-2.912977 -25.843105 16.761947 30.940497 1.458552 0.998281 0.090568 -0.040547 193435.000000 0 0 1
-3.376777 -26.215005 18.196847 32.089786 1.442691 0.967864 0.121372 -0.031611 -175213.000000 0 0 1
-3.285877 -25.094305 19.067747 31.687539 1.440596 0.925115 0.127338 -0.028125 -189405.000000 0 0 1
-3.809477 -25.255705 20.384347 32.678500 1.421089 0.897221 0.169527 -0.034896 -344959.000000 0 0 1
-3.224077 -24.335305 21.449747 32.598978 1.439078 0.852652 0.137167 -0.035470 -206110.000000 0 0 1
-1.972377 -24.724205 21.997047 33.151873 1.491190 0.845278 0.094445 -0.045073 598932.000000 0 0 1
-1.173077 -23.720405 22.655947 32.822639 1.521382 0.808957 0.080672 -0.035556 682967.000000 0 0 1
-0.629177 -22.563605 21.800247 31.380932 1.542919 0.802797 0.078437 -0.035089 -251829.000000 0 0 1
-1.541077 -21.490605 21.540247 30.466429 1.499210 0.785527 0.117411 -0.029426 -406968.000000 0 0 1
-0.899477 -20.378805 21.039447 29.304660 1.526687 0.769935 0.127509 -0.024285 -1122610.000000 0 0 1
-1.774877 -19.202105 20.623847 28.234980 1.478627 0.751836 0.104694 -0.001221 -776824.000000 0 0 1
-2.445377 -18.504705 21.685147 28.612053 1.439409 0.710704 0.103773 -0.027990 465891.000000 0 0 1
-3.579077 -19.169405 22.229447 29.570665 1.386214 0.720100 0.129512 -0.038334 -651994.000000 0 0 1
-4.893077 -18.978305 21.469147 29.069615 1.318467 0.739890 0.116734 -0.037394 -788221.000000 0 0 1
-5.102777 -19.686805 20.279947 28.720809 1.317180 0.786812 0.110093 -0.034905 -269561.000000 0 0 1
-5.251077 -21.103805 20.338247 29.775639 1.326927 0.818866 0.121105 -0.037615 -92590.300000 0 0 1
-5.691677 -21.625105 18.983247 29.332644 1.313435 0.866928 0.085233 -0.038101 12885.400000 0 0 1
-5.962677 -22.994105 18.917647 30.367083 1.317072 0.898268 0.084807 -0.042258 -213458.000000 0 0 1
-6.271277 -23.450105 17.573247 29.967572 1.309481 0.944178 0.068058 -0.055324 100236.000000 0 0 1
-6.863577 -24.888905 17.499347 31.189637 1.301716 0.975127 0.071899 -0.056667 -107890.000000 0 0 1
-8.158477 -25.114605 17.975347 31.943970 1.256700 0.973130 0.083346 -0.049346 -755215.000000 0 0 1
-8.624377 -26.413105 17.775447 32.984822 1.255191 1.001668 0.087371 -0.048322 698648.000000 0 0 1
-10.147577 -26.687905 18.002747 33.753763 1.207447 1.008234 0.059694 -0.046423 145211.000000 0 0 1
-10.936277 -26.043205 17.040647 32.988397 1.173229 1.027962 0.081709 -0.044603 -204546.000000 0 0 1
-12.338477 -26.151905 17.199047 33.644723 1.129962 1.034221 0.095169 -0.043494 427572.000000 0 0 1
-12.949177 -25.236905 18.287747 33.749433 1.096720 0.998138 0.107956 -0.042003 -600433.000000 0 0 1
-12.987377 -23.873205 17.854147 32.517264 1.072560 0.989549 0.098751 -0.039486 73700.200000 0 0 1
-13.329177 -22.942805 18.856347 32.551514 1.044484 0.952955 0.112778 -0.038995 -378826.000000 0 0 1
-12.135677 -22.098805 19.308947 31.756374 1.068602 0.917215 0.114118 -0.043211 -269343.000000 0 0 1
-11.307377 -22.808005 20.215847 32.507574 1.110544 0.899654 0.128915 -0.048870 -491456.000000 0 0 1
-9.984877 -22.485105 19.864347 31.620721 1.152888 0.891550 0.120414 -0.055689 -737441.000000 0 0 1
-9.016477 -23.390805 20.576147 32.431535 1.202877 0.883501 0.120725 -0.052682 -543226.000000 0 0 1
-8.917477 -23.153105 21.945447 33.123863 1.203155 0.846609 0.142099 -0.049043 236171.000000 0 0 1
-7.901677 -23.984205 22.495947 33.819317 1.252542 0.843061 0.132794 -0.043485 346763.000000 0 0 1
-8.055577 -24.138905 24.077247 35.032740 1.248700 0.813061 0.136266 -0.042165 -181570.000000 0 0 1
-7.007877 -24.873005 24.636547 35.703448 1.296169 0.809262 0.140398 -0.033083 -404914.000000 0 0 1
-6.757677 -24.303805 25.917347 36.166974 1.299597 0.771877 0.134727 -0.030801 -110846.000000 0 0 1
-5.497577 -24.898705 26.546247 36.808587 1.353485 0.765267 0.147148 -0.025931 618225.000000 0 0 1
-4.241477 -24.419705 26.055147 35.960851 1.398821 0.760427 0.137247 -0.018640 944418.000000 0 0 1
-3.134277 -24.422105 26.948247 36.503026 1.443156 0.740329 0.124570 -0.016440 995405.000000 0 0 1
-1.810577 -23.814905 26.420847 35.615854 1.494915 0.735004 0.112911 -0.014444 -22865.200000 0 0 1
-2.004377 -22.403605 26.148747 34.491970 1.481567 0.710385 0.111737 -0.014299 -215965.000000 0 0 1
-0.811877 -21.763405 25.782447 33.749660 1.533509 0.701412 0.101702 -0.022584 507732.000000 0 0 1
0.180223 -21.377805 26.962547 34.409620 -1.562366 0.670396 0.098667 -0.011428 260045.000000 0 0 1
0.745023 -22.512705 27.517647 35.561185 -1.537715 0.685960 0.100571 -0.022870 -427145.000000 0 0 1
1.568523 -22.162405 28.601847 36.217373 -1.500140 0.660432 0.069731 -0.037167 -177495.000000 0 0 1
1.858523 -23.382405 29.498547 37.687601 -1.491479 0.671785 0.114330 -0.048535 -728990.000000 0 0 1
2.610423 -24.394305 28.873047 37.888643 -1.464192 0.704323 0.086028 -0.041176 198631.000000 0 0 1
3.214423 -25.345505 29.699747 39.176551 -1.444646 0.710401 0.096904 -0.034069 -138476.000000 0 0 1
4.419023 -24.825405 30.604847 39.654573 -1.394637 0.689151 0.064094 -0.039355 1620050.000000 0 0 1
5.649223 -24.426505 29.904247 39.023478 -1.343518 0.697712 0.075297 -0.037712 1567630.000000 0 0 1
6.276323 -25.475405 29.187047 39.246302 -1.329239 0.732224 0.055528 -0.035369 -643231.000000 0 0 1
7.697223 -25.089005 28.678147 38.873404 -1.273116 0.741092 0.050539 -0.028807 284696.000000 0 0 1
7.765223 -24.278905 27.510647 37.504661 -1.261244 0.747301 0.047833 -0.037982 -224244.000000 0 0 1
9.050323 -24.333305 26.932247 37.408074 -1.214719 0.767054 0.069709 -0.025690 -133165.000000 0 0 1
9.257423 -23.202105 25.959447 36.026802 -1.191160 0.766188 0.072923 -0.021661 -278517.000000 0 0 1
8.329123 -23.131505 24.915147 35.002934 -1.225173 0.778736 0.056545 -0.024387 -281460.000000 0 0 1
8.533923 -22.004705 24.125247 33.749999 -1.200832 0.774427 0.057129 -0.028319 70134.700000 0 0 1
7.681523 -21.909005 22.864047 32.584888 -1.233578 0.793049 0.047040 -0.016043 31.362400 0 0 1
8.258723 -22.718705 21.826047 32.568733 -1.222127 0.836381 0.040229 -0.010249 567125.000000 0 0 1
7.567023 -22.671305 20.538847 31.513365 -1.248652 0.860906 0.041250 -0.003961 14203.200000 0 0 1
8.193923 -23.595905 19.524847 31.703734 -1.236564 0.907328 0.091718 -0.021277 290108.000000 0 0 1
9.344923 -23.033005 18.904547 31.228654 -1.185370 0.920579 0.105247 -0.015810 -316799.000000 0 0 1
9.981723 -23.949605 18.099447 31.635555 -1.175908 0.961704 0.104810 -0.019709 -386266.000000 0 0 1
11.239923 -23.332205 17.493147 31.252805 -1.121868 0.976736 0.123836 -0.025644 -21857.500000 0 0 1
10.883123 -22.299105 16.619547 29.864725 -1.116753 0.980636 0.152722 -0.022461 -136025.000000 0 0 1
12.055723 -21.895605 15.961547 29.656853 -1.067492 1.002487 0.129799 -0.031566 308127.000000 0 0 1
-12.808177 22.572742 10.828147 28.121644 -1.054679 1.175538 0.044997 -0.010779 -249107.000000 0 0 1
-13.749377 21.523042 10.891447 27.765272 -1.002320 1.167700 0.013707 -0.018577 -81179.600000 0 0 1
-13.321177 20.272942 10.394747 26.391224 -0.989452 1.165957 0.051062 -0.028232 271883.000000 0 0 1
-14.413977 19.620142 9.475447 26.124640 -0.937190 1.199631 0.053451 -0.027450 -159703.000000 0 0 1
-14.510877 20.252342 8.203447 26.230125 -0.949080 1.252710 0.055338 -0.031612 -510338.000000 0 0 1
-15.260377 19.666642 7.241247 25.924729 -0.910892 1.287712 0.068792 -0.036245 288906.000000 0 0 1
-16.804677 19.470242 7.431847 26.771624 -0.858749 1.289500 0.060193 -0.034663 285146.000000 0 0 1
-17.271777 18.499242 8.355947 26.652544 -0.819699 1.251905 0.045180 -0.042191 250814.000000 0 0 1
-18.687077 18.533142 8.426047 27.634806 -0.781262 1.260955 0.058964 -0.028571 129476.000000 0 0 1
-19.219777 17.493842 9.456147 27.655977 -0.738422 1.221836 0.074528 -0.030361 -235178.000000 0 0 1
-19.028577 16.184742 8.982247 26.546438 -0.704813 1.225623 0.081528 -0.027094 -8749.450000 0 0 1
-19.072377 15.157142 10.036147 26.348032 -0.671511 1.180019 0.086183 -0.034905 -966759.000000 0 0 1
-17.882077 14.945342 10.929847 25.740892 -0.696176 1.132265 0.066948 -0.020876 -541844.000000 0 0 1
-16.805677 14.239442 10.300347 24.316448 -0.702924 1.133385 0.040538 -0.001289 36824.100000 0 1 0
-16.068377 13.369542 11.113647 23.673837 -0.693975 1.082130 0.016351 -0.008701 -186122.000000 0 1 0
-16.704277 12.242142 12.011047 23.940931 -0.632451 1.045239 0.026945 -0.011681 -272299.000000 0 1 0
-17.490677 11.318142 11.214447 23.659839 -0.574331 1.076984 0.005373 -0.010930 305815.000000 0 1 0
-18.353877 10.639542 12.111647 24.428603 -0.525351 1.052043 0.037555 -0.012122 415427.000000 0 1 0
-19.515377 9.868142 11.384047 24.654142 -0.468165 1.090829 0.051828 -0.021998 295777.000000 0 1 0
-19.101577 8.764042 10.512647 23.498818 -0.430158 1.106975 0.040851 -0.021464 93602.100000 0 1 0
-18.853377 9.161542 9.142247 22.868414 -0.452334 1.159524 0.065593 -0.018458 -828598.000000 0 1 0
-19.944877 9.552642 8.139947 23.565013 -0.446668 1.218105 0.083323 -0.017032 -582474.000000 0 1 0
-20.612977 8.394942 7.727947 23.560370 -0.386753 1.236604 0.081341 -0.019425 517767.000000 0 1 0
-21.418477 8.627042 6.548047 24.001124 -0.382905 1.294471 0.102058 -0.017106 305767.000000 0 1 0
-21.629877 7.398942 5.722447 23.565703 -0.329593 1.325515 0.111352 -0.021984 -196340.000000 0 1 0
-22.490577 6.428642 6.260447 24.214597 -0.278413 1.309286 0.136804 -0.027786 326259.000000 0 1 0
-22.185177 5.142642 5.726747 23.482429 -0.227782 1.324438 0.135545 -0.035190 -332519.000000 0 1 0
-23.303177 4.092942 5.817647 24.364631 -0.173865 1.329693 0.156667 -0.035337 566869.000000 0 1 0
-24.374677 4.262942 4.842147 25.213964 -0.173141 1.377554 0.190909 -0.040426 1032170.000000 0 0 1
-25.392167 3.293742 5.024847 26.093294 -0.128995 1.377013 0.209001 -0.040458 21016.000000 0 0 1
-26.596987 3.544542 4.099847 27.143549 -0.132488 1.419173 0.222021 -0.040002 -216039.000000 0 0 1
-26.289927 3.155142 2.790947 26.625262 -0.119442 1.465780 0.231315 -0.037460 290660.000000 0 0 1
-27.457137 3.072142 2.011547 27.701602 -0.111425 1.498118 0.222308 -0.033053 -85114.800000 0 0 1
-27.138107 3.074642 0.498047 27.316265 -0.112815 1.552563 0.243477 -0.040418 -141062.000000 0 0 1
-26.608817 4.291042 0.010547 26.952594 -0.159887 1.570405 0.245877 -0.043603 225066.000000 0 0 1
-26.766787 4.427742 -1.407953 27.167041 -0.163935 1.622645 0.273701 -0.043240 139804.000000 0 0 1
-28.132097 5.065942 -1.802053 28.641335 -0.178167 1.633756 0.256863 -0.062388 517376.000000 0 0 1
-29.159847 4.092542 -1.735953 29.496765 -0.139438 1.629683 0.222690 -0.059244 318765.000000 0 0 1
-30.463747 4.565242 -2.017053 30.869886 -0.148751 1.636183 0.185734 -0.031308 191560.000000 0 0 1
-31.529927 3.459742 -2.143253 31.791503 -0.109292 1.638263 0.177404 -0.029005 -434041.000000 0 0 1
-31.668877 2.822842 -3.395653 31.975251 -0.088901 1.677193 0.169197 -0.034666 347636.000000 0 0 1
-32.480517 1.678142 -3.378353 32.698829 -0.051620 1.674298 0.181370 -0.045369 -461635.000000 0 0 1
-32.696157 1.063242 -4.774453 33.060015 -0.032507 1.715721 0.186844 -0.058893 -92257.500000 0 0 1
-31.500127 0.646042 -5.414753 31.968655 -0.020506 1.740994 0.222183 -0.062909 431459.000000 0 0 1
-31.670007 -0.033858 -6.644553 32.359552 0.001069 1.777602 0.243350 -0.065464 -177489.000000 0 0 1
-32.244317 0.719542 -7.874753 33.199781 -0.022312 1.810272 0.234651 -0.063610 975092.000000 0 0 1
-33.682077 0.835542 -7.933253 34.613826 -0.024802 1.802045 0.234613 -0.060437 1268470.000000 0 0 1
-34.156208 1.675342 -9.013853 35.365278 -0.049010 1.828518 0.212959 -0.053114 -604659.000000 0 0 1
-35.668528 1.782842 -8.892653 36.803556 -0.049942 1.814836 0.197196 -0.050209 -626365.000000 0 0 1
-36.114277 2.527642 -7.694053 37.011193 -0.069876 1.780208 0.165071 -0.043301 -107838.000000 0 0 1
-37.515597 2.442142 -7.738553 38.383190 -0.065005 1.773801 0.161417 -0.039230 -513464.000000 0 0 1
37.145894 3.175242 -6.507453 37.845033 0.085273 1.743605 0.181481 -0.029198 98171.200000 0 0 1
35.733964 3.336942 -6.422853 36.459627 0.093113 1.747884 0.173143 -0.029353 703307.000000 0 0 1
35.296924 3.884542 -5.157653 35.882640 0.109612 1.715033 0.173077 -0.030923 430338.000000 0 0 1
33.872464 3.390942 -4.786253 34.376598 0.099777 1.710480 0.169778 -0.028745 100176.000000 0 0 1
33.845914 2.053042 -4.239653 34.172145 0.060584 1.695184 0.149158 -0.033970 -65199.900000 0 0 1
32.554044 1.482442 -4.106053 32.845442 0.045506 1.696136 0.134003 -0.031466 188332.000000 0 0 1
32.571584 0.105842 -3.437653 32.752660 0.003250 1.675948 0.169613 -0.041587 -304518.000000 0 0 1
33.353024 -0.859858 -4.074053 33.611924 -0.025775 1.692304 0.112553 -0.038325 153857.000000 0 0 1
33.197484 -2.041258 -3.271553 33.420693 -0.061411 1.668843 0.123432 -0.034197 -568930.000000 0 0 1
34.344914 -2.990458 -3.521853 34.654284 -0.086852 1.672600 0.112946 -0.028849 -679387.000000 0 0 1
34.174954 -4.360258 -3.085053 34.589838 -0.126901 1.660105 0.094508 -0.040616 9091.710000 0 0 1
35.427594 -5.005058 -2.912053 35.897703 -0.140347 1.652006 0.136395 -0.037952 206924.000000 0 0 1
35.402814 -6.392558 -2.131053 36.038388 -0.178641 1.629964 0.152288 -0.041803 -116469.000000 0 0 1
34.880154 -6.276558 -0.816953 35.449791 -0.178041 1.593844 0.151828 -0.047527 181221.000000 0 0 1
35.110124 -7.456558 -0.078653 35.893276 -0.209267 1.572988 0.189786 -0.047114 -276241.000000 0 0 1
34.244144 -7.451358 1.153347 35.064431 -0.214255 1.537898 0.196039 -0.031580 1350040.000000 0 0 1
32.876114 -7.918858 0.898947 33.828321 -0.236367 1.544219 0.179191 -0.022038 2003480.000000 0 0 1
32.002364 -7.522058 1.991547 32.934767 -0.230856 1.510290 0.215008 -0.043245 67380.500000 0 0 1
31.323284 -8.765058 2.660847 32.635172 -0.272847 1.489173 0.192541 -0.038265 793579.000000 0 0 1
30.289094 -9.446458 1.921247 31.786097 -0.302317 1.510316 0.184068 -0.038515 1123020.000000 0 0 1
29.032864 -8.775058 1.765447 30.381337 -0.293516 1.512654 0.198059 -0.040609 -18151.900000 0 0 1
27.869064 -9.841658 1.545847 29.596158 -0.339469 1.518541 0.167124 -0.032795 223230.000000 0 0 1
26.606264 -9.549258 2.150647 28.349725 -0.344590 1.494862 0.145787 -0.041670 984252.000000 0 0 1
25.918564 -8.472058 1.509347 27.309812 -0.315924 1.515501 0.156999 -0.045935 -825587.000000 0 0 1
25.309964 -8.757358 0.152147 26.782620 -0.333111 1.565115 0.125722 -0.035993 -410485.000000 0 0 1
26.345864 -8.755558 -0.870253 27.776279 -0.320849 1.602132 0.123006 -0.048011 1083480.000000 0 0 1
25.885764 -8.965058 -2.195253 27.482070 -0.333403 1.650761 0.117395 -0.047222 -66786.500000 0 0 1
25.303264 -10.383758 -2.561653 27.470705 -0.389416 1.664182 0.111907 -0.021977 -156385.000000 0 0 1
24.036264 -10.641358 -2.025453 26.364426 -0.416784 1.647697 0.104880 -0.015734 -239495.000000 0 0 1
23.791764 -12.049858 -2.013853 26.745144 -0.468812 1.646166 0.103197 -0.012092 592853.000000 0 0 1
22.282064 -12.307558 -1.681453 25.510657 -0.504648 1.636756 0.112950 -0.019901 1536090.000000 0 0 1
21.296664 -11.893658 -2.696253 24.541328 -0.509327 1.680884 0.112834 -0.016602 -47149.000000 0 1 0
20.046064 -12.260958 -2.289153 23.609659 -0.548934 1.667907 0.127553 -0.023794 -937543.000000 0 1 0
18.914164 -11.849858 -3.290953 22.560920 -0.559682 1.717188 0.113840 -0.016339 253297.000000 0 1 0
18.895164 -12.518658 -4.532853 23.114730 -0.585135 1.768178 0.114607 -0.029010 360928.000000 0 1 0
18.022964 -11.922358 -5.479053 22.293269 -0.584424 1.819112 0.110608 -0.023972 -21080.200000 0 1 0
17.946364 -12.667358 -6.830453 23.004109 -0.614638 1.872265 0.110567 -0.027778 -154235.000000 0 1 0
16.997764 -13.711458 -6.886153 22.898628 -0.678790 1.876247 0.086262 -0.032098 341740.000000 0 1 0
17.388264 -14.513458 -7.952453 24.004868 -0.695526 1.908461 0.100801 -0.033639 -254029.000000 0 1 0
16.394864 -15.580958 -8.464053 24.149493 -0.759950 1.928886 0.089244 -0.037489 -216669.000000 0 1 0
15.335264 -15.084058 -9.237653 23.410112 -0.777140 1.976430 0.109097 -0.026161 -210222.000000 0 1 0
14.699964 -16.094758 -9.945553 23.959219 -0.830661 1.998853 0.099990 -0.026954 -184509.000000 0 1 0
14.002764 -15.468158 -11.185253 23.673850 -0.835081 2.062891 0.108253 -0.049647 -66579.800000 0 1 0
12.874564 -14.655958 -10.883253 22.338234 -0.850014 2.079680 0.081067 -0.046225 199050.000000 0 1 0
13.076764 -13.253558 -10.748753 21.498703 -0.792113 2.094363 0.078823 -0.040860 -541454.000000 0 1 0
13.402464 -12.435358 -12.062653 21.903693 -0.747986 2.154015 0.100718 -0.031647 -1036850.000000 0 1 0
14.622964 -12.614958 -12.669153 23.097092 -0.711810 2.151386 0.124296 -0.031988 -772692.000000 0 1 0
14.574064 -12.195958 -14.065953 23.643091 -0.696796 2.207973 0.147305 -0.028978 502912.000000 0 1 0
15.971364 -11.761858 -14.613253 24.636820 -0.634762 2.205758 0.165605 -0.042249 742572.000000 0 1 0
16.998964 -12.728858 -14.798653 25.884140 -0.642734 2.179405 0.161051 -0.038747 732429.000000 0 0 1
18.110364 -12.066058 -15.433453 26.678952 -0.587715 2.187670 0.153217 -0.035840 534716.000000 0 0 1
19.261064 -13.079058 -15.729553 28.097494 -0.596521 2.164965 0.142913 -0.026866 -96979.800000 0 0 1
20.060564 -13.373258 -14.606353 28.188930 -0.587987 2.115494 0.118926 -0.046787 460131.000000 0 0 1
20.982664 -14.461558 -14.843453 29.491302 -0.603451 2.098229 0.083147 -0.027840 85397.500000 0 0 1
22.195264 -14.407158 -13.896053 29.888061 -0.575749 2.054359 0.064213 -0.027461 -367000.000000 0 0 1
22.950464 -13.239158 -14.195353 30.058395 -0.523229 2.062648 0.080717 -0.024002 -41283.700000 0 0 1
23.851764 -12.909058 -13.161153 30.145752 -0.496078 2.022595 0.072117 -0.023030 281656.000000 0 0 1
24.578864 -11.514458 -13.276653 30.215440 -0.438107 2.025727 0.080626 -0.025682 -226655.000000 0 0 1
23.791264 -10.390458 -12.951853 29.012693 -0.411767 2.033557 0.076531 -0.012924 22452.900000 0 0 1
24.439564 -9.124758 -12.899853 29.102572 -0.357332 2.030023 0.088340 -0.015989 135141.000000 0 0 1
25.492064 -8.823458 -11.786353 29.438356 -0.333219 1.982721 0.098226 -0.017308 10813.300000 0 0 1
26.722864 -9.422158 -12.047253 30.790011 -0.338978 1.972809 0.089687 -0.017558 -283368.000000 0 0 1
27.726864 -9.015758 -11.145653 31.213594 -0.314380 1.935933 0.095234 -0.022304 498097.000000 0 0 1
29.045864 -9.859158 -11.213253 32.658877 -0.327231 1.921272 0.111761 -0.025285 885198.000000 0 0 1
29.908764 -9.534358 -12.308753 33.718593 -0.308597 1.944476 0.101411 -0.028260 43567.800000 0 0 1
31.072064 -10.294258 -12.430853 35.013869 -0.319922 1.933739 0.109165 -0.033658 -723819.000000 0 0 1
31.839104 -9.840058 -13.662053 36.016759 -0.299744 1.959863 0.094691 -0.032139 -610203.000000 0 0 1
31.215554 -10.042358 -14.937053 36.032975 -0.311253 1.998232 0.071446 -0.025759 -91406.700000 0 0 1
32.084264 -9.828758 -15.997753 37.174353 -0.297265 2.015670 0.056788 -0.024073 -476934.000000 0 0 1
31.665224 -10.539758 -17.282053 37.582472 -0.321315 2.048615 0.032611 -0.014741 -565444.000000 0 0 1
30.530804 -10.203358 -17.998753 36.880802 -0.322529 2.080622 0.025289 -0.007824 -459897.000000 0 0 1
30.427524 -8.876558 -18.522853 36.711355 -0.283851 2.099661 0.022101 -0.001446 301872.000000 0 0 1
28.972964 -8.689958 -19.078653 35.762312 -0.291396 2.133512 0.002324 -0.002457 602584.000000 0 0 1
28.530264 -9.496358 -20.172553 36.208958 -0.321317 2.161704 0.004460 0.005177 437846.000000 0 0 1
27.284164 -9.003658 -20.634453 35.373324 -0.318744 2.193623 0.053424 0.005203 378824.000000 0 0 1
26.641364 -9.607858 -21.942753 35.826772 -0.346119 2.229975 0.071589 -0.003658 41020.300000 0 0 1
26.374764 -11.005058 -21.924453 36.019732 -0.395294 2.225191 0.064120 -0.008511 342034.000000 0 0 1
25.881964 -11.246558 -23.275353 36.580092 -0.409917 2.260469 0.090425 -0.019107 -639964.000000 0 0 1
26.208164 -12.700158 -23.795653 37.608442 -0.451242 2.255858 0.092739 -0.007019 874883.000000 0 0 1
27.526664 -12.990758 -24.256153 38.920919 -0.440943 2.243645 0.084721 -0.005939 184305.000000 0 0 1
28.569564 -12.878658 -23.328453 39.067845 -0.423504 2.210711 0.053142 0.005923 -438497.000000 0 0 1
29.891264 -13.502258 -23.846353 40.551784 -0.424277 2.199438 0.049127 0.007569 174078.000000 0 0 1
30.485734 -12.953758 -25.014053 41.507621 -0.401796 2.217599 0.067113 -0.014575 1154300.000000 0 0 1
31.674844 -13.747358 -25.339353 42.829527 -0.409482 2.203879 0.033888 -0.008719 1785100.000000 0 0 1
32.597754 -13.087958 -26.499343 44.001402 -0.381798 2.217099 0.064310 -0.013914 588091.000000 0 0 1
32.288224 -13.467458 -27.821743 44.698447 -0.395161 2.242642 0.055338 -0.020896 358293.000000 0 0 1
33.175374 -12.964258 -28.845873 45.834068 -0.372533 2.251519 0.038051 -0.025258 287256.000000 0 0 1
33.121804 -13.789258 -30.136643 46.855253 -0.394495 2.269448 0.049213 -0.035083 -131685.000000 0 0 1
33.572224 -15.063958 -29.813093 47.358606 -0.421775 2.251729 0.058575 -0.039903 -272165.000000 0 0 1
33.666164 -15.991158 -30.913333 48.422741 -0.443442 2.263221 0.033229 -0.035974 -611479.000000 0 0 1
32.338114 -16.528058 -31.428133 48.027678 -0.472489 2.284153 0.035381 -0.026631 -281475.000000 0 0 1
31.536244 -15.524958 -32.050933 47.569121 -0.457460 2.310103 0.043909 -0.032110 543617.000000 0 0 1
30.447394 -16.185458 -32.734283 47.545201 -0.488597 2.330198 0.053792 -0.021304 638134.000000 0 0 1
29.618464 -15.350058 -33.731203 47.441245 -0.478148 2.361730 0.085309 -0.023544 104699.000000 0 0 1
28.834064 -14.251658 -33.282363 46.284216 -0.459049 2.373283 0.094707 -0.028699 385537.000000 0 0 1
29.577264 -13.059658 -33.043593 46.230382 -0.415800 2.367076 0.079959 -0.030014 72852.800000 0 0 1
28.571864 -11.908958 -32.828943 45.121105 -0.394911 2.385575 0.100667 -0.027800 273344.000000 0 0 1
28.054164 -11.407358 33.684605 45.296982 -0.386199 0.732299 0.104346 -0.026372 -22912.700000 0 0 1
27.033464 -10.463558 -33.778473 44.511565 -0.369301 2.432372 0.077073 -0.026575 230549.000000 0 0 1
21.316523 -29.332605 9.417047 37.463003 -0.942363 1.316702 0.056554 -0.017902 283606.000000 0 0 1
21.949923 -28.941905 8.173947 37.232330 -0.921932 1.349454 0.068096 -0.024312 193751.000000 0 0 1
23.247923 -29.484505 8.081647 38.407225 -0.903120 1.358792 0.100465 -0.025077 89564.200000 0 0 1
23.853923 -29.346005 6.672947 38.402159 -0.888269 1.396145 0.098602 -0.029387 -139992.000000 0 0 1
24.048823 -28.051205 6.229447 37.470281 -0.862069 1.403770 0.097135 -0.030278 -40694.200000 0 0 1
24.543423 -28.063805 4.902347 37.603055 -0.852217 1.440053 0.111502 -0.018849 -105906.000000 0 0 1
24.825523 -26.652705 4.310447 36.677694 -0.820878 1.453002 0.110486 -0.021072 47135.400000 0 0 1
25.833023 -25.905305 4.956347 36.918766 -0.786795 1.436140 0.099271 -0.021635 67826.800000 0 0 1
25.737823 -24.532705 4.628647 35.856847 -0.761430 1.441348 0.087850 -0.016098 114702.000000 0 0 1
26.520223 -23.633005 5.638647 35.967144 -0.727894 1.413375 0.083767 -0.014505 1032240.000000 0 0 1
27.847723 -23.280205 5.220747 36.670421 -0.696300 1.427941 0.102702 -0.025090 963024.000000 0 0 1
28.705023 -22.545605 6.108847 37.008116 -0.665790 1.404970 0.082622 -0.019193 349551.000000 0 0 1
28.305823 -21.097705 6.574047 35.910317 -0.640518 1.386690 0.065517 -0.006877 -276738.000000 0 0 1
28.433723 -20.185805 5.551147 35.309468 -0.617356 1.412927 0.083199 -0.001317 151531.000000 0 0 1
27.836723 -18.909105 5.759947 34.141095 -0.596688 1.401275 0.089759 -0.003680 -106848.000000 0 0 1
27.782323 -18.126505 4.438247 33.468279 -0.578094 1.437794 0.102704 0.002068 -86160.600000 0 0 1
29.056923 -17.735105 3.985147 34.274190 -0.548000 1.454260 0.132773 0.001299 -29409.900000 0 0 1
29.036423 -17.047505 2.727447 33.781211 -0.530886 1.489970 0.141752 0.002224 140173.000000 0 0 1
30.173423 -16.017505 2.805147 34.276300 -0.488020 1.488865 0.157860 -0.014555 204145.000000 0 0 1
29.723823 -14.902005 3.495547 33.433430 -0.464726 1.466052 0.151944 -0.010790 893327.000000 0 0 1
30.806123 -13.938805 3.583247 34.002164 -0.424905 1.465217 0.170985 -0.016033 994795.000000 0 0 1
30.570223 -12.904505 4.738447 33.518915 -0.399434 1.428955 0.172938 -0.016975 159976.000000 0 0 1
30.602623 -13.456005 6.010147 33.966255 -0.414256 1.392915 0.159851 -0.014532 -107760.000000 0 0 1
30.526923 -12.461205 7.036447 33.714778 -0.387559 1.360546 0.154198 -0.017411 -22987.800000 0 0 1
30.478423 -12.922605 8.511747 34.181542 -0.401016 1.319132 0.159518 -0.015453 12884.500000 0 0 1
29.229723 -13.485605 8.896547 33.397407 -0.432266 1.301156 0.124324 -0.003680 13435.500000 0 0 1
28.880323 -13.568405 10.286347 33.525865 -0.439209 1.258948 0.147342 -0.005505 186959.000000 0 0 1
29.583923 -14.642605 11.164547 34.846255 -0.459601 1.244650 0.135013 -0.012535 518422.000000 0 0 1
30.956323 -14.434705 11.504547 36.041771 -0.436320 1.245911 0.106328 -0.013085 340941.000000 0 0 1
31.355223 -15.564505 12.240147 37.084026 -0.460758 1.234424 0.115288 -0.020828 349822.000000 0 0 1
32.322323 -15.339905 13.455847 38.224404 -0.443115 1.211065 0.102706 -0.027238 381171.000000 0 0 1
33.640223 -15.009405 13.065747 39.085299 -0.419668 1.229947 0.074157 -0.031078 308260.000000 0 0 1
34.420723 -14.813505 14.271747 40.098739 -0.406407 1.206903 0.055040 -0.032499 103840.000000 0 0 1
35.941023 -14.689005 14.110747 41.311465 -0.387982 1.222210 0.070891 -0.029764 -231905.000000 0 0 1
36.346023 -13.540305 13.340047 41.016217 -0.356611 1.239533 0.086105 -0.038520 629403.000000 0 0 1
-37.399218 -13.457805 13.147147 41.864800 0.345416 1.251353 0.090165 -0.031840 233873.000000 0 0 1
-37.018718 -12.062905 12.529547 40.900962 0.315009 1.259452 0.100333 -0.028108 606149.000000 0 0 1
-35.666218 -11.875105 12.094247 39.488835 0.321406 1.259524 0.118190 -0.025969 1138450.000000 0 0 1
-34.823618 -10.974005 12.856047 38.709057 0.305280 1.232246 0.114057 -0.021765 653278.000000 0 0 1
-33.443318 -10.732405 12.194247 37.179829 0.310531 1.236632 0.128712 -0.029647 161325.000000 0 0 1
-32.539118 -11.821805 12.211147 36.710508 0.348483 1.231702 0.116656 -0.025232 216391.000000 0 0 1
-32.753218 -12.768505 11.118147 36.870330 0.371717 1.264481 0.105070 -0.022305 -377162.000000 0 0 1
-31.904818 -14.045705 11.195047 36.613226 0.414706 1.260054 0.079820 -0.023707 593660.000000 0 0 1
-30.507618 -13.879005 10.958947 35.262446 0.426951 1.254780 0.097879 -0.020070 508800.000000 0 0 1
-29.817918 -15.103305 11.157847 35.237985 0.468848 1.248608 0.091078 -0.022234 -920263.000000 0 0 1
-28.452518 -15.071905 10.537747 33.878492 0.487141 1.254504 0.097635 -0.013699 -1253850.000000 0 0 1
-28.475318 -15.113805 9.115847 33.501784 0.487958 1.295221 0.112852 -0.022627 299444.000000 0 0 1
-27.210018 -14.983705 8.487847 32.201554 0.503356 1.304060 0.094687 -0.016914 103410.000000 0 0 1
-27.356918 -14.635405 7.022447 31.810546 0.491238 1.348204 0.121228 -0.012482 157030.000000 0 0 1
-27.851418 -15.765905 6.262547 32.611114 0.515099 1.377559 0.133064 -0.006777 342589.000000 0 0 1
-27.953518 -15.560605 4.887047 32.363789 0.507942 1.419213 0.152559 -0.004563 6722.380000 0 0 1
-28.549918 -16.719805 4.012047 33.327860 0.529789 1.450122 0.139313 -0.002396 229169.000000 0 0 1
-29.897218 -17.014005 4.311347 34.668541 0.517376 1.446114 0.103781 -0.011583 -278906.000000 0 0 1
-30.432518 -18.052805 3.560647 35.562904 0.535410 1.470506 0.117154 -0.007447 -208951.000000 0 0 1
-31.926418 -18.090705 3.954347 36.908084 0.515527 1.463450 0.144072 -0.017935 -483384.000000 0 0 1
-32.687118 -17.105805 3.314647 37.041101 0.482129 1.481191 0.162762 -0.024417 -276245.000000 0 0 1
-34.016218 -17.310805 3.774547 38.353804 0.470741 1.472223 0.157615 -0.021467 -207839.000000 0 0 1
-35.026618 -16.326205 3.175147 38.774870 0.436169 1.488818 0.137730 -0.035929 -130006.000000 0 0 1
-35.365718 -16.690905 1.875247 39.151461 0.440958 1.522881 0.124744 -0.028779 3431.610000 0 0 1
-36.231218 -15.709605 1.313647 39.512258 0.409126 1.537544 0.176552 -0.043458 -145159.000000 0 0 1
-36.644218 -16.138605 -0.099453 40.040769 0.414853 1.573280 0.145530 -0.045415 -111785.000000 0 0 1
-35.535618 -16.187705 -0.979953 39.061263 0.427447 1.595887 0.155413 -0.037011 491181.000000 0 0 1
-35.880118 -16.947005 -2.163953 39.739987 0.441262 1.625276 0.122357 -0.027614 -66152.600000 0 0 1
-34.645118 -17.466705 -2.903853 38.907613 0.466971 1.645500 0.115771 -0.031019 -284920.000000 0 0 1
-35.041718 -18.411605 -3.861053 39.772062 0.483776 1.668029 0.106325 -0.033971 -375779.000000 0 0 1
-33.985618 -19.008005 -4.522953 39.201831 0.509952 1.686430 0.118190 -0.027746 -678270.000000 0 0 1
-34.497518 -19.986205 -5.607853 40.261336 0.525099 1.710537 0.123591 -0.029963 -71232.200000 0 0 1
-35.049618 -21.190105 -5.068753 41.269705 0.543776 1.693927 0.115261 -0.027578 161897.000000 0 0 1
-35.503118 -22.133705 -6.034653 42.270431 0.557469 1.714049 0.104296 -0.031865 124704.000000 0 0 1
-36.057318 -23.436505 -5.456453 43.349427 0.576361 1.697002 0.082628 -0.027550 -135485.000000 0 0 1
-35.041418 -24.283605 -4.969453 42.921905 0.606011 1.686836 0.092529 -0.024286 -279384.000000 0 0 1
-35.653918 -25.445905 -4.531853 44.036731 0.619856 1.673890 0.064916 -0.009515 239282.000000 0 0 1
-34.674718 -26.528005 -4.013053 43.842624 0.653066 1.662458 0.062846 -0.016385 -574624.000000 0 0 1
-33.773718 -26.988805 -4.969453 43.517296 0.674196 1.685241 0.051950 -0.016263 136320.000000 0 0 1
-32.998418 -28.121805 -4.577453 43.596841 0.705780 1.675985 0.056811 -0.015762 -103391.000000 0 0 1
-31.918018 -28.055705 -3.523053 42.641463 0.721087 1.653511 0.074850 -0.020393 -974922.000000 0 0 1
-32.369518 -28.074905 -2.187553 42.904212 0.714467 1.621805 0.072376 -0.018731 -415186.000000 0 0 1
-31.326318 -28.055805 -1.286353 42.072807 0.730378 1.601376 0.088546 -0.020572 -664693.000000 0 0 1
-31.859018 -27.905705 0.151847 42.352668 0.719346 1.567211 0.087897 -0.020520 36015.200000 0 0 1
-32.329618 -29.168405 0.594547 43.547142 0.734040 1.557143 0.073337 -0.014882 4594.750000 0 0 1
-32.992218 -29.029205 1.835747 43.983533 0.721587 1.529047 0.083769 -0.011987 -237407.000000 0 0 1
-33.672218 -30.363105 2.188047 45.392995 0.733768 1.522575 0.060138 -0.011997 -1825520.000000 0 0 1
-34.355118 -30.178005 3.366947 45.851090 0.720760 1.497298 0.063300 -0.008367 36928.000000 0 0 1
-35.149718 -31.306905 3.716847 47.216945 0.727638 1.491996 0.036239 -0.006199 -306518.000000 0 0 1
-36.219618 -31.804405 2.766547 48.280790 0.720582 1.513464 0.031098 -0.009192 -1584240.000000 0 0 1
-36.834018 -32.965405 3.405847 49.548588 0.730030 1.502005 0.031882 -0.003698 -157878.000000 0 0 1
37.268723 -33.377805 2.577047 50.096674 -0.730378 1.519332 0.050943 -0.004520 -986512.000000 0 0 1
36.220523 33.458742 3.280947 49.418400 0.745783 1.504356 0.056960 -0.005432 -71196.900000 0 0 1
35.330923 -33.586505 4.227847 48.930584 -0.760092 1.484283 0.042969 -0.009648 1002220.000000 0 0 1
34.484823 -32.447005 3.980847 47.516926 -0.754961 1.486921 0.048560 -0.010633 1233380.000000 0 0 1
33.372523 -32.629705 2.831947 46.759414 -0.774144 1.510195 0.070437 -0.011604 443758.000000 0 0 1
33.898423 -32.977605 1.566247 47.318903 -0.771630 1.537690 0.070062 -0.003653 78438.200000 0 0 1
33.009023 -32.712905 0.447447 46.475046 -0.780893 1.561168 0.084898 -0.001075 65872.200000 0 0 1
33.555323 -33.410505 -0.835953 47.359480 -0.783236 1.588448 0.085225 -0.010008 551393.000000 0 0 1
34.686523 -32.964205 -1.541553 47.876613 -0.759945 1.603000 0.062201 -0.006655 -250159.000000 0 0 1
35.901623 -32.901205 -0.827453 48.704214 -0.741817 1.587786 0.056047 -0.000524 -614759.000000 0 0 1
37.100823 -32.525705 -1.714753 49.369352 -0.719783 1.605536 0.047323 -0.008997 -465254.000000 0 0 1
37.552623 -33.643405 -2.456253 50.478821 -0.730545 1.619475 0.050826 -0.017111 212464.000000 0 0 1
-36.680618 -33.279705 -3.461953 49.648682 0.736824 1.640582 0.047522 -0.012134 -170886.000000 0 0 1
-35.930118 33.266542 -4.209853 49.146303 -0.746924 1.656561 0.060628 -0.013716 407922.000000 0 0 1
-34.812918 32.745142 -3.483953 47.919949 -0.754800 1.643564 0.078100 -0.016344 158209.000000 0 0 1
-34.263418 31.750742 -4.325253 46.912677 -0.747354 1.663125 0.093915 -0.017358 -12500.700000 0 0 1
-33.011318 31.072842 -3.700253 45.485828 -0.755158 1.652236 0.102014 -0.020176 -538741.000000 0 0 1
-31.891718 31.938642 -3.686053 45.285158 -0.786133 1.652283 0.082299 -0.025983 -1349140.000000 0 0 1
-30.747718 31.238542 -3.455453 43.968271 -0.793316 1.649467 0.086896 -0.027542 -1113370.000000 0 0 1
-30.377218 31.010442 -1.978053 43.454984 -0.795713 1.616332 0.083024 -0.017572 -588253.000000 0 0 1
-31.390618 30.344642 -1.245253 43.677441 -0.768457 1.599310 0.075901 -0.013951 -122801.000000 0 0 1
-31.129818 30.231042 0.121147 43.393504 -0.770752 1.568004 0.071869 -0.013336 -3830.560000 0 0 1
-32.369418 29.561842 0.769547 43.843745 -0.740095 1.553243 0.073138 -0.020341 168900.000000 0 0 1
-32.633118 28.275542 0.260347 43.179792 -0.713977 1.564767 0.082104 -0.026801 -317954.000000 0 0 1
-33.795018 28.297242 -0.511553 44.080595 -0.697086 1.582402 0.090703 -0.027158 -535115.000000 0 0 1
-34.213518 26.956542 -1.154453 43.572385 -0.667314 1.597294 0.102671 -0.016299 37958.600000 0 0 1
-34.413618 26.015342 -0.143853 43.140652 -0.647305 1.574131 0.113143 -0.025155 -1067.430000 0 0 1
-34.753918 24.786042 -0.782753 42.694208 -0.619522 1.589131 0.108184 -0.013805 -127692.000000 0 0 1
-34.788818 23.552442 0.198447 42.012127 -0.595130 1.566073 0.115671 -0.014039 312620.000000 0 0 1
-33.507318 23.110042 0.634447 40.708930 -0.603781 1.555211 0.118708 -0.020345 408172.000000 0 0 1
-33.023118 23.907242 1.753447 40.806337 -0.626623 1.527813 0.113910 -0.022222 -207667.000000 0 0 1
-31.500918 23.723342 2.056247 39.488390 -0.645482 1.518701 0.099902 -0.029761 595565.000000 0 0 1
-30.655218 24.494142 1.222047 39.258105 -0.674143 1.539663 0.105426 -0.028292 -46418.200000 0 0 1
-30.504718 25.880942 1.593447 40.036234 -0.703579 1.530986 0.071213 -0.017924 -248507.000000 0 0 1
-29.745218 26.600442 0.429747 39.906719 -0.729644 1.560027 0.053684 -0.021329 -1034610.000000 0 0 1
-28.542118 26.055442 0.126447 38.646534 -0.739884 1.567524 0.066860 -0.018163 -1785660.000000 0 0 1
-27.835618 26.897142 -0.743153 38.714728 -0.768253 1.589993 0.057044 -0.015583 178781.000000 0 0 1
-26.591418 26.297442 -1.424253 37.425760 -0.779840 1.608861 0.060597 -0.012338 -283107.000000 0 0 1
-26.983318 25.292242 -2.346053 37.058075 -0.753060 1.634146 0.086870 -0.021380 -506234.000000 0 0 1
-25.933818 24.766742 -3.082253 35.992426 -0.762383 1.656537 0.083640 -0.004374 -312748.000000 0 0 1
-24.986518 23.772042 -2.423753 34.573265 -0.760495 1.640959 0.078910 -0.010076 -69354.200000 0 0 1
-25.609718 22.525242 -2.161453 34.174787 -0.721406 1.634086 0.086016 -0.016391 -74444.600000 0 0 1
-24.787418 21.767042 -1.299353 33.013763 -0.720611 1.610164 0.097154 -0.032984 -524009.000000 0 0 1
-25.325718 20.363842 -1.064853 32.514796 -0.677222 1.603552 0.118937 -0.042852 -99322.400000 0 0 1
-26.331318 20.202542 -0.082153 33.188669 -0.654446 1.573272 0.099021 -0.037310 1032620.000000 0 0 1
-27.652518 20.728142 -0.316553 34.560351 -0.643241 1.579956 0.101525 -0.037673 504012.000000 0 0 1
-28.505818 20.034042 -1.381053 34.869067 -0.612606 1.610414 0.105466 -0.043292 -809692.000000 0 0 1
-28.904918 18.730042 -0.973553 34.456590 -0.574960 1.599055 0.111846 -0.041707 327988.000000 0 0 1
-29.823818 18.186642 -1.922553 34.984429 -0.547596 1.625779 0.120714 -0.042975 278560.000000 0 0 1
-30.197818 16.739042 -1.559753 34.562069 -0.506148 1.615941 0.123775 -0.048508 -109976.000000 0 0 1
-30.880418 16.520442 -0.356253 35.023594 -0.491239 1.580968 0.112921 -0.043372 82997.500000 0 0 1
-31.066818 15.153142 -0.160953 34.565746 -0.453808 1.575453 0.124510 -0.048172 114744.000000 0 0 1
-29.820718 14.402642 0.391747 33.118949 -0.449935 1.558968 0.164736 -0.045612 -124817.000000 0 0 1
-29.604918 14.502042 1.770547 33.013562 -0.455497 1.517140 0.173244 -0.044511 448321.000000 0 0 1
-28.252618 14.192042 2.098447 31.686400 -0.465507 1.504522 0.201445 -0.046960 528732.000000 0 0 1
-27.807518 12.699442 2.215647 30.650334 -0.428404 1.498445 0.225421 -0.048128 -194891.000000 0 0 1
-27.950718 12.055242 0.941847 30.454205 -0.407198 1.539865 0.221960 -0.051329 94989.100000 0 0 1
-27.214618 10.877042 0.845947 29.319978 -0.380227 1.541940 0.254379 -0.049374 -320060.000000 0 0 1
-27.260018 10.183442 -0.512153 29.104525 -0.357514 1.588394 0.249657 -0.049879 50081.100000 0 0 1
-28.550118 9.681842 -0.823353 30.158336 -0.326947 1.598101 0.228170 -0.054250 467135.000000 0 0 1
-28.524418 8.834842 -1.976053 29.926604 -0.300358 1.636874 0.241791 -0.054730 -785009.000000 0 0 1
-29.904118 8.616442 -2.557053 31.225597 -0.280537 1.652778 0.221913 -0.058747 -725721.000000 0 0 1
-29.908618 7.790742 -3.739653 31.132075 -0.254822 1.691209 0.246835 -0.052134 232742.000000 0 0 1
-31.241918 7.739242 -4.192353 32.458114 -0.242831 1.700320 0.220220 -0.053115 -836257.000000 0 0 1
-11.362577 18.143742 -20.203553 29.436153 -1.011296 2.327257 0.131796 -0.015770 148206.000000 0 0 1
-11.792777 17.250742 -21.191553 29.761378 -0.971155 2.363208 0.127873 -0.030305 -767144.000000 0 0 1
-10.760577 16.564742 -21.828253 29.438976 -0.994697 2.406062 0.125752 -0.043522 -465641.000000 0 0 1
-11.158677 15.271042 -22.663553 29.518764 -0.939757 2.446146 0.117560 -0.037602 -96521.600000 0 0 1
-10.075077 14.372442 -22.585453 28.603792 -0.959400 2.480947 0.127917 -0.048300 189301.000000 0 0 1
-10.291077 13.149842 -23.341953 28.699675 -0.906755 2.520628 0.107950 -0.044661 -226160.000000 0 0 1
-9.356977 12.055342 -22.843753 27.472192 -0.910757 2.552640 0.087378 -0.037544 -1163800.000000 0 0 1
-8.020277 12.197542 -23.166353 27.382198 -0.989144 2.579304 0.068518 -0.032682 -970557.000000 0 0 1
-7.257577 11.293042 -22.408353 26.121629 -0.999599 2.601861 0.060151 -0.026021 769138.000000 0 0 1
-5.703177 11.462942 -22.529953 25.913781 -1.109125 2.624823 0.042116 -0.015973 854521.000000 0 0 1
-5.127377 11.097042 -23.764453 26.724213 -1.137968 2.666495 0.035334 -0.023567 -860198.000000 0 0 1
-3.740977 11.135242 -23.677053 26.430879 -1.246685 2.681047 0.027444 -0.018377 -881972.000000 0 0 1
-3.058377 10.826542 -24.993753 27.409038 -1.295481 2.718638 0.060069 -0.028932 -431327.000000 0 0 1
-3.260377 9.478842 -25.353283 27.262932 -1.239509 2.765085 0.061546 -0.025900 248327.000000 0 0 1
-2.710577 9.137542 -26.666263 28.318394 -1.282423 2.798321 0.066331 -0.027831 -35728.100000 0 0 1
-2.666577 7.644942 -26.925213 28.116238 -1.235188 2.849486 0.069625 -0.000633 -50310.200000 0 0 1
-1.600577 6.890242 -26.382783 27.314621 -1.342548 2.879636 0.054669 -0.012678 69929.000000 0 0 1
-1.501477 6.895742 -24.962553 25.940985 -1.356403 2.866067 0.058914 -0.030613 -263178.000000 0 0 1
-0.443477 5.940742 -24.379353 25.096652 -1.496284 2.901932 -0.002171 -0.013871 -435964.000000 0 0 1
0.894223 6.369542 -24.444453 25.276510 1.431317 2.884297 0.038610 -0.000411 181896.000000 0 0 1
1.762423 5.645242 -23.557753 24.288734 1.268188 2.895635 0.042445 0.004924 -49230.500000 0 1 0
1.624523 6.091342 -22.051853 22.935294 1.310169 2.863137 0.027822 -0.008839 -134508.000000 0 1 0
2.331423 7.343542 -21.834453 23.153973 1.263382 2.802362 0.029781 -0.016443 487540.000000 0 1 0
2.083023 7.929442 -20.576853 22.149986 1.313906 2.762439 0.031589 -0.021499 301182.000000 0 1 0
2.895923 9.294242 -20.560553 22.748750 1.268748 2.699388 0.041783 -0.033617 255349.000000 0 1 0
2.428323 10.226642 -19.582253 22.224886 1.337663 2.648970 0.047586 -0.027661 181088.000000 0 1 0
2.989723 11.517542 -19.718553 23.030709 1.316822 2.598637 0.052606 -0.031435 -302196.000000 0 1 0
4.282823 11.756442 -18.928053 22.689814 1.221443 2.557494 0.072934 -0.026926 -224514.000000 0 1 0
5.348723 10.949542 -19.368553 22.883228 1.116400 2.580000 0.078514 -0.026781 -112741.000000 0 1 0
6.370823 10.874342 -18.378253 22.284498 1.040840 2.540486 0.089791 -0.019999 859766.000000 0 1 0
7.603123 9.943642 -18.705953 22.507691 0.918003 2.551864 0.134936 -0.032612 588321.000000 0 1 0
7.347523 8.602842 -18.936853 22.058997 0.863938 2.603063 0.112669 -0.024293 -17127.000000 0 1 0
7.065823 8.303542 -20.266753 23.013386 0.865756 2.648030 0.092995 -0.015246 -209461.000000 0 1 0
6.732423 6.794342 -20.520753 22.640448 0.789976 2.705421 0.087523 -0.017800 -507225.000000 0 1 0
7.763923 5.874842 -20.457053 22.655756 0.647766 2.697386 0.093254 -0.021128 -327423.000000 0 1 0
7.316023 4.673142 -21.026653 22.748243 0.568429 2.750046 0.073607 -0.008488 -64439.600000 0 1 0
7.421623 4.571642 -22.593953 24.217083 0.552094 2.773390 0.094272 -0.018040 -532200.000000 0 1 0
6.256523 4.998542 -23.223053 24.565009 0.674090 2.809528 0.086298 -0.019849 -519021.000000 0 1 0
6.202323 4.668242 -24.565853 25.763199 0.645202 2.835522 0.090957 -0.030672 264609.000000 0 0 1
5.048923 5.442742 -25.306373 26.372856 0.822917 2.856236 0.076547 -0.028870 275714.000000 0 0 1
5.082023 6.865842 -25.296823 26.700112 0.933604 2.815941 0.098204 -0.039566 3055.360000 0 0 1
4.720923 7.417642 -24.053653 25.610286 1.004009 2.791143 0.093326 -0.042605 -1636240.000000 0 0 1
4.714523 8.985542 -24.059953 26.112220 1.087601 2.742479 0.105920 -0.044489 200057.000000 0 0 1
3.782823 9.628342 -24.895353 26.959104 1.196439 2.747770 0.107236 -0.046069 689589.000000 0 0 1
2.396823 9.319942 -24.696253 26.504924 1.319080 2.770029 0.074669 -0.024456 683638.000000 0 0 1
1.446523 10.115842 -25.695813 27.653164 1.428763 2.763087 0.073518 -0.009798 473229.000000 0 0 1
1.321323 11.494742 -25.436833 27.944721 1.456348 2.714697 0.095129 -0.042382 -244142.000000 0 0 1
0.296023 11.956542 -26.254953 28.850807 1.546043 2.714140 0.099056 -0.043311 -341582.000000 0 0 1
0.206523 13.506242 -26.422373 29.674956 1.555507 2.669004 0.103678 -0.049936 94317.600000 0 0 1
-0.093377 14.209542 -25.185093 28.917273 -1.564225 2.627900 0.095388 -0.048564 72735.100000 0 0 1
-0.030377 15.576742 -25.332503 29.738384 -1.568846 2.590295 0.101502 -0.057561 -82528.500000 0 0 1
-0.762577 16.266542 -24.115253 29.098579 -1.523951 2.547655 0.104074 -0.043735 822054.000000 0 0 1
-2.058077 15.673142 -23.942053 28.689806 -1.440231 2.558047 0.093864 -0.039989 236684.000000 0 0 1
-2.342477 15.530342 -22.560053 27.488810 -1.421092 2.533431 0.091984 -0.055375 -836764.000000 0 0 1
-3.602777 14.749142 -22.211053 26.904424 -1.331218 2.541979 0.081599 -0.043321 -830395.000000 0 0 1
-4.802877 15.316242 -22.599953 27.720259 -1.266927 2.524020 0.080558 -0.045914 -752299.000000 0 0 1
-5.231977 14.918242 -23.880453 28.639196 -1.233489 2.556821 0.075581 -0.049043 -445883.000000 0 0 1
-6.728477 15.064142 -24.205253 29.293259 -1.150727 2.543317 0.058709 -0.045433 27381.000000 0 0 1
-7.235677 16.367542 -24.456653 30.304774 -1.154553 2.509890 0.069840 -0.041679 -74055.300000 0 0 1
-8.579677 16.209742 -24.885853 30.913949 -1.083991 2.506479 0.078632 -0.039765 -1965.560000 0 0 1
-9.240977 17.531642 -25.406663 32.221928 -1.085702 2.479146 0.085415 -0.036213 -62440.800000 0 0 1
-9.684977 18.487142 -24.501053 32.185009 -1.088231 2.436045 0.092755 -0.035190 -639066.000000 0 0 1
-10.685077 19.280842 -25.028953 33.352215 -1.064749 2.419529 0.095581 -0.022592 17851.300000 0 0 1
-11.516477 20.010242 -23.909753 33.237258 -1.048564 2.373685 0.103468 -0.027641 285430.000000 0 0 1
-10.861877 21.202342 -23.474653 33.445164 -1.097360 2.348837 0.108897 -0.027896 172489.000000 0 0 1
-11.504277 22.440342 -23.756653 34.645287 -1.097072 2.326376 0.111914 -0.030755 -87776.900000 0 0 1
-11.125377 23.013442 -25.164583 35.869886 -1.120493 2.348369 0.096543 -0.018752 -22727.300000 0 0 1
-11.645477 22.281042 -26.254783 36.350730 -1.089183 2.377865 0.094550 -0.019305 68559.700000 0 0 1
-11.390177 23.003942 -27.443223 37.577227 -1.111044 2.389580 0.094213 -0.011137 -53831.100000 0 0 1
-11.721177 22.221142 -28.772943 38.197479 -1.085408 2.423813 0.076346 -0.015761 -614264.000000 0 0 1
-10.763777 21.338042 -29.190503 37.726070 -1.103602 2.455534 0.053873 -0.012172 -656465.000000 0 0 1
-10.640977 20.128242 -28.472463 36.456243 -1.084485 2.467068 0.067844 -0.020353 152668.000000 0 0 1
-9.663677 19.112742 -29.171423 36.189162 -1.102667 2.508297 0.067480 -0.021002 -1027210.000000 0 0 1
-8.346877 19.540842 -29.085503 36.020568 -1.167106 2.510646 0.063798 -0.018102 -985339.000000 0 0 1
-7.454577 18.572842 -29.606273 35.735872 -1.189110 2.547175 0.063321 -0.020196 36583.800000 0 0 1
-7.190077 17.253842 -28.754503 34.295972 -1.175957 2.565178 0.071687 -0.032630 172049.000000 0 0 1
-8.346377 16.368442 -28.755263 34.124083 -1.099255 2.573015 0.071773 -0.032714 863142.000000 0 0 1
-8.040377 15.074542 -28.231323 32.998440 -1.080807 2.597380 0.062442 -0.033761 -729223.000000 0 0 1
-9.214577 14.123642 -28.168923 32.830990 -0.992720 2.602156 0.076978 -0.031801 -587269.000000 0 0 1
-10.093377 14.540742 -27.132863 32.396013 -0.964011 2.563556 0.083874 -0.040078 -110275.000000 0 0 1
-11.292177 13.788742 -27.108103 32.442132 -0.884612 2.559990 0.111858 -0.044960 182629.000000 0 0 1
-12.312177 14.374142 -26.116503 32.253331 -0.862512 2.514489 0.093391 -0.040217 -133692.000000 0 0 1
-12.947777 15.572642 -26.479843 33.336679 -0.877174 2.488676 0.078948 -0.038402 359356.000000 0 0 1
-14.119577 15.791742 -25.681893 33.291158 -0.841244 2.451886 0.090518 -0.038817 1247890.000000 0 0 1
-15.116677 16.968942 -26.032123 34.556191 -0.843063 2.423903 0.077551 -0.030558 333002.000000 0 0 1
-14.506177 18.227142 -26.104193 34.986951 -0.898587 2.413000 0.081958 -0.026803 -262931.000000 0 0 1
-15.357777 19.243142 -26.564873 36.219502 -0.897221 2.394167 0.071561 -0.022912 -80802.000000 0 0 1
-14.730077 20.665242 -26.461163 36.663613 -0.951535 2.377092 0.070629 -0.020767 15565.500000 0 0 1
-15.709777 21.642442 -26.679733 37.775661 -0.942913 2.355009 0.050542 -0.010436 300736.000000 0 0 1
-15.209077 23.018642 -26.531713 38.276699 -0.986916 2.336654 0.059736 -0.011356 208365.000000 0 0 1
-14.898677 23.752242 -25.184773 37.688358 -1.010578 2.302633 0.053758 -0.016465 -73970.900000 0 0 1
-14.279777 24.972442 -25.507783 38.447131 -1.051354 2.296218 0.076757 -0.025180 12484.000000 0 0 1
-14.000377 25.790242 -24.370553 38.145393 -1.073455 2.263845 0.091644 -0.031471 -78938.000000 0 0 1
-13.902577 27.340042 -24.653653 39.351774 -1.100367 2.247843 0.102481 -0.034560 799107.000000 0 0 1
-15.048277 28.040942 -25.224103 40.607886 -1.078257 2.241022 0.105967 -0.038669 707065.000000 0 0 1
-15.629177 28.863742 -24.206353 40.783996 -1.074517 2.206229 0.108235 -0.041841 -139412.000000 0 0 1
-16.811577 29.738142 -24.679053 42.143112 -1.056267 2.196418 0.095333 -0.043723 284843.000000 0 0 1
-17.966077 28.914442 -24.762053 42.094942 -1.014824 2.199681 0.088239 -0.031667 -716275.000000 0 0 1
-19.126177 29.692142 -24.725053 43.113364 -0.998545 2.181555 0.080605 -0.034267 405331.000000 0 0 1
-20.431477 28.866942 -25.042653 43.334513 -0.954867 2.186939 0.066032 0.001211 205205.000000 0 0 1
-20.763577 27.936542 -24.053053 42.309879 -0.931635 2.175474 0.069898 -0.010844 16901.900000 0 0 1
-21.767977 27.005742 -24.469453 42.448899 -0.892377 2.185168 0.060173 -0.023137 121401.000000 0 0 1
-22.358177 26.392742 -23.174053 41.635341 -0.867969 2.161079 0.053002 -0.020427 -126862.000000 0 0 1
-23.094077 27.246242 -22.331453 42.123484 -0.867694 2.129565 0.058198 -0.016337 -213233.000000 0 0 1
-23.464077 26.532042 -21.136953 41.246611 -0.846685 2.108835 0.046007 -0.012576 -371899.000000 0 0 1
-24.477577 27.377142 -20.367153 41.993816 -0.841257 2.077164 0.034009 -0.010047 -905398.000000 0 0 1
-25.720687 27.336042 -20.977853 42.998642 -0.815835 2.080447 0.073018 -0.024314 -877231.000000 0 0 1
-26.648197 28.279742 -20.483553 43.925461 -0.815093 2.055928 0.072475 -0.025052 520788.000000 0 0 1
-28.098037 27.716842 -20.523453 44.485224 -0.778569 2.050317 0.067461 -0.019585 163817.000000 0 0 1
-28.569197 27.466742 -21.831953 45.246603 -0.765727 2.074315 0.069148 -0.020268 93753.200000 0 0 1
-29.945617 27.116642 -21.844753 45.926523 -0.735862 2.066494 0.074926 -0.012927 269210.000000 0 0 1
-30.363597 26.962242 -23.339753 46.836466 -0.726134 2.092461 0.073027 -0.017573 100659.000000 0 0 1
-29.981697 25.655442 -23.801653 46.082779 -0.707796 2.113552 0.086929 -0.012619 57182.000000 0 0 1
-30.232427 25.674442 -25.203323 46.993447 -0.704050 2.136862 0.090356 -0.005617 -144023.000000 0 0 1
-30.686247 24.253742 -25.710273 46.807135 -0.668846 2.152300 0.070695 -0.008639 56989.300000 0 0 1
-29.634017 23.301042 -25.718653 45.635103 -0.666327 2.169500 0.103370 -0.020665 92744.300000 0 0 1
-30.070217 22.047142 -26.171543 45.554847 -0.632655 2.182797 0.079744 -0.009836 -342528.000000 0 0 1
-29.041557 20.912842 -26.052423 44.266101 -0.624089 2.200050 0.104773 -0.010356 -709.482000 0 0 1
-28.581667 20.618042 -24.694853 43.033140 -0.624927 2.182004 0.097605 -0.006912 147563.000000 0 0 1
-27.787547 19.461842 -24.619453 41.916924 -0.610981 2.198564 0.119443 -0.012897 -242612.000000 0 0 1
-28.571237 18.150742 -24.464353 41.764454 -0.565958 2.196626 0.109635 -0.007839 19640.900000 0 0 1
-29.387887 17.831242 -25.597103 42.858054 -0.545371 2.210868 0.096102 -0.010655 429946.000000 0 0 1
-29.901757 16.497642 -25.494263 42.617423 -0.504169 2.212065 0.066308 -0.003944 -325791.000000 0 0 1
-30.744667 16.088542 -26.675003 43.767928 -0.482110 2.226181 0.027205 -0.003581 -1027110.000000 0 0 1
-32.027327 16.609042 -26.772723 44.926480 -0.478409 2.209211 0.005984 0.001108 -823664.000000 0 0 1
-32.597207 16.017142 -27.911293 45.805753 -0.456716 2.226025 0.000424 0.007765 121825.000000 0 0 1
-33.910077 16.707142 -28.385863 47.273451 -0.457782 2.214874 -0.005249 0.002547 330889.000000 0 0 1
-35.009806 16.436642 -27.538943 47.478870 -0.438940 2.189556 -0.016189 0.002506 179535.000000 0 0 1
-36.241007 16.648542 -28.237263 48.866426 -0.430630 2.186883 0.001931 0.002296 389272.000000 0 0 1
-37.435897 16.325742 -27.324313 49.138522 -0.411234 2.160443 0.023087 0.002225 -339542.000000 0 0 1
37.411764 17.405942 -26.441593 49.007802 0.435466 2.140685 0.035958 -0.007988 400072.000000 0 0 1
36.271604 17.081342 -25.646653 47.593616 0.440121 2.139888 0.045585 -0.005926 373061.000000 0 0 1
35.734444 18.153842 -24.696053 47.078737 0.470044 2.123005 0.058885 -0.002593 117746.000000 0 0 1
35.155964 19.325142 -25.296173 47.426778 0.502611 2.133380 0.066735 -0.014670 202702.000000 0 0 1
34.483464 20.046242 -24.284253 46.697816 0.526578 2.117682 0.092870 -0.016747 -22927.200000 0 0 1
33.690264 21.272342 -24.761853 46.911574 0.563195 2.126853 0.107609 -0.028375 286421.000000 0 0 1
32.524064 20.922042 -25.477723 46.310484 0.571636 2.153340 0.115416 -0.030786 -294803.000000 0 0 1
31.462134 21.833642 -25.355053 45.928776 0.606665 2.155619 0.120124 -0.023730 -250329.000000 0 0 1
30.385464 21.503042 -26.381513 45.625009 0.615859 2.187348 0.089971 -0.025562 -273907.000000 0 0 1
29.880064 20.214442 -26.027063 44.484265 0.594793 2.195781 0.109971 -0.038090 -16485.600000 0 0 1
28.539664 20.139942 -26.509793 43.850870 0.614530 2.219990 0.121780 -0.043394 496968.000000 0 0 1
27.991464 18.704442 -26.468113 42.824516 0.589077 2.237069 0.135550 -0.032759 314031.000000 0 0 1
28.850164 17.823742 -27.207533 43.477207 0.553408 2.246938 0.135749 -0.040795 355009.000000 0 0 1
29.768864 17.107342 -26.415153 43.319819 0.521588 2.226567 0.129702 -0.030307 611324.000000 0 0 1
30.939244 16.334042 -27.142343 44.280295 0.485748 2.230606 0.112003 -0.020641 598497.000000 0 0 1
30.602444 15.140242 -27.895583 44.089682 0.459430 2.255832 0.130308 -0.029250 170819.000000 0 0 1
29.948664 14.057742 -27.179123 42.816437 0.438865 2.258523 0.139129 -0.026701 -154590.000000 0 0 1
30.814924 13.212742 -26.194163 42.547271 0.405066 2.234005 0.123413 -0.025187 -19863.600000 0 0 1
30.936814 13.907442 -24.983253 42.126788 0.422474 2.205637 0.119379 -0.027011 381262.000000 0 0 1
31.648414 13.007742 -24.088153 41.845699 0.389960 2.184186 0.088830 -0.023270 315402.000000 0 0 1
-14.863577 -31.012305 -23.331053 41.557514 1.123862 2.166892 0.134929 -0.014728 -48290.700000 0 0 1
-14.390777 -29.848905 -23.974453 40.900195 1.121554 2.197119 0.124879 -0.036214 -29828.700000 0 0 1
-14.844177 -29.677105 -25.320813 41.739953 1.106997 2.222614 0.100493 -0.021608 361748.000000 0 0 1
-14.140877 -28.430105 -25.993933 41.035592 1.109238 2.256798 0.108773 -0.024456 -67408.600000 0 0 1
-14.613177 -27.259105 -25.487953 40.077917 1.078700 2.260048 0.108329 -0.019660 -139307.000000 0 0 1
-14.020677 -26.142305 -26.120093 39.525419 1.078516 2.292738 0.100657 -0.015283 -179938.000000 0 0 1
-14.556177 -24.754305 -25.611933 38.478942 1.039228 2.299106 0.065545 -0.006419 -125649.000000 0 0 1
-14.083877 -24.431905 -24.343453 37.254225 1.047870 2.282918 0.101235 -0.020770 186563.000000 0 0 1
-14.560577 -23.145405 -23.932453 36.338443 1.009260 2.289751 0.063315 -0.018724 -205460.000000 0 0 1
-14.031677 -22.700805 -22.599753 34.970892 1.017164 2.273449 0.094896 -0.021976 -430237.000000 0 0 1
-12.712177 -22.234305 -22.654053 34.193126 1.051418 2.294991 0.144061 -0.033179 -732520.000000 0 0 1
-12.175777 -21.880705 -21.408353 32.944383 1.063006 2.278161 0.114537 -0.032341 -50054.300000 0 0 1
-10.686777 -21.589005 -21.667853 32.400435 1.111149 2.303325 0.144934 -0.038372 -349788.000000 0 0 1
-10.505877 -20.366305 -22.333253 31.998969 1.094552 2.343309 0.180386 -0.040504 -362962.000000 0 0 1
-9.216477 -20.312505 -22.883953 31.956480 1.144841 2.368991 0.211890 -0.042754 -231940.000000 0 0 1
-8.959177 -19.121605 -23.754653 31.783426 1.132634 2.414923 0.263772 -0.040034 -195276.000000 0 0 1
-8.737177 -17.897505 -23.064753 30.473624 1.116651 2.429316 0.175340 -0.034743 -153735.000000 0 0 1
-8.749977 -16.786405 -23.922153 30.505981 1.090291 2.472168 0.173359 -0.034064 385615.000000 0 0 1
-7.326877 -16.419905 -24.437953 30.339907 1.151091 2.507268 0.200308 -0.041948 192287.000000 0 0 1
-6.854477 -17.267305 -25.444063 31.504666 1.192911 2.510916 0.214888 -0.052992 112453.000000 0 0 1
-5.822177 -16.488905 -26.073093 31.394074 1.231365 2.550819 0.186634 -0.052006 243977.000000 0 0 1
-5.277777 -17.098205 -27.378153 32.707289 1.271401 2.562694 0.192790 -0.037965 37129.600000 0 0 1
-6.074877 -16.887705 -28.535433 33.710082 1.225487 2.580164 0.217148 -0.040893 129804.000000 0 0 1
-5.684877 -17.775205 -29.587493 34.981359 1.261256 2.578873 0.204821 -0.046917 31742.600000 0 0 1
-6.264477 -17.325305 -30.943183 36.012365 1.223843 2.604574 0.209223 -0.044416 58640.500000 0 0 1
-5.800977 -16.052705 -31.483043 35.812325 1.224028 2.644792 0.182631 -0.038268 149279.000000 0 0 1
-6.316577 -14.848705 -30.818103 34.787047 1.168590 2.659243 0.165834 -0.032621 418977.000000 0 0 1
-7.350977 -14.088505 -31.682863 35.444698 1.089884 2.676695 0.155200 -0.032549 283149.000000 0 0 1
-6.683877 -13.556605 -32.822503 36.135473 1.112736 2.710042 0.163130 -0.040799 -593290.000000 0 0 1
-7.430477 -12.896705 -33.748843 36.885246 1.048096 2.726226 0.160022 -0.041187 -608268.000000 0 0 1
-7.788077 -11.409105 -33.427833 36.169626 0.971831 2.749722 0.133518 -0.035335 637031.000000 0 0 1
-6.725777 -10.450705 -33.551853 35.779605 0.998953 2.786853 0.120089 -0.035513 236900.000000 0 0 1
-6.299377 -10.137705 32.870201 34.970064 1.014804 0.348305 0.098245 -0.036227 -68064.000000 0 0 1
-5.103177 -9.175405 32.885179 34.520508 1.063221 0.309036 0.087066 -0.034503 -241096.000000 0 0 1
-4.971877 -8.571705 31.636935 33.152517 1.045187 0.303539 0.079080 -0.026975 167494.000000 0 0 1
-3.954577 -7.571705 31.645325 32.777981 1.089481 0.263652 0.074488 -0.035534 -282106.000000 0 0 1
-4.253577 -6.528405 30.516675 31.495721 0.993333 0.249990 0.074490 -0.026312 606359.000000 0 0 1
-5.375377 -5.665405 30.655345 31.634502 0.811661 0.249452 0.058695 -0.019041 -370691.000000 0 0 1
-6.601977 -6.281605 30.403015 31.739376 0.760537 0.291215 0.072676 -0.017798 -424947.000000 0 0 1
-7.867677 -5.362605 30.475585 31.928345 0.598270 0.302820 0.059318 -0.013050 62053.000000 0 0 1
-8.981377 -6.077205 30.043105 31.940347 0.594879 0.346402 0.066736 -0.007240 -229392.000000 0 0 1
-10.107377 -5.225105 29.758925 31.859919 0.477123 0.365192 0.057093 -0.007786 504290.000000 0 0 1
-11.175277 -5.982305 28.955845 31.608793 0.491500 0.412630 0.058828 -0.001616 -232903.000000 0 0 1
-10.950777 -5.806005 27.514575 30.177493 0.487508 0.423252 0.050455 -0.002388 414358.000000 0 0 1
-11.727477 -6.643505 26.663905 29.876977 0.515416 0.468035 0.060767 -0.007236 -6957.770000 0 0 1
-11.363177 -6.408505 25.206825 28.382649 0.513506 0.477586 0.045320 -0.007464 115844.000000 0 0 1
-10.214277 -7.142005 24.801135 27.756729 0.610201 0.465677 0.045607 -0.001340 443659.000000 0 0 1
-9.523577 -6.561605 23.675445 26.349192 0.603295 0.454396 0.038411 -0.007382 75954.900000 0 0 1
-10.299877 -6.497805 22.334985 25.439350 0.562804 0.499191 0.043366 -0.013011 -344559.000000 0 0 1
-11.435777 -5.674905 22.381785 25.766759 0.460636 0.518365 0.024257 -0.006822 -696072.000000 0 0 1
-12.253777 -5.818005 21.280585 25.236235 0.443279 0.567486 0.024655 -0.009596 -698635.000000 0 0 1
-13.394577 -4.814905 21.339485 25.650958 0.345083 0.588242 0.028932 -0.004598 -337421.000000 0 0 1
-12.949177 -3.488505 20.972585 24.893778 0.263152 0.568920 0.018548 -0.003806 480569.000000 0 1 0
-13.989977 -2.517305 21.165585 25.495849 0.178031 0.591405 0.045612 -0.005036 339116.000000 0 0 1
-13.776277 -1.156305 20.403785 24.646243 0.083738 0.595504 0.027928 -0.006528 137228.000000 0 1 0
-12.731977 -0.355305 20.930185 24.501064 0.027899 0.546678 0.028484 -0.002744 254090.000000 0 1 0
-13.044577 1.040695 20.681885 24.474158 -0.079611 0.564138 0.044698 -0.014745 -8399.700000 0 1 0
-12.658177 1.599695 19.292385 23.129734 -0.125710 0.584307 0.045303 -0.019853 402600.000000 0 1 0
-13.467677 1.011695 18.242285 22.697639 -0.074979 0.637295 0.057058 -0.019105 -63431.300000 0 1 0
-14.667677 1.707695 18.061485 23.329686 -0.115904 0.685370 0.070645 -0.022483 -87690.400000 0 1 0
-15.730877 0.834695 17.290285 23.390408 -0.053011 0.738909 0.092667 -0.019340 141398.000000 0 1 0
-16.001377 -0.308305 18.025285 24.104980 0.019265 0.726080 0.077234 -0.013128 173977.000000 0 1 0
-16.622477 -1.315305 17.263085 24.001060 0.078964 0.768055 0.092143 -0.014244 -497027.000000 0 1 0
-16.510677 -2.686205 17.958585 24.542391 0.161282 0.749929 0.071519 -0.005889 -370663.000000 0 1 0
-17.330977 -2.950905 19.081385 25.945518 0.168650 0.744480 0.108221 -0.015447 -25872.600000 0 0 1
-17.367677 -4.339705 19.398885 26.396704 0.244859 0.745280 0.126375 -0.019979 -161633.000000 0 0 1
-18.359777 -4.720205 20.492685 27.916159 0.251645 0.746486 0.131267 -0.017520 -367168.000000 0 0 1
-18.023677 -4.125405 21.747285 28.544988 0.225012 0.704616 0.112166 -0.010544 -154153.000000 0 0 1
-18.720077 -4.526905 22.913765 29.932838 0.237266 0.698969 0.110709 -0.017835 -691871.000000 0 0 1
-18.564277 -5.992805 23.348645 30.425406 0.312253 0.696010 0.129409 -0.018134 -430037.000000 0 0 1
-17.319377 -6.419005 23.818835 30.141357 0.354930 0.659600 0.068775 -0.023646 -487915.000000 0 0 1
-16.426077 -6.800105 22.805425 28.916170 0.392502 0.662147 0.095620 -0.016933 -732769.000000 0 0 1
-15.273677 -7.580705 23.428485 28.976650 0.460703 0.629147 0.097260 -0.011727 -378303.000000 0 0 1
-15.783377 -8.793505 23.914425 29.972328 0.508306 0.647020 0.096115 -0.028027 351567.000000 0 0 1
-15.238777 -9.047105 25.207225 30.813547 0.535767 0.612772 0.100555 -0.017900 440738.000000 0 0 1
-16.261877 -9.852105 26.068895 32.266080 0.544703 0.630157 0.080572 -0.019698 305872.000000 0 0 1
-16.301477 -11.266205 25.776505 32.512978 0.604738 0.655396 0.086559 -0.029516 239753.000000 0 0 1
-15.457277 -11.986405 26.681725 33.083467 0.659594 0.632593 0.077459 -0.030324 343918.000000 0 0 1
-15.639477 -13.481905 26.373105 33.494711 0.711444 0.664247 0.063092 -0.031673 135291.000000 0 0 1
-16.725477 -14.084305 27.048635 34.781287 0.699882 0.679833 0.069704 -0.032773 38374.300000 0 0 1
-16.866677 -15.453105 26.688295 35.150368 0.741689 0.708620 0.089988 -0.024485 -160174.000000 0 0 1
-15.881077 -16.420605 27.372665 35.652597 0.802099 0.695457 0.082399 -0.026266 -595413.000000 0 0 1
-14.604277 -16.346705 26.835535 34.650334 0.841635 0.684924 0.114127 -0.039374 -1012060.000000 0 0 1
-13.709677 -17.130205 27.572295 35.236780 0.895859 0.672148 0.127661 -0.039329 84702.100000 0 0 1
-12.248277 -17.039205 27.061975 34.244785 0.947545 0.659578 0.125442 -0.048265 619181.000000 0 0 1
-11.278777 -17.679405 27.906115 34.907355 1.002931 0.644444 0.140966 -0.050678 -54104.400000 0 0 1
-10.101777 -17.949205 27.195475 34.114714 1.058180 0.648191 0.140088 -0.041139 -227156.000000 0 0 1
-8.966277 -18.598205 28.009835 34.797101 1.121567 0.635210 0.148520 -0.048101 16488.300000 0 0 1
-9.253677 -19.881505 28.561455 36.009186 1.135176 0.654797 0.141372 -0.039148 225475.000000 0 0 1
-8.076877 -20.327805 29.203725 36.487164 1.192592 0.642862 0.148140 -0.040196 368198.000000 0 0 1
-8.429777 -21.678405 29.936955 37.910891 1.199934 0.660531 0.123128 -0.035739 391252.000000 0 0 1
-8.625477 -22.780405 29.080275 37.934260 1.208842 0.697272 0.126144 -0.032214 -96567.900000 0 0 1
-8.912777 -23.951505 29.792655 39.251936 1.214555 0.709003 0.107464 -0.030949 -248564.000000 0 0 1
-9.022977 -25.197405 28.866955 39.365269 1.226931 0.747618 0.117794 -0.023500 454932.000000 0 0 1
-10.222177 -25.321605 28.078245 39.167135 1.187110 0.771475 0.108227 -0.026731 532767.000000 0 0 1
-10.340977 -26.631505 27.589765 39.716093 1.200418 0.802829 0.110907 -0.026410 -123307.000000 0 0 1
-11.709677 -26.923505 26.920355 39.833368 1.160550 0.828714 0.106001 -0.035718 133908.000000 0 0 1
-12.103277 -26.258705 25.732925 38.706490 1.138895 0.843541 0.128676 -0.043434 -27412.100000 0 0 1
-12.369077 -24.899805 25.853675 37.965865 1.109749 0.821708 0.126370 -0.033266 -491029.000000 0 0 1
-12.614377 -24.337405 24.419355 36.711534 1.092606 0.843077 0.134731 -0.046217 583961.000000 0 0 1
-13.826877 -24.766305 23.779895 37.013995 1.061608 0.873096 0.131105 -0.046913 528848.000000 0 0 1
-13.926777 -24.157305 22.501585 35.830878 1.047833 0.891823 0.133350 -0.049759 836260.000000 0 0 1
-15.317877 -24.154305 21.742685 35.927875 1.005632 0.920809 0.120549 -0.049418 677926.000000 0 0 1
-15.772277 -25.431705 21.363385 36.768609 1.015669 0.950812 0.125991 -0.051412 -389944.000000 0 0 1
-16.949477 -25.437505 20.629485 36.877189 0.983035 0.977122 0.117241 -0.045780 -423503.000000 0 0 1
-17.254977 -26.895305 20.086385 37.743271 1.000377 1.009618 0.100396 -0.045466 -76783.100000 0 0 1
-16.431577 -27.306005 19.005085 37.105362 1.029086 1.033061 0.087998 -0.039524 132432.000000 0 0 1
-16.645777 -28.631305 18.616485 37.992197 1.044178 1.058697 0.086366 -0.039535 150443.000000 0 0 1
-15.569677 -29.100105 17.596185 37.401293 1.079512 1.080973 0.097739 -0.046738 157867.000000 0 0 1
-15.741577 -28.567505 16.334785 36.479101 1.067162 1.106510 0.090917 -0.047977 964456.000000 0 0 1
-14.601877 -28.916305 15.478685 35.902050 1.103180 1.125044 0.081642 -0.047411 987393.000000 0 0 1
-14.585477 -28.304505 14.076285 34.814120 1.094979 1.154554 0.082014 -0.043589 -232131.000000 0 0 1
-14.520377 -26.893605 14.063585 33.643599 1.075726 1.139535 0.074491 -0.039859 -82733.000000 0 0 1
-14.717777 -26.254905 12.776585 32.698228 1.059872 1.169358 0.074933 -0.047769 159061.000000 0 0 1
-13.756977 -26.600305 11.597585 32.114399 1.093504 1.201313 0.065660 -0.034330 145733.000000 0 0 1
-14.159977 -26.031605 10.340085 31.385773 1.072607 1.235074 0.051115 -0.025464 -155516.000000 0 0 1
-13.291377 -26.389005 9.296585 30.975261 1.104216 1.265968 0.063083 -0.020282 -306361.000000 0 0 1
-13.571777 -25.759005 7.892885 30.166490 1.085881 1.306071 0.068765 -0.020993 11215.900000 0 0 1
-14.821177 -26.161905 7.348485 30.953397 1.055360 1.331103 0.063137 -0.025976 217472.000000 0 0 1
-15.063177 -25.353705 6.175085 30.130405 1.034711 1.364388 0.059719 -0.025283 -132306.000000 0 0 1
-16.030077 -26.023005 5.158285 30.996259 1.018698 1.403602 0.071400 -0.025574 -233829.000000 0 0 1
-15.638377 -27.189605 4.556585 31.695361 1.048842 1.426535 0.078564 -0.026974 11402.100000 0 0 1
-16.459777 -27.585905 3.437685 32.306719 1.032826 1.464187 0.099683 -0.021075 68591.900000 0 0 1
-15.906777 -28.850705 2.750685 33.059870 1.066919 1.487497 0.098038 -0.020306 -80969.400000 0 0 1
-14.720377 -28.688205 2.021385 32.307717 1.096711 1.508189 0.095174 -0.011967 -485082.000000 0 0 1
-14.216277 -29.836105 1.442885 33.081379 1.126142 1.527166 0.092781 -0.012274 -857310.000000 0 0 1
-12.809377 -29.673905 0.916185 32.333576 1.163289 1.542457 0.073448 -0.010640 -675992.000000 0 0 1
-12.707277 -28.955105 -0.298515 31.622177 1.157244 1.580237 0.076856 -0.003137 -93056.300000 0 0 1
-12.719777 -27.558305 -0.220615 30.352950 1.138372 1.578065 0.060992 -0.008236 -177504.000000 0 0 1
-12.462277 -26.902305 -1.602215 29.691909 1.136985 1.624784 0.057217 -0.007095 -242491.000000 0 0 1
-11.125177 -26.999505 -2.005415 29.270540 1.179944 1.639363 0.065316 -0.006795 -719571.000000 0 0 1
-10.856977 -26.131905 -3.004715 28.456611 1.177027 1.676583 0.077771 -0.011534 462976.000000 0 0 1
-9.442777 -26.382505 -3.592215 28.250781 1.227085 1.698296 0.071259 -0.013053 542778.000000 0 0 1
-8.947477 -25.474905 -4.565215 27.383742 1.233029 1.738291 0.072767 -0.021002 -629490.000000 0 0 1
-7.615677 -25.742405 -4.900415 27.288899 1.283159 1.751351 0.095561 -0.018864 -225414.000000 0 0 1
-6.976777 -24.622505 -5.738515 26.227347 1.294684 1.791380 0.067813 -0.019914 -172571.000000 0 0 1
-7.358477 -24.492105 -7.089315 26.538063 1.278933 1.841218 0.067134 -0.014036 -142727.000000 0 0 1
-6.572977 -23.483905 -7.713815 25.577348 1.297887 1.877154 0.065877 -0.011113 -131727.000000 0 0 1
-6.688077 -23.446705 -9.256615 26.079940 1.292930 1.933638 0.061960 -0.011971 -216067.000000 0 0 1
-5.782977 -24.304605 -9.894415 26.871101 1.337202 1.947888 0.038644 -0.016104 -169289.000000 0 0 1
-5.910277 -24.271105 -11.330215 27.429759 1.331934 1.996611 0.022482 -0.000744 985876.000000 0 0 1
-7.248177 -24.989305 -11.805515 28.572217 1.288492 1.996741 0.035199 -0.007658 1114850.000000 0 0 1
-7.531477 -24.708405 -13.153815 28.987088 1.274929 2.041801 0.056629 -0.004703 -998908.000000 0 0 1
-8.655477 -25.339405 -13.599015 30.032248 1.241641 2.040715 0.084695 -0.012530 -1504610.000000 0 0 1
-8.881777 -25.005605 -15.099815 30.531470 1.229504 2.088131 0.093732 -0.021291 59198.900000 0 0 1
-8.072577 -25.652305 -16.084815 31.335738 1.265916 2.109829 0.085982 -0.034748 -216216.000000 0 0 1
-6.742777 -25.215105 -16.113715 30.674392 1.309500 2.123881 0.075463 -0.029649 -411390.000000 0 0 1
-5.756377 -26.140005 -16.895915 31.652925 1.354043 2.133869 0.082696 -0.020804 159744.000000 0 0 1
-5.947677 -25.999205 -18.279415 32.333736 1.345902 2.171636 0.146577 -0.034174 974454.000000 0 0 1
-4.875677 -26.764905 -18.882215 33.116014 1.390605 2.177526 0.125988 -0.031388 826981.000000 0 0 1
-25.780067 14.066842 -4.779853 29.754578 -0.499496 1.732138 0.158204 -0.050839 56022.100000 0 0 1
-25.516587 12.908942 -4.088453 28.886891 -0.468360 1.712806 0.165698 -0.046450 352440.000000 0 0 1
-24.248177 12.349742 -4.406753 27.566460 -0.471065 1.731344 0.159704 -0.035787 -67333.900000 0 0 1
-24.165577 10.796142 -4.187953 26.796842 -0.420154 1.727725 0.182860 -0.056007 4240.780000 0 0 1
-24.795777 9.983842 -5.167253 27.225139 -0.382783 1.761752 0.160740 -0.049147 -477914.000000 0 0 1
-26.186297 9.940642 -5.129653 28.475461 -0.362808 1.751928 0.178985 -0.054914 -991555.000000 0 0 1
-26.634097 9.290142 -6.443253 28.934363 -0.335611 1.795364 0.182050 -0.044620 -158390.000000 0 0 1
-26.687127 10.229942 -7.478153 29.542804 -0.366052 1.826710 0.209313 -0.041892 98948.000000 0 0 1
-26.709887 9.537842 -8.687553 29.662469 -0.342977 1.868034 0.190968 -0.039283 -266035.000000 0 0 1
-27.117087 10.457642 -9.827953 30.680407 -0.368073 1.896878 0.191991 -0.036204 -239776.000000 0 0 1
-26.071737 11.133142 -10.492953 30.228867 -0.403580 1.925291 0.173867 -0.044779 -131930.000000 0 0 1
-26.543057 12.023142 -11.458253 31.311043 -0.425319 1.945449 0.180250 -0.050484 -463947.000000 0 0 1
-25.531177 12.985442 -12.104753 31.096427 -0.470513 1.970630 0.153393 -0.043510 -478229.000000 0 0 1
-25.266677 14.123342 -11.310953 31.077507 -0.509705 1.943312 0.140761 -0.047288 219485.000000 0 0 1
-24.534477 15.073542 -12.070953 31.222750 -0.550927 1.967747 0.117554 -0.043391 77009.800000 0 0 1
-24.579577 16.511142 -11.441053 31.743836 -0.591508 1.939512 0.126592 -0.046557 -304985.000000 0 0 1
-23.742277 16.587042 -10.338453 30.752387 -0.609805 1.913658 0.126816 -0.030928 -281344.000000 0 0 1
-23.802577 17.877342 -9.814853 31.344750 -0.644184 1.889279 0.088062 -0.018744 190907.000000 0 0 1
-22.665177 18.242742 -8.809053 30.399133 -0.677709 1.864793 0.109611 -0.022233 63249.100000 0 0 1
-22.723377 17.730742 -7.515453 29.786123 -0.662604 1.825867 0.135787 -0.035086 -461505.000000 0 0 1
-23.755677 18.261942 -6.768653 30.718812 -0.655387 1.792962 0.141406 -0.044270 -852261.000000 0 0 1
-24.125377 17.573242 -5.460553 30.342549 -0.629542 1.751746 0.144985 -0.035113 -94691.200000 0 0 1
-23.128377 17.611942 -4.449053 29.409121 -0.650812 1.722661 0.128887 -0.043945 322588.000000 0 0 1
-23.604777 17.263042 -3.146753 29.412585 -0.631449 1.677988 0.128249 -0.035672 427846.000000 0 0 1
-22.426777 16.914242 -2.153453 28.172492 -0.646183 1.647309 0.135704 -0.053686 -46771.200000 0 0 1
-21.691477 18.034542 -1.888853 28.272472 -0.693603 1.637655 0.133110 -0.047397 -79466.500000 0 0 1
-20.603377 17.754942 -1.021153 27.217272 -0.711276 1.608324 0.176781 -0.069683 184880.000000 0 0 1
-20.000477 19.035842 -0.361553 27.613640 -0.760692 1.583890 0.146424 -0.057299 -38590.100000 0 0 1
-20.964377 19.755542 0.381447 28.808541 -0.755720 1.557555 0.139704 -0.045275 202628.000000 0 0 1
-20.583477 21.070042 0.670247 29.463120 -0.797079 1.548046 0.146682 -0.042416 200660.000000 0 0 1
-21.611977 21.679242 1.653247 30.656163 -0.786952 1.516841 0.115513 -0.035600 208801.000000 0 0 1
-21.497277 21.106242 2.934647 30.269102 -0.776220 1.473692 0.124317 -0.029825 940632.000000 0 0 1
-22.607877 21.461842 3.786747 31.401692 -0.759399 1.449912 0.108590 -0.016611 571014.000000 0 0 1
-22.287877 21.152642 5.243647 31.171775 -0.759271 1.401775 0.113265 -0.019271 48486.100000 0 0 1
-21.320977 22.041042 5.798447 31.209191 -0.802003 1.383918 0.095676 -0.010619 459233.000000 0 0 1
-20.643277 21.608242 6.962947 30.684583 -0.808233 1.341882 0.081577 -0.003052 12465.300000 0 0 1
-21.475177 21.558242 8.260647 31.530609 -0.787328 1.305715 0.106829 -0.022414 -882993.000000 0 0 1
-22.530077 20.626142 8.333747 31.662177 -0.741309 1.304450 0.122792 -0.025803 421954.000000 0 0 1
-23.005577 20.430842 9.664447 32.250232 -0.726191 1.266449 0.145067 -0.032832 -127199.000000 0 0 1
-23.625477 21.668242 10.415947 33.707089 -0.742213 1.256641 0.153226 -0.026644 -786877.000000 0 0 1
-24.987077 21.791942 10.047147 34.643729 -0.717201 1.276555 0.164457 -0.028556 -70225.300000 0 0 1
-25.656697 22.787742 10.747747 35.959163 -0.726246 1.267270 0.175462 -0.030287 -524454.000000 0 0 1
-27.133847 22.719242 10.271947 36.850000 -0.697076 1.288304 0.171138 -0.039744 148999.000000 0 0 1
-28.030027 23.402742 11.159147 38.182422 -0.695672 1.274208 0.161312 -0.030574 185054.000000 0 0 1
-27.979507 24.800942 11.341947 39.071464 -0.725248 1.276269 0.152165 -0.033390 -567461.000000 0 0 1
-28.377357 25.387442 12.709347 40.141302 -0.729844 1.248637 0.161986 -0.036573 463339.000000 0 0 1
-27.435827 25.082642 13.761547 39.638917 -0.740621 1.216242 0.134469 -0.036958 249255.000000 0 0 1
-27.691607 25.875742 14.921447 40.731176 -0.751512 1.195724 0.127359 -0.027274 -208801.000000 0 0 1
-26.501237 26.100742 15.852547 40.433496 -0.777785 1.167921 0.098723 -0.022814 -117139.000000 0 0 1
-26.229597 24.912042 16.569347 39.788753 -0.759641 1.141278 0.103871 -0.020952 -192979.000000 0 0 1
-25.078287 24.940342 17.374047 39.405567 -0.782640 1.114191 0.081182 -0.017142 -159265.000000 0 0 1
-24.803477 23.592142 18.145147 38.743361 -0.760374 1.083383 0.091954 -0.009596 -551718.000000 0 0 1
-23.556477 23.620142 18.759647 38.271962 -0.786748 1.058515 0.088684 -0.020453 -235919.000000 0 0 1
-23.335377 22.426142 19.540547 37.806146 -0.765532 1.027615 0.090600 -0.019174 -1090590.000000 0 0 1
-21.902977 22.309742 19.992247 37.110038 -0.794598 1.001869 0.111303 -0.027859 -1265770.000000 0 0 1
-21.041477 22.259842 18.877847 35.980793 -0.813528 1.018475 0.111038 -0.026007 -178660.000000 0 0 1
-19.664377 22.234542 19.166247 35.332812 -0.846663 0.997447 0.088843 -0.032137 118213.000000 0 0 1
-19.078277 20.788442 19.308047 34.189774 -0.828269 0.970688 0.097174 -0.026240 -369815.000000 0 0 1
-19.459577 20.126842 20.470847 34.681703 -0.802252 0.939429 0.109484 -0.023988 358604.000000 0 0 1
-18.551377 20.398142 21.541147 34.989410 -0.832777 0.907589 0.095998 -0.025724 168054.000000 0 0 1
-19.310977 20.264742 22.863447 36.142922 -0.809493 0.885911 0.072771 -0.021532 473866.000000 0 0 1
-20.378277 21.222842 22.981347 37.333973 -0.805697 0.907698 0.072581 -0.025388 644296.000000 0 0 1
-21.056377 21.061242 24.252247 38.407271 -0.785514 0.887375 0.082521 -0.022942 -306410.000000 0 0 1
-22.280277 21.949842 24.254547 39.578901 -0.777927 0.911178 0.085793 -0.018577 -1166290.000000 0 0 1
-21.934477 23.289042 24.574947 40.341403 -0.815342 0.915777 0.088196 -0.023302 -315928.000000 0 0 1
-22.971777 24.161542 24.837147 41.573628 -0.810635 0.930509 0.084965 -0.028322 -709460.000000 0 0 1
-23.902277 24.588542 23.688047 41.677798 -0.799550 0.966284 0.072679 -0.030503 -427960.000000 0 0 1
-24.859977 23.675242 23.288847 41.483804 -0.760993 0.974724 0.067635 -0.026457 -270703.000000 0 0 1
-25.794897 24.204042 22.375147 41.855222 -0.753591 1.006780 0.059586 -0.018308 133681.000000 0 0 1
-26.733597 23.131942 21.769947 41.517497 -0.713296 1.018838 0.058712 -0.017095 -36204.200000 0 0 1
-28.024587 23.129842 22.338247 42.654008 -0.690003 1.019598 0.078300 -0.020002 -3410.790000 0 0 1
-28.770587 22.027042 21.853647 42.314527 -0.653417 1.028088 0.097462 -0.026805 -576626.000000 0 0 1
-30.268587 22.194442 22.055647 43.534265 -0.632695 1.039528 0.120871 -0.023500 -860487.000000 0 0 1
-30.792127 23.239942 21.215847 44.026835 -0.646526 1.067992 0.125065 -0.031642 224690.000000 0 0 1
-32.188257 23.440542 21.250847 45.134703 -0.629424 1.080563 0.133232 -0.028034 603618.000000 0 0 1
-33.103457 22.524042 20.353447 44.915857 -0.597459 1.100505 0.141562 -0.045652 -545153.000000 0 0 1
-33.148287 21.211642 20.913547 44.565897 -0.569243 1.082330 0.132679 -0.046096 397390.000000 0 0 1
-34.025452 20.349942 20.207347 44.499308 -0.539007 1.099429 0.140191 -0.045516 -974410.000000 0 0 1
-35.494431 20.513442 20.477347 45.825514 -0.524037 1.107550 0.148015 -0.051980 -1544020.000000 0 0 1
-36.242627 19.845542 19.493347 45.687681 -0.500979 1.129994 0.137344 -0.043244 536368.000000 0 0 1
37.496254 19.929342 19.710547 46.815098 0.488531 1.136216 0.150077 -0.043447 869425.000000 0 0 1
36.618414 19.048942 18.785347 45.350410 0.479678 1.143703 0.159116 -0.046564 26864.800000 0 0 1
36.783194 17.656842 18.888147 44.961423 0.447540 1.137244 0.180717 -0.047259 86195.600000 0 0 1
36.005514 16.956342 17.932747 43.652010 0.440128 1.147452 0.199492 -0.060517 -118138.000000 0 0 1
36.352164 15.446842 17.680247 43.274425 0.401805 1.149919 0.212242 -0.070671 -263189.000000 0 0 1
35.580634 14.829742 16.690647 42.005719 0.394898 1.162177 0.242494 -0.068354 -157799.000000 0 0 1
35.901934 13.469242 16.567347 41.771358 0.358918 1.162965 0.213972 -0.062849 26708.300000 0 0 1
35.119044 12.678442 15.486847 40.421932 0.346452 1.177614 0.207585 -0.075012 -90024.300000 0 0 1
35.228114 13.150942 14.148247 40.176363 0.357287 1.210925 0.205034 -0.070126 -201386.000000 0 0 1
34.343284 12.432342 13.372047 38.895191 0.347327 1.219839 0.210676 -0.061010 -623864.000000 0 0 1
34.366094 12.784542 11.854447 38.535709 0.356147 1.258103 0.230000 -0.061397 10463.900000 0 0 1
35.542114 12.325542 11.214947 39.254756 0.333810 1.281063 0.209340 -0.050935 399605.000000 0 0 1
35.331114 12.383942 9.855547 38.714099 0.337130 1.313391 0.195265 -0.040720 96414.200000 0 0 1
36.678704 12.526942 9.086547 39.809759 0.329111 1.340517 0.139444 -0.020448 593494.000000 0 0 1
-37.497867 11.581442 9.554647 40.391969 -0.299562 1.331985 0.186533 -0.036148 1114960.000000 0 0 1
-36.183687 11.619342 8.976147 39.049194 -0.310719 1.338855 0.199327 -0.030644 1012070.000000 0 0 1
-35.943787 11.061242 7.519147 38.351591 -0.298540 1.373460 0.178159 -0.035644 -565765.000000 0 0 1
-36.500907 11.932042 6.576347 38.960726 -0.315947 1.401190 0.157977 -0.038430 -29386.300000 0 0 1
-36.034947 11.819742 5.263447 38.287434 -0.316950 1.432888 0.173794 -0.047368 -65132.800000 0 0 1
-36.986627 12.570542 4.282447 39.298454 -0.327619 1.461607 0.189296 -0.049249 -36983.100000 0 0 1
36.900144 11.945342 4.255947 39.018264 0.313074 1.461503 0.199828 -0.054100 386555.000000 0 0 1
35.796944 12.875742 4.262147 38.280175 0.345280 1.459224 0.171313 -0.049732 741139.000000 0 0 1
35.397874 13.550042 5.591547 38.312903 0.365585 1.424329 0.176142 -0.046502 -635368.000000 0 0 1
34.486764 14.658842 5.463947 37.869160 0.401919 1.426006 0.154514 -0.031955 842671.000000 0 0 1
33.908224 15.137442 6.758947 37.743783 0.419876 1.390751 0.134662 -0.031780 -290245.000000 0 0 1
32.705114 14.378942 7.204847 36.445689 0.414217 1.371798 0.192052 -0.044029 -1098060.000000 0 0 1
33.102734 13.087642 7.668147 36.412606 0.376504 1.358617 0.230197 -0.038580 163206.000000 0 0 1
31.956214 12.330842 7.983847 35.170884 0.368264 1.341799 0.225106 -0.037145 -54044.700000 0 0 1
31.690554 11.250042 6.876447 34.324047 0.341119 1.369092 0.224047 -0.042306 -171590.000000 0 0 1
31.175864 11.732542 5.654247 33.786943 0.359940 1.402655 0.214872 -0.053550 194957.000000 0 0 1
30.994204 10.692442 4.718547 33.124518 0.332197 1.427861 0.222283 -0.053822 -340067.000000 0 0 1
30.421794 11.101842 3.341947 32.556183 0.349914 1.467963 0.183361 -0.056178 -950516.000000 0 0 1
29.041264 11.057742 3.352547 31.255531 0.363811 1.463327 0.142333 -0.050662 -1156680.000000 0 0 1
28.498464 11.567342 2.189847 30.834417 0.385577 1.499717 0.165409 -0.052804 -44237.700000 0 0 1
27.042864 11.079242 2.010447 29.293480 0.388833 1.502111 0.186118 -0.045034 97574.100000 0 0 1
26.958264 9.769742 1.438847 28.710035 0.347681 1.520659 0.131585 -0.045054 888826.000000 0 0 1
25.599364 9.286742 1.454447 27.270615 0.348008 1.517437 0.129662 -0.044410 632190.000000 0 0 1
25.561864 7.718742 1.376047 26.737265 0.293257 1.519308 0.139384 -0.044966 95358.300000 0 0 1
26.190864 6.906242 2.340147 27.187016 0.257820 1.484614 0.153569 -0.038144 30208.900000 0 0 1
27.597764 6.882242 2.351847 28.540025 0.244392 1.488298 0.198434 -0.053629 -409171.000000 0 0 1
28.099764 6.241142 3.657647 29.015978 0.218559 1.444404 0.197720 -0.063980 -1018140.000000 0 0 1
29.463364 5.985242 3.714747 30.293766 0.200415 1.447863 0.237168 -0.066945 -449743.000000 0 0 1
29.802364 5.378342 4.968947 30.688726 0.178545 1.408166 0.227797 -0.048635 -22014.700000 0 0 1
31.311864 5.143142 5.189247 32.152963 0.162802 1.408695 0.235858 -0.057867 161373.000000 0 0 1
31.936884 6.273442 5.813347 33.062299 0.193963 1.394047 0.228128 -0.051423 -982001.000000 0 0 1
33.233424 6.025042 6.211547 34.341591 0.179347 1.388920 0.224936 -0.046879 -738161.000000 0 0 1
33.855394 7.284542 6.904147 35.311747 0.211935 1.374009 0.198074 -0.048527 12200.900000 0 0 1
33.360244 7.479942 8.228847 35.164888 0.220569 1.334599 0.213221 -0.046639 99808.300000 0 0 1
34.029284 8.578442 8.812647 36.183485 0.246945 1.324767 0.210531 -0.051582 -24752.200000 0 0 1
33.603884 8.851242 10.291147 36.241871 0.257550 1.282877 0.214949 -0.049452 -754542.000000 0 0 1
32.282334 9.230242 10.419047 35.155412 0.278492 1.269906 0.210464 -0.056037 -703829.000000 0 0 1
31.743444 8.882342 11.678947 34.970560 0.272839 1.230289 0.194328 -0.060795 214644.000000 0 0 1
30.257494 9.204942 12.003347 33.827906 0.295324 1.208058 0.166988 -0.057367 -12589.500000 0 0 1
29.851664 10.464642 12.481947 34.006317 0.337169 1.194963 0.208165 -0.067465 161347.000000 0 0 1
29.860264 11.467442 11.505547 33.992870 0.366670 1.225506 0.215544 -0.074208 -57989.800000 0 0 1
28.801364 11.366842 10.356747 32.649439 0.375897 1.248010 0.164977 -0.061014 -54329.200000 0 0 1
28.722664 12.561742 9.651947 32.801659 0.412281 1.272124 0.146805 -0.036562 531696.000000 0 0 1
27.602664 12.574542 8.765647 31.573133 0.427464 1.289470 0.128488 -0.039101 246671.000000 0 0 1
27.583964 13.829442 7.887747 31.848785 0.464733 1.320530 0.118094 -0.038285 -112757.000000 0 0 1
27.011764 14.949642 8.523247 32.027690 0.505488 1.301429 0.107572 -0.021848 217435.000000 0 0 1
27.383464 16.152142 7.957047 32.772860 0.532923 1.325552 0.097832 -0.009128 -757285.000000 0 0 1
26.853464 17.369442 8.798747 33.169624 0.574139 1.302317 0.129699 -0.020174 1158950.000000 0 0 1
25.541164 17.892742 8.490547 32.320128 0.611092 1.304975 0.133455 -0.029435 1309200.000000 0 0 1
24.425664 17.025542 8.731147 31.027650 0.608733 1.285545 0.136685 -0.029286 -177328.000000 0 0 1
23.119464 17.840042 8.725947 30.478170 0.657211 1.280432 0.136259 -0.038878 -236310.000000 0 0 1
22.751764 18.457742 7.479747 30.237024 0.681573 1.320831 0.138103 -0.032970 -182292.000000 0 0 1
21.567664 19.194942 7.619447 29.860775 0.727255 1.312777 0.171790 -0.045395 -131351.000000 0 0 1
21.072064 19.566842 6.205647 29.417737 0.748376 1.358250 0.155844 -0.035865 -34369.100000 0 0 1
21.940364 20.471042 5.564247 30.518912 0.750768 1.387450 0.109815 -0.015848 219944.000000 0 0 1
21.334964 20.868842 4.352547 30.160138 0.774354 1.425976 0.121040 -0.023867 175574.000000 0 0 1
18.013023 17.040342 32.815680 41.130416 0.757657 0.647085 0.142560 -0.031690 -127810.000000 0 0 1
17.559623 17.663942 31.617665 40.249621 0.788360 0.667229 0.116669 -0.035077 335009.000000 0 0 1
17.091723 16.655142 30.743555 38.918979 0.772462 0.660090 0.117471 -0.038444 212149.000000 0 0 1
16.421023 17.075142 29.399575 37.756397 0.804924 0.678261 0.116351 -0.033990 -320784.000000 0 0 1
17.364523 17.578042 28.561275 37.765866 0.791509 0.713200 0.130402 -0.033649 -883364.000000 0 0 1
16.788823 18.018642 27.405335 36.845467 0.820716 0.732072 0.116392 -0.028248 -564072.000000 0 0 1
17.769123 18.253742 26.250625 36.579177 0.798850 0.770391 0.131164 -0.030343 -184604.000000 0 0 1
18.531623 19.436742 26.385775 37.648601 0.809232 0.794217 0.127844 -0.034639 358003.000000 0 0 1
19.604523 19.459342 25.446025 37.556671 0.781682 0.826388 0.131379 -0.041543 -143178.000000 0 0 1
20.543323 20.629142 25.662755 38.809363 0.787483 0.848310 0.142194 -0.039676 -555818.000000 0 0 1
20.000423 21.879842 25.344435 39.001087 0.830244 0.863423 0.123345 -0.032670 -205189.000000 0 0 1
20.507423 22.911142 26.113515 40.340928 0.840703 0.866732 0.128240 -0.035186 -703906.000000 0 0 1
19.719123 24.184942 25.975345 40.601401 0.886767 0.876604 0.140849 -0.040562 -248008.000000 0 0 1
19.860523 24.815642 24.738665 40.277264 0.895859 0.909413 0.128649 -0.030222 126020.000000 0 0 1
19.072623 26.008142 24.681865 40.612595 0.938048 0.917586 0.123132 -0.031405 126343.000000 0 0 1
19.240823 26.949042 23.388085 40.539643 0.950756 0.955845 0.100353 -0.028393 663804.000000 0 0 1
20.538423 27.540442 23.299875 41.511287 0.930018 0.974853 0.114908 -0.031447 515309.000000 0 0 1
20.332423 28.719842 22.577685 41.808954 0.954750 1.000335 0.090800 -0.018893 335912.000000 0 0 1
21.561223 29.654342 22.372785 42.951226 0.942123 1.022905 0.093073 -0.014401 166909.000000 0 0 1
22.378123 29.230942 21.293685 42.528219 0.917409 1.046394 0.098926 -0.017128 162496.000000 0 0 1
23.619623 29.930142 21.320785 43.683817 0.902701 1.060919 0.103983 -0.031897 633143.000000 0 0 1
24.250123 30.074642 19.895685 43.455619 0.892207 1.095233 0.095528 -0.030153 217335.000000 0 0 1
23.473423 31.013142 19.179985 43.366904 0.922903 1.112666 0.074660 -0.023201 303254.000000 0 0 1
23.809923 30.961342 17.834985 42.937208 0.915232 1.142443 0.079767 -0.011237 -272294.000000 0 0 1
23.058623 32.029942 17.030685 42.984433 0.946834 1.163415 0.086395 -0.019129 -456400.000000 0 0 1
23.335323 33.388542 17.291285 44.252916 0.960808 1.169363 0.088287 -0.017826 41343.300000 0 0 1
23.514123 -33.550505 16.081185 44.013121 -0.959495 1.196763 0.083733 -0.016425 279462.000000 0 0 1
24.758223 -33.831005 15.154385 44.577594 -0.939032 1.223927 0.063051 -0.012569 129298.000000 0 0 1
24.802923 32.718242 14.238685 43.455822 0.922146 1.236972 0.088668 -0.024367 575306.000000 0 0 1
23.812023 32.786742 13.167985 42.607261 0.942656 1.256597 0.088131 -0.026424 680698.000000 0 0 1
23.362123 31.505742 12.425385 41.143539 0.932745 1.264005 0.102726 -0.036983 -455439.000000 0 0 1
24.331423 31.039542 11.567785 41.100912 0.905959 1.285493 0.117330 -0.053216 -789201.000000 0 0 1
23.856623 29.908342 10.828785 39.760659 0.897485 1.294963 0.113939 -0.053975 -1281820.000000 0 0 1
24.856623 29.165142 9.927085 39.585404 0.864985 1.317314 0.112964 -0.049957 676327.000000 0 0 1
25.968123 28.485742 10.559285 39.965978 0.831599 1.303415 0.106205 -0.046071 814675.000000 0 0 1
26.810923 29.337242 11.305585 41.319676 0.830362 1.293649 0.097437 -0.048419 -1189860.000000 0 0 1
28.175623 28.709942 11.704785 41.894254 0.794791 1.287639 0.086782 -0.041822 421128.000000 0 0 1
28.218323 27.961642 12.888285 41.764040 0.780829 1.257078 0.087558 -0.034552 462454.000000 0 0 1
29.603623 27.877142 13.228085 42.760867 0.755371 1.256287 0.081418 -0.023038 658862.000000 0 0 1
29.703223 26.979542 14.440885 42.646410 0.737384 1.225348 0.063190 -0.023602 -88226.700000 0 0 1
31.044223 26.938042 14.861185 43.706484 0.714698 1.223856 0.061434 -0.034178 -102528.000000 0 0 1
31.236023 26.012742 15.928085 43.658399 0.694412 1.197341 0.079564 -0.036080 424636.000000 0 0 1
32.502223 26.268842 16.789085 45.036873 0.679731 1.188787 0.081982 -0.047379 164379.000000 0 0 1
33.744223 26.169542 16.139985 45.651031 0.659639 1.209431 0.091841 -0.040332 369491.000000 0 0 1
34.762423 26.642542 17.064285 47.004690 0.653926 1.199275 0.092351 -0.038486 393285.000000 0 0 1
36.236423 26.428042 16.730285 47.868802 0.630136 1.213756 0.120430 -0.052805 -135259.000000 0 0 1
36.624923 27.267142 15.659685 48.271190 0.639970 1.240408 0.115894 -0.030081 -1162500.000000 0 0 1
-37.225818 27.710542 15.782585 49.017606 -0.639901 1.242978 0.143839 -0.040209 -700891.000000 0 0 1
-36.924418 28.861542 14.780585 49.141296 -0.663444 1.265289 0.108802 -0.028883 446040.000000 0 0 1
37.374023 29.978342 15.066385 50.224641 0.676031 1.266125 0.111593 -0.034184 232284.000000 0 0 1
37.052423 30.705042 13.959985 50.105517 0.691993 1.288448 0.100750 -0.015655 -176236.000000 0 0 1
36.123923 31.882042 14.169885 50.221390 0.723104 1.284764 0.076625 -0.019898 -764830.000000 0 0 1
35.826523 32.756542 13.051085 50.267898 0.740665 1.308157 0.050846 -0.014988 -171920.000000 0 0 1
34.809723 33.697442 13.225285 50.220938 0.769164 1.304311 0.046747 -0.009039 1360840.000000 0 0 1
33.330423 33.103042 13.061685 48.757934 0.781975 1.299596 0.058074 -0.005860 1045830.000000 0 0 1
33.057023 32.192542 14.065685 48.238678 0.772150 1.274913 0.055731 -0.027204 -885747.000000 0 0 1
32.000223 31.388442 13.671885 46.863301 0.775747 1.274751 0.066953 -0.020555 -693723.000000 0 0 1
31.532523 30.449742 14.811885 46.269631 0.767931 1.244939 0.080446 -0.027519 -344970.000000 0 0 1
30.679623 31.005942 15.773985 46.383470 0.790688 1.223797 0.077388 -0.033442 -252512.000000 0 0 1
30.413723 30.013142 16.681485 45.869981 0.778769 1.198593 0.074990 -0.027555 213959.000000 0 0 1
29.276123 30.474242 17.660185 45.800141 0.805448 1.174947 0.076959 -0.028453 177874.000000 0 0 1
29.046923 29.559842 18.756185 45.489586 0.794150 1.145799 0.080625 -0.023663 219236.000000 0 0 1
29.943723 29.766042 19.848585 46.654155 0.782422 1.131347 0.079626 -0.041324 196574.000000 0 0 1
29.767323 28.642342 20.828085 46.263230 0.766140 1.103798 0.096014 -0.043236 343209.000000 0 0 1
28.530123 28.645442 21.532085 45.805676 0.787415 1.081421 0.103628 -0.044972 145945.000000 0 0 1
28.438623 27.650242 22.508185 45.606025 0.771343 1.054646 0.100927 -0.045473 -180667.000000 0 0 1
27.124123 27.603342 23.304135 45.174609 0.794154 1.028776 0.115478 -0.038564 593138.000000 0 0 1
26.078923 26.924342 22.534085 43.735745 0.801347 1.029517 0.122885 -0.036097 1111310.000000 0 0 1
24.825223 26.746242 23.188305 43.235988 0.822631 1.004726 0.123809 -0.042415 554721.000000 0 0 1
24.770423 25.583542 24.260105 43.088794 0.801545 0.972754 0.137626 -0.037359 -1021650.000000 0 0 1
25.533723 25.699142 25.391525 44.239648 0.788627 0.959470 0.131086 -0.041848 -695885.000000 0 0 1
25.462623 24.581242 26.284415 44.084613 0.767788 0.932004 0.135879 -0.045200 -636167.000000 0 0 1
26.730223 24.411742 27.145985 45.247569 0.740095 0.927366 0.125393 -0.055645 36817.900000 0 0 1
27.212023 25.517642 27.858115 46.558768 0.753276 0.929365 0.145246 -0.049242 -256947.000000 0 0 1
27.934923 26.370342 27.058465 46.988460 0.756595 0.957149 0.117060 -0.029247 -1223400.000000 0 0 1
28.332323 27.611342 27.916005 48.419109 0.772511 0.956297 0.088811 -0.026229 -551199.000000 0 0 1
29.281923 27.282742 28.880945 49.354716 0.750070 0.945705 0.101347 -0.023757 -326067.000000 0 0 1
29.527323 28.495242 29.586305 50.588448 0.767612 0.946110 0.100224 -0.029168 -344821.000000 0 0 1
31.043623 28.603642 29.745115 51.639585 0.744514 0.956952 0.076608 -0.028759 -637740.000000 0 0 1
31.726423 28.907742 28.569405 51.560008 0.738945 0.983515 0.049179 -0.021424 -536139.000000 0 0 1
33.060323 29.236442 28.866495 52.735463 0.724093 0.991562 0.080773 -0.029899 38319.300000 0 0 1
33.949323 29.562942 27.645955 52.828240 0.716444 1.020057 0.062392 -0.024031 -102694.000000 0 0 1
33.725923 30.927742 27.268295 53.268406 0.742146 1.033397 0.056923 -0.017582 124905.000000 0 0 1
34.345323 31.287142 26.045325 53.262045 0.738836 1.059849 0.054156 -0.025493 -209206.000000 0 0 1
34.078323 32.751242 25.604975 53.754913 0.765543 1.074322 0.052486 -0.023720 -180187.000000 0 0 1
34.701223 33.677842 26.438335 55.112226 0.770433 1.070463 0.055702 -0.024603 -97173.500000 0 0 1
34.107323 -32.734805 26.177655 54.038380 -0.764867 1.065088 0.059492 -0.017424 -273470.000000 0 0 1
34.812623 -31.486405 26.716615 54.010091 -0.735270 1.053353 0.053295 -0.018343 -157959.000000 0 0 1
35.038523 -31.450605 28.149845 54.856653 -0.731488 1.031942 0.056606 -0.028268 238726.000000 0 0 1
36.014023 -30.475705 28.446975 55.090914 -0.702294 1.028196 0.058435 -0.034766 48970.700000 0 0 1
36.189523 -30.124705 29.944965 55.802154 -0.694196 1.004361 0.065676 -0.031041 -68437.500000 0 0 1
36.509923 -31.183305 30.914155 57.105674 -0.706872 0.998754 0.078093 -0.031870 325193.000000 0 0 1
35.446023 -32.082605 31.160055 57.067181 -0.735632 0.993185 0.070373 -0.037527 -340936.000000 0 0 1
35.517023 -32.828005 32.526968 58.284994 -0.746074 0.978741 0.101594 -0.034691 -690179.000000 0 0 1
35.063223 -32.138205 33.687195 58.284826 -0.741899 0.954551 0.083671 -0.044202 101214.000000 0 0 1
35.017423 -32.885205 -32.841723 58.191368 -0.754007 2.170472 0.101801 -0.045711 246985.000000 0 0 1
33.970423 33.615342 -32.852923 57.993925 0.780144 2.173035 0.116140 -0.048180 38356.500000 0 0 1
34.149823 32.578542 -33.770013 58.034348 0.761855 2.191856 0.130012 -0.042346 -324265.000000 0 0 1
33.403223 31.425142 -33.469063 56.775813 0.754895 2.201230 0.138776 -0.032004 86048.800000 0 0 1
33.647623 30.396842 33.167031 56.179912 0.734684 0.939277 0.115013 -0.028479 495202.000000 0 0 1
34.945023 29.807842 33.165763 56.653596 0.706229 0.945407 0.113429 -0.036670 347488.000000 0 0 1
35.234323 28.947942 32.030275 55.725931 0.687764 0.958458 0.093003 -0.036153 388093.000000 0 0 1
36.669923 28.339742 32.109102 56.381013 0.657955 0.964896 0.096485 -0.034629 310063.000000 0 0 1
36.872023 27.163442 32.849140 56.360134 0.634932 0.948573 0.093973 -0.028236 295608.000000 0 0 1
-37.042218 26.567342 32.490300 55.978292 -0.622188 0.951566 0.074435 -0.026676 315515.000000 0 0 1
-36.721718 25.316442 33.394946 55.719200 -0.603585 0.928115 0.059756 -0.025629 24565.300000 0 0 1
-37.337618 24.144242 32.929831 55.330064 -0.574014 0.933341 0.064889 -0.023769 28968.500000 0 0 1
-37.146918 23.089642 33.856685 55.310942 -0.556134 0.912063 0.031154 -0.026853 294632.000000 0 0 1
37.369223 21.742142 33.331934 54.591184 0.526944 0.914012 0.034635 -0.032088 314556.000000 0 0 1
-36.998518 21.327642 32.220949 53.497180 -0.522920 0.924427 0.048770 -0.020601 781106.000000 0 0 1
37.411023 20.427942 31.419705 52.953596 0.499798 0.935589 0.054138 -0.012417 332484.000000 0 0 1
-36.763018 19.614942 30.537945 51.660735 -0.490127 0.938344 0.075493 -0.018562 393566.000000 0 0 1
-36.013718 20.478642 29.663005 50.953475 -0.517037 0.949415 0.079256 -0.009513 1175060.000000 0 0 1
-34.731218 20.024342 29.175855 49.582883 -0.523000 0.941686 0.111437 -0.012353 1161600.000000 0 0 1
-34.899318 18.947842 28.061845 48.625614 -0.497398 0.955623 0.123718 -0.008127 -340961.000000 0 0 1
-35.547918 17.760842 28.499145 48.900954 -0.463352 0.948635 0.120032 -0.007773 201480.000000 0 0 1
-35.935918 16.921742 27.427795 48.270276 -0.440087 0.966464 0.116217 -0.021590 326749.000000 0 0 1
-36.696218 15.631942 27.881095 48.665445 -0.402702 0.960740 0.129565 -0.023820 360115.000000 0 0 1
-35.821018 14.717442 28.528425 48.100099 -0.389834 0.935886 0.122332 -0.018895 677927.000000 0 0 1
-36.543918 13.664542 29.187615 48.724681 -0.357824 0.928505 0.119653 -0.026163 71515.700000 0 0 1
-35.634918 12.528142 29.640585 48.014228 -0.338072 0.905453 0.109477 -0.014679 846352.000000 0 0 1
-34.490218 12.952642 30.429435 47.783853 -0.359249 0.880437 0.108490 -0.008032 1113180.000000 0 0 1
-33.694218 11.907042 30.922005 47.257258 -0.339688 0.857495 0.075732 0.000084 -94355.100000 0 0 1
-32.176318 12.187642 30.916895 46.256983 -0.362078 0.838778 0.066453 0.003971 -876594.000000 0 0 1
-31.726218 12.215542 29.588445 45.069374 -0.367535 0.854615 0.050260 0.002379 1028490.000000 0 0 1
-30.313418 12.383142 29.380335 43.993745 -0.387816 0.839507 0.038939 0.008340 1054150.000000 0 0 1
-29.291118 11.366742 29.923185 43.388587 -0.370172 0.809783 0.045532 0.006937 -610019.000000 0 0 1
-29.229618 10.223142 29.095435 42.490323 -0.336455 0.816530 0.047029 -0.004491 -189398.000000 0 0 1
-28.196318 9.417542 29.562635 41.924597 -0.322350 0.788178 0.043006 -0.006563 -707755.000000 0 0 1
-27.867818 8.213342 28.664525 40.813347 -0.286610 0.792128 0.041588 -0.013193 310635.000000 0 0 1
-28.732918 7.055042 28.563495 41.124536 -0.240775 0.802987 0.054461 -0.017628 -322198.000000 0 0 1
-29.991618 7.244042 28.029975 41.685163 -0.236996 0.833322 0.065788 -0.015298 -1114090.000000 0 0 1
-30.832818 5.981242 28.060415 42.116800 -0.191610 0.841624 0.084469 -0.025049 -493262.000000 0 0 1
-31.236518 5.487642 29.311455 43.185596 -0.173906 0.824761 0.091244 -0.018059 -95372.500000 0 0 1
-31.951718 4.292142 29.142745 43.458421 -0.133533 0.835794 0.115750 -0.027404 -168932.000000 0 0 1
-32.775718 3.919442 30.422695 44.890424 -0.119019 0.826152 0.105066 -0.019492 389024.000000 0 0 1
-33.826918 4.863342 30.662035 45.913755 -0.142793 0.839523 0.101587 -0.022812 44811.500000 0 0 1
-34.623818 4.502742 31.766751 47.203919 -0.129322 0.832582 0.105603 -0.026391 -31626.400000 0 0 1
-36.013818 5.157342 31.794466 48.316471 -0.142237 0.852575 0.093911 -0.021800 -98391.200000 0 0 1
-36.094618 6.528842 32.089713 48.735992 -0.178946 0.852053 0.094358 -0.018464 -1580810.000000 0 0 1
-37.406418 6.814742 32.292269 49.884582 -0.180205 0.866707 0.098558 -0.012779 -1419990.000000 0 0 1
37.541723 8.341342 32.585479 50.406075 0.218637 0.867862 0.087519 -0.003099 -132796.000000 0 0 1
-37.417918 8.666242 -33.790473 51.156626 -0.227594 2.292320 0.075532 -0.002996 260464.000000 0 0 1
37.484123 9.987642 -33.412353 51.197634 0.260400 2.281827 0.074295 -0.007650 -140646.000000 0 0 1
-37.542518 10.088642 -31.899283 50.287032 -0.262524 2.257956 0.060061 -0.008402 1531.470000 0 0 1
36.534123 9.459542 -31.216803 48.976666 0.253359 2.261891 0.074889 -0.004112 370919.000000 0 0 1
36.672223 9.607742 -29.820913 48.233261 0.256231 2.237329 0.065908 0.000749 -794904.000000 0 0 1
35.449323 9.022442 -29.194603 46.801536 0.249225 2.244386 0.062286 -0.001877 -846870.000000 0 0 1
35.325623 7.585642 -29.159863 46.429938 0.211523 2.249828 0.053995 -0.006515 336080.000000 0 0 1
33.985323 7.129742 -28.976623 45.226984 0.206790 2.266197 0.087622 -0.017403 275425.000000 0 0 1
36.844534 5.828542 -19.393853 42.042991 0.156893 2.050241 0.079231 -0.027952 -344241.000000 0 0 1
36.373324 6.684942 -18.394153 41.304382 0.181759 2.032341 0.078607 -0.025328 789622.000000 0 0 1
37.083674 7.959942 -18.410853 42.160634 0.211440 2.022705 0.049969 -0.016044 340975.000000 0 0 1
-36.572387 8.095642 -18.020853 41.567175 -0.217847 2.019209 0.055932 -0.021386 805865.000000 0 0 1
-35.506058 7.687642 -18.896953 40.949662 -0.213225 2.050445 0.068880 -0.029082 823394.000000 0 0 1
-35.437690 8.467342 -20.063453 41.594085 -0.234539 2.074147 0.049510 -0.020633 -641700.000000 0 0 1
-34.421879 7.790942 -21.018053 41.077038 -0.222587 2.107928 0.048562 -0.016044 -164159.000000 0 0 1
-34.829593 6.586142 -21.675953 41.549064 -0.186889 2.119633 0.045406 -0.015226 -376594.000000 0 0 1
-35.726754 6.771542 -22.709753 42.871758 -0.187315 2.129059 0.041547 -0.014560 -320916.000000 0 0 1
-35.578163 5.612842 -23.731053 43.133196 -0.156471 2.153377 0.066465 -0.013873 140234.000000 0 0 1
-34.348504 5.543142 -24.422053 42.508621 -0.160000 2.182814 0.071067 -0.016282 -65887.600000 0 0 1
-34.112905 4.250342 -24.926053 42.462499 -0.123957 2.198161 0.077194 -0.013048 1029200.000000 0 0 1
-32.661237 4.007342 -25.495613 41.627413 -0.122084 2.229980 0.086808 -0.012944 1233880.000000 0 0 1
-31.539257 4.178142 -24.642153 40.241984 -0.131707 2.229825 0.081896 -0.013933 -378623.000000 0 0 1
-30.427897 3.666342 -25.293823 39.737595 -0.119915 2.260776 0.085851 -0.018782 -761533.000000 0 0 1
-29.082257 4.170342 -24.753353 38.417417 -0.142427 2.270938 0.071227 -0.025587 -286924.000000 0 0 1
-28.908537 5.560242 -24.742753 38.455476 -0.190019 2.269745 0.048945 -0.011430 -603934.000000 0 0 1
-27.594377 5.831242 -24.395853 37.290893 -0.208256 2.283926 0.054258 -0.010679 -752571.000000 0 0 1
-27.237127 7.338842 -24.542953 37.390858 -0.263192 2.286819 0.042766 -0.014794 -132731.000000 0 0 1
-27.900827 8.167842 -23.614553 37.454197 -0.284788 2.252983 0.042852 -0.015565 -23923.800000 0 0 1
-27.579457 9.576342 -23.806753 37.670868 -0.334203 2.254885 0.039312 -0.015728 -71946.000000 0 0 1
-26.203627 10.099042 -23.375153 36.537905 -0.367863 2.264970 0.062793 -0.012656 -430990.000000 0 0 1
-25.969447 10.240942 -21.987053 35.534766 -0.375623 2.237944 0.067071 -0.017532 -17710.800000 0 0 1
-24.644477 10.597342 -21.680453 34.491969 -0.406105 2.250503 0.087126 -0.025494 -583891.000000 0 0 1
-24.479077 11.030342 -20.208053 33.604450 -0.423355 2.215987 0.109406 -0.046980 -942189.000000 0 0 1
-24.994577 12.324642 -19.950853 34.273346 -0.458106 2.192117 0.127581 -0.053647 1467310.000000 0 0 1
-26.417417 12.559142 -19.939553 35.400533 -0.443784 2.169117 0.099520 -0.036930 913629.000000 0 0 1
-27.331407 11.761242 -18.959253 35.281523 -0.406368 2.138112 0.090042 -0.035852 -564306.000000 0 0 1
-27.129957 12.102842 -17.601753 34.530205 -0.419611 2.105690 0.094589 -0.050891 232925.000000 0 0 1
-28.138947 11.517742 -16.817253 34.745917 -0.388512 2.076024 0.107420 -0.049927 -1068790.000000 0 0 1
-27.674297 11.251642 -15.326253 33.576185 -0.386161 2.044811 0.139171 -0.052943 202960.000000 0 0 1
-26.790367 10.163342 -15.169453 32.421129 -0.362592 2.057696 0.157736 -0.051391 1524670.000000 0 0 1
-25.501387 10.330142 -15.819553 31.737845 -0.384879 2.092600 0.147458 -0.043210 792552.000000 0 0 1
-24.454377 9.132442 -15.560653 30.389998 -0.357409 2.108345 0.116599 -0.037914 1928280.000000 0 0 1
-23.061577 9.510442 -15.689753 29.469530 -0.391144 2.132237 0.111099 -0.036686 1671940.000000 0 0 1
-22.243877 8.369542 -15.371353 28.304024 -0.359877 2.144897 0.117860 -0.033795 -814789.000000 0 0 1
-20.761477 8.528842 -15.166553 27.088824 -0.389783 2.165040 0.161380 -0.043948 -1251620.000000 0 0 1
-20.126177 8.959842 -16.319653 27.416653 -0.418841 2.208368 0.166807 -0.061483 -420813.000000 0 0 1
-18.741877 8.853642 -16.112353 26.253625 -0.441324 2.231559 0.168020 -0.057726 -563870.000000 0 0 1
-17.899877 9.563442 -17.220253 26.615825 -0.490690 2.274431 0.132261 -0.054176 -83117.200000 0 0 1
-17.697877 8.907042 -18.472153 27.088202 -0.466271 2.321189 0.164424 -0.060291 540345.000000 0 0 1
-16.698477 7.890742 -18.432653 26.093402 -0.441441 2.355210 0.164765 -0.051489 -648502.000000 0 0 1
-16.475277 7.033142 -19.655753 26.594143 -0.403471 2.402531 0.136944 -0.039897 102618.000000 0 0 1
-17.449377 6.056542 -19.977953 27.208106 -0.334082 2.395379 0.126691 -0.034526 -57353.300000 0 0 1
-18.613677 6.597542 -20.545453 28.497582 -0.340630 2.375975 0.112503 -0.031481 -858328.000000 0 0 1
-19.592477 5.609142 -21.159753 29.377930 -0.278832 2.374974 0.089511 -0.010945 -38025.700000 0 0 1
-20.416177 4.884342 -20.211553 29.140761 -0.234825 2.337248 0.102011 -0.020463 421979.000000 0 0 1
-21.052977 3.876742 -20.931253 29.939511 -0.182102 2.344960 0.085854 -0.002562 -231504.000000 0 0 1
-21.894177 3.006342 -19.945053 29.769082 -0.136459 2.304995 0.098432 -0.007591 135141.000000 0 0 1
-22.532177 1.874642 -20.591153 30.581185 -0.083007 2.309497 0.099524 -0.006992 524181.000000 0 0 1
-23.424177 1.336142 -19.632753 30.592848 -0.056979 2.267565 0.100547 -0.011865 -106348.000000 0 0 1
-24.224777 0.072742 -20.068153 31.457525 -0.003003 2.262622 0.102935 0.000091 -304573.000000 0 0 1
-23.380677 -1.049358 -20.186153 30.906924 0.044851 2.282503 0.104731 -0.016440 -54487.600000 0 0 1
-23.875877 -2.289958 -20.646353 31.647643 0.095618 2.281519 0.103264 -0.020690 -692926.000000 0 0 1
-24.416577 -2.349958 -22.111853 33.024621 0.095949 2.304408 0.105880 -0.024596 447569.000000 0 0 1
-23.465077 -2.348458 -23.184153 33.070078 0.099751 2.347681 0.094831 -0.022041 629487.000000 0 0 1
-22.462077 -3.387058 -23.165953 32.445006 0.149663 2.366001 0.091879 -0.031688 600405.000000 0 0 1
-21.410377 -3.108958 -24.292053 32.529582 0.144200 2.413986 0.089982 -0.032639 -55609.300000 0 0 1
-21.947677 -3.200158 -25.571293 33.850149 0.144788 2.427101 0.091697 -0.030793 459673.000000 0 0 1
-20.982377 -3.363358 -26.614523 34.057380 0.158942 2.467801 0.095926 -0.033728 369856.000000 0 0 1
-21.793977 -3.629358 -27.911133 35.597486 0.165016 2.472002 0.091250 -0.035052 786815.000000 0 0 1
-22.652577 -4.792758 -27.849713 36.217624 0.208502 2.448001 0.093347 -0.032736 639906.000000 0 0 1
-23.321377 -5.094258 -29.071423 37.616296 0.215059 2.454102 0.049586 -0.030982 -556878.000000 0 0 1
-22.860277 -6.326258 -29.853443 38.129278 0.269979 2.470195 0.060630 -0.029616 314026.000000 0 0 1
-21.563477 -6.070258 -30.392553 37.756309 0.274405 2.506415 0.057240 -0.031841 338207.000000 0 0 1
-20.886177 -7.194158 -30.839263 37.934792 0.331718 2.520004 0.059327 -0.033934 -450296.000000 0 0 1
-19.514277 -6.964458 -31.480943 37.687670 0.342800 2.559495 0.069580 -0.028810 -489555.000000 0 0 1
-19.533877 -6.508158 -32.825533 38.748472 0.321606 2.581383 0.064817 -0.033957 264510.000000 0 0 1
-19.893077 -7.478758 -33.780263 39.909554 0.359601 2.580023 0.058643 -0.028504 -570494.000000 0 0 1
-19.906177 -7.037858 32.472994 38.733483 0.339835 0.576510 0.058987 -0.024892 -236445.000000 0 0 1
-18.666777 -6.657758 31.926591 37.577674 0.342599 0.555540 0.066756 -0.024135 -19746.100000 0 0 1
-18.187977 -5.359258 32.321337 37.472564 0.286550 0.530541 0.066168 -0.022300 119487.000000 0 0 1
-16.766477 -5.099458 31.746171 36.262083 0.295256 0.504400 0.065897 -0.020545 126017.000000 0 0 1
-16.800777 -5.050458 30.331285 35.039408 0.292015 0.524382 0.063348 -0.016500 124553.000000 0 0 1
-15.580477 -4.698458 29.722685 33.886056 0.292888 0.500930 0.050091 -0.008286 -28974.700000 0 0 1
-15.833677 -4.728258 28.235145 32.715214 0.290191 0.529502 0.061638 -0.002627 150909.000000 0 0 1
-16.603277 -3.642958 27.761835 32.552411 0.215989 0.549406 0.062070 -0.012321 136085.000000 0 0 1
-16.947877 -3.677958 26.323315 31.522609 0.213702 0.582552 0.083861 -0.017371 678344.000000 0 0 1
-15.786377 -3.224958 25.331115 30.021250 0.201515 0.566522 0.087859 -0.016043 813148.000000 0 0 1
-15.548477 -1.846758 25.400205 29.838500 0.118220 0.552422 0.080469 -0.011919 -107198.000000 0 0 1
-14.768577 -1.412358 24.308185 28.477948 0.095343 0.547979 0.064800 -0.018237 47781.200000 0 0 1
-14.764477 0.124442 24.336525 28.465273 -0.008428 0.545332 0.055364 -0.005759 -312580.000000 0 0 1
-16.010377 0.558642 23.884825 28.759853 -0.034878 0.590806 0.055231 -0.017036 -554606.000000 0 0 1
-16.303977 1.911742 24.278135 29.307035 -0.116723 0.594540 0.043811 -0.010727 -262008.000000 0 0 1
-16.868977 2.832042 23.199455 28.823560 -0.166333 0.635326 0.062529 -0.015007 -340004.000000 0 0 1
-15.901177 3.210942 22.255685 27.540391 -0.199252 0.629859 0.066947 -0.017957 443113.000000 0 0 1
-16.474077 3.988742 21.203185 27.145540 -0.237551 0.674382 0.077217 -0.023534 -168337.000000 0 0 1
-15.334677 4.423142 20.295785 25.819284 -0.280818 0.666370 0.079946 -0.020560 -85727.400000 0 0 1
-14.465177 5.326542 20.929685 25.993560 -0.352824 0.634805 0.074827 -0.016753 850418.000000 0 0 1
-13.319977 5.679242 20.132285 24.798881 -0.403031 0.623530 0.064194 -0.013757 852081.000000 0 1 0
-12.260577 6.685342 20.645785 24.925168 -0.499206 0.594710 0.055824 -0.008175 117986.000000 0 1 0
-12.537177 8.046942 20.351285 25.221200 -0.570622 0.631891 0.065707 -0.011564 256188.000000 0 0 1
-11.549977 8.940242 20.814385 25.427712 -0.658715 0.611878 0.036852 -0.003813 50433.300000 0 0 1
-12.192777 10.357842 20.898885 26.319425 -0.704207 0.653357 0.036322 -0.001281 141743.000000 0 0 1
-12.436277 10.942342 19.663285 25.710711 -0.721583 0.700082 0.038158 -0.008724 6168.200000 0 0 1
-13.208577 12.071842 19.856985 26.730053 -0.740463 0.733447 0.024605 -0.002224 -571472.000000 0 0 1
-13.490277 12.894842 18.541885 26.307148 -0.762835 0.788623 0.034620 -0.005978 575309.000000 0 0 1
-12.303577 13.508642 17.975385 25.631541 -0.832050 0.793578 0.022325 -0.007414 990403.000000 0 0 1
-12.096477 14.875242 18.320485 26.518631 -0.888061 0.808128 0.026474 -0.007199 38650.700000 0 0 1
-13.157777 15.920742 17.763785 27.242415 -0.880131 0.860493 0.025213 -0.010734 456832.000000 0 0 1
-13.130177 16.218542 16.379385 26.527852 -0.890242 0.905311 -0.000424 -0.006697 222437.000000 0 0 1
-13.749577 15.240942 15.500785 25.721811 -0.836796 0.924001 0.029563 -0.007626 30933.500000 0 0 1
-13.880177 15.823142 14.112585 25.341591 -0.850717 0.980155 0.011781 -0.012354 -567001.000000 0 0 1
-14.886377 16.770542 14.054285 26.464660 -0.844846 1.010947 0.017773 -0.013469 -719976.000000 0 0 1
-15.295277 16.924142 12.746085 26.131108 -0.835911 1.061258 0.002993 -0.007349 -779.120000 0 0 1
-16.422377 17.976742 12.541885 27.388987 -0.830554 1.095146 0.037500 -0.019187 1202020.000000 0 0 1
-17.708477 17.493842 13.051585 28.106379 -0.779301 1.087880 0.065298 -0.022176 837372.000000 0 0 1
-18.672177 18.496742 13.031985 29.336195 -0.780678 1.110483 0.090839 -0.026511 -252305.000000 0 0 1
-20.113777 18.003442 13.256085 30.073439 -0.730090 1.114317 0.102773 -0.020631 -147481.000000 0 0 1
-20.726577 17.469042 12.139085 29.700435 -0.700318 1.149748 0.119226 -0.025611 213122.000000 0 0 1
-21.975877 16.864842 12.499085 30.390611 -0.654560 1.146937 0.159559 -0.032748 811669.000000 0 0 1
-22.819177 16.228642 11.356185 30.216661 -0.618193 1.185509 0.145896 -0.029347 321607.000000 0 0 1
-22.307577 15.002142 10.868285 28.996757 -0.592039 1.186604 0.129144 -0.021001 629589.000000 0 0 1
-23.283077 14.460042 9.955085 29.159874 -0.555757 1.222394 0.147724 -0.019515 730972.000000 0 0 1
-22.779777 13.170242 9.224485 27.883053 -0.524202 1.233616 0.156668 -0.020320 -288373.000000 0 0 1
-22.601377 11.924242 9.911285 27.408819 -0.485475 1.200803 0.142335 -0.028943 809603.000000 0 0 1
-23.781677 11.129842 10.107285 28.135365 -0.437722 1.203345 0.185409 -0.020901 1151180.000000 0 0 1
-24.592577 10.514242 8.853085 28.173059 -0.404018 1.251141 0.203193 -0.018332 538599.000000 0 0 1
-25.153787 11.588842 8.081485 28.850038 -0.431732 1.286877 0.206543 -0.022155 1401060.000000 0 0 1
-26.311517 11.125842 7.304285 29.486147 -0.400049 1.320471 0.237820 -0.029222 807585.000000 0 0 1
-26.907427 12.197642 6.385185 30.225200 -0.425610 1.357939 0.207865 -0.020460 -46308.000000 0 0 1
-26.159347 12.463242 5.191085 29.437921 -0.444619 1.393529 0.214956 -0.037691 183214.000000 0 0 1
-25.001477 13.238942 5.314985 28.785283 -0.486989 1.385088 0.203557 -0.038974 -479248.000000 0 0 1
-25.220257 14.774042 5.452185 29.733147 -0.529913 1.386382 0.191865 -0.033273 167827.000000 0 0 1
-23.949177 15.303542 5.900285 29.027140 -0.568604 1.366102 0.188726 -0.041883 1297470.000000 0 0 1
-23.801477 16.687742 6.027285 29.687021 -0.611479 1.366347 0.167769 -0.045552 -95599.900000 0 0 1
-22.359277 17.218042 6.256485 28.905741 -0.656218 1.352625 0.155669 -0.034160 454030.000000 0 0 1
-21.606177 17.462542 5.050585 28.236071 -0.679733 1.390959 0.161571 -0.046884 -169167.000000 0 0 1
-20.327677 17.877442 5.354185 27.595012 -0.721352 1.375531 0.151306 -0.037018 -1029700.000000 0 0 1
-19.547177 18.452142 4.141385 27.197881 -0.756589 1.417933 0.128713 -0.033042 -705824.000000 0 0 1
-18.207577 18.728842 4.381185 26.485471 -0.799510 1.404614 0.110697 -0.034425 -373678.000000 0 0 1
-17.613577 19.684742 3.505085 26.646065 -0.840871 1.438872 0.116997 -0.042731 142868.000000 0 0 1
-17.880077 21.195942 3.758285 27.983742 -0.870052 1.436087 0.118574 -0.041203 -123458.000000 0 0 1
-16.959877 21.768142 4.660185 27.985832 -0.908921 1.403498 0.074130 -0.036607 -58676.200000 0 0 1
-17.430777 23.004242 5.130085 29.314586 -0.922373 1.394889 0.056540 -0.034410 16381.600000 0 0 1
-16.670877 23.610942 6.345785 29.591616 -0.956011 1.354672 0.029843 -0.014947 27609.300000 0 0 1
-17.239077 23.022842 7.508885 29.725753 -0.928076 1.315424 0.034001 -0.009773 546036.000000 0 0 1
-16.464377 23.327642 8.661285 29.837434 -0.956196 1.276274 0.025037 -0.015710 91102.300000 0 0 1
-16.903177 22.483842 9.872085 29.811049 -0.926149 1.233269 0.007080 -0.008243 -8366.590000 0 0 1
-18.150877 22.952442 10.315885 31.027189 -0.901688 1.231866 0.013150 -0.006651 -576544.000000 0 0 1
-18.949677 21.971942 10.923485 31.002888 -0.859119 1.210729 0.025819 -0.013063 25965.100000 0 0 1
-20.104477 22.722442 11.638885 32.495585 -0.846451 1.204491 0.052544 -0.016758 -159068.000000 0 0 1
-21.027377 23.489842 10.869185 33.347601 -0.840657 1.238795 0.088086 -0.011488 194310.000000 0 0 1
-20.612677 24.766742 10.345285 33.842265 -0.876684 1.260132 0.044019 -0.004212 -1034620.000000 0 0 1
-21.720977 25.607642 9.749085 34.965652 -0.867335 1.288232 0.068374 -0.011607 -397933.000000 0 0 1
-22.428677 26.313142 10.771985 36.214123 -0.864925 1.268773 0.092150 -0.030200 -116221.000000 0 0 1
-23.291777 27.227042 10.144385 37.238787 -0.863138 1.294895 0.102729 -0.021736 -721603.000000 0 0 1
-24.230777 27.899242 11.122585 38.590286 -0.855654 1.278426 0.106682 -0.024852 -784628.000000 0 0 1
-23.599677 28.610842 12.139985 39.024406 -0.881085 1.254460 0.107648 -0.027763 40863.700000 0 0 1
-24.546677 29.134842 13.049085 40.269803 -0.870661 1.240798 0.101105 -0.025575 122473.000000 0 0 1
9.544323 -32.570505 27.968945 43.979470 -1.285741 0.881551 0.043930 -0.026019 91795.300000 0 0 1
10.926323 -32.684005 27.679235 44.201457 -1.248174 0.894118 0.046118 -0.044113 346769.000000 0 0 1
11.084423 -32.291505 26.326975 43.112821 -1.240137 0.913911 0.059133 -0.036289 -905536.000000 0 0 1
12.546523 -32.135705 25.984925 43.189525 -1.198573 0.925233 0.052271 -0.031200 -227130.000000 0 0 1
13.279823 -33.411105 25.923735 44.324888 -1.192475 0.946092 0.072902 -0.042966 568374.000000 0 0 1
14.660923 -33.301505 25.665455 44.526941 -1.156082 0.956476 0.090409 -0.037367 98145.800000 0 0 1
15.458223 33.080142 25.439585 44.501966 1.133652 0.962280 0.117201 -0.035180 -67086.700000 0 0 1
15.234723 32.411042 24.186645 43.215347 1.131397 0.976800 0.098570 -0.039629 189023.000000 0 0 1
16.219823 31.424142 24.008945 42.743290 1.094306 0.974356 0.109323 -0.035078 -339649.000000 0 0 1
16.353523 30.943542 22.522185 41.619579 1.084613 0.998999 0.103697 -0.038548 556868.000000 0 0 1
15.314623 30.072542 21.980385 40.274468 1.099771 0.993495 0.104243 -0.030277 653946.000000 0 0 1
15.356223 28.685942 22.326185 39.460808 1.079292 0.969416 0.099912 -0.027410 -353414.000000 0 0 1
15.054123 28.231142 23.711685 39.822958 1.080908 0.932999 0.108007 -0.034398 -708173.000000 0 0 1
16.001223 28.477142 24.702175 40.953440 1.058865 0.923318 0.099275 -0.025900 -55769.100000 0 0 1
15.486623 28.142442 26.002065 41.327230 1.067727 0.890305 0.102338 -0.028474 196864.000000 0 0 1
16.455523 28.554642 27.168825 42.711789 1.047999 0.881367 0.111428 -0.033438 264300.000000 0 0 1
16.460123 29.949542 27.391385 43.797245 1.068264 0.895135 0.119062 -0.047126 167597.000000 0 0 1
17.059223 30.330942 28.621225 45.057271 1.058455 0.882505 0.135246 -0.049013 -110828.000000 0 0 1
16.848623 31.819942 28.997815 46.230489 1.083829 0.892786 0.145500 -0.051977 -241819.000000 0 0 1
17.667123 32.778842 28.357295 46.805084 1.076454 0.919951 0.136272 -0.044011 -109479.000000 0 0 1
17.240023 -33.561705 28.538225 47.307893 -1.096264 0.923233 0.130997 -0.031273 -166748.000000 0 0 1
18.016723 -32.502505 27.745535 46.377040 -1.064644 0.929468 0.119633 -0.033521 -614079.000000 0 0 1
17.986123 -32.713905 26.351185 45.695570 -1.068106 0.956152 0.135053 -0.033681 -92671.000000 0 0 1
18.374823 -31.572705 25.607275 44.611684 -1.043729 0.959409 0.138789 -0.036857 649662.000000 0 0 1
19.880723 -31.112105 25.512555 44.878689 -1.002191 0.966141 0.130543 -0.031967 532615.000000 0 0 1
20.283523 -30.593705 26.716425 45.400038 -0.985339 0.941635 0.124850 -0.031599 -44669.000000 0 0 1
21.323023 -29.652305 26.493685 45.120348 -0.947365 0.943228 0.122301 -0.029874 106422.000000 0 0 1
21.508323 -28.816105 27.724275 45.404970 -0.929604 0.913978 0.122563 -0.028747 -200895.000000 0 0 1
20.442423 -27.902505 27.788645 44.369485 -0.938500 0.893997 0.137892 -0.032494 80173.900000 0 0 1
20.593023 -27.013505 28.880395 44.585640 -0.919455 0.866168 0.152197 -0.028556 -5227.300000 0 0 1
19.237023 -26.539605 29.441915 44.059506 -0.943592 0.838968 0.145775 -0.031493 -356081.000000 0 0 1
18.452823 -25.814205 28.567035 42.696081 -0.950185 0.837828 0.145935 -0.035657 -412665.000000 0 0 1
17.244823 -25.492805 29.207915 42.430759 -0.976045 0.811562 0.122207 -0.030495 -670450.000000 0 0 1
16.255423 -24.885805 28.216075 40.984009 -0.992174 0.811425 0.133603 -0.031147 -960588.000000 0 0 1
15.887023 -25.820305 27.208235 40.735411 -1.019209 0.839378 0.131079 -0.032653 472435.000000 0 0 1
15.101823 -25.311405 26.112335 39.377485 -1.032850 0.845806 0.141647 -0.045634 1548570.000000 0 0 1
13.628523 -24.767405 26.452565 38.715619 -1.067753 0.818588 0.094779 -0.034736 2069290.000000 0 0 1
12.619623 -25.765805 26.828995 39.280104 -1.115357 0.818910 0.091805 -0.030329 1316960.000000 0 0 1
12.146923 -26.619805 25.724515 38.960396 -1.142706 0.849614 0.065032 -0.028273 -51612.000000 0 0 1
11.207323 -27.801105 26.110245 39.752364 -1.187599 0.854199 0.076003 -0.025685 1085320.000000 0 0 1
9.860023 -27.435705 26.452755 39.366054 -1.225784 0.833932 0.043643 -0.037209 354623.000000 0 0 1
9.057423 -28.555905 26.685245 40.119558 -1.263652 0.843111 0.028835 -0.035942 -357470.000000 0 0 1
7.592823 -28.110205 26.889425 39.634275 -1.306983 0.825161 0.034758 -0.037222 627427.000000 0 0 1
6.741623 -27.903505 25.681465 38.517434 -1.333734 0.840958 0.060377 -0.038433 1194930.000000 0 0 1
7.229023 -26.870905 24.825475 37.290864 -1.307991 0.842331 0.062241 -0.032848 -883910.000000 0 0 1
6.134723 -26.544905 23.803085 36.178083 -1.343676 0.852713 0.059026 -0.026281 -629744.000000 0 0 1
5.955923 -27.384905 22.670685 36.046720 -1.356642 0.890627 0.067236 -0.021438 -63945.600000 0 0 1
5.368123 -28.650605 22.861005 37.044561 -1.385579 0.905717 0.069403 -0.028569 -387517.000000 0 0 1
3.967523 -28.715205 23.500555 37.317293 -1.433498 0.889565 0.109830 -0.031436 -1225330.000000 0 0 1
2.910223 -28.539605 22.589085 36.513631 -1.469176 0.903776 0.126343 -0.025573 340304.000000 0 0 1
1.670623 -28.420305 23.299565 36.788238 -1.512081 0.884931 0.151204 -0.028446 455233.000000 0 0 1
1.224723 -27.007205 23.758705 35.991181 -1.525479 0.849810 0.131041 -0.032051 -416165.000000 0 0 1
2.008023 -26.594605 24.857945 36.458505 -1.495434 0.820556 0.095372 -0.028587 -62319.000000 0 0 1
1.792323 -25.232705 25.192545 35.701067 -1.499884 0.787453 0.085937 -0.018493 -571040.000000 0 0 1
2.905623 -24.493805 25.913595 35.775740 -1.452721 0.760728 0.083588 -0.019461 -836698.000000 0 0 1
4.082923 -24.295805 25.152625 35.208109 -1.404301 0.775032 0.079365 -0.025220 415982.000000 0 0 1
5.156423 -23.748105 25.929745 35.537485 -1.356985 0.752994 0.054399 -0.020279 236556.000000 0 0 1
4.921223 -22.266905 26.428185 34.906768 -1.353282 0.711922 0.060004 -0.018112 -747248.000000 0 0 1
4.849623 -21.409605 25.299875 33.495876 -1.348039 0.714665 0.054672 -0.014708 262709.000000 0 0 1
4.224523 -20.163605 25.581255 32.845368 -1.364271 0.677984 0.078074 -0.031415 -41518.900000 0 0 1
4.203723 -19.317605 24.321435 31.342836 -1.356526 0.682528 0.087278 -0.033588 955751.000000 0 0 1
5.538423 -18.880205 23.986635 31.024103 -1.285456 0.686986 0.061063 -0.018473 873369.000000 0 0 1
5.501023 -18.041405 22.823555 29.608584 -1.274840 0.690634 0.061355 -0.013891 150883.000000 0 0 1
6.860323 -17.362105 22.517985 29.250066 -1.194494 0.692200 0.086205 -0.017874 -449699.000000 0 0 1
7.685223 -18.240905 21.849385 29.482010 -1.172048 0.736076 0.091749 -0.020996 -1286990.000000 0 0 1
8.767323 -17.697105 21.206485 28.978759 -1.110827 0.749846 0.083809 -0.020884 -318026.000000 0 0 1
10.101723 -17.715205 21.999585 29.997584 -1.052555 0.747518 0.102445 -0.023289 -281713.000000 0 0 1
10.076523 -16.918905 23.194085 30.426161 -1.033635 0.703926 0.113687 -0.019809 506274.000000 0 0 1
11.324823 -16.940205 23.886365 31.397143 -0.981513 0.706280 0.114999 -0.015489 472027.000000 0 0 1
11.139923 -16.070905 25.133725 31.844560 -0.964667 0.661189 0.129711 -0.028208 -190172.000000 0 0 1
11.187923 -14.675805 25.016425 31.086499 -0.919446 0.635566 0.154511 -0.032351 154123.000000 0 0 1
11.163923 -14.100905 26.293345 31.856062 -0.901127 0.599922 0.141155 -0.025894 -396554.000000 0 0 1
11.270823 -12.566205 26.158925 31.132464 -0.839688 0.573060 0.155130 -0.024042 866390.000000 0 0 1
10.073923 -11.940705 25.660395 30.041975 -0.869993 0.546879 0.173610 -0.024182 693264.000000 0 0 1
10.340023 -10.577105 25.507805 29.486257 -0.796732 0.525498 0.168503 -0.019305 -550163.000000 0 0 1
9.291823 -9.831405 24.710125 28.170637 -0.813607 0.500883 0.155688 -0.021327 -795946.000000 0 0 1
8.260623 -9.445305 25.581365 28.493121 -0.852207 0.456029 0.130504 -0.029149 -716906.000000 0 0 1
7.231123 -9.009105 24.723775 27.289525 -0.894444 0.437106 0.114310 -0.027845 -187840.000000 0 0 1
5.791323 -9.134105 25.265565 27.483087 -1.005728 0.404465 0.090563 -0.027007 -474178.000000 0 0 1
5.459123 -7.910305 25.949445 27.672164 -0.966727 0.354715 0.091963 -0.020534 797315.000000 0 0 1
4.147523 -7.883405 26.555175 28.009416 -1.086481 0.323652 0.076038 -0.019485 1432060.000000 0 0 1
2.901023 -7.876805 25.639165 26.978265 -1.217913 0.316393 0.052165 -0.018873 -198450.000000 0 0 1
2.934723 -6.789805 24.746735 25.828569 -1.162822 0.290451 0.060470 -0.024380 -690308.000000 0 0 1
1.797723 -6.779605 23.960635 24.966115 -1.311595 0.284770 0.058675 -0.029379 -306542.000000 0 1 0
1.821923 -5.495105 23.135945 23.849267 -1.250648 0.245193 0.048276 -0.036468 -239593.000000 0 1 0
1.500423 -4.403905 24.007385 24.454043 -1.242428 0.191421 0.061856 -0.027268 86507.500000 0 1 0
2.078323 -3.204205 23.498745 23.807087 -0.995389 0.161119 0.058529 -0.022085 -684956.000000 0 1 0
1.305823 -2.493305 22.299385 22.476306 -1.088344 0.125553 0.053013 -0.026390 1258120.000000 0 1 0
0.148123 -1.781305 22.801895 22.871848 -1.487833 0.078231 0.052973 -0.024740 979635.000000 0 1 0
-0.977877 -2.545305 23.229825 23.389305 1.203994 0.116844 0.051793 -0.024523 -340483.000000 0 1 0
-2.055877 -1.596305 23.813185 23.955012 0.660221 0.108871 0.059215 -0.034827 -19098.300000 0 1 0
-1.606577 -0.872305 24.918105 24.985075 0.497421 0.073234 0.073418 -0.029738 162793.000000 0 1 0
-2.357377 0.327695 25.012715 25.125695 -0.138123 0.094868 0.070552 -0.033788 -37364.000000 0 0 1
-2.066477 1.168695 26.256555 26.363666 -0.514703 0.090173 0.102696 -0.031175 -574192.000000 0 0 1
-2.483077 0.563695 27.475485 27.593219 -0.223231 0.092410 0.134647 -0.027095 662447.000000 0 0 1
-1.625477 -0.518305 27.993195 28.045139 0.308671 0.060872 0.126804 -0.027058 679648.000000 0 0 1
-0.243577 -0.065305 28.573525 28.574638 0.261947 0.008825 0.140857 -0.026129 383281.000000 0 0 1
0.725423 0.569695 27.769465 27.784780 0.665731 0.033204 0.096910 -0.020974 300330.000000 0 0 1
1.354423 -0.224305 26.738255 26.773477 -0.164120 0.051300 0.087357 -0.023646 273970.000000 0 0 1
2.569723 -1.126305 27.191725 27.336093 -0.413080 0.102819 0.097449 -0.023791 105328.000000 0 0 1
2.284623 -2.265305 28.052585 28.236477 -0.781152 0.114190 0.105583 -0.025517 -68905.600000 0 0 1
3.424423 -2.914205 28.577385 28.928986 -0.705078 0.156068 0.113649 -0.022220 -43907.200000 0 0 1
4.191523 -3.841905 27.651465 28.229995 -0.741905 0.202800 0.112599 -0.028397 178631.000000 0 0 1
4.971723 -3.211005 26.607705 27.258000 -0.573455 0.218872 0.105204 -0.023241 207112.000000 0 0 1
5.439123 -4.201205 25.724095 26.626364 -0.657687 0.261072 0.099113 -0.023239 -84785.500000 0 0 1
6.724423 -3.865405 24.898885 26.078990 -0.521707 0.301982 0.086075 -0.020603 -76420.600000 0 0 1
7.861923 -3.772205 25.738955 27.175967 -0.447363 0.326652 0.094534 -0.024545 558928.000000 0 0 1
8.644423 -5.002905 25.939255 27.795684 -0.524643 0.367547 0.113617 -0.021740 108466.000000 0 0 1
9.515823 -5.396905 24.776465 27.084141 -0.515915 0.415794 0.095741 -0.020981 -553300.000000 0 0 1
8.744923 -5.956805 23.697515 25.952446 -0.597978 0.419941 0.091713 -0.025181 81264.700000 0 0 1
9.338123 -5.852005 22.406085 24.969565 -0.559806 0.457101 0.095075 -0.027518 37087.300000 0 1 0
9.345223 -4.462605 21.766085 24.104160 -0.445509 0.444092 0.101983 -0.020639 1289170.000000 0 1 0
8.019923 -4.051905 21.346485 23.160517 -0.467823 0.398419 0.068936 -0.021624 839523.000000 0 1 0
8.097223 -2.972905 20.398985 22.147726 -0.351872 0.400049 0.067031 -0.020958 -15021.300000 0 1 0
6.786723 -2.175305 20.311985 21.525991 -0.310178 0.337448 0.060041 -0.009329 -12262.900000 0 1 0
6.404223 -1.486305 21.493085 22.476118 -0.228045 0.296848 0.066541 -0.004131 -54182.600000 0 1 0
5.249223 -0.732305 21.236185 21.887581 -0.138613 0.244580 0.038229 0.000851 -170220.000000 0 1 0
4.512823 -0.159305 22.498785 22.947468 -0.035286 0.198074 0.035653 -0.009269 569582.000000 0 1 0
3.360823 0.645695 22.212985 22.475070 0.189811 0.152865 0.039185 -0.012385 347393.000000 0 1 0
2.566923 0.760695 23.379245 23.532039 0.288100 0.114018 0.050822 -0.017040 445249.000000 0 1 0
1.156223 1.388695 23.131985 23.202458 0.876493 0.077960 0.059862 -0.033039 331184.000000 0 1 0
1.068223 2.764695 22.828535 23.020136 1.202086 0.129110 0.058238 -0.027257 1399270.000000 0 1 0
-0.362677 3.043695 22.827575 23.032451 -1.452199 0.133479 0.047643 -0.030743 1532720.000000 0 1 0
-0.832477 4.484695 22.524785 22.981981 -1.387259 0.199800 0.057464 -0.025561 -16783.600000 0 1 0
-0.424577 5.530695 23.407115 24.055393 -1.494179 0.232685 0.077279 -0.030119 299530.000000 0 1 0
-1.277177 6.621695 23.031805 23.998794 -1.380258 0.284839 0.070486 -0.031811 277916.000000 0 1 0
-1.106477 7.927695 23.828955 25.137457 -1.432121 0.324074 0.088348 -0.031409 33495.100000 0 0 1
0.045323 8.652695 23.458015 25.002993 1.565558 0.353380 0.083552 -0.027389 48698.000000 0 0 1
-0.030777 9.927695 24.079595 26.045863 -1.567696 0.391055 0.112883 -0.030291 -340821.000000 0 0 1
0.899223 10.961695 23.392085 25.848734 1.488946 0.439509 0.121631 -0.035091 1954010.000000 0 0 1
2.342623 10.790695 23.552365 26.012322 1.357017 0.438402 0.099889 -0.029726 1186180.000000 0 0 1
2.862423 11.208695 24.741215 27.312196 1.320765 0.437374 0.129417 -0.036929 -319312.000000 0 0 1
4.128823 12.120695 24.554545 27.692673 1.242482 0.480681 0.107478 -0.035820 1635670.000000 0 0 1
5.391023 11.603695 24.048075 27.240022 1.135871 0.488961 0.083543 -0.020691 1044090.000000 0 0 1
5.346023 10.810695 22.867115 25.852583 1.111548 0.485333 0.092845 -0.024389 -579085.000000 0 0 1
6.753123 10.329695 22.386785 25.563166 0.991784 0.503822 0.085116 -0.021482 331058.000000 0 0 1
7.626923 11.317695 21.943885 25.841716 0.977807 0.556394 0.072048 -0.016975 -600017.000000 0 0 1
8.618123 10.759695 21.156585 25.251618 0.895468 0.577499 0.076462 -0.016860 -116171.000000 0 0 1
9.581123 11.790695 20.481285 25.501009 0.888419 0.638223 0.064426 -0.022567 -328326.000000 0 0 1
9.013523 12.428695 19.365485 24.713116 0.943345 0.670338 0.067925 -0.026549 -85720.400000 0 1 0
9.721123 13.520695 18.848285 25.150890 0.947445 0.723628 0.080396 -0.025059 462507.000000 0 0 1
11.147923 13.214695 18.266285 25.150776 0.870029 0.757914 0.087225 -0.025004 597818.000000 0 0 1
12.207023 13.105695 19.230885 26.279224 0.820886 0.749851 0.087238 -0.023882 94505.100000 0 0 1
13.306923 12.612695 18.484185 26.034965 0.758621 0.781333 0.074692 -0.024185 -205477.000000 0 0 1
14.478423 12.231695 19.429785 27.143243 0.701480 0.772993 0.086007 -0.016936 122126.000000 0 0 1
15.165523 13.416695 19.886285 28.380718 0.724288 0.794422 0.088024 -0.020371 298505.000000 0 0 1
16.244823 12.973695 20.714385 29.347859 0.673908 0.787212 0.092375 -0.021528 745797.000000 0 0 1
17.153523 14.162695 21.224385 30.745728 0.690183 0.808865 0.094162 -0.019255 198173.000000 0 0 1
16.605023 14.930695 22.297285 31.556638 0.732355 0.786143 0.105463 -0.022316 -42049.200000 0 0 1
17.500623 15.900695 22.711715 32.786063 0.737535 0.805536 0.101919 -0.019607 -457971.000000 0 0 1
-21.733277 12.541342 -24.232753 34.883333 -0.523379 2.338771 0.056848 -0.002175 105081.000000 0 0 1
-21.495677 12.610842 -25.626183 35.746310 -0.530559 2.370128 0.055519 -0.014684 -213750.000000 0 0 1
-22.304677 13.545442 -26.282753 37.037288 -0.545764 2.359769 0.079120 -0.012230 -197963.000000 0 0 1
-22.006177 13.731142 -27.785063 38.010864 -0.557857 2.390549 0.071296 -0.009092 -318728.000000 0 0 1
-20.698877 14.050942 -28.181053 37.683474 -0.596374 2.415593 0.083763 -0.019374 -509933.000000 0 0 1
-20.624677 14.832942 -29.343013 38.812445 -0.623486 2.428008 0.089522 -0.027296 -25216.400000 0 0 1
-19.197277 15.349842 -29.615243 38.486565 -0.674487 2.448847 0.077780 -0.025410 -877588.000000 0 0 1
-18.387877 14.546042 -30.430013 38.414672 -0.669270 2.485113 0.078623 -0.010578 -1157240.000000 0 0 1
-17.041977 14.650742 -30.152043 37.606102 -0.710090 2.501074 0.076804 -0.018864 -717949.000000 0 0 1
-16.503977 13.977242 -28.898333 36.095127 -0.702692 2.499119 0.094568 -0.017854 -972974.000000 0 0 1
-17.066877 14.509142 -27.707953 35.630382 -0.704572 2.461715 0.101151 -0.029398 -310628.000000 0 0 1
-17.509277 13.491042 -26.899063 34.815838 -0.656498 2.453738 0.102931 -0.022795 -482957.000000 0 0 1
-17.921177 13.921542 -25.455473 34.102185 -0.660447 2.413503 0.101220 -0.025041 -338078.000000 0 0 1
-16.924577 14.229342 -24.507853 33.008337 -0.699100 2.407553 0.137545 -0.044732 -162477.000000 0 0 1
-17.477977 14.641442 -23.299253 32.599182 -0.697315 2.367018 0.126635 -0.042660 52827.200000 0 0 1
-16.368977 15.112242 -22.302353 31.523296 -0.745499 2.356734 0.113072 -0.042151 312381.000000 0 0 1
-15.882377 16.311442 -22.857653 32.261205 -0.798725 2.358193 0.104692 -0.040362 -278465.000000 0 0 1
-15.199377 17.134442 -21.934453 31.713253 -0.845173 2.334567 0.104309 -0.037079 -462244.000000 0 0 1
-15.145777 18.585242 -22.453053 32.847304 -0.887014 2.323423 0.098780 -0.032065 237383.000000 0 0 1
-16.279177 19.429542 -22.375953 33.811270 -0.873394 2.294000 0.066017 -0.024266 -228130.000000 0 0 1
-17.368977 19.098742 -23.194753 34.705041 -0.832795 2.302771 0.044542 -0.022147 -1122490.000000 0 0 1
-18.618177 19.811842 -22.752053 35.451396 -0.816449 2.267615 0.039911 -0.013371 -957587.000000 0 0 1
-18.565877 21.232742 -22.864753 36.308650 -0.852307 2.252006 0.031286 -0.006871 6778.220000 0 0 1
-19.863977 21.803342 -22.922753 37.355266 -0.831909 2.231461 0.074837 -0.025994 -22974.200000 0 0 1
-19.944177 23.285042 -23.359153 38.543656 -0.862527 2.221874 0.061276 -0.024531 -167280.000000 0 0 1
-19.408777 24.200142 -22.403453 38.265679 -0.894830 2.196257 0.058029 -0.026200 -77799.100000 0 0 1
-18.636477 25.178842 -23.061153 38.898703 -0.933620 2.205391 0.056542 -0.019269 -68814.400000 0 0 1
-17.400777 25.599542 -22.190353 38.085894 -0.973804 2.192769 0.070468 -0.028523 1886350.000000 0 0 1
-16.231277 24.718542 -21.997353 36.855721 -0.989765 2.210366 0.087148 -0.042741 1428090.000000 0 0 1
-16.590477 23.399842 -21.564053 35.885999 -0.954056 2.215428 0.083009 -0.017269 -1382850.000000 0 0 1
-15.478477 22.396142 -21.257353 34.540490 -0.966053 2.233731 0.116198 -0.023655 -179264.000000 0 0 1
-14.785477 22.621742 -20.042553 33.646062 -0.991897 2.208918 0.147033 -0.047677 337814.000000 0 0 1
-13.904077 21.550442 -19.645953 32.306476 -0.997812 2.224476 0.126468 -0.039879 272507.000000 0 0 1
-12.948477 21.937642 -18.481453 31.472008 -1.037584 2.198434 0.128205 -0.046153 -38039.400000 0 0 1
-13.441477 22.081442 -17.132553 31.012703 -1.023988 2.156081 0.139164 -0.042503 -209963.000000 0 0 1
-14.230677 23.247942 -17.022453 32.136317 -1.021508 2.129037 0.147116 -0.052467 -183469.000000 0 0 1
-14.863677 23.474742 -15.637453 31.882947 -1.006338 2.083419 0.151955 -0.062875 -207703.000000 0 0 1
-13.924677 23.728942 -14.623753 31.157880 -1.040123 2.059344 0.147578 -0.076034 54160.700000 0 0 1
-14.495677 23.559542 -13.335553 30.708527 -1.019218 2.020015 0.143173 -0.056800 44308.100000 0 0 1
-13.469277 23.920942 -12.230453 30.053567 -1.057970 1.989915 0.160572 -0.053012 146301.000000 0 0 1
-13.105877 25.302142 -12.263653 31.021921 -1.092872 1.977215 0.151154 -0.063024 -107732.000000 0 0 1
-12.177177 25.576042 -11.254453 30.480818 -1.126437 1.948977 0.088993 -0.052004 -285846.000000 0 0 1
-11.708077 27.073442 -11.510453 31.662926 -1.162627 1.942852 0.116988 -0.050108 -265505.000000 0 0 1
-11.156077 27.202842 -12.739853 32.043042 -1.181607 1.979680 0.108874 -0.046974 -404347.000000 0 0 1
-11.081277 28.625842 -13.072353 33.363452 -1.201453 1.973402 0.099231 -0.033598 -771958.000000 0 0 1
-10.199977 29.019442 -14.273753 33.910287 -1.232797 2.005263 0.135613 -0.049361 856702.000000 0 0 1
-8.781877 28.872642 -14.202153 33.353440 -1.275528 2.010651 0.110706 -0.046132 449803.000000 0 0 1
-8.292077 27.554942 -13.966053 31.985684 -1.278488 2.022651 0.116538 -0.052363 -266260.000000 0 0 1
-6.877377 27.339242 -14.581853 31.738981 -1.324353 2.048150 0.118297 -0.054201 1022050.000000 0 0 1
-5.840277 28.135842 -14.009453 31.968722 -1.366129 2.024418 0.097227 -0.049195 536665.000000 0 0 1
-4.558977 27.909242 -14.626153 31.837626 -1.408876 2.048114 0.097894 -0.051671 783950.000000 0 0 1
-3.459677 28.805642 -14.046253 32.234013 -1.451265 2.021677 0.078053 -0.040475 -487211.000000 0 0 1
-3.579877 30.234942 -14.277153 33.627434 -1.452943 2.009282 0.062709 -0.028655 196756.000000 0 0 1
-4.557177 30.877842 -13.444153 33.984618 -1.424267 1.977512 0.053796 -0.031136 272728.000000 0 0 1
-4.634477 32.371242 -13.725153 35.464849 -1.428596 1.968180 0.054400 -0.033867 -128779.000000 0 0 1
-3.548577 33.096042 -13.163053 35.793943 -1.463984 1.947380 0.031093 -0.034586 226036.000000 0 0 1
-3.612877 -33.209005 -13.537653 36.043847 1.462430 1.955828 0.034114 -0.019961 72330.800000 0 0 1
-2.776177 -32.332805 -12.598853 34.811615 1.485144 1.941118 0.040223 -0.031736 91145.900000 0 0 1
-3.359777 -32.027405 -11.330353 34.138243 1.466275 1.909109 0.041843 -0.036566 367566.000000 0 0 1
-2.337477 -31.526705 -10.469353 33.301716 1.496789 1.890599 0.036212 -0.036891 65230.200000 0 0 1
-2.716577 -31.463305 -8.992753 32.835787 1.484669 1.848211 0.039877 -0.029441 310620.000000 0 0 1
-1.625177 -30.891505 -8.228353 32.009874 1.518236 1.830772 0.031326 -0.024013 536931.000000 0 0 1
-1.879877 -30.811005 -6.828653 31.614592 1.509859 1.788509 0.045023 -0.030008 -274659.000000 0 0 1
-0.644877 -30.388205 -6.039453 30.989254 1.549578 1.766940 0.057793 -0.027524 -434811.000000 0 0 1
-0.794177 -30.376405 -4.665953 30.742931 1.544658 1.723158 0.082768 -0.038777 -526096.000000 0 0 1
0.462923 -30.072705 -4.114953 30.356461 -1.555404 1.706769 0.068187 -0.029150 -80560.000000 0 0 1
0.451623 -29.902805 -2.512353 30.011558 -1.555694 1.654607 0.072967 -0.031655 -275515.000000 0 0 1
0.263723 -31.111705 -1.781153 31.163765 -1.562320 1.627982 0.083348 -0.029121 309721.000000 0 0 1
1.164023 -32.200205 -2.106753 32.290038 -1.534663 1.636087 0.066421 -0.021873 983492.000000 0 0 1
2.647123 -32.041105 -1.655353 32.192854 -1.488367 1.622239 0.064278 -0.011812 3885.380000 0 0 1
3.051123 -32.271005 -0.290453 32.416222 -1.476530 1.579757 0.056567 -0.011973 895490.000000 0 0 1
4.436823 -32.018505 0.030647 32.324464 -1.433103 1.569848 0.048268 -0.012776 1159150.000000 0 0 1
4.806423 -30.527105 0.249547 30.904176 -1.414631 1.562721 0.040485 -0.019582 -771574.000000 0 0 1
4.983323 -29.807105 -0.968653 30.236324 -1.405143 1.602838 0.049254 -0.024181 15396.900000 0 0 1
4.899823 -28.436105 -0.710153 28.863898 -1.400162 1.595402 0.070094 -0.029329 -442767.000000 0 0 1
4.561423 -27.437005 -1.849153 27.874992 -1.406052 1.637182 0.067976 -0.035195 -401824.000000 0 0 1
3.272323 -27.771205 -2.311953 28.058743 -1.453506 1.653287 0.078903 -0.029814 -209408.000000 0 0 1
2.725623 -26.770805 -3.160153 27.094124 -1.469333 1.687698 0.087534 -0.036726 -153844.000000 0 0 1
3.082523 -26.781705 -4.637553 27.354498 -1.456203 1.741154 0.075494 -0.028093 -569468.000000 0 0 1
2.448923 -27.747705 -5.397853 28.373741 -1.482768 1.762204 0.073678 -0.031846 -345269.000000 0 0 1
2.777723 -27.638305 -6.770253 28.590697 -1.470630 1.809866 0.088476 -0.031249 258018.000000 0 0 1
2.033723 -28.641005 -7.751453 29.741019 -1.499908 1.834473 0.069667 -0.029012 -1107670.000000 0 0 1
0.697823 -28.405105 -7.935153 29.500908 -1.546234 1.843130 0.061233 -0.023615 -1508580.000000 0 0 1
0.453823 -28.348205 -9.316353 29.843276 -1.554789 1.888279 0.068037 -0.018943 188296.000000 0 0 1
-0.996577 -27.917805 -9.637153 29.551171 1.535115 1.902990 0.040882 -0.017056 -354056.000000 0 0 1
-1.140577 -26.581905 -9.222153 28.159309 1.527915 1.904452 0.038409 -0.017209 -545259.000000 0 0 1
-2.430477 -26.053505 -9.086853 27.699517 1.477778 1.905036 0.049383 -0.021773 128168.000000 0 0 1
-3.355677 -26.648805 -7.980253 28.019704 1.445533 1.859603 0.061540 -0.013548 -235594.000000 0 0 1
-3.147277 -26.387205 -6.590253 27.379214 1.452084 1.813886 0.075903 -0.019564 -874465.000000 0 0 1
-2.023277 -27.035705 -6.095453 27.788082 1.496098 1.791950 0.071559 -0.023419 -322806.000000 0 0 1
-1.675877 -26.696805 -4.676653 27.155092 1.508104 1.743879 0.088244 -0.029547 -894477.000000 0 0 1
-2.692077 -27.013005 -3.826853 27.415224 1.471466 1.710842 0.108105 -0.038881 -1017160.000000 0 0 1
-2.474477 -26.672705 -2.482553 26.902031 1.478289 1.663209 0.110908 -0.038746 374326.000000 0 0 1
-3.767477 -26.887205 -1.632853 27.198931 1.431581 1.630866 0.122146 -0.034689 -215197.000000 0 0 1
-4.765977 -25.978605 -1.878253 26.478865 1.389356 1.641790 0.124206 -0.031972 -1185810.000000 0 0 1
-5.674677 -26.003605 -0.815253 26.628069 1.355938 1.601417 0.144056 -0.037874 -579754.000000 0 0 1
-6.749477 -24.962805 -0.921153 25.875579 1.306729 1.606403 0.107446 -0.029330 -420160.000000 0 0 1
-6.167277 -23.684105 -0.777153 24.486243 1.316056 1.602540 0.102589 -0.033764 -35386.400000 0 1 0
-6.761777 -22.992305 0.265947 23.967445 1.284772 1.559700 0.099067 -0.029470 -265130.000000 0 1 0
-6.006577 -21.722205 0.559947 22.544327 1.301020 1.545956 0.072187 -0.027586 500633.000000 0 1 0
-4.806677 -21.833605 1.342147 22.396692 1.354103 1.510834 0.071744 -0.025603 447530.000000 0 1 0
-4.261277 -20.533605 1.526347 21.026582 1.366174 1.498141 0.048255 -0.019940 141499.000000 0 1 0
-3.155277 -20.406105 2.590347 20.810449 1.417387 1.445999 0.047245 -0.011764 89333.100000 0 1 0
-3.712077 -20.569605 3.916847 21.265697 1.392254 1.385553 0.027269 0.008531 537586.000000 0 1 0
-2.780977 -20.515005 5.006347 21.299361 1.436059 1.333530 0.031015 0.006704 457707.000000 0 1 0
-1.834477 -21.704305 5.297747 22.416696 1.486475 1.332209 0.040952 -0.011293 28576.700000 0 1 0
-1.019477 -22.037605 4.212747 22.459800 1.524568 1.382110 0.060966 -0.011185 -270658.000000 0 1 0
-0.294277 -23.215305 4.534847 23.655904 1.558121 1.377902 0.064601 -0.016048 -791474.000000 0 1 0
0.650623 -23.615905 3.360847 23.862723 -1.543253 1.429486 0.072551 -0.027960 398665.000000 0 1 0
1.751023 -22.756905 3.129247 23.037686 -1.494003 1.434543 0.038703 -0.019437 588857.000000 0 1 0
2.784023 -22.872505 4.109647 23.404945 -1.449673 1.394292 0.059228 -0.027516 -325364.000000 0 1 0
3.889823 -21.783205 4.235047 22.529411 -1.394089 1.381693 0.057068 -0.022175 541729.000000 0 1 0
4.763523 -21.840905 3.126247 22.571878 -1.356058 1.431848 0.041008 -0.007908 148092.000000 0 1 0
6.098223 -21.460105 3.430847 22.571999 -1.293929 1.418209 0.056681 -0.000314 772436.000000 0 1 0
6.953323 -20.973305 2.234947 22.208629 -1.250668 1.469992 0.065983 0.001556 3641.830000 0 1 0
7.547423 -21.995805 1.463247 23.300646 -1.240255 1.507956 0.061585 0.006392 -136808.000000 0 1 0
7.225723 -21.811805 0.093747 22.977700 -1.250899 1.566716 0.058066 -0.008353 -301875.000000 0 1 0
8.139223 -22.513105 -0.881853 23.955469 -1.223885 1.607617 0.054706 -0.002502 -261475.000000 0 1 0
9.395823 -21.891205 -1.026053 23.844478 -1.165369 1.613841 0.057739 0.005687 -868857.000000 0 1 0
10.308523 -22.785205 -1.567153 25.057677 -1.145930 1.633379 0.067145 0.000837 -197820.000000 0 0 1
11.644823 -22.105405 -1.939853 25.060204 -1.085950 1.648282 0.080446 -0.001681 25427.300000 0 0 1
11.595123 -21.104605 -2.943553 24.259343 -1.068405 1.692433 0.079293 0.002340 -1001470.000000 0 1 0
12.879223 -20.787705 -3.327053 24.679391 -1.016119 1.706019 0.085267 -0.010492 -766582.000000 0 1 0
12.824223 -19.562305 -4.285753 23.780499 -0.990524 1.752008 0.076142 -0.023255 72446.900000 0 1 0
12.833523 -18.314005 -3.657853 22.660140 -0.959568 1.732928 0.083422 -0.020328 113712.000000 0 1 0
13.024923 -17.254705 -4.556653 22.093812 -0.924191 1.778528 0.085946 -0.028407 -1203490.000000 0 1 0
13.622323 -15.975605 -3.910953 21.356104 -0.864740 1.754966 0.102176 -0.025139 1019800.000000 0 1 0
15.000823 -16.068605 -3.525053 22.263215 -0.819752 1.729801 0.094086 -0.020134 452419.000000 0 1 0
15.892323 -16.196805 -4.572453 23.147564 -0.794887 1.769639 0.088141 -0.019436 -1499550.000000 0 1 0
17.340323 -15.746205 -4.299753 23.814232 -0.737255 1.752346 0.097293 -0.012644 8152.090000 0 1 0
18.002523 -16.435705 -3.284953 24.597035 -0.739933 1.704747 0.099534 -0.026438 48154.600000 0 1 0
19.387123 -16.177605 -3.347353 25.471164 -0.695398 1.702595 0.073788 -0.009197 -205868.000000 0 0 1
20.218423 -16.873905 -2.267953 26.432119 -0.695474 1.656705 0.072766 -0.025659 1142880.000000 0 0 1
21.647123 -16.700005 -2.493753 27.453723 -0.657098 1.661756 0.062607 -0.016203 1243420.000000 0 0 1
22.303923 -17.344505 -1.432353 28.290430 -0.660960 1.621448 0.059216 -0.010772 -206648.000000 0 0 1
23.841323 -17.273605 -1.517253 29.480301 -0.626996 1.622286 0.083453 -0.014526 42821.800000 0 0 1
24.420723 -16.017905 -1.179553 29.229032 -0.580522 1.611163 0.071164 -0.018412 -753613.000000 0 0 1
25.785323 -16.093805 -0.980253 30.411418 -0.557985 1.603035 0.120415 -0.014159 -690877.000000 0 0 1
26.357823 -14.761705 -0.539253 30.214790 -0.510527 1.588645 0.108717 -0.014761 368698.000000 0 0 1
25.675623 -14.462505 0.693347 29.476811 -0.512980 1.547272 0.080538 -0.006687 1086940.000000 0 0 1
26.394823 -13.327505 1.238747 29.594654 -0.467583 1.528927 0.078713 0.000867 889570.000000 0 0 1
25.583123 -12.683305 2.415747 28.656556 -0.460257 1.486396 0.083676 -0.008333 189883.000000 0 0 1
25.175523 -13.528805 3.525747 28.796986 -0.493102 1.448054 0.102528 -0.000699 65797.800000 0 0 1
26.219923 -14.133205 4.258747 30.089346 -0.494378 1.428783 0.124626 0.007859 -69602.300000 0 0 1
25.802923 -14.769205 5.631847 30.259510 -0.519867 1.383586 0.115801 0.006641 417539.000000 0 0 1
25.077823 -16.010305 5.512747 30.259171 -0.568195 1.387589 0.123829 -0.007359 122673.000000 0 0 1
24.450123 -16.341405 6.698947 30.161663 -0.589172 1.346827 0.108060 -0.003907 -145166.000000 0 0 1
23.725223 -17.709705 6.757247 30.367421 -0.641226 1.346402 0.103866 -0.000852 -454241.000000 0 0 1
24.651723 -18.750405 6.675747 31.683603 -0.650258 1.358505 0.108147 -0.007908 -566263.000000 0 0 1
24.212823 -20.063105 6.638147 32.138045 -0.691947 1.362748 0.065311 -0.002410 -347813.000000 0 0 1
1.871523 23.517742 -3.257653 23.815942 1.491384 1.708011 0.043353 -0.016667 478050.000000 0 1 0
2.740223 24.621942 -2.880853 24.940893 1.459961 1.686562 0.051711 -0.020690 304252.000000 0 1 0
3.690723 24.820842 -3.895653 25.394325 1.423183 1.724811 0.063504 -0.022701 306915.000000 0 0 1
4.783423 25.910142 -3.613553 26.594630 1.388236 1.707093 0.050453 -0.014210 1094640.000000 0 0 1
5.798123 25.476642 -2.681953 26.265384 1.347022 1.673084 0.046713 -0.020552 195249.000000 0 0 1
6.497523 26.481942 -1.994853 27.340272 1.330193 1.643825 0.046690 -0.018829 -445779.000000 0 0 1
7.556223 25.826542 -1.098053 26.931626 1.286165 1.611579 0.038315 -0.032319 -150871.000000 0 0 1
8.663423 25.548742 -1.943453 27.047553 1.243870 1.642711 0.038715 -0.034860 -466043.000000 0 0 1
9.642023 24.752142 -1.339953 26.597605 1.199337 1.621196 0.028835 -0.020178 132962.000000 0 0 1
10.821923 24.387742 -2.277153 26.778002 1.153157 1.655937 0.050143 -0.015119 -938086.000000 0 0 1
11.781323 25.405742 -2.416053 28.108515 1.136586 1.656857 0.053913 -0.013985 -219621.000000 0 0 1
12.678923 25.221342 -3.488953 28.443698 1.104986 1.693768 0.069878 -0.013352 420804.000000 0 0 1
13.643123 23.995142 -3.510453 27.824897 1.053801 1.697296 0.065355 -0.007663 -659683.000000 0 0 1
12.946223 22.782942 -3.690053 26.462872 1.054056 1.710695 0.064750 -0.009826 -189541.000000 0 0 1
12.776823 22.299442 -5.076153 26.196940 1.050492 1.765799 0.092430 -0.019699 -252840.000000 0 0 1
11.823723 21.127842 -5.227853 24.769267 1.060592 1.783458 0.092302 -0.021750 -22556.900000 0 1 0
10.474023 21.468642 -4.966353 24.398205 1.116895 1.775783 0.077490 -0.018671 174595.000000 0 1 0
9.661023 20.272842 -4.969153 23.000347 1.126084 1.788560 0.053466 -0.014799 -28798.300000 0 1 0
8.163923 20.567342 -4.890453 22.662341 1.192934 1.788304 0.038446 -0.012455 -448742.000000 0 1 0
7.845923 21.161842 -3.662153 22.864676 1.215750 1.731656 0.033610 -0.012720 541204.000000 0 1 0
6.486323 21.614642 -3.729053 22.872931 1.279258 1.734561 0.037018 -0.002773 925898.000000 0 1 0
5.919523 22.229542 -2.411953 23.130301 1.310545 1.675263 0.037330 -0.014538 143350.000000 0 1 0
5.589523 21.375942 -1.364753 22.136762 1.315036 1.632486 0.033169 -0.017914 -58805.100000 0 1 0
4.929523 22.084442 -0.323553 22.630233 1.351184 1.585094 0.051741 -0.016752 469639.000000 0 1 0
4.246223 21.217042 0.793347 21.652314 1.373273 1.534148 0.035439 -0.014899 33703.500000 0 1 0
3.500223 21.937942 1.758547 22.284913 1.412579 1.491802 0.041162 -0.014514 214675.000000 0 1 0
3.187023 21.020242 2.777747 21.441165 1.420325 1.440879 0.041019 -0.015491 -204078.000000 0 1 0
2.188623 21.536342 3.825147 21.982626 1.469519 1.395898 0.040239 -0.022474 353795.000000 0 1 0
0.843223 21.559142 3.366547 21.836696 1.531704 1.416010 0.036482 -0.024979 -479255.000000 0 1 0
-0.058077 21.961642 4.307247 22.380113 -1.568152 1.377129 0.041624 -0.032036 -296066.000000 0 1 0
-1.493477 22.110242 3.765147 22.478203 -1.503352 1.402501 0.034632 -0.029620 -167813.000000 0 1 0
-2.467677 22.417542 4.740047 23.045687 -1.461160 1.363637 0.054798 -0.037330 -610052.000000 0 1 0
-3.592377 22.824942 3.987047 23.447382 -1.414689 1.399924 0.071246 -0.030894 731163.000000 0 1 0
-4.920977 22.859142 4.859447 23.882433 -1.358758 1.365892 0.097891 -0.052404 617127.000000 0 1 0
-5.048677 24.021842 5.650647 25.188645 -1.363641 1.344538 0.126538 -0.039389 -224489.000000 0 0 1
-6.323977 24.098442 6.242447 25.684543 -1.314160 1.325295 0.144034 -0.043781 -10633.600000 0 0 1
-6.760277 25.464942 6.758147 27.199948 -1.311308 1.319704 0.158733 -0.047910 -194985.000000 0 0 1
-5.925377 25.958242 7.774847 27.737856 -1.346376 1.286692 0.134392 -0.053877 -203237.000000 0 0 1
-6.340677 27.152842 8.491847 29.147770 -1.341389 1.275171 0.156194 -0.043150 -8088.440000 0 0 1
-6.665377 28.487242 7.691447 30.250762 -1.340953 1.313718 0.176302 -0.047267 949725.000000 0 0 1
-7.919377 28.417142 6.990547 30.316963 -1.299009 1.338121 0.165816 -0.055850 240881.000000 0 0 1
-8.160277 29.504642 6.146047 31.223195 -1.300965 1.372660 0.186545 -0.057352 -614350.000000 0 0 1
-9.570477 29.570442 5.552747 31.572743 -1.257786 1.394005 0.186468 -0.056282 45286.600000 0 0 1
-10.569377 30.129842 6.363447 32.557834 -1.233414 1.374079 0.170327 -0.044927 -369493.000000 0 0 1
-11.173277 29.297742 7.300247 32.194618 -1.206453 1.342053 0.136148 -0.037093 -121434.000000 0 0 1
-12.140577 30.043142 8.284647 33.445768 -1.186756 1.320487 0.089624 -0.033756 534454.000000 0 0 1
-11.394177 30.561242 9.390447 33.941086 -1.213929 1.290470 0.105878 -0.036457 285596.000000 0 0 1
-12.231277 30.888442 10.479647 34.835657 -1.193758 1.265232 0.097904 -0.026742 104914.000000 0 0 1
-11.409177 31.140042 11.793647 35.198887 -1.219602 1.229130 0.087922 -0.039232 29313.600000 0 0 1
-10.846677 32.434442 11.718347 36.151945 -1.248069 1.240692 0.093751 -0.037904 214164.000000 0 0 1
-10.002077 32.695242 12.839147 36.522104 -1.273919 1.211576 0.082795 -0.043453 386752.000000 0 0 1
-9.589677 -33.488805 12.936847 37.159440 1.291905 1.215205 0.090550 -0.043151 293421.000000 0 0 1
-10.667577 -32.723305 13.459947 36.956489 1.255666 1.198011 0.084776 -0.034490 291792.000000 0 0 1
-10.374377 -31.317105 13.431747 35.620227 1.250905 1.184153 0.084436 -0.028858 575659.000000 0 0 1
-11.528977 -30.496105 14.112147 35.525799 1.209357 1.162293 0.064456 -0.034912 242172.000000 0 0 1
-11.704977 -30.680505 15.517147 36.319165 1.206329 1.129354 0.055293 -0.040334 743418.000000 0 0 1
-10.658977 -30.084805 16.330347 35.852329 1.230298 1.097875 0.072758 -0.045189 474466.000000 0 0 1
-10.900677 -30.336405 17.806647 36.826606 1.225837 1.066117 0.080678 -0.051253 -81692.800000 0 0 1
-11.833377 -29.471305 18.425047 36.716059 1.188979 1.045089 0.081565 -0.050406 185887.000000 0 0 1
-12.440977 -30.112805 19.498747 37.970516 1.179009 1.031510 0.088985 -0.054098 -183734.000000 0 0 1
-12.709077 -29.223505 20.757347 38.031584 1.160577 0.993462 0.116028 -0.056353 -355776.000000 0 0 1
-11.512477 -29.043805 21.442347 37.892664 1.193412 0.969307 0.105591 -0.056446 -137619.000000 0 0 1
-11.655977 -27.991905 22.399847 37.698298 1.176228 0.934542 0.119002 -0.056892 182553.000000 0 0 1
-10.306577 -27.711305 23.097947 37.518757 1.214723 0.907602 0.133196 -0.051462 251952.000000 0 0 1
-9.979077 -28.820405 23.929947 38.766482 1.237466 0.905510 0.113354 -0.036077 -480898.000000 0 0 1
-8.643277 -28.898905 24.336447 38.757136 1.280178 0.891916 0.135956 -0.029507 -278936.000000 0 0 1
-8.522877 -29.892205 25.499947 40.204859 1.293046 0.883758 0.128474 -0.032593 7010.030000 0 0 1
-8.649477 -31.238405 25.124747 41.011027 1.300678 0.911407 0.125819 -0.017071 183757.000000 0 0 1
-8.687977 -32.079205 26.235247 42.341995 1.306312 0.902559 0.136217 -0.018143 -117879.000000 0 0 1
-8.864277 -33.604205 25.793947 43.279853 1.312886 0.932310 0.119709 -0.018254 44463.900000 0 0 1
-7.607777 33.551442 25.347847 42.732785 -1.347817 0.935804 0.102881 -0.017273 706799.000000 0 0 1
-7.653977 32.246142 24.771647 41.376703 -1.337748 0.928937 0.064103 -0.009906 126531.000000 0 0 1
-8.493177 32.009542 23.461947 40.585808 -1.311440 0.954419 0.070170 -0.018219 548400.000000 0 0 1
-9.205277 30.755042 23.430147 39.743950 -1.279973 0.940323 0.085269 -0.018702 303681.000000 0 0 1
-9.753077 30.511142 22.159147 38.949713 -1.261405 0.965608 0.065890 -0.028796 -267899.000000 0 0 1
-10.345077 29.103742 22.084647 37.970779 -1.229270 0.950075 0.065252 -0.028463 -314030.000000 0 0 1
-9.420477 28.028742 21.999147 36.855369 -1.246557 0.931159 0.053603 -0.020474 -160923.000000 0 0 1
-9.919477 26.727642 22.315147 36.203987 -1.215421 0.906668 0.049596 -0.019431 -529941.000000 0 0 1
-8.882877 25.612842 22.238247 35.063697 -1.236963 0.883792 0.065814 -0.022983 -255037.000000 0 0 1
-7.757977 25.630942 23.074047 35.348876 -1.276883 0.859585 0.040538 -0.028760 -26526.800000 0 0 1
-6.946377 24.477142 22.846847 34.195922 -1.294276 0.839122 0.038318 -0.025812 249273.000000 0 0 1
-5.571777 24.671942 23.539647 34.552343 -1.348688 0.821293 0.039528 -0.028478 -207785.000000 0 0 1
-4.671877 25.360642 22.717647 34.366846 -1.388621 0.848601 0.062957 -0.019656 -1080150.000000 0 0 1
-3.428977 25.446842 23.339847 34.699397 -1.436853 0.833039 0.069904 -0.025881 -614661.000000 0 0 1
-2.394677 25.729042 22.228047 34.085249 -1.477991 0.860404 0.080915 -0.016854 -332379.000000 0 0 1
-2.310077 24.660042 21.332047 32.688077 -1.477392 0.859793 0.066072 -0.014796 -162341.000000 0 0 1
-1.469777 25.018742 20.278147 32.238191 -1.512117 0.890517 0.070139 -0.013452 -260643.000000 0 0 1
-1.098877 23.971742 19.198647 30.731743 -1.524988 0.896027 0.056859 -0.018379 -73412.600000 0 0 1
-0.074977 23.094342 19.649547 30.322582 -1.567550 0.865818 0.063113 -0.018089 -149912.000000 0 0 1
0.286623 22.169442 18.648847 28.971466 1.557868 0.871477 0.054888 -0.013038 -149813.000000 0 0 1
1.562223 21.417642 19.041747 28.700942 1.497984 0.845371 0.054113 -0.015337 -402894.000000 0 0 1
2.758723 22.147742 18.956347 29.282693 1.446875 0.866685 0.055113 -0.024827 496.873000 0 0 1
3.850723 21.205042 19.078247 28.783005 1.391159 0.846204 0.056583 -0.015993 274355.000000 0 0 1
5.211123 21.921742 19.024247 29.489669 1.337413 0.869622 0.056975 -0.017629 -113121.000000 0 0 1
6.250023 20.962742 18.940747 28.935294 1.281038 0.857156 0.071077 -0.018419 -930395.000000 0 0 1
7.469823 21.562242 18.703047 29.504788 1.237305 0.884213 0.100605 -0.023614 -80205.100000 0 0 1
8.605623 20.492942 18.367847 28.833925 1.173227 0.880167 0.097658 -0.014754 649166.000000 0 0 1
9.039523 19.694442 19.472347 29.133423 1.140493 0.838761 0.094664 -0.020569 295173.000000 0 0 1
10.007623 18.713842 19.107747 28.556372 1.079720 0.837767 0.082482 -0.017721 171750.000000 0 0 1
10.555123 17.854842 20.237047 28.978338 1.036900 0.797705 0.089749 -0.016073 90346.200000 0 0 1
9.655523 16.897842 20.799347 28.484716 1.051667 0.752192 0.084661 -0.017941 186890.000000 0 0 1
10.287523 16.183742 21.853447 29.074384 1.004561 0.720252 0.081867 -0.019110 -57669.700000 0 0 1
9.379823 15.085742 22.444047 28.623346 1.014525 0.669525 0.072464 -0.012397 14396.900000 0 0 1
8.297923 15.627242 23.190647 29.169716 1.082664 0.651748 0.078949 -0.006643 699952.000000 0 0 1
7.267923 14.627242 23.411647 28.546176 1.109651 0.609154 0.063365 -0.005776 854694.000000 0 0 1
7.660823 13.606742 24.581447 29.121799 1.058014 0.565929 0.076936 -0.013174 -565064.000000 0 0 1
7.627623 14.153542 25.860647 30.451214 1.076500 0.556236 0.083834 -0.021110 48828.400000 0 0 1
7.991323 13.224242 26.885447 31.009178 1.027226 0.521615 0.098781 -0.024463 -329414.000000 0 0 1
8.917923 13.939842 27.921847 32.457327 1.001665 0.535010 0.069969 -0.019863 400233.000000 0 0 1
10.283023 14.081942 27.569747 32.621046 0.940070 0.563947 0.103450 -0.018525 346695.000000 0 0 1
10.558423 15.079542 26.607847 32.355068 0.959948 0.605232 0.081425 -0.015593 -442664.000000 0 0 1
11.863323 14.855442 25.783247 32.034332 0.896919 0.635352 0.099031 -0.020969 134339.000000 0 0 1
11.815923 13.870542 24.760147 30.742037 0.865217 0.634418 0.093244 -0.028945 127680.000000 0 0 1
13.082123 13.319342 24.430247 30.747094 0.794383 0.652523 0.117582 -0.034650 -303461.000000 0 0 1
13.024223 12.102942 23.475447 29.448399 0.748750 0.648199 0.095463 -0.037841 39162.900000 0 0 1
12.622623 10.822342 23.951947 29.157323 0.708761 0.606807 0.105291 -0.027496 1257910.000000 0 0 1
11.238923 10.685542 24.361347 28.878529 0.760163 0.566881 0.103968 -0.028233 910732.000000 0 0 1
10.935923 9.227042 24.709647 28.553448 0.700847 0.524884 0.105019 -0.022348 -133653.000000 0 0 1
11.034323 8.321942 23.608547 27.356434 0.646175 0.529622 0.112359 -0.014407 145052.000000 0 0 1
10.831023 6.991942 23.898347 27.153808 0.573239 0.494702 0.114711 -0.017912 -61886.900000 0 0 1
11.411223 5.966442 22.883047 26.257347 0.481766 0.512561 0.128687 -0.034557 -1043080.000000 0 0 1
12.798223 5.986742 22.827247 26.846207 0.437540 0.554247 0.141939 -0.030843 -415804.000000 0 0 1
13.407523 4.957542 22.026047 26.258059 0.354167 0.575666 0.158701 -0.040334 200682.000000 0 0 1
13.125623 3.522442 22.488647 26.276012 0.262186 0.543581 0.136087 -0.043037 -753937.000000 0 0 1
13.763623 3.210442 23.675247 27.572841 0.229158 0.538179 0.152737 -0.037657 64372.000000 0 0 1
13.213423 2.010342 24.216447 27.659941 0.150986 0.504314 0.148278 -0.030633 -426016.000000 0 0 1
14.238923 1.396742 25.192947 28.972097 0.097780 0.516488 0.108524 -0.017687 -456278.000000 0 0 1
15.199423 0.666142 24.530547 28.865446 0.043799 0.555145 0.133501 -0.026528 -408861.000000 0 0 1
16.404223 1.370542 24.288947 29.341607 0.083355 0.595624 0.119787 -0.035963 -474630.000000 0 0 1
17.324223 0.627642 23.297047 29.039198 0.036213 0.639721 0.110128 -0.035211 -521313.000000 0 0 1
17.724823 -0.636658 23.832747 29.708156 -0.035904 0.639777 0.105609 -0.034665 -112609.000000 0 0 1
18.519623 -1.160458 22.814647 29.408013 -0.062579 0.682819 0.121986 -0.021959 -335384.000000 0 0 1
19.072323 -2.593558 23.008947 29.998195 -0.135156 0.696627 0.102713 -0.017840 -268417.000000 0 0 1
18.076423 -3.582658 22.880047 29.378378 -0.195659 0.678037 0.093425 -0.004433 -266379.000000 0 0 1
18.530823 -4.872858 22.831447 29.806226 -0.257138 0.698207 0.098017 -0.007023 -11717.800000 0 0 1
17.526923 -5.957358 22.298347 28.981018 -0.327647 0.692876 0.102724 -0.011115 234665.000000 0 0 1
17.312523 -6.071658 20.893947 27.805494 -0.337306 0.720566 0.109937 -0.013206 566355.000000 0 0 1
16.435123 -7.180558 20.551447 27.277017 -0.411909 0.717526 0.137884 -0.022461 338911.000000 0 0 1
17.017223 -8.606258 20.710847 28.153024 -0.468228 0.744167 0.139464 -0.029694 -79142.700000 0 0 1
16.873123 -9.129258 22.012647 29.199354 -0.495948 0.716857 0.131934 -0.022758 -285962.000000 0 0 1
17.725823 -10.185258 22.287347 30.243514 -0.521534 0.742279 0.114163 -0.028082 -322859.000000 0 0 1
17.175823 -11.121258 23.425547 31.103819 -0.574612 0.717973 0.127395 -0.028912 343502.000000 0 0 1
16.213723 -12.088958 23.015847 30.639141 -0.640679 0.720932 0.152067 -0.039453 214689.000000 0 0 1
15.860623 -13.023458 24.018547 31.592094 -0.687486 0.707066 0.160822 -0.029595 -13644.100000 0 0 1
14.728623 -13.916258 23.474847 31.010692 -0.757046 0.712099 0.185728 -0.041171 123288.000000 0 0 1
15.151623 -14.700058 22.326747 30.726976 -0.770272 0.757411 0.189355 -0.041036 909642.000000 0 0 1
14.065023 -15.522558 21.903047 30.307064 -0.834620 0.763089 0.185078 -0.030365 462965.000000 0 0 1
14.592323 -16.424658 20.748647 30.219392 -0.844405 0.813994 0.164554 -0.038632 -191858.000000 0 0 1
15.486123 -17.402958 21.126247 31.448391 -0.843614 0.834194 0.185110 -0.043627 -312133.000000 0 0 1
15.872423 -18.255258 20.057947 31.424664 -0.855106 0.878526 0.167166 -0.037112 -55442.600000 0 0 1
-24.588177 -31.891305 25.621405 47.729343 0.913990 1.004149 0.067331 -0.037490 -377980.000000 0 0 1
-25.102117 -33.203105 25.776145 48.958882 0.923455 1.016335 0.069172 -0.025568 905110.000000 0 0 1
-26.437067 -33.176305 26.314985 49.920579 0.897969 1.015568 0.063392 -0.039725 654255.000000 0 0 1
-26.511417 -33.402505 27.830345 50.922595 0.899911 0.992590 0.058699 -0.032347 -89861.000000 0 0 1
-27.817377 -33.132805 28.296845 51.694300 0.872387 0.991556 0.079806 -0.030965 560645.000000 0 0 1
-27.690727 -33.444505 29.661615 52.584434 0.879237 0.971483 0.045222 -0.023033 -124567.000000 0 0 1
-28.727917 -32.666205 30.455665 53.102935 0.849458 0.959998 0.038070 -0.022767 -379479.000000 0 0 1
-28.538487 -31.276205 30.451525 52.153060 0.831136 0.947287 0.029646 -0.019287 535303.000000 0 0 1
-29.582147 -30.697705 31.234475 52.849266 0.803902 0.938485 0.024296 0.000292 251306.000000 0 0 1
-29.749437 -29.198405 30.868055 51.869188 0.776051 0.933389 0.019801 -0.006901 -3675.250000 0 0 1
-30.248277 -28.962105 29.582385 51.272598 0.763680 0.955791 0.030664 -0.001074 160855.000000 0 0 1
-30.891067 -27.698105 29.356195 50.825478 0.730955 0.955025 0.048073 0.000777 137947.000000 0 0 1
-31.311497 -27.586805 27.851165 50.170998 0.722243 0.982283 0.042370 -0.015940 533554.000000 0 0 1
-30.262437 -27.418205 26.859895 48.877674 0.736128 0.988991 0.039516 -0.017278 761035.000000 0 0 1
-29.626367 -26.147905 26.790305 47.740497 0.723112 0.975003 0.046988 -0.008440 -110108.000000 0 0 1
-28.719877 -26.066205 25.558895 46.449279 0.736999 0.988128 0.024129 -0.003771 -109165.000000 0 0 1
-29.437897 -26.141805 24.321045 46.276311 0.726164 1.017421 0.033028 -0.013278 384187.000000 0 0 1
-28.589387 -25.942205 23.192925 45.036239 0.736892 1.029808 0.021463 0.008415 -542319.000000 0 0 1
-29.176947 -26.158505 21.790785 44.837484 0.730904 1.063295 0.033599 0.005591 -740461.000000 0 0 1
-30.155337 -25.277205 21.404285 44.793134 0.697623 1.072594 0.039456 -0.006363 -453195.000000 0 0 1
-30.727217 -25.641605 20.162485 44.812717 0.695421 1.104112 0.035407 0.007098 -198144.000000 0 0 1
-31.405517 -24.481105 19.459985 44.320673 0.662125 1.116230 0.051705 0.002338 167594.000000 0 0 1
-32.675567 -24.109605 19.994685 45.263155 0.635678 1.113256 0.085477 -0.008036 400003.000000 0 0 1
-33.197167 -22.947305 19.349985 44.755476 0.604824 1.123700 0.087678 -0.005555 480955.000000 0 0 1
-34.688314 -22.667505 19.723485 45.892383 0.578805 1.126551 0.097654 -0.003146 297365.000000 0 0 1
-35.613801 -23.593805 19.259185 46.860716 0.585106 1.147259 0.089394 -0.010201 711556.000000 0 0 1
-36.909497 -23.073205 18.939885 47.470022 0.558692 1.160385 0.082136 -0.018119 1025090.000000 0 0 1
37.274244 -23.916705 18.065185 47.830209 -0.570477 1.183492 0.087329 -0.019910 52736.000000 0 0 1
36.792374 -25.090005 18.660085 48.284427 -0.598499 1.174004 0.082138 -0.017765 -365392.000000 0 0 1
36.139414 -25.857705 17.697185 47.831668 -0.621052 1.191799 0.080496 -0.008937 -311336.000000 0 0 1
35.639534 -27.203105 18.250985 48.407476 -0.651949 1.184211 0.080951 0.002088 70206.400000 0 0 1
34.483404 -27.181805 19.060685 47.867164 -0.667540 1.161243 0.065811 -0.003540 -69516.900000 0 0 1
34.672704 -26.476705 20.297985 48.116738 -0.652160 1.135313 0.077908 -0.002684 -275458.000000 0 0 1
33.504124 -26.712705 21.290885 47.847641 -0.673090 1.109653 0.063785 -0.002857 -149017.000000 0 0 1
32.276634 -26.246205 20.824485 46.522076 -0.682717 1.106688 0.061373 -0.000671 -1051870.000000 0 0 1
31.426824 -25.935805 21.903985 46.261169 -0.689964 1.077553 0.052374 0.003173 162874.000000 0 0 1
30.415964 -24.813405 21.405785 44.710665 -0.684302 1.071552 0.045460 0.008093 103431.000000 0 0 1
30.922224 -23.592005 20.856685 44.133524 -0.651736 1.078579 0.027757 0.007332 -303186.000000 0 0 1
31.712784 -22.849305 21.726185 44.719330 -0.624357 1.063479 0.055022 -0.006920 -157968.000000 0 0 1
32.613364 -21.807605 21.063985 44.529705 -0.589389 1.078067 0.053954 -0.005072 563818.000000 0 0 1
31.888554 -20.547505 21.032185 43.375484 -0.572396 1.064563 0.035780 -0.015596 622541.000000 0 0 1
32.761884 -19.529005 20.599085 43.347957 -0.537539 1.075601 0.047723 -0.011528 -373413.000000 0 0 1
32.108414 -18.119205 20.623285 42.244239 -0.513766 1.060780 0.029224 -0.002974 99813.500000 0 0 1
31.940054 -17.600705 21.928785 42.553772 -0.503652 1.029416 0.042305 -0.014503 524524.000000 0 0 1
30.784104 -18.131305 22.581985 42.265250 -0.532279 1.007126 0.051336 -0.016777 -23274.900000 0 0 1
30.747614 -17.712005 24.014675 42.846651 -0.522619 0.975831 0.056758 -0.011651 -29686.300000 0 0 1
30.517644 -16.353705 24.283205 42.290002 -0.491936 0.959161 0.066075 -0.017156 109959.000000 0 0 1
30.463494 -16.208105 25.703085 43.027616 -0.488958 0.930588 0.070129 -0.022175 -125803.000000 0 0 1
30.160624 -14.782905 26.119735 42.549243 -0.455728 0.909842 0.070279 -0.026804 -720249.000000 0 0 1
28.873764 -14.364505 25.814555 41.308891 -0.461640 0.895773 0.081994 -0.030083 -559897.000000 0 0 1
28.675064 -12.996305 26.266695 41.001250 -0.425534 0.875476 0.072317 -0.029847 -307978.000000 0 0 1
29.433764 -11.924105 25.524725 40.743617 -0.384909 0.893778 0.083194 -0.036522 -431856.000000 0 0 1
28.900664 -11.529505 24.253845 39.451576 -0.379588 0.908696 0.075006 -0.029104 102282.000000 0 0 1
29.858064 -10.829705 23.503485 39.512027 -0.347949 0.933725 0.073428 -0.025240 -202446.000000 0 0 1
30.848004 -11.694905 22.712535 40.052833 -0.362372 0.967859 0.070738 -0.030912 -514045.000000 0 0 1
30.234994 -12.427405 21.674885 39.222390 -0.389976 0.985298 0.058511 -0.028593 154372.000000 0 0 1
30.121064 -13.795005 22.009585 39.774395 -0.429475 0.984403 0.063514 -0.029383 -197922.000000 0 0 1
29.446864 -14.602405 20.906685 38.954300 -0.460354 1.004278 0.049269 -0.025276 -693135.000000 0 0 1
30.263134 -14.797505 19.810085 39.080211 -0.454778 1.039202 0.053076 -0.026051 -629891.000000 0 0 1
29.549064 -15.414005 18.813685 38.271314 -0.480810 1.056885 0.049950 -0.032017 -646497.000000 0 0 1
30.106264 -15.204605 17.375985 37.940638 -0.467665 1.095077 0.073573 -0.038007 108596.000000 0 0 1
29.568764 -16.163805 16.405985 37.479818 -0.500269 1.117726 0.066734 -0.042245 1818520.000000 0 0 1
28.124464 -15.992105 16.228585 36.195302 -0.517026 1.105865 0.082932 -0.041085 953866.000000 0 0 1
27.719664 -15.068005 15.030385 34.947632 -0.497905 1.126212 0.104710 -0.041266 -331298.000000 0 0 1
27.751464 -15.565705 13.669685 34.630842 -0.511171 1.165027 0.113562 -0.045845 35260.900000 0 0 1
26.843364 -16.617405 13.460485 34.320387 -0.554310 1.167773 0.116180 -0.047355 -321612.000000 0 0 1
26.894964 -17.236905 12.026985 34.133537 -0.569949 1.210714 0.094252 -0.025235 -297865.000000 0 0 1
26.514864 -16.352105 10.956885 33.022457 -0.552619 1.232584 0.125746 -0.026050 -12047.800000 0 0 1
26.472564 -16.986405 9.678085 32.908964 -0.570490 1.272297 0.101716 -0.022803 49142.700000 0 0 1
27.823364 -17.414905 9.060985 34.051724 -0.559253 1.301457 0.099703 -0.014636 95834.900000 0 0 1
28.458264 -18.465205 9.706285 35.285245 -0.575568 1.292123 0.086677 -0.009148 235798.000000 0 0 1
29.852964 -18.605505 9.402685 36.411190 -0.557331 1.309600 0.095943 -0.012709 568231.000000 0 0 1
30.524404 -19.478705 10.453885 37.688763 -0.567989 1.289736 0.090325 -0.034124 -266450.000000 0 0 1
30.628634 -18.736805 11.655385 37.749557 -0.549008 1.256912 0.079258 -0.042532 -9921.430000 0 0 1
31.005474 -19.604205 12.673285 38.810777 -0.563819 1.238155 0.058736 -0.034668 -198969.000000 0 0 1
30.714784 -19.107705 14.119985 38.831383 -0.556512 1.198642 0.062612 -0.026416 -11809.100000 0 0 1
31.142304 -19.943505 15.177885 39.974425 -0.569596 1.181335 0.057489 -0.022214 -40699.000000 0 0 1
30.897344 -19.362105 16.432085 39.994379 -0.559792 1.147399 0.062960 -0.032155 66142.800000 0 0 1
30.682984 -20.469105 17.491885 40.821511 -0.588314 1.127968 0.054808 -0.019757 -225148.000000 0 0 1
29.400364 -21.027305 17.415685 40.122750 -0.620858 1.121802 0.003004 -0.003598 -265929.000000 0 0 1
29.338864 -22.192405 18.213685 41.048874 -0.647595 1.111065 0.019755 -0.008780 -222804.000000 0 0 1
27.977864 -22.897905 18.040285 40.404539 -0.685878 1.107956 0.025231 0.001910 -164442.000000 0 0 1
26.963864 -22.059405 18.547485 39.467411 -0.685686 1.081569 0.038551 0.000566 -672434.000000 0 0 1
25.737664 -22.700105 18.334585 38.908599 -0.722770 1.080121 0.051339 -0.011921 333349.000000 0 0 1
24.474364 -22.049605 19.018185 38.037757 -0.733327 1.047219 0.059821 -0.010150 299040.000000 0 0 1
24.186764 -20.723305 18.632785 36.900347 -0.708431 1.041474 0.058331 -0.013896 968445.000000 0 0 1
22.824364 -20.318705 18.907885 35.934795 -0.727385 1.016704 0.068930 -0.003881 1228840.000000 0 0 1
22.585064 -19.942205 20.391685 36.381279 -0.723333 0.975808 0.064066 -0.006103 -276278.000000 0 0 1
22.643164 -21.070105 21.196685 37.496155 -0.749428 0.969996 0.065082 -0.012086 60196.600000 0 0 1
23.260664 -20.737205 22.474585 38.421311 -0.728107 0.945977 0.062478 -0.009904 304383.000000 0 0 1
23.505264 -21.917905 23.471805 39.797206 -0.750466 0.940003 0.057558 -0.011881 -277827.000000 0 0 1
22.375964 -22.490205 24.081655 39.829878 -0.787944 0.921517 0.079344 -0.016327 -23281.800000 0 0 1
22.817764 -23.435905 25.045335 41.196612 -0.798762 0.917325 0.081965 -0.013343 545394.000000 0 0 1
21.647364 -24.285505 25.690775 41.453710 -0.842770 0.902377 0.099881 -0.019640 571294.000000 0 0 1
21.095864 -25.291205 24.875865 41.273347 -0.875595 0.923903 0.097759 -0.022066 1057930.000000 0 0 1
19.858264 -25.793005 25.442505 41.315261 -0.914675 0.907378 0.115265 -0.029253 838383.000000 0 0 1
19.213464 -26.903305 24.588835 41.201406 -0.950625 0.931294 0.128141 -0.034535 -356425.000000 0 0 1
18.468164 -26.340205 23.552465 39.869764 -0.959306 0.938827 0.129571 -0.036170 -9515.630000 0 0 1
17.867964 -27.295405 22.693385 39.740319 -0.991184 0.963022 0.123253 -0.038667 1021.970000 0 0 1
16.775164 -26.589505 21.822285 38.270354 -1.007970 0.964030 0.125543 -0.033507 309536.000000 0 0 1
15.662364 -26.133705 22.567885 37.915559 -1.030879 0.933264 0.119636 -0.037191 -159985.000000 0 0 1
14.983764 -25.119405 21.884985 36.530128 -1.032953 0.928427 0.098083 -0.024992 632825.000000 0 0 1
13.592464 -24.666505 22.458785 36.022057 -1.067148 0.897619 0.087853 -0.025393 1423150.000000 0 0 1
12.540464 -25.598505 22.144385 36.095990 -1.115269 0.910329 0.077487 -0.022818 522821.000000 0 0 1
11.229464 -25.080905 22.344785 35.418104 -1.149832 0.888102 0.066917 -0.020067 466164.000000 0 0 1
10.192564 -26.204505 22.361285 35.924804 -1.199841 0.898931 0.057629 -0.024436 -356123.000000 0 0 1
10.013264 -26.831005 21.127185 35.588288 -1.213607 0.935202 0.070663 -0.029367 -184695.000000 0 0 1
8.680964 -27.222405 20.900785 35.401431 -1.262100 0.939250 0.080979 -0.029539 -142553.000000 0 0 1
8.522364 -28.134505 19.695685 35.385040 -1.276667 0.980496 0.099600 -0.035724 -58621.400000 0 0 1
8.963864 -29.437205 20.007285 36.704105 -1.275209 0.994292 0.108647 -0.038202 56600.300000 0 0 1
8.704264 -30.387305 18.985785 36.872924 -1.291822 1.029908 0.117236 -0.039405 59205.000000 0 0 1
9.374164 -31.791105 19.162685 38.285216 -1.284055 1.046592 0.112713 -0.038986 -61146.500000 0 0 1
8.785964 -32.574805 20.202585 39.324999 -1.307349 1.031265 0.123465 -0.045257 481277.000000 0 0 1
9.497464 -33.794105 20.273285 40.537013 -1.296824 1.047061 0.120797 -0.046003 40302.800000 0 0 1
8.771364 32.860742 21.178485 40.066113 1.309952 1.013859 0.137504 -0.047641 58237.100000 0 0 1
7.873764 31.993542 20.491685 38.800671 1.329487 1.014403 0.122004 -0.046953 138286.000000 0 0 1
7.575664 30.785642 21.172185 38.123587 1.329513 0.982005 0.126907 -0.056217 -362448.000000 0 0 1
6.446764 29.968942 20.548385 36.904395 1.358910 0.980267 0.107831 -0.049925 936703.000000 0 0 1
5.121464 30.271242 21.080685 37.242084 1.403198 0.969096 0.112146 -0.048661 668354.000000 0 0 1
4.201164 29.349142 20.626685 36.117614 1.428618 0.962954 0.112088 -0.042521 -975726.000000 0 0 1
2.851264 29.437742 21.319585 36.458676 1.474240 0.946212 0.092875 -0.033886 -645269.000000 0 0 1
2.826564 28.864442 22.618785 36.779817 1.473182 0.908438 0.080227 -0.030107 -134079.000000 0 0 1
1.482164 28.702242 23.016315 36.820732 1.519203 0.895548 0.074009 -0.021643 90124.400000 0 0 1
1.271264 28.118442 24.418615 37.263007 1.525616 0.856211 0.076574 -0.019139 -168546.000000 0 0 1
1.523564 29.013742 25.472635 38.639017 1.518333 0.850980 0.092789 -0.030740 133489.000000 0 0 1
1.330564 28.461942 26.825755 39.134048 1.524081 0.815528 0.094267 -0.028606 296938.000000 0 0 1
2.570564 27.754642 27.473455 39.137178 1.478442 0.792625 0.080622 -0.028430 64211.300000 0 0 1
3.083264 26.684442 26.762195 37.918084 1.455761 0.787259 0.083511 -0.026205 537486.000000 0 0 1
3.991864 25.947742 27.614385 38.102160 1.418151 0.760131 0.068942 -0.023164 531519.000000 0 0 1
4.685064 24.772542 26.904315 36.871003 1.383881 0.752931 0.051422 -0.010673 -525076.000000 0 0 1
3.680964 23.810242 26.606825 35.894293 1.417415 0.735858 0.060210 -0.009259 46240.200000 0 0 1
4.140764 22.495342 26.368665 34.906917 1.388762 0.714533 0.060290 -0.003836 52855.500000 0 0 1
2.925264 21.553642 26.248725 34.089767 1.435900 0.691973 0.058171 -0.001583 119941.000000 0 0 1
3.192764 20.155042 26.415005 33.379215 1.413692 0.657764 0.065581 -0.004537 25949.300000 0 0 1
3.788764 19.486242 25.291855 32.151925 1.378760 0.665455 0.069674 -0.005449 -157921.000000 0 0 1
4.215764 18.053642 25.669505 31.664336 1.341394 0.625491 0.065997 -0.012895 156456.000000 0 0 1
5.392164 17.957042 26.469395 32.437011 1.279081 0.616297 0.051173 -0.012026 840948.000000 0 0 1
6.571364 17.675942 25.686645 31.865742 1.214861 0.633282 0.061201 -0.005692 298151.000000 0 0 1
7.858464 17.527342 26.560145 32.778110 1.149312 0.626130 0.047453 -0.015144 333413.000000 0 0 1
8.414464 18.718042 27.121095 34.010618 1.148327 0.647772 0.043481 -0.015774 131801.000000 0 0 1
9.008864 19.573842 26.165975 33.896212 1.139451 0.688903 0.029176 -0.023779 -536824.000000 0 0 1
9.359764 20.952842 26.795155 35.278990 1.150685 0.708219 0.019109 -0.016692 559301.000000 0 0 1
10.439664 20.762542 27.721675 36.174038 1.104901 0.697669 0.031295 -0.033958 321968.000000 0 0 1
10.840464 21.918942 28.427965 37.498065 1.111502 0.710374 0.047012 -0.031522 -99148.800000 0 0 1
11.740664 21.511642 29.611545 38.437450 1.071197 0.691355 0.079202 -0.035851 -129595.000000 0 0 1
12.994264 21.049142 29.177115 38.252076 1.017732 0.703227 0.087599 -0.036959 -657954.000000 0 0 1
13.852264 20.864042 30.287635 39.300564 0.984691 0.690910 0.100549 -0.020658 -734626.000000 0 0 1
15.268064 20.593642 29.846055 39.344617 0.932824 0.709665 0.084566 -0.029770 -994806.000000 0 0 1
15.946664 21.696342 29.377375 39.850440 0.936969 0.741893 0.071380 -0.036836 -182686.000000 0 0 1
17.288464 21.408942 29.040855 40.007563 0.891478 0.758477 0.151185 -0.029395 174894.000000 0 0 1
-8.731577 16.828842 4.726747 19.539511 -1.092186 1.326465 0.038665 -0.022859 -242307.000000 0 1 0
-8.553777 18.169442 5.088847 20.716952 -1.130798 1.322620 0.049076 -0.025511 249285.000000 0 1 0
-7.172477 18.485742 5.168847 20.491073 -1.200677 1.315793 0.046813 -0.020667 -4986.820000 0 1 0
-7.038577 19.934442 5.690347 21.893003 -1.231375 1.307861 0.056663 -0.023943 -254133.000000 0 1 0
-7.320277 20.987942 4.771547 22.734288 -1.235204 1.359341 0.066333 -0.033818 -19390.700000 0 1 0
-8.643477 21.141342 4.281947 23.237924 -1.182690 1.385472 0.062487 -0.041000 90681.200000 0 1 0
-8.683277 22.198342 3.185847 24.048187 -1.197927 1.437928 0.099801 -0.052016 -1764.170000 0 1 0
-8.060877 22.065942 1.938047 23.572008 -1.220549 1.488485 0.069589 -0.048603 -144837.000000 0 1 0
-8.423777 20.798542 1.318747 22.478400 -1.185972 1.512095 0.091015 -0.051913 -788110.000000 0 1 0
-7.991377 20.721242 -0.176553 22.209528 -1.202712 1.578746 0.066498 -0.034017 970957.000000 0 1 0
-6.617677 20.427942 -0.465453 21.478154 -1.257512 1.592469 0.046298 -0.022815 638225.000000 0 1 0
-5.733277 21.458042 -0.038953 22.210798 -1.309710 1.572550 0.046548 -0.024473 -956752.000000 0 1 0
-4.270977 21.294842 -0.446353 21.723507 -1.372859 1.591345 0.044543 -0.016492 -268614.000000 0 1 0
-4.092677 21.566442 -1.843053 22.028579 -1.383256 1.654561 0.042577 -0.016329 647219.000000 0 1 0
-2.704977 21.646542 -2.192353 21.924783 -1.446480 1.670958 0.036483 -0.005621 697407.000000 0 1 0
-2.575977 21.780542 -3.713053 22.244425 -1.453074 1.738502 0.048780 -0.001532 -378528.000000 0 1 0
-1.327177 22.217142 -4.137753 22.638105 -1.511131 1.754608 0.048798 0.000065 -576023.000000 0 1 0
-1.390677 22.361142 -5.555453 23.082844 -1.508685 1.813857 0.061558 -0.014318 -251489.000000 0 1 0
-0.150277 22.936242 -6.221253 23.765474 -1.564244 1.835659 0.057020 -0.018142 -348900.000000 0 1 0
0.985423 22.101242 -6.195653 22.974379 1.526239 1.843854 0.053078 -0.008649 64205.200000 0 1 0
2.076823 22.732442 -6.866353 23.837448 1.479690 1.862985 0.053766 -0.012051 284638.000000 0 1 0
3.357623 21.884942 -6.944653 23.204580 1.418562 1.874734 0.048866 -0.002832 -54410.800000 0 1 0
3.195123 20.870242 -7.893653 22.540753 1.418881 1.928575 0.047671 -0.010608 219406.000000 0 1 0
4.259423 19.937242 -7.786053 21.823357 1.360319 1.935611 0.042667 -0.012237 156615.000000 0 1 0
4.104623 18.888942 -8.825453 21.249204 1.356820 1.999103 0.030948 -0.013948 183264.000000 0 1 0
4.530723 19.256142 -10.107853 22.214750 1.339712 2.043176 0.034554 -0.022765 250685.000000 0 1 0
3.410623 19.125542 -10.981553 22.316209 1.394323 2.085284 0.041246 -0.020802 456936.000000 0 1 0
3.804123 19.495042 -12.418453 23.425328 1.378085 2.129549 0.044397 -0.021914 150230.000000 0 1 0
3.858323 20.907042 -12.705553 24.767360 1.388303 2.109468 0.087215 -0.027939 -261621.000000 0 1 0
4.045223 21.114342 -14.100953 25.710234 1.381504 2.151314 0.096115 -0.028152 61373.700000 0 0 1
4.278323 22.516742 -14.694153 27.225463 1.383028 2.140902 0.092465 -0.029930 -170823.000000 0 0 1
3.155923 23.350942 -14.552753 27.694926 1.436458 2.124059 0.115687 -0.036832 -439193.000000 0 0 1
3.375723 24.579042 -15.254753 29.124428 1.434309 2.122077 0.100818 -0.032254 -15255.700000 0 0 1
2.087223 25.287542 -15.722253 29.849715 1.488443 2.125526 0.100609 -0.032997 167731.000000 0 0 1
1.232223 25.866242 -14.728953 29.791322 1.523194 2.087946 0.125029 -0.035078 -203069.000000 0 0 1
1.632223 27.106542 -14.175153 30.632723 1.510654 2.051886 0.097372 -0.033670 -779955.000000 0 0 1
0.709423 27.494442 -12.989253 30.416579 1.545000 2.012019 0.105841 -0.043476 -2210.930000 0 0 1
-0.688877 27.472842 -13.152953 30.466896 -1.545727 2.017187 0.098357 -0.043423 -230641.000000 0 0 1
-1.326877 26.214542 -13.169153 29.366467 -1.520223 2.035818 0.093907 -0.040944 -793763.000000 0 0 1
-1.242177 25.283242 -11.921853 27.980634 -1.521705 2.010946 0.123014 -0.045437 -665357.000000 0 0 1
-2.069477 25.573542 -10.805353 27.839620 -1.490050 1.969396 0.119057 -0.037563 -139974.000000 0 0 1
-2.458277 24.439042 -10.142353 26.573995 -1.470545 1.962393 0.141306 -0.025227 216563.000000 0 0 1
-3.492777 24.634242 -8.985953 26.453596 -1.429950 1.917381 0.107791 -0.017457 -108669.000000 0 0 1
-3.024277 24.984642 -7.688053 26.315105 -1.450337 1.867274 0.112704 -0.022421 -233661.000000 0 0 1
-2.332277 26.189442 -7.589153 27.366433 -1.481977 1.851796 0.098563 -0.032537 7606.890000 0 0 1
-2.042177 26.660042 -6.172053 27.441257 -1.494345 1.797656 0.093171 -0.022331 323398.000000 0 0 1
-1.146877 25.783542 -5.486153 26.385682 -1.526345 1.780246 0.077637 -0.022009 -8426.320000 0 0 1
-0.836077 25.966842 -4.105853 26.302736 -1.538610 1.727537 0.079256 -0.023231 121102.000000 0 0 1
-1.903877 25.484242 -3.035353 25.734893 -1.496227 1.689018 0.081260 -0.020246 403137.000000 0 0 1
-3.045377 26.362742 -3.031353 26.710627 -1.455788 1.684530 0.073707 -0.017681 63504.100000 0 0 1
-4.026177 25.965442 -2.133753 26.362230 -1.416962 1.651825 0.063878 -0.014903 -139640.000000 0 0 1
-4.967777 24.812642 -2.586553 25.436908 -1.373197 1.672657 0.072063 -0.023150 -771908.000000 0 0 1
-5.995277 25.247342 -3.459153 26.178949 -1.337653 1.703319 0.075368 -0.023555 -315933.000000 0 0 1
-6.890577 24.172242 -3.622453 25.394872 -1.293100 1.713930 0.029662 -0.024261 -429820.000000 0 0 1
-8.283477 24.614142 -4.073853 26.288177 -1.246169 1.726392 0.051913 -0.023947 -730814.000000 0 0 1
-8.985377 25.114042 -2.982753 26.839317 -1.227205 1.682160 0.083760 -0.030689 -1568310.000000 0 0 1
-10.195777 25.540042 -3.507453 27.722732 -1.190973 1.697655 0.099845 -0.033343 -755732.000000 0 0 1
-11.232377 25.913442 -2.432653 28.347673 -1.161784 1.656717 0.101941 -0.037026 -231436.000000 0 0 1
-11.796077 24.850642 -1.610553 27.555321 -1.127610 1.629278 0.091866 -0.035238 613827.000000 0 0 1
-10.891677 24.072442 -0.776053 26.433187 -1.145903 1.600160 0.114331 -0.047439 155639.000000 0 0 1
-11.508277 22.792242 -0.214553 25.533758 -1.103220 1.579199 0.092905 -0.046532 79347.900000 0 0 1
-12.490977 23.034242 0.779647 26.214665 -1.073901 1.541051 0.110767 -0.050251 -40565.900000 0 0 1
-13.349477 21.925342 0.867147 25.684258 -1.023887 1.537028 0.115701 -0.052163 360760.000000 0 0 1
-14.433077 22.032542 1.990847 26.414203 -0.990858 1.495354 0.121580 -0.051925 479251.000000 0 0 1
-13.924477 21.657642 3.278847 25.955642 -0.999403 1.444133 0.106048 -0.047356 68320.200000 0 0 1
-13.706477 22.784942 4.063047 26.898503 -1.029232 1.419165 0.108669 -0.050681 -259586.000000 0 0 1
-13.310477 22.547742 5.546547 26.764410 -1.037522 1.362048 0.110569 -0.052258 34791.200000 0 0 1
-11.948477 22.238442 5.828447 25.909172 -1.077764 1.343898 0.106187 -0.049499 406004.000000 0 0 1
-11.798977 21.775442 7.107547 25.766315 -1.074233 1.291326 0.088425 -0.049057 -474972.000000 0 0 1
-10.364877 21.523142 7.579447 25.062409 -1.122002 1.263563 0.083015 -0.042224 -749864.000000 0 0 1
-9.667877 22.729242 7.771647 25.893721 -1.168629 1.265961 0.096311 -0.043968 -184375.000000 0 0 1
-8.547677 22.598242 8.622347 25.653230 -1.209184 1.228011 0.111545 -0.047771 -183693.000000 0 0 1
-8.817677 22.683642 10.118147 26.356706 -1.200048 1.176788 0.080258 -0.035028 -567566.000000 0 0 1
-9.546577 21.598642 10.583347 25.877514 -1.154616 1.149462 0.081844 -0.034349 -107668.000000 0 0 1
-9.063377 21.046642 11.824347 25.786065 -1.164164 1.094427 0.060017 -0.023169 -99756.300000 0 0 1
-9.979377 19.956942 12.407347 25.530565 -1.107112 1.063312 0.041740 -0.009155 -88968.300000 0 0 1
-10.125477 18.820342 11.578547 24.306240 -1.077207 1.074285 0.060494 -0.029030 -31727.200000 0 1 0
-10.508877 17.706842 12.301547 23.985346 -1.035176 1.032263 0.038738 -0.019838 -223120.000000 0 1 0
-11.000777 16.506742 11.499547 22.928786 -0.982950 1.045426 0.040960 -0.026357 -176053.000000 0 1 0
-10.984377 15.283042 12.243947 22.453110 -0.947610 0.994035 0.032676 -0.017364 -64327.900000 0 1 0
-11.484777 14.176942 11.528847 21.582403 -0.889926 1.007261 0.029152 -0.009917 49300.800000 0 1 0
-11.787677 12.845842 12.224447 21.293241 -0.828328 0.959292 0.009558 -0.009384 194691.000000 0 1 0
-12.721177 12.875042 13.301447 22.461602 -0.791409 0.937027 0.016634 0.001315 307478.000000 0 1 0
-13.022977 11.603342 13.722947 22.193575 -0.727815 0.904181 0.018386 0.008114 -72702.500000 0 1 0
-13.973677 11.494942 14.934547 23.461416 -0.688379 0.880770 0.039310 -0.006112 300287.000000 0 1 0
-15.307677 11.879542 14.652047 24.292612 -0.659967 0.923354 0.057391 -0.017440 492799.000000 0 1 0
-16.140377 11.843042 15.846347 25.531865 -0.633021 0.901225 0.056086 -0.017139 894183.000000 0 0 1
-17.283777 12.910742 15.788147 26.733533 -0.641569 0.939026 0.058811 -0.014345 591957.000000 0 0 1
-18.196577 12.788242 14.712647 26.666769 -0.612591 0.986369 0.062612 -0.016798 223236.000000 0 0 1
-19.227877 13.755742 14.705747 27.842247 -0.620991 1.014339 0.101873 -0.023932 -636668.000000 0 0 1
-20.302577 13.538642 13.701247 27.985955 -0.588125 1.059193 0.111762 -0.025093 -756255.000000 0 0 1
-21.141577 12.454642 14.102247 28.301197 -0.532371 1.049169 0.111061 -0.021460 -816385.000000 0 0 1
-22.220777 12.405842 13.271847 28.702087 -0.509193 1.090096 0.093973 -0.018451 -851084.000000 0 0 1
-23.432177 11.576642 13.763747 29.538556 -0.458875 1.086079 0.101031 -0.028920 113490.000000 0 0 1
-23.986677 11.983242 14.996347 30.722129 -0.463311 1.060852 0.108684 -0.018812 227572.000000 0 0 1
-24.975777 11.044042 15.388547 31.345936 -0.416340 1.057644 0.082462 -0.025829 344925.000000 0 0 1
-25.839477 11.558042 16.607447 32.818809 -0.420608 1.040215 0.076894 -0.012324 133347.000000 0 0 1
-26.694937 12.654342 16.317547 33.749287 -0.442661 1.066155 0.088640 -0.011732 461127.000000 0 0 1
-27.266967 13.193942 17.544947 35.005611 -0.450669 1.045807 0.061478 0.002801 393197.000000 0 0 1
-28.546157 14.016542 17.213047 36.161244 -0.456432 1.074686 0.066054 0.003198 99133.100000 0 0 1
-28.293077 15.400942 17.046647 36.445513 -0.498484 1.084076 0.097664 0.001726 213765.000000 0 0 1
-29.446447 16.167942 16.714947 37.521795 -0.502123 1.109094 0.100365 -0.003835 202647.000000 0 0 1
-29.194947 17.671142 16.680647 37.984973 -0.544293 1.116157 0.095555 -0.007047 -99875.000000 0 0 1
-28.865227 18.306842 17.921147 38.594162 -0.565200 1.087897 0.093591 -0.006135 27310.500000 0 0 1
-29.944607 18.476642 18.833947 39.909690 -0.552846 1.079336 0.102153 -0.021722 -433342.000000 0 0 1
-29.487127 18.858342 20.237247 40.431101 -0.568990 1.046578 0.095125 -0.023463 196752.000000 0 0 1
-28.784787 17.906242 20.972847 39.862988 -0.556492 1.016761 0.091713 -0.013237 345524.000000 0 0 1
-27.536967 17.362642 20.561847 38.503707 -0.562560 1.007445 0.099082 0.002075 -131185.000000 0 0 1
-27.070957 16.113042 21.348047 38.055302 -0.536894 0.975234 0.109033 -0.008063 351249.000000 0 0 1
-28.019597 15.019142 21.228347 38.227153 -0.492049 0.982047 0.080965 -0.009660 952593.000000 0 0 1
-27.539347 13.775942 21.712047 37.677649 -0.463830 0.956654 0.064525 -0.002297 -178853.000000 0 0 1
-28.713177 12.784542 21.746247 38.220287 -0.418897 0.965542 0.084600 -0.013053 54744.500000 0 0 1
-29.317997 12.649542 20.455447 37.920723 -0.407330 1.001040 0.098753 -0.021195 181112.000000 0 0 1
-30.556067 11.992142 20.610347 38.759143 -0.373993 1.010125 0.138134 -0.025747 -179010.000000 0 0 1
-31.270007 11.709342 19.224447 38.529228 -0.358296 1.048401 0.159237 -0.024016 -134757.000000 0 0 1
-30.635597 10.975742 18.168047 37.270426 -0.344021 1.061612 0.178547 -0.022964 410813.000000 0 0 1
-30.013057 9.709842 18.442347 36.540181 -0.312893 1.041745 0.187741 -0.021076 -391985.000000 0 0 1
-29.407097 9.102642 17.184647 35.255461 -0.300185 1.061650 0.180838 -0.027521 -501932.000000 0 0 1
-30.163697 8.732542 16.030847 35.257538 -0.281801 1.098785 0.180373 -0.022617 -29872.800000 0 0 1
-30.749117 9.790342 15.283747 35.706469 -0.308246 1.128475 0.193695 -0.025150 -277549.000000 0 0 1
-29.809327 10.715842 14.497547 34.836822 -0.345095 1.141583 0.181338 -0.018019 -224542.000000 0 0 1
-29.253167 10.190442 13.304547 33.713556 -0.335207 1.165126 0.172130 -0.029333 269070.000000 0 0 1
-28.393127 11.161642 12.738647 33.060930 -0.374553 1.175255 0.141646 -0.025586 -113689.000000 0 0 1
-27.804597 10.790842 11.392147 31.926774 -0.370202 1.205934 0.175566 -0.014369 -198579.000000 0 0 1
-26.909267 9.706542 11.224547 30.729726 -0.346187 1.196877 0.181335 -0.020901 598341.000000 0 0 1
-27.545437 8.445642 11.194947 30.909656 -0.297508 1.200188 0.189358 -0.022691 -769948.000000 0 0 1
-26.773677 7.463642 10.427747 29.686254 -0.271866 1.211874 0.202867 -0.037465 -786032.000000 0 0 1
-26.734787 7.722342 9.002747 29.247784 -0.281196 1.257906 0.217836 -0.027887 263170.000000 0 0 1
-26.388027 6.552142 8.298547 28.427530 -0.243378 1.274563 0.224384 -0.050566 -74562.200000 0 0 1
-25.748747 7.057542 6.950647 27.588374 -0.267522 1.316111 0.235798 -0.035988 126278.000000 0 0 1
-26.736167 7.652042 6.117847 28.474628 -0.278754 1.354255 0.242510 -0.038092 259733.000000 0 0 1
-26.160677 8.238742 4.950147 27.870448 -0.305096 1.392236 0.236744 -0.040031 10748.300000 0 0 1
-27.118667 8.656542 3.788347 28.717754 -0.308986 1.438494 0.242013 -0.043650 -372943.000000 0 0 1
-27.706947 7.625742 3.037847 28.897325 -0.268579 1.465476 0.251288 -0.049136 -368008.000000 0 0 1
-26.948327 6.654042 2.412647 27.862331 -0.242076 1.484096 0.253809 -0.044595 -756506.000000 0 0 1
-25.979197 7.048842 1.294247 26.949581 -0.264948 1.522753 0.261408 -0.039041 110772.000000 0 0 1
-24.749577 7.602242 1.733747 25.948825 -0.298019 1.503932 0.228944 -0.040245 476054.000000 0 0 1
-23.841677 7.870942 0.695847 25.116957 -0.318868 1.543088 0.237505 -0.025104 -288122.000000 0 0 1
-22.459577 8.337842 1.170547 23.985879 -0.355468 1.521975 0.177514 -0.026318 -278130.000000 0 1 0
-22.501177 9.689442 1.540647 24.547135 -0.406621 1.507992 0.165540 -0.033464 544788.000000 0 1 0
-21.311677 9.942942 2.249447 23.624345 -0.436531 1.475435 0.140098 -0.036475 -252301.000000 0 1 0
-21.419677 11.179942 3.165947 24.368359 -0.481051 1.440508 0.123541 -0.052827 -344641.000000 0 1 0
-21.371177 12.393342 2.468947 24.827764 -0.525516 1.471189 0.191848 -0.045166 285704.000000 0 1 0
-21.655677 13.468142 3.307947 25.715787 -0.556383 1.441804 0.187084 -0.053021 -17437.200000 0 0 1
-20.474577 14.308542 3.905647 25.282341 -0.609950 1.415694 0.141717 -0.040686 626835.000000 0 0 1
-19.812577 13.575542 4.996047 24.531491 -0.600723 1.365703 0.125310 -0.038681 468975.000000 0 1 0
-18.837977 14.363542 5.633147 24.349806 -0.651439 1.337339 0.107726 -0.032553 -298809.000000 0 1 0
-18.227377 13.687442 6.881247 23.810395 -0.644095 1.277612 0.068389 -0.021522 775269.000000 0 1 0
-17.108277 12.807842 6.551447 22.352974 -0.642626 1.273338 0.061073 -0.016601 1139170.000000 0 1 0
-16.643677 12.229042 7.760547 22.063263 -0.633673 1.211366 0.051329 -0.012032 -155782.000000 0 1 0
11.115623 -32.225105 -14.269853 36.954609 -1.238639 1.967246 0.093922 -0.028697 -1162270.000000 0 0 1
12.402723 -32.614005 -13.978053 37.588386 -1.207397 1.951821 0.071052 -0.027736 -1017550.000000 0 0 1
13.103123 -31.444805 -13.666053 36.704612 -1.175975 1.952309 0.081109 -0.026156 248045.000000 0 0 1
14.508623 -31.527505 -13.008153 37.063401 -1.139501 1.929403 0.107555 -0.019688 1144530.000000 0 0 1
15.539523 -32.288105 -13.676653 38.354261 -1.122239 1.935409 0.114415 -0.026176 889592.000000 0 0 1
16.840123 -31.787405 -13.421253 38.394776 -1.083615 1.927897 0.120800 -0.024213 504214.000000 0 0 1
18.024323 -32.645505 -13.905053 39.798941 -1.066325 1.927708 0.121358 -0.028543 193637.000000 0 0 1
17.980523 33.834442 -13.254153 40.543079 1.082325 1.903834 0.117568 -0.029515 -425404.000000 0 0 1
18.838523 32.899742 -13.806753 40.347359 1.050765 1.920051 0.104724 -0.017105 -599577.000000 0 0 1
18.848323 31.586042 -12.924153 38.986806 1.032785 1.908690 0.094066 -0.025674 -270676.000000 0 0 1
19.678223 31.653542 -11.819253 39.100817 1.014591 1.877876 0.083480 -0.032734 -394706.000000 0 0 1
19.472823 30.529042 -11.016953 37.849524 1.003013 1.866144 0.074646 -0.033001 -164705.000000 0 0 1
20.393323 30.310542 -9.822353 37.829819 0.978551 1.833452 0.082452 -0.030149 1622930.000000 0 0 1
21.770323 29.907242 -10.120053 38.351083 0.941572 1.837838 0.072801 -0.029307 1911980.000000 0 0 1
22.577823 29.781442 -8.957953 38.430942 0.922120 1.806053 0.066035 -0.026963 688507.000000 0 0 1
23.958323 29.078742 -8.998953 38.737006 0.881644 1.805247 0.039819 -0.020047 331654.000000 0 0 1
25.002223 29.709742 -9.682353 40.019094 0.871229 1.815165 0.046817 -0.022732 296316.000000 0 0 1
26.123723 28.817442 -9.829053 40.118626 0.834388 1.818316 0.035177 -0.008773 758050.000000 0 0 1
27.198023 29.405042 -10.794053 41.483738 0.824370 1.834025 0.042230 -0.012607 -190741.000000 0 0 1
28.149723 30.249542 -10.198153 42.561062 0.821339 1.812763 0.050803 -0.029917 -28933.600000 0 0 1
29.049723 30.622942 -11.228653 43.677610 0.811756 1.830796 0.061082 -0.026427 11148.600000 0 0 1
29.537223 32.091642 -11.126153 45.012357 0.826823 1.820565 0.050758 -0.031931 64068.400000 0 0 1
28.625523 32.968842 -11.758453 45.217544 0.855797 1.833862 0.057167 -0.025584 199651.000000 0 0 1
29.059423 -33.406105 -11.374253 45.714237 -0.854871 1.822250 0.061941 -0.022106 183340.000000 0 0 1
28.164223 -32.173905 -11.769153 44.349707 -0.851754 1.839386 0.059191 -0.013202 615572.000000 0 0 1
26.932123 -32.201305 -11.035453 43.405581 -0.874270 1.827859 0.074747 -0.021303 -96500.000000 0 0 1
25.971823 -31.263805 -11.410053 42.215523 -0.877596 1.844481 0.073429 -0.024258 -70903.500000 0 0 1
26.194823 -29.798405 -10.954253 41.159559 -0.849667 1.840184 0.067654 -0.016829 -414442.000000 0 0 1
27.278223 -29.169505 -11.593253 41.585634 -0.818891 1.853320 0.055223 -0.011462 -462075.000000 0 0 1
27.533323 -27.953905 -10.941753 40.733605 -0.792978 1.842754 0.062670 -0.015132 -262407.000000 0 0 1
28.455823 -27.046705 -11.776553 40.987136 -0.760015 1.862227 0.080989 -0.007150 424068.000000 0 0 1
29.717223 -27.603405 -12.125353 42.333030 -0.748538 1.861293 0.060775 -0.004773 137463.000000 0 0 1
29.674023 -28.458105 -13.229453 43.190621 -0.764485 1.882104 0.063778 -0.011996 -186069.000000 0 0 1
31.048623 -29.048005 -13.676553 44.663762 -0.752120 1.882007 0.054880 -0.003810 579916.000000 0 0 1
31.724123 -29.875605 -12.744153 45.402480 -0.755399 1.855312 0.068416 -0.012198 271728.000000 0 0 1
32.703623 -30.730505 -13.304853 46.807157 -0.754303 1.859019 0.064354 -0.020626 100587.000000 0 0 1
33.162423 -31.846405 -12.286153 47.590853 -0.765157 1.831916 0.047412 -0.020379 596674.000000 0 0 1
34.088623 -32.729605 -12.970453 49.005039 -0.765062 1.838664 0.042279 -0.030103 512168.000000 0 0 1
34.979823 -33.458005 -12.138253 49.903540 -0.763165 1.816495 0.044909 -0.019950 92271.900000 0 0 1
34.437223 33.076042 -11.284153 49.064029 0.765239 1.802862 0.049840 -0.028034 144530.000000 0 0 1
33.629423 33.449742 -10.154353 48.507053 0.782720 1.781694 0.055994 -0.031170 198269.000000 0 0 1
32.952123 32.366142 -9.568553 47.169553 0.776427 1.775068 0.070266 -0.027866 -68316.700000 0 0 1
32.160123 32.650542 -8.252553 46.566469 0.792965 1.748958 0.058577 -0.023823 -498172.000000 0 0 1
31.036923 33.387942 -8.594753 46.388738 0.821874 1.757150 0.049886 -0.022437 -1114760.000000 0 0 1
30.394023 33.786542 -7.408153 46.045714 0.838208 1.732386 0.044489 -0.020959 103614.000000 0 0 1
29.332423 -32.812605 -7.604453 44.664144 -0.841341 1.741888 0.040889 -0.025399 -496843.000000 0 0 1
29.975723 -31.572605 -7.921353 44.250663 -0.811338 1.750777 0.019084 -0.019122 32178.300000 0 0 1
29.181323 -30.476905 -8.277953 42.999021 -0.807111 1.764521 0.031279 -0.013422 -34832.300000 0 0 1
28.034623 -29.975005 -7.376153 41.699504 -0.818835 1.748620 0.044898 -0.022959 39504.100000 0 0 1
27.184023 -29.065105 -7.965853 40.585788 -0.818828 1.768351 0.048800 -0.027779 -577863.000000 0 0 1
26.138323 -28.607905 -7.164653 39.407568 -0.830477 1.753622 0.064857 -0.040643 -109710.000000 0 0 1
25.218123 -27.534505 -7.805453 38.144826 -0.829280 1.776879 0.104318 -0.040099 -21695.400000 0 0 1
24.282423 -28.159905 -8.673953 38.181851 -0.859202 1.799972 0.132152 -0.040496 1872.980000 0 0 1
23.538423 -27.232505 -9.410353 37.205126 -0.858030 1.826506 0.147145 -0.039740 4407.760000 0 0 1
22.248323 -27.882605 -9.989953 37.043578 -0.897320 1.843858 0.135033 -0.029278 -248149.000000 0 0 1
22.450923 -28.876405 -11.003353 38.196393 -0.909937 1.863010 0.135010 -0.027268 -531333.000000 0 0 1
21.391523 -29.646405 -11.487953 38.320747 -0.945750 1.875263 0.126665 -0.028382 -396357.000000 0 0 1
21.202523 -30.887805 -10.572053 38.927776 -0.969231 1.845832 0.127800 -0.034525 540823.000000 0 0 1
22.267323 -31.821505 -10.776553 40.306028 -0.960233 1.841457 0.111943 -0.028784 271020.000000 0 0 1
21.970923 -33.055605 -10.166353 40.972542 -0.984180 1.821542 0.087077 -0.032527 455786.000000 0 0 1
23.025223 33.441842 -10.302453 41.888641 0.967820 1.819295 0.081698 -0.028303 910490.000000 0 0 1
24.168523 33.700542 -9.493453 42.543738 0.948649 1.795837 0.088059 -0.029076 134362.000000 0 0 1
25.277623 32.882242 -9.809853 42.619635 0.915414 1.803051 0.066834 -0.025752 -307405.000000 0 0 1
26.493223 33.178542 -8.946953 43.390719 0.896968 1.778481 0.059547 -0.025165 -1089050.000000 0 0 1
26.521923 32.855042 -7.520253 42.888464 0.891656 1.747052 0.057689 -0.024097 -29190.200000 0 0 1
26.822623 31.500542 -7.235553 42.001077 0.865434 1.743931 0.054328 -0.026562 -144393.000000 0 0 1
26.624423 31.235542 -5.744953 41.443015 0.864925 1.709867 0.059901 -0.021738 -296178.000000 0 0 1
27.490323 31.852542 -4.823053 42.350491 0.858775 1.684928 0.060386 -0.016172 -703056.000000 0 0 1
28.364923 31.047642 -4.110553 42.254249 0.830522 1.668232 0.074503 -0.016107 -239110.000000 0 0 1
27.839623 29.970742 -3.084753 41.022014 0.822245 1.646065 0.073922 -0.000049 -417079.000000 0 0 1
27.056523 30.488142 -2.034053 40.813228 0.844962 1.620655 0.088014 -0.005187 -47578.000000 0 0 1
26.727823 29.419242 -1.146653 39.764093 0.833297 1.599637 0.074380 0.005114 179081.000000 0 0 1
25.382323 28.670942 -1.335753 38.315395 0.846164 1.605665 0.042993 0.003836 295240.000000 0 0 1
24.283923 29.405442 -0.814853 38.145156 0.880502 1.592160 0.052798 -0.003530 450172.000000 0 0 1
23.022723 28.771142 -1.052953 36.863710 0.895932 1.599364 0.068857 -0.002484 298790.000000 0 0 1
21.852023 29.402142 -0.329153 36.634754 0.931654 1.579781 0.057252 -0.006743 -379866.000000 0 0 1
21.631123 28.790142 0.910347 36.022305 0.926440 1.545522 0.073665 -0.014600 -590274.000000 0 0 1
20.720823 29.533442 1.623847 36.113897 0.958994 1.525817 0.096430 -0.012695 -683318.000000 0 0 1
20.018723 28.593242 2.679347 35.007166 0.959989 1.494184 0.097379 -0.026612 -395413.000000 0 0 1
19.090123 27.813142 1.995547 33.793281 0.969276 1.511710 0.088297 -0.019321 -395636.000000 0 0 1
18.462023 26.910942 2.883247 32.762146 0.969500 1.482677 0.094005 -0.026458 -209118.000000 0 0 1
18.067423 25.590442 2.178947 31.401438 0.956040 1.501350 0.104475 -0.020375 412186.000000 0 0 1
19.154123 24.838142 1.612247 31.407213 0.913891 1.519440 0.113431 -0.024118 610546.000000 0 0 1
19.981723 24.210542 2.607347 31.499490 0.880799 1.487927 0.117760 -0.017993 -148445.000000 0 0 1
21.209023 23.536542 1.966847 31.743660 0.837368 1.508796 0.117672 -0.016325 -184275.000000 0 0 1
20.753723 22.566842 1.057947 30.677331 0.827227 1.536303 0.109593 -0.012793 930591.000000 0 0 1
21.825223 21.662142 0.706047 30.758531 0.781648 1.547840 0.067680 -0.018178 497005.000000 0 0 1
21.543423 20.691642 -0.455553 29.874247 0.765233 1.586046 0.113652 -0.020176 -229735.000000 0 0 1
21.361823 21.343342 -1.670953 30.243310 0.784965 1.626075 0.072899 -0.013021 269066.000000 0 0 1
21.529023 20.345042 -2.681253 29.742372 0.757131 1.661068 0.118168 -0.015470 -46069.300000 0 0 1
21.643123 20.984742 -4.067353 30.419197 0.769955 1.704908 0.072993 -0.022934 512603.000000 0 0 1
22.679123 21.996742 -4.123853 31.862289 0.770125 1.700588 0.083027 -0.021680 739892.000000 0 0 1
22.574123 22.777342 -5.293553 32.502616 0.789879 1.734390 0.042975 -0.012268 -758337.000000 0 0 1
23.905223 23.492142 -5.452953 33.956960 0.776683 1.732079 0.047258 -0.004051 -476278.000000 0 0 1
24.166923 24.614442 -4.602453 34.800768 0.794572 1.703436 0.034418 -0.003913 -52192.100000 0 0 1
24.217823 24.507942 -3.147753 34.598418 0.791352 1.661902 0.062905 -0.008186 391687.000000 0 0 1
22.868723 24.419642 -2.329353 33.536894 0.818183 1.640309 0.054689 -0.010590 -493943.000000 0 0 1
22.072023 25.583042 -2.309753 33.867406 0.858941 1.639049 0.068397 -0.015422 -32636.200000 0 0 1
20.929023 25.516842 -1.519353 33.036974 0.883857 1.616802 0.084318 0.000156 -84516.800000 0 0 1
19.859623 24.415342 -1.762453 31.521735 0.887933 1.626738 0.100438 -0.015177 -1178210.000000 0 0 1
19.084023 24.635542 -2.921153 31.299249 0.911702 1.664262 0.073048 -0.013970 197863.000000 0 0 1
18.572223 23.401142 -3.476453 30.077012 0.899942 1.686640 0.086104 -0.019565 169421.000000 0 0 1
17.814123 23.784642 -4.800453 30.101437 0.927951 1.730956 0.084772 -0.022441 43800.200000 0 0 1
17.494423 22.641442 -5.560853 29.148118 0.912942 1.762752 0.089031 -0.027535 67316.000000 0 0 1
17.052523 23.042742 -6.853453 29.474163 0.933701 1.805468 0.092398 -0.024698 33764.000000 0 0 1
16.307623 22.007842 -7.712153 28.456299 0.933086 1.845246 0.111224 -0.019540 -93861.200000 0 0 1
17.106423 20.971142 -8.236953 28.288971 0.886548 1.866248 0.091477 -0.018229 385395.000000 0 0 1
16.400723 20.242942 -9.232653 27.640591 0.889870 1.911367 0.146140 -0.029116 -313407.000000 0 0 1
17.200623 19.008842 -9.505953 27.341555 0.835294 1.925886 0.140725 -0.031368 231060.000000 0 0 1
18.459823 19.278842 -10.123953 28.547035 0.807097 1.933327 0.105916 -0.030953 607936.000000 0 0 1
19.072723 18.082742 -10.582353 28.332675 0.758760 1.953579 0.114623 -0.032954 -1224780.000000 0 0 1
20.547423 18.173042 -10.836353 29.493772 0.724154 1.947021 0.079498 -0.034185 -1384080.000000 0 0 1
20.963323 18.999342 -11.873953 30.682677 0.736292 1.968164 0.086381 -0.029449 1283480.000000 0 0 1
22.344623 18.683542 -12.192953 31.575703 0.696401 1.967250 0.073030 -0.019725 1077880.000000 0 0 1
22.708523 18.959742 -13.662353 32.585406 0.695672 2.003447 0.072855 -0.024490 -247121.000000 0 0 1
22.206923 17.981942 -14.559553 32.069896 0.680655 2.042040 0.075644 -0.023772 251983.000000 0 0 1
22.795023 18.211442 -15.802153 33.180984 0.674083 2.067171 0.088536 -0.028807 -145566.000000 0 0 1
22.581923 17.306842 -16.998253 33.142278 0.653916 2.109341 0.073651 -0.027548 -310682.000000 0 0 1
23.251523 16.053742 -16.887553 32.917250 0.604280 2.109508 0.085238 -0.021248 62857.600000 0 0 1
23.428723 15.348542 -18.144653 33.372312 0.579964 2.145640 0.083113 -0.022624 -115818.000000 0 0 1
24.254923 16.108742 -19.230153 34.894005 0.586254 2.154481 0.090590 -0.011414 888600.000000 0 0 1
25.643123 16.262242 -18.824453 35.726605 0.565170 2.125749 0.106071 -0.009311 1361290.000000 0 0 1
26.422323 16.880042 -19.824353 37.095551 0.568501 2.134610 0.117904 -0.017275 -207927.000000 0 0 1
27.931523 16.914542 -19.558953 38.063425 0.544506 2.110465 0.097571 -0.015189 -138007.000000 0 0 1
28.231223 17.769542 -18.462053 38.126185 0.561778 2.076286 0.081915 -0.012813 150995.000000 0 0 1
29.588723 17.760142 -18.049053 38.944620 0.540591 2.052686 0.069485 -0.021874 288373.000000 0 0 1
29.983823 18.953042 -17.063953 39.362748 0.563695 2.019175 0.071855 -0.025373 451301.000000 0 0 1
29.277123 18.934342 -15.799953 38.279208 0.574072 1.996274 0.053308 -0.020109 891503.000000 0 0 1
28.019723 19.630842 -15.847253 37.704247 0.611134 2.004577 0.046973 -0.016435 1154170.000000 0 0 1
26.989223 19.131742 -14.737553 36.216532 0.616652 1.989886 0.052511 -0.010947 375763.000000 0 0 1
27.438323 19.247942 -13.421853 36.103891 0.611731 1.951697 0.047370 -0.011679 816284.000000 0 0 1
26.348223 19.045742 -12.492653 34.828659 0.625896 1.937659 0.055786 -0.018919 426287.000000 0 0 1
26.722623 19.618242 -11.107653 34.962179 0.633276 1.894104 0.051783 -0.018234 -118208.000000 0 0 1
26.579323 21.009242 -10.874553 35.582363 0.668882 1.881382 0.052387 -0.013327 -73341.700000 0 0 1
27.027023 21.434742 -9.601953 35.806502 0.670511 1.842281 0.047381 -0.009239 112004.000000 0 0 1
26.044623 21.253842 -8.412753 34.652887 0.684454 1.816019 0.062161 -0.015511 -384981.000000 0 0 1
26.000623 19.907442 -7.896353 33.685175 0.653444 1.807414 0.080696 -0.024084 46941.500000 0 0 1
25.074823 19.785942 -6.852953 32.667923 0.668044 1.782142 0.077825 -0.027125 -703.229000 0 0 1
23.623723 19.456642 -7.274853 31.457347 0.688970 1.804170 0.083478 -0.031833 -286100.000000 0 0 1
22.897223 20.595642 -7.676253 31.739378 0.732529 1.815071 0.073397 -0.021188 220184.000000 0 0 1
21.612723 20.258442 -8.194953 30.735509 0.753065 1.840689 0.073665 -0.021153 325625.000000 0 0 1
20.699923 21.519642 -8.145153 30.950368 0.804811 1.837101 0.082444 -0.026267 -535248.000000 0 0 1
21.052923 22.584042 -9.025753 32.167199 0.820471 1.855204 0.084980 -0.029031 -91327.500000 0 0 1
20.605023 22.518842 -10.342953 32.227967 0.829749 1.897509 0.091279 -0.012452 -110728.000000 0 0 1
19.090523 22.637242 -10.641553 31.466417 0.870191 1.915787 0.095659 -0.020869 -258782.000000 0 0 1
18.696423 23.959742 -10.376053 32.113672 0.908167 1.899804 0.107557 -0.036322 161625.000000 0 0 1
17.323023 24.162242 -10.658453 31.583281 0.948788 1.915026 0.111269 -0.030278 303030.000000 0 0 1
16.752823 25.526742 -10.174453 32.183709 0.990015 1.892451 0.116978 -0.032805 -29500.200000 0 0 1
17.384023 26.610142 -10.782453 33.564344 0.992115 1.897843 0.120194 -0.021873 34600.100000 0 0 1
17.143323 27.759042 -9.987953 34.120626 1.017553 1.867872 0.126795 -0.045136 -115529.000000 0 0 1
20.836223 28.478242 32.140803 47.730385 0.939140 0.832022 0.066473 0.002107 374946.000000 0 0 1
19.517023 28.936142 32.346452 47.586841 0.977400 0.823395 0.088101 -0.029612 -273533.000000 0 0 1
18.660423 27.948642 32.833223 46.982534 0.982101 0.797023 0.085497 -0.026792 -684091.000000 0 0 1
17.235723 28.401942 33.070965 46.876745 1.025355 0.787685 0.119249 -0.036267 -545190.000000 0 0 1
16.485823 28.632542 31.893624 45.921761 1.048382 0.803042 0.113893 -0.040377 -372305.000000 0 0 1
15.216423 29.170842 32.185067 46.025603 1.089994 0.796398 0.122829 -0.041911 -111597.000000 0 0 1
14.356223 29.341442 30.899845 44.964673 1.115760 0.813165 0.118131 -0.040582 73695.300000 0 0 1
13.854423 28.038942 30.533775 43.708566 1.111869 0.797390 0.111643 -0.045598 -366921.000000 0 0 1
12.458423 27.964942 30.539035 43.242143 1.151690 0.786633 0.105776 -0.031083 -513730.000000 0 0 1
11.796723 26.573742 30.386565 42.055556 1.153007 0.763336 0.084038 -0.033727 17571.800000 0 0 1
12.148823 25.820942 29.221935 40.844050 1.131024 0.773526 0.081487 -0.029359 894257.000000 0 0 1
13.411523 25.126542 29.253485 40.828648 1.080508 0.772033 0.065832 -0.024074 733271.000000 0 0 1
13.650123 24.398142 27.903065 39.499066 1.060709 0.786364 0.076683 -0.022182 -459680.000000 0 0 1
13.626223 25.175542 26.726245 39.163428 1.074697 0.819716 0.071244 -0.026401 99058.400000 0 0 1
13.439123 24.317942 25.607685 37.785260 1.065927 0.826144 0.085230 -0.021867 -497364.000000 0 0 1
12.080523 23.674242 25.350485 36.729496 1.098958 0.809039 0.078125 -0.015551 -856570.000000 0 0 1
12.071923 23.243942 23.992395 35.519673 1.091783 0.829197 0.096137 -0.022621 -214985.000000 0 0 1
10.958123 22.521242 23.545365 34.375442 1.117952 0.816265 0.084123 -0.024879 -457698.000000 0 0 1
11.091723 22.116142 22.059785 33.147914 1.105932 0.842639 0.112735 -0.037750 -194048.000000 0 0 1
10.800023 23.206542 21.186685 33.227394 1.135221 0.879382 0.124462 -0.031536 81273.900000 0 0 1
10.959823 22.860042 19.785085 32.158185 1.123739 0.908103 0.127783 -0.030059 -434136.000000 0 0 1
10.631623 24.052342 18.831685 32.344689 1.154598 0.949341 0.131244 -0.034905 521423.000000 0 0 1
9.241323 24.344242 18.735785 32.079181 1.207990 0.947089 0.131705 -0.039649 226133.000000 0 0 1
8.759723 25.253242 19.704085 33.207077 1.236908 0.935557 0.131690 -0.050037 237808.000000 0 0 1
7.257823 25.657842 19.643485 33.118988 1.295129 0.935870 0.118493 -0.046121 585304.000000 0 0 1
7.020023 26.549942 18.553085 33.142075 1.312304 0.976646 0.131311 -0.053231 -386030.000000 0 0 1
5.639723 26.707542 18.331585 32.880789 1.362688 0.979405 0.106216 -0.052762 -413090.000000 0 0 1
5.310223 27.744142 17.246085 33.096274 1.381684 1.022671 0.109751 -0.049095 -77274.500000 0 0 1
5.944423 27.426042 15.972285 32.289903 1.357354 1.053361 0.113979 -0.043577 18925.200000 0 0 1
6.894223 28.455242 15.765085 33.253106 1.333094 1.076862 0.120005 -0.038781 -259754.000000 0 0 1
7.887723 28.184942 14.613385 32.713272 1.297921 1.107710 0.127581 -0.040345 -22492.000000 0 0 1
7.421723 28.118642 13.218085 31.944605 1.312738 1.144192 0.112109 -0.038942 -312463.000000 0 0 1
6.813623 26.912742 12.836985 30.586097 1.322832 1.137682 0.090687 -0.033947 -36311.000000 0 0 1
6.191923 27.117142 11.387285 30.055774 1.346305 1.182219 0.092925 -0.036560 -558807.000000 0 0 1
7.018923 27.512242 10.356085 30.223124 1.321005 1.221055 0.087938 -0.028723 -465925.000000 0 0 1
7.368623 28.899442 10.350685 31.569147 1.321141 1.236745 0.082438 -0.023618 -267633.000000 0 0 1
7.331823 29.478242 8.885385 31.649209 1.327023 1.286225 0.080580 -0.014486 -440876.000000 0 0 1
6.143823 29.353542 8.168185 31.082089 1.364471 1.304880 0.078524 -0.023280 -605227.000000 0 0 1
6.049623 28.129642 7.526385 29.740901 1.358961 1.314949 0.066456 -0.014422 -147877.000000 0 0 1
4.591523 27.732142 7.209285 29.019435 1.406718 1.319738 0.074230 -0.024864 -35306.900000 0 0 1
4.004723 28.546242 6.241885 29.493845 1.431417 1.357550 0.076876 -0.017028 -138716.000000 0 0 1
2.592523 28.591142 6.331485 29.398338 1.480368 1.353727 0.080052 -0.020230 214204.000000 0 0 1
2.057823 29.670742 5.396785 30.227684 1.501552 1.391296 0.090594 -0.028023 -720427.000000 0 0 1
2.391823 29.354242 4.069285 29.731321 1.489495 1.433497 0.078825 -0.028785 8886.260000 0 0 1
1.691523 30.166742 3.175585 30.380552 1.514783 1.466078 0.056016 -0.025776 -7459.040000 0 0 1
0.326323 29.602542 2.761585 29.732866 1.559773 1.477782 0.109903 -0.030678 -349351.000000 0 0 1
0.436823 28.837642 1.616385 28.886210 1.555650 1.514810 0.107253 -0.031281 198420.000000 0 0 1
-0.707777 27.996442 1.427085 28.041724 -1.545521 1.519883 0.106235 -0.035340 539881.000000 0 0 1
-1.099477 28.007542 -0.044815 28.029150 -1.531560 1.572395 0.097958 -0.035474 -129222.000000 0 0 1
-1.700377 29.199642 -0.488415 29.253187 -1.512629 1.587493 0.104040 -0.034920 -135182.000000 0 0 1
-1.390477 29.518942 -1.843615 29.609125 -1.523727 1.633102 0.088515 -0.029323 -506576.000000 0 0 1
-2.286477 30.667342 -2.394515 30.845543 -1.496377 1.648504 0.105970 -0.026818 782529.000000 0 0 1
-3.555077 30.169342 -2.866415 30.513015 -1.453500 1.664876 0.095218 -0.026645 559266.000000 0 0 1
-3.588777 29.300942 -4.024815 29.793014 -1.448923 1.706303 0.071348 -0.025416 -942127.000000 0 0 1
-4.970577 29.095942 -4.646615 29.880956 -1.401596 1.726934 0.077871 -0.022252 -239998.000000 0 0 1
-5.622677 30.206742 -5.219615 31.165785 -1.386763 1.739068 0.080818 -0.022566 -231294.000000 0 0 1
-6.612377 29.763642 -6.106115 31.094735 -1.352184 1.768452 0.081604 -0.026494 -241469.000000 0 0 1
-7.317977 30.957742 -6.777015 32.524798 -1.338671 1.780699 0.082144 -0.023692 33044.400000 0 0 1
-8.211777 31.682042 -5.955415 33.266380 -1.317184 1.750789 0.072448 -0.020323 -179867.000000 0 0 1
-8.569077 32.919542 -6.565615 34.644374 -1.316144 1.761464 0.064555 -0.033663 65044.900000 0 0 1
-9.780477 33.530242 -5.789515 35.404143 -1.286980 1.735061 0.065821 -0.032691 1337020.000000 0 0 1
-11.074677 32.974642 -6.100415 35.315585 -1.246779 1.744407 0.078367 -0.024774 773450.000000 0 0 1
-12.100577 33.766842 -5.481815 36.286001 -1.226696 1.722449 0.074838 -0.022411 333588.000000 0 0 1
-13.515577 33.244842 -5.748115 36.344617 -1.184659 1.729619 0.097690 -0.023495 -192343.000000 0 0 1
-13.760577 33.191642 -7.130015 36.631622 -1.177785 1.766688 0.078697 -0.021373 598008.000000 0 0 1
-15.166377 32.983642 -7.333015 37.036641 -1.139810 1.770107 0.113126 -0.028280 344626.000000 0 0 1
-15.598877 32.864942 -8.768815 37.420870 -1.127645 1.807325 0.150740 -0.038009 512365.000000 0 0 1
-16.995777 32.650042 -8.969715 37.885848 -1.090849 1.809822 0.200091 -0.042754 481987.000000 0 0 1
-17.717777 33.833242 -9.210015 39.286541 -1.088385 1.807430 0.191567 -0.048576 -1170690.000000 0 0 1
-19.210877 33.627142 -9.551815 39.888340 -1.051754 1.812610 0.188315 -0.050945 221926.000000 0 0 1
-20.000177 32.970842 -8.562815 39.501966 -1.025537 1.789300 0.186599 -0.049578 185128.000000 0 0 1
-20.024777 33.618142 -7.285715 39.802673 -1.033579 1.754880 0.162235 -0.032958 -737339.000000 0 0 1
-20.948577 32.904442 -6.216015 39.499165 -1.003864 1.728824 0.165603 -0.036350 -135314.000000 0 0 1
-20.825677 33.472342 -4.897815 39.725245 -1.014231 1.694403 0.153350 -0.037770 202258.000000 0 0 1
-21.884277 33.108642 -4.041415 39.892816 -0.986738 1.672277 0.135135 -0.036946 -146527.000000 0 0 1
-23.185377 -33.774805 -4.148815 41.176593 0.969209 1.671724 0.157669 -0.047435 -280965.000000 0 0 1
-23.881077 33.704442 -5.383115 41.656610 -0.954359 1.700385 0.173344 -0.053120 747406.000000 0 0 1
-25.145557 -33.281205 -5.431915 42.064752 0.923754 1.700290 0.173813 -0.071914 780979.000000 0 0 1
-25.636227 -33.043905 -6.846415 42.379113 0.910972 1.733059 0.226413 -0.056744 -157951.000000 0 0 1
-24.816277 -32.113605 -7.543615 41.279987 0.912884 1.754572 0.254508 -0.045736 12747.200000 0 0 1
-24.874177 -32.074005 -8.974115 41.569234 0.911159 1.788393 0.214294 -0.045902 -324974.000000 0 0 1
-26.138297 -31.479105 -9.636215 42.035714 0.877828 1.802092 0.180632 -0.033539 -1681550.000000 0 0 1
-27.224087 -32.322005 -9.347415 43.280909 0.870803 1.788482 0.161449 -0.020597 234138.000000 0 0 1
-28.468897 -31.956605 -9.965715 43.943352 0.843053 1.799572 0.080865 -0.015409 809057.000000 0 0 1
-29.053867 -30.587805 -9.587115 43.262614 0.811112 1.794254 0.050950 0.003338 -1676670.000000 0 0 1
-28.325967 -29.478205 -10.032915 42.094944 0.805329 1.811453 0.079587 0.006475 -492844.000000 0 0 1
-28.568787 -29.230705 -11.427115 42.440413 0.796850 1.843411 0.076224 -0.003689 -251301.000000 0 0 1
-27.678397 -28.163805 -12.127715 41.308293 0.794090 1.868777 0.135521 -0.009022 -48591.600000 0 0 1
-26.372237 -28.658205 -12.335215 40.852725 0.826914 1.877527 0.142238 -0.024421 -364628.000000 0 0 1
-25.605117 -27.776205 -13.109315 39.987419 0.826047 1.904808 0.128670 -0.028276 817185.000000 0 0 1
-24.156677 -28.364805 -13.388215 39.589790 0.865349 1.915772 0.151568 -0.038460 914127.000000 0 0 1
-24.123077 -29.616505 -14.141115 40.731208 0.887267 1.925360 0.165701 -0.055932 -79805.700000 0 0 1
-24.480377 -30.795605 -13.471115 41.582798 0.899154 1.900707 0.165355 -0.057006 -189761.000000 0 0 1
-24.474077 -32.054905 -14.386915 42.819163 0.918708 1.913455 0.179634 -0.052276 -212351.000000 0 0 1
-24.950877 -33.238805 -13.774215 43.784625 0.926876 1.890821 0.161692 -0.059569 -64070.800000 0 0 1
-24.714877 33.230742 -14.549315 43.895215 -0.931317 1.908642 0.158903 -0.052255 -100345.000000 0 0 1
-25.173877 31.965842 -13.774415 42.956648 -0.903709 1.897221 0.130707 -0.057377 -109576.000000 0 0 1
-24.349677 31.587242 -12.702815 41.857164 -0.914071 1.879139 0.140014 -0.058886 23571.100000 0 0 1
-24.404577 32.451942 -11.560115 42.217866 -0.926002 1.848159 0.191357 -0.054529 -281422.000000 0 0 1
-23.704677 31.880942 -10.366015 41.058013 -0.931444 1.826031 0.195960 -0.052412 -246850.000000 0 0 1
-24.535177 31.052842 -9.610515 40.726108 -0.902115 1.809022 0.177431 -0.047215 206221.000000 0 0 1
-23.859077 30.687242 -8.429115 39.774519 -0.909931 1.784338 0.165492 -0.038147 227340.000000 0 0 1
-24.667777 29.581242 -7.729415 39.284768 -0.875724 1.768842 0.148076 -0.023207 156276.000000 0 0 1
-24.822177 28.391642 -8.513715 38.661469 -0.852376 1.792828 0.153419 -0.010196 180774.000000 0 0 1
-25.556837 27.328642 -7.934415 38.248680 -0.818888 1.779757 0.133987 -0.004062 196755.000000 0 0 1
-24.637977 26.182542 -7.360715 36.697896 -0.815781 1.772742 0.134932 -0.001759 205158.000000 0 0 1
-23.845777 26.764442 -6.339415 36.402536 -0.843004 1.745836 0.129913 0.001381 -46301.200000 0 0 1
-22.992377 25.791542 -5.745915 35.026684 -0.842714 1.735585 0.113074 -0.008604 460421.000000 0 0 1
-21.619477 26.373842 -5.267015 34.506851 -0.884139 1.724032 0.104490 -0.027896 485237.000000 0 0 1
-20.691977 26.502542 -6.327515 34.213741 -0.907901 1.756808 0.122072 -0.022126 181421.000000 0 0 1
-19.546277 27.279342 -5.955915 34.083609 -0.949067 1.746442 0.134316 -0.025807 602720.000000 0 0 1
-18.486677 27.230842 -7.096115 33.669435 -0.974381 1.783147 0.144388 -0.032530 -318672.000000 0 0 1
-18.721477 27.878042 -8.297015 34.590741 -0.979421 1.813020 0.156049 -0.039589 -150016.000000 0 0 1
-18.996877 29.229542 -8.369915 35.851122 -0.994477 1.806434 0.167674 -0.039408 -120486.000000 0 0 1
-18.797577 29.846442 -9.777815 36.602796 -1.008746 1.841213 0.173685 -0.041149 204325.000000 0 0 1
-17.502677 29.698142 -10.347615 35.991617 -1.038243 1.862413 0.152052 -0.043259 80154.700000 0 0 1
-17.299377 30.489942 -11.488015 36.890100 -1.054708 1.887475 0.162189 -0.045677 732779.000000 0 0 1
-15.818077 30.563142 -12.022215 36.453407 -1.093204 1.906885 0.144600 -0.042400 916325.000000 0 0 1
-15.623677 31.301542 -13.228815 37.401703 -1.107841 1.932315 0.142661 -0.040992 -147741.000000 0 0 1
-16.066777 30.690142 -14.476515 37.544582 -1.088513 1.966635 0.154395 -0.045127 -55603.100000 0 0 1
-15.540677 31.411242 -15.693215 38.398643 -1.111358 1.991817 0.177548 -0.047452 839190.000000 0 0 1
-14.146477 31.146342 -15.922315 37.732447 -1.144460 2.006424 0.177122 -0.053675 466228.000000 0 0 1
-13.629777 31.768742 -17.041815 38.541500 -1.165516 2.028811 0.163901 -0.055268 -873396.000000 0 0 1
-12.116477 31.774642 -17.037915 38.035870 -1.206492 2.035260 0.168395 -0.059020 -1100020.000000 0 0 1
-11.507877 30.528942 -17.119515 36.844610 -1.210317 2.054025 0.174867 -0.069014 -494523.000000 0 0 1
-10.181577 30.554442 -17.567715 36.686006 -1.249141 2.070160 0.165814 -0.066203 -57739.000000 0 0 1
-10.034977 30.574442 -19.108515 37.425026 -1.253660 2.106657 0.161246 -0.072372 -354547.000000 0 0 1
-10.631577 29.485842 -19.791915 37.069734 -1.224740 2.134015 0.162185 -0.079278 240737.000000 0 0 1
-10.306377 29.486242 -21.170915 37.734169 -1.234539 2.166455 0.139376 -0.082393 -60271.200000 0 0 1
-11.544177 28.928242 -21.958015 38.108603 -1.191098 2.184863 0.140394 -0.071894 1072040.000000 0 0 1
-12.492377 29.983942 -22.239515 39.366131 -1.176032 2.171157 0.156998 -0.073658 765279.000000 0 0 1
-13.554677 30.111142 -21.277215 39.282693 -1.147814 2.143187 0.163735 -0.070117 331580.000000 0 0 1
-14.312577 31.446742 -21.507615 40.697972 -1.143679 2.127592 0.190165 -0.071041 229913.000000 0 0 1
-15.001077 31.680042 -22.741115 41.782959 -1.128558 2.146312 0.141777 -0.056471 250193.000000 0 0 1
-15.606777 32.984942 -22.744015 42.998466 -1.128860 2.128158 0.132425 -0.058609 -24434.300000 0 0 1
-16.179677 33.385742 -24.105515 44.243254 -1.119521 2.146995 0.123888 -0.045393 161290.000000 0 0 1
-15.204077 33.527342 -25.129915 44.573077 -1.145050 2.169765 0.133804 -0.041040 328058.000000 0 0 1
-15.777377 33.410542 -26.457715 45.444478 -1.129613 2.192227 0.126898 -0.031989 331662.000000 0 0 1
-16.468077 -33.058705 -27.134315 45.829538 1.108633 2.204422 0.109893 -0.021956 -59046.800000 0 0 1
-17.826277 -32.919405 -26.816815 46.050026 1.074493 2.192402 0.108105 -0.018371 -473154.000000 0 0 1
-18.373977 -31.840605 -27.523515 45.923534 1.047414 2.213465 0.097477 -0.005913 613771.000000 0 0 1
-19.854677 -31.480805 -27.150215 46.069333 1.008115 2.201030 0.112653 -0.014533 1006590.000000 0 0 1
-20.766277 -32.530205 -27.492415 47.384442 1.002641 2.189770 0.109476 -0.021257 489801.000000 0 0 1
-22.107177 -32.107305 -27.195615 47.531124 0.967803 2.179939 0.095615 -0.012997 1273160.000000 0 0 1
-23.247777 -33.164005 -27.221615 48.798839 0.959403 2.162569 0.066833 -0.010985 393412.000000 0 0 1
-23.418477 33.541542 -26.180515 48.568297 -0.961284 2.140100 0.102014 -0.021398 413919.000000 0 0 1
-24.511277 32.619242 -26.429215 48.614000 -0.926377 2.145581 0.067962 -0.014009 1209550.000000 0 0 1
-23.989377 31.360142 -27.164515 47.925563 -0.917787 2.173421 0.064087 -0.011353 -8168.490000 0 0 1
-23.240077 30.387142 -26.492515 46.533138 -0.917890 2.176482 0.079117 -0.035278 -407588.000000 0 0 1
-23.935577 29.431342 -25.685515 45.813332 -0.888017 2.165974 0.056078 -0.025933 -394621.000000 0 0 1
33.588324 9.881042 -26.113583 43.677565 0.286110 2.211640 0.046573 -0.022005 -411678.000000 0 0 1
33.111784 8.575842 -26.226173 43.101594 0.253428 2.224932 0.038052 -0.013678 233509.000000 0 0 1
31.687394 8.656942 -26.180403 42.005322 0.266690 2.243706 0.068967 -0.024996 331776.000000 0 0 1
31.038884 7.322442 -25.919813 41.095829 0.231676 2.253272 0.062823 -0.018163 -299659.000000 0 0 1
31.228084 6.877042 -24.593453 40.340114 0.216760 2.226418 0.045519 -0.004177 -8356.430000 0 0 1
30.346234 5.802742 -24.400753 39.369562 0.188937 2.239268 0.066245 -0.004250 21480.300000 0 0 1
30.202704 5.468042 -22.916253 38.304796 0.179105 2.212125 0.078836 -0.017077 283557.000000 0 0 1
31.429384 5.086842 -22.312553 38.878428 0.160458 2.182064 0.080948 -0.023083 397436.000000 0 0 1
31.193684 4.823942 -20.953453 37.886191 0.153429 2.156833 0.090578 -0.015216 885106.000000 0 0 1
32.574864 4.662542 -20.196153 38.610175 0.142168 2.121255 0.083631 -0.016354 926257.000000 0 0 1
33.232324 3.414042 -20.350153 39.117410 0.102373 2.117920 0.098306 -0.017668 202745.000000 0 0 1
34.141064 3.249442 -19.284553 39.345458 0.094891 2.083040 0.102912 -0.022552 -237134.000000 0 0 1
34.787694 1.876642 -19.242953 39.799455 0.053893 2.075443 0.114817 -0.024846 255571.000000 0 0 1
33.837814 0.924542 -18.734353 38.688866 0.027316 2.076280 0.112836 -0.022823 305675.000000 0 0 1
34.337844 -0.391258 -18.721253 39.111710 -0.011394 2.069925 0.120775 -0.021341 -231735.000000 0 0 1
33.381174 -1.602558 -18.444053 38.171377 -0.047971 2.075092 0.102221 -0.017356 59512.300000 0 0 1
33.033194 -1.798658 -17.084753 37.233262 -0.054396 2.047505 0.093545 -0.021142 901299.000000 0 0 1
31.658954 -1.389258 -16.911253 35.919491 -0.043854 2.061005 0.095428 -0.032392 633295.000000 0 0 1
31.165174 -1.566858 -15.488753 34.837115 -0.050234 2.031529 0.105851 -0.025232 -223568.000000 0 0 1
30.882544 -2.901858 -15.150153 34.520710 -0.093689 2.025139 0.084999 -0.024057 149311.000000 0 0 1
30.070264 -2.956058 -14.008353 33.304549 -0.097990 2.004918 0.086241 -0.029059 -222132.000000 0 0 1
29.913664 -4.399258 -13.408853 33.075339 -0.146018 1.988216 0.076970 -0.035628 -23248.500000 0 0 1
29.170664 -5.205158 -14.300653 32.901823 -0.176580 2.020442 0.057168 -0.028418 444881.000000 0 0 1
29.104064 -6.554758 -13.835053 32.884952 -0.221522 2.005025 0.063115 -0.025811 -273664.000000 0 0 1
28.649264 -7.481358 -14.944153 33.167435 -0.255432 2.038197 0.054745 -0.014130 -11738.100000 0 0 1
27.277864 -7.354058 -15.271953 32.115363 -0.263337 2.066367 0.068681 -0.009821 107853.000000 0 0 1
26.870564 -8.367858 -16.140253 32.443119 -0.301895 2.091504 0.069507 -0.004298 -545888.000000 0 0 1
25.468764 -8.080058 -16.662553 31.489457 -0.307210 2.128391 0.056239 -0.009623 -505094.000000 0 0 1
25.349764 -7.034058 -17.600753 31.652409 -0.270671 2.160438 0.056525 -0.009536 489776.000000 0 0 1
24.023664 -6.960058 -18.135253 30.894437 -0.281996 2.198153 0.121281 -0.014753 617568.000000 0 0 1
23.809864 -7.198658 -19.613053 31.676523 -0.293602 2.238478 0.074903 -0.009083 -331156.000000 0 0 1
24.350164 -6.243458 -20.426653 32.390730 -0.250996 2.253164 0.075089 -0.006032 60739.000000 0 0 1
24.013164 -6.513458 -21.759553 33.053522 -0.264872 2.289371 0.087677 -0.016011 -35743.200000 0 0 1
24.406664 -5.349758 -22.699853 33.757791 -0.215780 2.308287 0.085733 -0.014872 -46055.100000 0 0 1
24.394164 -5.806258 -24.073553 34.760952 -0.233670 2.335809 0.103830 -0.024177 208184.000000 0 0 1
24.493364 -4.774158 -25.044353 35.354449 -0.192503 2.357995 0.105230 -0.031731 -83819.000000 0 0 1
24.587164 -5.384958 -26.432753 36.499545 -0.215611 2.380661 0.112073 -0.035053 -159157.000000 0 0 1
23.414964 -6.064458 -26.825923 36.120192 -0.253430 2.407867 0.115276 -0.029349 -295803.000000 0 0 1
23.293664 -6.286958 -28.188853 37.104340 -0.263619 2.433676 0.102942 -0.031129 130167.000000 0 0 1
21.956264 -6.935058 -28.623043 36.734876 -0.305941 2.464151 0.076795 -0.038407 204065.000000 0 0 1
21.873464 -8.284358 -28.206393 36.642593 -0.362046 2.449278 0.071146 -0.031301 -398354.000000 0 0 1
20.572664 -8.780258 -28.230793 36.018121 -0.403388 2.471548 0.065294 -0.040632 -550233.000000 0 0 1
20.557064 -10.265258 -27.748633 36.027143 -0.463131 2.449974 0.096036 -0.030675 93343.700000 0 0 1
19.302564 -10.825358 -27.383423 35.208368 -0.511116 2.461880 0.109451 -0.032713 399139.000000 0 0 1
19.469064 -12.115358 -26.910943 35.355695 -0.556646 2.435879 0.111381 -0.031816 -403082.000000 0 0 1
19.477564 -13.298758 -27.950343 36.571220 -0.599071 2.440707 0.105566 -0.020029 -143351.000000 0 0 1
18.247864 -13.581758 -28.573883 36.522807 -0.639839 2.469238 0.105793 -0.024261 102610.000000 0 0 1
18.413964 -14.627058 -29.466253 37.699933 -0.671284 2.468022 0.086659 -0.021972 -49477.600000 0 0 1
17.246764 -14.724958 -30.479453 37.990424 -0.706685 2.501923 0.065530 -0.021515 1215700.000000 0 0 1
16.020764 -15.344158 -29.966853 37.284317 -0.763829 2.504349 0.046504 -0.023678 1075700.000000 0 0 1
15.182564 -15.614558 -31.052513 37.928659 -0.799424 2.529954 0.039000 -0.022134 71878.600000 0 0 1
13.844764 -16.275458 -30.575263 37.301672 -0.865923 2.531640 0.045960 -0.030694 447441.000000 0 0 1
14.010864 -17.572358 -30.062893 37.534911 -0.897689 2.499646 0.035462 -0.025142 -334447.000000 0 0 1
12.989864 -17.790558 -29.150313 36.537395 -0.940118 2.494469 0.038070 -0.024074 -404861.000000 0 0 1
13.185264 -19.059758 -28.331953 36.603621 -0.965605 2.455963 0.044060 -0.019034 243102.000000 0 0 1
14.181764 -18.978958 -27.309473 36.154261 -0.929066 2.426999 0.045470 -0.018717 213997.000000 0 0 1
14.243464 -20.151958 -26.500623 36.211333 -0.955519 2.391803 0.058341 -0.014849 385718.000000 0 0 1
15.331464 -20.061758 -25.383603 35.803005 -0.918261 2.358847 0.051300 -0.007401 901314.000000 0 0 1
16.693064 -20.367058 -25.723693 36.812821 -0.884211 2.344473 0.067275 -0.014185 585889.000000 0 0 1
17.396464 -20.267958 -24.522653 36.259999 -0.861490 2.313525 0.071941 -0.004954 366745.000000 0 0 1
18.943464 -20.541458 -24.565553 37.205815 -0.825847 2.291963 0.070266 -0.008086 757062.000000 0 0 1
19.421764 -21.876358 -24.854553 38.386570 -0.844764 2.275070 0.079543 -0.016826 254077.000000 0 0 1
19.137364 -22.899958 -23.937653 38.257783 -0.874666 2.246817 0.080310 -0.023274 -647102.000000 0 0 1
19.985864 -24.168358 -24.100253 39.552073 -0.879841 2.226011 0.068795 -0.016819 464621.000000 0 0 1
21.348164 -24.065658 -23.654653 39.930472 -0.845165 2.204826 0.087804 -0.018151 862704.000000 0 0 1
21.822364 -25.361248 -23.250953 40.743285 -0.860260 2.178117 0.095742 -0.030973 -136802.000000 0 0 1
21.739764 -25.605558 -21.690953 39.984489 -0.866868 2.144188 0.105651 -0.028769 1520850.000000 0 0 1
20.352864 -25.806508 -21.255153 39.140726 -0.903001 2.144855 0.081986 -0.021585 1655290.000000 0 0 1
20.285464 -25.820848 -19.830953 38.359913 -0.904883 2.114105 0.080996 -0.022453 1166040.000000 0 0 1
18.960664 -26.498608 -19.265453 37.852882 -0.949721 2.104768 0.072886 -0.017940 145595.000000 0 0 1
19.053664 -27.896918 -19.342253 38.928176 -0.971569 2.090785 0.085756 -0.020663 82482.700000 0 0 1
18.025164 -28.643978 -18.694753 38.663649 -1.009123 2.075471 0.080527 -0.016979 1602480.000000 0 0 1
16.577664 -28.408968 -19.328953 38.150974 -1.042570 2.102084 0.094901 -0.018407 713093.000000 0 0 1
15.873064 -27.282318 -18.820653 36.749095 -1.043861 2.108470 0.087582 -0.015928 657721.000000 0 0 1
14.534364 -27.262058 -19.374453 36.466930 -1.080993 2.130917 0.087398 -0.010631 1401690.000000 0 0 1
13.498664 -26.389538 -18.604853 34.996602 -1.097979 2.131307 0.066593 -0.013525 -25002.800000 0 0 1
12.840964 -27.067368 -17.535353 34.713417 -1.127831 2.100348 0.073189 -0.010885 -96089.700000 0 0 1
11.964064 -26.231718 -16.820853 33.379379 -1.142888 2.098938 0.078610 -0.011419 420786.000000 0 0 1
10.502464 -26.171208 -17.344453 33.106856 -1.189171 2.122211 0.086740 -0.013784 176948.000000 0 0 1
9.676764 -27.278498 -16.934653 33.534142 -1.229905 2.100175 0.095123 -0.007844 938096.000000 0 0 1
8.286564 -26.894328 -16.937453 32.845842 -1.271911 2.112580 0.097518 -0.001503 1181050.000000 0 0 1
7.354464 -27.603768 -17.920053 33.722165 -1.310415 2.131052 0.092721 -0.004460 -82184.400000 0 0 1
7.699464 -27.328188 -19.249653 34.302489 -1.296174 2.166599 0.100053 -0.010819 -323868.000000 0 0 1
7.092064 -28.198978 -20.172953 35.389656 -1.324406 2.177331 0.085545 -0.014017 73642.700000 0 0 1
7.090264 -27.585248 -21.576053 35.731552 -1.319211 2.219103 0.084414 -0.021135 214414.000000 0 0 1
6.193764 -26.470338 -21.565253 34.700167 -1.340943 2.241419 0.076547 -0.016633 165824.000000 0 0 1
6.266364 -25.624978 -22.665253 34.779599 -1.330962 2.280597 0.065864 -0.012681 -170388.000000 0 0 1
4.980664 -24.766058 -22.855653 34.066780 -1.372335 2.306228 0.049640 -0.012052 -574176.000000 0 0 1
3.967164 -25.614608 -23.262353 34.827914 -1.417138 2.302210 0.050701 -0.012873 -1229590.000000 0 0 1
2.983764 -24.882258 -23.927953 34.649337 -1.451451 2.333080 0.050896 -0.014339 -168440.000000 0 0 1
1.812164 -25.768448 -24.403053 35.535979 -1.500587 2.327755 0.037503 -0.015006 239477.000000 0 0 1
2.274364 -26.716548 -25.334153 36.888561 -1.485872 2.327840 0.063789 -0.018217 -556581.000000 0 0 1
1.193764 -27.132678 -26.080943 37.653989 -1.526827 2.335950 0.071119 -0.034203 -408319.000000 0 0 1
1.610864 -28.092828 -27.183803 39.124941 -1.513518 2.338931 0.080800 -0.031794 -241675.000000 0 0 1
2.275464 -27.617408 -28.340203 39.636675 -1.488590 2.367420 0.082925 -0.029284 -38330.800000 0 0 1
2.469264 -28.744228 -29.181763 41.035389 -1.485102 2.361910 0.108017 -0.042284 589389.000000 0 0 1
3.989364 -29.084788 -29.068373 41.313560 -1.434484 2.351253 0.100297 -0.037442 295611.000000 0 0 1
4.484064 -29.752168 -27.885273 41.023003 -1.421208 2.318214 0.090248 -0.052528 -365228.000000 0 0 1
5.702164 -30.367358 -28.181633 41.819798 -1.385185 2.310248 0.116760 -0.052037 -480566.000000 0 0 1
5.941064 -31.659228 -27.370373 42.269850 -1.385297 2.275116 0.138265 -0.066307 -210587.000000 0 0 1
4.908264 -32.619638 -27.419633 42.894849 -1.421447 2.264292 0.132806 -0.076838 145740.000000 0 0 1
5.338464 33.802399 -26.823043 43.480766 1.414159 2.235587 0.137640 -0.082309 -58517.400000 0 0 1
4.161264 32.896362 -26.433563 42.405424 1.444968 2.243820 0.149288 -0.078825 -712949.000000 0 0 1
3.392364 32.527025 -27.506193 42.732963 1.466878 2.270089 0.129369 -0.078126 90254.200000 0 0 1
2.208964 31.883468 -26.996833 41.836157 1.501624 2.272211 0.096159 -0.077136 558536.000000 0 0 1
1.053864 31.889055 -28.031303 42.470889 1.537761 2.291631 0.103154 -0.055606 -234603.000000 0 0 1
1.299664 31.166099 -29.227083 42.746195 1.529119 2.323666 0.123812 -0.065341 484927.000000 0 0 1
0.130664 31.394119 -30.010763 43.431022 1.566634 2.333666 0.118811 -0.060323 364223.000000 0 0 1
-0.113236 30.344399 -31.102413 43.452911 -1.567065 2.368526 0.117298 -0.055822 194667.000000 0 0 1
0.973064 30.169529 -32.003103 43.992566 1.538554 2.385418 0.136388 -0.056624 133200.000000 0 0 1
0.663964 29.162999 -32.955523 44.011224 1.548033 2.417043 0.158354 -0.052377 52304.400000 0 0 1
1.878164 28.766369 -33.831593 44.447814 1.505599 2.435886 0.151183 -0.043250 -8366.030000 0 0 1
2.242564 29.873889 33.112310 44.653146 1.495869 0.735426 0.149100 -0.049072 -357523.000000 0 0 1
3.370764 29.634289 32.317525 43.976989 1.457538 0.745316 0.122550 -0.046109 -190866.000000 0 0 1
3.087964 28.811889 31.050415 42.471034 1.464027 0.750869 0.127423 -0.039622 -371101.000000 0 0 1
2.801964 27.430109 31.093185 41.557768 1.469000 0.725464 0.131868 -0.044703 245095.000000 0 0 1
3.840364 26.551049 31.538925 41.405439 1.427152 0.704849 0.112627 -0.034466 98970.400000 0 0 1
3.354664 25.106609 31.788069 40.645749 1.437966 0.672806 0.116911 -0.042403 -215441.000000 0 0 1
2.906864 24.509649 30.634625 39.340221 1.452747 0.678189 0.118271 -0.029387 -76149.400000 0 0 1
2.927164 23.124309 30.645025 38.502202 1.444882 0.650255 0.100580 -0.019627 -287580.000000 0 0 1
2.007364 22.479189 29.630335 37.246479 1.481734 0.650930 0.085582 -0.009346 -723418.000000 0 0 1
0.677064 22.378889 30.022965 37.451990 1.540551 0.640765 0.083770 -0.013002 -734996.000000 0 0 1
-0.044136 21.557989 29.095195 36.211590 -1.568749 0.637683 0.088171 -0.012446 -170867.000000 0 0 1
-1.473236 21.261889 29.547075 36.431690 -1.501617 0.624891 0.077550 -0.007479 -599192.000000 0 0 1
-2.254036 22.441589 29.668895 37.268605 -1.470692 0.650002 0.086485 -0.011445 -123690.000000 0 0 1
-3.557836 22.031389 30.006855 37.395878 -1.410689 0.639472 0.056950 -0.012942 -536275.000000 0 0 1
-4.577336 23.098049 30.304615 38.377618 -1.375161 0.660569 0.026051 -0.017344 -365690.000000 0 0 1
-4.626936 23.543969 31.648325 39.715784 -1.376746 0.648699 0.038665 -0.013924 -8040.540000 0 0 1
-5.651936 24.498899 31.777500 40.520982 -1.344062 0.669353 0.025335 -0.019180 -260143.000000 0 0 1
-5.771336 25.032579 33.259418 42.025317 -1.344203 0.657678 0.056695 -0.019726 355453.000000 0 0 1
-6.847836 25.951789 33.503947 42.929043 -1.312809 0.675412 0.048013 -0.014499 302329.000000 0 0 1
-6.926436 26.270109 -32.868353 42.642968 -1.313001 2.450861 0.052971 -0.013000 -141644.000000 0 0 1
-8.357936 26.611919 -32.419113 42.767373 -1.266484 2.431089 0.082700 -0.014480 -436954.000000 0 0 1
-8.821836 27.810089 -32.991733 44.041801 -1.263620 2.417499 0.071549 -0.018182 299252.000000 0 0 1
-10.084736 28.345109 -32.598563 44.360043 -1.228978 2.396261 0.080061 -0.021889 487618.000000 0 0 1
-10.254136 28.666829 -31.087233 43.512647 -1.227278 2.366622 0.082625 -0.013156 -34768.700000 0 0 1
-9.400236 29.761039 -30.676533 43.762239 -1.264856 2.347570 0.094607 -0.016411 479483.000000 0 0 1
-9.308636 30.028649 -29.323223 42.990951 -1.270198 2.321398 0.113149 -0.020260 -53657.200000 0 0 1
-8.620036 31.374339 -28.898743 43.517715 -1.302664 2.297044 0.102995 -0.019530 1496390.000000 0 0 1
-7.179136 31.295229 -29.025533 43.282940 -1.345298 2.305813 0.083760 -0.020707 1059410.000000 0 0 1
-6.487636 32.483532 -28.624073 43.779068 -1.373669 2.283432 0.085011 -0.020023 813567.000000 0 0 1
-4.934336 32.194666 -28.533743 43.301486 -1.418714 2.290225 0.095868 -0.028175 877364.000000 0 0 1
-4.237436 33.403626 -28.189173 43.913410 -1.444615 2.267804 0.104928 -0.037019 48074.200000 0 0 1
-4.047536 -33.197218 -29.133083 44.352839 1.449471 2.287427 0.102122 -0.037769 -416926.000000 0 0 1
-3.240836 -33.562668 -30.410013 45.406217 1.474534 2.304645 0.097301 -0.050039 -536109.000000 0 0 1
-3.926736 33.275907 -31.291313 45.845954 -1.453334 2.322017 0.089633 -0.042509 181575.000000 0 0 1
-4.908836 -33.775978 -32.147243 46.886657 1.426472 2.326275 0.111188 -0.039330 486182.000000 0 0 1
-4.504636 -32.542418 -33.064443 46.610708 1.433247 2.359407 0.071663 -0.045659 -434654.000000 0 0 1
-4.122536 -31.287268 -32.578673 45.357010 1.439787 2.372112 0.076864 -0.045270 35400.700000 0 0 1
-3.338236 -30.540148 -33.469043 45.431501 1.461922 2.398962 0.087364 -0.057745 -20761.500000 0 0 1
34.286814 18.095842 13.369985 41.009775 0.485623 1.238706 0.115077 -0.036333 -88449.700000 0 0 1
35.591904 17.635342 13.160685 41.844863 0.460031 1.250854 0.131542 -0.047123 -377733.000000 0 0 1
35.726394 16.383042 13.809385 41.659073 0.429958 1.232918 0.150665 -0.026367 512372.000000 0 0 1
37.230964 16.020942 14.088285 42.910314 0.406362 1.236273 0.135507 -0.049651 857895.000000 0 0 1
-37.184587 15.668842 12.922985 42.369915 -0.398800 1.260854 0.138959 -0.029373 14969.700000 0 0 1
-37.333947 14.365942 12.522685 41.916841 -0.367331 1.267413 0.173710 -0.048090 -238079.000000 0 0 1
-35.955508 13.759642 12.094785 40.353564 -0.365491 1.266397 0.177433 -0.038751 1056870.000000 0 0 1
-35.093303 13.164442 13.073685 39.695890 -0.358882 1.235185 0.149650 -0.036498 520421.000000 0 0 1
-35.606015 11.939842 13.567985 39.930419 -0.323548 1.224102 0.159159 -0.040758 77004.500000 0 0 1
-34.828161 11.517542 14.865485 39.580769 -0.319375 1.185781 0.189765 -0.048763 265344.000000 0 0 1
-35.194641 12.264942 16.029985 40.571567 -0.335328 1.164615 0.193742 -0.042308 154728.000000 0 0 1
-34.888463 11.654242 17.292385 40.645453 -0.322389 1.131343 0.200802 -0.030504 -84353.100000 0 0 1
-35.016096 12.497542 18.576485 41.562018 -0.342816 1.107434 0.191885 -0.036565 379848.000000 0 0 1
-36.381397 12.839942 18.800585 42.917737 -0.339279 1.117356 0.209132 -0.052767 539618.000000 0 0 1
-36.489577 13.504042 20.042385 43.766947 -0.354450 1.095126 0.220761 -0.046427 106845.000000 0 0 1
37.255494 13.436542 20.695785 44.685882 0.346139 1.089262 0.204475 -0.067801 183535.000000 0 0 1
36.972864 12.141042 21.178385 44.304871 0.317283 1.072403 0.175534 -0.053102 157789.000000 0 0 1
35.819964 12.039742 21.987085 43.720214 0.324255 1.043841 0.184995 -0.063543 -1986.810000 0 0 1
35.848544 10.809042 22.902915 43.891879 0.292850 1.021833 0.170307 -0.057450 -174848.000000 0 0 1
36.939584 10.762142 23.791175 45.236894 0.283497 1.016995 0.155621 -0.040497 -217242.000000 0 0 1
36.822154 11.567442 24.922775 45.943677 0.304381 0.997429 0.153536 -0.030624 -973685.000000 0 0 1
-37.022247 11.792142 25.720955 46.596877 -0.308355 0.986049 0.134792 -0.024503 246487.000000 0 0 1
-36.173287 12.670042 24.994985 45.757906 -0.336906 0.992923 0.144117 -0.033880 56625.800000 0 0 1
-35.330654 12.090242 23.991515 44.384929 -0.329712 0.999726 0.138345 -0.033027 -105889.000000 0 0 1
-34.084880 13.001842 23.743885 43.526992 -0.364418 0.993813 0.135571 -0.034650 740913.000000 0 0 1
-33.058197 13.291942 24.686335 43.346687 -0.382296 0.964888 0.092799 -0.030579 376080.000000 0 0 1
-33.535347 13.874142 25.903815 44.588328 -0.392275 0.950895 0.096748 -0.025229 -1232270.000000 0 0 1
-32.575917 14.417642 26.940925 44.663993 -0.416671 0.923300 0.085018 -0.019671 -985213.000000 0 0 1
-32.162667 15.718742 26.623735 44.613219 -0.454588 0.931329 0.117154 -0.025530 -77503.000000 0 0 1
-31.787217 16.411642 27.798165 45.304604 -0.476600 0.910205 0.118717 -0.018153 -277139.000000 0 0 1
-31.110327 17.748342 27.404895 45.098608 -0.518443 0.917678 0.111128 -0.018095 146725.000000 0 0 1
-31.932777 18.674142 26.694015 45.617938 -0.529165 0.945713 0.111790 -0.030273 317490.000000 0 0 1
-31.103607 19.428842 25.853275 44.869880 -0.558347 0.956745 0.120075 -0.034397 70692.400000 0 0 1
-31.908697 20.307842 24.831525 45.245752 -0.566781 0.989851 0.145007 -0.023564 237909.000000 0 0 1
-32.511347 21.434342 25.487435 46.540607 -0.582877 0.991257 0.135508 -0.031165 380173.000000 0 0 1
-33.379947 22.136742 24.642305 47.026582 -0.585581 1.019246 0.125552 -0.018461 -282237.000000 0 0 1
-33.841647 23.494942 25.120405 48.252504 -0.606864 1.023239 0.117057 -0.021643 242342.000000 0 0 1
-34.830202 23.983242 24.212875 48.729890 -0.603018 1.050797 0.127618 -0.028742 271439.000000 0 0 1
-35.205929 25.352842 24.381575 49.766307 -0.624109 1.058797 0.125257 -0.014983 -40327.400000 0 0 1
-36.270727 25.817442 23.398705 50.295183 -0.618600 1.086905 0.131479 -0.011927 -146665.000000 0 0 1
-35.819505 25.691742 22.065185 49.294776 -0.622213 1.106698 0.123568 -0.022885 -352.220000 0 0 1
-36.812657 26.124442 21.179285 49.862013 -0.617179 1.132102 0.132388 -0.024291 -30216.600000 0 0 1
-36.401047 25.812342 19.750885 48.799700 -0.616814 1.154109 0.154964 -0.042347 98951.300000 0 0 1
-36.423307 24.445942 19.456185 47.987546 -0.591108 1.153334 0.155103 -0.043801 252947.000000 0 0 1
-35.829663 24.197742 18.174085 46.899817 -0.593994 1.172869 0.169415 -0.041107 147221.000000 0 0 1
-36.333347 22.806642 17.658185 46.390371 -0.560542 1.180304 0.165453 -0.046162 370052.000000 0 0 1
37.531114 22.844842 17.076485 47.138919 0.546785 1.200106 0.153882 -0.052243 -159103.000000 0 0 1
37.419344 21.886242 16.023585 46.216557 0.529236 1.216739 0.134329 -0.044415 307334.000000 0 0 1
36.023244 21.947442 15.322485 44.879203 0.547199 1.222373 0.127703 -0.032924 487983.000000 0 0 1
34.976284 21.412642 16.089185 44.053417 0.549345 1.196927 0.135118 -0.043282 599597.000000 0 0 1
33.737094 21.626042 15.372885 42.920890 0.570034 1.204491 0.130636 -0.036888 1624360.000000 0 0 1
32.396614 20.895542 15.780085 41.655436 0.572846 1.182271 0.111822 -0.044094 1018010.000000 0 0 1
31.911504 21.328442 17.003385 41.980491 0.589175 1.153784 0.117401 -0.031444 -679.998000 0 0 1
30.778074 22.171742 16.801585 41.486977 0.624270 1.153834 0.112742 -0.021224 243527.000000 0 0 1
30.172324 22.772142 18.095085 41.909088 0.646525 1.124342 0.101131 -0.017006 -310928.000000 0 0 1
31.060984 23.604642 18.738685 43.279350 0.649836 1.123011 0.064350 -0.023008 -527366.000000 0 0 1
30.469944 24.327242 19.844785 43.749831 0.673765 1.099999 0.071582 -0.014478 142690.000000 0 0 1
31.542674 24.897642 20.773785 45.236965 0.668202 1.093678 0.065076 -0.018568 -280085.000000 0 0 1
32.127224 26.079142 20.313885 46.097007 0.681862 1.114444 0.080559 -0.031193 -482305.000000 0 0 1
33.044384 26.393242 21.323885 47.362882 0.673961 1.103781 0.092192 -0.036665 -278167.000000 0 0 1
34.035224 27.493942 20.788885 48.440593 0.679484 1.127231 0.104105 -0.040228 1111500.000000 0 0 1
35.265574 27.741142 21.490485 49.750102 0.666538 1.124122 0.100214 -0.031532 994878.000000 0 0 1
34.983444 28.476742 22.699455 50.497836 0.683223 1.104576 0.078816 -0.025744 -607089.000000 0 0 1
36.161024 28.523842 23.653935 51.775842 0.667875 1.096342 0.064285 -0.027098 600737.000000 0 0 1
37.257094 29.427142 23.322825 52.896143 0.668515 1.114176 0.094908 -0.024581 407289.000000 0 0 1
-37.312567 29.798542 24.531845 53.684190 -0.673899 1.096215 0.106872 -0.015122 598854.000000 0 0 1
-35.969781 30.598942 24.309525 53.113778 -0.704891 1.095404 0.115301 -0.021740 557473.000000 0 0 1
-34.805233 29.858742 24.080025 51.795718 -0.709052 1.087270 0.114318 -0.020025 -957200.000000 0 0 1
-33.744127 30.734842 23.917875 51.530199 -0.738761 1.088119 0.115786 -0.017672 -46493.400000 0 0 1
-32.412937 29.982342 23.599695 50.064808 -0.746463 1.079938 0.124002 -0.016045 261419.000000 0 0 1
-32.147037 29.717342 22.242785 49.104928 -0.746144 1.100709 0.108136 -0.013151 227023.000000 0 0 1
-32.588807 28.378542 21.848985 48.422620 -0.716450 1.102671 0.119937 -0.012110 255173.000000 0 0 1
-32.024847 27.232642 22.767915 47.807799 -0.704703 1.074424 0.108835 -0.009047 -175482.000000 0 0 1
-30.627537 27.079442 22.611185 46.718390 -0.723991 1.065589 0.080251 -0.003641 -90902.800000 0 0 1
-30.067477 26.029942 23.291385 46.087956 -0.713548 1.040988 0.081557 -0.006065 -221804.000000 0 0 1
-29.746687 26.274542 24.754955 46.776327 -0.723498 1.013116 0.089062 -0.009128 -380768.000000 0 0 1
-30.892037 26.649242 25.504725 48.114354 -0.711797 1.012095 0.090428 -0.007702 154568.000000 0 0 1
-30.462537 27.163642 26.768665 48.809744 -0.728214 0.990312 0.104268 -0.010988 159873.000000 0 0 1
-31.599497 27.651842 27.726335 50.318011 -0.718871 0.987208 0.107583 -0.017398 249727.000000 0 0 1
-32.319257 26.503642 28.157165 50.396462 -0.686852 0.977963 0.093973 -0.007609 -23525.300000 0 0 1
-33.592567 26.840342 28.664945 51.677303 -0.674129 0.982805 0.098355 -0.004555 404788.000000 0 0 1
-34.436463 25.589042 29.103615 51.842931 -0.639057 0.974743 0.090656 -0.013570 282067.000000 0 0 1
-33.850737 24.955942 30.218155 51.786179 -0.635281 0.947743 0.077661 -0.007909 -95921.500000 0 0 1
-34.479018 23.714342 30.474165 51.767243 -0.602485 0.941376 0.065862 -0.020361 -56872.400000 0 0 1
-33.702617 22.763342 31.388005 51.373564 -0.594037 0.913504 0.059836 -0.023192 929876.000000 0 0 1
-32.469957 22.197642 30.861105 49.994412 -0.599659 0.905502 0.072528 -0.015351 1167670.000000 0 0 1
-31.818977 21.333242 31.810597 49.794263 -0.590622 0.877806 0.066920 -0.015202 -70519.400000 0 0 1
-30.606007 21.872642 32.553799 49.748266 -0.620492 0.857446 0.076863 -0.018129 -643425.000000 0 0 1
-30.850497 22.752042 33.599139 50.973628 -0.635449 0.851112 0.081330 -0.025852 275035.000000 0 0 1
-31.476817 22.238242 -32.956123 50.709323 -0.615072 2.278253 0.073634 -0.019603 -115578.000000 0 0 1
-30.518367 22.148742 -31.742713 49.290337 -0.627800 2.270505 0.090129 -0.013187 43536.600000 0 0 1
-30.259757 23.481942 -31.342953 49.491769 -0.659942 2.256601 0.068920 -0.010781 5720.330000 0 0 1
-29.391737 23.577042 -30.241963 48.314878 -0.676060 2.247126 0.105566 -0.015927 -115312.000000 0 0 1
-29.652737 24.840642 -29.406973 48.591279 -0.697321 2.220801 0.080782 -0.010668 -41428.800000 0 0 1
-29.317467 26.079542 -30.010113 49.399021 -0.727015 2.223711 0.086523 -0.010330 672256.000000 0 0 1
-30.378917 26.542242 -30.851813 50.785860 -0.718097 2.223691 0.050658 0.004673 264718.000000 0 0 1
-29.980247 27.869042 -31.521023 51.663078 -0.748919 2.227017 0.063968 -0.000519 20309.800000 0 0 1
-30.215427 29.049142 -30.762663 51.991981 -0.765721 2.203939 0.050004 -0.010932 1450.970000 0 0 1
-29.474537 30.146542 -31.267583 52.490228 -0.796669 2.208913 0.044008 -0.016984 -132189.000000 0 0 1
-29.717667 31.512942 -30.633063 53.052708 -0.814710 2.186347 0.032826 -0.008018 -52951.300000 0 0 1
-29.170307 31.696042 -29.338333 52.117978 -0.826871 2.168713 0.042965 -0.009482 86178.000000 0 0 1
-29.626777 32.917442 -28.780593 52.816914 -0.837963 2.147081 0.031763 -0.006393 -26489.800000 0 0 1
-29.054217 33.274542 -27.347133 51.953906 -0.853006 2.125125 0.021698 -0.002386 1421320.000000 0 0 1
-27.734217 -33.801105 -27.187783 51.486668 0.883673 2.127105 0.050930 -0.006273 1161600.000000 0 0 1
-27.552467 -32.376505 -27.384753 50.569766 0.865721 2.143045 0.047111 0.011911 -207211.000000 0 0 1
-28.061647 -31.473505 -26.276973 49.684171 0.842644 2.128077 0.048185 0.014797 1842910.000000 0 0 1
-29.511607 -31.254605 -26.250353 50.367314 0.814074 2.119027 0.036087 0.006283 1546090.000000 0 0 1
-29.872527 -30.226905 -25.345383 49.481533 0.791295 2.108563 0.039446 0.006643 885555.000000 0 0 1
-31.436447 -30.083105 -25.246963 50.305591 0.763403 2.096558 0.036869 0.008738 842864.000000 0 0 1
-31.887187 -29.366705 -26.397073 50.754325 0.744273 2.117759 0.027925 0.003044 322168.000000 0 0 1
-33.308317 -29.289905 -26.393253 51.613431 0.721292 2.107568 0.028177 -0.000376 139997.000000 0 0 1
-33.887757 -28.213005 -27.308843 51.866431 0.694271 2.125301 0.039757 -0.010143 -467365.000000 0 0 1
-35.273580 -28.381205 -27.401473 52.920308 0.677541 2.115059 0.050703 -0.018040 -646040.000000 0 0 1
-35.848235 -27.315205 -28.142353 53.133872 0.651117 2.128984 0.065395 -0.026131 1114670.000000 0 0 1
-37.387747 -27.590005 -28.414983 54.465248 0.635739 2.119649 0.068624 -0.029753 1056260.000000 0 0 1
37.058524 -27.207005 -27.248873 53.442084 -0.633288 2.105838 0.048428 -0.029678 698549.000000 0 0 1
35.663794 -27.482405 -27.531703 52.774837 -0.656553 2.119618 0.056461 -0.035547 1196600.000000 0 0 1
34.588674 -27.043705 -26.510453 51.288814 -0.663585 2.114005 0.058997 -0.028517 112265.000000 0 0 1
34.529024 -27.809705 -25.319943 51.056172 -0.678025 2.089694 0.057488 -0.019162 -33424.400000 0 0 1
33.582924 -27.190405 -24.484753 49.665219 -0.680597 2.086326 0.053551 -0.013640 61960.800000 0 0 1
33.386924 -27.867005 -23.078053 49.232643 -0.695526 2.058677 0.055435 -0.009070 202819.000000 0 0 1
32.799664 -29.178005 -23.207753 49.656557 -0.727030 2.057105 0.066443 -0.014679 88308.200000 0 0 1
32.302024 -29.717505 -21.968953 49.083457 -0.743750 2.034858 0.071611 -0.022066 335283.000000 0 0 1
33.338214 -30.057005 -20.835453 49.487131 -0.733686 2.005374 0.059386 -0.010183 -572977.000000 0 0 1
34.383434 -30.917305 -21.255453 50.891006 -0.732368 2.001672 0.049489 -0.008761 -64549.500000 0 0 1
35.510104 -30.863705 -20.419053 51.288141 -0.715509 1.980267 0.027974 -0.001292 865319.000000 0 0 1
36.492234 -29.633505 -20.684053 51.358132 -0.682045 1.985306 0.014634 0.006022 218384.000000 0 0 1
35.783654 -28.385905 -20.440953 50.040604 -0.670620 1.991593 0.008717 0.009859 210004.000000 0 0 1
36.520704 -27.178205 -20.676453 49.999323 -0.639770 1.997129 -0.007180 0.016242 332731.000000 0 0 1
35.625104 -25.932005 -20.329153 48.527223 -0.629215 2.003055 -0.005531 0.018950 570309.000000 0 0 1
34.447944 -25.876205 -21.122553 47.983341 -0.644248 2.026624 0.027035 0.009093 -325407.000000 0 0 1
33.621514 -24.961105 -20.457553 46.604446 -0.638629 2.025239 0.068880 0.003580 -255973.000000 0 0 1
32.345984 -24.601705 -21.246853 45.857772 -0.650238 2.052535 0.082970 -0.005557 78829.400000 0 0 1
31.449964 -25.659105 -21.469053 45.917427 -0.684344 2.057322 0.104936 -0.019058 -219871.000000 0 0 1
30.160664 -25.231505 -21.840553 44.981154 -0.696645 2.077787 0.110294 -0.021458 248840.000000 0 0 1
29.248664 -26.410405 -22.264053 45.262367 -0.734449 2.085054 0.099344 -0.028658 74715.700000 0 0 1
28.935864 -27.373105 -21.217453 45.130382 -0.757652 2.060242 0.091825 -0.024747 -23616.800000 0 0 1
28.475364 -28.588405 -21.778553 45.852465 -0.787379 2.065726 0.070843 -0.023294 -214190.000000 0 0 1
27.672664 -29.484705 -20.819553 45.481622 -0.817090 2.046268 0.070864 -0.009430 -488577.000000 0 0 1
28.308064 -30.072705 -19.763053 45.785285 -0.815615 2.017113 0.089516 -0.017878 -409260.000000 0 0 1
29.195664 -31.145905 -20.061253 47.168931 -0.817707 2.010097 0.087115 -0.017700 247507.000000 0 0 1
30.113864 -31.509605 -18.856153 47.489520 -0.808044 1.979107 0.063688 -0.016432 -119142.000000 0 0 1
29.528664 -32.106905 -17.722253 47.083687 -0.827204 1.956703 0.064462 -0.023552 -240333.000000 0 0 1
28.990064 -31.215505 -16.763253 45.780325 -0.822345 1.945683 0.053230 -0.024037 -89502.800000 0 0 1
28.287564 -31.924305 -15.593653 45.414860 -0.845724 1.921289 0.055745 -0.023341 692581.000000 0 0 1
26.956864 -32.369905 -15.921253 45.032983 -0.876387 1.932156 0.053788 -0.017692 809038.000000 0 0 1
26.395964 -33.140605 -14.858653 44.897953 -0.898203 1.908099 0.054608 -0.017947 -409940.000000 0 0 1
24.870164 -33.289905 -14.917253 44.150507 -0.929168 1.915452 0.063628 -0.011670 -249897.000000 0 0 1
24.257764 -32.067905 -14.534453 42.755584 -0.923180 1.917652 0.073665 -0.009989 -586749.000000 0 0 1
22.945464 -32.350205 -14.157253 42.112443 -0.953867 1.913651 0.083694 -0.017482 -705577.000000 0 0 1
-0.144877 -6.887058 -29.348083 30.145688 1.549763 2.911046 0.099551 -0.030875 84833.800000 0 0 1
0.090823 -8.262358 -29.040963 30.193581 -1.559804 2.864394 0.096945 -0.026139 -116404.000000 0 0 1
-0.185777 -9.066658 -30.159353 31.493259 1.550309 2.849505 0.090532 -0.039664 -84471.400000 0 0 1
0.096823 -10.579158 -29.957863 31.771079 -1.561644 2.802115 0.108190 -0.024741 717409.000000 0 0 1
1.496223 -10.815958 -29.784723 31.723073 -1.433334 2.790210 0.066704 -0.029767 399053.000000 0 0 1
1.687523 -12.110658 -29.408993 31.849719 -1.432346 2.747557 0.089100 -0.035550 -468673.000000 0 0 1
3.091923 -12.482658 -28.933883 31.663012 -1.327986 2.723357 0.077309 -0.021867 -716529.000000 0 0 1
4.035423 -12.276858 -29.980543 32.647187 -1.253220 2.734610 0.086661 -0.033840 417290.000000 0 0 1
5.390423 -12.492358 -29.594593 32.572313 -1.163435 2.710671 0.093267 -0.031504 705781.000000 0 0 1
5.938423 -13.890958 -29.248233 32.919336 -1.166808 2.664823 0.092153 -0.031222 -992243.000000 0 0 1
5.432623 -14.431858 -28.071633 32.028245 -1.210770 2.639266 0.080998 -0.025027 -218130.000000 0 0 1
6.137123 -15.553458 -27.537303 32.216104 -1.194969 2.595900 0.093641 -0.020270 -278141.000000 0 0 1
5.918523 -16.953058 -28.180673 33.415347 -1.234912 2.574275 0.051968 -0.021521 -243026.000000 0 0 1
6.283223 -17.103758 -29.555413 34.720885 -1.218741 2.589118 0.065374 -0.038038 53224.600000 0 0 1
5.989123 -18.411558 -29.986603 35.693857 -1.256301 2.568274 0.054087 -0.027825 -287658.000000 0 0 1
6.591023 -18.848658 -31.338213 37.159078 -1.234405 2.574289 0.070883 -0.051341 -514123.000000 0 0 1
7.972123 -18.996858 -31.248263 37.428455 -1.173462 2.558711 0.070260 -0.039008 -523037.000000 0 0 1
8.562223 -19.721458 -32.322383 38.819892 -1.161195 2.554626 0.078841 -0.038594 998246.000000 0 0 1
10.076323 -19.397758 -32.596043 39.246749 -1.091704 2.550875 0.072668 -0.042982 775082.000000 0 0 1
10.238723 -18.076558 -33.112783 39.090277 -1.055442 2.581272 0.083245 -0.045728 347513.000000 0 0 1
11.363223 -18.041058 33.741845 39.913841 -1.008714 0.563544 0.082006 -0.033239 -64123.400000 0 0 1
11.602923 -16.792658 32.868301 38.690392 -0.966169 0.555720 0.077803 -0.032178 434565.000000 0 0 1
10.469123 -16.321558 32.125404 37.523824 -1.000470 0.543056 0.096462 -0.030100 521923.000000 0 0 1
10.845923 -15.105358 31.507615 36.586004 -0.948080 0.533184 0.086364 -0.022295 735258.000000 0 0 1
9.775323 -14.612658 30.461745 35.171077 -0.981206 0.523445 0.130596 -0.030296 748125.000000 0 0 1
9.829823 -15.347958 29.299655 34.505870 -1.001154 0.556478 0.123185 -0.025050 617503.000000 0 0 1
8.581123 -15.232658 28.594255 33.515683 -1.057771 0.548782 0.125457 -0.033379 566631.000000 0 0 1
8.447923 -16.227158 27.370905 32.921946 -1.090802 0.589196 0.104222 -0.036863 -577203.000000 0 0 1
8.130923 -17.554558 27.696215 33.783942 -1.137036 0.609727 0.106162 -0.037565 248289.000000 0 0 1
8.202723 -18.447558 26.595875 33.390682 -1.152400 0.649302 0.090380 -0.035922 54735.200000 0 0 1
7.634323 -19.793158 27.059715 34.384301 -1.202674 0.664900 0.098398 -0.039134 -357758.000000 0 0 1
8.444423 -20.282758 28.132525 35.695063 -1.176288 0.663023 0.102634 -0.033798 359229.000000 0 0 1
7.923323 -21.304258 28.964505 36.818379 -1.214735 0.665374 0.092138 -0.034062 -333768.000000 0 0 1
8.533723 -21.248358 30.385145 38.047000 -1.188896 0.645795 0.108066 -0.040974 -267784.000000 0 0 1
7.983423 -20.383458 31.391095 38.270371 -1.197499 0.608956 0.136914 -0.046651 191439.000000 0 0 1
8.095123 -19.008558 31.022245 37.272456 -1.168191 0.587534 0.124197 -0.039021 -265654.000000 0 0 1
7.380023 -18.225658 32.096129 37.640415 -1.186052 0.549657 0.124858 -0.035643 465637.000000 0 0 1
5.957123 -18.346958 32.091118 37.442463 -1.256842 0.541225 0.136679 -0.042454 233970.000000 0 0 1
5.422023 -17.436058 33.032135 37.743031 -1.269310 0.504978 0.134868 -0.039013 -589387.000000 0 0 1
3.903723 -17.513658 33.084909 37.637461 -1.351485 0.496947 0.136172 -0.042308 -389413.000000 0 0 1
3.399423 -18.693658 33.737055 38.719476 -1.390913 0.512910 0.126905 -0.055273 276813.000000 0 0 1
2.325123 -18.417258 -33.114093 37.962412 -1.445214 2.630655 0.128090 -0.066024 128607.000000 0 0 1
2.137023 -19.458058 -31.951313 37.470912 -1.461408 2.591922 0.090930 -0.042325 -308054.000000 0 0 1
1.168823 -20.471358 -32.317703 38.273706 -1.513763 2.576211 0.099239 -0.048195 514279.000000 0 0 1
0.770423 -21.212158 -31.173623 37.713975 -1.534492 2.543800 0.092333 -0.053519 451844.000000 0 0 1
-0.012777 -20.383858 -30.057603 36.317507 1.570169 2.545675 0.088346 -0.049362 237287.000000 0 0 1
-1.252377 -19.806858 -30.515053 36.401216 1.507651 2.564950 0.098602 -0.056595 754487.000000 0 0 1
-1.866377 -18.867158 -29.629053 35.175755 1.472195 2.572360 0.132190 -0.045200 354993.000000 0 0 1
-1.295977 -17.396558 -29.792883 34.524421 1.496437 2.611877 0.112609 -0.038718 -156053.000000 0 0 1
-2.063277 -16.465758 -29.075693 33.477966 1.446139 2.622969 0.123410 -0.038332 -359321.000000 0 0 1
-1.601877 -15.110258 -29.195843 32.913267 1.465178 2.661720 0.109829 -0.028703 446296.000000 0 0 1
-2.664177 -13.972658 -28.942213 32.248794 1.382387 2.684788 0.107408 -0.025455 541069.000000 0 0 1
-2.868177 -13.664558 -27.538053 30.875410 1.363901 2.672345 0.112478 -0.028602 8975.890000 0 0 1
-4.031677 -12.882758 -27.389513 30.535312 1.267500 2.683682 0.105159 -0.033424 44300.300000 0 0 1
-4.392577 -12.573358 -25.890593 29.115406 1.234695 2.666478 0.111288 -0.033638 -229655.000000 0 0 1
-4.922977 -13.679258 -25.145013 29.045300 1.225341 2.617378 0.130017 -0.028350 141586.000000 0 0 1
-4.962577 -13.416958 -23.742453 27.719055 1.216528 2.599322 0.118081 -0.030916 -687993.000000 0 0 1
-5.979577 -12.383058 -23.239653 27.003276 1.120935 2.607289 0.096461 -0.029370 -805497.000000 0 0 1
-7.254177 -12.935558 -23.246453 27.574432 1.059704 2.573714 0.099391 -0.025940 -938973.000000 0 0 1
-8.296177 -12.062458 -22.936253 27.210313 0.968327 2.573493 0.076538 -0.025783 -15084.700000 0 0 1
-9.709877 -12.465158 -23.402353 28.237068 0.909016 2.547723 0.084171 -0.027772 89158.600000 0 0 1
-10.338377 -13.346258 -22.475553 28.109698 0.911719 2.497368 0.075332 -0.027138 95068.700000 0 0 1
-11.473177 -13.922958 -23.126753 29.331370 0.881563 2.479105 0.069642 -0.021941 305151.000000 0 0 1
-12.349977 -14.836858 -22.284453 29.483065 0.876618 2.427731 0.066748 -0.021541 90848.700000 0 0 1
-11.571477 -16.014858 -21.985853 29.559304 0.945098 2.409516 0.090402 -0.024289 -1937.020000 0 0 1
-12.309077 -17.159758 -21.581153 30.194649 0.948539 2.367041 0.087576 -0.023362 60615.600000 0 0 1
-12.799877 -17.924158 -22.820553 31.715768 0.950661 2.373926 0.091438 -0.025805 218751.000000 0 0 1
-13.908577 -17.230358 -23.368953 32.193815 0.891672 2.383114 0.064326 -0.020124 -251932.000000 0 0 1
-14.584177 -17.998958 -24.313453 33.582804 0.889819 2.380358 0.036853 -0.023496 -181273.000000 0 0 1
-15.856977 -17.359758 -24.886053 34.236246 0.830609 2.384582 0.041199 -0.021878 77301.900000 0 0 1
-17.009277 -17.416958 -24.029553 34.206510 0.797240 2.349679 0.046035 -0.014428 573724.000000 0 0 1
-18.140877 -17.001358 -24.784153 35.105439 0.752984 2.354619 0.040030 -0.017576 92573.000000 0 0 1
-18.751677 -15.628958 -24.430953 34.536375 0.694819 2.356606 0.044710 -0.012178 -422039.000000 0 0 1
-19.533177 -15.725758 -23.267553 34.208529 0.677830 2.318788 0.052291 -0.004789 50836.800000 0 0 1
-20.253277 -14.534658 -22.982953 33.906749 0.622470 2.315601 0.062238 -0.011868 97470.900000 0 0 1
-20.926277 -14.543458 -21.601453 33.407245 0.607353 2.273928 0.068924 -0.015293 -42186.800000 0 0 1
-20.041277 -14.794058 -20.523853 32.276082 0.635893 2.259950 0.074799 -0.015223 153008.000000 0 0 1
-20.763077 -14.832758 -19.311053 32.000513 0.620313 2.218630 0.068773 -0.019464 -37574.800000 0 0 1
-21.052977 -13.436158 -18.724753 31.214973 0.568040 2.214128 0.086688 -0.024681 -36110.400000 0 0 1
-22.091577 -12.738758 -19.393953 32.038089 0.523062 2.220990 0.087948 -0.029077 -132693.000000 0 0 1
-22.588377 -11.822758 -18.458253 31.475697 0.482192 2.197439 0.092338 -0.031205 124006.000000 0 0 1
-24.093377 -11.626958 -18.793753 32.693763 0.449614 2.183208 0.107304 -0.032784 207210.000000 0 0 1
-24.430377 -10.781658 -19.925353 33.318271 0.415614 2.211838 0.085382 -0.030175 1304250.000000 0 0 1
-25.868167 -10.672058 -20.081553 34.443049 0.391283 2.193257 0.085417 -0.030434 1050300.000000 0 0 1
-26.254187 -9.651258 -21.194953 35.094945 0.352275 2.219221 0.075526 -0.018449 -156685.000000 0 0 1
-26.230687 -10.072658 -22.555553 36.031380 0.366640 2.247206 0.061763 -0.020577 543630.000000 0 0 1
-27.056667 -9.265758 -23.400953 36.952971 0.329940 2.256559 0.037119 -0.016160 -195427.000000 0 0 1
-27.155277 -9.860458 -24.784353 38.064443 0.348309 2.279850 0.043380 -0.012473 253732.000000 0 0 1
-26.134637 -9.631658 -25.753353 37.934460 0.353095 2.317047 0.031375 -0.012519 165572.000000 0 0 1
-25.031787 -10.504558 -25.709073 37.388401 0.397329 2.329005 0.032384 -0.010632 103992.000000 0 0 1
-23.997177 -10.392458 -26.860583 37.488113 0.408686 2.369582 0.045213 -0.018422 232440.000000 0 0 1
-24.609877 -10.536058 -28.151223 38.847727 0.404513 2.381331 0.047410 -0.011630 -156791.000000 0 0 1
-23.721677 -10.465058 -29.245393 39.083608 0.415478 2.416258 0.045060 -0.008944 -155380.000000 0 0 1
-24.263677 -10.838858 -30.652793 40.568468 0.420116 2.427338 0.046861 -0.011119 40543.300000 0 0 1
-25.236157 -9.923758 -31.165823 41.311658 0.374662 2.425547 0.028729 -0.018389 -91287.700000 0 0 1
-24.795877 -8.940358 -32.064983 41.508176 0.346050 2.453562 0.025757 -0.018485 -982774.000000 0 0 1
-25.863427 -7.972658 -32.636693 42.398512 0.299017 2.449262 0.024368 -0.020060 -630517.000000 0 0 1
-26.803547 -8.617858 -33.520153 43.775544 0.311081 2.442969 0.038926 -0.026053 1404070.000000 0 0 1
-27.909457 -9.294158 -32.881403 44.119223 0.321460 2.411759 0.055153 -0.028737 -283255.000000 0 0 1
-28.877987 -8.382758 -32.104673 43.987712 0.282517 2.388907 0.040183 -0.017215 -530573.000000 0 0 1
-30.197817 -8.951358 -32.271513 45.094185 0.288173 2.368346 0.069221 -0.018698 407841.000000 0 0 1
-31.119097 -8.276058 -31.509403 45.052567 0.259931 2.345343 0.071324 -0.011790 409061.000000 0 0 1
-32.607337 -8.779058 -31.486773 46.170631 0.262999 2.321243 0.079330 -0.012068 902373.000000 0 0 1
-32.667247 -10.122358 -31.059093 46.198251 0.300480 2.308108 0.078052 -0.012586 548492.000000 0 0 1
-34.048403 -10.473458 -31.038423 47.247971 0.298419 2.287531 0.087231 -0.012518 486752.000000 0 0 1
-34.227351 -12.025558 -31.180203 47.836499 0.337871 2.280762 0.087372 -0.020980 374740.000000 0 0 1
-35.595843 -12.429058 -31.140883 48.900921 0.335937 2.261158 0.058275 -0.013498 485245.000000 0 0 1
-35.556908 -13.836258 -31.238423 49.311001 0.371101 2.256862 0.058591 -0.023733 71152.800000 0 0 1
-36.878097 -14.547358 -30.915273 50.272992 0.375731 2.233116 0.043290 -0.026281 -145475.000000 0 0 1
-37.196977 -14.416458 -29.544843 49.642191 0.369746 2.208256 0.045858 -0.028827 116838.000000 0 0 1
36.924714 -15.271358 -29.059073 49.407272 -0.392159 2.199570 0.039954 -0.027775 123181.000000 0 0 1
37.074864 -15.574558 -27.554793 48.748118 -0.397699 2.171531 0.045066 -0.023963 427127.000000 0 0 1
-36.793117 -16.075558 -27.176163 48.484027 0.411921 2.165807 0.059237 -0.037260 568086.000000 0 0 1
-36.683597 -16.234058 -25.812883 47.702577 0.416635 2.142566 0.070613 -0.034002 372354.000000 0 0 1
-35.453292 -15.442758 -25.273413 46.196971 0.410798 2.149668 0.125140 -0.039333 160146.000000 0 0 1
-34.184230 -16.029658 -25.363113 45.484052 0.438476 2.162320 0.115091 -0.032567 -69291.400000 0 0 1
-33.295647 -15.506258 -24.404253 44.097752 0.435845 2.157252 0.133505 -0.012207 81979.900000 0 0 1
-31.821557 -15.984158 -24.425253 43.182147 0.465491 2.171997 0.137625 -0.019531 275114.000000 0 0 1
-31.590097 -17.283758 -23.967453 43.256229 0.500634 2.158055 0.153009 -0.032155 66001.900000 0 0 1
-31.928337 -18.323358 -24.853053 44.416645 0.521000 2.164631 0.122901 -0.035090 -206482.000000 0 0 1
-31.849337 -19.678358 -24.120253 44.535431 0.553447 2.143132 0.110542 -0.039492 96592.600000 0 0 1
-30.550397 -20.198258 -23.936953 43.752418 0.584171 2.149692 0.108411 -0.030879 -79740.100000 0 0 1
-30.579527 -21.425958 -23.203153 43.960954 0.611171 2.126820 0.086520 -0.022976 295317.000000 0 0 1
-29.244507 -22.240058 -23.315153 43.513880 0.650179 2.136263 0.080149 -0.022170 503186.000000 0 0 1
-28.047087 -21.756458 -22.771653 42.172630 0.659755 2.141189 0.090854 -0.026057 -327879.000000 0 0 1
-27.957007 -21.572758 -21.374253 41.277558 0.657208 2.115094 0.104263 -0.033784 -559608.000000 0 0 1
-27.867817 -22.897358 -20.577853 41.525321 0.687798 2.089264 0.095039 -0.028247 -217617.000000 0 0 1
-27.985327 -22.760558 -19.195253 40.861709 0.682800 2.059817 0.103390 -0.032279 68566.500000 0 0 1
-28.100857 -24.050458 -18.654153 41.425356 0.707887 2.037906 0.089620 -0.011553 8695.350000 0 0 1
-28.100897 -24.027558 -17.076853 40.725948 0.707416 2.003483 0.085298 -0.018025 872793.000000 0 0 1
-29.316227 -23.459258 -16.548753 41.032172 0.674871 1.985929 0.100304 -0.018357 683535.000000 0 0 1
-29.000517 -22.192358 -15.942953 39.846060 0.653184 1.982437 0.100825 -0.022518 -640906.000000 0 0 1
-30.178917 -21.510458 -15.315253 40.100172 0.619241 1.962674 0.106218 -0.008843 -406850.000000 0 0 1
-31.158757 -21.120858 -16.282553 41.013172 0.595703 1.979051 0.112516 -0.015413 834602.000000 0 0 1
-32.164947 -20.269658 -15.679553 41.125311 0.562315 1.961958 0.119744 -0.020918 295777.000000 0 0 1
-33.046657 -19.602658 -16.717653 41.902573 0.535391 1.981184 0.131792 -0.040170 -965417.000000 0 0 1
-34.110445 -20.329158 -17.257453 43.296845 0.537459 1.980769 0.069685 -0.029588 -598749.000000 0 0 1
-34.818710 -19.357058 -17.980753 43.707502 0.507391 1.994773 0.075457 -0.029021 -1252840.000000 0 0 1
-36.236547 -19.747458 -18.412653 45.189326 0.498965 1.990463 0.037795 -0.002765 -179045.000000 0 0 1
-37.242657 -19.629658 -17.425453 45.562983 0.485072 1.963240 0.030832 0.006581 181457.000000 0 0 1
-37.104337 -20.533658 -16.371953 45.457714 0.505452 1.939233 0.060331 -0.011902 -1168900.000000 0 0 1
-37.288997 -22.042058 -16.618053 46.394841 0.533860 1.937122 0.035540 0.025021 -182655.000000 0 0 1
36.486734 -22.275058 -16.821353 45.939284 -0.548102 1.945681 0.033223 -0.000274 48805.200000 0 0 1
36.213244 -23.641758 -16.760553 46.381547 -0.578375 1.940525 0.031594 0.006456 319340.000000 0 0 1
34.742594 -23.859158 -16.328953 45.198915 -0.601772 1.940424 0.019822 0.002034 -5216.880000 0 0 1
33.706384 -23.574358 -17.202953 44.584888 -0.610325 1.966922 0.038720 -0.003771 147331.000000 0 0 1
32.446774 -23.503358 -16.519053 43.336821 -0.626893 1.961867 0.069899 -0.004915 1635050.000000 0 0 1
31.218604 -23.831158 -17.488053 42.992526 -0.651999 1.989711 0.075676 -0.017241 976350.000000 0 0 1
30.869494 -22.827658 -18.409553 42.578624 -0.636740 2.017911 0.049866 -0.016482 -654993.000000 0 0 1
29.532864 -22.823058 -18.782153 41.783385 -0.657935 2.037016 0.099307 -0.019045 -583874.000000 0 0 1
35.253494 29.858042 -18.131753 49.629346 0.702722 1.944798 0.075239 -0.025767 508694.000000 0 0 1
34.225714 29.862342 -19.128453 49.285461 0.717419 1.969382 0.061373 -0.029752 460110.000000 0 0 1
34.748804 29.342042 -20.339453 49.820961 0.701237 1.991334 0.072986 -0.021250 -116579.000000 0 0 1
33.714814 29.442642 -21.469753 49.643812 0.717858 2.018033 0.083814 -0.020312 -734475.000000 0 0 1
32.721124 28.422342 -21.279153 48.283577 0.715207 2.027188 0.071765 -0.020494 489035.000000 0 0 1
31.710654 28.512642 -22.288053 48.117498 0.732345 2.052399 0.092099 -0.013214 510058.000000 0 0 1
30.670444 29.669642 -22.199753 48.101900 0.768814 2.050499 0.079225 -0.011678 -802369.000000 0 0 1
31.182724 30.971442 -22.380653 49.320240 0.781999 2.041802 0.095197 -0.015067 -274601.000000 0 0 1
30.202014 31.998242 -22.271053 49.315808 0.814268 2.039355 0.076901 -0.004498 -107190.000000 0 0 1
30.761764 33.478242 -22.340153 50.657292 0.827659 2.027515 0.070171 0.000493 305031.000000 0 0 1
31.486594 -33.774505 -21.216653 50.816032 -0.820442 2.001509 0.071288 -0.014826 301095.000000 0 0 1
32.870314 33.592042 -21.120753 51.526391 0.796257 1.993143 0.069440 -0.019926 214657.000000 0 0 1
33.419284 33.296742 -19.718253 51.130529 0.783561 1.966704 0.067957 -0.029324 -303098.000000 0 0 1
33.228784 -33.260405 -18.901753 50.672308 -0.785874 1.953057 0.060169 -0.027541 228701.000000 0 0 1
33.227424 -33.540705 -17.533053 50.363166 -0.790090 1.926375 0.054037 -0.041349 -898604.000000 0 0 1
33.232064 -32.217105 -16.716653 49.211364 -0.769892 1.917385 0.050709 -0.032926 -58978.900000 0 0 1
34.438654 -31.494605 -16.760753 49.586831 -0.740776 1.915596 0.058720 -0.022471 -34903.900000 0 0 1
35.510444 -32.145705 -16.065653 50.521710 -0.735706 1.894410 0.051179 -0.029376 -1160140.000000 0 0 1
36.666254 -31.178905 -16.043153 50.733825 -0.704693 1.892541 0.046491 -0.006031 -1137840.000000 0 0 1
37.431884 -31.430105 -17.192353 51.812879 -0.698461 1.909025 0.028702 -0.013669 -43319.500000 0 0 1
-36.483407 -30.696805 -17.146253 50.668795 0.699475 1.916011 0.018800 0.003075 683938.000000 0 0 1
-35.465749 -31.213905 -18.171253 50.619380 0.721719 1.937969 0.054337 -0.007085 -839081.000000 0 0 1
-34.879017 -32.427905 -17.764353 50.829982 0.748997 1.927818 0.049846 -0.022546 116820.000000 0 0 1
-33.980797 -32.986105 -18.700253 50.916374 0.770546 1.946873 0.077579 -0.021135 -108663.000000 0 0 1
-32.572797 -32.393005 -18.801553 49.636602 0.782631 1.959278 0.063328 -0.021577 -1411820.000000 0 0 1
-32.505977 -31.219505 -19.656853 49.169990 0.765213 1.982066 0.054805 -0.006592 165703.000000 0 0 1
-31.220197 -30.771205 -20.074953 48.213810 0.778155 2.000249 0.078358 -0.001708 270064.000000 0 0 1
-30.389437 -31.777205 -20.934353 48.698622 0.807718 2.015151 0.080728 -0.002546 -297865.000000 0 0 1
-30.906717 -32.214905 -22.183353 49.851042 0.806120 2.031962 0.073357 0.008965 -146856.000000 0 0 1
-30.129427 -33.331705 -22.615653 50.301617 0.835816 2.037115 0.073329 0.004256 214657.000000 0 0 1
-30.628727 33.527842 -23.802853 51.271931 -0.830556 2.053581 0.061770 0.001581 -45958.200000 0 0 1
-31.796537 32.763942 -23.526153 51.361226 -0.800382 2.046600 0.066602 -0.015380 39677.300000 0 0 1
-32.114817 31.894342 -24.625653 51.527015 -0.781954 2.069079 0.062056 -0.010871 1129370.000000 0 0 1
-33.159447 32.500542 -25.664223 53.051734 -0.775363 2.075740 0.057815 -0.022022 759873.000000 0 0 1
-32.446067 33.293242 -26.610753 53.566028 -0.798284 2.090686 0.049219 -0.018220 -36810.300000 0 0 1
-33.281647 -33.401605 -27.168623 54.419383 0.787197 2.093524 0.050793 -0.020331 200755.000000 0 0 1
-32.641997 -32.557205 -28.323373 54.108086 0.784098 2.121702 0.031143 -0.017381 20956.900000 0 0 1
-32.339427 -33.258005 -29.546473 54.999341 0.799401 2.137928 0.034900 -0.014555 71730.500000 0 0 1
-33.439257 -33.535005 -30.412473 56.282315 0.786828 2.141656 0.046007 -0.015489 56491.100000 0 0 1
-33.085147 33.323242 -31.668283 56.638728 -0.788983 2.164130 0.055844 -0.014347 202964.000000 0 0 1
-32.291587 -33.677805 -32.650063 56.947061 0.806408 2.181374 0.039511 -0.021854 208821.000000 0 0 1
-32.539027 33.343042 33.849065 57.587377 -0.797601 0.942477 0.052229 -0.034375 -617214.000000 0 0 1
-31.445287 33.737742 32.895890 56.649633 -0.820553 0.951220 0.046306 -0.031195 449599.000000 0 0 1
-30.121967 33.192942 32.997416 55.659086 -0.833863 0.936205 0.040709 -0.021595 685978.000000 0 0 1
-29.964767 31.859342 32.442988 54.455968 -0.816033 0.932578 0.045642 -0.028321 -975461.000000 0 0 1
-28.583547 31.272042 32.590277 53.451716 -0.830284 0.915096 0.050704 -0.020402 -946885.000000 0 0 1
-28.171557 30.870042 33.847975 53.779937 -0.831071 0.890042 0.052580 -0.023855 -266698.000000 0 0 1
-26.802607 30.546342 33.795255 52.854310 -0.850586 0.877074 0.067529 -0.018735 -308732.000000 0 0 1
-26.498917 29.026942 33.725555 51.789662 -0.830896 0.861628 0.077806 -0.015107 -412528.000000 0 0 1
-26.633457 28.347142 -32.818173 50.891394 -0.816557 2.271645 0.077094 -0.012712 204035.000000 0 0 1
-26.409147 26.950842 -32.944683 50.091347 -0.795550 2.288547 0.078160 -0.007811 -375399.000000 0 0 1
-26.111377 26.233042 -31.636183 48.691114 -0.787722 2.278028 0.107363 -0.008973 -38808.900000 0 0 1
-24.873777 26.508742 -31.020383 47.787889 -0.817207 2.277232 0.096036 -0.016005 -56176.100000 0 0 1
-24.830677 27.785342 -30.323853 48.042937 -0.841494 2.253873 0.079389 -0.020629 -264854.000000 0 0 1
-23.561377 28.082042 -29.511973 47.060558 -0.872712 2.248629 0.112568 -0.027840 328638.000000 0 0 1
-22.369777 28.325042 -30.287533 47.117402 -0.902335 2.268957 0.115277 -0.022220 755582.000000 0 0 1
-21.196677 28.375342 -29.483733 46.084158 -0.929211 2.265009 0.083819 -0.020676 418500.000000 0 0 1
-20.890377 29.553442 -28.572953 46.111034 -0.955476 2.239100 0.070386 -0.017110 -788260.000000 0 0 1
-20.599977 30.732942 -29.296793 47.192953 -0.980290 2.240543 0.070989 -0.015764 -24738.900000 0 0 1
-20.170677 31.839842 -28.556503 47.287478 -1.006105 2.219171 0.089313 -0.020062 42896.800000 0 0 1
-19.730277 33.020642 -29.461303 48.452193 -1.032207 2.224397 0.088945 -0.011977 418599.000000 0 0 1
-18.549777 32.667442 -30.191643 48.195345 -1.054362 2.247778 0.085094 -0.009340 85547.700000 0 0 1
-18.177777 33.790442 -30.948633 49.295471 -1.077247 2.249544 0.090482 -0.001808 -813216.000000 0 0 1
-16.702177 33.829542 -31.305033 49.024542 -1.112189 2.263420 0.074011 0.009971 -796675.000000 0 0 1
-15.914777 -33.544605 -30.107923 47.801754 1.127808 2.252156 0.084856 0.000387 -451604.000000 0 0 1
-14.550177 -33.493005 -30.379763 47.501779 1.160970 2.264709 0.092612 0.002941 -297521.000000 0 0 1
-13.902777 32.767842 -30.329863 46.764508 -1.169535 2.276495 0.095962 -0.005972 -654010.000000 0 0 1
-13.933977 32.151142 -29.034353 45.506541 -1.161841 2.262728 0.103989 -0.021229 49820.700000 0 0 1
-13.235077 30.918642 -29.094233 44.470260 -1.166336 2.283974 0.092833 -0.020346 -8612.150000 0 0 1
-12.970977 30.351342 -27.709013 43.095703 -1.166928 2.269159 0.077885 -0.034613 -724439.000000 0 0 1
-11.902777 30.950042 -27.089713 42.818614 -1.203653 2.255782 0.095466 -0.031354 -942748.000000 0 0 1
-11.726677 30.364742 -25.840523 41.560379 -1.202248 2.241782 0.079891 -0.040393 974300.000000 0 0 1
-10.400477 30.924942 -25.171213 41.208153 -1.246366 2.227906 0.098442 -0.039066 1566670.000000 0 0 1
-9.227877 30.259242 -25.593703 40.691683 -1.274795 2.251019 0.108303 -0.024360 177295.000000 0 0 1
-7.954177 30.745342 -25.209413 40.547003 -1.317635 2.241750 0.127780 -0.035427 936098.000000 0 0 1
-6.774777 29.895242 -25.753423 40.035758 -1.347943 2.269546 0.125082 -0.037926 53505.800000 0 0 1
-6.570277 28.763042 -24.962453 38.647188 -1.346222 2.273006 0.124133 -0.050059 401902.000000 0 0 1
-5.406277 28.045742 -25.395093 38.219134 -1.380366 2.297568 0.122262 -0.057302 635449.000000 0 0 1
-4.927777 26.906842 -24.450953 36.689375 -1.389662 2.300208 0.127121 -0.048105 338215.000000 0 0 1
-5.752477 25.748542 -24.619053 36.085678 -1.350996 2.321617 0.129524 -0.046201 699792.000000 0 0 1
-5.187177 24.641742 -23.883253 34.706368 -1.363322 2.329735 0.132669 -0.056271 333103.000000 0 0 1
-6.098577 23.367542 -23.936553 34.002841 -1.315506 2.351750 0.114738 -0.044717 237298.000000 0 0 1
-6.164877 22.711342 -25.190513 34.472782 -1.305738 2.390196 0.109641 -0.044330 779986.000000 0 0 1
-7.022077 21.503542 -25.222843 33.880727 -1.255159 2.410522 0.100998 -0.043201 586827.000000 0 0 1
-6.909677 20.601342 -26.500613 34.270124 -1.247187 2.454804 0.079505 -0.031772 -523037.000000 0 0 1
-5.697777 19.918942 -26.571343 33.693696 -1.292188 2.479349 0.090166 -0.037779 -749788.000000 0 0 1
-5.676377 18.799642 -25.743073 32.378289 -1.277560 2.489923 0.090719 -0.040976 -397890.000000 0 0 1
-4.385777 17.977442 -25.852093 31.792360 -1.331510 2.520347 0.089555 -0.052765 -17374.500000 0 0 1
-4.376177 17.287842 -27.102583 32.443341 -1.322868 2.559624 0.079405 -0.043575 28959.500000 0 0 1
-3.292377 16.372142 -27.216703 31.931735 -1.372347 2.591240 0.084806 -0.048982 11162.100000 0 0 1
-2.957977 16.117142 -28.683593 33.034230 -1.389286 2.622559 0.080007 -0.040030 136775.000000 0 0 1
-2.188877 17.242442 -29.139543 33.929426 -1.444525 2.603774 0.093879 -0.049422 343350.000000 0 0 1
-2.298077 17.300042 -30.562703 35.194480 -1.438733 2.622752 0.093559 -0.046440 380592.000000 0 0 1
-1.471177 18.554242 -31.058493 36.208483 -1.491671 2.601709 0.101000 -0.027353 1515590.000000 0 0 1
-0.034677 18.543542 -30.846463 35.991227 -1.568926 2.600323 0.124487 -0.038135 1272740.000000 0 0 1
0.692323 19.541142 -31.537183 37.107000 1.535382 2.586589 0.140173 -0.025106 390376.000000 0 0 1
0.537723 20.997242 -30.996833 37.442983 1.545193 2.546044 0.134831 -0.036793 -312039.000000 0 0 1
1.478723 21.144442 -29.971253 36.708991 1.500976 2.526042 0.148958 -0.051242 -373403.000000 0 0 1
1.343023 22.334642 -29.200583 36.787416 1.510737 2.487772 0.147251 -0.057818 231054.000000 0 0 1
2.390923 22.513542 -28.055713 36.051340 1.464994 2.462616 0.153010 -0.064470 -233447.000000 0 0 1
3.693923 22.576942 -28.544463 36.580729 1.408618 2.465964 0.149905 -0.066916 -1010990.000000 0 0 1
4.666023 22.710742 -27.550503 36.008051 1.368162 2.442025 0.130730 -0.064953 -210013.000000 0 0 1
5.137023 24.152842 -27.310263 36.818463 1.361231 2.406479 0.139303 -0.065455 -940838.000000 0 0 1
5.848723 24.643842 -28.369263 38.030798 1.337777 2.412764 0.120574 -0.064397 -352638.000000 0 0 1
5.996523 26.069042 -28.326733 38.960968 1.344705 2.384818 0.124776 -0.064838 -414238.000000 0 0 1
6.959923 26.618742 -29.394193 40.261849 1.315055 2.389229 0.142193 -0.057496 778663.000000 0 0 1
8.347623 26.355542 -29.087663 40.129659 1.264061 2.381601 0.120667 -0.049811 879399.000000 0 0 1
9.162023 27.079542 -29.996053 41.436788 1.244549 2.380234 0.124964 -0.050510 -336588.000000 0 0 1
10.629123 27.011842 -29.566343 41.434122 1.195907 2.365384 0.113644 -0.043766 586953.000000 0 0 1
11.556723 27.751042 -30.448063 42.787413 1.176196 2.362587 0.108185 -0.040633 1405740.000000 0 0 1
12.796223 28.026442 -29.785883 42.853513 1.142487 2.339304 0.097201 -0.038000 586681.000000 0 0 1
13.776923 29.012742 -30.445013 44.254283 1.127464 2.329466 0.094363 -0.034038 -76699.400000 0 0 1
13.428923 30.368842 -30.356293 44.990077 1.154453 2.311399 0.100661 -0.033413 328797.000000 0 0 1
14.307323 31.110942 -31.200993 46.325934 1.139756 2.309744 0.132591 -0.048175 198810.000000 0 0 1
13.937923 32.600942 -31.267723 47.273223 1.166784 2.293514 0.127713 -0.052040 -536107.000000 0 0 1
12.798623 32.829842 -32.021393 47.612738 1.199073 2.308430 0.106039 -0.050809 -464985.000000 0 0 1
12.328123 -33.538505 -31.714153 47.776578 -1.218546 2.296686 0.096809 -0.041732 869088.000000 0 0 1
10.912323 -33.171105 -32.317983 47.579964 -1.252977 2.317516 0.068208 -0.034797 865624.000000 0 0 1
10.975523 -32.903505 -33.702963 48.363131 -1.248836 2.341825 0.059023 -0.016758 369987.000000 0 0 1
9.671623 -32.663105 33.529991 47.798316 -1.282919 0.793312 0.072499 -0.024871 414193.000000 0 0 1
9.721323 -32.066605 32.071768 46.382859 -1.276443 0.807292 0.082387 -0.024879 117982.000000 0 0 1
9.608423 -30.621005 32.129554 45.412289 -1.266741 0.784831 0.073207 -0.030114 39540.100000 0 0 1
9.964623 -29.947005 30.956435 44.208797 -1.249578 0.795073 0.090381 -0.030982 -347813.000000 0 0 1
9.554123 -28.409305 30.943355 43.079706 -1.246376 0.769467 0.083437 -0.037309 303805.000000 0 0 1
8.142923 -28.221705 30.821375 42.576155 -1.289892 0.761341 0.057275 -0.033151 333561.000000 0 0 1
7.557023 -28.103005 32.150784 43.365429 -1.308106 0.735654 0.069615 -0.028360 794641.000000 0 0 1
5.976123 -28.180305 32.188656 43.196681 -1.361825 0.730014 0.066704 -0.028408 1390290.000000 0 0 1
5.325523 -29.424405 31.862051 43.696077 -1.391745 0.753682 0.085675 -0.033874 236662.000000 0 0 1
5.724823 -30.075805 30.655655 43.325476 -1.382700 0.784748 0.068256 -0.023797 -806325.000000 0 0 1
5.341623 -29.481805 29.279135 41.892452 -1.391557 0.796921 0.059041 -0.027728 -593454.000000 0 0 1
3.957723 -29.528505 29.067475 41.623482 -1.437560 0.797716 0.095925 -0.033363 -605104.000000 0 0 1
3.643023 -28.798805 27.902005 40.263689 -1.444966 0.805179 0.097095 -0.031886 -270015.000000 0 0 1
2.155523 -28.888005 27.474195 39.924861 -1.496318 0.811863 0.087093 -0.024260 137375.000000 0 0 1
1.774923 -30.069505 26.846255 40.349063 -1.511837 0.842834 0.106883 -0.034036 112399.000000 0 0 1
1.586523 -31.165005 27.754995 41.762595 -1.519933 0.843852 0.146188 -0.042771 -837200.000000 0 0 1
1.993323 -32.510405 27.136335 42.394345 -1.509560 0.876177 0.164952 -0.044788 1189700.000000 0 0 1
3.409823 -32.758005 26.976615 42.572897 -1.467079 0.884525 0.121642 -0.033154 1315940.000000 0 0 1
4.003023 -32.224505 25.799725 41.473711 -1.447207 0.899407 0.109990 -0.041300 220814.000000 0 0 1
5.513723 -31.874005 25.883475 41.428343 -1.399507 0.895950 0.125335 -0.027498 386775.000000 0 0 1
6.051023 -31.433705 24.630015 40.389731 -1.380622 0.914977 0.108322 -0.043319 246042.000000 0 0 1
7.459123 -31.486505 24.766535 40.748249 -1.338185 0.917517 0.094979 -0.046913 -301413.000000 0 0 1
8.255523 -31.148705 23.520035 39.894706 -1.311717 0.940291 0.084617 -0.038723 -481830.000000 0 0 1
9.566123 -30.714605 23.774735 40.001696 -1.268867 0.934348 0.079456 -0.028478 -66574.400000 0 0 1
10.260723 -30.495405 22.562485 39.297810 -1.246227 0.959242 0.089465 -0.030816 -103425.000000 0 0 1
11.413923 -29.493905 22.662785 38.907196 -1.201553 0.949016 0.071160 -0.026448 -304369.000000 0 0 1
12.588123 -29.957105 23.277185 39.971444 -1.172994 0.949186 0.070346 -0.031709 -508486.000000 0 0 1
13.593123 -28.959005 23.225235 39.532373 -1.131934 0.942831 0.082273 -0.025420 -267599.000000 0 0 1
14.874623 -29.586405 23.813765 40.788542 -1.104950 0.947352 0.111417 -0.028808 -390095.000000 0 0 1
14.895123 -29.791605 25.238235 41.789627 -1.107167 0.922367 0.102449 -0.029866 191970.000000 0 0 1
15.693123 -28.845205 25.916695 41.832942 -1.072536 0.902655 0.117741 -0.036227 -95920.500000 0 0 1
-10.901877 -13.833458 25.783485 31.225048 0.903366 0.599300 0.124949 -0.047590 419596.000000 0 0 1
-9.527977 -14.042758 25.480455 30.614294 0.974648 0.587542 0.133516 -0.046389 -318177.000000 0 0 1
-8.771077 -14.068958 26.678085 31.409992 1.013323 0.556043 0.150155 -0.046936 -863014.000000 0 0 1
-7.317777 -13.856258 26.304335 30.618031 1.084906 0.537263 0.136672 -0.042673 -805653.000000 0 0 1
-6.758277 -14.887558 25.473175 30.268736 1.144659 0.570618 0.123810 -0.047915 -92903.700000 0 0 1
-6.945677 -14.771458 24.078865 29.090035 1.131264 0.595736 0.122450 -0.043346 -630145.000000 0 0 1
-6.400677 -15.842258 23.156655 28.778056 1.186824 0.635688 0.119513 -0.039887 5011.810000 0 0 1
-7.043577 -17.121358 23.141165 29.635560 1.180509 0.674758 0.137323 -0.037787 -196981.000000 0 0 1
-7.136577 -17.817758 24.394355 31.040100 1.189832 0.666649 0.146495 -0.039250 -63622.600000 0 0 1
-7.787177 -19.240658 24.312045 31.967462 1.186223 0.706675 0.148945 -0.038836 -467903.000000 0 0 1
-9.152277 -19.239458 23.996245 32.089573 1.126774 0.726070 0.147413 -0.036135 -506678.000000 0 0 1
-9.573277 -20.547658 23.721305 32.810886 1.134794 0.762704 0.139375 -0.040925 -547158.000000 0 0 1
-11.083077 -20.625158 23.589255 33.236798 1.077711 0.781677 0.118196 -0.044356 -631327.000000 0 0 1
-11.923677 -20.385958 24.694935 34.170180 1.041556 0.763089 0.124535 -0.044428 -186887.000000 0 0 1
-13.261277 -20.634758 24.321645 34.542686 0.999593 0.789636 0.129977 -0.037698 317551.000000 0 0 1
-14.267077 -20.358758 25.500525 35.613274 0.959545 0.772684 0.123204 -0.043545 -36166.200000 0 0 1
-14.260277 -21.192358 26.699165 36.950196 0.978493 0.763281 0.109678 -0.032219 245334.000000 0 0 1
-13.162877 -20.961258 27.588795 37.064502 1.010070 0.731242 0.115192 -0.035774 763491.000000 0 0 1
-12.471277 -22.223758 28.269295 38.060232 1.059419 0.733626 0.114213 -0.025386 138138.000000 0 0 1
-13.313877 -22.975358 29.079155 39.379229 1.045598 0.740044 0.118710 -0.025646 -10693.500000 0 0 1
-12.575277 -23.995158 29.827265 40.293560 1.088074 0.737356 0.102766 -0.016747 307164.000000 0 0 1
-13.491377 -24.868058 30.744975 41.781468 1.073715 0.743872 0.119894 -0.029379 460980.000000 0 0 1
-13.993677 -24.060458 31.823948 42.278746 1.044013 0.718616 0.102104 -0.023723 -19461.100000 0 0 1
-14.990377 -24.726158 32.564431 43.549242 1.025790 0.726113 0.115236 -0.028071 -170736.000000 0 0 1
-14.956477 -24.318158 -33.663803 44.139785 1.019396 2.438217 0.114714 -0.024321 37258.000000 0 0 1
-15.170577 -22.981458 -33.300773 43.211518 0.987338 2.450650 0.117393 -0.028151 -498820.000000 0 0 1
-16.441677 -22.452058 -33.534073 43.577032 0.938719 2.448910 0.109070 -0.027141 -467723.000000 0 0 1
-16.666177 -20.921358 -33.397963 42.788884 0.898125 2.466308 0.090928 -0.029870 18082.100000 0 0 1
-16.620677 -20.480858 -32.073133 41.525875 0.889069 2.453352 0.085078 -0.032568 -56413.200000 0 0 1
-17.023977 -19.152358 -32.043483 41.029421 0.844164 2.467042 0.072057 -0.028212 -41855.300000 0 0 1
-17.245977 -18.557158 -30.636663 39.754207 0.822004 2.450660 0.061430 -0.021681 -61452.700000 0 0 1
-18.431977 -19.046058 -30.050413 40.068908 0.801782 2.418811 0.066483 -0.019459 -117426.000000 0 0 1
-18.566177 -18.689058 -28.690623 38.950426 0.788696 2.398816 0.065046 -0.028046 82015.300000 0 0 1
-17.925577 -19.644258 -27.654823 38.366814 0.831113 2.375753 0.050427 -0.017518 1007300.000000 0 0 1
-16.483977 -19.606458 -27.624263 37.672730 0.871701 2.393914 0.041259 -0.023299 919579.000000 0 0 1
-15.969777 -20.619858 -26.782993 37.383700 0.911808 2.369475 0.032049 -0.020556 6716.330000 0 0 1
-14.518277 -21.020958 -27.127163 37.263172 0.966368 2.386180 0.164978 -0.026617 -533374.000000 0 0 1
-13.602277 -20.010358 -26.820693 36.121821 0.973783 2.407601 0.148522 -0.034311 295758.000000 0 0 1
-12.246977 -20.427158 -26.975233 35.985003 1.030712 2.418291 0.110395 -0.042355 562579.000000 0 0 1
-11.535977 -21.393658 -26.016413 35.603667 1.076264 2.390177 0.161397 -0.054750 -686747.000000 0 0 1
-11.396177 -22.734058 -26.403553 36.658667 1.106124 2.374965 0.161106 -0.051447 -7087.760000 0 0 1
-10.715777 -23.419058 -25.394733 36.168669 1.141668 2.349166 0.219194 -0.051357 -59711.200000 0 0 1
-10.571777 -24.912058 -25.724273 37.337800 1.169465 2.330850 0.198499 -0.043878 -603352.000000 0 0 1
-9.746477 -25.212818 -26.792493 38.059397 1.201922 2.351762 0.188346 -0.043186 -355045.000000 0 0 1
-10.005177 -26.496558 -27.320533 39.352035 1.209746 2.338187 0.173319 -0.028080 -163095.000000 0 0 1
-9.746377 -27.730798 -26.346733 39.473274 1.232818 2.301586 0.193197 -0.028537 -767236.000000 0 0 1
-10.770477 -28.017178 -25.461613 39.360630 1.203789 2.274283 0.159367 -0.031345 -454682.000000 0 0 1
-10.402077 -29.078548 -24.559853 39.458225 1.227258 2.242636 0.153749 -0.046184 228327.000000 0 0 1
-11.365677 -29.228398 -23.296453 39.066643 1.199932 2.209713 0.165492 -0.049395 140687.000000 0 0 1
-11.341277 -28.156518 -22.412153 37.732197 1.187884 2.206793 0.172497 -0.057804 127822.000000 0 0 1
-12.344677 -27.225548 -22.772153 37.579149 1.145100 2.221792 0.141448 -0.046384 -146515.000000 0 0 1
-12.159177 -25.943338 -21.906953 36.066840 1.132515 2.223578 0.171361 -0.051559 129690.000000 0 0 1
-12.676677 -26.204458 -20.598453 35.660454 1.120225 2.186615 0.108806 -0.043524 270741.000000 0 0 1
-12.719477 -25.078998 -19.782653 34.381602 1.101424 2.183871 0.100307 -0.031617 -175158.000000 0 0 1
-13.325877 -25.465208 -18.421753 34.138201 1.088685 2.140785 0.124950 -0.034393 167461.000000 0 0 1
-14.745777 -25.469428 -18.466453 34.743914 1.045991 2.131169 0.150237 -0.042532 43370.900000 0 0 1
-15.152877 -25.968088 -17.209453 34.642698 1.042583 2.090669 0.147646 -0.039768 -140558.000000 0 0 1
-16.667777 -26.137878 -17.041453 35.375338 1.003126 2.073427 0.163831 -0.045932 -721866.000000 0 0 1
-17.517177 -25.012968 -16.916753 34.909549 0.959853 2.076689 0.149686 -0.037408 739522.000000 0 0 1
-18.801777 -25.425058 -16.416453 35.629206 0.934051 2.049646 0.162041 -0.031646 1305480.000000 0 0 1
-19.858677 -25.950448 -17.489453 37.063105 0.917604 2.062222 0.147780 -0.028104 -69153.000000 0 0 1
-19.664277 -27.323598 -17.906753 38.130232 0.946983 2.059658 0.158668 -0.046861 -101701.000000 0 0 1
-19.826877 -28.306928 -16.892053 38.467242 0.959785 2.025424 0.156551 -0.049689 -90235.200000 0 0 1
-21.246377 -28.685448 -16.359953 39.267181 0.933295 2.000533 0.145476 -0.043432 860752.000000 0 0 1
-21.938577 -29.447608 -17.392353 40.631967 0.930501 2.013126 0.118868 -0.037911 -61535.000000 0 0 1
-23.257477 -29.814888 -17.089253 41.495546 0.908331 1.995261 0.132715 -0.034945 -193072.000000 0 0 1
-23.890077 -30.798958 -18.064653 42.960951 0.911063 2.004782 0.100973 -0.033588 -108359.000000 0 0 1
-23.200777 -32.036748 -18.226153 43.552519 0.944018 2.002575 0.089205 -0.041934 107033.000000 0 0 1
-23.592377 -32.665698 -19.403453 44.722948 0.945302 2.019568 0.065894 -0.011420 111358.000000 0 0 1
-23.001777 33.583639 -19.392753 45.089039 -0.970270 2.015399 0.048455 -0.017411 124146.000000 0 0 1
-23.680677 32.665066 -18.561153 44.410555 -0.943518 2.001978 0.057020 -0.017068 -534710.000000 0 0 1
-22.931577 31.537219 -18.350653 43.095242 -0.942095 2.010660 0.042343 -0.016490 -286604.000000 0 0 1
-23.759177 30.270659 -17.929153 42.453101 -0.905336 2.006809 0.070998 -0.035997 120605.000000 0 0 1
-24.307577 30.323769 -16.652253 42.281045 -0.895080 1.975609 0.074726 -0.045465 307297.000000 0 0 1
-25.071647 29.212469 -16.122953 41.736141 -0.861531 1.967420 0.076175 -0.039038 454220.000000 0 0 1
-24.211377 27.960559 -15.775553 40.210094 -0.857137 1.973958 0.084663 -0.047826 59774.300000 0 0 1
-23.637177 27.379229 -16.921853 39.933537 -0.858617 2.008378 0.063369 -0.032207 -149004.000000 0 0 1
-22.988177 26.172419 -16.582353 38.580127 -0.850080 2.015085 0.072541 -0.031853 -95720.600000 0 0 1
-22.611177 25.403719 -17.854453 38.410881 -0.843493 2.054237 0.058439 -0.025441 -475649.000000 0 0 1
-22.270477 23.995959 -17.695353 37.214321 -0.822675 2.066327 0.076218 -0.038413 507518.000000 0 0 1
-21.561477 23.408629 -18.797353 36.962165 -0.826450 2.104304 0.073267 -0.021349 955500.000000 0 0 1
-20.088577 23.855029 -19.128053 36.585458 -0.870900 2.120966 0.060296 -0.031599 156039.000000 0 0 1
-19.238877 23.421689 -18.101353 35.303950 -0.883134 2.109157 0.089721 -0.044165 570894.000000 0 0 1
-17.948277 24.050759 -18.031053 35.009977 -0.929689 2.111834 0.110788 -0.060686 581043.000000 0 0 1
-17.861677 25.341219 -17.176253 35.443484 -0.956825 2.076713 0.141122 -0.057791 -379067.000000 0 0 1
-18.580077 26.452679 -17.649953 36.830481 -0.958469 2.070564 0.113450 -0.044916 -84143.700000 0 0 1
-18.154377 27.650879 -17.020253 37.200020 -0.989825 2.046016 0.133838 -0.057689 -188982.000000 0 0 1
-19.136177 28.859869 -17.131153 38.633686 -0.985286 2.030213 0.108429 -0.044148 244009.000000 0 0 1
-19.406077 29.337659 -18.481553 39.734895 -0.986398 2.054568 0.093022 -0.036740 94111.000000 0 0 1
-20.219977 28.548449 -19.310453 39.959417 -0.954542 2.075161 0.069662 -0.023501 -508074.000000 0 0 1
-20.399677 29.091389 -20.751153 41.146884 -0.959247 2.099389 0.072200 -0.029104 -163352.000000 0 0 1
-21.182977 30.240659 -20.791153 42.373199 -0.959748 2.083652 0.068138 -0.026286 -129259.000000 0 0 1
-21.751877 30.371739 -22.078153 43.393911 -0.949288 2.104569 0.076035 -0.027410 190017.000000 0 0 1
-22.311077 31.762748 -22.599553 44.915433 -0.958442 2.098045 0.075531 -0.031482 849917.000000 0 0 1
-21.273077 32.777919 -22.643553 45.162664 -0.995120 2.095987 0.058007 -0.026766 911690.000000 0 0 1
-21.759377 33.791699 -23.489053 46.551960 -0.998702 2.099688 0.078445 -0.020969 -56318.400000 0 0 1
-20.666777 -32.803058 -23.708153 45.444832 1.008591 2.119628 0.092404 -0.016788 233184.000000 0 0 1
-20.429577 -31.861548 -22.681653 44.124633 1.000633 2.110680 0.097474 -0.024542 157102.000000 0 0 1
-19.680077 -32.432048 -21.606253 43.657454 1.025385 2.088521 0.103200 -0.039490 -297586.000000 0 0 1
-19.403477 -31.525078 -20.380753 42.257550 1.019062 2.074073 0.134978 -0.047074 -713881.000000 0 0 1
-18.439477 -30.587328 -20.610153 41.235632 1.028286 2.094181 0.128110 -0.049697 -637915.000000 0 0 1
-18.282677 -29.684678 -19.581453 39.985869 1.018770 2.082553 0.134151 -0.051808 -478150.000000 0 0 1
-17.001477 -28.844158 -19.651053 38.822668 1.038189 2.101540 0.147580 -0.050476 -322455.000000 0 0 1
-15.833777 -29.589658 -19.375653 38.751416 1.079455 2.094393 0.146668 -0.053044 -894847.000000 0 0 1
-14.762977 -28.801188 -19.730153 37.904259 1.097134 2.118263 0.128735 -0.054641 -1658440.000000 0 0 1
-13.492077 -29.529808 -20.105053 38.187156 1.142222 2.125260 0.169550 -0.059083 -388133.000000 0 0 1
-12.717577 -30.143888 -19.082053 37.874998 1.171558 2.098808 0.159924 -0.050151 657516.000000 0 0 1
-11.831777 -29.261108 -18.355553 36.512049 1.186544 2.097546 0.126315 -0.039913 342898.000000 0 0 1
-11.117377 -30.094788 -17.218553 36.411137 1.216934 2.063367 0.112256 -0.018051 -11402.300000 0 0 1
-12.033077 -30.480388 -16.231753 36.569370 1.194797 2.030700 0.132395 -0.029994 1408.350000 0 0 1
-12.321077 -31.864898 -16.278053 37.843833 1.201837 2.015441 0.147339 -0.026400 -167099.000000 0 0 1
-13.118777 -32.318168 -15.043353 37.985112 1.185192 1.977989 0.152285 -0.037588 -764261.000000 0 0 1
-12.443677 -32.461468 -13.815253 37.409266 1.204737 1.949052 0.135329 -0.033674 35090.900000 0 0 1
-13.238777 -33.113398 -12.790153 37.886018 1.190461 1.915158 0.145368 -0.037031 362099.000000 0 0 1
-12.495277 -33.458128 -11.451053 37.506065 1.213376 1.881062 0.113927 -0.029158 81339.700000 0 0 1
-12.348177 -32.271738 -10.678953 36.166042 1.205352 1.870540 0.066485 -0.026918 277724.000000 0 0 1
-11.773777 -32.506648 -9.377553 35.822374 1.223298 1.835662 0.084861 -0.031541 -60356.800000 0 0 1
-10.330877 -31.984208 -9.229553 34.855433 1.258375 1.838788 0.075226 -0.026468 -584835.000000 0 0 1
-9.423577 -32.783898 -9.878453 35.512978 1.290897 1.852679 0.053605 -0.031255 -1271900.000000 0 0 1
-8.136977 -32.343228 -9.543553 34.689684 1.324329 1.849503 0.051650 -0.042886 -155383.000000 0 0 1
-7.001477 -33.033768 -10.340953 35.315518 1.361938 1.867967 0.055471 -0.057737 76208.100000 0 0 1
-6.551177 33.422667 -9.747053 35.425946 -1.377240 1.849530 0.044741 -0.035690 -453398.000000 0 0 1
-5.325977 33.083960 -10.324253 35.064293 -1.411182 1.869663 0.065220 -0.035560 -826913.000000 0 0 1
-4.534477 32.055924 -9.553653 33.755237 -1.430273 1.857745 0.081128 -0.039113 -184536.000000 0 0 1
-3.968577 32.608836 -8.372253 33.899563 -1.449689 1.820351 0.095944 -0.040796 -356798.000000 0 0 1
-3.130577 31.701684 -7.731253 32.780627 -1.472364 1.808888 0.082709 -0.035309 -343464.000000 0 0 1
-2.631777 32.186357 -6.380653 32.918088 -1.489211 1.765865 0.090982 -0.026291 -575412.000000 0 0 1
-1.747177 33.284033 -6.492453 33.956316 -1.518352 1.763181 0.063762 -0.021995 -51679.700000 0 0 1
-1.330877 33.761689 -5.234153 34.190923 -1.531397 1.724487 0.069796 -0.024029 290184.000000 0 0 1
-0.229277 32.983695 -4.466453 33.285521 -1.563845 1.705388 0.065994 -0.025402 -973101.000000 0 0 1
1.088023 33.181606 -4.841353 33.550581 1.538018 1.715602 0.061343 -0.012566 -934111.000000 0 0 1
1.928123 32.375152 -4.035053 32.682561 1.511311 1.694574 0.057532 -0.008687 -753039.000000 0 0 1
3.371623 32.396225 -4.493353 32.879681 1.467095 1.707886 0.050028 0.001970 -896296.000000 0 0 1
3.926023 33.644452 -4.262053 34.139828 1.454630 1.695964 0.043274 0.003836 -2477700.000000 0 0 1
5.267823 33.615390 -4.252453 34.290345 1.415352 1.695130 0.051862 0.002930 -1708780.000000 0 0 1
5.979023 -32.800258 -3.702253 33.545675 -1.390490 1.681386 0.060424 -0.001630 148898.000000 0 0 1
5.949223 -31.745328 -4.612853 32.625719 -1.385540 1.712659 0.062144 -0.011975 -201037.000000 0 0 1
6.414923 -30.560578 -4.013653 31.483481 -1.363892 1.698629 0.056243 -0.018073 49016.200000 0 0 1
6.198623 -29.300528 -4.841753 30.337871 -1.362317 1.731076 0.059427 -0.018641 -15907.100000 0 0 1
7.148623 -29.137288 -5.873453 30.570931 -1.330206 1.764124 0.080868 -0.018209 -270028.000000 0 0 1
6.876023 -28.113348 -6.812753 29.733039 -1.330923 1.801981 0.084773 -0.018704 224282.000000 0 0 1
7.207523 -26.666358 -6.320753 28.337165 -1.306819 1.795744 0.091250 -0.019531 636139.000000 0 0 1
6.340923 -26.260398 -5.264753 27.523325 -1.333868 1.763266 0.075034 -0.023327 -96707.600000 0 0 1
6.899223 -25.125588 -4.633653 26.464414 -1.302812 1.746793 0.073957 -0.029367 84868.300000 0 0 1
5.985723 -24.587258 -3.552053 25.553458 -1.331994 1.710253 0.066594 -0.027927 561333.000000 0 0 1
4.824523 -23.864158 -4.018953 24.676427 -1.371319 1.734391 0.060592 -0.036603 367233.000000 0 1 0
4.034223 -23.384858 -2.949453 23.912880 -1.399963 1.694453 0.062944 -0.042247 1014320.000000 0 1 0
2.599723 -22.956758 -3.450053 23.359669 -1.458032 1.719031 0.074402 -0.037197 1211830.000000 0 1 0
1.827223 -24.019258 -4.028453 24.423184 -1.494869 1.736497 0.084197 -0.036006 218665.000000 0 1 0
0.504423 -23.579858 -4.322653 23.978104 -1.549407 1.752062 0.075071 -0.028253 600514.000000 0 1 0
-15.972777 23.094842 18.027085 33.368805 -0.965719 1.000077 0.004069 -0.014709 -99022.700000 0 0 1
-16.065677 22.447442 19.286785 33.674526 -0.949610 0.960950 0.034930 -0.021111 66476.900000 0 0 1
-15.498777 23.288142 20.208285 34.509773 -0.983586 0.945199 0.042824 -0.020938 -973045.000000 0 0 1
-15.367977 22.850142 21.666885 35.039373 -0.978728 0.904144 0.070044 -0.031973 -213408.000000 0 0 1
-14.343977 21.889042 22.021485 34.202714 -0.990701 0.871274 0.052339 -0.029249 824021.000000 0 0 1
-13.027477 22.411342 22.054285 34.034907 -1.044248 0.865854 0.049167 -0.034218 -257002.000000 0 0 1
-12.569377 23.472742 23.045135 35.214161 -1.079163 0.857370 0.067761 -0.033968 -802996.000000 0 0 1
-12.381277 23.019742 24.355395 35.726598 -1.077325 0.820691 0.060702 -0.027416 234891.000000 0 0 1
-11.895477 24.091842 25.198155 36.835666 -1.112157 0.817469 0.080866 -0.029953 224730.000000 0 0 1
-11.313077 23.696042 26.583155 37.365121 -1.125371 0.779247 0.084368 -0.028002 322677.000000 0 0 1
-10.020477 23.116542 26.516615 36.577526 -1.161768 0.759845 0.053384 -0.022686 -559951.000000 0 0 1
-9.761977 22.262142 27.613205 36.788426 -1.157546 0.721834 0.047195 -0.021571 -595261.000000 0 0 1
-8.274177 21.789142 27.627425 36.145586 -1.207878 0.700783 0.039580 -0.021044 1629710.000000 0 0 1
-7.271477 22.830842 27.930755 36.800120 -1.262460 0.709043 0.028289 -0.014360 867326.000000 0 0 1
-7.265777 23.957542 27.007885 36.826366 -1.276336 0.747509 0.033588 -0.017640 -1442870.000000 0 0 1
-6.353077 25.088342 27.572415 37.815666 -1.322782 0.753751 0.035935 -0.024451 -26903.800000 0 0 1
-5.013677 24.680942 27.530605 37.312466 -1.370384 0.740933 0.040242 -0.019393 -750597.000000 0 0 1
-4.083377 25.731842 27.608535 37.960939 -1.413419 0.756434 0.055057 -0.016464 -752156.000000 0 0 1
-2.662977 25.306942 27.845975 37.721759 -1.465955 0.740407 0.052107 -0.015412 -929380.000000 0 0 1
-1.916977 25.121442 26.659025 36.680585 -1.494636 0.757162 0.052330 -0.020554 -58493.600000 0 0 1
-0.544977 24.878642 26.929415 36.666569 -1.548894 0.745954 0.067536 -0.013186 378323.000000 0 0 1
0.251223 24.653842 25.627835 35.562072 1.560607 0.766056 0.057186 -0.019390 4795.200000 0 0 1
-0.156477 23.499742 24.994165 34.307006 -1.564138 0.754602 0.060878 -0.013614 -362537.000000 0 0 1
0.441323 23.473642 23.735705 33.385481 1.551998 0.779935 0.068925 -0.005741 121365.000000 0 0 1
0.032623 22.201142 22.882295 31.882459 1.569327 0.770291 0.049973 -0.010990 598981.000000 0 0 1
0.748823 21.015942 23.287315 31.377215 1.535180 0.734490 0.069139 -0.010722 170179.000000 0 0 1
0.364923 19.958042 22.440185 30.033623 1.552514 0.727004 0.066955 -0.008540 497665.000000 0 0 1
1.279823 18.694042 22.704605 29.438143 1.502441 0.689970 0.078702 -0.006520 -68468.400000 0 0 1
2.610823 18.928042 22.377785 29.425371 1.433727 0.706724 0.078503 -0.013167 -939035.000000 0 0 1
3.323823 17.710142 22.140485 28.546419 1.385275 0.683138 0.074454 -0.012279 -531580.000000 0 0 1
4.640623 18.071342 21.481485 28.452821 1.319433 0.715163 0.068948 -0.014235 -900259.000000 0 0 1
5.611823 18.417842 22.427385 29.558367 1.275038 0.709406 0.055037 -0.007832 -438495.000000 0 0 1
6.859223 18.629542 21.778385 29.468744 1.218009 0.739162 0.064965 -0.013018 509334.000000 0 0 1
7.966223 19.244342 22.686705 30.797597 1.178321 0.742710 0.075285 -0.021308 23546.400000 0 0 1
7.616523 20.516742 23.226745 31.912847 1.215331 0.755662 0.055118 -0.015372 90003.000000 0 0 1
7.434923 21.646042 22.395985 32.022014 1.239944 0.796248 0.067490 -0.021021 677017.000000 0 0 1
5.964523 22.175842 22.653085 32.256872 1.308050 0.792213 0.052081 -0.013983 1056860.000000 0 0 1
5.889523 23.557742 22.375285 33.019798 1.325814 0.826258 0.048615 -0.020429 -802223.000000 0 0 1
4.687123 24.022042 22.846815 33.481407 1.378100 0.819792 0.024891 -0.018593 -1252650.000000 0 0 1
4.447823 25.484042 22.421785 34.233843 1.398003 0.856667 0.047642 -0.016955 14251.100000 0 0 1
4.027323 25.601242 21.063785 33.396497 1.414765 0.888318 0.058213 -0.026343 72452.000000 0 0 1
2.666923 25.346642 20.791085 32.891245 1.465964 0.886515 0.061165 -0.028167 -205102.000000 0 0 1
2.287523 25.329142 19.286985 31.918427 1.480729 0.921961 0.062252 -0.031977 -615029.000000 0 0 1
2.441823 26.614442 18.777585 32.663263 1.479304 0.958334 0.078189 -0.033095 -122387.000000 0 0 1
1.739423 26.818342 17.591685 32.120343 1.506028 0.991207 0.079171 -0.034220 -385912.000000 0 0 1
0.600723 27.855442 17.783685 33.053683 1.549234 1.002705 0.078429 -0.022042 -18916.900000 0 0 1
0.906023 29.208242 18.075685 34.360918 1.539787 1.016843 0.080483 -0.024290 744138.000000 0 0 1
-0.314977 29.931042 18.330985 35.099737 -1.560273 1.021304 0.069051 -0.025677 530735.000000 0 0 1
0.027223 31.317542 18.869185 36.562759 1.569927 1.028532 0.077376 -0.019601 110678.000000 0 0 1
0.489023 31.351142 20.233185 37.316418 1.555199 0.997736 0.096283 -0.021631 -1023.520000 0 0 1
0.894723 32.645742 20.538685 38.579562 1.543396 1.009396 0.118730 -0.024317 -290319.000000 0 0 1
1.395823 32.640542 22.026685 39.402134 1.528059 0.977590 0.117960 -0.034623 211794.000000 0 0 1
0.387523 32.506142 23.029245 39.838996 1.558875 0.954450 0.128477 -0.027743 375539.000000 0 0 1
0.977123 32.734842 24.295485 40.777387 1.540956 0.932525 0.137109 -0.038318 359798.000000 0 0 1
0.040723 32.344342 25.515145 41.196854 1.569537 0.902886 0.146339 -0.024274 986041.000000 0 0 1
-0.994377 33.339842 25.727145 42.123863 -1.540980 0.913789 0.150344 -0.021922 945345.000000 0 0 1
-1.951277 33.077342 26.750865 42.585524 -1.511873 0.891600 0.147456 -0.021932 330989.000000 0 0 1
-1.485877 33.279342 28.272075 43.692479 -1.526177 0.867062 0.164158 -0.035586 97610.500000 0 0 1
-0.414077 32.398342 28.639705 43.244153 -1.558016 0.846940 0.158250 -0.034170 358398.000000 0 0 1
-0.059977 32.669842 30.016835 44.365894 -1.568960 0.827695 0.164323 -0.045644 -257499.000000 0 0 1
1.161623 31.787542 30.338685 43.957173 1.534269 0.809048 0.139167 -0.040120 -302736.000000 0 0 1
2.362223 32.063442 29.675465 43.752459 1.497256 0.825407 0.123309 -0.038446 -180735.000000 0 0 1
2.612223 31.475542 28.368685 42.453690 1.487994 0.838974 0.116691 -0.039200 6370.180000 0 0 1
4.128823 31.305642 28.094225 42.265540 1.439666 0.843694 0.090021 -0.040506 306499.000000 0 0 1
4.874023 30.375542 28.820515 42.155092 1.411694 0.818005 0.091868 -0.037342 -189415.000000 0 0 1
6.208523 30.261842 28.406795 41.967498 1.368444 0.827286 0.079019 -0.048217 -219711.000000 0 0 1
7.041123 29.146742 29.045425 41.746218 1.333763 0.801316 0.083646 -0.038017 -69191.200000 0 0 1
7.403323 29.402342 30.360155 42.907411 1.324130 0.784738 0.091593 -0.040902 28007.900000 0 0 1
8.044623 28.311042 31.000535 42.746512 1.293942 0.759446 0.081972 -0.034568 -15982.600000 0 0 1
7.879223 28.314042 32.535764 43.844533 1.299384 0.734641 0.103220 -0.046540 155597.000000 0 0 1
6.557423 28.361042 33.079103 44.063313 1.343577 0.721649 0.122642 -0.050834 426862.000000 0 0 1
6.355723 27.821742 -33.379273 43.916061 1.346206 2.434217 0.143731 -0.050873 -68957.400000 0 0 1
6.465223 26.290542 -33.243803 42.873560 1.329667 2.458131 0.136579 -0.051323 -464712.000000 0 0 1
7.777123 25.823242 -33.379943 42.913215 1.278269 2.462030 0.106216 -0.045428 -216276.000000 0 0 1
7.782323 24.453642 -32.921423 41.741649 1.262683 2.479479 0.112905 -0.049897 -750260.000000 0 0 1
9.184723 23.938742 -33.086193 41.858316 1.204441 2.482312 0.093566 -0.036719 -1132510.000000 0 0 1
9.697523 23.797742 33.348939 42.101380 1.183843 0.656538 0.058437 -0.026667 1230530.000000 0 0 1
11.097323 23.427542 33.255151 42.165215 1.128420 0.662126 0.072534 -0.040992 1230240.000000 0 0 1
11.300523 21.897942 33.472005 41.564370 1.094388 0.634606 0.074089 -0.038261 -1506980.000000 0 0 1
10.721823 21.101642 32.496291 40.202559 1.100687 0.629514 0.059917 -0.032774 191522.000000 0 0 1
10.037423 19.967242 33.032645 39.882280 1.104995 0.594812 0.043241 -0.030089 135979.000000 0 0 1
8.793423 20.122742 -33.824293 40.327804 1.158815 2.565750 0.080379 -0.036964 -808164.000000 0 0 1
9.067723 20.557442 -32.489093 39.501559 1.155375 2.536547 0.090451 -0.040127 70465.800000 0 0 1
7.870823 20.631642 -31.730783 38.658208 1.206346 2.533612 0.099974 -0.041093 188830.000000 0 0 1
8.064923 21.209642 -30.333863 37.881857 1.207433 2.499341 0.119389 -0.053979 -502068.000000 0 0 1
8.161723 22.584242 -30.273433 38.641201 1.224011 2.470994 0.144903 -0.054383 -34493.700000 0 0 1
8.437423 23.097542 -28.962713 37.993753 1.220561 2.437659 0.114822 -0.046440 326376.000000 0 0 1
9.985823 23.196142 -28.736483 38.256543 1.164281 2.420602 0.105690 -0.045968 502839.000000 0 0 1
10.568723 21.908242 -28.730393 37.644448 1.121321 2.439054 0.099829 -0.037942 -1352520.000000 0 0 1
11.946723 22.057542 -28.670433 38.095315 1.074413 2.422794 0.105775 -0.036527 -452329.000000 0 0 1
12.653723 20.635142 -28.675343 37.526005 1.020719 2.440513 0.107534 -0.040456 128463.000000 0 0 1
12.563423 19.849542 -29.843173 37.979716 1.006513 2.474730 0.100590 -0.034836 775536.000000 0 0 1
11.289923 19.179842 -29.946503 37.311147 1.038775 2.502463 0.106906 -0.036019 479519.000000 0 0 1
11.251623 18.060042 -31.025763 37.621298 1.013628 2.540443 0.095596 -0.036155 -562257.000000 0 0 1
11.705423 16.769742 -30.748073 36.928108 0.961408 2.554666 0.105010 -0.032458 142766.000000 0 0 1
11.624823 16.040242 -31.916623 37.564567 0.943666 2.586112 0.081788 -0.017118 559816.000000 0 0 1
12.862623 16.123942 -32.897633 38.828891 0.897438 2.581576 0.066940 -0.003141 273399.000000 0 0 1
13.052623 17.399742 -33.470163 39.917086 0.927192 2.565306 0.060089 -0.013945 -23766.700000 0 0 1
13.588823 17.407342 32.964864 39.678129 0.907974 0.590240 0.073679 -0.016037 67382.400000 0 0 1
12.598323 16.937242 31.865884 38.223324 0.931260 0.585065 0.081815 -0.025464 -474689.000000 0 0 1
13.057323 17.148342 30.537705 37.377945 0.920018 0.614611 0.069148 -0.026284 149907.000000 0 0 1
12.144523 16.989042 29.434555 36.090304 0.950177 0.617064 0.055690 -0.022044 422943.000000 0 0 1
10.850823 17.853442 29.363005 36.037090 1.024682 0.618413 0.037063 -0.017993 596646.000000 0 0 1
9.929523 17.304742 30.308675 36.285883 1.049862 0.582164 0.050733 -0.017004 -531976.000000 0 0 1
8.615923 17.760842 30.284435 36.150085 1.119133 0.577662 0.057012 -0.022875 95537.900000 0 0 1
7.611123 16.994742 31.216115 36.348264 1.149730 0.537861 0.073565 -0.026645 214516.000000 0 0 1
7.885723 17.055442 32.576342 37.607058 1.137713 0.523190 0.082100 -0.023699 47546.500000 0 0 1
7.228223 15.919742 33.085565 37.421117 1.144587 0.486143 0.107702 -0.025432 -95523.500000 0 0 1
7.368423 15.719342 -33.160963 37.430480 1.132461 2.659302 0.101923 -0.026057 -447336.000000 0 0 1
6.561123 16.635542 -32.496833 37.092233 1.195123 2.638527 0.112729 -0.031702 -160278.000000 0 0 1
6.836523 16.822942 -31.122473 36.032731 1.184801 2.613417 0.114369 -0.040727 340019.000000 0 0 1
5.737123 17.773642 -30.528983 35.788765 1.258566 2.592565 0.117452 -0.046931 -419475.000000 0 0 1
5.862223 17.828142 -29.132563 34.654213 1.253115 2.569305 0.101534 -0.053790 262627.000000 0 0 1
5.000523 18.771842 -28.514963 34.503484 1.310458 2.543546 0.109137 -0.054252 1589760.000000 0 0 1
3.426623 18.641342 -28.717423 34.408309 1.389007 2.558216 0.138773 -0.064663 59412.900000 0 0 1
2.842623 17.748042 -27.770133 33.079507 1.411980 2.567152 0.147184 -0.059627 823868.000000 0 0 1
1.413523 17.695342 -27.953933 33.114129 1.491085 2.575810 0.147257 -0.058471 1661460.000000 0 0 1
0.500123 18.943042 -27.574073 33.457711 1.544401 2.539491 0.135860 -0.062473 -175353.000000 0 0 1
0.332223 18.946442 -26.182203 32.320052 1.553263 2.515105 0.144406 -0.062501 294510.000000 0 0 1
-0.409077 20.157442 -25.867353 32.796490 -1.550505 2.479526 0.141549 -0.065304 576641.000000 0 0 1
-1.011777 20.385942 -24.416353 31.824026 -1.521206 2.445308 0.131140 -0.063961 685207.000000 0 0 1
-2.017977 19.432142 -24.034253 30.972983 -1.467320 2.459055 0.129089 -0.063019 371580.000000 0 0 1
-2.399077 19.724442 -22.719453 30.182490 -1.449761 2.423005 0.135644 -0.062976 -135935.000000 0 0 1
-3.443577 18.789442 -22.082853 29.198523 -1.389536 2.428436 0.115539 -0.054380 572283.000000 0 0 1
-4.795177 19.144642 -22.380653 29.839649 -1.325374 2.418905 0.114739 -0.042914 342388.000000 0 0 1
-5.714577 18.247942 -21.816453 29.010367 -1.267308 2.421922 0.109359 -0.046088 1094710.000000 0 0 1
-7.258577 18.567942 -21.959653 29.659430 -1.198142 2.404452 0.129081 -0.036554 1503370.000000 0 0 1
-7.776877 19.532042 -21.004353 29.718064 -1.191877 2.355743 0.103111 -0.030560 77906.400000 0 0 1
-7.575077 20.849942 -21.382653 30.811032 -1.222310 2.337817 0.111424 -0.040924 -311261.000000 0 0 1
-8.118177 21.866842 -20.436753 31.011682 -1.215313 2.290287 0.119708 -0.044940 90614.500000 0 0 1
-7.233777 22.185142 -19.353553 30.316135 -1.255602 2.263203 0.129801 -0.044348 324107.000000 0 0 1
-7.566077 23.378442 -18.680853 30.866994 -1.257800 2.220819 0.134010 -0.046914 -28905.900000 0 0 1
-6.882177 23.490342 -17.266753 29.954988 -1.285793 2.185141 0.146605 -0.042015 744297.000000 0 0 1
-5.484677 23.765642 -17.311553 29.909485 -1.343986 2.188050 0.138667 -0.045294 59665.800000 0 0 1
-4.864377 23.718442 -16.028453 29.036838 -1.368513 2.155562 0.134853 -0.037565 1569070.000000 0 0 1
-3.303077 23.996142 -16.147353 29.111203 -1.434006 2.158773 0.123977 -0.036864 1408350.000000 0 0 1
-3.054877 25.326642 -16.492653 30.377272 -1.450757 2.144715 0.103547 -0.040667 647863.000000 0 0 1
-1.670777 25.417942 -16.898453 30.568300 -1.505159 2.156529 0.097194 -0.046728 1137890.000000 0 0 1
-1.203077 26.873442 -17.002353 31.823093 -1.526058 2.134449 0.076770 -0.057586 -343661.000000 0 0 1
-1.970077 27.509642 -17.974553 32.920300 -1.499304 2.148381 0.078383 -0.057874 -209491.000000 0 0 1
-1.351177 28.648642 -18.597953 34.182660 -1.523668 2.146083 0.078342 -0.063251 -903447.000000 0 0 1
-2.244677 29.303042 -19.698053 35.379657 -1.494343 2.161279 0.122175 -0.065255 848491.000000 0 0 1
-3.374877 30.044042 -19.211053 35.820369 -1.458934 2.136863 0.078739 -0.047435 588467.000000 0 0 1
-4.390777 29.263542 -18.569953 34.935325 -1.421865 2.131228 0.052436 -0.052426 -1096070.000000 0 0 1
-5.319277 30.098242 -17.734653 35.337187 -1.395872 2.096555 0.091219 -0.034675 -448424.000000 0 0 1
-5.864377 31.156842 -18.422053 36.667584 -1.384752 2.097177 0.136981 -0.032977 -19059.500000 0 0 1
-5.494177 32.379942 -17.821253 37.366344 -1.402719 2.067959 0.127502 -0.051875 96176.600000 0 0 1
-6.254977 33.576942 -18.503953 38.844974 -1.386620 2.067299 0.128604 -0.035146 978702.000000 0 0 1
-7.622877 33.647842 -18.065653 38.944234 -1.348008 2.053172 0.145602 -0.053671 763987.000000 0 0 1
-8.174177 -32.754805 -18.212853 38.358863 1.326235 2.065535 0.201301 -0.056520 -38822.400000 0 0 1
31.017123 -20.352858 -26.123613 45.373383 -0.580708 2.184314 0.070183 -0.013134 154254.000000 0 0 1
30.410523 -21.619358 -25.935333 45.440489 -0.618015 2.178220 0.092552 -0.033637 622757.000000 0 0 1
28.998723 -21.616458 -26.210913 44.667764 -0.640569 2.197894 0.099913 -0.022428 798954.000000 0 0 1
28.309823 -22.873358 -25.716063 44.564026 -0.679579 2.185919 0.088625 -0.019631 -202902.000000 0 0 1
28.695723 -24.122358 -26.245893 45.762206 -0.699026 2.181602 0.065472 -0.001218 -737998.000000 0 0 1
29.984023 -24.567158 -25.894603 46.616706 -0.686424 2.159735 0.073347 -0.000548 -135492.000000 0 0 1
30.223223 -26.022298 -26.346913 47.799194 -0.710848 2.154598 0.073440 -0.012086 176135.000000 0 0 1
29.453423 -26.984888 -25.598053 47.444163 -0.741687 2.140688 0.080665 -0.022815 -37179.500000 0 0 1
29.558923 -28.326688 -26.044743 48.522776 -0.764114 2.137380 0.067700 -0.019717 900158.000000 0 0 1
28.531923 -28.662318 -27.236103 48.758634 -0.787678 2.163482 0.073142 -0.016151 295240.000000 0 0 1
28.527523 -27.965138 -28.458803 49.048669 -0.775443 2.189790 0.053726 -0.023251 115172.000000 0 0 1
29.616923 -28.031628 -29.393753 50.268549 -0.757906 2.195349 0.037979 -0.020670 29847.000000 0 0 1
29.942023 -29.380128 -30.096643 51.628718 -0.775927 2.193143 0.053866 -0.022876 -611079.000000 0 0 1
30.429423 -30.424138 -29.289703 52.052518 -0.785311 2.168439 0.067705 -0.023270 379130.000000 0 0 1
31.737823 -30.310218 -28.723243 52.450199 -0.762394 2.150324 0.059289 -0.017949 344008.000000 0 0 1
32.984623 -30.290038 -29.603753 53.682901 -0.742838 2.154905 0.056406 -0.026765 -552697.000000 0 0 1
33.057923 -29.039878 -30.315973 53.434062 -0.720783 2.174084 0.061651 -0.035817 -673696.000000 0 0 1
34.308523 -28.784008 -30.885653 54.401447 -0.698059 2.174549 0.063965 -0.032212 -239149.000000 0 0 1
34.302423 -27.389918 -31.594223 54.083812 -0.673816 2.194655 0.059766 -0.018800 170968.000000 0 0 1
34.222523 -26.168558 -30.940883 53.040670 -0.652817 2.193634 0.044149 -0.010932 -261122.000000 0 0 1
32.990123 -25.961048 -30.297243 51.771103 -0.666723 2.195942 0.047920 -0.013125 -199845.000000 0 0 1
32.898123 -24.561858 -29.708013 50.676793 -0.641324 2.197188 0.044513 -0.016124 5448.090000 0 0 1
33.850923 -24.313458 -28.674543 50.589115 -0.622870 2.173428 0.043872 -0.018308 381693.000000 0 0 1
33.472323 -23.203058 -27.904703 49.370545 -0.606148 2.171484 0.036554 -0.014155 255098.000000 0 0 1
34.517523 -23.023058 -26.781203 49.383736 -0.588231 2.143978 0.035510 -0.015003 134562.000000 0 0 1
34.225523 -23.819658 -25.605893 48.932855 -0.608011 2.121499 0.044552 -0.021975 -317258.000000 0 0 1
33.429223 -23.186358 -24.672753 47.580089 -0.606415 2.115953 0.071181 -0.011544 -589578.000000 0 0 1
34.004523 -22.032458 -23.840553 47.011793 -0.574917 2.102635 0.056864 -0.000875 -189111.000000 0 0 1
34.254423 -20.813758 -24.583553 47.020517 -0.546005 2.120959 0.045588 -0.009344 -40612.500000 0 0 1
34.337323 -19.651758 -23.751153 46.144995 -0.519814 2.111462 0.019525 -0.015265 -9847.900000 0 0 1
34.339623 -18.335558 -24.448853 45.968998 -0.490435 2.131586 0.004606 -0.016500 290480.000000 0 0 1
33.222123 -18.037458 -25.278493 45.475944 -0.497403 2.160200 0.019358 -0.017051 174909.000000 0 0 1
33.464723 -16.906858 -26.104443 45.685571 -0.467810 2.178999 0.021612 -0.015989 11875.300000 0 0 1
32.406723 -16.834458 -27.245303 45.562058 -0.479105 2.211778 0.031276 -0.007361 -667296.000000 0 0 1
31.124523 -16.721058 -26.722713 44.299357 -0.492987 2.218341 0.047047 -0.007128 -691775.000000 0 0 1
30.337923 -16.360158 -27.857673 44.318103 -0.494563 2.250528 0.058101 -0.018474 -270148.000000 0 0 1
28.918723 -15.799258 -27.650573 43.017011 -0.500024 2.268921 0.077837 -0.009967 345288.000000 0 0 1
28.086923 -16.647758 -26.844153 42.268565 -0.535051 2.258916 0.080463 -0.001211 205974.000000 0 0 1
27.986023 -16.343258 -25.513823 41.246511 -0.528556 2.237717 0.093539 0.002296 14703.000000 0 0 1
27.078023 -17.383258 -24.788353 40.618461 -0.570709 2.227202 0.105977 -0.005402 89929.800000 0 0 1
26.975923 -17.197458 -23.400453 39.636273 -0.567546 2.202326 0.107159 0.003606 -105898.000000 0 0 1
26.168323 -18.224058 -22.882853 39.249489 -0.608317 2.193225 0.117430 -0.003675 -141092.000000 0 0 1
25.952823 -18.069458 -21.406453 38.187570 -0.608200 2.165859 0.107612 -0.014064 -188328.000000 0 0 1
25.208423 -16.954458 -20.933153 36.893293 -0.592079 2.174138 0.099336 -0.016698 -51029.000000 0 0 1
25.573423 -15.599858 -21.267653 36.737836 -0.547742 2.188179 0.090704 -0.010140 148328.000000 0 0 1
26.897623 -14.966058 -20.726553 37.108692 -0.507750 2.163417 0.074473 -0.013454 305966.000000 0 0 1
26.895823 -14.369058 -19.439253 36.162683 -0.490670 2.138325 0.070300 -0.025569 288323.000000 0 0 1
27.991123 -13.464858 -19.359353 36.600408 -0.448365 2.128145 0.042094 -0.021044 101411.000000 0 0 1
27.944423 -12.501558 -18.164053 35.596524 -0.420667 2.106302 0.054450 -0.019967 -203893.000000 0 0 1
28.092723 -13.031058 -16.884753 35.271864 -0.434319 2.069973 0.054513 -0.019703 275015.000000 0 0 1
27.936923 -12.050858 -15.884653 34.322253 -0.407245 2.051958 0.043914 -0.019141 -19171.500000 0 0 1
28.436823 -12.325258 -14.424553 34.185269 -0.408986 2.006394 0.070269 -0.022896 195718.000000 0 0 1
27.804523 -13.488858 -13.799353 33.844688 -0.451682 1.990758 0.100110 -0.032410 711895.000000 0 0 1
28.138523 -13.538858 -12.418753 33.605097 -0.448454 1.949321 0.114485 -0.026538 25005.300000 0 0 1
27.583723 -14.829158 -11.726253 33.440555 -0.493277 1.929072 0.122272 -0.032087 315098.000000 0 0 1
26.169823 -14.864858 -11.614253 32.260107 -0.516569 1.939085 0.101258 -0.043677 466724.000000 0 0 1
25.732623 -16.166558 -11.235553 32.400048 -0.560934 1.924928 0.084440 -0.039387 1029270.000000 0 0 1
24.209123 -16.275758 -10.824253 31.115050 -0.591891 1.926103 0.088475 -0.044143 910009.000000 0 0 1
23.884723 -15.817358 -9.535053 30.192483 -0.584930 1.892105 0.080633 -0.035424 840312.000000 0 0 1
22.486223 -15.664858 -9.292453 28.937306 -0.608469 1.897712 0.086428 -0.040160 262441.000000 0 0 1
22.049523 -15.144458 -7.885353 27.887539 -0.601838 1.857462 0.080706 -0.035302 -320319.000000 0 0 1
22.552223 -13.864358 -7.559153 27.531145 -0.551207 1.848936 0.104033 -0.020233 429304.000000 0 0 1
22.254323 -13.378458 -6.223753 26.701556 -0.541274 1.806046 0.106746 -0.019344 -215171.000000 0 0 1
23.018223 -14.091658 -5.033953 27.454582 -0.549339 1.755195 0.088596 -0.020476 682206.000000 0 0 1
24.432223 -13.885658 -5.036353 28.550129 -0.516810 1.748128 0.108223 -0.019911 690149.000000 0 0 1
25.108423 -14.596758 -4.049253 29.323961 -0.526593 1.709326 0.112011 -0.030958 -253606.000000 0 0 1
26.643523 -14.563658 -4.210753 30.654655 -0.500238 1.708593 0.125364 -0.027559 -232737.000000 0 0 1
27.217023 -13.463958 -3.627253 30.581064 -0.459390 1.689687 0.121315 -0.025644 -118038.000000 0 0 1
28.588623 -13.353458 -3.924253 31.796603 -0.436975 1.694529 0.139304 -0.044630 14138.700000 0 0 1
29.333623 -12.084258 -3.351853 31.901812 -0.390773 1.676058 0.170320 -0.040903 -326975.000000 0 0 1
29.942323 -12.455458 -2.130153 32.499518 -0.394207 1.636387 0.179246 -0.037872 223708.000000 0 0 1
30.487123 -11.424658 -1.323653 32.584345 -0.358540 1.611430 0.187470 -0.041149 1211410.000000 0 0 1
31.952623 -10.968258 -1.746053 33.827821 -0.330663 1.622435 0.207395 -0.048842 594522.000000 0 0 1
32.101023 -10.296858 -3.033453 33.848232 -0.310396 1.660536 0.204830 -0.053200 233933.000000 0 0 1
33.355023 -10.319358 -3.689753 35.109272 -0.300039 1.676084 0.216788 -0.053447 -211395.000000 0 0 1
33.286723 -9.907558 -5.144053 35.108787 -0.289293 1.717843 0.193480 -0.058164 -76621.900000 0 0 1
32.388823 -10.784558 -5.824853 34.630499 -0.321425 1.739800 0.179024 -0.058210 544145.000000 0 0 1
32.315323 -10.499058 -7.182053 34.728838 -0.314136 1.779103 0.162163 -0.057133 36621.400000 0 0 1
31.080123 -11.040758 -7.955153 33.928702 -0.341331 1.807466 0.164584 -0.045184 60280.900000 0 0 1
31.023723 -12.402958 -8.004353 34.356577 -0.380325 1.805936 0.152568 -0.042637 387315.000000 0 0 1
29.690223 -12.831658 -8.214653 33.371264 -0.407940 1.819512 0.153817 -0.039302 350802.000000 0 0 1
29.699323 -14.345758 -8.115553 33.966347 -0.449982 1.812059 0.162986 -0.037885 -19302.100000 0 0 1
30.246423 -14.971058 -9.228253 34.987702 -0.459615 1.837711 0.170526 -0.040419 243945.000000 0 0 1
30.447623 -16.379158 -9.164353 35.767582 -0.493541 1.829905 0.162359 -0.040090 -101853.000000 0 0 1
30.682723 -16.930858 -10.592153 36.609795 -0.504227 1.864319 0.134409 -0.042633 347436.000000 0 0 1
31.961823 -16.639858 -11.167853 37.724845 -0.480005 1.871335 0.143067 -0.035536 835813.000000 0 0 1
32.190023 -17.304758 -12.407553 38.595331 -0.493259 1.898086 0.133165 -0.028051 -122206.000000 0 0 1
31.561823 -16.670958 -13.664753 38.220347 -0.485952 1.936413 0.115506 -0.027492 -1784.880000 0 0 1
32.230023 -15.490358 -14.102253 38.439551 -0.448023 1.946437 0.112948 -0.031282 609693.000000 0 0 1
31.507023 -14.886858 -15.153453 37.999186 -0.441401 1.980986 0.097327 -0.030862 369700.000000 0 0 1
32.528823 -13.927958 -15.854353 38.774641 -0.404555 1.992028 0.083326 -0.026738 982384.000000 0 0 1
33.521723 -14.470458 -16.714553 40.155651 -0.407510 2.000107 0.061389 -0.031550 521535.000000 0 0 1
34.747223 -14.804558 -16.096753 41.056667 -0.402772 1.973668 0.080183 -0.032551 -396245.000000 0 0 1
35.840223 -15.214258 -17.097353 42.524283 -0.401449 1.984563 0.081735 -0.040516 -6172.850000 0 0 1
37.099123 -15.397258 -16.474753 43.414720 -0.393396 1.960024 0.095768 -0.046045 693745.000000 0 0 1
-37.033118 -15.801558 -17.376253 43.852882 0.403299 1.978214 0.099204 -0.047376 1833350.000000 0 0 1
-35.490818 -15.880658 -16.967653 42.422809 0.420738 1.982275 0.119669 -0.045974 1600660.000000 0 0 1
-35.140118 -16.802458 -15.935553 42.084348 0.446020 1.959142 0.110358 -0.044189 167123.000000 0 0 1
-35.491918 -16.344958 -14.628453 41.723201 0.431573 1.929016 0.098045 -0.040191 -216029.000000 0 0 1
-34.861018 -17.210658 -13.501553 41.155671 0.458590 1.905046 0.095986 -0.028507 450250.000000 0 0 1
-33.443818 -17.102958 -13.387153 39.877513 0.472721 1.913152 0.121650 -0.037347 403321.000000 0 0 1
-32.996418 -17.605258 -12.143153 39.321303 0.490126 1.884747 0.129283 -0.021265 -1179100.000000 0 0 1
-31.504118 -17.698558 -12.296053 38.169901 0.511847 1.898785 0.173184 -0.029030 -1593740.000000 0 0 1
-30.784318 -16.498358 -12.280853 37.022823 0.491980 1.908912 0.157049 -0.034565 180066.000000 0 0 1
-29.526918 -16.549158 -11.636453 35.792745 0.510851 1.901921 0.169048 -0.030776 -42037.900000 0 0 1
-29.586518 -16.584158 -10.103353 35.390311 0.510892 1.860307 0.172354 -0.039166 -492120.000000 0 0 1
-29.990918 -17.832458 -9.520753 36.167616 0.536436 1.837175 0.178073 -0.038338 79701.700000 0 0 1
-30.062818 -17.749558 -8.111253 35.841488 0.533342 1.799083 0.176955 -0.047101 111061.000000 0 0 1
-30.705318 -19.080158 -7.517353 36.923970 0.556003 1.775820 0.168055 -0.047704 1950670.000000 0 0 1
-32.123218 -19.305258 -7.800653 38.281122 0.541136 1.776006 0.149822 -0.039080 1572180.000000 0 0 1
-32.347518 -19.914158 -9.036453 39.046038 0.551834 1.804344 0.138186 -0.031173 551750.000000 0 0 1
-33.844818 -20.323258 -9.301453 40.558890 0.540775 1.802188 0.115207 -0.028831 874108.000000 0 0 1
-34.737218 -19.233058 -9.375053 40.797996 0.505659 1.802660 0.112598 -0.028971 818828.000000 0 0 1
-36.088318 -19.717858 -9.432553 42.191631 0.500058 1.796266 0.105744 -0.028944 1229320.000000 0 0 1
-37.203918 -18.844258 -10.077753 42.904530 0.468844 1.807900 0.093603 -0.045234 287248.000000 0 0 1
-37.374118 -19.015858 -11.487453 43.478605 0.470661 1.838180 0.089712 -0.043453 -343055.000000 0 0 1
36.756723 -18.161158 -11.847853 42.676175 -0.458909 1.852114 0.107652 -0.041759 -798407.000000 0 0 1
36.152523 -18.430258 -13.194853 42.670639 -0.471450 1.885175 0.093538 -0.043439 -714884.000000 0 0 1
35.301423 -19.507658 -13.302853 42.470049 -0.504839 1.889388 0.064113 -0.032573 -225552.000000 0 0 1
34.766123 -19.492258 -14.609953 42.450938 -0.510997 1.922141 0.056975 -0.033340 -180707.000000 0 0 1
33.552623 -20.386158 -14.935453 42.005258 -0.545980 1.934311 0.074241 -0.035956 -118748.000000 0 0 1
32.367323 -19.948858 -14.294953 40.619530 -0.552338 1.930421 0.096767 -0.035835 159242.000000 0 0 1
31.211623 -20.604858 -14.767453 40.209492 -0.583489 1.946861 0.111408 -0.031382 125153.000000 0 0 1
30.435823 -20.161758 -16.018853 39.867774 -0.585067 1.984277 0.122067 -0.033169 -459136.000000 0 0 1
29.709223 -18.965558 -15.878453 38.658189 -0.568158 1.994062 0.082565 -0.026410 338341.000000 0 0 1
28.967223 -18.662658 -17.043353 38.443083 -0.572335 2.030118 0.081015 -0.025182 261849.000000 0 0 1
28.231623 -17.265258 -16.937153 37.175002 -0.548874 2.043849 0.078245 -0.021795 371600.000000 0 0 1
27.196123 -17.098158 -15.984053 35.881277 -0.561254 2.032496 0.087529 -0.029047 436348.000000 0 0 1
26.585223 -15.829758 -15.895953 34.785581 -0.537056 2.045382 0.066378 -0.023804 -1187550.000000 0 0 1
25.209323 -15.923258 -15.164453 33.451767 -0.563361 2.041286 0.056356 -0.023132 139447.000000 0 0 1
24.214523 -16.506858 -15.984353 33.381417 -0.598333 2.070129 0.062059 -0.017119 145277.000000 0 0 1
23.815123 -15.667358 -17.056353 33.219653 -0.581891 2.109987 0.068559 -0.013483 -1767580.000000 0 0 1
22.788423 -16.275858 -17.981353 33.279796 -0.620203 2.141600 0.066429 -0.013932 963257.000000 0 0 1
21.431323 -16.398158 -17.515253 32.171187 -0.653126 2.146517 0.067999 -0.011592 1202040.000000 0 0 1
20.515723 -17.134758 -18.329153 32.410687 -0.695840 2.171870 0.066360 -0.010309 1743770.000000 0 0 1
19.010123 -17.113058 -17.847653 31.189425 -0.732930 2.180024 0.080006 -0.012315 1495560.000000 0 0 1
18.237823 -15.908358 -18.048453 30.190076 -0.717283 2.211584 0.084398 -0.016894 843759.000000 0 0 1
16.991823 -16.056758 -17.380553 29.131171 -0.757112 2.210092 0.091678 -0.016067 564381.000000 0 0 1
16.049523 -14.842958 -17.104153 27.757028 -0.746361 2.234717 0.105215 -0.024525 328793.000000 0 0 1
15.470023 -14.260858 -18.285853 27.875905 -0.744750 2.286268 0.106746 -0.024783 295978.000000 0 0 1
14.131123 -13.882958 -18.018553 26.778600 -0.776540 2.308880 0.112210 -0.020096 166882.000000 0 0 1
13.373223 -13.649458 -19.348053 27.193711 -0.795620 2.362413 0.093894 -0.017408 3539.660000 0 0 1
13.505123 -12.361358 -19.857453 27.009442 -0.741209 2.396764 0.122817 -0.023989 -157020.000000 0 0 1
13.002323 -12.237158 -21.166453 27.691644 -0.755091 2.440848 0.101652 -0.017598 -26908.000000 0 0 1
13.357523 -10.940058 -21.796053 27.806046 -0.686230 2.471655 0.122944 -0.018738 -521949.000000 0 0 1
14.647723 -10.761358 -22.299653 28.768683 -0.633623 2.457727 0.127960 -0.024150 -699936.000000 0 0 1
14.791023 -9.377558 -22.685953 28.659473 -0.565047 2.484169 0.135178 -0.037166 1316270.000000 0 0 1
16.251223 -9.100758 -23.248953 29.789928 -0.510492 2.466150 0.121652 -0.031204 1162030.000000 0 0 1
16.533523 -9.665958 -24.461253 31.066719 -0.529040 2.477341 0.134858 -0.025570 520559.000000 0 0 1
17.890523 -9.294658 -24.739253 31.913823 -0.479149 2.457811 0.113875 -0.031998 452157.000000 0 0 1
22.624723 5.331642 -7.345953 24.377603 0.231433 1.876894 0.193989 0.010157 -78280.100000 0 1 0
22.658423 6.740942 -7.416753 24.776050 0.289164 1.874809 0.184849 0.009265 513886.000000 0 1 0
22.546423 7.284342 -6.121253 24.471873 0.312496 1.823615 0.177132 0.003642 -50618.300000 0 1 0
21.910923 8.726642 -5.982053 24.331621 0.379021 1.819198 0.145484 0.011316 -795785.000000 0 1 0
20.575323 8.789042 -6.366453 23.262048 0.403702 1.848018 0.106415 -0.015326 -364998.000000 0 1 0
19.905823 9.994942 -6.233753 23.130074 0.465335 1.843679 0.071529 -0.008519 -344379.000000 0 1 0
19.650823 10.582442 -4.818253 22.833276 0.493990 1.783414 0.107531 -0.008170 -689840.000000 0 1 0
20.736223 11.144042 -4.123953 23.899531 0.493133 1.744218 0.131044 -0.000537 151996.000000 0 1 0
21.274623 12.380742 -4.617053 25.044151 0.527041 1.756213 0.179476 -0.014521 -342562.000000 0 0 1
22.223123 13.065642 -3.698653 26.043391 0.531497 1.713297 0.148629 -0.027965 -735637.000000 0 0 1
23.378623 12.379242 -3.332053 26.662862 0.486977 1.696094 0.138822 -0.047419 -19267.600000 0 0 1
23.854423 12.701142 -2.004853 27.099298 0.489265 1.644846 0.136518 -0.053066 -119615.000000 0 0 1
24.752023 11.581842 -1.470153 27.367189 0.437652 1.624542 0.119788 -0.055165 290551.000000 0 0 1
26.000423 11.520242 -2.177153 28.521535 0.417084 1.647204 0.094897 -0.039729 1084430.000000 0 0 1
26.866823 10.508142 -1.604153 28.893261 0.372828 1.626345 0.127202 -0.045553 1006790.000000 0 0 1
28.345123 10.382342 -2.095053 30.259350 0.351107 1.640088 0.125647 -0.044400 341796.000000 0 0 1
29.089823 11.487642 -1.712153 31.322758 0.376104 1.625485 0.128842 -0.055252 315625.000000 0 0 1
30.476523 11.308842 -2.008953 32.569069 0.355318 1.632518 0.139027 -0.050064 951001.000000 0 0 1
31.424423 12.283442 -1.218753 33.761852 0.372627 1.606903 0.131298 -0.046042 -508528.000000 0 0 1
31.419723 12.201542 0.236447 33.706565 0.370415 1.563781 0.159925 -0.060313 382186.000000 0 0 1
32.301423 13.159142 0.819847 34.888638 0.386857 1.547295 0.157754 -0.048948 707173.000000 0 0 1
33.833623 13.017942 0.565947 36.256050 0.367303 1.555186 0.170222 -0.056337 -279772.000000 0 0 1
34.607523 14.156742 0.834247 37.400400 0.388297 1.548489 0.155833 -0.058383 521848.000000 0 0 1
35.496523 14.439542 -0.270453 38.322013 0.386344 1.577854 0.166382 -0.045192 309588.000000 0 0 1
34.850423 15.437142 -1.275953 38.137716 0.416979 1.604259 0.112686 -0.024651 106430.000000 0 0 1
33.668223 14.912742 -1.839853 36.869013 0.416961 1.620719 0.127572 -0.021426 -62304.800000 0 0 1
33.067023 15.926642 -2.644453 36.797813 0.448858 1.642723 0.097543 -0.005941 573978.000000 0 0 1
31.736223 15.541542 -3.376853 35.498317 0.455382 1.666068 0.113081 -0.023924 -334937.000000 0 0 1
31.852023 14.432742 -4.219653 35.223016 0.425444 1.690883 0.091116 -0.019717 942663.000000 0 0 1
30.713223 14.182742 -5.098053 34.211728 0.432607 1.720368 0.075190 -0.024702 617084.000000 0 0 1
29.382223 13.827442 -4.424453 32.773296 0.439857 1.706212 0.095804 -0.042658 -825235.000000 0 0 1
28.470823 13.447742 -5.438753 31.953240 0.441271 1.741839 0.110414 -0.040507 455932.000000 0 0 1
27.141323 13.190642 -4.996753 30.587775 0.452384 1.734890 0.100465 -0.025222 571869.000000 0 0 1
26.162623 12.991142 -6.181953 29.857480 0.460887 1.779354 0.092805 -0.025485 -422851.000000 0 0 1
26.576723 11.980942 -7.069853 29.997466 0.423524 1.808716 0.082958 -0.011717 289453.000000 0 0 1
25.792523 11.735242 -8.242653 29.511209 0.426993 1.853867 0.098259 -0.009776 66429.600000 0 0 1
25.423123 12.922042 -9.236353 29.977067 0.470249 1.884006 0.102913 -0.000616 -65097.600000 0 0 1
24.522523 13.829342 -8.645853 29.450901 0.513486 1.868754 0.089082 -0.007493 -25048.200000 0 0 1
24.242823 14.921442 -9.493253 30.008094 0.551738 1.892682 0.096816 -0.023909 -583293.000000 0 0 1
23.172423 15.877342 -8.864653 29.455615 0.600712 1.876484 0.086224 -0.012312 343362.000000 0 0 1
21.833623 15.462642 -8.958053 28.214306 0.616210 1.893889 0.098171 -0.018713 109851.000000 0 0 1
21.411923 14.314642 -8.200953 27.030261 0.589296 1.879054 0.114271 -0.022989 -337576.000000 0 0 1
19.877023 14.065242 -8.280453 25.719505 0.615817 1.898587 0.138415 -0.023026 -19526.600000 0 0 1
19.155523 14.855042 -7.417853 25.350165 0.659620 1.867757 0.179625 -0.046617 -129330.000000 0 0 1
17.791523 14.876242 -7.786553 24.463672 0.696394 1.894722 0.188136 -0.037201 227739.000000 0 1 0
16.787323 15.270542 -6.664853 23.652144 0.738120 1.856452 0.175858 -0.023088 68310.100000 0 1 0
16.691623 14.288742 -5.630553 22.682186 0.707992 1.821656 0.131353 -0.031958 300124.000000 0 1 0
16.202423 14.834242 -4.433753 22.410520 0.741344 1.769953 0.115881 -0.016967 -284616.000000 0 1 0
16.089423 13.789042 -3.260053 21.439103 0.708558 1.723450 0.101064 -0.017850 654257.000000 0 1 0
17.401923 13.398242 -2.791853 22.138976 0.656134 1.697239 0.114135 -0.016888 1309750.000000 0 1 0
17.369623 12.516542 -1.737953 21.479946 0.624418 1.651795 0.107222 -0.018477 -119654.000000 0 1 0
17.277123 13.171142 -0.362753 21.728082 0.651356 1.587492 0.112362 -0.021856 -379260.000000 0 1 0
16.118323 13.953442 -0.203353 21.319949 0.713532 1.580335 0.090296 -0.030319 154509.000000 0 1 0
16.177923 14.839042 0.886347 21.970616 0.742259 1.530443 0.085617 -0.020710 -999247.000000 0 1 0
14.905423 15.600942 1.157747 21.607901 0.808193 1.517191 0.077311 -0.021711 -848248.000000 0 1 0
14.613523 16.641542 0.201247 22.148058 0.850193 1.561710 0.072504 -0.022433 -311427.000000 0 1 0
13.487223 17.349842 0.600447 21.983692 0.910008 1.543480 0.053880 -0.028901 -634032.000000 0 1 0
13.460023 18.836342 0.321547 23.153475 0.950354 1.556908 0.048051 -0.024048 -224233.000000 0 1 0
13.338823 19.164042 -1.041953 23.372427 0.962737 1.615392 0.065814 -0.017730 162736.000000 0 1 0
13.009523 20.568642 -1.154053 24.364904 1.006827 1.618179 0.064594 -0.019015 555091.000000 0 1 0
11.485423 20.890242 -1.267353 23.873067 1.068108 1.623908 0.050506 -0.015137 233119.000000 0 1 0
10.896123 20.809742 -0.016053 23.489809 1.088442 1.571480 0.038539 -0.010884 282165.000000 0 1 0
9.489823 20.561842 -0.105753 22.646352 1.138399 1.575466 0.038785 -0.016211 1155430.000000 0 1 0
8.644023 20.532242 1.218147 22.310894 1.172321 1.516170 0.035665 -0.020036 354809.000000 0 1 0
8.567923 21.788042 1.873647 23.486989 1.196131 1.490938 0.038703 -0.018946 189267.000000 0 1 0
7.516223 21.660642 2.805247 23.098624 1.236797 1.449049 0.038604 -0.026504 3004.880000 0 1 0
7.027523 22.951242 3.412447 24.244389 1.273667 1.429575 0.046134 -0.023255 -82293.500000 0 1 0
7.931523 23.488142 4.357147 25.171146 1.245137 1.396819 0.051599 -0.026150 58941.700000 0 0 1
7.451323 24.675842 4.973447 26.251754 1.277535 1.380192 0.045204 -0.021350 41407.600000 0 0 1
8.053523 24.960342 6.370447 26.990007 1.258689 1.332518 0.053976 -0.022880 -133726.000000 0 0 1
7.575523 24.062142 7.349847 26.275378 1.265789 1.287290 0.064458 -0.028806 -127126.000000 0 0 1
8.134023 24.201142 8.630247 26.950673 1.246557 1.244831 0.069292 -0.027601 -149765.000000 0 0 1
7.559223 23.234342 9.715047 26.293700 1.256251 1.192345 0.071641 -0.029940 -360626.000000 0 0 1
6.235023 23.490642 10.069947 26.307596 1.311353 1.177996 0.067811 -0.028217 -486585.000000 0 0 1
5.770223 22.548942 11.021547 25.753151 1.320275 1.128552 0.060893 -0.026713 -79563.900000 0 0 1
4.457823 22.951642 11.717247 26.152322 1.378958 1.106226 0.051876 -0.029806 -556912.000000 0 0 1
3.399323 23.038442 10.824147 25.680486 1.424303 1.135705 0.041401 -0.023065 -1097730.000000 0 0 1
2.238323 23.266342 11.562747 26.077383 1.474887 1.111406 0.040724 -0.026460 -867654.000000 0 0 1
1.006323 23.565342 10.737847 25.916007 1.528119 1.143587 0.065100 -0.022572 -650540.000000 0 0 1
1.170323 24.771942 9.967147 26.727566 1.523588 1.188646 0.066206 -0.025675 439819.000000 0 0 1
0.167623 24.947942 8.951547 26.505813 1.564078 1.226303 0.060447 -0.026734 1108380.000000 0 0 1
-1.138377 25.720342 9.350847 27.391061 -1.526565 1.222408 0.078402 -0.033943 1073150.000000 0 0 1
-2.033977 24.939942 10.168247 27.009832 -1.489421 1.184819 0.074155 -0.033543 222817.000000 0 0 1
-3.348077 25.446142 10.173247 27.608164 -1.439973 1.193415 0.091010 -0.037875 -95714.800000 0 0 1
-4.373277 24.435142 10.759947 27.055095 -1.393696 1.161782 0.105184 -0.046639 148954.000000 0 0 1
-4.796677 24.580442 12.142347 27.832406 -1.378076 1.119351 0.086204 -0.032416 757995.000000 0 0 1
-5.756577 25.650242 12.358547 29.048353 -1.350028 1.131340 0.099932 -0.027717 681310.000000 0 0 1
-6.531177 25.546642 13.758247 29.741832 -1.320501 1.089883 0.074502 -0.022710 -94618.100000 0 0 1
-7.611277 24.674042 13.709347 29.235015 -1.271584 1.082711 0.058933 -0.022998 -427613.000000 0 0 1
-8.054077 24.490242 15.078147 29.866212 -1.253069 1.041581 0.052953 -0.006952 876436.000000 0 0 1
-9.377977 23.650142 15.331947 29.704281 -1.193285 1.028443 0.043423 -0.007612 571283.000000 0 0 1
-10.554377 24.398242 15.178047 30.611145 -1.162516 1.052001 0.039640 -0.009626 -444460.000000 0 0 1
-11.650277 23.507442 15.249547 30.345963 -1.110675 1.044282 0.026137 -0.003126 302099.000000 0 0 1
-13.023877 24.233542 15.158047 31.411023 -1.077654 1.067209 0.029646 -0.010195 296194.000000 0 0 1
-13.492577 25.052342 16.269347 32.777449 -1.076767 1.051398 0.028770 -0.017720 -254650.000000 0 0 1
-14.373277 25.978142 15.774747 33.619899 -1.065436 1.082402 0.025953 -0.012995 -813783.000000 0 0 1
-15.141277 26.851742 16.794647 35.104622 -1.057356 1.071945 0.031108 -0.013756 -127441.000000 0 0 1
-16.230077 26.196442 17.382047 35.380850 -1.016124 1.057233 0.034973 -0.022935 -302799.000000 0 0 1
-16.743677 26.892042 18.505447 36.687658 -1.013906 1.042103 0.065056 -0.032230 44781.500000 0 0 1
-18.049577 26.264142 19.070147 37.138429 -0.968691 1.031551 0.048865 -0.045643 467846.000000 0 0 1
-19.145577 26.656842 18.244447 37.549970 -0.947944 1.063437 0.043213 -0.035092 -12623.400000 0 0 1
-20.345277 26.043142 18.681547 37.962821 -0.907615 1.056295 0.059551 -0.034557 315073.000000 0 0 1
-21.518077 26.270642 17.687047 38.288457 -0.884522 1.090613 0.057558 -0.034224 -135745.000000 0 0 1
-22.123377 27.539242 17.847747 39.577718 -0.894022 1.102962 0.049558 -0.038901 109562.000000 0 0 1
-22.676777 27.980442 16.625247 39.667874 -0.889715 1.138330 0.063009 -0.033576 -449830.000000 0 0 1
-23.666377 29.132642 16.803447 41.123765 -0.888560 1.149869 0.057819 -0.037193 -65404.800000 0 0 1
-24.901577 28.735042 17.366747 41.801855 -0.856748 1.142354 0.058646 -0.032896 40996.500000 0 0 1
-25.812497 29.811942 17.400347 43.102308 -0.857175 1.155240 0.061661 -0.038480 711116.000000 0 0 1
-27.214387 29.540142 18.062347 44.039656 -0.826354 1.148191 0.066751 -0.030487 -117976.000000 0 0 1
-28.111507 29.002542 17.149647 43.880687 -0.800998 1.169269 0.097378 -0.020811 -104186.000000 0 0 1
-29.445937 28.845642 17.609047 44.824244 -0.775100 1.167071 0.128064 -0.025287 437170.000000 0 0 1
-29.749597 27.688442 18.607847 44.698326 -0.749529 1.141426 0.114646 -0.025427 -606701.000000 0 0 1
-29.623247 26.433042 17.926647 43.561533 -0.728549 1.146670 0.121310 -0.019476 86961.600000 0 0 1
-30.045197 25.428842 18.775347 43.610246 -0.702373 1.125721 0.119272 -0.018407 -107433.000000 0 0 1
-30.140627 24.112542 18.032747 42.603428 -0.674742 1.133745 0.120442 -0.028167 -133187.000000 0 0 1
-31.099897 24.125642 16.996747 42.873531 -0.659776 1.163161 0.130272 -0.035248 -198346.000000 0 0 1
-30.970267 23.127242 16.045947 41.850916 -0.641422 1.177314 0.139350 -0.034180 -221987.000000 0 0 1
-31.410057 21.671042 16.372747 41.524603 -0.603942 1.165501 0.126906 -0.029693 -393424.000000 0 0 1
-32.795887 21.483942 16.327447 42.470172 -0.579938 1.176190 0.130915 -0.032219 -468553.000000 0 0 1
-33.086367 20.116042 16.561447 42.114658 -0.546271 1.166636 0.123892 -0.034186 -507838.000000 0 0 1
-34.478370 19.744242 16.091847 42.866545 -0.520071 1.185974 0.145931 -0.042805 -660706.000000 0 0 1
-34.670078 19.817842 14.723147 42.562099 -0.519285 1.217576 0.121085 -0.044804 292966.000000 0 0 1
-35.996656 19.390642 14.429647 43.358632 -0.494110 1.231528 0.134271 -0.044011 311930.000000 0 0 1
-36.504047 19.695042 13.008447 43.470218 -0.494770 1.266890 0.129502 -0.032463 1018.220000 0 0 1
-36.573397 21.105242 12.729947 44.103245 -0.523385 1.277991 0.122617 -0.036607 -100770.000000 0 0 1
-36.685887 21.438542 11.290147 43.965132 -0.528856 1.311089 0.073662 -0.023119 212308.000000 0 0 1
-35.601077 20.973642 10.245047 42.571015 -0.532388 1.327753 0.100629 -0.028595 97757.700000 0 0 1
-35.553520 19.569442 10.037747 41.806366 -0.503167 1.328327 0.118616 -0.022724 409407.000000 0 0 1
-34.442180 19.221042 9.206947 40.502841 -0.509016 1.341476 0.138229 -0.027291 581924.000000 0 0 1
-33.474667 18.186642 9.866947 39.353068 -0.497681 1.317363 0.120941 -0.034741 10240.200000 0 0 1
-32.898397 18.675742 11.046147 39.409456 -0.516315 1.286698 0.138535 -0.043372 -64001.000000 0 0 1
-32.391947 17.611442 11.808347 38.714832 -0.497992 1.260849 0.140723 -0.047513 171434.000000 0 0 1
-31.884427 17.982442 13.290347 38.943783 -0.513519 1.222529 0.110237 -0.028823 838199.000000 0 0 1
-30.726997 18.831442 13.409947 38.452546 -0.549824 1.214570 0.139144 -0.031176 403063.000000 0 0 1
-30.866857 20.185342 12.961647 39.092393 -0.579146 1.232835 0.143573 -0.029973 812916.000000 0 0 1
-29.464487 20.923042 13.023547 38.412791 -0.617479 1.224898 0.156643 -0.040040 1296100.000000 0 0 1
-28.884427 21.001742 14.338247 38.483355 -0.628680 1.189005 0.132814 -0.025537 480617.000000 0 0 1
-27.738357 21.861542 14.443647 38.157076 -0.667464 1.182587 0.143271 -0.022945 315309.000000 0 0 1
-27.054637 21.684342 15.809847 38.106631 -0.675656 1.142981 0.111030 -0.020758 -458763.000000 0 0 1
-26.495687 20.417742 15.959247 37.062153 -0.656559 1.125630 0.126138 -0.021437 -241147.000000 0 0 1
-26.253927 20.172642 17.302247 37.357355 -0.655153 1.089245 0.114030 -0.008170 -552767.000000 0 0 1
-25.169997 19.122442 17.456047 36.109696 -0.649700 1.066242 0.123224 -0.012829 -237104.000000 0 0 1
-24.801577 18.901942 18.833447 36.429389 -0.651217 1.027471 0.112644 -0.016048 -167936.000000 0 0 1
-24.018977 17.775642 19.094147 35.460840 -0.637113 1.002191 0.097277 -0.013082 -383995.000000 0 0 1
-23.334277 17.888442 20.473047 35.827790 -0.654051 0.962550 0.084621 -0.013591 -342094.000000 0 0 1
-24.096277 17.590742 21.624247 36.846613 -0.630590 0.943606 0.093728 -0.009487 100550.000000 0 0 1
-23.337677 17.629242 22.832747 37.104874 -0.646947 0.907957 0.135496 -0.019273 339094.000000 0 0 1
-24.124277 17.042742 24.090647 38.115549 -0.615046 0.886610 0.144119 -0.021748 213407.000000 0 0 1
-24.464877 15.672942 23.938447 37.645990 -0.569760 0.881644 0.132107 -0.032106 51952.700000 0 0 1
-25.232247 15.134442 24.986747 38.601233 -0.540277 0.866754 0.124055 -0.032502 -317724.000000 0 0 1
21.399023 24.614342 33.144442 46.500947 0.855163 0.777358 0.131817 -0.043068 612276.000000 0 0 1
22.438123 23.863442 32.464229 46.117886 0.816172 0.789867 0.153007 -0.056745 492610.000000 0 0 1
22.663923 22.590842 33.059430 46.010058 0.783783 0.769115 0.158550 -0.057662 653078.000000 0 0 1
21.589523 21.489842 32.666936 44.665977 0.783084 0.750481 0.139119 -0.050932 390194.000000 0 0 1
21.608723 21.056642 31.330675 43.496325 0.772459 0.766553 0.161383 -0.050317 312589.000000 0 0 1
20.630823 20.017342 31.129055 42.371487 0.770307 0.745616 0.165400 -0.050266 205497.000000 0 0 1
20.821023 19.190042 29.796105 41.104508 0.744657 0.759927 0.157193 -0.038151 286126.000000 0 0 1
22.013523 18.415042 29.780535 41.359270 0.696624 0.766929 0.158729 -0.046160 17863.900000 0 0 1
22.266723 17.867742 28.489155 40.332309 0.676228 0.786453 0.139245 -0.042879 -646672.000000 0 0 1
23.505523 17.026742 28.423625 40.624156 0.626896 0.795857 0.131542 -0.040700 160807.000000 0 0 1
24.788823 17.655142 28.539595 41.721676 0.618882 0.817500 0.139321 -0.044230 912718.000000 0 0 1
25.812223 16.766642 28.952595 42.256880 0.576067 0.815977 0.111405 -0.031252 145850.000000 0 0 1
27.248123 17.295642 29.021225 43.403121 0.565577 0.838413 0.085701 -0.034328 -243456.000000 0 0 1
27.826523 17.761142 27.785875 43.148910 0.568093 0.871142 0.078257 -0.020361 373536.000000 0 0 1
29.190123 17.973042 28.146285 44.354333 0.551901 0.883334 0.083722 -0.014865 646994.000000 0 0 1
30.210123 17.765842 26.975645 44.226260 0.531606 0.914803 0.070237 -0.008166 90204.300000 0 0 1
30.244023 18.805542 25.990695 44.089291 0.556290 0.940355 0.080819 -0.012145 55192.500000 0 0 1
31.154823 18.481142 24.963055 43.992383 0.535407 0.967402 0.076676 -0.007019 -172800.000000 0 0 1
31.769223 19.609642 24.105595 44.439862 0.553009 0.997467 0.094516 -0.017545 281423.000000 0 0 1
30.882323 20.176342 23.150405 43.551623 0.578712 1.010352 0.089367 -0.021414 782539.000000 0 0 1
31.683923 20.948542 22.208285 43.999095 0.584189 1.041711 0.086878 -0.022271 615330.000000 0 0 1
32.091823 20.152242 20.936185 43.293438 0.560722 1.066047 0.083394 -0.019260 -774023.000000 0 0 1
31.059123 19.542942 20.254085 41.914480 0.561626 1.066463 0.105435 -0.026943 -577653.000000 0 0 1
31.465423 18.819942 19.110185 41.345643 0.539032 1.090316 0.114882 -0.036203 -280247.000000 0 0 1
32.359923 17.572442 19.238885 41.546240 0.497477 1.089339 0.135340 -0.045059 -7829.270000 0 0 1
31.793923 16.378042 19.797885 40.878479 0.475679 1.065221 0.134831 -0.041093 749097.000000 0 0 1
32.854623 15.447242 19.983485 41.441323 0.439500 1.067619 0.131615 -0.050405 142939.000000 0 0 1
32.242923 14.054542 20.348685 40.635025 0.411063 1.046311 0.137911 -0.049255 570701.000000 0 0 1
31.739623 13.921642 21.743985 40.914749 0.413350 1.010489 0.113233 -0.051989 216727.000000 0 0 1
30.560923 14.611642 22.056985 40.422527 0.445987 0.993619 0.104518 -0.037886 -680125.000000 0 0 1
29.915123 13.974042 23.300395 40.411593 0.437002 0.956263 0.083235 -0.025560 -81995.000000 0 0 1
29.362723 12.723842 23.009315 39.414391 0.408908 0.947420 0.082032 -0.021510 71446.600000 0 0 1
28.471623 12.259642 24.016215 39.213655 0.406597 0.911646 0.068278 -0.018045 225454.000000 0 0 1
27.890823 10.846642 23.766255 38.214952 0.370898 0.899617 0.077334 -0.015642 -342430.000000 0 0 1
26.884423 10.792542 22.802695 36.867521 0.381749 0.903959 0.055404 -0.011459 -310800.000000 0 0 1
26.537223 9.458542 22.656085 36.152267 0.342388 0.893504 0.060376 0.001829 1039600.000000 0 0 1
25.237523 9.219542 21.749585 34.568439 0.350249 0.890305 0.060248 -0.010426 1391570.000000 0 0 1
23.968823 9.405342 22.368085 34.107128 0.373937 0.855530 0.049383 -0.006271 393669.000000 0 0 1
22.970423 8.897642 21.519185 32.709077 0.369556 0.852774 0.042056 0.009016 -380965.000000 0 0 1
21.580523 8.772542 22.150285 32.145165 0.386100 0.810591 0.051824 0.000029 -188685.000000 0 0 1
21.556223 7.825142 23.218275 32.634214 0.348218 0.779208 0.066945 0.004815 220878.000000 0 0 1
20.212323 7.773842 23.655725 32.071233 0.367168 0.741288 0.079604 -0.004545 165914.000000 0 0 1
19.947623 6.923242 24.877745 32.630372 0.334063 0.703766 0.094146 -0.012690 -221250.000000 0 0 1
20.174923 5.553642 24.528475 32.241535 0.268621 0.706294 0.074880 -0.019587 291759.000000 0 0 1
19.885523 4.709942 25.668215 32.809676 0.232567 0.672388 0.111357 -0.038160 41979.300000 0 0 1
20.319523 3.232942 25.313585 32.620738 0.157783 0.682503 0.108413 -0.037983 -277779.000000 0 0 1
21.699823 3.230742 25.074935 33.317749 0.147798 0.718795 0.117792 -0.028933 -451547.000000 0 0 1
22.144323 1.900842 24.885585 33.365800 0.085629 0.729000 0.102099 -0.035986 -53828.800000 0 0 1
23.673723 1.929242 24.660115 34.238698 0.081313 0.766647 0.099908 -0.029787 -7941.310000 0 0 1
24.360123 2.227542 25.863925 35.599440 0.091189 0.757543 0.105538 -0.040588 331452.000000 0 0 1
25.756723 2.413442 25.654145 36.433071 0.093429 0.789579 0.103422 -0.035474 676526.000000 0 0 1
26.501623 3.023342 26.868775 37.860371 0.113590 0.781751 0.064138 -0.031023 -541266.000000 0 0 1
26.672923 2.036142 27.853345 38.618642 0.076190 0.765204 0.060368 -0.032031 446672.000000 0 0 1
27.593323 2.267742 28.928515 40.042392 0.082000 0.763461 0.058891 -0.012572 183948.000000 0 0 1
29.066723 2.570942 28.667905 40.906392 0.088220 0.794254 0.083304 -0.025987 -1129470.000000 0 0 1
29.258423 3.948042 28.169525 40.806427 0.134127 0.808864 0.075029 -0.004997 1243840.000000 0 0 1
30.569323 4.318042 27.652585 41.446284 0.140326 0.840365 0.067567 -0.002151 952844.000000 0 0 1
31.169523 3.498742 26.459445 41.035139 0.111781 0.870035 0.080347 -0.006694 -366056.000000 0 0 1
30.606223 3.636942 25.170225 39.793322 0.118276 0.885989 0.070656 0.001856 119688.000000 0 0 1
31.048623 2.533042 24.322305 39.522245 0.081403 0.907893 0.089185 0.006093 -12594.800000 0 0 1
30.592523 2.678642 22.865615 38.287256 0.087336 0.930775 0.100240 0.000911 147127.000000 0 0 1
31.149723 3.770042 22.136785 38.399944 0.120444 0.956383 0.105414 0.000632 928676.000000 0 0 1
32.551723 3.617142 21.825185 39.357809 0.110666 0.982995 0.098094 0.001096 1068350.000000 0 0 1
33.298123 4.833942 21.234085 39.787163 0.144164 1.007836 0.093664 -0.004087 -205845.000000 0 0 1
32.750223 5.207942 19.979485 38.715366 0.157700 1.028551 0.097840 0.000520 254340.000000 0 0 1
33.326023 6.423542 19.506185 39.145587 0.190413 1.049161 0.116096 -0.002685 831316.000000 0 0 1
34.843423 6.448442 19.058785 40.235355 0.182999 1.077329 0.102342 -0.006591 550047.000000 0 0 1
35.820623 6.325442 20.114185 41.565715 0.174785 1.065676 0.098156 -0.008015 743408.000000 0 0 1
35.962323 7.464542 21.027385 42.322086 0.204660 1.050840 0.112566 -0.024485 -786552.000000 0 0 1
36.822823 7.219142 22.259285 43.629257 0.193595 1.035389 0.120792 -0.024138 -424399.000000 0 0 1
36.140823 6.573242 23.316915 43.509138 0.179912 1.005213 0.108017 -0.011363 2000.670000 0 0 1
36.888423 6.347842 24.507285 44.739891 0.170413 0.991097 0.115627 -0.014042 -285119.000000 0 0 1
36.320523 5.425142 25.581315 44.755069 0.148272 0.962360 0.102187 -0.008294 -230610.000000 0 0 1
36.109623 4.123742 25.039835 44.135059 0.113708 0.967517 0.101381 -0.013062 250005.000000 0 0 1
35.468823 3.306542 26.030215 44.119641 0.092955 0.939748 0.100705 -0.000522 54266.200000 0 0 1
35.504623 1.792042 25.744775 43.892859 0.050431 0.944020 0.093016 0.003200 -60851.900000 0 0 1
34.673423 1.509442 24.650485 42.569603 0.043506 0.953217 0.093860 -0.002251 26398.000000 0 0 1
34.724123 0.080942 24.469615 42.479799 0.002331 0.956933 0.102154 -0.004785 -328232.000000 0 0 1
33.776623 -0.501858 23.437315 41.114716 -0.014857 0.964233 0.120876 0.010364 134239.000000 0 0 1
32.429523 -0.687758 23.862565 40.268710 -0.021205 0.936534 0.119898 -0.000930 496209.000000 0 0 1
31.715423 -1.312958 22.761645 39.060010 -0.041374 0.948706 0.122491 -0.001822 1183800.000000 0 0 1
30.219923 -1.722958 23.024095 38.030531 -0.056952 0.920514 0.124245 0.000914 1396910.000000 0 0 1
29.343123 -0.574158 23.124895 37.364546 -0.019565 0.903456 0.115592 -0.005764 180643.000000 0 0 1
28.008923 -0.997358 23.024355 36.271413 -0.035594 0.883073 0.100453 -0.006899 29415.800000 0 0 1
26.878123 0.046042 22.907965 35.315867 0.001713 0.864975 0.112313 -0.021133 213073.000000 0 0 1
26.938423 0.676442 21.682985 34.587397 0.025105 0.893223 0.109300 -0.018632 123864.000000 0 0 1
26.030923 1.741042 21.685185 33.924732 0.066784 0.877320 0.109290 -0.016001 -254226.000000 0 0 1
26.341923 2.805942 20.528085 33.513766 0.106120 0.911543 0.101316 -0.009623 -96961.400000 0 0 1
25.834523 2.487042 19.234285 32.304267 0.095972 0.933020 0.103308 -0.012576 133596.000000 0 0 1
24.602823 3.096642 18.943585 31.204928 0.125207 0.918428 0.097033 -0.010459 -141094.000000 0 0 1
24.118123 3.183842 17.461085 29.945120 0.131251 0.948253 0.113083 -0.013450 66539.300000 0 0 1
25.019723 4.008342 16.720285 30.358216 0.158857 0.987514 0.110187 -0.002535 444062.000000 0 0 1
24.728123 4.292842 15.373185 29.432013 0.171889 1.021217 0.084569 0.003331 -390805.000000 0 0 1
24.638223 3.129442 14.333585 28.675549 0.126339 1.047366 0.102991 0.000665 388168.000000 0 0 1
23.329223 2.555742 14.246885 27.454657 0.109116 1.025204 0.119689 -0.004584 846180.000000 0 0 1
23.247323 1.398042 13.458585 26.898440 0.060065 1.046795 0.122560 -0.005542 -128708.000000 0 0 1
21.798523 0.853942 13.466585 25.636960 0.039154 1.017752 0.149062 -0.022760 -34733.800000 0 0 1
20.784723 1.484842 12.708885 24.407483 0.071318 1.023130 0.177268 -0.024937 669154.000000 0 1 0
20.743823 1.245442 11.291685 23.650782 0.059967 1.073064 0.171123 -0.017944 -699393.000000 0 1 0
20.383623 -0.236558 10.826685 23.081706 -0.011605 1.082571 0.164575 -0.014968 -410916.000000 0 1 0
21.449923 -1.127758 10.976485 24.121655 -0.052528 1.098371 0.176180 -0.032258 288509.000000 0 1 0
22.484823 -0.966958 9.981085 24.619592 -0.042978 1.153367 0.187128 -0.028774 -359161.000000 0 1 0
23.741123 -1.734058 10.368885 25.964623 -0.072911 1.159992 0.208026 -0.038382 -674278.000000 0 0 1
24.381523 -1.231958 11.508485 26.989287 -0.050485 1.130277 0.190616 -0.037349 -40760.300000 0 0 1
25.233423 -2.220358 12.036385 28.045146 -0.087767 1.127213 0.132287 -0.020165 -144182.000000 0 0 1
25.450923 -2.092958 13.551685 28.909827 -0.082050 1.082913 0.137693 -0.019244 21164.000000 0 0 1
26.355323 -1.044458 13.800085 29.768041 -0.039609 1.088757 0.119019 -0.015485 38082.400000 0 0 1
26.752123 -0.973958 15.135085 30.752162 -0.036391 1.056223 0.101814 -0.015492 -190108.000000 0 0 1
27.876023 0.048242 15.363885 31.829608 0.001731 1.067071 0.139695 -0.008506 381148.000000 0 0 1
29.177923 -0.513358 15.154485 32.882718 -0.017592 1.091827 0.151269 -0.005818 1023360.000000 0 0 1
30.156023 0.544242 15.164585 33.758652 0.018046 1.104920 0.141095 -0.003750 692118.000000 0 0 1
31.642423 0.098642 15.234685 35.119059 0.003117 1.122089 0.140624 0.001343 369602.000000 0 0 1
32.228823 -0.492858 14.115585 35.187919 -0.015291 1.158026 0.159258 -0.011508 176933.000000 0 0 1
33.473823 -1.086858 14.430285 36.467948 -0.032457 1.163969 0.142944 -0.011273 8596.650000 0 0 1
34.046123 -2.084158 13.432385 36.659394 -0.061139 1.195648 0.138416 -0.017449 -181360.000000 0 0 1
34.539523 -1.399058 12.331585 36.701553 -0.040484 1.228134 0.147415 -0.017511 1176510.000000 0 0 1
35.599523 -2.151258 11.625585 37.511440 -0.060356 1.255686 0.150322 -0.028566 1248640.000000 0 0 1
35.709723 -1.997258 10.062885 37.154206 -0.055872 1.296530 0.243571 -0.031669 -1624.230000 0 0 1
36.194023 -0.707758 9.593185 37.450466 -0.019552 1.311752 0.174862 -0.028702 347630.000000 0 0 1
35.210823 0.327942 9.681885 36.519152 0.009313 1.302470 0.217742 -0.043243 -142457.000000 0 0 1
35.530523 1.736842 9.210585 36.746014 0.048844 1.317439 0.228352 -0.048847 -369230.000000 0 0 1
35.670023 1.890442 7.829885 36.568175 0.052949 1.355008 0.197026 -0.038564 295218.000000 0 0 1
35.678823 3.188242 7.372885 36.571884 0.089123 1.367805 0.195634 -0.038301 28259.300000 0 0 1
36.117923 3.363642 5.877985 36.747369 0.092862 1.410150 0.169727 -0.036582 -116284.000000 0 0 1
36.404723 4.641342 5.474085 37.105411 0.126809 1.422728 0.142945 -0.020482 82264.700000 0 0 1
36.901423 4.705042 4.174885 37.433703 0.126819 1.459036 0.153267 -0.020483 -209777.000000 0 0 1
37.163123 6.193642 3.806485 37.867509 0.165143 1.470105 0.153737 -0.028597 -273456.000000 0 0 1
36.011023 6.981142 3.719085 36.869523 0.191486 1.469753 0.177581 -0.038051 -258.107000 0 0 1
36.412623 8.289442 3.377785 37.496712 0.223838 1.480592 0.169127 -0.038088 -468062.000000 0 0 1
35.190523 9.201942 3.217785 36.515788 0.255762 1.482561 0.207573 -0.052825 30134.800000 0 0 1
34.389023 9.077642 2.056685 35.626373 0.258082 1.513035 0.222842 -0.053538 -74918.500000 0 0 1
33.359923 8.147742 2.239585 34.413455 0.239548 1.505672 0.240740 -0.050545 -752170.000000 0 0 1
32.211623 8.161342 1.211585 33.251528 0.248144 1.534351 0.249458 -0.060895 -117665.000000 0 0 1
32.519923 7.823142 -0.161115 33.448063 0.236079 1.575613 0.242669 -0.051151 -173886.000000 0 0 1
31.391523 7.753042 -1.001415 32.350273 0.242133 1.601757 0.227207 -0.047793 -353649.000000 0 0 1
31.653223 7.381242 -2.473815 32.596457 0.229097 1.646761 0.180275 -0.038864 -799762.000000 0 0 1
30.492023 6.921442 -3.092815 31.420301 0.223210 1.669390 0.181692 -0.038930 93004.500000 0 0 1
30.707223 6.450642 -4.402815 31.684840 0.207058 1.710204 0.158614 -0.037242 -529448.000000 0 0 1
29.571223 5.687942 -5.098415 30.541836 0.190026 1.738514 0.170318 -0.026039 -645896.000000 0 0 1
29.444423 4.375242 -4.644115 30.127804 0.147514 1.725561 0.168368 -0.028150 978062.000000 0 0 1
28.325123 3.765042 -5.284315 29.058770 0.132148 1.753663 0.166025 -0.023733 48821.000000 0 0 1
28.371123 2.228842 -5.145515 28.919970 0.078399 1.749671 0.189962 -0.020767 -221423.000000 0 0 1
28.262323 1.896142 -3.760615 28.574402 0.066990 1.702787 0.216248 -0.040892 525827.000000 0 0 1
28.243723 0.474942 -3.590315 28.474968 0.016814 1.697220 0.189906 -0.046395 -123580.000000 0 0 1
28.344023 0.212842 -2.061315 28.419675 0.007509 1.643391 0.199541 -0.046705 -697007.000000 0 0 1
29.646423 0.415042 -1.634715 29.694359 0.013999 1.625876 0.183606 -0.042235 -484076.000000 0 0 1
29.861423 0.060242 -0.293315 29.862924 0.002017 1.580619 0.202519 -0.036274 -541565.000000 0 0 1
31.198823 0.622542 0.182285 31.205566 0.019951 1.564955 0.223608 -0.040680 206791.000000 0 0 1
32.336523 -0.174358 -0.215115 32.337708 -0.005392 1.577449 0.192562 -0.032060 987033.000000 0 0 1
33.540923 0.534542 0.075885 33.545268 0.015936 1.568534 0.148092 -0.036107 10518.800000 0 0 1
-2.984577 -21.562758 -8.278653 23.289404 1.433257 1.934212 0.039997 0.017528 222601.000000 0 1 0
-3.576677 -21.713258 -7.017753 23.097771 1.407539 1.879504 0.048933 -0.003069 -132737.000000 0 1 0
-3.151977 -22.958658 -6.495553 24.067138 1.434360 1.844078 0.048454 -0.007542 -333077.000000 0 1 0
-3.647677 -23.180958 -5.065653 24.006732 1.414720 1.783404 0.058277 -0.017238 -398605.000000 0 1 0
-3.082377 -22.371758 -4.032253 22.940263 1.433879 1.747486 0.068679 -0.028536 -200592.000000 0 1 0
-3.584777 -22.874858 -2.812853 23.324277 1.415348 1.691688 0.084530 -0.043898 -208410.000000 0 1 0
-2.901377 -22.420958 -1.520953 22.659008 1.442107 1.637970 0.090768 -0.051710 -615389.000000 0 1 0
-1.542377 -22.764158 -1.534953 22.867923 1.503145 1.637969 0.085369 -0.036835 -872963.000000 0 1 0
-1.056877 -22.603458 -0.209553 22.629123 1.524073 1.580057 0.076849 -0.036357 -687615.000000 0 1 0
0.456823 -22.571158 -0.177153 22.576475 -1.550560 1.578643 0.074364 -0.036100 -741954.000000 0 1 0
1.077823 -21.472758 -0.815153 21.515239 -1.520644 1.608693 0.051202 -0.030214 -551218.000000 0 1 0
2.258023 -21.106258 -0.196453 21.227609 -1.464218 1.580051 0.033182 -0.025298 -103729.000000 0 1 0
3.097823 -19.910358 -0.799553 20.165767 -1.416445 1.610456 0.036030 -0.024522 497444.000000 0 1 0
3.648623 -20.224058 -2.022053 20.649786 -1.392306 1.668875 0.035524 -0.024488 -530791.000000 0 1 0
4.724123 -19.341058 -2.261053 20.037620 -1.331233 1.683878 0.042634 -0.017531 500013.000000 0 1 0
5.667623 -19.822058 -3.454853 20.903874 -1.292302 1.736831 0.044922 -0.014487 49969.100000 0 1 0
6.643123 -20.814758 -3.196453 22.081724 -1.261861 1.716062 0.052980 -0.019928 64725.400000 0 1 0
7.397623 -21.314258 -4.274353 22.962851 -1.236731 1.758030 0.060070 -0.019947 504074.000000 0 1 0
8.538123 -20.485658 -4.888353 22.725706 -1.175904 1.787593 0.077840 -0.016801 -71896.400000 0 1 0
7.994523 -19.539258 -5.731953 21.875792 -1.182425 1.835914 0.060957 -0.019502 556294.000000 0 1 0
9.073923 -18.624558 -6.037453 21.579181 -1.117439 1.854363 0.069494 -0.032177 768464.000000 0 1 0
9.061823 -17.780358 -7.315653 21.255036 -1.099456 1.922166 0.055486 -0.013409 -1463610.000000 0 1 0
10.277723 -17.177258 -7.482353 21.369964 -1.031603 1.928511 0.069829 -0.026944 -881396.000000 0 1 0
10.321923 -16.234158 -8.558453 21.055571 -1.004458 1.989383 0.068857 -0.013804 -102701.000000 0 1 0
10.734523 -16.909058 -9.939753 22.359448 -1.005153 2.031461 0.070438 -0.001033 280892.000000 0 1 0
9.700523 -17.458458 -10.795553 22.703345 -1.063637 2.066334 0.067248 -0.009568 665964.000000 0 1 0
9.017223 -16.456658 -11.565853 22.043159 -1.069538 2.123149 0.052727 -0.026194 240501.000000 0 1 0
8.534323 -17.048758 -12.911753 23.026250 -1.106682 2.166076 0.065809 -0.028019 233308.000000 0 1 0
7.456323 -17.976658 -12.786053 23.286050 -1.177616 2.152067 0.056335 -0.017477 358517.000000 0 1 0
6.930323 -18.343458 -14.031653 24.112219 -1.209565 2.191898 0.071911 -0.017735 -353338.000000 0 1 0
5.643423 -19.148558 -13.902353 24.326753 -1.284193 2.179110 0.076539 -0.011409 -425584.000000 0 1 0
5.938223 -20.425258 -13.373053 25.125529 -1.287866 2.132052 0.092568 -0.013685 -616565.000000 0 0 1
4.798623 -21.057558 -12.947053 25.180820 -1.346741 2.110828 0.111926 -0.017498 -591316.000000 0 0 1
5.172123 -22.504558 -12.478553 26.247291 -1.344894 2.066241 0.098516 -0.012110 166265.000000 0 0 1
5.653823 -23.348258 -13.544953 27.578481 -1.333218 2.084197 0.117735 -0.018548 111149.000000 0 0 1
5.125623 -24.659058 -13.494853 28.573628 -1.365855 2.062676 0.101093 -0.018476 1159150.000000 0 0 1
3.658223 -24.929058 -14.016553 28.832348 -1.425091 2.078463 0.109302 -0.014992 1858440.000000 0 0 1
2.605123 -24.313058 -13.212453 27.793531 -1.464054 2.066191 0.107493 -0.014949 1008840.000000 0 0 1
1.252123 -24.465558 -13.595453 28.017275 -1.519662 2.077448 0.081473 -0.017644 640228.000000 0 0 1
0.522623 -25.773658 -13.125253 28.927959 -1.550522 2.041734 0.061314 -0.006118 -353052.000000 0 0 1
1.225023 -26.906418 -13.657253 30.198950 -1.525299 2.040075 0.075560 -0.007039 219301.000000 0 0 1
0.839923 -28.163828 -13.183153 31.107912 -1.540982 2.008419 0.054662 -0.008899 246873.000000 0 0 1
-0.583677 -28.707968 -13.527153 31.740699 1.550468 2.011059 0.045846 -0.010213 753442.000000 0 0 1
-1.621377 -27.996418 -12.870053 30.855575 1.512947 2.001055 0.032062 -0.013575 1339340.000000 0 0 1
-2.945177 -28.489708 -13.259453 31.561854 1.467785 2.004363 0.031419 -0.016619 1802510.000000 0 0 1
-4.185377 -27.748678 -12.669153 30.789835 1.421093 1.994865 0.034292 -0.008401 532177.000000 0 0 1
-4.605577 -27.915488 -11.320153 30.473458 1.407286 1.951394 0.026499 -0.015584 109509.000000 0 0 1
-5.120877 -29.195378 -10.999753 31.616262 1.397162 1.926142 0.024291 -0.017995 -620185.000000 0 0 1
-5.703277 -29.435898 -9.594653 31.481055 1.379415 1.880499 0.033096 -0.024747 324529.000000 0 0 1
-7.009677 -28.949398 -9.271453 31.195561 1.333233 1.872560 0.040170 -0.018827 134705.000000 0 0 1
-7.136177 -27.563068 -9.115953 29.895624 1.317456 1.880657 0.042735 -0.012846 -1256260.000000 0 0 1
-8.607977 -27.265288 -8.885253 29.940623 1.264988 1.872097 0.048210 -0.017594 37569.800000 0 0 1
-9.543477 -27.372218 -9.967553 30.654011 1.235320 1.901981 0.069923 -0.023560 210902.000000 0 0 1
-9.739177 -28.711128 -10.463553 32.072829 1.243764 1.903123 0.064266 -0.031955 -984530.000000 0 0 1
-10.965577 -28.843068 -11.385853 32.890790 1.207491 1.924283 0.082701 -0.031479 -87632.100000 0 0 1
-10.936377 -27.924608 -12.447853 32.470558 1.197518 1.964226 0.101746 -0.038424 59583.900000 0 0 1
-11.675377 -28.474938 -13.518353 33.613723 1.181679 1.984680 0.114540 -0.046741 -343152.000000 0 0 1
-11.768777 -27.486068 -14.761753 33.345125 1.166242 2.029399 0.131519 -0.036178 232072.000000 0 0 1
-12.859177 -26.563398 -14.835653 33.031336 1.119954 2.036597 0.105597 -0.040035 368924.000000 0 0 1
-12.885477 -25.599268 -13.804253 31.810618 1.104470 2.019670 0.127880 -0.035792 276926.000000 0 0 1
-13.962377 -24.481258 -14.032253 31.483076 1.052479 2.032761 0.158632 -0.020057 174043.000000 0 0 1
-13.604877 -23.704058 -15.165453 31.256455 1.049754 2.077382 0.157216 -0.029051 27470.000000 0 0 1
-14.654577 -22.828758 -15.471753 31.229537 1.000112 2.089115 0.177351 -0.031464 -248464.000000 0 0 1
-14.575777 -21.920558 -16.739353 31.195674 0.983993 2.137190 0.160624 -0.020291 -97954.600000 0 0 1
-14.123577 -20.603358 -16.486253 29.929422 0.969869 2.154164 0.134875 -0.014666 230546.000000 0 0 1
-14.033777 -19.837858 -17.666653 30.043271 0.955105 2.199430 0.114657 -0.011788 -85947.600000 0 0 1
-13.748777 -18.316558 -17.435553 28.784087 0.926898 2.221487 0.093303 -0.011075 -352165.000000 0 0 1
-12.397977 -17.991158 -17.518153 28.004951 0.967413 2.246617 0.074382 0.005727 -554910.000000 0 0 1
-12.393277 -16.607958 -17.616853 27.198733 0.929715 2.275369 0.075396 0.002611 -37999.400000 0 0 1
-10.966577 -16.072558 -17.797453 26.369343 0.972037 2.311666 0.069836 0.001612 -88849.600000 0 0 1
-10.348477 -15.867858 -16.531753 25.143165 0.992900 2.288299 0.094010 -0.003077 774553.000000 0 0 1
-9.083777 -15.180158 -16.683353 24.316383 1.031556 2.326904 0.083646 -0.003641 371588.000000 0 1 0
-8.558077 -14.662358 -15.310953 22.861555 1.042466 2.304635 0.076015 -0.012160 -52024.100000 0 1 0
-8.236477 -15.655458 -14.300153 22.747028 1.086480 2.250626 0.075185 -0.002458 888574.000000 0 1 0
-7.114377 -16.498558 -14.671453 23.196299 1.163676 2.255561 0.074156 0.006691 245727.000000 0 1 0
-6.563377 -17.364058 -13.557253 22.986682 1.209410 2.201592 0.051636 0.009011 -391901.000000 0 1 0
-5.768677 -16.689258 -12.590953 21.687348 1.238000 2.190221 0.043355 0.001074 335308.000000 0 1 0
-5.392477 -17.512258 -11.477253 21.621409 1.272084 2.130374 0.033780 -0.003632 207207.000000 0 1 0
-4.256677 -18.578358 -11.643253 22.334727 1.345564 2.119178 0.039449 -0.003454 -473402.000000 0 1 0
-2.982277 -18.032758 -11.748853 21.728090 1.406899 2.142091 0.048840 0.001525 -1632320.000000 0 1 0
-2.107877 -19.051158 -12.010253 22.619371 1.460602 2.130544 0.027243 0.008097 -248124.000000 0 1 0
-0.673377 -18.545158 -12.296753 22.261771 1.534502 2.156002 0.026657 0.003616 -361813.000000 0 1 0
-0.506177 -17.941458 -13.554053 22.491431 1.542591 2.217591 0.037759 -0.007008 499568.000000 0 1 0
0.831323 -17.517758 -13.836853 22.338788 -1.523376 2.238786 0.054283 -0.011172 1150270.000000 0 1 0
1.931623 -18.575258 -14.188953 23.454163 -1.467180 2.220519 0.057364 -0.016792 -157835.000000 0 1 0
1.687323 -19.359358 -15.350953 24.764562 -1.483858 2.239381 0.070441 -0.017920 441445.000000 0 1 0
0.758623 -20.465058 -15.238753 25.526725 -1.533744 2.210518 0.070192 -0.015828 -513151.000000 0 0 1
0.869723 -21.382458 -16.496753 27.020525 -1.530144 2.227522 0.081485 -0.009084 1210670.000000 0 0 1
2.071923 -22.172858 -16.708653 27.840754 -1.477623 2.214486 0.107866 -0.009533 976654.000000 0 0 1
3.297723 -21.474358 -16.639253 27.365814 -1.418421 2.224374 0.109635 -0.018221 -242745.000000 0 0 1
4.577823 -22.362958 -16.771253 28.325488 -1.368880 2.204447 0.117953 -0.022121 482388.000000 0 0 1
4.758823 -22.845858 -18.056353 29.506126 -1.365432 2.229323 0.096109 -0.012578 488633.000000 0 0 1
5.984923 -23.580558 -18.180053 30.370649 -1.322237 2.212556 0.121398 -0.018523 461527.000000 0 0 1
6.495023 -23.584458 -19.591953 31.340973 -1.302064 2.246085 0.102489 -0.016104 -190778.000000 0 0 1
6.775423 -22.252458 -19.991053 30.671166 -1.275235 2.280734 0.112293 -0.022072 -59505.100000 0 0 1
7.251623 -22.233558 -21.308153 31.637865 -1.255519 2.309732 0.091084 -0.009332 2218.030000 0 0 1
7.769323 -20.859758 -21.745953 31.118778 -1.214259 2.344522 0.061113 -0.005723 48783.700000 0 0 1
6.696323 -20.009958 -22.088153 30.547105 -1.247862 2.379054 0.089280 -0.015405 -224586.000000 0 0 1
7.030723 -18.692358 -22.446153 30.044385 -1.211037 2.414484 0.087430 -0.008491 244726.000000 0 0 1
5.764223 -17.798158 -22.642753 29.371669 -1.257590 2.451056 0.082472 -0.010351 -202428.000000 0 0 1
5.180423 -18.049958 -23.889253 30.386414 -1.291304 2.475403 0.073962 -0.013239 652886.000000 0 0 1
4.065723 -17.212458 -24.271453 30.031687 -1.338840 2.511877 0.087383 -0.017420 1369820.000000 0 0 1
2.697323 -17.238858 -23.537453 29.299581 -1.415587 2.503675 0.098766 -0.004832 146405.000000 0 0 1
2.804723 -16.855858 -22.167253 27.988810 -1.405912 2.484881 0.104250 -0.003328 -505311.000000 0 0 1
1.529323 -16.527758 -21.701053 27.321078 -1.478528 2.488646 0.110215 -0.009168 -46592.800000 0 0 1
1.724023 -15.649158 -20.430753 25.793101 -1.461072 2.485040 0.107417 -0.014247 -258366.000000 0 0 1
2.524223 -14.521058 -20.520953 25.265437 -1.398684 2.518734 0.090949 -0.012886 -406444.000000 0 0 1
2.489623 -13.765458 -19.310753 23.845151 -1.391870 2.514675 0.085037 -0.016447 122327.000000 0 1 0
3.563323 -12.628058 -19.409953 23.428858 -1.295772 2.547155 0.070745 -0.013912 299601.000000 0 1 0
4.826523 -13.176758 -19.023353 23.639167 -1.219683 2.506031 0.067895 -0.020849 1004690.000000 0 1 0
5.936823 -12.232058 -19.193753 23.521676 -1.118938 2.525258 0.065420 -0.015990 1220320.000000 0 1 0
5.990923 -11.061258 -18.121253 22.059519 -1.074415 2.534782 0.067530 -0.020346 -1030030.000000 0 1 0
5.099623 -9.995358 -18.238053 21.413545 -1.099023 2.590029 0.039430 -0.000237 -511899.000000 0 1 0
5.366823 -9.004558 -19.199953 21.875169 -1.033314 2.641849 0.053039 -0.003309 -102555.000000 0 1 0
4.685123 -9.305158 -20.550953 23.040790 -1.104355 2.672409 0.068778 -0.014534 561033.000000 0 1 0
3.262223 -9.219758 -20.486753 22.701389 -1.230714 2.696208 0.060597 -0.019809 148498.000000 0 1 0
2.679323 -9.430658 -21.745253 23.853136 -1.293983 2.718031 0.066719 -0.012500 1540840.000000 0 1 0
1.114823 -9.133158 -21.747853 23.614117 -1.449334 2.741355 0.046463 -0.014171 1309490.000000 0 1 0
0.787423 -7.764858 -21.576653 22.944825 -1.469733 2.794516 0.041835 -0.018423 728926.000000 0 1 0
-0.620177 -7.613958 -21.883653 23.178680 1.489523 2.805737 0.046480 -0.018709 1164350.000000 0 1 0
-1.066777 -6.568558 -22.929253 23.875397 1.409795 2.859129 0.051962 -0.018917 -55021.200000 0 1 0
-0.612777 -6.881358 -24.252453 25.217257 1.481982 2.864082 0.061150 -0.023238 -209294.000000 0 0 1
-1.272377 -6.145258 -25.300713 26.067397 1.366631 2.898459 0.065970 -0.031227 89559.300000 0 0 1
-1.048877 -4.599358 -25.462853 25.896160 1.346582 2.958402 0.069398 -0.032112 -156310.000000 0 0 1
-1.740377 -4.128358 -26.601673 26.976309 1.171838 2.974740 0.078602 -0.033210 39591.300000 0 0 1
-1.473477 -2.769258 -27.011373 27.192907 1.081812 3.025979 0.056863 -0.033273 -279149.000000 0 0 1
-2.116577 -1.713858 -25.994213 26.136494 0.680646 3.037202 0.056565 -0.040447 198656.000000 0 0 1
-3.510177 -1.633158 -25.813793 26.102499 0.435474 2.992724 0.044251 -0.043180 20655.400000 0 0 1
-4.163077 -1.054158 -26.939513 27.279659 0.248003 2.983511 0.065854 -0.034204 -1409770.000000 0 0 1
-5.654677 -0.934958 -26.760773 27.367654 0.163860 2.930607 0.062881 -0.034529 -1063150.000000 0 0 1
-6.080977 0.082242 -25.878383 26.583373 -0.013524 2.910777 0.075969 -0.030805 503622.000000 0 0 1
-7.481577 -0.034958 -25.646773 26.715766 0.004673 2.857750 0.089405 -0.043154 -301725.000000 0 0 1
-8.174377 1.209642 -25.046153 26.374105 -0.146914 2.822911 0.089983 -0.045143 -563942.000000 0 0 1
-8.523877 2.241942 -25.988363 27.442263 -0.257194 2.814622 0.113241 -0.044246 40415.700000 0 0 1
-9.222077 1.880842 -27.160123 28.744678 -0.201191 2.808008 0.103763 -0.042962 -563438.000000 0 0 1
-10.674277 1.379442 -27.004423 29.070292 -0.128518 2.762323 0.096384 -0.039918 -1338080.000000 0 0 1
-11.589277 2.374842 -27.189083 29.651264 -0.202119 2.731194 0.095234 -0.051318 -1240090.000000 0 0 1
-12.855377 1.843142 -26.999503 29.960491 -0.142405 2.693258 0.049553 -0.032375 -1143950.000000 0 0 1
-14.059677 2.639542 -27.442023 30.946830 -0.185578 2.661057 0.028745 -0.025296 -1051720.000000 0 0 1
-15.231377 1.860742 -27.510173 31.500267 -0.121563 2.632796 0.031244 -0.019809 190156.000000 0 0 1
-16.229777 2.441842 -28.347973 32.756310 -0.149334 2.616785 0.029369 -0.019603 548147.000000 0 0 1
-17.084677 3.689942 -27.928223 32.946737 -0.212712 2.582389 0.034687 -0.006028 -393597.000000 0 0 1
-16.418677 4.930142 -27.828693 32.685094 -0.291710 2.589480 0.043530 -0.014217 -182920.000000 0 0 1
-16.017177 5.586242 -29.023923 33.617617 -0.335575 2.612677 0.036948 -0.018461 -653363.000000 0 0 1
-17.106977 6.153042 -29.936833 35.024599 -0.345272 2.595841 0.043139 -0.010813 -212709.000000 0 0 1
-17.892377 7.110242 -29.231253 35.002269 -0.378254 2.559155 0.045990 -0.003650 158379.000000 0 0 1
-18.629977 7.925842 -30.118233 36.290535 -0.402239 2.549760 0.050891 -0.007658 -65966.800000 0 0 1
-19.433077 9.030642 -29.323223 36.318706 -0.435015 2.510505 0.041218 -0.007380 94766.400000 0 0 1
-18.623177 9.974342 -28.664353 35.608361 -0.491711 2.506454 0.056107 -0.004500 204089.000000 0 0 1
-19.461377 10.946442 -28.110173 35.899187 -0.512367 2.470320 0.068459 -0.006609 -251004.000000 0 0 1
-8.923177 24.777642 30.279015 40.129458 -1.225125 0.715854 0.051430 -0.017159 -79493.900000 0 0 1
-9.783777 25.949442 30.424995 41.167659 -1.210245 0.739136 0.055463 -0.018059 717389.000000 0 0 1
-9.438577 26.792242 31.534955 42.442483 -1.232085 0.733248 0.058365 -0.016455 670102.000000 0 0 1
-8.051877 27.533042 31.391705 42.524585 -1.286286 0.740396 0.053934 -0.020943 485921.000000 0 0 1
-7.941677 28.506342 30.379905 42.410145 -1.299092 0.772260 0.060350 -0.011176 -961909.000000 0 0 1
-6.601177 28.592342 30.096095 42.034183 -1.343900 0.772754 0.066649 -0.010791 -1008290.000000 0 0 1
-6.398677 29.705142 29.030395 42.025021 -1.358632 0.808218 0.094847 -0.014452 -174942.000000 0 0 1
-6.766377 31.030042 29.433945 43.301322 -1.356098 0.823379 0.098609 -0.019808 551782.000000 0 0 1
-6.151977 32.076742 28.673985 43.462186 -1.381308 0.850316 0.122933 -0.015574 192926.000000 0 0 1
-6.505277 33.430842 29.382115 44.980535 -1.378609 0.858969 0.124279 -0.031006 -156129.000000 0 0 1
-5.690377 33.630642 30.515895 45.767023 -1.403182 0.840935 0.137572 -0.039209 123231.000000 0 0 1
-6.253877 -33.163205 31.507625 46.169683 1.384406 0.819713 0.139062 -0.047163 765712.000000 0 0 1
-7.530877 -33.627805 32.311859 47.239810 1.350483 0.817569 0.102283 -0.040112 649756.000000 0 0 1
-7.295877 33.021642 33.284120 47.449882 -1.353347 0.793355 0.103273 -0.041497 -38003.500000 0 0 1
-7.311277 31.703342 32.778455 46.184238 -1.344144 0.781678 0.098711 -0.032960 -111325.000000 0 0 1
-7.180177 30.677942 -33.801823 46.208812 -1.340885 2.391318 0.092606 -0.027099 -383573.000000 0 0 1
-5.949977 30.741742 -33.139413 45.592517 -1.379613 2.384536 0.093160 -0.034532 -521056.000000 0 0 1
-5.923377 30.130542 -31.888273 44.269605 -1.376681 2.375060 0.087065 -0.029182 114388.000000 0 0 1
-4.460377 30.024342 -31.360013 43.644089 -1.423316 2.372497 0.079313 -0.028753 898354.000000 0 0 1
-3.654777 28.890742 -31.673793 43.026289 -1.444961 2.398160 0.091753 -0.026190 413959.000000 0 0 1
-3.445877 28.525642 -33.021603 43.772281 -1.450580 2.425529 0.079285 -0.033329 -607260.000000 0 0 1
-2.859877 27.119342 -33.200863 42.964344 -1.465729 2.453965 0.092169 -0.038937 236765.000000 0 0 1
-1.636677 26.904942 -32.436103 42.174108 -1.510039 2.448228 0.127373 -0.039077 1455570.000000 0 0 1
-0.937377 25.686742 -32.723383 41.611383 -1.534320 2.475763 0.139542 -0.035082 408845.000000 0 0 1
-0.309277 25.570542 33.583545 42.211406 -1.558702 0.650793 0.133165 -0.032145 -826855.000000 0 0 1
-1.280277 25.331342 32.617145 41.318206 -1.520298 0.660944 0.126640 -0.025797 -104336.000000 0 0 1
-0.738877 25.236942 31.280495 40.198490 -1.541527 0.679080 0.136324 -0.026140 283055.000000 0 0 1
-0.480877 26.678842 30.723585 40.693127 -1.552774 0.715132 0.122480 -0.029953 -401207.000000 0 0 1
-1.675177 27.363142 30.560155 41.054486 -1.509652 0.731190 0.097631 -0.026688 -343882.000000 0 0 1
-1.443377 28.594442 29.883945 41.385694 -1.520362 0.763986 0.086599 -0.022966 365641.000000 0 0 1
-2.620277 29.583842 30.117765 42.298338 -1.482456 0.778409 0.093328 -0.021678 137903.000000 0 0 1
-2.568177 30.115842 31.423425 43.600357 -1.485726 0.765963 0.105582 -0.032158 376146.000000 0 0 1
-3.420977 31.261742 31.622855 44.598258 -1.461800 0.782632 0.108682 -0.026938 189910.000000 0 0 1
-3.003477 32.020842 32.871401 45.987870 -1.477272 0.774481 0.111718 -0.035030 -90236.400000 0 0 1
-1.781377 32.690442 32.677351 46.256325 -1.516358 0.786340 0.167694 -0.048146 -424359.000000 0 0 1
-1.042977 32.728142 33.859425 47.102864 -1.538939 0.768664 0.130367 -0.050887 -257435.000000 0 0 1
0.413523 33.172742 33.671768 47.269333 1.558331 0.777972 0.149975 -0.060344 -143268.000000 0 0 1
0.515723 -33.085405 33.429715 47.036750 -1.555210 0.780283 0.176116 -0.054178 148608.000000 0 0 1
1.868623 -32.902605 33.073543 46.689746 -1.514065 0.783612 0.152498 -0.051217 54808.300000 0 0 1
2.215523 -31.403105 32.845923 45.496354 -1.500362 0.764185 0.146386 -0.052109 -145530.000000 0 0 1
1.904923 -30.568605 -33.761163 45.583818 -1.508560 2.404818 0.145054 -0.046271 228993.000000 0 0 1
2.121623 -29.167805 33.658979 44.589113 -1.498186 0.715341 0.123027 -0.048738 55574.600000 0 0 1
1.514623 -28.198505 -33.019263 43.447917 -1.517135 2.434069 0.135224 -0.046210 896928.000000 0 0 1
0.090423 -28.045805 -33.126243 43.404185 -1.567572 2.439053 0.128233 -0.054238 830299.000000 0 0 1
-0.396077 -27.220305 -32.085303 42.078124 1.556247 2.437992 0.115788 -0.049512 111969.000000 0 0 1
-1.897177 -26.854505 -32.160683 41.941307 1.500267 2.444641 0.120756 -0.050085 233265.000000 0 0 1
-2.393277 -26.393705 -30.920233 40.723657 1.480368 2.432986 0.110338 -0.044265 -580175.000000 0 0 1
-3.716277 -25.989105 -31.049213 40.660766 1.428765 2.439691 0.132019 -0.045677 -569505.000000 0 0 1
-4.289977 -25.201505 -29.800033 39.262726 1.402186 2.432557 0.135725 -0.046001 -801998.000000 0 0 1
-4.718577 -26.105105 -28.807923 39.161689 1.391974 2.397370 0.149320 -0.051561 -263448.000000 0 0 1
-4.668877 -25.579105 -27.500753 37.846802 1.390257 2.384205 0.176523 -0.044008 -139102.000000 0 0 1
-3.343377 -25.234405 -26.796563 36.959561 1.439071 2.381865 0.179037 -0.051078 -266802.000000 0 0 1
-2.603777 -24.224005 -27.423263 36.682658 1.463720 2.415209 0.196253 -0.054124 -616040.000000 0 0 1
-1.338877 -24.134605 -26.860113 36.134988 1.515378 2.408827 0.152537 -0.048946 -915536.000000 0 0 1
-0.345177 -23.063905 -27.416003 35.828760 1.555831 2.442141 0.100314 -0.038213 567915.000000 0 0 1
0.410623 -23.292605 -28.603483 36.890016 -1.553169 2.458100 0.063023 -0.039068 -410020.000000 0 0 1
1.493623 -24.102705 -28.298923 37.202155 -1.508906 2.435156 0.045690 -0.021963 -748758.000000 0 0 1
2.540123 -24.366405 -29.412713 38.278996 -1.466925 2.447098 0.048884 -0.030655 140045.000000 0 0 1
3.400823 -23.308005 -29.755203 37.949977 -1.425911 2.471983 0.077868 -0.030539 -296446.000000 0 0 1
4.160423 -23.719605 -30.841863 39.129902 -1.397162 2.478661 0.083772 -0.024759 -1566400.000000 0 0 1
5.226623 -22.706905 -31.257723 38.986746 -1.344559 2.501018 0.090694 -0.037008 -1681730.000000 0 0 1
6.314523 -22.555605 -30.357983 38.343652 -1.297831 2.484439 0.054808 -0.027143 184058.000000 0 0 1
7.258323 -23.588605 -30.410733 39.165268 -1.272286 2.459844 0.062007 -0.017683 -656176.000000 0 0 1
7.964223 -23.793005 -31.803523 40.509258 -1.247790 2.473642 0.067798 -0.016294 -1357070.000000 0 0 1
7.152023 -24.595905 -32.645323 41.494904 -1.287819 2.476291 0.070030 -0.025050 -32327.900000 0 0 1
7.307823 -24.443905 33.697635 42.266291 -1.280291 0.648038 0.091833 -0.026584 -150603.000000 0 0 1
6.752323 -23.150405 33.045665 40.909059 -1.286997 0.630414 0.097866 -0.026079 332776.000000 0 0 1
5.350123 -23.049905 33.286887 40.840406 -1.342724 0.617984 0.103110 -0.033020 634296.000000 0 0 1
4.781923 -21.903305 32.617651 39.579448 -1.355849 0.602175 0.129017 -0.042151 921004.000000 0 0 1
3.271923 -21.631105 32.934686 39.538636 -1.420674 0.586334 0.100454 -0.041082 1459860.000000 0 0 1
2.309523 -22.641805 32.527014 39.698764 -1.469145 0.610527 0.104127 -0.048087 628642.000000 0 0 1
1.828523 -23.499505 33.504666 40.965020 -1.493142 0.613071 0.116657 -0.034918 -491534.000000 0 0 1
0.444523 -24.105805 33.312326 41.121752 -1.552358 0.626490 0.104559 -0.031905 -398901.000000 0 0 1
0.309323 -24.985605 32.238095 40.788122 -1.558417 0.659368 0.122818 -0.031278 -521287.000000 0 0 1
-1.018477 -25.362305 32.020978 40.861068 1.530661 0.670268 0.111723 -0.035653 -333265.000000 0 0 1
-1.188177 -26.434705 30.935965 40.709205 1.525879 0.707598 0.100412 -0.036735 -286993.000000 0 0 1
-2.514277 -26.547305 30.507095 40.518685 1.476369 0.718317 0.116953 -0.035759 -376259.000000 0 0 1
-2.667577 -27.535305 29.495805 40.438985 1.474219 0.753366 0.138660 -0.041232 -536791.000000 0 0 1
-4.043077 -27.520805 28.870065 40.090171 1.424930 0.766809 0.153490 -0.037360 -909771.000000 0 0 1
-5.103377 -28.090805 29.565505 41.100570 1.391082 0.767937 0.161086 -0.035926 -894591.000000 0 0 1
-6.155377 -28.487305 28.776835 40.957557 1.357993 0.791750 0.134429 -0.034140 -655014.000000 0 0 1
-7.375677 -28.925005 29.611995 42.046722 1.321124 0.789410 0.096983 -0.025887 -7663.740000 0 0 1
-8.425277 -29.479105 28.814595 42.074741 1.292413 0.816408 0.119392 -0.028810 956535.000000 0 0 1
-9.717177 -29.682005 29.383925 42.881931 1.254417 0.815879 0.096067 -0.022026 624173.000000 0 0 1
-9.862777 -30.687005 30.535795 44.400467 1.259825 0.812431 0.064744 -0.008772 -747881.000000 0 0 1
-9.663877 -32.048405 30.167765 45.062011 1.277927 0.837298 0.087676 -0.017268 607867.000000 0 0 1
-10.791177 -32.707005 29.580095 45.400217 1.252108 0.861183 0.081001 -0.011989 140671.000000 0 0 1
-10.540977 33.499342 29.281005 45.724123 -1.265943 0.875798 0.077190 -0.012778 -234824.000000 0 0 1
-10.611677 32.479442 30.253435 45.637618 -1.255010 0.846103 0.077452 -0.007028 153823.000000 0 0 1
-10.342677 31.195542 29.733275 44.319301 -1.250658 0.835391 0.078655 -0.007229 252189.000000 0 0 1
-11.112577 30.095742 30.569485 44.314067 -1.217084 0.809532 0.061376 -0.009774 -658203.000000 0 0 1
-12.484077 30.226442 30.428495 44.669714 -1.179118 0.821412 0.063256 0.002276 -717658.000000 0 0 1
-13.280777 29.133942 30.877625 44.481382 -1.143086 0.803531 0.064502 -0.000718 123334.000000 0 0 1
-13.440577 29.047542 32.443853 45.574252 -1.137423 0.778611 0.078763 -0.008266 -588246.000000 0 0 1
-14.350677 29.885042 33.142118 46.877049 -1.123117 0.785548 0.086478 0.000082 374933.000000 0 0 1
-14.433677 29.448642 -33.250913 46.703070 -1.115075 2.363088 0.086040 -0.001317 314522.000000 0 0 1
-15.758277 29.848642 -32.528283 46.875942 -1.085048 2.337719 0.072447 0.001117 324487.000000 0 0 1
-15.744177 29.428642 -31.146473 45.651143 -1.079546 2.321661 0.066983 -0.004697 1012380.000000 0 0 1
-16.957977 29.842142 -30.452333 45.885412 -1.054045 2.296498 0.077216 -0.002039 1113350.000000 0 0 1
-17.028977 29.255242 -28.990373 44.567892 -1.043655 2.279008 0.094857 -0.015790 -86129.500000 0 0 1
-17.196277 27.867642 -28.909433 43.681492 -1.017920 2.294045 0.080870 -0.018002 133238.000000 0 0 1
-17.230877 27.471142 -27.560003 42.557262 -1.010591 2.275224 0.092480 -0.023425 -309931.000000 0 0 1
-17.860777 26.108142 -27.334363 41.806816 -0.970816 2.283426 0.059126 -0.019225 -130880.000000 0 0 1
-19.220177 26.184342 -27.705393 42.692198 -0.937593 2.277009 0.072830 -0.022789 -246379.000000 0 0 1
-19.875777 24.961342 -27.385853 42.048782 -0.898339 2.280076 0.052746 -0.017237 436216.000000 0 0 1
-21.343477 24.963042 -27.931973 43.114877 -0.863405 2.275555 0.078229 -0.021547 937908.000000 0 0 1
-22.308977 25.264742 -26.876403 43.108452 -0.847449 2.243957 0.086838 -0.019424 294285.000000 0 0 1
-23.534477 24.745542 -27.333633 43.741753 -0.810477 2.245783 0.105834 -0.024896 29402.100000 0 0 1
-24.703577 24.657242 -26.321313 43.715647 -0.784459 2.216929 0.113126 -0.023993 376001.000000 0 0 1
-25.453097 25.872942 -26.130693 44.722281 -0.793578 2.194799 0.077727 -0.018939 452399.000000 0 0 1
-26.578827 25.732642 -25.256653 44.793989 -0.769224 2.169825 0.091113 -0.018829 182957.000000 0 0 1
-26.423767 25.365542 -23.748953 43.653625 -0.764968 2.146031 0.078826 -0.014778 -876356.000000 0 0 1
-26.147507 23.997042 -23.548953 42.592292 -0.742539 2.156628 0.070029 -0.005286 761453.000000 0 0 1
-27.305277 23.176742 -23.202953 42.674542 -0.703797 2.145658 0.082124 -0.009775 1007880.000000 0 0 1
-28.146067 23.580342 -21.943453 42.775562 -0.697360 2.109461 0.076763 -0.015178 -300939.000000 0 0 1
-27.619097 23.301742 -20.677753 41.633582 -0.700815 2.090543 0.071440 -0.010067 308380.000000 0 0 1
-26.508747 24.072242 -20.222353 41.123352 -0.737265 2.084893 0.067070 -0.008701 338605.000000 0 0 1
-25.859007 23.573742 -18.866553 39.753696 -0.739201 2.065290 0.054070 -0.012284 143976.000000 0 0 1
-26.583757 23.812142 -17.671953 39.824768 -0.730457 2.030567 0.044031 -0.006647 167986.000000 0 0 1
-25.669997 23.679442 -16.600253 38.668244 -0.745084 2.014513 0.081381 -0.030077 -122186.000000 0 0 1
-26.294627 23.996642 -15.288653 38.742601 -0.739736 1.976452 0.089794 -0.036147 -341316.000000 0 0 1
-26.683227 25.346542 -15.054153 39.762662 -0.759713 1.959080 0.101084 -0.035094 175028.000000 0 0 1
-27.377547 25.512942 -13.792853 39.883369 -0.750159 1.923919 0.069271 -0.046529 192804.000000 0 0 1
-27.124767 26.855942 -13.073053 40.347234 -0.780418 1.900765 0.063393 -0.033746 -1184790.000000 0 0 1
-25.782147 27.060142 -12.929853 39.549355 -0.809579 1.903849 0.107954 -0.051000 -1510830.000000 0 0 1
-25.479167 27.916442 -11.866053 39.614630 -0.831012 1.875004 0.110375 -0.041570 288169.000000 0 0 1
-23.958777 28.167042 -11.664753 38.774627 -0.865956 1.876364 0.144776 -0.047963 670898.000000 0 0 1
-23.225777 27.002942 -11.187753 37.333114 -0.860456 1.875147 0.150031 -0.049149 636327.000000 0 0 1
-22.065277 27.366842 -10.441253 36.672064 -0.892239 1.859510 0.141375 -0.047630 759123.000000 0 0 1
-21.194577 26.152242 -9.945253 35.100683 -0.889728 1.858066 0.188742 -0.048772 660093.000000 0 0 1
-20.518077 25.392142 -10.986153 34.444853 -0.891167 1.895417 0.180800 -0.063145 -108129.000000 0 0 1
-19.473577 24.675842 -10.425553 33.118115 -0.902690 1.891041 0.180298 -0.046368 -463282.000000 0 0 1
-18.747377 23.754342 -11.443253 32.352449 -0.902664 1.932327 0.169844 -0.053017 -261078.000000 0 0 1
-18.008377 22.792342 -10.734453 30.968064 -0.902117 1.924772 0.126239 -0.037352 133140.000000 0 0 1
-17.365377 21.887242 -11.641353 30.267619 -0.900092 1.965586 0.120492 -0.022922 231568.000000 0 0 1
-16.980777 20.509742 -11.008253 28.812809 -0.879251 1.962822 0.111847 -0.010234 -100937.000000 0 0 1
-18.169777 19.749042 -10.735053 28.903405 -0.827023 1.951325 0.135248 -0.007186 777295.000000 0 0 1
-17.866077 18.399542 -10.399453 27.674690 -0.800107 1.956029 0.144505 -0.019883 -663234.000000 0 0 1
-19.129977 17.499042 -10.241353 27.875757 -0.740902 1.947001 0.135660 -0.009696 184724.000000 0 0 1
-19.695677 17.035042 -11.433553 28.440086 -0.713088 1.984521 0.128635 -0.015198 -421797.000000 0 0 1
-20.431077 17.966642 -12.093153 29.773705 -0.721304 1.989054 0.131526 -0.024011 -1497320.000000 0 0 1
-21.202377 17.358842 -13.258953 30.441255 -0.686053 2.021455 0.129554 -0.028027 73717.200000 0 0 1
-20.372677 16.967242 -14.343253 30.144024 -0.694449 2.066697 0.125964 -0.035163 232631.000000 0 0 1
-21.213677 16.595342 -15.382453 31.016856 -0.663851 2.089712 0.120685 -0.038196 249161.000000 0 0 1
-20.394477 16.188242 -16.668153 30.916358 -0.670922 2.140208 0.141932 -0.047018 -68216.900000 0 0 1
-19.712877 17.275042 -17.189453 31.344886 -0.719584 2.151243 0.124661 -0.043552 9974.460000 0 0 1
-18.809777 16.792142 -18.169153 31.078962 -0.728787 2.195199 0.109179 -0.039158 -590396.000000 0 0 1
-18.257277 17.975442 -18.998953 31.896785 -0.777620 2.208857 0.069019 -0.030524 -580362.000000 0 0 1
-17.542277 18.903642 -18.250753 31.593815 -0.822734 2.186666 0.081500 -0.022637 220559.000000 0 0 1
-17.337877 20.130842 -18.902153 32.605892 -0.859802 2.189176 0.090908 -0.032981 -246450.000000 0 0 1
34.398814 29.843442 1.714347 45.572452 0.714607 1.533169 0.103281 -0.021387 -647107.000000 0 0 1
35.647904 30.121742 1.198347 46.685420 0.701572 1.545125 0.124977 -0.020847 -676935.000000 0 0 1
35.556664 31.053942 0.105747 47.208419 0.717903 1.568556 0.125925 -0.026334 107275.000000 0 0 1
36.863774 31.222642 -0.710953 48.314559 0.702734 1.585512 0.091712 -0.027267 -266558.000000 0 0 1
-37.266097 31.743242 0.058447 48.953027 -0.705538 1.569602 0.069045 -0.020251 428694.000000 0 0 1
-35.990035 31.596342 -0.612453 47.895580 -0.720481 1.583584 0.068724 -0.018299 1314040.000000 0 0 1
-34.897898 32.612442 -0.124053 47.764527 -0.751558 1.573394 0.041596 -0.017275 368724.000000 0 0 1
-34.375800 32.280642 1.153447 47.170605 -0.753976 1.546341 0.027140 -0.016955 324859.000000 0 0 1
-33.520547 33.322642 1.637947 47.293852 -0.782437 1.536156 0.017356 -0.007404 171997.000000 0 0 1
-32.904697 33.122642 3.068947 46.789389 -0.788699 1.505159 0.037307 -0.008910 -97723.300000 0 0 1
-32.426067 -33.308005 3.552847 46.620765 0.798814 1.494515 0.037942 -0.000616 71283.800000 0 0 1
-31.914207 -33.473805 4.883847 46.506604 0.809245 1.465588 0.062390 -0.011096 -260668.000000 0 0 1
-31.800827 -32.072005 5.655847 45.518070 0.789644 1.446219 0.074186 -0.005084 501948.000000 0 0 1
-32.970837 -31.612505 6.343647 46.115815 0.764369 1.432800 0.069732 -0.008076 635772.000000 0 0 1
-33.383707 -32.439305 7.438647 47.139303 0.771052 1.412333 0.058514 -0.017920 -963027.000000 0 0 1
-34.457732 -31.831405 8.371647 47.651423 0.745800 1.394195 0.070618 -0.014720 261837.000000 0 0 1
-35.731506 -31.503205 7.880647 48.283507 0.722592 1.406847 0.042218 -0.014297 410296.000000 0 0 1
-36.509237 -32.584505 7.296347 49.476368 0.728656 1.422785 0.037855 -0.015887 -840757.000000 0 0 1
37.167414 -32.227805 7.119147 49.706441 -0.714337 1.427078 0.038500 -0.007145 -294070.000000 0 0 1
36.358914 -32.474105 8.250747 49.443027 -0.729020 1.403138 0.043372 -0.010309 105811.000000 0 0 1
34.990294 -32.300405 7.904347 48.271270 -0.745445 1.406307 0.036188 0.001454 39636.500000 0 0 1
34.172524 -32.282805 9.237547 47.909009 -0.756970 1.376767 0.047553 -0.014178 -186754.000000 0 0 1
32.810984 -32.256505 8.844247 46.853639 -0.776877 1.380894 0.051093 -0.021692 241568.000000 0 0 1
31.823744 -32.331605 9.857647 46.424741 -0.793314 1.356831 0.051880 -0.029697 313906.000000 0 0 1
31.626554 -31.070205 10.818047 45.635805 -0.776525 1.331466 0.064677 -0.022106 -204440.000000 0 0 1
30.925244 -29.907505 10.294947 44.235907 -0.768670 1.335914 0.068017 -0.032059 688997.000000 0 0 1
31.702494 -29.187105 9.331547 44.090962 -0.744111 1.357541 0.078014 -0.032218 271867.000000 0 0 1
31.137004 -27.742105 9.169047 42.699049 -0.727803 1.354374 0.077699 -0.038393 429001.000000 0 0 1
31.551794 -27.123105 7.918447 42.354224 -0.710063 1.382732 0.083153 -0.036342 75898.900000 0 0 1
30.720624 -26.010605 7.714447 40.985619 -0.702565 1.381444 0.087252 -0.037533 88228.000000 0 0 1
30.944204 -25.441005 6.266547 40.546986 -0.688106 1.415624 0.088330 -0.026360 564364.000000 0 0 1
32.265134 -25.102505 5.844947 41.295738 -0.661186 1.428781 0.069074 -0.024435 129734.000000 0 0 1
32.234454 -24.526105 4.544147 40.758301 -0.650419 1.459074 0.072014 -0.025797 67413.400000 0 0 1
33.597634 -24.021805 4.016347 41.496737 -0.620712 1.473858 0.058429 -0.022358 113936.000000 0 0 1
34.539074 -25.053205 3.946847 42.850768 -0.627543 1.478559 0.040756 -0.013512 265643.000000 0 0 1
35.878764 -24.561605 3.735747 43.640737 -0.600297 1.485089 0.034097 -0.011607 1116260.000000 0 0 1
36.851334 -25.763605 3.481247 45.098816 -0.610137 1.493528 0.030592 -0.008970 -194614.000000 0 0 1
37.007784 -26.520005 4.671747 45.768023 -0.621784 1.468544 0.018527 -0.011958 -443292.000000 0 0 1
-37.374177 -27.650005 4.488747 46.706539 0.636951 1.474542 0.022185 -0.013034 -986637.000000 0 0 1
37.454244 -28.730805 5.598247 47.535459 -0.654350 1.452752 0.032151 -0.016552 672574.000000 0 0 1
36.156294 -29.313405 5.674647 46.890883 -0.681256 1.449481 0.015441 -0.013950 1227240.000000 0 0 1
35.066304 -28.431205 6.051647 45.547794 -0.681282 1.437539 0.036376 -0.013391 149789.000000 0 0 1
33.700344 -29.076005 6.388347 44.965967 -0.711867 1.428243 0.088239 -0.017324 -13984.600000 0 0 1
33.144674 -29.833705 5.342747 44.912852 -0.732873 1.451556 0.072760 -0.023105 -145405.000000 0 0 1
32.478194 -29.027605 4.387147 43.779927 -0.729355 1.470419 0.088807 -0.026732 -1128800.000000 0 0 1
30.962384 -29.202005 4.395047 42.787180 -0.756147 1.467896 0.078246 -0.034546 -415684.000000 0 0 1
30.556664 -30.362105 3.685847 43.233697 -0.782204 1.485439 0.087673 -0.026025 -1146120.000000 0 0 1
29.201564 -30.516405 3.467747 42.379329 -0.807412 1.488878 0.113596 -0.026142 -638894.000000 0 0 1
28.862364 -31.878405 2.875747 43.099172 -0.835012 1.504023 0.116981 -0.016789 -422302.000000 0 0 1
28.956064 -31.996805 1.469547 43.178799 -0.835244 1.536756 0.116070 -0.007257 43312.700000 0 0 1
28.475164 -33.195605 0.926247 43.745183 -0.861792 1.549621 0.116039 -0.009687 -215895.000000 0 0 1
28.435664 -33.331805 -0.659453 43.818159 -0.864500 1.585847 0.110870 -0.010753 -71518.000000 0 0 1
29.657564 -33.245305 -1.350653 44.571803 -0.842373 1.601104 0.093809 -0.012210 -90153.900000 0 0 1
29.322764 -33.262505 -2.710453 44.424827 -0.848265 1.631846 0.085825 -0.010473 -299144.000000 0 0 1
30.406614 -32.986305 -3.756653 45.019672 -0.826069 1.654338 0.071227 -0.012677 -267187.000000 0 0 1
30.740354 -31.622305 -3.722253 44.258272 -0.799540 1.654999 0.054625 -0.013102 -173391.000000 0 0 1
31.655554 -31.279505 -4.720053 44.752211 -0.779423 1.676464 0.050733 -0.012417 -463749.000000 0 0 1
31.978334 -29.740805 -4.799853 43.933676 -0.749161 1.680267 0.040578 -0.003225 -433694.000000 0 0 1
30.925584 -28.825405 -5.134053 42.587019 -0.750264 1.691645 0.043408 -0.010867 -4104.080000 0 0 1
31.140634 -27.421005 -5.004953 41.793542 -0.721967 1.690839 0.035386 -0.017038 -259139.000000 0 0 1
32.279804 -26.737705 -5.787053 42.312889 -0.691767 1.707994 0.043210 -0.018505 -343351.000000 0 0 1
33.564904 -27.098405 -5.321053 43.465387 -0.679203 1.693525 0.047890 -0.016297 -960598.000000 0 0 1
34.606784 -26.712405 -6.124353 44.143966 -0.657360 1.709981 0.055003 -0.025146 -776676.000000 0 0 1
34.870074 -27.547705 -7.380453 45.047410 -0.668620 1.735376 0.058039 -0.009109 -939860.000000 0 0 1
33.818084 -27.519705 -8.321953 44.387519 -0.683073 1.759396 0.055549 -0.014211 -182350.000000 0 0 1
33.841544 -28.558505 -9.271553 45.241573 -0.700936 1.777193 0.035387 -0.005334 44528.800000 0 0 1
33.559744 -30.020905 -8.914953 45.901934 -0.729796 1.766256 0.027005 -0.004574 -185398.000000 0 0 1
34.572514 -30.686105 -8.206253 46.949316 -0.725914 1.746488 0.048380 -0.007554 -632110.000000 0 0 1
34.255314 -31.996705 -7.827753 47.523566 -0.751320 1.736263 0.066013 -0.016133 212192.000000 0 0 1
35.502214 -32.741505 -7.278253 48.840416 -0.744967 1.720375 0.063377 -0.016252 310039.000000 0 0 1
35.304684 33.627742 -6.769753 49.224743 0.761076 1.708761 0.061875 -0.021047 -32856.400000 0 0 1
34.756024 33.568442 -5.423253 48.623381 0.768018 1.682565 0.074276 -0.021059 246297.000000 0 0 1
34.447894 32.116242 -4.878553 47.348819 0.750384 1.674014 0.072582 -0.027640 -384009.000000 0 0 1
33.332804 31.511442 -5.433953 46.190634 0.757317 1.688711 0.080763 -0.039272 -650311.000000 0 0 1
33.129874 30.193042 -4.940853 45.095680 0.739053 1.680580 0.095671 -0.019948 627993.000000 0 0 1
31.846204 29.564842 -5.583253 43.811337 0.748266 1.698582 0.107754 -0.036951 563561.000000 0 0 1
31.991644 29.223942 -6.969053 43.887034 0.740217 1.730267 0.072924 -0.029408 343778.000000 0 0 1
30.752354 28.821942 -7.570253 42.821961 0.753006 1.748515 0.047688 -0.026122 785499.000000 0 0 1
30.975944 28.461242 -9.067753 43.032261 0.743115 1.783108 0.047514 -0.018738 -140514.000000 0 0 1
31.812514 27.339942 -9.274853 42.959648 0.709931 1.788407 0.046097 -0.017112 -72388.100000 0 0 1
32.371614 27.163742 -10.558853 43.557773 0.698145 1.815646 0.046520 -0.006888 224427.000000 0 0 1
33.520484 28.095342 -11.016753 45.103657 0.697577 1.817547 0.052522 -0.020600 -143972.000000 0 0 1
34.782604 27.796842 -10.428753 45.730218 0.674228 1.800870 0.058953 -0.031927 142739.000000 0 0 1
35.814894 28.596042 -10.925253 47.114768 0.673789 1.804812 0.061644 -0.031048 -172081.000000 0 0 1
36.086924 29.976042 -10.186853 48.006261 0.693160 1.784620 0.046759 -0.035192 -497671.000000 0 0 1
36.754944 29.845142 -8.953653 48.185333 0.682017 1.757700 0.062211 -0.028321 -29937.100000 0 0 1
36.729484 31.089942 -8.220253 48.818153 0.702434 1.739988 0.049105 -0.025574 -465369.000000 0 0 1
-37.393877 31.246442 -7.061353 49.239262 -0.696076 1.714701 0.053722 -0.017360 1009990.000000 0 0 1
-36.023467 31.436142 -7.448753 48.388068 -0.717502 1.725349 0.060956 -0.013615 519580.000000 0 0 1
-35.378349 30.204442 -7.697553 47.150697 -0.706670 1.734785 0.072139 -0.014090 -402875.000000 0 0 1
-34.003537 30.494442 -8.389353 46.438484 -0.731045 1.752449 0.082998 -0.011044 -148285.000000 0 0 1
-33.168427 31.177342 -7.495953 46.134158 -0.754465 1.734002 0.084255 -0.012210 -45959.700000 0 0 1
-31.964047 31.609742 -8.134753 45.684246 -0.779825 1.749816 0.073805 -0.020244 394307.000000 0 0 1
-32.086757 32.925342 -8.949753 46.837338 -0.798296 1.763060 0.048018 -0.023287 -499954.000000 0 0 1
-32.165547 -33.489105 -8.238753 47.159512 0.805555 1.746397 0.035098 -0.016456 270221.000000 0 0 1
-31.100437 -33.234405 -7.303453 46.098842 0.818556 1.729897 0.060711 -0.023469 374830.000000 0 0 1
-31.161507 -31.911305 -6.554753 45.081434 0.797285 1.716712 0.046089 -0.024814 463224.000000 0 0 1
-32.101717 -31.803005 -5.464353 45.517145 0.780724 1.691137 0.032618 -0.023805 727852.000000 0 0 1
-31.445717 -32.137505 -4.189753 45.157573 0.796278 1.663711 0.054417 -0.031713 841344.000000 0 0 1
-32.420097 -32.384805 -2.976253 45.920544 0.784854 1.635655 0.070129 -0.031121 199928.000000 0 0 1
-33.188367 -31.228505 -2.693353 45.650207 0.754983 1.629830 0.052940 -0.019507 -94996.300000 0 0 1
-34.077458 -31.495605 -1.629753 46.431696 0.746045 1.605904 0.055641 -0.021419 -365377.000000 0 0 1
-35.038024 -30.319305 -1.489653 46.358844 0.713324 1.602935 0.063123 -0.010483 71985.500000 0 0 1
-35.914865 -30.280405 -0.340853 46.977618 0.700484 1.578052 0.054559 -0.013827 196438.000000 0 0 1
-36.554757 -29.012305 -0.372153 46.670147 0.670867 1.578771 0.051882 -0.010545 -228071.000000 0 0 1
-37.545747 -28.842005 0.786247 47.351479 0.655037 1.554191 0.041530 -0.002289 -665184.000000 0 0 1
36.381744 -29.513105 0.560747 46.850497 -0.681537 1.558827 0.028982 -0.000763 -136305.000000 0 0 1
35.507324 -29.484005 1.643647 46.182011 -0.692983 1.535198 0.033643 -0.005737 -176142.000000 0 0 1
34.675144 -28.208605 1.757647 44.734554 -0.682925 1.531496 0.024749 0.000040 -725838.000000 0 0 1
33.741594 -27.896105 0.718447 43.785888 -0.690845 1.554387 0.039526 -0.012352 245986.000000 0 0 1
33.062184 -26.669105 0.827147 42.485684 -0.678773 1.551326 0.037948 -0.005491 9444.450000 0 0 1
31.943944 -26.697405 -0.259853 41.632133 -0.696167 1.577038 0.050744 -0.025726 -141913.000000 0 0 1
30.735474 -27.284105 0.166947 41.098900 -0.725982 1.566734 0.061619 -0.015716 -8240.160000 0 0 1
30.570594 -28.673105 -0.079053 41.913177 -0.753381 1.572682 0.060200 -0.010169 -268799.000000 0 0 1
30.056864 -29.084605 -1.473553 41.850934 -0.768960 1.606013 0.063822 -0.017214 -670449.000000 0 0 1
28.677264 -29.054005 -1.658453 40.856714 -0.791924 1.611399 0.079281 -0.012475 -647870.000000 0 0 1
28.303664 -29.462505 -2.927053 40.959788 -0.805456 1.642319 0.067599 -0.010770 264117.000000 0 0 1
26.820664 -29.866805 -3.132153 40.263934 -0.839082 1.648666 0.088002 -0.014956 -42759.900000 0 0 1
25.876764 -28.846805 -3.117553 38.877554 -0.839618 1.651072 0.094307 -0.012381 -908358.000000 0 0 1
24.631564 -29.490605 -3.279753 38.563798 -0.874937 1.655947 0.074102 -0.014769 -247941.000000 0 0 1
23.482264 -28.467105 -3.194653 37.040499 -0.881061 1.657151 0.078474 -0.009434 -85483.300000 0 0 1
23.488164 -27.596305 -4.312353 36.494469 -0.865644 1.689238 0.082630 -0.015710 7269.530000 0 0 1
22.484564 -26.610805 -4.180153 35.087950 -0.869247 1.690214 0.079348 -0.024529 -22413.900000 0 0 1
22.188064 -25.704805 -5.421153 34.386568 -0.858696 1.729110 0.090783 -0.033696 -61308.600000 0 0 1
20.989964 -26.171905 -5.992653 34.080186 -0.894835 1.747555 0.090496 -0.029605 -495088.000000 0 0 1
20.617364 -25.474905 -7.157553 33.545149 -0.890398 1.785820 0.105915 -0.032408 2073030.000000 0 0 1
19.046564 -25.665705 -7.486453 32.826010 -0.932369 1.800886 0.105325 -0.025461 2072530.000000 0 0 1
18.250164 -25.072605 -6.489653 31.683112 -0.941595 1.777086 0.100620 -0.024495 -54151.400000 0 0 1
16.874464 -25.357205 -6.681853 31.183049 -0.983623 1.786749 0.096848 -0.028113 422919.000000 0 0 1
15.883964 -24.585605 -5.793753 29.838228 -0.997190 1.766210 0.084986 -0.024831 137535.000000 0 0 1
16.081164 -24.872505 -4.409653 29.944788 -0.996855 1.718593 0.083586 -0.020560 -201339.000000 0 0 1
15.099164 -24.187405 -3.706853 28.753366 -1.012731 1.700075 0.084913 -0.026705 -161363.000000 0 0 1
15.071964 -24.570105 -2.207553 28.908951 -1.020563 1.647233 0.085475 -0.013515 84247.300000 0 0 1
14.671864 -25.936405 -2.035153 29.868085 -1.055990 1.638987 0.103157 -0.012888 249311.000000 0 0 1
15.081564 -26.467205 -0.771753 30.472317 -1.052863 1.596125 0.091870 -0.011885 -115708.000000 0 0 1
14.831264 -27.993505 -0.675253 31.686885 -1.083585 1.592108 0.095205 -0.021870 -429374.000000 0 0 1
13.460464 -28.265705 -0.666853 31.314196 -1.126360 1.592093 0.101610 -0.019596 -629073.000000 0 0 1
13.050464 -29.253405 -1.613053 32.073014 -1.151176 1.621111 0.103609 -0.020759 36210.500000 0 0 1
13.353064 -30.740305 -1.417453 33.545191 -1.161005 1.613064 0.090186 -0.019428 38794.100000 0 0 1
14.715664 -30.974705 -1.725753 34.336006 -1.127277 1.621078 0.098883 -0.020368 -150966.000000 0 0 1
15.208564 -32.282705 -1.526453 35.718392 -1.130530 1.613545 0.096088 -0.024653 62796.500000 0 0 1
16.698864 -32.330605 -1.907953 36.438446 -1.094033 1.623181 0.082252 -0.023183 74801.100000 0 0 1
17.522864 -31.434705 -1.205853 36.008964 -1.062261 1.604290 0.084559 -0.011133 721266.000000 0 0 1
18.883864 -31.328305 -1.659753 36.617179 -1.028340 1.616139 0.073020 -0.015433 1026270.000000 0 0 1
19.717964 -30.256505 -0.901653 36.125713 -0.993232 1.595758 0.067672 -0.012681 -39630.600000 0 0 1
19.344664 -28.923105 -1.242153 34.818170 -0.981297 1.606479 0.073847 -0.011981 159541.000000 0 0 1
19.840964 -27.915305 -0.365553 34.249988 -0.952888 1.581470 0.064669 -0.001712 -342826.000000 0 0 1
19.341164 -26.482305 -0.729653 32.801303 -0.939995 1.593043 0.069388 -0.006835 -74143.800000 0 0 1
19.709864 -25.735205 -1.905653 32.471695 -0.917215 1.629517 0.070981 -0.008630 368999.000000 0 0 1
18.827664 -26.086205 -2.984553 32.309109 -0.945623 1.663303 0.080938 -0.009132 337733.000000 0 0 1
33.139314 -29.636705 13.593047 46.489992 -0.729661 1.274075 0.046646 -0.035719 197114.000000 0 0 1
34.049984 -29.960405 14.646047 47.660612 -0.721596 1.258443 0.062253 -0.025560 620986.000000 0 0 1
33.365544 -30.467505 15.807847 47.868741 -0.740029 1.234246 0.056691 -0.018515 57058.900000 0 0 1
34.399534 -30.458405 16.921847 48.963162 -0.724707 1.217914 0.058941 -0.009905 -110372.000000 0 0 1
33.917164 -31.034305 18.127947 49.417857 -0.741042 1.195197 0.047809 -0.007298 762602.000000 0 0 1
34.907064 -31.116405 19.203247 50.551938 -0.728047 1.181139 0.041385 -0.002137 600146.000000 0 0 1
35.692004 -32.475405 19.173147 51.924759 -0.738246 1.192596 0.042070 0.000902 161484.000000 0 0 1
36.645784 -32.460005 18.106647 52.195939 -0.724901 1.216535 0.057969 0.001906 135638.000000 0 0 1
37.201874 -33.768105 17.999447 53.368946 -0.737052 1.226787 0.071927 -0.005439 -479423.000000 0 0 1
-36.820167 33.762942 16.998247 52.769322 -0.742111 1.242824 0.081431 -0.010810 -286307.000000 0 0 1
-35.696491 -33.148605 17.389147 51.724771 0.748406 1.227932 0.095553 -0.014899 935889.000000 0 0 1
-34.606023 -33.198805 16.423947 50.690073 0.764647 1.240834 0.107417 -0.012230 372463.000000 0 0 1
-33.508227 -32.193105 16.782147 49.404835 0.765384 1.224213 0.086071 -0.017756 -477377.000000 0 0 1
-32.393187 -32.245505 15.942347 48.407123 0.783113 1.235193 0.097655 -0.023900 -358705.000000 0 0 1
-32.441087 -31.335105 14.846447 47.483997 0.768058 1.252802 0.103647 -0.021639 -226958.000000 0 0 1
-31.170707 -31.383205 13.987647 46.391517 0.788795 1.264517 0.085562 -0.025801 211086.000000 0 0 1
-29.960777 -31.096705 14.661447 45.602755 0.804000 1.243479 0.070815 -0.023563 116324.000000 0 0 1
-28.910247 -30.702305 13.791347 44.369304 0.815451 1.254729 0.067752 -0.017867 -420462.000000 0 0 1
-27.652237 -30.321405 14.507247 43.525786 0.831407 1.230992 0.073778 -0.027771 -533537.000000 0 0 1
-26.533387 -30.178105 13.662047 42.442787 0.849578 1.243068 0.075233 -0.020199 -736333.000000 0 0 1
-25.377637 -29.870805 14.379847 41.750083 0.866546 1.219168 0.064719 -0.024802 -303293.000000 0 0 1
-24.138777 -29.784005 13.455447 40.630242 0.889709 1.233255 0.074316 -0.018076 -12356.600000 0 0 1
-23.753377 -31.030905 12.949847 41.168417 0.917465 1.250806 0.080709 -0.027276 642597.000000 0 0 1
-22.511477 -30.936005 12.225647 40.165526 0.941734 1.261507 0.082420 -0.031205 1088500.000000 0 0 1
-21.856477 -32.341705 11.928347 40.816381 0.976498 1.274224 0.070422 -0.028592 267719.000000 0 0 1
-22.552877 -32.932905 10.839247 41.360582 0.970336 1.305633 0.063925 -0.024237 116244.000000 0 0 1
-22.561777 33.348942 10.867347 41.704736 -0.975992 1.307175 0.070585 -0.022947 -284824.000000 0 0 1
-23.522777 32.665142 9.920147 41.457712 -0.946695 1.329168 0.066037 -0.015558 8870.170000 0 0 1
-23.133777 32.775142 8.523947 41.012672 -0.956166 1.361433 0.058783 -0.012147 380095.000000 0 0 1
-24.274877 32.428942 7.753847 41.243522 -0.928220 1.381669 0.066874 -0.019280 -31446.700000 0 0 1
-24.086277 32.769242 6.262647 41.148423 -0.936947 1.418006 0.058480 -0.010787 202788.000000 0 0 1
-23.194877 31.948442 5.496247 39.861184 -0.942827 1.432471 0.056335 -0.013127 1092190.000000 0 0 1
-21.785577 31.926142 5.787447 39.081766 -0.971998 1.422164 0.059179 -0.021605 1045890.000000 0 0 1
-20.940777 33.209242 5.436747 39.634936 -1.008201 1.433192 0.070973 -0.024001 -390736.000000 0 0 1
-21.132977 -33.380705 6.328447 40.011541 1.006401 1.411964 0.068096 -0.017953 -353505.000000 0 0 1
-20.256177 -33.404405 7.408347 39.762427 1.025690 1.383386 0.067111 -0.020955 -453224.000000 0 0 1
-20.359677 -32.301305 8.480247 39.112726 1.008391 1.352245 0.063330 -0.021921 -475140.000000 0 0 1
-19.744477 -31.140705 7.987347 37.727783 1.005722 1.357472 0.062770 -0.033684 -219012.000000 0 0 1
-19.745377 -30.097405 8.903147 37.080989 0.990180 1.328327 0.062281 -0.034212 147980.000000 0 0 1
-19.111177 -30.205605 10.325547 37.205276 1.006677 1.289575 0.060744 -0.029629 -719849.000000 0 0 1
-17.760477 -30.508405 10.259547 36.762149 1.043605 1.287961 0.054149 -0.036998 -772012.000000 0 0 1
-17.064677 -30.192605 11.485847 36.533837 1.056363 1.250983 0.075198 -0.034143 -315548.000000 0 0 1
-15.736577 -30.921505 11.586047 36.578898 1.100038 1.248504 0.067900 -0.036217 -702603.000000 0 0 1
-14.765477 -30.290405 10.792147 35.383589 1.117228 1.260853 0.088737 -0.032947 -213300.000000 0 0 1
-13.654977 -31.138905 10.562347 35.604115 1.157532 1.269602 0.095656 -0.031735 -319415.000000 0 0 1
-12.463377 -30.506305 9.876647 34.402305 1.182940 1.279606 0.114890 -0.022693 -321208.000000 0 0 1
-11.614377 -29.798905 10.769547 33.746876 1.199150 1.245988 0.113049 -0.031255 -256298.000000 0 0 1
-10.818577 -28.852605 10.082347 32.421723 1.212061 1.254578 0.121140 -0.027184 17713.900000 0 0 1
-9.661777 -28.392605 10.997547 31.944264 1.242796 1.219332 0.108594 -0.025756 298657.000000 0 0 1
-10.137277 -27.572505 12.073247 31.761151 1.218477 1.180864 0.077701 -0.035122 -423313.000000 0 0 1
-9.179077 -27.467705 13.086247 31.780185 1.248287 1.146397 0.068122 -0.023873 -39546.800000 0 0 1
-9.203477 -26.103105 13.737647 30.899822 1.231823 1.110084 0.063242 -0.030543 339668.000000 0 0 1
-8.760277 -24.965605 12.953047 29.458536 1.233325 1.115527 0.038726 -0.026141 -344670.000000 0 0 1
-9.783477 -24.463805 12.144447 29.011752 1.190362 1.138888 0.038578 -0.020239 -24492.400000 0 0 1
-9.367477 -23.125105 11.425147 27.441831 1.185920 1.141380 0.033949 -0.020096 46651.600000 0 0 1
-8.355077 -23.278305 10.446647 26.848077 1.226196 1.171139 0.029048 -0.018685 -160389.000000 0 0 1
-8.019377 -22.074605 9.772047 25.437993 1.222336 1.176508 0.029545 -0.009708 -449028.000000 0 0 1
-6.858377 -22.377705 8.845547 25.020846 1.273403 1.209457 0.035844 -0.010061 966680.000000 0 0 1
-5.542277 -22.653705 9.401047 25.145315 1.330857 1.187620 0.055849 -0.025827 839078.000000 0 0 1
-4.564377 -22.694605 8.394247 24.624013 1.372322 1.222926 0.052854 -0.030711 435136.000000 0 1 0
-3.268177 -23.410505 8.884747 25.252157 1.432090 1.211259 0.064661 -0.036729 228996.000000 0 0 1
-2.489877 -22.763805 9.847547 24.927184 1.461851 1.164671 0.064673 -0.031963 187918.000000 0 1 0
-1.464577 -23.696405 10.304947 25.881587 1.509069 1.161289 0.085326 -0.045192 832984.000000 0 0 1
-0.531877 -23.034005 11.335247 25.677541 1.547709 1.113587 0.080190 -0.040329 -487087.000000 0 0 1
-1.089877 -22.722105 12.574247 25.992183 1.522868 1.065839 0.084388 -0.033141 -660422.000000 0 0 1
-0.226777 -22.830805 13.674347 26.613622 1.560864 1.031176 0.102632 -0.028763 -617334.000000 0 0 1
0.624723 -21.572705 14.003147 25.726640 -1.541845 0.995236 0.084497 -0.017193 -261255.000000 0 0 1
1.528023 -21.398705 12.942847 25.055074 -1.499510 1.027949 0.082395 -0.029552 -479890.000000 0 0 1
1.876023 -20.035905 12.803747 23.851476 -1.477435 1.004143 0.059701 -0.024243 -1067450.000000 0 1 0
3.330523 -19.747105 12.568647 23.643422 -1.403710 1.010318 0.060324 -0.027197 -824089.000000 0 1 0
3.863823 -20.252705 11.352447 23.536764 -1.382281 1.067486 0.074365 -0.022192 46185.800000 0 1 0
5.282023 -20.195405 11.290347 23.732385 -1.314981 1.074996 0.104570 -0.028432 236720.000000 0 1 0
5.832723 -20.919705 10.096747 23.949927 -1.298887 1.135612 0.107815 -0.034089 -683432.000000 0 1 0
5.676623 -20.312805 8.796947 22.852141 -1.298288 1.175642 0.083678 -0.032005 -373273.000000 0 1 0
6.022423 -21.153605 7.734847 23.314640 -1.293435 1.232628 0.083755 -0.033879 133406.000000 0 1 0
7.465023 -21.725205 7.543547 24.178838 -1.239824 1.253510 0.088404 -0.022272 540724.000000 0 1 0
8.442523 -20.865505 6.947647 23.556640 -1.186317 1.271410 0.090334 -0.031143 247967.000000 0 1 0
8.919123 -19.723505 7.704547 22.976672 -1.146108 1.228851 0.095027 -0.025595 163436.000000 0 1 0
9.750523 -19.993905 9.025747 24.006104 -1.117057 1.185345 0.095922 -0.018990 198471.000000 0 1 0
9.008023 -20.401205 10.157747 24.505784 -1.154997 1.143399 0.107092 -0.025162 -640277.000000 0 1 0
9.656623 -19.998905 11.328747 24.930846 -1.120956 1.099090 0.108322 -0.018308 238446.000000 0 1 0
8.801523 -20.197405 12.631347 25.395923 -1.159835 1.050224 0.133388 -0.028550 204796.000000 0 0 1
8.774223 -21.578005 12.973547 26.662899 -1.184589 1.062629 0.114813 -0.027974 -94437.300000 0 0 1
7.792423 -21.836705 13.938147 27.052458 -1.228032 1.029524 0.151276 -0.033008 -114006.000000 0 0 1
8.008223 -23.171505 14.688647 28.579829 -1.238041 1.031011 0.144902 -0.030317 109277.000000 0 0 1
8.154123 -24.336105 13.864247 29.171100 -1.247490 1.075522 0.145216 -0.032495 -71968.600000 0 0 1
8.432123 -25.494705 14.641247 30.585075 -1.251381 1.071616 0.151657 -0.040125 215016.000000 0 0 1
8.655523 -26.821605 13.785447 31.374434 -1.258640 1.115883 0.163524 -0.049605 -268989.000000 0 0 1
9.896523 -26.804505 13.144547 31.451578 -1.217110 1.139631 0.134578 -0.036793 -453197.000000 0 0 1
9.930823 -27.799205 12.111347 31.907707 -1.227692 1.181460 0.130708 -0.046073 483133.000000 0 0 1
11.382323 -28.070005 11.598647 32.434720 -1.185560 1.205100 0.122115 -0.041453 611274.000000 0 0 1
12.230523 -28.722705 12.545347 33.644690 -1.168237 1.188688 0.094296 -0.033489 -464111.000000 0 0 1
13.423323 -29.035205 11.896447 34.128495 -1.137751 1.214743 0.134144 -0.032128 -877327.000000 0 0 1
14.346623 -29.724805 12.899947 35.437244 -1.121126 1.198213 0.107123 -0.040509 -881569.000000 0 0 1
14.983923 -28.817105 13.813047 35.295095 -1.091304 1.168689 0.092804 -0.032508 338556.000000 0 0 1
15.996423 -29.420405 14.601947 36.533035 -1.072788 1.159616 0.075815 -0.027976 340499.000000 0 0 1
17.358523 -29.582605 13.898947 37.008507 -1.040153 1.185794 0.083869 -0.020338 -541490.000000 0 0 1
18.027623 -28.375205 13.538747 36.241483 -1.004803 1.187941 0.066405 -0.024381 -865372.000000 0 0 1
19.317923 -28.581905 13.150747 36.919501 -0.976443 1.206598 0.061961 -0.018581 -1389220.000000 0 0 1
20.200923 -27.353905 12.938347 36.382884 -0.934694 1.207223 0.026930 -0.018757 445546.000000 0 0 1
21.412323 -27.642705 12.210047 37.036360 -0.911730 1.234835 0.032347 -0.022535 751966.000000 0 0 1
22.095123 -26.368405 11.967647 36.424055 -0.873346 1.236013 0.025051 -0.011703 -798660.000000 0 0 1
23.434123 -26.689505 11.381147 37.296358 -0.850254 1.260696 0.040458 -0.012050 -1113870.000000 0 0 1
24.304623 -27.388805 12.219747 38.602895 -0.844990 1.248706 0.049462 -0.018697 -1043120.000000 0 0 1
25.436123 -27.887405 11.632447 39.497057 -0.831336 1.271849 0.047399 -0.026861 -1753210.000000 0 0 1
26.339723 -28.509705 12.687247 40.835652 -0.824940 1.254877 0.051263 -0.025268 200299.000000 0 0 1
27.479823 -27.796405 13.198047 41.254930 -0.791125 1.245157 0.045281 -0.025214 1209210.000000 0 0 1
28.562823 -27.774005 12.244847 41.679329 -0.771397 1.272610 0.033435 -0.025869 141116.000000 0 0 1
29.844223 -27.041105 12.733747 42.237984 -0.736161 1.264556 0.054534 -0.033905 42722.700000 0 0 1
29.690023 -25.630905 12.912447 41.293729 -0.712155 1.252765 0.053355 -0.035504 167584.000000 0 0 1
29.083623 -25.100205 14.118247 40.929235 -0.712013 1.218618 0.053173 -0.029989 -737355.000000 0 0 1
30.027623 -24.725505 15.222247 41.769912 -0.688862 1.197775 0.029346 -0.015030 -711163.000000 0 0 1
30.425423 -25.937405 15.803147 42.990636 -0.705939 1.194375 0.045832 -0.021262 -193857.000000 0 0 1
31.160023 -25.685905 16.984847 43.808649 -0.689397 1.172655 0.053596 -0.000992 -147425.000000 0 0 1
31.462123 -26.987805 17.787347 45.106502 -0.708998 1.165446 0.047210 0.014944 496106.000000 0 0 1
30.357523 -27.802605 18.243047 45.026357 -0.741497 1.153638 0.027247 0.004610 515094.000000 0 0 1
30.828723 -28.682505 19.257247 46.302676 -0.749350 1.141865 0.043205 -0.005401 549498.000000 0 0 1
29.702523 -29.614505 19.826447 46.393391 -0.783914 1.129231 0.034953 0.004097 -487478.000000 0 0 1
28.724423 -28.935505 20.530247 45.649173 -0.789059 1.104322 0.026927 0.006158 497638.000000 0 0 1
27.596923 -29.691905 21.048547 45.675384 -0.821951 1.091867 0.032717 0.001157 1308230.000000 0 0 1
26.609023 -30.320605 20.034447 45.041739 -0.850502 1.109848 0.061893 -0.010585 -937032.000000 0 0 1
27.091223 -31.458305 19.388347 45.819944 -0.859848 1.133886 0.054699 -0.006950 11031.200000 0 0 1
26.355823 -31.827505 18.214047 45.159395 -0.879164 1.155645 0.069529 -0.006321 -130062.000000 0 0 1
26.585823 -30.889105 16.945447 44.137183 -0.860131 1.176751 0.059888 -0.003962 280886.000000 0 0 1
27.958323 -30.965905 16.574647 44.891803 -0.836395 1.192634 0.044807 -0.009273 418055.000000 0 0 1
28.282123 -29.897005 15.698647 44.047212 -0.813148 1.206379 0.046392 -0.021363 535006.000000 0 0 1
29.717023 -29.994105 15.060247 44.828103 -0.790039 1.228177 0.064970 -0.019816 353632.000000 0 0 1
29.831623 -31.000305 14.067047 45.263964 -0.804607 1.254785 0.083242 -0.010302 362923.000000 0 0 1
30.291823 -32.260905 14.612347 46.603446 -0.816867 1.251871 0.098008 -0.021328 116061.000000 0 0 1
29.413923 -33.471705 14.105547 46.738639 -0.849835 1.264220 0.091317 -0.024791 309931.000000 0 0 1
29.534423 -33.674105 12.704647 46.557873 -0.850797 1.294412 0.082583 -0.022285 -94061.600000 0 0 1
28.725023 33.009642 12.202047 45.427452 0.854691 1.298852 0.075112 -0.035531 -359265.000000 0 0 1
29.250523 32.658942 10.768447 45.145975 0.840398 1.329950 0.090150 -0.036844 99187.500000 0 0 1
30.327323 31.740842 10.863547 45.224376 0.808168 1.328210 0.064426 -0.031051 10579.600000 0 0 1
30.615423 31.211342 9.591947 44.759998 0.795036 1.354824 0.062375 -0.036943 -672603.000000 0 0 1
32.074323 30.784742 9.572847 45.476389 0.764886 1.358708 0.051016 -0.028338 -571713.000000 0 0 1
32.289123 29.766542 10.555947 45.167051 0.744770 1.334906 0.046848 -0.018482 -510584.000000 0 0 1
33.657823 29.505442 10.637847 46.006347 0.719752 1.337459 0.041484 -0.014256 -323073.000000 0 0 1
34.079023 28.569342 11.801247 46.009309 0.697678 1.311400 0.040731 -0.007495 14282.400000 0 0 1
33.769523 27.179542 11.607547 44.875866 0.677694 1.309163 0.044095 -0.009090 244325.000000 0 0 1
34.188723 26.437442 12.771847 45.065810 0.658234 1.283454 0.058857 -0.023668 132058.000000 0 0 1
34.090723 24.863242 12.730847 44.073038 0.630138 1.277763 0.052104 -0.027469 41072.100000 0 0 1
35.001823 24.364042 11.758947 44.238072 0.608090 1.301752 0.054150 -0.009340 40944.400000 0 0 1
35.049323 22.924742 11.707747 43.486437 0.579232 1.298205 0.068837 -0.011340 -752661.000000 0 0 1
33.826923 22.262642 11.096647 41.988350 0.582072 1.303340 0.063986 -0.003831 -493424.000000 0 0 1
32.712423 22.277042 11.946347 41.341074 0.597858 1.277645 0.080861 -0.024983 -685848.000000 0 0 1
31.565023 22.679042 11.251947 40.463514 0.623026 1.289005 0.076544 -0.020641 326456.000000 0 0 1
30.208423 22.324342 11.975447 39.425073 0.636431 1.262168 0.076115 -0.023769 833080.000000 0 0 1
30.094823 22.895542 13.234147 40.063036 0.650365 1.234140 0.085934 -0.016300 -769633.000000 0 0 1
28.839323 22.522542 13.698947 39.072146 0.663027 1.212578 0.138152 -0.039149 -771910.000000 0 0 1
25.058423 9.904742 25.956595 37.413545 0.376419 0.804078 0.035473 0.002863 -378094.000000 0 0 1
24.948723 8.468942 25.928275 36.965352 0.327249 0.793407 0.040414 -0.005481 464425.000000 0 0 1
23.586323 8.074742 25.912165 35.957703 0.329842 0.766087 0.056503 -0.005218 -66835.200000 0 0 1
23.251023 6.860442 26.775865 36.119561 0.286918 0.735773 0.072111 -0.007966 -250705.000000 0 0 1
23.547723 6.952142 28.157005 37.358325 0.287081 0.717121 0.074038 -0.001097 187973.000000 0 0 1
24.905123 6.844442 28.540265 38.492315 0.268199 0.735562 0.048949 -0.006806 -92610.700000 0 0 1
25.083323 6.789642 30.094185 39.760940 0.264349 0.712273 0.070471 -0.006483 -269641.000000 0 0 1
24.858023 8.026442 30.720165 40.324603 0.312324 0.704675 0.093962 -0.015020 234578.000000 0 0 1
24.845023 7.799142 32.146294 41.370110 0.304170 0.680844 0.103687 -0.012017 -63919.100000 0 0 1
25.125623 9.094342 32.964015 42.433834 0.347285 0.681175 0.136462 -0.019700 113332.000000 0 0 1
26.337323 9.807842 32.800827 43.194243 0.356483 0.708437 0.111456 -0.021945 -136142.000000 0 0 1
26.731223 10.321842 -33.638723 44.188939 0.368496 2.436031 0.130498 -0.014620 380384.000000 0 0 1
27.918923 11.318042 -33.744603 45.235633 0.385144 2.412792 0.113345 -0.017955 83126.100000 0 0 1
27.514623 12.590342 33.533915 45.167407 0.429146 0.734097 0.109747 -0.027890 402288.000000 0 0 1
27.212223 13.533842 -33.193133 45.005044 0.461521 2.400220 0.121156 -0.033190 -135987.000000 0 0 1
26.571523 14.840342 -33.628053 45.355567 0.509350 2.405998 0.115684 -0.035036 -145630.000000 0 0 1
27.496823 15.627942 33.358041 45.968106 0.516826 0.758777 0.100386 -0.033096 466483.000000 0 0 1
27.282723 17.048742 33.476800 46.429546 0.558521 0.765518 0.111560 -0.045069 -97006.400000 0 0 1
27.825423 17.781442 -33.021413 46.699545 0.568629 2.356190 0.107870 -0.051019 -454516.000000 0 0 1
27.147923 17.380542 -31.843383 45.311080 0.569467 2.350084 0.126148 -0.053765 658080.000000 0 0 1
28.036323 16.944842 -30.800293 44.964665 0.543640 2.325385 0.123699 -0.042120 90534.800000 0 0 1
27.210123 16.235742 -29.740043 43.456418 0.537975 2.324529 0.130678 -0.040603 61766.100000 0 0 1
26.363723 15.249142 -30.235553 42.915858 0.524396 2.352558 0.147424 -0.033798 -360675.000000 0 0 1
25.489923 14.675542 -29.330913 41.538056 0.522389 2.354802 0.170903 -0.035316 -114368.000000 0 0 1
24.665623 13.499542 -29.918263 41.057679 0.500769 2.387201 0.146026 -0.029514 -912573.000000 0 0 1
23.829923 13.847542 -31.011003 41.488576 0.526406 2.415025 0.160808 -0.032762 461164.000000 0 0 1
23.248723 12.714042 -31.675143 41.297272 0.500437 2.444954 0.133387 -0.030512 365149.000000 0 0 1
22.247223 11.927842 -30.777403 39.805287 0.492147 2.454666 0.142628 -0.033034 -831571.000000 0 0 1
21.085523 12.606942 -30.331903 39.032788 0.538871 2.460822 0.171592 -0.029525 453811.000000 0 0 1
20.352823 11.687342 -29.504343 37.700631 0.521261 2.469620 0.150708 -0.024284 -105296.000000 0 0 1
18.989723 12.206642 -29.053633 36.793005 0.571299 2.481036 0.130591 -0.017096 -781592.000000 0 0 1
17.910423 12.161542 -29.907453 36.920754 0.596506 2.515024 0.086524 -0.012883 85264.500000 0 0 1
16.768623 12.750542 -29.269103 36.061661 0.650112 2.517751 0.077715 -0.018554 -345857.000000 0 0 1
15.552023 13.077242 -30.106053 36.321537 0.699170 2.547892 0.068085 -0.021670 -500190.000000 0 0 1
14.941823 11.874742 -30.579263 36.046621 0.671520 2.583611 0.065374 -0.007800 -218551.000000 0 0 1
13.648323 11.806842 -30.025653 35.031672 0.713182 2.600410 0.065416 -0.015207 -1074250.000000 0 0 1
12.671423 11.201342 -30.964203 35.281962 0.723896 2.641674 0.070337 -0.014343 -835752.000000 0 0 1
12.495323 12.120842 -32.019573 36.445863 0.770187 2.643618 0.078541 -0.015218 23689.700000 0 0 1
11.408423 11.778742 -32.858203 36.722641 0.801368 2.678705 0.087488 -0.009840 120982.000000 0 0 1
11.073523 12.766242 33.751585 37.746117 0.856283 0.464214 0.104336 -0.010964 -307801.000000 0 0 1
11.950623 12.721042 32.687352 37.055435 0.816615 0.490451 0.077048 -0.002872 -171168.000000 0 0 1
11.358923 13.346642 31.572655 36.110809 0.865682 0.506749 0.092265 -0.012139 -186985.000000 0 0 1
12.163123 13.101742 30.316685 35.195150 0.822532 0.532800 0.081127 -0.012075 -327961.000000 0 0 1
12.124123 11.777942 29.932945 34.375798 0.770916 0.514058 0.087834 -0.013030 121962.000000 0 0 1
12.192623 11.622742 28.502815 33.108287 0.761474 0.533767 0.101943 -0.009226 32340.200000 0 0 1
12.935023 10.324742 28.014895 32.538431 0.673643 0.533606 0.106280 -0.009166 85467.000000 0 0 1
12.203323 9.151942 28.294845 32.144633 0.643472 0.494438 0.106388 -0.023257 545281.000000 0 0 1
12.881423 7.949842 27.810325 31.662995 0.552938 0.498454 0.097453 -0.027283 -157936.000000 0 0 1
12.024123 6.724942 27.989795 31.196683 0.509946 0.457399 0.090725 -0.022145 -752211.000000 0 0 1
10.789123 6.721942 27.350255 30.160009 0.557181 0.435075 0.084567 -0.024498 -573200.000000 0 0 1
9.938223 5.649142 27.723345 29.987747 0.516880 0.391103 0.074551 -0.032848 -222762.000000 0 0 1
10.178223 4.263042 27.120365 29.279412 0.396641 0.386430 0.074645 -0.026431 -618499.000000 0 0 1
10.974823 3.511142 27.956535 30.238101 0.309637 0.390952 0.082370 -0.027835 -200739.000000 0 0 1
11.129523 2.223542 27.406535 29.663590 0.197191 0.392615 0.076264 -0.023331 -75350.400000 0 0 1
11.798123 1.189542 28.385435 30.762699 0.100485 0.395712 0.048949 -0.021212 105687.000000 0 0 1
10.876623 0.791342 29.366605 31.326102 0.072628 0.355569 0.047133 -0.021598 -110988.000000 0 0 1
11.316023 -0.254558 30.193625 32.245499 -0.022492 0.358663 0.061472 -0.029172 313634.000000 0 0 1
10.245623 -0.470958 31.325095 32.961435 -0.045934 0.316419 0.072083 -0.024913 527701.000000 0 0 1
10.422323 0.548242 32.335793 33.978360 0.052554 0.312205 0.055938 -0.022920 -244136.000000 0 0 1
9.163823 0.905442 32.854703 34.120771 0.098486 0.273266 0.066904 -0.026506 -342606.000000 0 0 1
9.189623 2.231242 33.530378 34.838397 0.238191 0.274891 0.070291 -0.030842 -23212.100000 0 0 1
9.261523 3.425642 32.796730 34.251078 0.354273 0.292456 0.055572 -0.027638 484743.000000 0 0 1
10.370323 3.567842 31.906565 33.738732 0.331359 0.331069 0.059421 -0.025844 -74449.700000 0 0 1
10.441923 4.950342 31.240865 33.309628 0.442700 0.354290 0.064237 -0.019427 92111.400000 0 0 1
10.623823 6.072042 32.114272 34.366580 0.519237 0.364050 0.069031 -0.022256 91723.100000 0 0 1
10.883923 7.281442 31.387605 34.009718 0.589622 0.395248 0.072089 -0.021755 -116368.000000 0 0 1
10.946623 8.543442 32.314571 35.171728 0.662715 0.405854 0.091550 -0.027693 198779.000000 0 0 1
9.686223 9.022542 32.768987 35.341699 0.749939 0.383917 0.104028 -0.028477 148310.000000 0 0 1
9.283823 8.360442 -33.783763 36.019841 0.733113 2.787383 0.096596 -0.029964 -20209.800000 0 0 1
7.851923 8.863542 -33.453693 35.487528 0.845844 2.801395 0.105410 -0.031727 120407.000000 0 0 1
7.399123 8.169142 -32.319213 34.146938 0.834819 2.812929 0.112146 -0.025986 770932.000000 0 0 1
5.984123 8.325142 -32.097693 33.695394 0.947563 2.832415 0.100033 -0.028289 1033100.000000 0 0 1
5.566623 7.582042 -30.813053 32.216748 0.937494 2.845314 0.102414 -0.021933 -152549.000000 0 0 1
5.955923 8.337042 -29.659043 31.378944 0.950476 2.808970 0.111334 -0.027995 185918.000000 0 0 1
5.556423 7.775242 -28.406533 29.970975 0.950319 2.817065 0.108696 -0.026359 1077860.000000 0 0 1
4.052423 7.908842 -27.924113 29.304061 1.097285 2.833486 0.089916 -0.023551 1080230.000000 0 0 1
3.152023 7.094842 -28.639223 29.672834 1.152718 2.876875 0.062645 -0.018782 -520458.000000 0 0 1
1.842923 7.097542 -28.155593 29.094825 1.316750 2.886810 0.075870 -0.007031 88232.500000 0 0 1
0.829623 6.462842 -29.166973 29.885931 1.443126 2.921803 0.066956 -0.025634 119782.000000 0 0 1
0.658823 7.231142 -30.312383 31.169921 1.479938 2.906481 0.064828 -0.027630 -186805.000000 0 0 1
0.080623 6.546242 -31.371633 32.047451 1.558481 2.935862 0.088215 -0.032027 -538360.000000 0 0 1
-0.226477 7.329042 -32.689543 33.501826 -1.539905 2.920937 0.103217 -0.037171 110695.000000 0 0 1
0.954623 7.849042 -33.277203 34.203669 1.449768 2.908312 0.075665 -0.025019 622101.000000 0 0 1
1.919023 6.942942 -33.849373 34.607328 1.301130 2.931917 0.085251 -0.031884 304424.000000 0 0 1
1.650223 6.558842 32.440046 33.137566 1.324310 0.205541 0.111238 -0.035557 346247.000000 0 0 1
0.417623 5.849542 32.236367 32.765453 1.499523 0.179952 0.108559 -0.038791 198002.000000 0 0 1
0.166323 5.603442 30.848155 31.353388 1.541123 0.179764 0.131441 -0.039496 -387188.000000 0 0 1
1.221923 4.921042 29.984855 30.410546 1.327413 0.167517 0.146842 -0.036841 -198355.000000 0 0 1
0.889723 4.989342 28.582465 29.028305 1.394327 0.175489 0.131042 -0.035879 368884.000000 0 0 1
1.866323 4.293342 27.806025 28.197358 1.160737 0.166797 0.111482 -0.034603 175441.000000 0 0 1
1.876123 4.739342 26.354685 26.843074 1.193863 0.191048 0.113062 -0.029441 -43158.700000 0 0 1
2.535523 5.957042 26.199325 26.987402 1.168388 0.242260 0.118026 -0.031574 -168069.000000 0 0 1
2.460423 6.328042 24.852665 25.763400 1.199971 0.266684 0.106361 -0.027497 -515243.000000 0 0 1
3.296523 7.615742 24.565015 25.928875 1.162290 0.325784 0.108086 -0.032873 -113568.000000 0 0 1
4.674223 7.397742 24.605425 26.115166 1.007290 0.341692 0.087304 -0.022361 -533023.000000 0 0 1
5.283223 6.931442 23.408955 24.978721 0.919526 0.356409 0.071713 -0.020457 44093.700000 0 1 0
6.790423 6.541642 23.569085 25.385128 0.766740 0.380550 0.091232 -0.023257 593502.000000 0 0 1
7.185423 5.425442 24.348665 25.960031 0.646733 0.354186 0.095724 -0.024470 183376.000000 0 0 1
6.465423 4.183542 24.172665 25.369696 0.574308 0.308413 0.096194 -0.022932 -392092.000000 0 0 1
6.525723 3.457942 22.774445 23.941967 0.487276 0.313580 0.089972 -0.020573 270162.000000 0 1 0
5.653423 4.019242 21.792885 22.870185 0.618030 0.308154 0.049506 -0.017241 -34259.500000 0 1 0
4.361623 3.453342 21.908085 22.603396 0.669694 0.248678 0.059371 -0.021451 -428094.000000 0 1 0
3.289823 4.138942 21.046485 21.700422 0.899206 0.246119 0.023704 -0.015448 -144257.000000 0 1 0
3.052223 5.477342 21.466185 22.363239 1.062408 0.284197 0.024609 -0.007661 412036.000000 0 1 0
1.934223 5.982142 20.719885 21.652734 1.258073 0.294602 0.029629 -0.008516 400325.000000 0 1 0
1.616323 7.455442 20.860885 22.211994 1.357303 0.350584 0.041269 0.000187 23172.100000 0 1 0
2.420723 8.195242 19.941485 21.695270 1.283582 0.404847 0.033370 -0.011839 36824.400000 0 1 0
2.391023 9.532242 20.428485 22.669443 1.325032 0.448390 0.057011 -0.007990 532938.000000 0 1 0
3.465223 10.419442 19.705385 22.558253 1.249730 0.508382 0.083858 -0.022322 -297548.000000 0 1 0
3.107223 10.558442 18.345385 21.393660 1.284588 0.540377 0.045585 -0.017961 479184.000000 0 1 0
3.906623 11.366042 17.401685 21.148694 1.239736 0.604431 0.049637 -0.028484 -119839.000000 0 1 0
5.429923 11.205742 17.457885 21.443658 1.119572 0.619570 0.057485 -0.028228 -472359.000000 0 1 0
5.830823 9.995342 16.857185 20.446762 1.042706 0.601579 0.050969 -0.024829 67952.500000 0 1 0
7.139023 9.581742 17.225085 20.963754 0.930461 0.606478 0.049525 -0.015722 160823.000000 0 1 0
7.165423 8.119042 17.636085 20.695256 0.847709 0.550659 0.057295 -0.015430 -146972.000000 0 1 0
6.721723 7.928942 18.958785 21.621407 0.867613 0.501521 0.066143 -0.019731 -19790.500000 0 1 0
6.860923 6.591142 19.334585 21.548587 0.765346 0.457283 0.065108 -0.033251 42801.000000 0 1 0
8.257323 6.157442 19.866185 22.377730 0.640740 0.478328 0.098868 -0.024424 247969.000000 0 1 0
9.223023 6.037242 18.830485 21.819707 0.579591 0.529611 0.089028 -0.021429 329141.000000 0 1 0
10.491023 5.537642 19.254585 22.615616 0.485675 0.552177 0.110519 -0.021309 422956.000000 0 1 0
10.551423 4.002842 19.240585 22.305950 0.362592 0.530456 0.115993 -0.023032 -451625.000000 0 1 0
9.943923 3.350342 20.330285 22.878525 0.324978 0.476472 0.128455 -0.024066 105392.000000 0 1 0
9.976623 1.933842 20.163985 22.580059 0.191463 0.466829 0.111567 -0.030739 -261412.000000 0 1 0
9.137823 1.079642 21.121585 23.038811 0.117606 0.410847 0.109944 -0.024094 -79420.400000 0 1 0
9.562023 1.169642 22.479885 24.457015 0.121717 0.404856 0.116555 -0.027303 399933.000000 0 1 0
8.948723 0.108542 23.217015 24.882147 0.012129 0.367915 0.118744 -0.029952 -456663.000000 0 1 0
9.395323 0.153742 24.653395 26.383435 0.016362 0.364149 0.127333 -0.028081 -27482.900000 0 0 1
10.715023 -0.219558 24.992325 27.193313 -0.020488 0.405104 0.117503 -0.031328 116027.000000 0 0 1
11.063323 -1.597858 24.740375 27.148415 -0.143437 0.424364 0.110004 -0.034613 -685610.000000 0 0 1
12.532923 -1.994058 24.847855 27.901010 -0.157783 0.472195 0.101365 -0.030702 -383787.000000 0 0 1
12.677923 -3.386258 24.836385 28.089901 -0.261006 0.486071 0.103181 -0.019609 -351679.000000 0 0 1
13.997223 -3.809758 25.022405 28.923300 -0.265742 0.525387 0.112108 -0.017498 -485521.000000 0 0 1
14.048323 -5.357458 25.146635 29.298652 -0.364334 0.538875 0.119707 -0.019726 -74440.300000 0 0 1
13.727523 -5.976158 23.936305 28.233067 -0.410597 0.558953 0.143666 -0.030923 89236.600000 0 0 1
13.280723 -7.274558 24.151495 28.505991 -0.501117 0.560023 0.153944 -0.035513 34497.100000 0 0 1
13.192423 -8.126358 22.830225 27.591609 -0.552092 0.596274 0.168678 -0.037366 141616.000000 0 0 1
12.619923 -9.374958 23.073755 27.920431 -0.638922 0.598093 0.175616 -0.032073 -343451.000000 0 0 1
12.701123 -10.199358 21.914285 27.305335 -0.676585 0.639215 0.175915 -0.038469 117555.000000 0 0 1
11.960323 -11.525258 22.029485 27.589475 -0.766876 0.646040 0.189462 -0.034384 -419604.000000 0 0 1
10.572323 -11.496158 22.130685 27.086951 -0.827236 0.614566 0.171142 -0.026756 -857599.000000 0 0 1
10.097023 -12.837358 22.127985 27.502643 -0.904320 0.635834 0.162016 -0.024218 -983952.000000 0 0 1
8.618623 -13.016058 22.332285 27.247558 -0.985925 0.610072 0.126655 -0.017483 -662716.000000 0 0 1
7.839423 -12.358758 21.321285 25.861026 -1.005522 0.601556 0.116875 -0.028096 -190636.000000 0 0 1
6.472323 -12.349058 21.644185 25.746086 -1.088044 0.572261 0.065657 -0.021078 667596.000000 0 0 1
5.658423 -11.103358 21.020285 24.436749 -1.099487 0.535151 0.046321 -0.017822 655951.000000 0 1 0
6.037123 -9.887758 21.574885 24.488575 -1.022644 0.492786 0.061731 -0.016693 -289444.000000 0 1 0
5.050423 -8.895658 21.341085 23.666040 -1.054435 0.446972 0.040452 -0.009026 259035.000000 0 1 0
5.338223 -7.446458 21.913085 23.751414 -0.948831 0.396026 0.049262 -0.019082 170310.000000 0 1 0
4.451923 -6.510858 21.322985 22.735008 -0.971047 0.354293 0.022401 -0.019536 192629.000000 0 1 0
4.988323 -5.227358 21.629485 22.804457 -0.808793 0.322405 0.052032 -0.031806 -178293.000000 0 1 0
-8.318077 -15.306258 -20.589453 26.970308 1.073001 2.439375 0.085394 -0.002579 298226.000000 0 0 1
-7.568877 -14.896458 -19.448353 25.640413 1.100690 2.431811 0.058774 -0.003692 57593.300000 0 0 1
-6.931077 -13.663458 -19.766653 25.009008 1.101349 2.482228 0.073363 -0.014595 -66186.400000 0 0 1
-6.170477 -13.061158 -18.575653 23.531330 1.129447 2.480629 0.058497 -0.020202 -1034340.000000 0 1 0
-5.124977 -13.870158 -18.267853 23.502364 1.216859 2.461123 0.055004 -0.007385 -1074470.000000 0 1 0
-4.565777 -13.492558 -17.022653 22.196084 1.244500 2.444826 0.046970 -0.014630 -243899.000000 0 1 0
-3.405977 -14.355058 -16.570753 22.186893 1.337837 2.414141 0.041039 -0.006535 -1149740.000000 0 1 0
-2.212477 -14.356258 -17.251753 22.552609 1.417887 2.441769 0.039224 -0.010998 -531065.000000 0 1 0
-1.393577 -15.347358 -16.580653 22.636287 1.480242 2.392756 0.043132 -0.006906 876477.000000 0 1 0
0.028723 -15.675158 -17.149553 23.233996 -1.568964 2.401081 0.051949 -0.012622 658144.000000 0 1 0
0.069623 -16.544258 -18.257653 24.638571 -1.566588 2.405383 0.099022 -0.022572 -551142.000000 0 1 0
-0.260177 -17.881058 -18.020253 25.387584 1.556247 2.360019 0.081260 -0.018369 -150042.000000 0 0 1
-0.646477 -18.463258 -19.439853 26.818234 1.535796 2.381648 0.097257 -0.025612 -230853.000000 0 0 1
-1.875177 -18.010258 -19.932653 26.929469 1.467053 2.404134 0.123540 -0.026052 -557678.000000 0 0 1
-2.016177 -18.344158 -21.309553 28.189894 1.461327 2.427868 0.137749 -0.031570 373168.000000 0 0 1
-3.109377 -17.564158 -22.134253 28.426977 1.395582 2.463285 0.147610 -0.034893 521113.000000 0 0 1
-2.898477 -16.192058 -22.202453 27.632098 1.393666 2.503952 0.136927 -0.031903 -194848.000000 0 0 1
-3.230977 -15.504258 -20.992653 26.296629 1.365344 2.495267 0.119403 -0.015092 -115292.000000 0 0 1
-2.458877 -14.172458 -20.897753 25.369681 1.399009 2.538754 0.098958 -0.016061 109629.000000 0 0 1
-2.518777 -13.231058 -22.013353 25.806837 1.382679 2.592512 0.089866 -0.021938 -339331.000000 0 0 1
-1.681677 -12.124758 -21.731953 24.942244 1.432978 2.628623 0.064727 -0.009554 116346.000000 0 1 0
-1.845577 -11.023558 -22.778153 25.372608 1.404914 2.685422 0.073739 -0.011236 -697669.000000 0 0 1
-3.048477 -10.332258 -22.767653 25.187592 1.283892 2.699652 0.070512 -0.013324 -428836.000000 0 0 1
-3.206077 -9.486758 -23.944953 25.954542 1.244894 2.745493 0.085499 -0.015818 -567228.000000 0 0 1
-4.319577 -8.478658 -23.746953 25.582497 1.099606 2.760476 0.061718 -0.023589 -435658.000000 0 0 1
-5.600477 -9.054258 -23.893153 26.157746 1.016851 2.722419 0.064290 -0.022615 371933.000000 0 0 1
-6.644077 -8.151058 -23.603953 25.840474 0.886905 2.722476 0.076395 -0.024606 -51385.700000 0 0 1
-8.104177 -8.674658 -23.679853 26.488918 0.819385 2.676886 0.060656 -0.026531 603841.000000 0 0 1
-8.794977 -8.749158 -24.926953 27.843354 0.782787 2.679804 0.063791 -0.032653 275028.000000 0 0 1
-8.960577 -7.515258 -25.605423 28.149755 0.697899 2.713151 0.056289 -0.028918 -398584.000000 0 0 1
-9.824377 -7.839658 -26.858153 29.653650 0.673508 2.703891 0.053298 -0.028323 228386.000000 0 0 1
-10.466877 -6.617358 -27.258803 29.939727 0.563774 2.715181 0.057813 -0.033931 321378.000000 0 0 1
-11.337077 -6.934758 -28.340913 31.302197 0.548970 2.703110 0.077257 -0.033585 -38630.100000 0 0 1
-12.117977 -5.823558 -29.005183 31.969670 0.447985 2.707547 0.065364 -0.035447 -604666.000000 0 0 1
-11.329877 -4.976958 -29.743353 32.214954 0.413901 2.747324 0.034878 -0.028121 -272811.000000 0 0 1
-12.018577 -4.432958 -30.860953 33.414005 0.353361 2.748146 0.060997 -0.036973 -289057.000000 0 0 1
-11.222877 -3.357258 -31.618193 33.718456 0.290671 2.786780 0.050638 -0.037081 -791931.000000 0 0 1
-10.079977 -3.933958 -32.136773 33.909499 0.372094 2.816815 0.043581 -0.020763 -640325.000000 0 0 1
-9.718777 -3.248158 -33.327633 34.867410 0.322544 2.843298 0.050166 -0.022858 127786.000000 0 0 1
-8.435577 -3.831458 33.748255 34.996911 0.426343 0.267930 0.054087 -0.015312 700295.000000 0 0 1
-7.176577 -3.552958 -33.402573 34.349070 0.459701 2.906294 0.066579 -0.023000 -504393.000000 0 0 1
-6.172177 -4.053458 33.541057 34.344269 0.581092 0.216697 0.074567 -0.022308 221346.000000 0 0 1
-4.752577 -3.491858 -33.793483 34.304220 0.633656 2.968818 0.100248 -0.032095 827269.000000 0 0 1
-4.728677 -2.067458 33.836595 34.227912 0.412173 0.151357 0.123093 -0.043408 610562.000000 0 0 1
-3.390877 -1.601158 -33.686613 33.894684 0.441158 3.030732 0.115523 -0.047148 677367.000000 0 0 1
-3.409977 -0.109658 -33.218553 33.393296 0.032147 3.039246 0.112661 -0.050058 -27266.200000 0 0 1
-3.936277 -0.123858 -31.915593 32.157653 0.031455 3.018818 0.112499 -0.052797 133470.000000 0 0 1
-4.365277 1.165442 -31.462993 31.785748 -0.260895 2.998965 0.144937 -0.048551 -693603.000000 0 0 1
-4.864077 1.104842 -29.987943 30.399945 -0.223353 2.976769 0.128483 -0.053234 504930.000000 0 0 1
-5.959277 0.218642 -29.734433 30.326511 -0.036673 2.943667 0.115648 -0.053038 117293.000000 0 0 1
-7.198877 0.494542 -30.312573 31.159597 -0.068589 2.907894 0.124283 -0.050702 -1087070.000000 0 0 1
-8.154977 -0.674258 -30.130463 31.221836 0.082493 2.876410 0.102933 -0.048765 -293126.000000 0 0 1
-8.417377 -0.957458 -28.746283 29.968612 0.113261 2.855001 0.081264 -0.047876 597471.000000 0 0 1
-9.290477 -2.119358 -28.618823 30.163582 0.224284 2.820171 0.036902 -0.025667 530161.000000 0 0 1
-9.563977 -2.630758 -27.175553 28.929245 0.268431 2.791614 0.028482 -0.027362 -287503.000000 0 0 1
-10.433977 -1.811558 -26.462783 28.503131 0.171907 2.760925 0.034490 -0.028583 -66838.700000 0 0 1
-10.785577 -2.364958 -25.200303 27.513214 0.215854 2.728627 0.030346 -0.033211 305096.000000 0 0 1
-11.772077 -1.465458 -24.404453 27.134971 0.123849 2.689129 0.051219 -0.036655 149236.000000 0 0 1
-11.123377 -0.254458 -24.016653 26.468734 0.022872 2.707755 0.052149 -0.034854 556475.000000 0 0 1
-11.889077 0.604542 -23.138053 26.020859 -0.050805 2.666416 0.065605 -0.036427 217643.000000 0 0 1
-11.151277 1.924942 -22.852753 25.501072 -0.170936 2.681809 0.079754 -0.042239 14157.700000 0 0 1
-11.139577 2.916742 -23.793853 26.433785 -0.256087 2.690865 0.067919 -0.035184 -206571.000000 0 0 1
-10.186177 3.900142 -23.533153 25.937976 -0.365666 2.707580 0.086322 -0.029494 -730945.000000 0 0 1
-10.224877 5.006142 -24.634953 27.138358 -0.455296 2.708695 0.112336 -0.036006 798781.000000 0 0 1
-11.443377 5.758142 -24.538353 27.681001 -0.466193 2.660455 0.111964 -0.039552 1046470.000000 0 0 1
-12.560777 5.257542 -25.278513 28.712681 -0.396410 2.647492 0.090666 -0.039595 -33985.600000 0 0 1
-13.849677 6.065242 -25.184193 29.374211 -0.412775 2.600909 0.068586 -0.030433 -228231.000000 0 0 1
-13.794677 7.242242 -25.889473 30.216022 -0.483449 2.599853 0.080327 -0.037838 441777.000000 0 0 1
-15.099677 7.780442 -26.134603 31.169745 -0.475790 2.565249 0.073323 -0.027697 551897.000000 0 0 1
-15.138477 9.321342 -26.239223 31.694758 -0.551912 2.546101 0.087661 -0.027681 -122298.000000 0 0 1
-15.007777 9.811642 -24.949453 30.724207 -0.579021 2.518445 0.131210 -0.045193 189291.000000 0 0 1
-15.121377 11.252242 -24.856353 31.194667 -0.639733 2.492800 0.105403 -0.039137 -19603.700000 0 0 1
-14.719577 11.789942 -23.481753 30.117460 -0.675332 2.464939 0.120269 -0.043085 568929.000000 0 0 1
-15.776777 11.543242 -22.551953 29.845330 -0.631660 2.427408 0.140491 -0.045458 642689.000000 0 0 1
-15.304077 11.941342 -21.258253 28.787562 -0.662595 2.401569 0.133939 -0.042122 -474741.000000 0 0 1
-16.297677 11.829242 -20.124053 28.469681 -0.627848 2.355844 0.131462 -0.046477 -266095.000000 0 0 1
-17.423577 12.645342 -20.427453 29.677711 -0.627806 2.329953 0.113040 -0.044358 190410.000000 0 0 1
-18.180977 12.913042 -19.260353 29.466180 -0.617572 2.283184 0.107860 -0.038002 -527212.000000 0 0 1
-19.671377 13.176142 -19.495153 30.669770 -0.590178 2.259643 0.103749 -0.047434 -426404.000000 0 0 1
-19.961477 14.372042 -20.164853 31.806249 -0.624016 2.257498 0.082241 -0.042977 419508.000000 0 0 1
-21.373077 14.485442 -20.308653 32.849320 -0.595631 2.237294 0.076579 -0.041077 450634.000000 0 0 1
-21.710277 15.869542 -20.961953 34.096656 -0.631210 2.232904 0.079965 -0.028416 -71553.700000 0 0 1
-21.429077 15.835342 -22.344953 34.774420 -0.636401 2.268642 0.079208 -0.024939 223709.000000 0 0 1
-21.518377 17.157742 -22.870453 35.783883 -0.673125 2.264159 0.080571 -0.008470 -132069.000000 0 0 1
-21.253777 17.325342 -24.375653 36.688731 -0.683920 2.297475 0.079443 0.003740 88775.500000 0 0 1
-19.889777 17.071742 -24.683253 36.004313 -0.709303 2.326174 0.075192 -0.012892 347139.000000 0 0 1
-19.648677 16.838842 -26.038853 36.710202 -0.708542 2.359313 0.061227 -0.019332 -138514.000000 0 0 1
-19.077377 18.025942 -26.876203 37.566091 -0.757068 2.368047 0.050888 -0.012441 -77363.900000 0 0 1
-20.039377 19.043342 -27.195193 38.778912 -0.759918 2.347999 0.062058 -0.018832 622954.000000 0 0 1
-19.531877 20.363742 -27.142723 39.152313 -0.806246 2.336799 0.047996 -0.018299 -210421.000000 0 0 1
-20.692777 21.384742 -27.316963 40.394488 -0.801842 2.313463 0.090407 -0.016686 338671.000000 0 0 1
-21.432977 21.636742 -26.135043 40.131803 -0.790129 2.280001 0.110717 -0.009015 275072.000000 0 0 1
-22.667777 20.931142 -26.119363 40.424769 -0.745587 2.273290 0.150397 -0.019553 118077.000000 0 0 1
-23.477177 21.431642 -24.867453 40.359427 -0.739881 2.234641 0.146674 -0.000610 128273.000000 0 0 1
-22.956977 20.823242 -23.659453 38.992306 -0.736699 2.222790 0.100554 0.004446 324784.000000 0 0 1
-23.726477 21.069442 -22.474553 38.884092 -0.726153 2.187058 0.095205 -0.009454 56794.800000 0 0 1
-23.287977 20.258142 -21.217853 37.455567 -0.715932 2.173025 0.073989 -0.011040 383349.000000 0 0 1
-22.046477 20.730642 -20.689553 36.658754 -0.754648 2.170481 0.078807 -0.014028 476318.000000 0 0 1
-21.390077 19.782442 -19.823153 35.239719 -0.746372 2.168231 0.077562 -0.015448 84720.600000 0 0 1
-22.084377 19.414242 -18.452053 34.714705 -0.721144 2.131207 0.089467 -0.026629 -691310.000000 0 0 1
-23.246077 18.648242 -18.629253 35.145214 -0.676087 2.129474 0.122822 -0.035532 -251166.000000 0 0 1
-23.905577 18.365842 -17.394153 34.804272 -0.655089 2.094130 0.092298 -0.029658 -222409.000000 0 0 1
-24.969177 19.363042 -16.959553 35.861032 -0.659608 2.063403 0.078084 -0.025498 -1538030.000000 0 0 1
-26.139967 19.176742 -17.648553 36.912284 -0.632934 2.069311 0.075120 -0.019818 -1093040.000000 0 0 1
-27.048777 20.241042 -17.537053 38.064213 -0.642423 2.049606 0.068691 -0.015701 -62058.900000 0 0 1
-28.355447 19.894942 -18.347353 39.197774 -0.611817 2.057903 0.049029 -0.001594 793937.000000 0 0 1
-29.102357 18.758742 -17.868253 38.962957 -0.572554 2.047211 0.049965 -0.010018 89217.100000 0 0 1
-29.771987 18.864242 -16.638553 38.975278 -0.564777 2.011858 0.062796 -0.018647 -528121.000000 0 0 1
-30.805937 17.746642 -16.419653 39.160619 -0.522645 2.003459 0.060656 -0.026048 79526.200000 0 0 1
-30.152867 16.488242 -16.303753 38.037743 -0.500400 2.013762 0.090025 -0.043162 141459.000000 0 0 1
-31.058507 15.552642 -15.758853 38.142588 -0.464250 1.996714 0.087282 -0.038716 -14526.900000 0 0 1
-30.386907 14.236842 -15.394053 36.919218 -0.438147 2.000901 0.134108 -0.043369 -69008.600000 0 0 1
-29.523237 14.269642 -14.258153 35.756666 -0.450228 1.980955 0.140607 -0.044695 -30996.700000 0 0 1
-30.269717 14.038642 -13.090753 35.842810 -0.434258 1.944673 0.106594 -0.025786 -53061.000000 0 0 1
-29.593227 14.509642 -11.804453 35.009055 -0.455860 1.914719 0.130073 -0.050789 -46873.000000 0 0 1
-29.413297 15.909942 -11.704453 35.429684 -0.495837 1.907478 0.112971 -0.040046 322059.000000 0 0 1
-30.555977 16.579542 -11.155553 36.510208 -0.497141 1.881308 0.082043 -0.027353 450758.000000 0 0 1
-30.589867 18.163142 -11.305953 37.329134 -0.535821 1.878501 0.132212 -0.008116 -337863.000000 0 0 1
-29.483957 18.827042 -10.786353 36.607467 -0.568285 1.869884 0.068948 -0.034186 -399783.000000 0 0 1
-29.697787 20.218142 -10.990353 37.570197 -0.597721 1.867666 0.023222 -0.028081 -341510.000000 0 0 1
-28.523557 21.016342 -10.456653 36.940784 -0.635004 1.857785 0.112149 -0.030333 -213702.000000 0 0 1
-28.472857 22.396342 -10.837353 37.812008 -0.666508 1.861484 0.080412 -0.033416 218513.000000 0 0 1
-27.130997 22.860642 -10.714153 37.060667 -0.700184 1.864080 0.084799 -0.019057 212210.000000 0 0 1
-27.031077 24.260042 -9.979853 37.667310 -0.731425 1.838946 0.107308 -0.004462 53497.700000 0 0 1
-27.219857 24.181042 -8.570753 37.404562 -0.726347 1.801987 0.097410 -0.010365 300745.000000 0 0 1
-28.607947 24.293242 -8.281753 38.433887 -0.704017 1.787980 0.118252 -0.013097 271075.000000 0 0 1
-28.906317 23.985342 -6.759553 38.164949 -0.692626 1.748850 0.118246 -0.010588 -20924.800000 0 0 1
-28.696357 22.590342 -6.558253 37.105460 -0.666899 1.748476 0.136910 -0.034712 247391.000000 0 0 1
-29.081887 22.190142 -5.273553 36.959017 -0.651784 1.713971 0.109930 -0.023781 -631384.000000 0 0 1
-29.218837 20.616142 -5.103753 36.122210 -0.614459 1.712562 0.128480 -0.039933 496162.000000 0 0 1
-28.020347 19.812542 -4.963153 34.674336 -0.615460 1.714426 0.142004 -0.042418 1083080.000000 0 0 1
-27.176397 19.766442 -6.134553 34.159940 -0.628839 1.751359 0.127852 -0.036444 -603234.000000 0 0 1
-27.638087 18.929142 -7.390953 34.304555 -0.600515 1.787950 0.127319 -0.038627 -379815.000000 0 0 1
-27.506327 17.520742 -7.168853 33.391120 -0.567162 1.787174 0.122046 -0.034571 274075.000000 0 0 1
-27.654617 16.849742 -8.419753 33.460184 -0.547224 1.825166 0.087083 -0.041221 -101370.000000 0 0 1
-27.219557 15.401942 -8.413953 32.387015 -0.514924 1.833605 0.144868 -0.039674 -92141.300000 0 0 1
-28.130097 14.642442 -7.674453 32.628219 -0.479933 1.808230 0.148805 -0.033085 -124318.000000 0 0 1
-28.229897 13.322642 -8.144353 32.260663 -0.440944 1.826013 0.157804 -0.047951 -8474.630000 0 0 1
-29.270167 12.458942 -7.410053 32.663080 -0.402424 1.799652 0.136756 -0.046900 -533710.000000 0 0 1
-30.610187 12.745542 -7.689053 34.037537 -0.394549 1.798662 0.147348 -0.038721 -126230.000000 0 0 1
-31.532927 12.066142 -6.830753 34.446719 -0.365462 1.770419 0.155842 -0.045024 326218.000000 0 0 1
-32.056557 10.667442 -7.320653 34.568904 -0.321243 1.784182 0.136176 -0.033204 -227352.000000 0 0 1
-31.004457 9.749142 -7.566353 33.370224 -0.304654 1.799525 0.147452 -0.031379 131148.000000 0 0 1
-31.514267 8.556242 -8.045853 33.631742 -0.265113 1.812373 0.129119 -0.027222 -114703.000000 0 0 1
-30.423537 7.493442 -8.369553 32.431354 -0.241497 1.831820 0.164260 -0.030907 -819.515000 0 0 1
-29.879927 7.614842 -9.666253 32.314584 -0.249536 1.874577 0.147172 -0.034038 220288.000000 0 0 1
-28.826227 6.672342 -9.728653 31.146721 -0.227462 1.888461 0.177095 -0.045625 -116337.000000 0 0 1
-28.009347 6.719642 -11.055653 30.852951 -0.235457 1.937279 0.147597 -0.030343 -33889.100000 0 0 1
-27.222097 7.886142 -11.208553 30.477294 -0.281977 1.947403 0.178542 -0.043838 216402.000000 0 0 1
-26.474017 7.926642 -12.375453 30.279648 -0.290917 1.991831 0.161447 -0.021720 -267978.000000 0 0 1
-32.724817 25.674442 -33.838883 53.620524 -0.665252 2.253742 0.052442 -0.007359 -7533.900000 0 0 1
-32.954617 27.071442 33.788335 54.410673 -0.687700 0.900795 0.049180 -0.021674 196283.000000 0 0 1
-32.847287 27.505842 32.454231 53.747491 -0.697125 0.922502 0.055360 -0.024100 27681.300000 0 0 1
-33.364567 28.972942 32.251231 54.706194 -0.715065 0.940313 0.067930 -0.031020 -24499.900000 0 0 1
-33.094977 29.353742 30.950415 53.989331 -0.725561 0.960306 0.088640 -0.028060 155917.000000 0 0 1
-33.483157 30.638242 30.629105 54.753683 -0.741060 0.977137 0.095819 -0.034076 -203370.000000 0 0 1
-33.089497 31.047942 29.189165 53.952728 -0.753578 0.999154 0.104016 -0.039663 392270.000000 0 0 1
-31.700127 31.292542 29.003195 53.153613 -0.778928 0.993633 0.093338 -0.028925 449764.000000 0 0 1
-31.403037 32.232842 28.016345 53.009645 -0.798437 1.013947 0.088118 -0.022423 -235603.000000 0 0 1
-29.976207 32.009142 27.505525 51.765936 -0.818183 1.010610 0.114980 -0.026755 -462562.000000 0 0 1
-29.906587 30.895642 26.596955 50.560288 -0.801663 1.016854 0.134854 -0.027385 217926.000000 0 0 1
-28.642847 30.941142 25.963515 49.516372 -0.823951 1.018854 0.107580 -0.022495 9828.060000 0 0 1
-28.616497 31.604642 24.549985 49.198162 -0.834977 1.048349 0.113661 -0.040963 -137386.000000 0 0 1
-28.779697 33.011442 24.585505 50.224231 -0.853776 1.059263 0.097354 -0.034229 -284681.000000 0 0 1
-30.017717 33.353042 24.019705 50.896316 -0.837982 1.079313 0.112677 -0.028399 -217220.000000 0 0 1
-30.580627 -32.921705 24.468215 51.163532 0.822247 1.072152 0.115076 -0.033851 -102207.000000 0 0 1
-31.062827 -33.001605 25.803915 52.152154 0.815652 1.053213 0.118184 -0.041302 150540.000000 0 0 1
-30.892447 -31.753305 26.447995 51.595660 0.799139 1.032585 0.094046 -0.040222 -222592.000000 0 0 1
-31.319227 -31.740105 27.899845 52.599711 0.792072 1.011702 0.101503 -0.043333 387508.000000 0 0 1
-32.720737 -31.973205 28.032695 53.654119 0.773844 1.021051 0.094971 -0.050824 382990.000000 0 0 1
-32.948207 -32.153005 29.415805 54.632314 0.773184 1.002221 0.072723 -0.039479 370995.000000 0 0 1
-34.329960 -32.771205 29.789135 56.034727 0.762172 1.010285 0.083764 -0.041614 517915.000000 0 0 1
-34.458306 -33.006205 31.114465 56.963974 0.763878 0.992960 0.080305 -0.042324 421617.000000 0 0 1
-35.803497 -33.345805 31.465105 58.171178 0.749871 0.999283 0.090503 -0.044220 363815.000000 0 0 1
-36.074327 33.744042 32.850448 59.322588 -0.752034 0.983924 0.110327 -0.045242 -330063.000000 0 0 1
-35.673232 32.378442 33.092268 58.446910 -0.737020 0.968916 0.078225 -0.034847 254697.000000 0 0 1
-36.625907 31.654942 -33.863553 59.078191 -0.712725 2.181201 0.111515 -0.040214 516404.000000 0 0 1
-36.007892 30.346742 -33.331923 57.693242 -0.700288 2.186758 0.085105 -0.023731 1048220.000000 0 0 1
-34.966437 30.626442 -32.341393 56.626817 -0.719329 2.178681 0.085198 -0.026233 576233.000000 0 0 1
-34.450781 29.363942 -31.809003 55.325492 -0.705854 2.183331 0.062163 -0.025192 538156.000000 0 0 1
-33.562787 29.652042 -30.557353 54.216751 -0.723613 2.169551 0.053122 -0.020392 159544.000000 0 0 1
-34.293750 29.819442 -29.353793 54.100883 -0.715723 2.144296 0.077653 -0.022648 -373830.000000 0 0 1
-34.804728 31.133642 -29.236343 55.094796 -0.729781 2.130170 0.069325 -0.013409 -600535.000000 0 0 1
-36.024477 31.103842 -28.345013 55.395412 -0.712227 2.107941 0.079371 -0.018614 -654970.000000 0 0 1
-35.789684 30.918842 -26.947013 54.433609 -0.712511 2.088681 0.075668 -0.030301 -254460.000000 0 0 1
-36.965777 31.034642 -26.176623 54.907497 -0.698396 2.067739 0.117840 -0.028748 21324.400000 0 0 1
-36.726457 30.625142 -24.736153 53.838734 -0.695056 2.048171 0.113838 -0.031326 -36353.800000 0 0 1
-36.137977 31.637542 -23.929353 53.660986 -0.719093 2.033016 0.113157 -0.034331 -55545.200000 0 0 1
-36.137127 31.316742 -22.551853 52.869806 -0.714057 2.011476 0.099306 -0.033439 -413096.000000 0 0 1
-37.481107 31.020742 -21.836253 53.328621 -0.691367 1.992665 0.082953 -0.030923 387878.000000 0 0 1
36.718934 32.138042 -21.876453 53.476285 0.718968 1.992250 0.084344 -0.037075 603465.000000 0 0 1
37.061664 33.338242 -21.113253 54.136630 0.732558 1.971427 0.082764 -0.043269 -336834.000000 0 0 1
37.272694 33.193542 -19.585253 53.615735 0.727575 1.944740 0.074338 -0.041063 237474.000000 0 0 1
-36.674277 32.503642 -19.302453 52.669479 -0.725183 1.946022 0.068962 -0.042842 72560.100000 0 0 1
-36.585497 32.143342 -17.936353 51.898033 -0.720855 1.923682 0.058324 -0.032969 355416.000000 0 0 1
-35.331144 31.254242 -17.665953 50.370659 -0.724246 1.929135 0.081823 -0.037293 449800.000000 0 0 1
-35.183219 31.011342 -16.251153 49.635292 -0.722457 1.904359 0.046130 -0.020430 -965094.000000 0 0 1
-33.982157 30.392542 -16.014153 48.321286 -0.729695 1.908594 0.073546 -0.027064 -845110.000000 0 0 1
-33.560657 29.994442 -14.567353 47.309534 -0.729345 1.883798 0.059123 -0.021644 -416534.000000 0 0 1
-34.521211 29.102042 -14.051653 47.287333 -0.700427 1.872508 0.041163 -0.009942 -62595.300000 0 0 1
-34.279852 28.884842 -12.679253 46.585468 -0.700193 1.846446 0.064030 -0.014757 -50474.300000 0 0 1
-35.252778 28.003342 -11.837253 46.551757 -0.671291 1.827901 0.069125 -0.024716 -125949.000000 0 0 1
-34.773846 27.797142 -10.551453 45.751881 -0.674356 1.803515 0.093245 -0.019590 234190.000000 0 0 1
-35.542379 26.803842 -9.863353 45.595969 -0.646144 1.788841 0.109296 -0.033642 -219422.000000 0 0 1
-34.704794 26.020542 -8.905053 44.280823 -0.643353 1.773281 0.135815 -0.028984 -308449.000000 0 0 1
-34.322616 26.951842 -7.865553 44.343102 -0.665682 1.749119 0.123871 -0.022716 287949.000000 0 0 1
-33.206007 26.407442 -7.188353 43.030969 -0.671845 1.738634 0.111186 -0.027682 -150827.000000 0 0 1
-32.689597 27.128142 -5.974653 42.898046 -0.692691 1.710526 0.120855 -0.030389 -163108.000000 0 0 1
-31.656607 26.389742 -5.351553 41.559576 -0.694910 1.699923 0.134056 -0.023952 56086.800000 0 0 1
-31.219037 27.050542 -4.215153 41.522616 -0.713982 1.672486 0.131187 -0.014928 -329556.000000 0 0 1
-30.356487 26.094442 -3.400853 40.174644 -0.710041 1.655549 0.132661 -0.014828 -245246.000000 0 0 1
-31.109207 25.031042 -2.887253 40.033387 -0.677551 1.642980 0.118307 -0.012551 -229945.000000 0 0 1
-30.276547 24.079642 -2.275253 38.751455 -0.671883 1.629544 0.142736 -0.023023 -152842.000000 0 0 1
-30.934147 22.849042 -1.655353 38.493381 -0.636188 1.613813 0.135464 -0.026359 -227617.000000 0 0 1
-31.470887 22.053042 -2.688853 38.522504 -0.611225 1.640653 0.126889 -0.032974 -272142.000000 0 0 1
-32.509477 21.246142 -2.214453 38.899466 -0.578858 1.627755 0.119204 -0.033591 305427.000000 0 0 1
-33.273997 20.406742 -3.307853 39.173153 -0.550137 1.655339 0.148664 -0.026480 1024560.000000 0 0 1
-32.300177 19.509842 -3.910153 37.937115 -0.543368 1.674049 0.131893 -0.029860 658206.000000 0 0 1
-32.746617 18.914942 -5.090853 38.157997 -0.523797 1.704610 0.127062 -0.030449 -370370.000000 0 0 1
-31.697217 18.002642 -5.710253 36.897367 -0.516525 1.726181 0.107112 -0.045279 -448003.000000 0 0 1
-31.491507 16.762242 -5.043953 36.029561 -0.489135 1.711253 0.143403 -0.034433 187644.000000 0 0 1
-30.553707 15.891942 -5.679553 34.904730 -0.479623 1.734239 0.145280 -0.049909 33157.300000 0 0 1
-29.920317 14.918442 -4.712153 33.763733 -0.462532 1.710816 0.160331 -0.038765 -267598.000000 0 0 1
-30.884877 14.003142 -4.268653 34.178722 -0.425676 1.696015 0.167422 -0.042083 56052.100000 0 0 1
-30.324187 12.984142 -3.522053 33.174525 -0.404559 1.677164 0.186290 -0.054108 -144999.000000 0 0 1
-31.366937 12.251442 -2.635653 33.777644 -0.372363 1.648905 0.172875 -0.058662 -357840.000000 0 0 1
-32.378747 11.666542 -3.394953 34.583481 -0.345834 1.669122 0.132357 -0.037219 -277261.000000 0 0 1
-33.188697 10.865742 -2.564253 35.016130 -0.316395 1.644093 0.137639 -0.037161 -161314.000000 0 0 1
-34.295653 10.166442 -3.420453 35.933938 -0.288183 1.666128 0.104448 -0.027413 23416.000000 0 0 1
-33.841237 9.192142 -4.350453 35.336260 -0.265226 1.694225 0.117222 -0.032868 -554491.000000 0 0 1
-34.891377 8.632342 -5.078353 36.300347 -0.242536 1.711155 0.119651 -0.025722 -539199.000000 0 0 1
-34.504162 7.595842 -6.139053 35.859755 -0.216686 1.742840 0.138600 -0.035122 -209958.000000 0 0 1
-33.887197 6.375242 -5.619753 34.936621 -0.185958 1.732354 0.144551 -0.033383 472113.000000 0 0 1
-33.554917 5.637242 -6.759153 34.690015 -0.166446 1.766895 0.148323 -0.035366 -96942.000000 0 0 1
-32.523187 4.464542 -6.556153 33.476454 -0.136420 1.767914 0.170503 -0.040142 -349521.000000 0 0 1
-31.235027 4.968042 -6.478353 32.284322 -0.157732 1.772834 0.165678 -0.041509 -945985.000000 0 0 1
-30.342547 4.085942 -5.909353 31.181494 -0.133855 1.761464 0.170794 -0.040352 130404.000000 0 0 1
-28.883097 4.619642 -5.706753 29.801702 -0.158599 1.763477 0.212144 -0.049584 570379.000000 0 0 1
-28.110707 4.665742 -6.864453 29.310437 -0.164478 1.807190 0.205424 -0.043281 -247547.000000 0 0 1
-26.743357 4.397642 -6.633753 27.902564 -0.162980 1.810842 0.232933 -0.049036 242382.000000 0 0 1
-25.862997 4.794542 -7.848853 27.449713 -0.183301 1.860779 0.218059 -0.046148 -215213.000000 0 0 1
-26.110807 4.019042 -8.970953 27.899909 -0.152724 1.898152 0.203296 -0.055503 70340.900000 0 0 1
-25.212837 4.211242 -10.039453 27.462926 -0.165500 1.945035 0.200310 -0.051384 -303106.000000 0 0 1
-25.535177 3.427642 -11.319053 28.140984 -0.133435 1.984744 0.175186 -0.052071 -280385.000000 0 0 1
-26.647417 3.952842 -11.987653 29.485821 -0.147265 1.989478 0.162839 -0.034368 -23862.300000 0 0 1
-26.886107 3.302542 -13.141453 30.107596 -0.122222 2.022482 0.157559 -0.034640 685320.000000 0 0 1
-27.883597 4.011042 -14.160253 31.529291 -0.142869 2.036570 0.134729 -0.023202 73932.700000 0 0 1
-27.234207 5.062042 -14.802553 31.407672 -0.183774 2.061565 0.108354 -0.018747 457283.000000 0 0 1
-28.046717 6.087942 -15.455453 32.596816 -0.213748 2.064783 0.151947 -0.019641 342156.000000 0 0 1
-28.973457 5.606842 -16.605953 33.862303 -0.191154 2.083341 0.083667 -0.001730 -48587.400000 0 0 1
-30.087527 4.881442 -16.145953 34.493181 -0.160840 2.057926 0.095295 -0.013465 -289310.000000 0 0 1
-30.787497 4.297942 -17.244053 35.548553 -0.138704 2.077256 0.092198 -0.004725 689642.000000 0 0 1
-32.129987 3.578342 -16.864753 36.463139 -0.110914 2.051626 0.089070 -0.010273 348467.000000 0 0 1
-32.053697 2.544542 -15.907153 35.874109 -0.079218 2.030203 0.118118 -0.021807 387000.000000 0 0 1
-31.392617 1.317942 -16.293253 35.393551 -0.041958 2.049180 0.152892 -0.029872 177417.000000 0 0 1
-31.839427 0.114242 -15.417953 35.376199 -0.003588 2.021755 0.157447 -0.025250 -197376.000000 0 0 1
-31.280827 -1.074558 -15.885553 35.099795 0.034338 2.040456 0.158211 -0.010973 275598.000000 0 0 1
-31.747007 -2.155358 -15.133453 35.235485 0.067788 2.014729 0.189181 -0.032054 -71734.800000 0 0 1
-31.604247 -3.484058 -15.856053 35.530009 0.109797 2.033392 0.169271 -0.019555 125612.000000 0 0 1
-32.351767 -3.545358 -17.077653 36.753947 0.109152 2.054034 0.180351 -0.021344 473511.000000 0 0 1
-32.085987 -4.787858 -17.799953 37.003682 0.148127 2.072628 0.171272 -0.015582 424407.000000 0 0 1
-32.955547 -4.914558 -19.112353 38.412277 0.148036 2.091578 0.179806 -0.010983 435178.000000 0 0 1
-32.701657 -6.120658 -19.842153 38.737215 0.185026 2.108569 0.167695 -0.012780 82578.600000 0 0 1
-33.568757 -6.119158 -20.955553 40.042986 0.180308 2.121546 0.161644 -0.012498 -127734.000000 0 0 1
-33.274327 -7.259658 -21.920253 40.501617 0.214810 2.142683 0.155732 -0.017618 -421877.000000 0 0 1
-32.136277 -7.020358 -22.702653 39.967939 0.215077 2.174896 0.146191 -0.012791 -354949.000000 0 0 1
-32.032897 -7.972858 -23.712553 40.644288 0.243939 2.193725 0.123925 -0.010147 1281910.000000 0 0 1
-30.655057 -7.923258 -24.535353 40.056137 0.252930 2.230046 0.096785 -0.004151 1005320.000000 0 0 1
-30.520657 -6.778258 -25.362263 40.257914 0.218541 2.252342 0.080483 -0.004220 41792.000000 0 0 1
-30.496147 -7.032758 -26.769683 41.183620 0.226649 2.278391 0.056467 -0.010839 620681.000000 0 0 1
-31.917287 -7.208858 -27.422903 42.693049 0.222133 2.268327 0.086353 -0.004757 879801.000000 0 0 1
-32.698347 -8.296258 -26.949533 43.177391 0.248478 2.244850 0.097300 -0.010857 224982.000000 0 0 1
-34.007267 -8.354658 -27.507613 44.530476 0.240902 2.236643 0.105369 -0.013525 1065040.000000 0 0 1
-34.891500 -9.411458 -26.713263 44.939857 0.263465 2.207344 0.098212 -0.011524 -245331.000000 0 0 1
-34.457269 -10.688158 -26.979283 45.049104 0.300775 2.212906 0.100266 -0.003450 -106721.000000 0 0 1
-35.352977 -11.741158 -26.680013 45.820420 0.320651 2.192319 0.080268 -0.006776 -326093.000000 0 0 1
-36.570647 -11.881958 -27.599923 47.332324 0.314145 2.193347 0.066296 -0.001853 -130658.000000 0 0 1
37.568954 -10.912358 -27.284933 47.696681 -0.282684 2.179801 0.069028 -0.011814 611210.000000 0 0 1
36.681284 -10.765658 -28.409533 47.628957 -0.285475 2.209900 0.065079 -0.018632 663275.000000 0 0 1
35.546234 -9.706758 -28.282853 46.450787 -0.266575 2.225441 0.086206 -0.011577 93303.500000 0 0 1
34.419074 -10.041958 -27.534013 45.206586 -0.283876 2.225685 0.065957 -0.012360 159375.000000 0 0 1
33.532554 -8.913058 -27.349573 44.180017 -0.259796 2.238327 0.056815 -0.015631 878247.000000 0 0 1
32.274964 -9.262158 -26.499963 42.775096 -0.279466 2.238925 0.060820 -0.007096 312944.000000 0 0 1
32.500654 -9.245858 -25.096403 42.090472 -0.277160 2.209617 0.044264 0.009934 414530.000000 0 0 1
31.318674 -9.646858 -24.401553 40.857765 -0.298801 2.210842 0.025212 0.011425 401193.000000 0 0 1
31.515314 -9.677258 -22.833053 40.102526 -0.297926 2.176532 0.012442 0.010344 -105304.000000 0 0 1
32.259764 -10.784058 -22.409853 40.733153 -0.322610 2.153355 -0.012232 0.006959 36319.200000 0 0 1
32.264214 -10.905658 -21.007353 40.015269 -0.325954 2.123492 -0.003976 -0.002786 29388.300000 0 0 1
33.186434 -12.014458 -20.426453 40.778996 -0.347351 2.095442 0.027981 -0.013204 -41681.100000 0 0 1
34.555904 -11.816158 -20.680253 41.969095 -0.329479 2.086043 0.041720 -0.012943 -77944.800000 0 0 1
35.295054 -12.759458 -19.886253 42.473611 -0.346890 2.058052 0.080946 -0.016227 971304.000000 0 0 1
36.839064 -12.815558 -20.214353 43.931483 -0.334785 2.048942 0.106451 -0.026577 583505.000000 0 0 1
-37.543177 -11.649658 -19.977953 44.094481 0.300880 2.041004 0.138868 -0.027238 256061.000000 0 0 1
37.414414 -10.569058 -20.904853 44.142454 -0.275313 2.064144 0.146113 -0.014210 -535588.000000 0 0 1
-36.958067 -10.716958 -22.301253 44.475811 0.282235 2.096041 0.108857 -0.021270 248141.000000 0 0 1
-37.298747 -11.794958 -23.143453 45.452579 0.306279 2.105026 0.095670 -0.019391 120221.000000 0 0 1
36.606344 -11.635058 -23.789753 45.181316 -0.307745 2.125321 0.097106 -0.011264 55937.800000 0 0 1
36.251594 -12.889658 -24.648453 45.693189 -0.341620 2.140561 0.066277 -0.013478 -129893.000000 0 0 1
36.169534 -14.165558 -24.027753 45.675279 -0.373282 2.124753 0.042513 -0.022643 780861.000000 0 0 1
35.045494 -14.406758 -23.172653 44.415235 -0.390028 2.119671 0.008954 -0.021043 202467.000000 0 0 1
-30.692627 8.468142 -18.644753 36.896797 -0.269204 2.100551 0.061193 -0.000323 632901.000000 0 0 1
-29.490337 7.719542 -18.883453 35.858836 -0.256021 2.125399 0.058987 -0.000803 491361.000000 0 0 1
-28.651047 8.473842 -19.722353 35.800275 -0.287563 2.154238 0.084269 -0.020371 188441.000000 0 0 1
-27.331307 7.801942 -20.225953 34.884951 -0.278063 2.189267 0.077989 -0.013338 158944.000000 0 0 1
-26.350147 7.828542 -19.224753 33.544112 -0.288791 2.181103 0.088114 -0.022482 -59730.000000 0 0 1
-25.335997 6.892442 -19.538953 32.729027 -0.265614 2.210542 0.106246 -0.026347 450404.000000 0 0 1
-23.904577 7.155042 -18.988753 31.355959 -0.290830 2.221299 0.076522 -0.025985 609246.000000 0 0 1
-23.203177 8.148342 -19.752953 31.543019 -0.337720 2.247495 0.073713 -0.022294 556161.000000 0 0 1
-21.913377 8.392942 -19.181953 30.308165 -0.365771 2.256086 0.073330 -0.020190 215683.000000 0 0 1
-21.077877 9.427442 -19.908653 30.487834 -0.420579 2.282339 0.081862 -0.015880 -541268.000000 0 0 1
-20.558077 8.955742 -21.132653 30.812804 -0.410841 2.326554 0.100251 -0.024736 -88567.700000 0 0 1
-19.989677 10.000642 -21.857953 31.262919 -0.463880 2.345026 0.086749 -0.022726 279936.000000 0 0 1
-18.997777 9.509942 -22.971853 31.289943 -0.464113 2.395226 0.103241 -0.017091 101136.000000 0 0 1
-19.696477 8.840242 -23.974253 32.262453 -0.421875 2.408488 0.091060 -0.012440 27031.400000 0 0 1
-18.897377 8.297542 -24.991353 32.411846 -0.413739 2.451294 0.075942 -0.010704 -332426.000000 0 0 1
-19.740277 7.293542 -25.774633 33.274705 -0.353918 2.456881 0.052589 -0.003989 -165509.000000 0 0 1
-19.942477 6.081342 -25.056553 32.596257 -0.295987 2.447593 0.079291 -0.002335 257963.000000 0 0 1
-20.550277 5.122142 -25.934583 33.483620 -0.244272 2.456792 0.071784 -0.004771 -420145.000000 0 0 1
-20.673677 3.759842 -25.259993 32.857337 -0.179900 2.447724 0.081978 -0.002198 463174.000000 0 0 1
-19.502077 2.974842 -25.056053 31.890225 -0.151373 2.474618 0.079276 -0.001291 519588.000000 0 0 1
-18.474077 3.434742 -24.197553 30.636751 -0.183823 2.481314 0.073089 -0.006467 -273211.000000 0 0 1
-17.692377 2.254842 -23.601153 29.582409 -0.126764 2.494451 0.069842 -0.011768 -171682.000000 0 0 1
-18.332777 1.490042 -22.586853 29.128626 -0.081099 2.458173 0.080393 -0.016248 347632.000000 0 0 1
-19.482777 0.719442 -22.908753 30.081675 -0.036910 2.436500 0.083752 -0.014926 59631.200000 0 0 1
-19.933977 -0.153058 -21.684053 29.454796 0.007678 2.398206 0.101320 -0.019114 -208426.000000 0 0 1
-19.166077 -1.283658 -21.466153 28.805937 0.066876 2.411629 0.117953 -0.026352 9768.830000 0 0 1
-19.711377 -2.057158 -20.414453 28.452068 0.103988 2.371008 0.101745 -0.024099 -236481.000000 0 0 1
-19.021277 -3.398758 -20.176553 27.936604 0.176816 2.377812 0.087478 -0.042747 -216109.000000 0 0 1
-19.204777 -4.229458 -21.299753 28.989502 0.216769 2.396080 0.102438 -0.047645 439839.000000 0 0 1
-19.358477 -5.591158 -20.914353 29.041726 0.281171 2.374813 0.103659 -0.039859 -255004.000000 0 0 1
-19.345477 -6.532358 -22.115053 30.099747 0.325647 2.396058 0.082835 -0.043815 -312214.000000 0 0 1
-18.044877 -6.578858 -22.637453 29.687594 0.349607 2.437999 0.083911 -0.037718 -109884.000000 0 0 1
-17.992977 -7.548558 -23.648153 30.658817 0.397227 2.451729 0.099792 -0.039924 590302.000000 0 0 1
-16.910977 -7.127158 -24.692553 30.765235 0.398861 2.502458 0.084248 -0.038074 -138465.000000 0 0 1
-16.912277 -7.988458 -25.826433 31.888010 0.441281 2.514796 0.088019 -0.053258 1511460.000000 0 0 1
-15.615677 -8.198358 -26.494643 31.828109 0.483453 2.554273 0.085877 -0.044706 1709750.000000 0 0 1
-14.620877 -9.079158 -25.694883 30.926173 0.555698 2.551422 0.071169 -0.036877 -206532.000000 0 0 1
-13.822277 -8.480458 -24.661153 29.515182 0.550313 2.559914 0.068308 -0.032967 709200.000000 0 0 1
-13.081577 -9.541458 -24.022953 28.970146 0.630174 2.548527 0.043571 -0.021813 335551.000000 0 0 1
-12.084477 -9.006958 -22.949653 27.456264 0.640507 2.560498 0.069562 -0.023683 81336.200000 0 0 1
-12.728577 -8.549658 -21.763953 26.622978 0.591472 2.527831 0.064301 -0.023689 164865.000000 0 0 1
-11.851777 -7.996058 -20.820253 25.256375 0.593524 2.539860 0.068362 -0.026092 -693894.000000 0 0 1
-12.565077 -7.567658 -19.488153 24.391365 0.542092 2.496389 0.059362 -0.023926 26327.300000 0 1 0
-13.532677 -6.547358 -19.587553 24.691567 0.450619 2.486989 0.057923 -0.019811 925257.000000 0 1 0
-14.851477 -7.069258 -19.848453 25.777934 0.444261 2.449604 0.073601 -0.033046 555955.000000 0 0 1
-15.987577 -6.063858 -19.510853 25.943137 0.362523 2.421982 0.083544 -0.031888 -240520.000000 0 0 1
-16.045677 -5.799958 -18.173953 24.927812 0.346852 2.387749 0.071800 -0.028903 309048.000000 0 1 0
-15.507977 -4.509558 -17.952353 24.147887 0.282986 2.408986 0.074315 -0.029549 -349637.000000 0 1 0
-15.165677 -4.246658 -16.450853 22.774161 0.273025 2.377987 0.079629 -0.024487 385961.000000 0 1 0
-16.259577 -4.043758 -15.541553 22.853133 0.243755 2.318644 0.093188 -0.034978 411682.000000 0 1 0
-16.874377 -2.776558 -15.669053 23.194247 0.163082 2.312517 0.063371 -0.037472 1058740.000000 0 1 0
-18.132577 -2.532558 -14.697153 23.477873 0.138771 2.247210 0.069704 -0.037552 919820.000000 0 1 0
-17.844377 -2.819658 -13.346253 22.460960 0.156718 2.207064 0.086649 -0.041943 219755.000000 0 1 0
-18.696377 -2.082858 -12.522453 22.598775 0.110947 2.158103 0.075901 -0.040511 -320158.000000 0 1 0
-18.113177 -0.697158 -12.039653 21.760663 0.038470 2.157088 0.072576 -0.031259 -71758.200000 0 1 0
-17.834677 0.187242 -13.095453 22.126944 -0.010498 2.204127 0.097371 -0.033360 837293.000000 0 1 0
-17.029777 1.232542 -12.510753 21.167225 -0.072250 2.203148 0.095425 -0.029428 -865641.000000 0 1 0
-16.627977 2.331042 -13.526253 21.561143 -0.139280 2.248934 0.105012 -0.021158 -95588.300000 0 1 0
-15.810877 1.912842 -14.577453 21.590390 -0.120398 2.312008 0.093308 -0.031946 794064.000000 0 1 0
-14.496577 1.478542 -14.188553 20.338433 -0.101641 2.342870 0.085960 -0.030963 -57726.300000 0 1 0
-13.807277 0.449942 -15.136953 20.493186 -0.032576 2.401837 0.078392 -0.036525 90149.000000 0 1 0
-13.480777 1.101442 -16.359553 21.226858 -0.081524 2.450736 0.087857 -0.039329 220442.000000 0 1 0
-13.167977 0.134142 -17.345253 21.777773 -0.010187 2.492224 0.071260 -0.031250 -246892.000000 0 1 0
-12.551577 0.794142 -18.545653 22.407900 -0.063186 2.545684 0.081734 -0.034827 -323794.000000 0 1 0
-11.228677 1.262342 -18.377353 21.573219 -0.111951 2.590322 0.057870 -0.024958 -169918.000000 0 1 0
-10.883677 2.035742 -19.486353 22.412421 -0.184909 2.624873 0.063228 -0.023658 -31073.300000 0 1 0
-9.444077 2.519542 -19.293853 21.628487 -0.260713 2.672674 0.050037 -0.023853 -858497.000000 0 1 0
-8.399177 1.589942 -19.431753 21.228921 -0.187084 2.727156 0.044946 -0.022283 318999.000000 0 1 0
-7.086777 2.083542 -19.169653 20.543591 -0.285947 2.773793 0.036717 -0.017624 787915.000000 0 1 0
-6.531777 3.271542 -20.015753 21.307216 -0.464340 2.791639 0.040857 -0.018435 -1121610.000000 0 1 0
-6.459977 2.895842 -21.377253 22.518973 -0.421418 2.821797 0.034486 -0.015291 281163.000000 0 1 0
-5.971777 3.994342 -22.120953 23.258406 -0.589526 2.827558 0.034022 -0.021388 -422769.000000 0 1 0
-5.519877 3.629642 -23.586553 24.494261 -0.581670 2.868502 0.057819 -0.028278 451084.000000 0 1 0
-4.252277 2.971542 -23.617553 24.180586 -0.609928 2.925373 0.065557 -0.032709 209092.000000 0 1 0
-3.895377 2.447942 -24.856453 25.278640 -0.561057 2.958573 0.098990 -0.036355 -445486.000000 0 0 1
-2.565677 1.715942 -24.766053 24.957655 -0.589483 3.017601 0.074337 -0.035193 -608346.000000 0 1 0
-1.455077 2.585942 -24.682153 24.859867 -1.058264 3.021950 0.065850 -0.035947 762227.000000 0 1 0
-0.150577 2.001042 -24.820953 24.901938 -1.495688 3.060921 0.069898 -0.029297 1185800.000000 0 1 0
0.415323 1.052142 -23.649953 23.676988 1.194832 3.093800 0.065813 -0.035401 -166076.000000 0 1 0
-0.200177 -0.234758 -23.607653 23.609668 0.864739 3.128525 0.050928 -0.036674 -14872.200000 0 1 0
0.595223 -1.001758 -22.770853 22.800648 -1.034669 3.090464 0.054172 -0.025856 -816931.000000 0 1 0
0.097623 -2.447958 -22.656653 22.788724 -1.530938 3.033879 0.062005 -0.032288 81344.500000 0 1 0
-1.039277 -2.539558 -21.797053 21.969091 1.182354 3.016364 0.049394 -0.032314 710207.000000 0 1 0
-2.278477 -2.539758 -22.539453 22.796244 0.839573 2.991354 0.055231 -0.032446 619774.000000 0 1 0
-3.098477 -1.216258 -22.534253 22.778771 0.374054 2.994938 0.062462 -0.036258 -1020300.000000 0 1 0
-3.672477 -0.842558 -21.296853 21.627596 0.225522 2.966482 0.044679 -0.031261 273616.000000 0 1 0
-4.574177 0.259142 -21.326353 21.812922 -0.056593 2.929980 0.039453 -0.030566 550202.000000 0 1 0
-5.928077 0.009142 -22.041353 22.824623 -0.001542 2.878857 0.039351 -0.029075 -824155.000000 0 1 0
-6.722677 -0.949258 -21.435353 22.484880 0.140275 2.834853 0.055609 -0.022439 -486075.000000 0 1 0
-8.052077 -0.863258 -21.887953 23.338030 0.106801 2.787226 0.039076 -0.015098 -36170.000000 0 1 0
-8.852877 -2.073058 -21.397253 23.248945 0.230023 2.739780 0.038125 -0.014576 -253921.000000 0 1 0
-8.572177 -3.204858 -22.204353 24.016382 0.357777 2.750650 0.045096 -0.025418 -5907.990000 0 1 0
-9.129877 -4.363958 -21.660553 23.907704 0.445882 2.704550 0.044393 -0.027582 -812448.000000 0 1 0
-10.090677 -5.113558 -22.525553 25.206562 0.469041 2.676184 0.047789 -0.033909 -1071070.000000 0 0 1
-11.421877 -4.725858 -22.527253 25.695722 0.392308 2.639740 0.048993 -0.036703 -721169.000000 0 0 1
-12.086977 -5.344258 -23.626653 27.071661 0.416307 2.631593 0.036041 -0.037764 -427516.000000 0 0 1
-13.602277 -5.175358 -23.516553 27.655642 0.363564 2.587417 0.094404 -0.043233 -668107.000000 0 0 1
-13.941777 -3.856458 -23.814353 27.863396 0.269864 2.595735 0.079411 -0.047567 560907.000000 0 0 1
-15.350577 -3.672758 -23.636053 28.421688 0.234844 2.552815 0.071829 -0.049769 876867.000000 0 0 1
-15.917377 -2.221258 -23.948253 28.841215 0.138654 2.550529 0.081646 -0.045746 -82290.100000 0 0 1
-15.984077 -2.025558 -25.357103 30.042907 0.126052 2.575549 0.078903 -0.038477 -112231.000000 0 0 1
-16.566377 -0.771258 -25.664213 30.556366 0.046522 2.567890 0.064208 -0.027750 1264690.000000 0 0 1
-18.113877 -1.023258 -25.990723 31.696644 0.056430 2.532178 0.089124 -0.017947 1024270.000000 0 0 1
-18.411677 -1.561058 -27.265193 32.936568 0.084584 2.545988 0.089518 -0.028918 -99769.200000 0 0 1
-18.391977 -0.648758 -28.398523 33.840239 0.035259 2.566596 0.075266 -0.025614 -290845.000000 0 0 1
-18.590577 -1.361658 -29.751703 35.108795 0.073114 2.581893 0.070036 -0.027488 604451.000000 0 0 1
-19.916477 -1.828158 -30.004303 36.059207 0.091535 2.553651 0.074878 -0.027149 479918.000000 0 0 1
-19.999077 -2.535858 -31.207953 37.152792 0.126126 2.568060 0.071729 -0.034890 -318527.000000 0 0 1
-21.431977 -2.903358 -31.619683 38.308791 0.134649 2.541688 0.048319 -0.026716 -119910.000000 0 0 1
-22.352377 -1.923858 -32.028203 39.104166 0.085858 2.530547 0.042239 -0.021778 173861.000000 0 0 1
-23.187077 -1.472158 -30.992983 38.734646 0.063405 2.498318 0.040403 -0.010950 -409740.000000 0 0 1
-24.278077 -0.514258 -31.510813 39.782167 0.021179 2.485012 0.028766 -0.009123 -482470.000000 0 0 1
-23.719977 0.629442 -32.055973 39.882564 -0.026530 2.504383 0.032013 -0.010134 1025920.000000 0 0 1
-24.804877 1.469342 -32.483113 40.897353 -0.059167 2.488584 0.029808 -0.015534 641950.000000 0 0 1
-24.246977 2.762242 -33.105833 41.128361 -0.113432 2.506369 0.033747 -0.007617 -66788.000000 0 0 1
-23.601277 3.690042 -32.210193 40.101536 -0.155094 2.503471 0.034761 -0.012885 846126.000000 0 0 1
-24.452277 4.357742 -31.278313 39.940413 -0.176363 2.470471 0.033860 -0.017176 899764.000000 0 0 1
-25.723387 5.204442 -31.765113 41.204384 -0.199629 2.451074 0.046187 -0.020495 1034150.000000 0 0 1
-26.855047 4.380242 -31.938053 41.957351 -0.161683 2.435962 0.073573 -0.027303 12612.000000 0 0 1
-27.887507 4.956242 -32.696123 43.258685 -0.175886 2.427714 0.085324 -0.034772 174050.000000 0 0 1
-28.865767 4.014042 -33.454963 44.368678 -0.138173 2.424960 0.098116 -0.035282 179756.000000 0 0 1
-28.282457 3.364942 33.150109 43.705263 -0.118420 0.709800 0.106085 -0.033803 -326804.000000 0 0 1
-29.190817 2.868042 32.248755 43.592565 -0.097937 0.738058 0.116868 -0.036279 -642220.000000 0 0 1
-29.367977 1.342442 32.266178 43.650733 -0.045679 0.738930 0.110704 -0.021798 2754.470000 0 0 1
-29.902967 0.776342 33.460715 44.882175 -0.025956 0.729476 0.106379 -0.014760 302782.000000 0 0 1
-30.048707 -0.618558 33.245882 44.817364 0.020582 0.735034 0.097395 -0.012136 -620292.000000 0 0 1
-30.057707 -1.413458 -33.137163 44.760867 0.046990 2.404336 0.057169 -0.005644 22072.900000 0 0 1
-28.798007 -1.784658 -32.619293 43.549150 0.061892 2.417382 0.058506 -0.011563 642112.000000 0 0 1
-27.854547 -0.766658 -32.289013 42.650251 0.027517 2.429605 0.048908 -0.004073 -586273.000000 0 0 1
-28.033847 -0.239558 -30.828043 41.669200 0.008545 2.403611 0.066364 -0.005886 -302364.000000 0 0 1
-27.260657 -0.941258 -29.840563 40.428809 0.034514 2.401048 0.046112 -0.013477 528843.000000 0 0 1
-27.541947 -0.457558 -28.521503 39.651536 0.016612 2.373596 0.056438 -0.019725 -523489.000000 0 0 1
-26.637307 -0.949058 -27.421383 38.241065 0.035614 2.370381 0.061222 -0.021324 -446633.000000 0 0 1
-26.694287 -2.362358 -27.210883 38.191594 0.088267 2.363828 0.047918 -0.007837 577156.000000 0 0 1
-25.626467 -2.822958 -26.372893 36.881084 0.109716 2.367534 0.062182 -0.012186 457889.000000 0 0 1
-25.920437 -4.220858 -25.735253 36.769389 0.161422 2.346067 0.054134 -0.015629 156946.000000 0 0 1
-26.982477 -4.206958 -24.799053 36.888285 0.154669 2.308073 0.055951 -0.011091 8518.800000 0 0 1
-27.048557 -5.248358 -23.946753 36.505023 0.191653 2.286283 0.036982 -0.007792 -558378.000000 0 0 1
-28.311587 -5.198158 -23.111653 36.914974 0.181583 2.247310 0.065142 -0.012647 -553601.000000 0 0 1
-28.428127 -6.229958 -22.226953 36.619779 0.215737 2.223033 0.062380 -0.012456 33864.100000 0 0 1
-29.425807 -5.955558 -21.257953 36.786510 0.199695 2.186917 0.105119 -0.008403 -179182.000000 0 0 1
-29.743347 -7.107958 -20.301253 36.706003 0.234577 2.156850 0.119562 -0.024103 -403152.000000 0 0 1
-28.673407 -7.436858 -19.413953 35.417124 0.253773 2.150949 0.115187 -0.030292 273166.000000 0 0 1
-28.923447 -8.543858 -18.561953 35.413407 0.287227 2.122514 0.138953 -0.025189 -271791.000000 0 0 1
-29.584777 -8.052358 -17.270253 35.190356 0.265742 2.083766 0.138665 -0.032266 -23525.200000 0 0 1
-28.720457 -7.282658 -16.459753 33.894324 0.248336 2.077868 0.127674 -0.036786 569557.000000 0 0 1
-29.458057 -6.703358 -15.383253 33.902162 0.223746 2.041770 0.140910 -0.036426 -207521.000000 0 0 1
-28.564177 -6.002058 -14.358053 32.528305 0.207112 2.027957 0.161490 -0.039645 -298716.000000 0 0 1
-27.854387 -4.952858 -14.977353 32.011229 0.175973 2.057685 0.161660 -0.032567 247071.000000 0 0 1
-27.150277 -4.205058 -13.998753 30.834804 0.153660 2.042037 0.144491 -0.043112 -167021.000000 0 0 1
-14.459477 21.126242 -4.761653 26.039737 -0.970595 1.754692 0.089892 -0.040124 -150863.000000 0 0 1
-14.429577 20.372042 -5.953353 25.664668 -0.954520 1.804896 0.107201 -0.045767 106833.000000 0 0 1
-15.107577 19.114642 -5.892053 25.066406 -0.901957 1.808074 0.094036 -0.056411 -166979.000000 0 0 1
-15.328277 18.531342 -7.283453 25.127980 -0.879716 1.864871 0.108680 -0.052504 -221440.000000 0 0 1
-14.204177 17.968142 -7.937753 24.240889 -0.901863 1.904403 0.085953 -0.042366 19930.000000 0 1 0
-14.494277 17.033842 -8.972453 24.098563 -0.865774 1.952307 0.074297 -0.039826 -64863.000000 0 1 0
-15.186677 15.691842 -8.570753 23.459047 -0.801756 1.944805 0.091460 -0.037043 -481379.000000 0 1 0
-16.508577 15.796542 -8.180853 24.269121 -0.763361 1.914620 0.090996 -0.027876 -694731.000000 0 1 0
-16.990377 14.826242 -7.236753 23.682503 -0.717484 1.881337 0.106938 -0.019514 435064.000000 0 1 0
-18.469577 15.076842 -6.826553 24.799965 -0.684605 1.849661 0.126242 -0.030711 322716.000000 0 1 0
-19.381777 14.806442 -7.878953 25.631268 -0.652361 1.883252 0.123675 -0.025554 913735.000000 0 0 1
-20.714577 15.173442 -7.442953 26.734334 -0.632207 1.852929 0.107907 -0.027977 1279230.000000 0 0 1
-21.835477 14.397842 -8.217753 27.415641 -0.582940 1.875224 0.110514 -0.021791 244834.000000 0 0 1
-21.871577 12.992942 -7.856153 26.625205 -0.536037 1.870319 0.135011 -0.029177 342834.000000 0 0 1
-22.842377 12.355642 -8.671353 27.379343 -0.495837 1.893057 0.154868 -0.033524 170569.000000 0 0 1
-23.097077 10.883742 -8.264553 26.837169 -0.440357 1.883836 0.163955 -0.038840 -647421.000000 0 0 1
-22.038877 10.003342 -8.382753 25.613463 -0.426089 1.904219 0.164524 -0.036156 -548465.000000 0 0 1
-22.249777 8.925042 -7.520553 25.125041 -0.381480 1.874781 0.186843 -0.044803 709524.000000 0 0 1
-20.972477 8.034542 -7.236353 23.595836 -0.365852 1.882498 0.139547 -0.023417 190184.000000 0 1 0
-20.754377 7.040942 -8.250653 23.417778 -0.327067 1.930850 0.134915 -0.027183 510045.000000 0 1 0
-19.609077 6.320542 -7.805153 22.031468 -0.311813 1.932933 0.086122 -0.013766 121083.000000 0 1 0
-19.386177 5.013142 -8.591453 21.789184 -0.253050 1.976101 0.075071 -0.025655 -803595.000000 0 1 0
-20.327677 4.011442 -8.345653 22.337324 -0.194836 1.953704 0.096839 -0.032266 276513.000000 0 1 0
-20.397077 3.118242 -9.410153 22.678518 -0.151702 1.998670 0.104065 -0.027742 -266742.000000 0 1 0
-21.381977 1.942342 -9.208553 23.361487 -0.090592 1.975968 0.119479 -0.034206 77800.200000 0 1 0
-20.903077 0.957842 -8.282653 22.504631 -0.045791 1.947699 0.102148 -0.033443 563879.000000 0 1 0
-21.893877 -0.009758 -7.979753 23.302755 0.000446 1.920307 0.127414 -0.034309 -76194.600000 0 1 0
-21.911877 -1.238958 -8.932853 23.695173 0.056483 1.957341 0.103896 -0.044258 -431367.000000 0 1 0
-20.841677 -2.093758 -8.665653 22.668323 0.100124 1.963059 0.087276 -0.027813 85817.200000 0 1 0
-20.998077 -3.445558 -8.999953 23.103902 0.162640 1.970931 0.087547 -0.026066 43851.800000 0 1 0
-22.029777 -4.287358 -8.200153 23.894247 0.192214 1.921102 0.106220 -0.024920 178867.000000 0 1 0
-21.520877 -4.584458 -6.937853 23.071611 0.209886 1.876233 0.092803 -0.026195 1120740.000000 0 1 0
-22.544177 -5.180558 -6.089953 23.919984 0.225874 1.828227 0.132780 -0.036440 606539.000000 0 1 0
-22.799077 -6.736358 -6.258653 24.583474 0.287292 1.828218 0.134988 -0.033212 -142778.000000 0 1 0
-21.676777 -7.504858 -5.898453 23.685382 0.333300 1.822478 0.114610 -0.034834 588053.000000 0 1 0
-21.902977 -8.824858 -6.259353 24.429450 0.383010 1.829908 0.126545 -0.036237 159506.000000 0 1 0
-20.826277 -9.869058 -5.806053 23.766413 0.442530 1.817591 0.117362 -0.027574 1315550.000000 0 1 0
-19.520677 -9.767258 -6.414653 22.750911 0.463931 1.856624 0.101708 -0.026623 1381990.000000 0 1 0
-18.413577 -9.923458 -5.531953 21.636482 0.494297 1.829344 0.094711 -0.032868 421236.000000 0 1 0
-17.584677 -11.192058 -5.844253 21.648056 0.566802 1.844155 0.081257 -0.036937 -184572.000000 0 1 0
-16.715977 -11.268458 -6.989253 21.336628 0.593140 1.904528 0.098174 -0.032962 736433.000000 0 1 0
-17.341177 -11.013458 -8.245153 22.135836 0.565832 1.952476 0.106963 -0.029585 -439664.000000 0 1 0
-16.419877 -11.149958 -9.477453 21.994455 0.596528 2.016288 0.100189 -0.016718 144842.000000 0 1 0
-16.030977 -12.516758 -9.698553 22.532718 0.662915 2.015755 0.084530 -0.020788 327091.000000 0 1 0
-15.023677 -12.598758 -10.687153 22.330580 0.697835 2.069842 0.080384 -0.009908 188400.000000 0 1 0
-15.076177 -13.958758 -11.407653 23.500480 0.746932 2.077642 0.090152 -0.012296 -554285.000000 0 1 0
-16.043877 -13.935958 -12.413353 24.611141 0.715202 2.099459 0.097132 -0.011923 -92620.100000 0 1 0
-16.041777 -15.159558 -13.098653 25.665649 0.757131 2.106397 0.071142 -0.009314 226864.000000 0 0 1
-16.892977 -14.998358 -14.402853 26.791148 0.726059 2.138382 0.102008 -0.008267 194816.000000 0 0 1
-17.101777 -16.216758 -15.180653 28.034019 0.758842 2.143026 0.089939 0.003758 102069.000000 0 0 1
-17.506577 -15.886958 -16.476753 28.815951 0.736935 2.179486 0.087404 0.001532 -189311.000000 0 0 1
-18.092977 -17.106858 -17.256753 30.295147 0.757391 2.176841 0.111352 -0.011863 432788.000000 0 0 1
-19.294077 -17.586258 -16.641253 30.959153 0.739124 2.138293 0.090989 -0.003594 -19908.400000 0 0 1
-20.304277 -17.742358 -17.618853 32.209919 0.718163 2.149574 0.080351 -0.000090 -166680.000000 0 0 1
-21.715477 -17.529658 -17.059653 32.709060 0.679142 2.119472 0.073144 -0.003846 -457161.000000 0 0 1
-21.956877 -16.272958 -16.536853 31.943405 0.637802 2.114948 0.070829 0.000198 298801.000000 0 0 1
-21.595377 -16.164558 -15.129253 30.928103 0.642553 2.081940 0.075048 -0.004253 -221533.000000 0 0 1
-21.752177 -14.701958 -14.629553 30.055425 0.594357 2.079165 0.092610 -0.022020 150789.000000 0 0 1
-23.089177 -14.227258 -14.658853 30.828671 0.552237 2.066322 0.110843 -0.023548 597088.000000 0 0 1
-23.145777 -12.990858 -13.912253 29.967318 0.511449 2.053581 0.116786 -0.028889 -658016.000000 0 0 1
-24.599177 -12.546658 -13.803953 30.872111 0.471650 2.034354 0.140090 -0.039451 -333291.000000 0 0 1
-25.300627 -13.358258 -12.822253 31.352431 0.485781 1.992123 0.161248 -0.038925 -456323.000000 0 0 1
-26.492737 -12.808158 -12.457153 31.954572 0.450328 1.971254 0.150890 -0.043941 -738547.000000 0 0 1
-27.478087 -13.555158 -11.449453 32.708983 0.458280 1.928410 0.169646 -0.046334 52989.800000 0 0 1
-28.411537 -12.628058 -11.030353 32.990180 0.418245 1.911715 0.168782 -0.045672 -396299.000000 0 0 1
-29.126637 -12.965258 -9.859953 33.371808 0.418800 1.870731 0.159437 -0.040329 190022.000000 0 0 1
-29.912137 -11.808958 -9.230353 33.457239 0.376005 1.850307 0.149527 -0.038883 -173393.000000 0 0 1
-29.040837 -10.791958 -8.769953 32.198582 0.355798 1.846652 0.150294 -0.045550 147488.000000 0 0 1
-29.719677 -9.721758 -8.132653 32.309624 0.316144 1.825243 0.153984 -0.049012 382296.000000 0 0 1
-28.811277 -8.547658 -7.537253 30.983259 0.288406 1.816531 0.166845 -0.045821 450457.000000 0 0 1
-28.170457 -8.888358 -6.303853 30.204571 0.305634 1.781047 0.159665 -0.052791 110833.000000 0 0 1
-27.237197 -7.929758 -5.850153 28.964983 0.283306 1.774169 0.156323 -0.054658 -278239.000000 0 0 1
-27.791547 -6.616458 -5.315753 29.058645 0.233724 1.754764 0.165147 -0.055972 -366589.000000 0 0 1
-28.689627 -6.713458 -4.197153 29.762079 0.229867 1.712292 0.161025 -0.053858 436941.000000 0 0 1
-28.156857 -6.956458 -2.890753 29.147167 0.242211 1.670137 0.160294 -0.044245 -653635.000000 0 0 1
-27.426527 -5.774958 -2.255353 28.118520 0.207529 1.651091 0.175715 -0.045286 -203585.000000 0 0 1
-28.323587 -4.814158 -1.719753 28.781231 0.168361 1.630585 0.190115 -0.044461 208486.000000 0 0 1
-27.744937 -3.684558 -1.128453 28.011264 0.132029 1.611093 0.187938 -0.048038 -976496.000000 0 0 1
-28.776317 -2.807558 -0.432153 28.916182 0.097257 1.585742 0.184876 -0.044585 -368796.000000 0 0 1
-29.533577 -3.314858 0.639047 29.725895 0.111773 1.549297 0.170735 -0.031465 -354870.000000 0 0 1
-28.895667 -3.385258 1.806147 29.149301 0.116623 1.508795 0.179066 -0.033860 -802870.000000 0 0 1
-29.845197 -3.807958 2.923647 30.228861 0.126905 1.473928 0.169750 -0.029551 172340.000000 0 0 1
-30.391927 -5.156458 2.915247 30.963801 0.168065 1.476506 0.177067 -0.033127 -147792.000000 0 0 1
-31.461407 -5.258358 3.790947 32.122294 0.165606 1.452505 0.192213 -0.032700 -451272.000000 0 0 1
-32.330567 -6.507558 3.554947 33.170040 0.198628 1.463417 0.203921 -0.035461 -191528.000000 0 0 1
-31.596477 -7.669658 3.867147 32.743180 0.238132 1.452415 0.193812 -0.027326 471203.000000 0 0 1
-32.286267 -8.912358 3.659647 33.693118 0.269334 1.461965 0.195248 -0.034701 -196436.000000 0 0 1
-31.349797 -10.067558 3.970347 33.165180 0.310733 1.450794 0.175794 -0.030210 -126534.000000 0 0 1
-31.173227 -10.220458 5.372747 33.242958 0.316817 1.408464 0.157035 -0.021541 113448.000000 0 0 1
-30.500977 -11.428358 5.567447 33.044114 0.358497 1.401504 0.159569 -0.020111 -277718.000000 0 0 1
-30.275817 -11.868758 7.039847 33.272391 0.373609 1.357603 0.142252 -0.025970 -394730.000000 0 0 1
-29.364857 -11.026458 7.665047 32.289790 0.359208 1.331125 0.119670 -0.012097 59017.200000 0 0 1
-29.144827 -11.378558 9.021747 32.562009 0.372216 1.290060 0.145710 -0.017410 -481583.000000 0 0 1
-29.511177 -10.232458 10.004747 32.797984 0.333760 1.260814 0.161843 -0.025504 -308924.000000 0 0 1
-28.656187 -9.101258 9.986847 31.681968 0.307526 1.250106 0.123844 -0.009808 300177.000000 0 0 1
-28.830547 -8.255158 11.110747 31.981194 0.278872 1.215983 0.147080 -0.001025 -55358.000000 0 0 1
-27.835447 -7.071658 11.182447 30.819922 0.248789 1.199491 0.151858 0.006558 -54587.300000 0 0 1
-28.135247 -6.152158 10.164947 30.541240 0.215275 1.231496 0.177490 0.005201 166404.000000 0 0 1
-27.383007 -4.989958 10.309847 29.682010 0.180250 1.216060 0.160112 -0.004634 -558888.000000 0 0 1
-27.489427 -3.954758 9.156847 29.243060 0.142884 1.252310 0.184833 -0.018533 53660.300000 0 0 1
-26.683567 -4.342958 8.059147 28.210351 0.161343 1.281080 0.135343 -0.011887 406282.000000 0 0 1
-26.963267 -3.512658 6.938647 28.062455 0.129546 1.320948 0.160586 -0.034091 310860.000000 0 0 1
-26.108907 -3.910558 5.654847 26.998978 0.148674 1.359787 0.146994 -0.020875 906523.000000 0 0 1
-24.711277 -3.602158 5.705547 25.615933 0.144750 1.346178 0.160889 -0.035606 821409.000000 0 0 1
-24.135577 -4.074558 4.487847 24.885114 0.167243 1.389462 0.166038 -0.031501 1938930.000000 0 1 0
-22.563977 -3.720358 4.385047 23.285248 0.163410 1.381346 0.157524 -0.031682 2119810.000000 0 1 0
-22.210477 -2.316058 4.444247 22.768855 0.103902 1.374345 0.132612 -0.028025 673000.000000 0 1 0
-20.819877 -2.033458 4.314047 21.359149 0.097360 1.367421 0.106118 -0.022628 169504.000000 0 1 0
-20.374777 -0.589758 4.761247 20.932005 0.028937 1.341325 0.078298 -0.030406 -650960.000000 0 1 0
-20.654777 0.489542 3.831647 21.012877 -0.023697 1.387423 0.100086 -0.027861 904597.000000 0 1 0
-22.024977 0.835742 3.638047 22.339057 -0.037927 1.407212 0.114736 -0.042847 276842.000000 0 1 0
-22.187977 1.941542 2.570347 22.420584 -0.087282 1.455901 0.146497 -0.029024 -23004.000000 0 1 0
-21.583077 3.124942 3.092947 22.026366 -0.143787 1.429910 0.119103 -0.033926 249059.000000 0 1 0
-21.795577 4.247342 2.295047 22.323851 -0.192460 1.467807 0.144616 -0.022798 -335077.000000 0 1 0
-20.773277 4.649542 1.212647 21.321768 -0.220194 1.513892 0.121699 -0.007148 -503548.000000 0 1 0
-21.233977 5.279642 0.038447 21.880537 -0.243699 1.569039 0.155365 -0.004621 541083.000000 0 1 0
-22.154677 4.549442 -0.807353 22.631371 -0.202534 1.606478 0.194488 -0.021888 202221.000000 0 1 0
-21.567377 3.450742 -1.732053 21.910258 -0.158654 1.649931 0.165831 -0.020262 -190465.000000 0 1 0
-21.205777 2.284442 -1.025753 21.353122 -0.107313 1.618852 0.115388 -0.012822 499340.000000 0 1 0
-20.372177 1.434042 -1.784253 20.500381 -0.070276 1.657942 0.080101 -0.011077 -353969.000000 0 1 0
-19.715577 0.302842 -0.977753 19.742130 -0.015359 1.620343 0.091270 -0.013627 -207556.000000 0 1 0
-20.643077 -0.668258 -0.503353 20.660023 0.032361 1.595162 0.123048 -0.018062 833347.000000 0 1 0
-20.146877 -1.478358 0.598647 20.209913 0.073248 1.541171 0.110044 -0.017176 -399768.000000 0 1 0
-18.911477 -2.323458 0.336847 19.056650 0.122247 1.553119 0.052237 -0.016941 -841737.000000 0 1 0
-18.467177 -3.110358 1.409347 18.780235 0.166860 1.495682 0.061718 -0.016318 885652.000000 0 1 0
-17.603777 -4.191458 0.962747 18.121484 0.233748 1.517644 0.039194 -0.011178 182827.000000 0 1 0
-18.362777 -5.504558 0.725447 19.183796 0.291243 1.532972 0.039357 -0.013001 -422867.000000 0 1 0
-18.968777 -5.890258 1.936847 19.956478 0.301084 1.473590 0.043862 -0.017420 1323400.000000 0 1 0
-20.089077 -6.756758 1.543747 21.251070 0.324454 1.498089 0.079445 -0.023258 1089430.000000 0 1 0
-21.004677 -7.126558 2.745947 22.350045 0.327097 1.447624 0.101975 -0.018228 -42635.400000 0 1 0
-20.311577 -8.059158 3.523947 22.134326 0.377724 1.410909 0.085477 -0.014438 737561.000000 0 1 0
-21.134177 -8.666058 4.510447 23.283001 0.389140 1.375841 0.088709 -0.015766 -169003.000000 0 1 0
-20.367577 -9.361858 5.637247 23.114090 0.430846 1.324424 0.079720 -0.002656 -425094.000000 0 1 0
-19.864777 -10.539358 5.162547 23.072480 0.487792 1.345132 0.088773 -0.006348 341922.000000 0 1 0
-19.005977 -11.212958 6.092247 22.892642 0.533012 1.301428 0.089994 -0.009192 66781.300000 0 1 0
-18.507077 -12.547358 5.497147 23.025350 0.595791 1.329725 0.083273 -0.006663 -405819.000000 0 1 0
-19.335877 -13.681758 5.518347 24.321160 0.615798 1.341908 0.100785 -0.006593 -227182.000000 0 1 0
-18.806177 -14.814258 4.869547 24.430453 0.667217 1.370129 0.104091 -0.003374 -320685.000000 0 1 0
-19.661377 -16.044358 5.092147 25.882835 0.684442 1.372766 0.113627 -0.007982 305749.000000 0 0 1
-18.918777 -17.257158 4.798047 26.052848 0.739499 1.385573 0.109019 -0.018064 564392.000000 0 0 1
-19.696677 -18.378958 5.061747 27.411065 0.750804 1.385070 0.114859 -0.020592 -74032.500000 0 0 1
-18.805477 -19.627358 4.952847 27.629872 0.806780 1.390565 0.099083 -0.033019 -130455.000000 0 0 1
-18.294077 -20.009958 3.715447 27.365603 0.830165 1.434605 0.104331 -0.034228 203143.000000 0 0 1
-17.477577 -21.156558 3.698547 27.690159 0.880338 1.436827 0.082921 -0.037205 -41212.100000 0 0 1
-15.965477 -20.865858 3.758547 26.540670 0.917671 1.428704 0.082258 -0.030931 292096.000000 0 0 1
-15.221277 -22.119258 3.950347 27.139530 0.968071 1.424720 0.066759 -0.030270 -29076.700000 0 0 1
-13.837677 -21.925858 4.005547 26.234881 1.007814 1.417517 0.065184 -0.025533 -421242.000000 0 0 1
-13.065277 -23.205758 4.359147 26.985382 1.058013 1.408548 0.069465 -0.021971 -446135.000000 0 0 1
-13.376277 -24.205358 3.393247 27.862848 1.065947 1.448709 0.082143 -0.025170 -57502.700000 0 0 1
-12.604977 -25.372428 3.402147 28.534543 1.109713 1.451283 0.084392 -0.023478 -383124.000000 0 0 1
19.870623 19.410242 -24.046153 36.739850 0.773678 2.284315 0.095511 -0.009604 -630841.000000 0 0 1
18.859023 19.425442 -24.973253 36.833054 0.800192 2.315851 0.074646 -0.014458 -646568.000000 0 0 1
19.324423 19.094342 -26.237103 37.767880 0.779409 2.338790 0.093041 -0.016791 184177.000000 0 0 1
18.206323 19.246942 -27.311093 38.050108 0.813175 2.371386 0.080962 -0.015008 368199.000000 0 0 1
18.019423 20.581642 -27.704303 38.933687 0.851678 2.362536 0.063842 -0.008136 15379.800000 0 0 1
16.908023 20.586442 -28.569593 39.062827 0.883191 2.391133 0.065961 -0.011967 -179622.000000 0 0 1
16.601023 21.942342 -29.235833 40.147157 0.923101 2.386513 0.062313 -0.001322 -486155.000000 0 0 1
16.162123 22.899642 -28.298043 39.829474 0.956201 2.360976 0.066143 -0.010836 361166.000000 0 0 1
16.011223 24.244342 -28.840993 40.938371 0.987137 2.352512 0.062677 -0.008259 -487284.000000 0 0 1
15.283223 25.133142 -27.842173 40.502325 1.024449 2.328729 0.063382 -0.015337 1007310.000000 0 0 1
13.888823 24.779342 -27.648663 39.640431 1.059927 2.342680 0.075331 -0.029536 871057.000000 0 0 1
13.327123 25.618642 -26.696963 39.327533 1.091110 2.316973 0.069223 -0.022400 -229956.000000 0 0 1
11.927523 25.143342 -26.180993 38.208609 1.127853 2.325691 0.101398 -0.028177 684131.000000 0 0 1
11.316723 25.997542 -25.232443 37.955455 1.160234 2.298010 0.086717 -0.037311 -157408.000000 0 0 1
10.792723 27.195242 -25.692043 38.937708 1.192999 2.291381 0.102916 -0.045134 -483532.000000 0 0 1
10.040723 28.075542 -24.682253 38.707438 1.227338 2.262255 0.127548 -0.053866 -254079.000000 0 0 1
10.962123 28.613942 -23.786353 38.790674 1.204940 2.230899 0.105755 -0.040781 -54540.400000 0 0 1
10.361523 29.258842 -22.656253 38.428463 1.230444 2.201322 0.126318 -0.051138 243736.000000 0 0 1
11.428523 29.687342 -21.603253 38.453217 1.203320 2.167364 0.099319 -0.045730 -318123.000000 0 0 1
12.270323 30.675342 -22.062753 39.727855 1.190285 2.159577 0.095036 -0.050347 -1050410.000000 0 0 1
13.166123 30.962142 -21.062253 39.694074 1.168728 2.130122 0.084087 -0.043635 -570920.000000 0 0 1
14.348023 31.859342 -21.527953 41.040665 1.147647 2.122985 0.084337 -0.028433 179863.000000 0 0 1
15.279923 31.091842 -22.242253 41.169120 1.114016 2.141549 0.075800 -0.026349 -569218.000000 0 0 1
16.320323 31.809942 -22.862153 42.437052 1.096758 2.139726 0.079094 -0.019186 -63989.000000 0 0 1
17.483323 30.929942 -23.337953 42.508681 1.056316 2.151983 0.030214 -0.002799 157266.000000 0 0 1
18.309123 30.517542 -22.253353 41.973278 1.030411 2.129608 0.033383 -0.000380 -429123.000000 0 0 1
19.550523 30.044742 -22.665953 42.410551 0.993920 2.134643 0.019188 0.001112 -226610.000000 0 0 1
20.426423 29.312342 -21.612853 41.756048 0.962185 2.114838 0.023574 0.007264 226680.000000 0 0 1
21.194123 30.189442 -20.804753 42.348919 0.958704 2.084344 0.028239 0.010993 250836.000000 0 0 1
22.147223 29.501342 -20.011253 41.967593 0.926835 2.067837 0.044861 0.006424 487728.000000 0 0 1
22.903423 30.405442 -18.974953 42.533593 0.925207 2.033218 0.047516 -0.004511 35827.500000 0 0 1
23.876023 31.307342 -19.439553 43.910253 0.919259 2.029416 0.034855 -0.004720 -207430.000000 0 0 1
24.474523 31.890742 -18.300153 44.169189 0.916221 1.997991 0.045096 -0.012101 -354644.000000 0 0 1
25.639823 32.866242 -18.549653 45.625431 0.908291 1.989486 0.043515 -0.010475 -221871.000000 0 0 1
26.819723 32.138842 -18.750853 45.867169 0.875373 1.991944 0.043707 -0.009223 -1197480.000000 0 0 1
27.940323 32.857442 -18.389553 46.887619 0.866099 1.973824 0.050858 -0.019882 -653336.000000 0 0 1
29.271423 32.259042 -18.854253 47.465196 0.833915 1.979285 0.057827 -0.021670 -124601.000000 0 0 1
29.570323 31.034042 -18.208153 46.573089 0.809546 1.972469 0.048501 -0.012992 520096.000000 0 0 1
30.890023 30.596442 -18.562753 47.274851 0.780623 1.974314 0.050235 -0.006689 537500.000000 0 0 1
31.375723 29.416142 -17.763253 46.532553 0.753175 1.962472 0.046161 -0.017839 -641606.000000 0 0 1
31.948723 29.820742 -16.557553 46.734892 0.750961 1.932948 0.049371 -0.016051 -21457.100000 0 0 1
31.788923 28.873942 -15.479853 45.649381 0.737383 1.916760 0.043356 -0.014204 -639407.000000 0 0 1
32.439823 29.405242 -14.202153 46.029463 0.736370 1.884459 0.053423 -0.023422 747978.000000 0 0 1
33.863723 29.533342 -14.193353 47.121346 0.717198 1.876756 0.040179 -0.015815 482246.000000 0 0 1
34.260323 30.824142 -14.619453 48.349000 0.732651 1.877978 0.043858 -0.015869 -407613.000000 0 0 1
35.773123 31.061642 -14.751553 49.620059 0.715020 1.872650 0.055118 -0.025603 -16142.500000 0 0 1
36.374623 31.346542 -13.495253 49.878259 0.711287 1.844775 0.054183 -0.023019 121923.000000 0 0 1
-37.400318 31.591542 -13.776653 50.858682 -0.701401 1.845105 0.035400 -0.028077 709583.000000 0 0 1
-36.523518 31.830742 -12.490153 50.031664 -0.716852 1.823110 0.041274 -0.022069 -61460.300000 0 0 1
-36.982118 32.900642 -11.728953 50.869418 -0.727060 1.803460 0.051718 -0.022846 875366.000000 0 0 1
-36.015318 33.341142 -10.716653 50.235262 -0.746860 1.785778 0.032324 -0.011853 632506.000000 0 0 1
-36.548718 -33.121505 -9.899453 50.307475 0.736246 1.768868 0.031235 -0.003674 -191108.000000 0 0 1
-35.680618 -32.460005 -9.028753 49.074197 0.738169 1.755832 0.033905 -0.001060 -376624.000000 0 0 1
-35.304518 -33.020305 -7.805353 48.966040 0.751979 1.730883 0.044893 -0.008083 -39153.400000 0 0 1
-35.091218 -31.937305 -6.750153 47.926502 0.738380 1.712110 0.046216 -0.014449 -422680.000000 0 0 1
-36.321118 -31.408205 -6.361653 48.437275 0.712988 1.702515 0.041897 -0.004724 -564895.000000 0 0 1
-36.176018 -30.282905 -5.516253 47.499344 0.696956 1.687192 0.061369 -0.011526 852337.000000 0 0 1
37.559323 -29.740805 -5.080353 48.177050 -0.669743 1.676444 0.058839 -0.009921 682285.000000 0 0 1
36.815923 -30.753005 -4.419953 48.173597 -0.695908 1.662676 0.044163 -0.013119 245843.000000 0 0 1
35.476323 -30.380805 -4.124253 46.888935 -0.708180 1.658868 0.046571 -0.015801 -49750.300000 0 0 1
35.239923 -29.460405 -2.917953 46.024798 -0.696307 1.634238 0.038865 -0.007141 -738110.000000 0 0 1
35.790523 -28.165805 -3.032053 45.645015 -0.666741 1.637272 0.062690 -0.017272 -28353.800000 0 0 1
35.225123 -27.252205 -2.184153 44.589937 -0.658471 1.619799 0.050233 -0.011470 -420773.000000 0 0 1
35.899223 -25.883205 -2.352153 44.319602 -0.624679 1.623894 0.054603 -0.025650 -197588.000000 0 0 1
35.377223 -25.234505 -3.487953 43.594655 -0.619595 1.650891 0.056317 -0.024657 273893.000000 0 0 1
35.622723 -23.863105 -3.534553 43.022311 -0.590227 1.653045 0.062709 -0.033098 -380586.000000 0 0 1
35.211123 -23.204805 -4.843853 42.447014 -0.582689 1.685161 0.062176 -0.037727 -286162.000000 0 0 1
36.071323 -23.511505 -5.921353 43.462554 -0.577644 1.707462 0.055735 -0.034707 148599.000000 0 0 1
35.443123 -23.006405 -7.082953 42.844811 -0.575748 1.736875 0.060786 -0.036525 231737.000000 0 0 1
36.462623 -22.789405 -8.216453 43.776591 -0.558605 1.759607 0.071398 -0.037180 166758.000000 0 0 1
37.219223 -23.911905 -8.636653 45.073734 -0.571057 1.763600 0.059938 -0.019730 406879.000000 0 0 1
-36.695618 -23.488805 -9.222853 44.534856 0.569383 1.779399 0.066430 -0.022217 453815.000000 0 0 1
-35.981918 -24.643105 -9.887453 44.718484 0.600502 1.793743 0.052873 -0.026647 -594806.000000 0 0 1
-35.506918 -25.613505 -9.030953 44.702919 0.624922 1.774218 0.054176 -0.013898 89916.100000 0 0 1
-36.347518 -26.766405 -8.953853 46.019061 0.634742 1.766614 0.047213 -0.006229 329307.000000 0 0 1
-35.543018 -28.022805 -8.500953 46.052686 0.667640 1.756453 0.050696 -0.006946 542151.000000 0 0 1
-34.607218 -28.455805 -9.499953 45.800016 0.688162 1.779736 0.048298 -0.009265 423944.000000 0 0 1
-33.856018 -29.538105 -8.997053 45.822228 0.717391 1.768427 0.034022 -0.005411 -182405.000000 0 0 1
-33.226318 -30.479605 -10.018453 46.188353 0.742309 1.789438 0.036371 -0.007760 -381006.000000 0 0 1
-32.235318 -29.911505 -10.822053 45.287202 0.748023 1.812096 0.038954 0.003515 -169746.000000 0 0 1
-31.944218 -30.839005 -11.840453 45.952950 0.767796 1.831401 0.033140 -0.002050 -196966.000000 0 0 1
-32.286818 -30.386905 -13.309153 46.291858 0.755093 1.862417 0.025836 0.001192 -366278.000000 0 0 1
-31.439618 -29.354005 -13.676353 45.134796 0.751105 1.878647 0.028884 -0.000666 -291573.000000 0 0 1
-31.547118 -28.994905 -15.038553 45.410167 0.743267 1.908341 0.018382 0.010787 416177.000000 0 0 1
-30.449218 -27.921205 -15.420853 44.097066 0.742115 1.928050 0.031873 -0.008378 917263.000000 0 0 1
-29.193518 -28.594405 -15.529453 43.715734 0.775031 1.933964 0.060112 -0.020788 -43473.600000 0 0 1
-28.184818 -27.719205 -16.002453 42.647588 0.777070 1.955436 0.082977 -0.007691 -217146.000000 0 0 1
-27.053418 -28.553805 -16.608853 42.697321 0.812373 1.970332 0.115960 -0.023936 -736625.000000 0 0 1
-27.275218 -29.193105 -17.870153 43.766623 0.819349 1.991393 0.100499 -0.024864 -56395.600000 0 0 1
-27.558318 -28.430005 -19.039553 43.934390 0.800966 2.019018 0.077219 -0.003384 417286.000000 0 0 1
-26.323518 -27.613905 -19.546253 42.866203 0.809317 2.044273 0.089255 -0.007244 554513.000000 0 0 1
-25.906918 -26.689305 -18.540153 41.559892 0.800272 2.033207 0.098718 -0.017282 -700085.000000 0 0 1
-24.558318 -26.338605 -18.600253 40.531500 0.820362 2.047563 0.116423 -0.031748 -212225.000000 0 0 1
-24.150918 -25.117905 -17.723153 39.093300 0.805022 2.041322 0.119951 -0.024728 53602.500000 0 0 1
-24.269718 -25.410905 -16.352053 38.757231 0.808365 2.006347 0.138444 -0.029488 22499.100000 0 0 1
-23.729618 -24.412505 -15.530753 37.420174 0.799582 1.998780 0.145225 -0.025882 -78493.300000 0 0 1
-24.273218 -24.531705 -14.129953 37.291410 0.790694 1.959411 0.130968 -0.021907 -68418.100000 0 0 1
-25.620218 -24.133205 -14.047553 37.896450 0.755519 1.950540 0.095472 0.000117 -190596.000000 0 0 1
-26.099618 -24.171305 -12.691153 37.769133 0.747059 1.913483 0.093348 -0.001516 -370876.000000 0 0 1
-27.607318 -23.957005 -12.558153 38.649829 0.714725 1.901725 0.087752 0.014414 -930801.000000 0 0 1
-28.208518 -25.021505 -13.294253 39.981663 0.725597 1.909759 0.092987 0.006435 1099370.000000 0 0 1
-29.572518 -25.347305 -12.920053 41.035929 0.708615 1.891092 0.071272 0.005170 903908.000000 0 0 1
-30.678918 -24.414905 -13.472153 41.458202 0.672187 1.901763 0.079709 0.005389 -931303.000000 0 0 1
-30.858218 -23.110305 -12.905653 40.655525 0.642809 1.893824 0.098418 0.001290 194732.000000 0 0 1
-31.241418 -22.995805 -11.548653 40.474741 0.634525 1.860147 0.121031 -0.008072 -729899.000000 0 0 1
-32.700218 -23.382305 -11.244753 41.743034 0.620756 1.843546 0.082072 -0.013465 -265359.000000 0 0 1
-33.753818 -22.472005 -11.485653 42.145361 0.587376 1.846812 0.114054 -0.034728 160835.000000 0 0 1
-34.168118 -22.448105 -12.816853 42.844479 0.581273 1.874596 0.106106 -0.019776 -848680.000000 0 0 1
-35.586518 -21.878705 -13.014353 43.754444 0.551233 1.872807 0.063060 -0.028461 622451.000000 0 0 1
-36.552818 -22.869205 -12.579253 44.914882 0.559065 1.854662 0.063670 -0.021599 434035.000000 0 0 1
37.244523 -22.485905 -12.671953 45.313892 -0.543163 1.854224 0.084108 -0.032991 347989.000000 0 0 1
36.295223 -23.676805 -12.345853 45.059454 -0.578018 1.848336 0.060069 -0.008150 -175475.000000 0 0 1
36.347923 -24.729905 -13.320553 45.936661 -0.597427 1.864999 0.028610 0.010502 213631.000000 0 0 1
35.421223 -25.728005 -12.907953 45.642179 -0.628189 1.857516 0.026127 0.001637 383283.000000 0 0 1
35.285023 -27.012005 -13.783153 46.525869 -0.653371 1.871557 0.018828 0.001818 224735.000000 0 0 1
34.741223 -26.858705 -15.080753 46.430288 -0.658127 1.901601 0.023189 -0.006125 -149858.000000 0 0 1
34.534723 -28.086705 -15.694553 47.199884 -0.682792 1.909763 0.020204 0.009756 -208158.000000 0 0 1
33.678423 -28.121005 -16.960953 47.039356 -0.695713 1.939675 0.027080 -0.001004 385117.000000 0 0 1
32.292423 -27.872805 -16.723453 45.818857 -0.712072 1.944419 0.075184 -0.003315 404178.000000 0 0 1
31.642123 -27.581105 -17.968753 45.659800 -0.716934 1.975271 0.077322 -0.008383 328021.000000 0 0 1
30.110123 -27.745205 -17.827653 44.656926 -0.744544 1.981455 0.087310 -0.018992 339369.000000 0 0 1
29.502323 -26.696305 -17.038453 43.282659 -0.735509 1.975401 0.083575 -0.018656 -632770.000000 0 0 1
28.160023 -26.924005 -16.757153 42.410978 -0.762963 1.976988 0.113129 -0.021372 -340878.000000 0 0 1
27.657123 -25.891505 -15.681253 41.002294 -0.752438 1.963241 0.093648 -0.023623 127000.000000 0 0 1
27.559623 -24.614905 -16.180353 40.338941 -0.729018 1.983525 0.097914 -0.026098 88016.600000 0 0 1
27.056023 -23.725705 -15.177753 39.055110 -0.719911 1.969934 0.097260 -0.020100 387.890000 0 0 1
26.982523 -22.236905 -15.598453 38.286397 -0.689278 1.990418 0.093331 -0.017929 -488746.000000 0 0 1
25.764723 -21.888805 -16.177553 37.478713 -0.704241 2.017114 0.101071 -0.017700 -443691.000000 0 0 1
25.587623 -20.468605 -16.172753 36.541047 -0.674705 2.029283 0.084055 -0.021191 87833.400000 0 0 1
24.127423 -19.954505 -16.233653 35.268205 -0.691017 2.049120 0.084041 -0.019372 19143.900000 0 0 1
23.335623 -20.299905 -15.131853 34.432694 -0.715940 2.025796 0.084019 -0.020144 984923.000000 0 0 1
22.002723 -19.736005 -15.161153 33.218824 -0.731144 2.044744 0.069387 -0.018202 1122550.000000 0 0 1
21.795923 -18.498605 -14.249153 31.942119 -0.703750 2.033191 0.061710 -0.013949 -121005.000000 0 0 1
21.215623 -18.792505 -12.964853 31.166461 -0.724906 1.999825 0.055352 -0.031075 329823.000000 0 0 1
20.853623 -17.578505 -12.292953 29.916452 -0.700385 1.994248 0.060790 -0.041696 -3919.560000 0 0 1
19.802123 -17.747405 -11.162253 28.839042 -0.730732 1.968230 0.074781 -0.039508 -345474.000000 0 0 1
20.432123 -18.268405 -10.001053 29.175800 -0.729547 1.920677 0.078610 -0.051458 -43181.300000 0 0 1
19.597423 -18.214905 -8.880753 28.190592 -0.748852 1.891280 0.064930 -0.050131 -364787.000000 0 0 1
20.133723 -18.873705 -7.555353 28.612355 -0.753107 1.838025 0.067734 -0.047411 -76793.900000 0 0 1
21.070223 -18.016705 -6.922253 28.574001 -0.707435 1.815488 0.066046 -0.047513 -224339.000000 0 0 1
21.682323 -18.744805 -5.915853 29.265819 -0.712864 1.774341 0.068115 -0.039119 411110.000000 0 0 1
23.074323 -18.102605 -5.533553 29.845416 -0.665239 1.757282 0.079941 -0.039661 677136.000000 0 0 1
24.018923 -18.181305 -6.581453 30.834786 -0.647939 1.785894 0.080561 -0.049383 214107.000000 0 0 1
25.153623 -17.376905 -6.308353 31.216292 -0.604546 1.774283 0.108532 -0.041038 277953.000000 0 0 1
26.305223 -17.578105 -7.346953 32.479720 -0.589088 1.798972 0.116699 -0.051133 115162.000000 0 0 1
27.165023 -18.652005 -7.147753 33.718335 -0.601688 1.784401 0.142162 -0.058994 -144413.000000 0 0 1
27.334923 -19.345805 -8.362053 34.516403 -0.615897 1.815494 0.141503 -0.060493 -182108.000000 0 0 1
28.271123 -20.531905 -8.154453 35.879111 -0.628127 1.800076 0.140737 -0.063641 -213779.000000 0 0 1
29.638723 -20.224805 -8.065653 36.777049 -0.598801 1.791906 0.133282 -0.039690 -11769.200000 0 0 1
30.383423 -21.453305 -7.955253 38.035282 -0.614799 1.781507 0.132253 -0.047791 200470.000000 0 0 1
-31.258447 29.589042 4.393347 43.265499 -0.757969 1.469077 0.077399 -0.015943 275142.000000 0 0 1
-30.609667 30.305842 3.375747 43.206382 -0.780411 1.492586 0.066704 -0.018314 -268264.000000 0 0 1
-29.573167 31.119142 3.891447 43.105876 -0.810865 1.480397 0.072612 -0.008633 199841.000000 0 0 1
-28.977907 32.098642 2.850747 43.337844 -0.836449 1.504969 0.065449 -0.010155 -383384.000000 0 0 1
-28.140047 31.459542 1.897347 42.251213 -0.841037 1.525875 0.067163 -0.020133 142491.000000 0 0 1
-27.743077 32.285642 0.794847 42.575495 -0.860927 1.552126 0.061593 -0.033672 -196837.000000 0 0 1
-26.674047 33.344042 1.156047 42.716114 -0.896077 1.543730 0.096446 -0.016459 -606803.000000 0 0 1
-25.364097 32.838442 1.247447 41.512129 -0.913119 1.540742 0.067771 -0.019210 -202494.000000 0 0 1
-24.562477 33.699542 2.048447 41.751294 -0.940958 1.521714 0.068601 -0.020061 126491.000000 0 0 1
-23.067977 33.365142 2.158647 40.620488 -0.965879 1.517629 0.073969 -0.034446 102320.000000 0 0 1
-22.357677 33.668142 0.983047 40.427415 -0.984600 1.546478 0.112543 -0.036232 200787.000000 0 0 1
-21.037077 33.132842 0.973847 39.259295 -1.005087 1.545988 0.118908 -0.038166 265102.000000 0 0 1
-20.147177 33.480142 -0.260253 39.075522 -1.029080 1.577457 0.133218 -0.040156 324361.000000 0 0 1
-19.826077 -32.816105 -0.499353 38.343440 1.027326 1.583820 0.127485 -0.034958 519811.000000 0 0 1
-19.077477 -32.149805 0.535547 37.387791 1.035249 1.556472 0.130190 -0.028303 -134247.000000 0 0 1
-19.014577 -30.657705 0.321647 36.077035 1.015640 1.561881 0.132062 -0.031517 358054.000000 0 0 1
-17.803877 -30.263405 -0.318353 35.113431 1.039026 1.579863 0.146076 -0.019304 392294.000000 0 0 1
-17.740177 -28.840605 -0.449253 33.862903 1.019340 1.584064 0.104267 -0.024970 248598.000000 0 0 1
-16.511877 -28.316405 -1.246953 32.802679 1.042881 1.608819 0.089847 -0.020143 190864.000000 0 0 1
-16.648677 -28.577305 -2.647153 33.179033 1.043281 1.650665 0.093078 -0.021022 954182.000000 0 0 1
-15.713677 -27.734205 -3.420153 32.059370 1.055312 1.677682 0.075821 -0.006287 702231.000000 0 0 1
-16.113977 -27.649905 -4.898853 32.375550 1.043130 1.722693 0.104513 -0.013613 -416314.000000 0 0 1
-17.332477 -27.011005 -5.128553 32.500941 1.000291 1.729256 0.104281 -0.009806 -745930.000000 0 0 1
-17.651177 -26.781805 -6.464653 32.720343 0.988069 1.769678 0.125976 -0.013025 98526.800000 0 0 1
-18.345377 -25.462105 -6.614553 32.072168 0.946446 1.778527 0.103739 -0.011072 -394596.000000 0 0 1
-17.428777 -24.479105 -6.308453 30.704811 0.952071 1.777725 0.057123 0.010249 -660487.000000 0 0 1
-17.917177 -23.176205 -6.594453 30.027463 0.912684 1.792215 0.041118 0.008053 5900.210000 0 0 1
-16.895477 -22.005605 -6.423653 28.477484 0.916012 1.798324 0.061353 0.010924 448655.000000 0 0 1
-15.904677 -22.074205 -7.467153 28.213253 0.946438 1.838656 0.082271 0.010919 -377176.000000 0 0 1
-14.872377 -21.185605 -7.152253 26.854649 0.958727 1.840382 0.088329 -0.016749 434245.000000 0 0 1
-13.888577 -20.916805 -8.374953 26.467813 0.984648 1.892750 0.084440 -0.013629 993097.000000 0 0 1
-14.512677 -20.167105 -9.453353 26.583751 0.947023 1.934359 0.106160 -0.009398 221374.000000 0 0 1
-13.630377 -20.254205 -10.545753 26.593851 0.978446 1.978550 0.103342 -0.003417 407986.000000 0 0 1
-14.103477 -19.345305 -11.763953 26.674697 0.940846 2.027526 0.123876 -0.001051 493822.000000 0 0 1
-15.293677 -19.840005 -12.385653 27.945067 0.914084 2.029978 0.096927 0.022219 205108.000000 0 0 1
-15.550877 -19.143905 -13.599553 28.164991 0.888591 2.074706 0.118509 0.002419 913040.000000 0 0 1
-16.843577 -19.686305 -14.330453 29.607745 0.863061 2.076028 0.128458 -0.002677 643348.000000 0 0 1
-18.022777 -19.544905 -13.595553 29.860724 0.825893 2.043504 0.114748 0.001838 -337532.000000 0 0 1
-19.176977 -19.755705 -14.374153 31.058986 0.800262 2.051950 0.107998 -0.002785 369867.000000 0 0 1
-20.537577 -19.684005 -13.600253 31.531238 0.764180 2.016759 0.077511 0.002917 642167.000000 0 0 1
-21.555977 -20.184705 -14.467453 32.884489 0.752558 2.026337 0.091330 -0.004830 723698.000000 0 0 1
-22.853477 -20.077205 -13.813753 33.409510 0.720819 1.997056 0.075397 -0.002037 1164710.000000 0 0 1
-23.922577 -20.665405 -14.791553 34.901844 0.712477 2.008438 0.089879 -0.015454 -92867.700000 0 0 1
-24.092277 -19.950205 -15.997953 35.133787 0.691627 2.043555 0.090178 -0.019198 -13505.700000 0 0 1
-24.893277 -20.638705 -16.899153 36.485788 0.692227 2.052366 0.097690 -0.022769 -322690.000000 0 0 1
-25.163107 -19.919805 -18.286553 36.937496 0.669615 2.088709 0.097803 -0.017668 100112.000000 0 0 1
-24.033677 -19.668805 -19.107053 36.463118 0.685851 2.122349 0.079800 -0.017987 552647.000000 0 0 1
-24.468677 -19.264005 -20.454453 37.258592 0.666944 2.151947 0.095751 -0.022406 333308.000000 0 0 1
-23.282877 -18.662905 -21.258753 36.637835 0.675699 2.189820 0.064713 -0.012569 504185.000000 0 0 1
-22.263277 -19.561405 -21.684253 36.722049 0.720888 2.202471 0.050066 -0.010940 522009.000000 0 0 1
-21.275477 -18.789705 -22.390653 36.153012 0.723434 2.238686 0.046702 -0.010411 793505.000000 0 0 1
-19.885277 -19.483205 -22.558953 35.831911 0.775185 2.251805 0.048542 -0.007691 318190.000000 0 0 1
-19.819977 -20.531705 -23.508953 36.973683 0.803034 2.259879 0.031670 -0.002547 427435.000000 0 0 1
-18.615877 -21.290405 -23.321953 36.657137 0.852318 2.260383 0.034496 -0.004504 484271.000000 0 0 1
-18.692477 -22.633305 -24.122753 37.994505 0.880471 2.258677 0.040774 -0.005507 -133819.000000 0 0 1
-18.518077 -22.438105 -25.493483 38.682107 0.880820 2.290353 0.043069 -0.009808 68119.900000 0 0 1
-18.708577 -23.659405 -26.172703 39.934805 0.901724 2.285490 0.061601 -0.010935 -135720.000000 0 0 1
-18.509077 -23.497805 -27.704073 40.770681 0.903604 2.317890 0.079251 -0.005287 -395970.000000 0 0 1
-17.159777 -23.499805 -28.075053 40.433988 0.940082 2.338303 0.062613 -0.006984 -406767.000000 0 0 1
-16.955277 -23.517505 -29.501533 41.362965 0.946139 2.364900 0.107575 -0.012123 1279520.000000 0 0 1
-15.407577 -23.367305 -29.834363 40.908600 0.987866 2.388085 0.065537 -0.019651 1422120.000000 0 0 1
-14.680977 -24.591405 -29.644453 41.219678 1.032588 2.373421 0.079921 -0.008539 -230263.000000 0 0 1
-13.348677 -24.323805 -30.011133 40.871784 1.068882 2.395395 0.103458 -0.013662 -205701.000000 0 0 1
-12.428277 -25.532705 -29.818733 41.176910 1.117797 2.380614 0.099554 -0.015845 -779424.000000 0 0 1
-12.698777 -26.639205 -30.739973 42.612816 1.125966 2.376587 0.093440 -0.006787 838751.000000 0 0 1
-11.648377 -27.606605 -30.580633 42.813367 1.171519 2.366388 0.073626 -0.009849 1213270.000000 0 0 1
-10.220977 -27.337505 -31.142603 42.681017 1.213007 2.388620 0.081732 -0.014298 327027.000000 0 0 1
-9.504177 -26.296205 -30.447403 41.338409 1.223977 2.398737 0.114899 -0.035043 -123761.000000 0 0 1
-8.329377 -26.025305 -31.182993 41.461718 1.261049 2.422026 0.110436 -0.028895 -227526.000000 0 0 1
-7.534477 -24.825405 -30.662073 40.165057 1.276133 2.439360 0.167207 -0.045369 -922890.000000 0 0 1
-8.220877 -23.591005 -30.709783 39.587992 1.235481 2.458675 0.178378 -0.038202 365312.000000 0 0 1
-9.165377 -23.321405 -29.667993 38.834029 1.196337 2.440238 0.158207 -0.027671 313784.000000 0 0 1
-9.429177 -21.793705 -29.530723 37.893780 1.162459 2.464349 0.175036 -0.041547 154642.000000 0 0 1
-10.158577 -21.345805 -30.687633 38.737203 1.126610 2.485203 0.165711 -0.039138 114642.000000 0 0 1
-10.527877 -20.021905 -30.437273 37.922822 1.086708 2.502456 0.192112 -0.040235 188559.000000 0 0 1
-11.265377 -19.403505 -31.665103 38.808291 1.044775 2.525144 0.171112 -0.042064 214572.000000 0 0 1
-11.903377 -18.157405 -31.468113 38.231189 0.990518 2.537646 0.163907 -0.040148 2975.400000 0 0 1
-12.560477 -17.754805 -32.637703 39.220126 0.955094 2.553801 0.155581 -0.033741 -411808.000000 0 0 1
-13.451177 -16.506005 -32.356713 38.734212 0.887020 2.559570 0.150202 -0.038587 -267242.000000 0 0 1
-13.077277 -15.129305 -32.432203 38.101953 0.858020 2.589055 0.159441 -0.038307 -1018760.000000 0 0 1
-12.242677 -14.668505 -31.440923 36.791029 0.875297 2.595540 0.165984 -0.032282 -420128.000000 0 0 1
-11.928377 -13.228305 -31.740043 36.396491 0.837025 2.630199 0.143083 -0.039151 400184.000000 0 0 1
-11.071677 -13.048505 -32.912093 37.095166 0.867173 2.662111 0.145545 -0.035221 452249.000000 0 0 1
-11.686977 -13.113705 33.571428 37.889253 0.842863 0.482062 0.151935 -0.039290 146250.000000 0 0 1
-12.598077 -11.918805 33.079453 37.349962 0.757699 0.482878 0.119752 -0.027528 613196.000000 0 0 1
-13.895977 -11.865505 33.631199 38.274613 0.706743 0.497703 0.113076 -0.024189 -316030.000000 0 0 1
-14.785577 -11.197505 32.762098 37.647742 0.648173 0.515133 0.076394 -0.025754 809356.000000 0 0 1
-15.828977 -10.236705 33.433904 38.381931 0.574057 0.513390 0.074277 -0.025018 808392.000000 0 0 1
-15.157877 -9.329405 -33.432743 37.875418 0.551726 2.652380 0.089724 -0.028720 -263456.000000 0 0 1
-16.106177 -8.551305 -32.795593 37.524454 0.488087 2.634128 0.077106 -0.032383 -181450.000000 0 0 1
-15.530177 -7.569105 -31.710173 36.111117 0.453501 2.642731 0.076657 -0.041901 -61889.000000 0 0 1
-14.919777 -6.402005 -32.232183 36.090151 0.405334 2.674990 0.071380 -0.046512 809143.000000 0 0 1
-15.809877 -5.241505 -32.271163 36.316023 0.320130 2.665125 0.062190 -0.032443 656867.000000 0 0 1
-16.241977 -4.675605 -30.870213 35.194220 0.280293 2.640668 0.074741 -0.043881 57624.100000 0 0 1
-16.910777 -5.512705 -29.949663 34.833125 0.315125 2.605682 0.081234 -0.045935 -132765.000000 0 0 1
-17.119377 -5.020405 -28.636023 33.738692 0.285261 2.584431 0.089323 -0.051246 -406311.000000 0 0 1
-15.880277 -4.634205 -27.834983 32.379705 0.283937 2.605367 0.079857 -0.051706 -232159.000000 0 0 1
-15.360177 -3.379705 -28.247403 32.330685 0.216579 2.633559 0.081711 -0.043339 -1526450.000000 0 0 1
-14.256777 -2.955405 -27.621123 31.223653 0.204403 2.656479 0.063974 -0.041298 -1432790.000000 0 0 1
-13.610777 -1.710305 -28.243673 31.398781 0.125003 2.689454 0.032086 -0.017059 163451.000000 0 0 1
-13.491577 -1.749305 -29.656423 32.627996 0.128940 2.711496 0.035189 -0.024491 178229.000000 0 0 1
-13.950677 -0.493305 -30.159093 33.233050 0.035346 2.708097 0.036651 -0.023976 90193.100000 0 0 1
-14.076577 -0.425305 -31.699993 34.687468 0.030204 2.723523 0.033202 -0.026372 -22549.800000 0 0 1
-15.258577 -1.044305 -32.193563 35.641833 0.068334 2.698085 0.034152 -0.025692 406881.000000 0 0 1
-15.237577 -1.039305 -33.587293 36.896750 0.068101 2.714816 0.036063 -0.021263 -253212.000000 0 0 1
-16.596177 -1.330305 33.505163 37.413885 0.079986 0.461181 0.040237 -0.017467 -159773.000000 0 0 1
-16.461277 -1.618305 32.136432 36.143365 0.097995 0.475339 0.037962 -0.014421 -436789.000000 0 0 1
-17.714277 -1.690305 31.557375 36.228727 0.095132 0.513441 0.042170 -0.010265 -564500.000000 0 0 1
-17.620577 -1.381305 30.029005 34.844424 0.078232 0.531984 0.042416 -0.001554 73888.900000 0 0 1
-17.099677 -0.130305 29.696025 34.267621 0.007620 0.522466 0.038242 0.005253 152959.000000 0 0 1
-17.356477 0.157695 28.297745 33.196906 -0.009085 0.550198 0.044605 -0.007121 -202383.000000 0 0 1
-17.006377 1.656695 28.014985 32.814645 -0.097110 0.547681 0.051004 -0.009581 99428.900000 0 0 1
-17.986877 2.604695 28.395865 33.714053 -0.143811 0.569342 0.042099 -0.005247 796042.000000 0 0 1
-19.224277 2.635695 27.665265 33.791813 -0.136253 0.611658 0.044292 -0.011306 415246.000000 0 0 1
-19.207177 3.283695 26.247395 32.689816 -0.169325 0.638614 0.062008 -0.019032 -1045140.000000 0 0 1
-18.840877 4.610695 26.263935 32.650137 -0.240001 0.636123 0.066327 -0.019256 269790.000000 0 0 1
-19.033777 5.142695 24.947925 31.798286 -0.263887 0.668797 0.070987 -0.021199 -1198470.000000 0 0 1
-18.885177 6.706695 24.900395 31.963407 -0.341238 0.677682 0.073266 -0.018119 117572.000000 0 0 1
-17.555077 7.183695 24.928575 31.324433 -0.388420 0.650438 0.082298 -0.021646 370080.000000 0 0 1
-16.719277 6.740695 23.870875 29.913039 -0.383235 0.646812 0.074629 -0.025735 -355499.000000 0 0 1
-15.418877 7.538695 23.586885 29.170445 -0.454750 0.629047 0.071173 -0.014617 -185820.000000 0 0 1
-14.367577 7.294695 24.468055 29.297194 -0.469804 0.582360 0.076768 -0.024406 -899282.000000 0 0 1
-13.262477 7.923695 23.921415 28.476523 -0.538544 0.573440 0.072525 -0.024550 -1150200.000000 0 0 1
-12.090677 8.079695 24.894695 28.830744 -0.589104 0.528673 0.063553 -0.009504 595008.000000 0 0 1
-10.936377 8.590695 24.135315 27.855302 -0.665846 0.522743 0.042802 -0.014722 1234160.000000 0 0 1
-9.737777 8.692695 24.874365 28.091303 -0.728755 0.483264 0.044775 -0.021216 -188806.000000 0 0 1
-9.650477 10.001695 25.732915 29.246343 -0.803268 0.495212 0.046281 -0.027056 -1064530.000000 0 0 1
-10.660177 10.241695 26.676025 30.498230 -0.765380 0.506032 0.040057 -0.028007 -68350.200000 0 0 1
-10.645377 11.586695 27.172295 31.399191 -0.827713 0.524884 0.054733 -0.033052 -663306.000000 0 0 1
-11.236777 12.705695 26.262915 31.264046 -0.846673 0.573447 0.047398 -0.035770 934881.000000 0 0 1
-12.661177 12.593695 26.056145 31.588436 -0.782726 0.600836 0.055364 -0.036425 1031500.000000 0 0 1
-13.027677 11.672695 25.041895 30.546174 -0.730596 0.609727 0.050049 -0.032408 28675.100000 0 0 1
-14.559377 11.579695 24.733545 30.948555 -0.671895 0.644862 0.061799 -0.029949 514799.000000 0 0 1
-14.993977 12.764695 24.102655 31.123862 -0.705261 0.685013 0.057845 -0.039675 -202335.000000 0 0 1
-16.287977 12.633695 23.555095 31.300974 -0.659713 0.718892 0.071842 -0.029245 -4607.370000 0 0 1
-16.456377 12.016695 22.116485 30.072450 -0.630718 0.744480 0.060779 -0.011853 -320160.000000 0 0 1
-16.276177 10.583695 22.061485 29.387713 -0.576556 0.721669 0.061784 -0.012537 112889.000000 0 0 1
-16.411277 10.178695 20.727285 28.329423 -0.555159 0.750054 0.072258 -0.018841 -11791.100000 0 0 1
-17.018277 8.769695 20.465285 28.024226 -0.475821 0.752077 0.075025 -0.016743 -520935.000000 0 0 1
-18.394977 8.749695 20.633285 28.994221 -0.443984 0.778974 0.081197 -0.006629 -1052440.000000 0 0 1
-18.938577 7.536695 20.274685 28.749510 -0.378742 0.788065 0.079052 -0.010375 -943856.000000 0 0 1
-20.407177 7.485695 20.634885 29.971437 -0.351577 0.811398 0.086899 -0.011980 -755588.000000 0 0 1
-20.484677 7.456695 22.020685 30.986044 -0.349104 0.780354 0.082806 -0.020784 501341.000000 0 0 1
-21.873077 7.433695 22.357585 32.148918 -0.327609 0.801767 0.079116 -0.021671 457052.000000 0 0 1
-22.194977 8.220695 23.633545 33.447591 -0.354719 0.786137 0.084517 -0.021131 -776135.000000 0 0 1
-22.251077 9.668695 23.674925 33.898322 -0.409912 0.797623 0.084532 -0.022455 117574.000000 0 0 1
-21.106477 10.449695 23.392745 33.194880 -0.459715 0.788783 0.084419 -0.017115 130610.000000 0 0 1
-19.874277 10.287695 24.303545 33.037644 -0.477659 0.744197 0.089056 -0.022502 -277921.000000 0 0 1
-20.062477 10.880695 25.560145 34.266800 -0.496944 0.728888 0.099062 -0.025182 83024.600000 0 0 1
-20.245977 9.916695 26.581475 34.854200 -0.455463 0.703400 0.085775 -0.021722 11940.700000 0 0 1
-31.878527 -13.495358 20.156085 40.057870 0.400461 1.043528 0.068414 -0.009345 -82057.200000 0 0 1
-31.339107 -14.799858 20.283285 40.157031 0.441201 1.041299 0.080134 -0.019466 -39949.600000 0 0 1
-31.953867 -15.854558 19.577285 40.690131 0.460579 1.068852 0.075350 -0.006210 -5247.990000 0 0 1
-31.668967 -15.846258 18.060985 39.752064 0.463945 1.099164 0.081714 -0.001351 -115385.000000 0 0 1
-32.539397 -14.931458 17.481585 39.841770 0.430208 1.116561 0.075714 -0.015855 -318576.000000 0 0 1
-32.144987 -14.770358 16.146685 38.886747 0.430719 1.142608 0.072959 -0.018512 -1633250.000000 0 0 1
-32.849597 -13.594858 15.416985 38.750479 0.392390 1.161621 0.074908 -0.024361 -1747260.000000 0 0 1
-34.132635 -13.861758 15.085485 39.809006 0.385766 1.182139 0.089031 -0.023101 -559227.000000 0 0 1
-35.055610 -13.847358 16.239185 41.040910 0.376198 1.163985 0.087173 -0.019361 -901009.000000 0 0 1
-35.837352 -12.566558 16.516385 41.412863 0.337258 1.160564 0.087325 -0.020581 -306755.000000 0 0 1
-36.761707 -12.853458 17.550885 42.716134 0.336356 1.147385 0.067563 -0.022189 -11958.200000 0 0 1
-37.422817 -11.732958 18.080285 43.185950 0.303818 1.138826 0.065443 -0.019241 -135762.000000 0 0 1
36.708904 -12.064058 19.160685 43.130233 -0.317522 1.110457 0.065401 -0.013259 -408343.000000 0 0 1
37.321954 -12.532758 20.342885 44.315136 -0.323970 1.093870 0.061370 -0.011690 84020.200000 0 0 1
36.600764 -12.108258 21.498885 44.141000 -0.319487 1.062087 0.054732 -0.012560 -983937.000000 0 0 1
37.275324 -12.506958 22.842485 45.471451 -0.323725 1.044484 0.045509 -0.020550 932597.000000 0 0 1
-36.604887 -11.887358 23.090555 44.882077 0.314004 1.030405 0.061047 -0.019280 983570.000000 0 0 1
-35.511961 -12.385058 22.327885 43.738124 0.335567 1.035042 0.055711 -0.024523 -711364.000000 0 0 1
-34.214530 -11.597258 22.358385 42.485620 0.326803 1.016603 0.072303 -0.021395 -214670.000000 0 0 1
-34.292971 -10.427358 21.566785 41.831375 0.295184 1.029130 0.091979 -0.020595 755600.000000 0 0 1
-32.996317 -9.798758 21.611685 40.642804 0.288670 1.010134 0.104451 -0.028520 679446.000000 0 0 1
-32.937757 -8.484858 20.771585 39.854077 0.252121 1.022550 0.116947 -0.012658 37737.200000 0 0 1
-33.120187 -8.638258 19.371685 39.329741 0.255132 1.055784 0.121223 -0.015291 892887.000000 0 0 1
-34.499798 -8.748358 18.980385 40.336396 0.248342 1.080880 0.107729 -0.015794 501105.000000 0 0 1
-34.698574 -8.757658 17.451785 39.815229 0.247229 1.117068 0.120939 -0.016326 -69688.000000 0 0 1
-36.059637 -8.517358 17.174285 40.838694 0.231951 1.136756 0.062182 -0.010414 -4997.150000 0 0 1
-36.377587 -8.620858 15.808485 40.590100 0.232690 1.170744 0.077070 -0.006525 -511917.000000 0 0 1
37.269864 -8.511658 15.533485 41.264758 -0.224528 1.184851 0.063377 -0.011386 -555377.000000 0 0 1
36.632364 -9.690458 15.872185 41.082372 -0.258609 1.174125 0.055088 -0.006878 -721817.000000 0 0 1
35.301814 -9.539958 15.454285 39.699670 -0.263935 1.170947 0.044116 -0.001180 -417928.000000 0 0 1
34.520954 -10.870158 15.499885 39.371348 -0.305057 1.166160 0.038251 -0.011992 -116359.000000 0 0 1
34.200054 -11.267658 16.821585 39.743799 -0.318263 1.133766 0.032150 -0.017242 364337.000000 0 0 1
32.955374 -11.957958 16.841485 38.893252 -0.348079 1.122958 0.052735 -0.019602 305118.000000 0 0 1
32.479434 -12.381058 18.250185 39.259056 -0.364192 1.087313 0.047873 -0.019451 -205759.000000 0 0 1
33.304814 -13.403158 18.733085 40.494243 -0.382607 1.089858 0.035315 -0.011831 -32177.600000 0 0 1
33.338904 -13.432058 20.134785 41.198450 -0.382999 1.060167 0.043363 -0.014948 -333647.000000 0 0 1
33.982404 -14.639158 20.840585 42.466913 -0.406762 1.057847 0.036819 -0.013496 95199.900000 0 0 1
34.188414 -14.529758 22.248685 43.300872 -0.401863 1.031169 0.038566 -0.020735 -49992.500000 0 0 1
34.838514 -15.722558 22.707655 44.458503 -0.423933 1.034727 0.031497 -0.008554 286305.000000 0 0 1
35.216434 -15.718558 24.200495 45.529488 -0.419807 1.010385 0.046704 -0.014247 121906.000000 0 0 1
36.351124 -14.909058 24.406485 46.253224 -0.389217 1.014940 0.046475 -0.015203 -285659.000000 0 0 1
36.726074 -14.884458 25.727125 47.246551 -0.385052 0.994969 0.047518 -0.018294 38902.100000 0 0 1
-37.153687 -14.056458 26.069685 47.514303 0.361689 0.990023 0.041799 -0.021808 426503.000000 0 0 1
-35.907368 -14.640458 25.746165 46.546183 0.387151 0.984678 0.026769 -0.016928 339994.000000 0 0 1
-34.878537 -13.668958 25.863915 45.522466 0.373506 0.966532 0.037964 -0.024990 519380.000000 0 0 1
-33.412617 -14.112258 25.659745 44.429510 0.399635 0.955086 0.036019 -0.018877 129187.000000 0 0 1
-33.123027 -14.490958 24.279625 43.550235 0.412401 0.979415 0.040222 -0.020295 -697048.000000 0 0 1
-31.818377 -14.891558 24.036295 42.566549 0.437736 0.970756 0.052865 -0.027705 -725640.000000 0 0 1
-31.394007 -16.313458 24.418075 42.987847 0.479233 0.966695 0.055183 -0.020894 -740554.000000 0 0 1
-31.232997 -16.465858 25.804405 43.732047 0.485166 0.939667 0.053550 -0.018468 167709.000000 0 0 1
-31.062467 -17.828758 26.209895 44.381304 0.521056 0.939042 0.062203 -0.023141 -331516.000000 0 0 1
-30.652347 -17.986758 27.679325 45.047030 0.530656 0.909103 0.062734 -0.036485 -568321.000000 0 0 1
-29.357247 -17.492758 27.863155 44.093083 0.537369 0.886773 0.071433 -0.035170 -419458.000000 0 0 1
-28.881547 -17.658458 29.195925 44.703098 0.548767 0.859116 0.082199 -0.045344 728091.000000 0 0 1
-27.518877 -16.931058 29.452895 43.719817 0.551559 0.831628 0.072869 -0.037341 430400.000000 0 0 1
-27.679867 -15.562758 29.837805 43.573721 0.512193 0.816514 0.089691 -0.043212 570918.000000 0 0 1
-26.440897 -14.842758 29.740485 42.472638 0.511520 0.795081 0.077603 -0.035348 399882.000000 0 0 1
-26.573897 -13.418958 30.403515 42.551313 0.467614 0.774867 0.077713 -0.030422 -92172.500000 0 0 1
-26.077597 -13.299358 31.711701 43.157224 0.471609 0.745432 0.073583 -0.029608 42004.400000 0 0 1
-26.099097 -11.932458 32.230063 43.154645 0.428824 0.727483 0.076153 -0.024728 -140517.000000 0 0 1
-25.357377 -11.925358 33.605072 43.755133 0.439600 0.695044 0.071334 -0.029892 306867.000000 0 0 1
-23.949677 -12.099458 33.588531 42.990387 0.467802 0.674045 0.052528 -0.024379 458730.000000 0 0 1
-23.485077 -13.477858 33.640005 43.183926 0.521000 0.677737 0.052602 -0.018255 -164842.000000 0 0 1
-23.435577 -14.173058 -32.696973 42.652009 0.543917 2.444324 0.046692 -0.017513 14416.500000 0 0 1
-22.422177 -13.709158 -31.775363 41.235527 0.548767 2.450550 0.024578 -0.009997 366396.000000 0 0 1
-22.515877 -14.444158 -30.585323 40.633242 0.570384 2.422975 0.034197 -0.003444 -840070.000000 0 0 1
-21.218577 -14.759958 -29.876953 39.505907 0.607777 2.428382 0.026013 -0.002178 -510554.000000 0 0 1
-20.701277 -13.640358 -29.153223 38.268951 0.582616 2.436881 0.038587 -0.011677 85045.000000 0 0 1
-21.175977 -13.635658 -27.804503 37.515911 0.572090 2.405562 0.043232 -0.006654 -200576.000000 0 0 1
-20.663277 -12.583558 -26.812113 36.113797 0.546998 2.407493 0.050188 -0.013973 -201716.000000 0 0 1
-19.334677 -12.648258 -26.352023 35.046216 0.579304 2.421769 0.044517 -0.016341 -179316.000000 0 0 1
-18.895277 -11.445258 -25.791103 33.958893 0.544615 2.433310 0.060287 -0.022928 334362.000000 0 0 1
-17.536377 -11.662858 -25.070953 32.742930 0.586894 2.442911 0.075323 -0.029689 -409963.000000 0 0 1
-17.600177 -12.357958 -23.843653 32.109269 0.612167 2.407708 0.076539 -0.028346 419480.000000 0 0 1
-16.346677 -12.673458 -23.238553 31.110460 0.659493 2.414288 0.083759 -0.033743 808330.000000 0 0 1
-15.365177 -13.651058 -23.996253 31.595256 0.726392 2.433324 0.064224 -0.029633 -597341.000000 0 0 1
-14.584577 -12.976158 -24.922553 31.657925 0.727105 2.477125 0.062340 -0.029868 -348306.000000 0 0 1
-13.847677 -13.854658 -25.740223 32.346078 0.785650 2.491084 0.087320 -0.035140 -564695.000000 0 0 1
-12.925777 -13.002358 -26.641363 32.340365 0.788352 2.538844 0.107782 -0.032558 -259939.000000 0 0 1
-13.548977 -12.301958 -27.700833 33.200137 0.737197 2.557765 0.111858 -0.034972 -101286.000000 0 0 1
-12.685477 -11.500258 -28.483373 33.233715 0.736432 2.600337 0.102284 -0.029662 191452.000000 0 0 1
-13.523977 -10.357058 -29.130393 33.745316 0.653555 2.612455 0.098945 -0.036431 332993.000000 0 0 1
-12.784877 -9.379058 -29.866173 33.814318 0.632926 2.653525 0.090709 -0.028107 149004.000000 0 0 1
-12.364977 -9.850558 -31.150993 34.932943 0.672695 2.671965 0.109514 -0.022592 297224.000000 0 0 1
-11.548577 -8.805158 -31.968813 35.112753 0.651419 2.715195 0.098290 -0.028524 1178760.000000 0 0 1
-10.175477 -8.534958 -31.633683 34.308537 0.697942 2.744102 0.100267 -0.030821 917139.000000 0 0 1
-9.711477 -7.248658 -32.007193 34.224497 0.641194 2.779656 0.083344 -0.030983 1862420.000000 0 0 1
-8.115977 -7.003458 -31.998283 33.746224 0.711948 2.818328 0.103148 -0.028643 2129080.000000 0 0 1
-7.491677 -6.958658 -30.706763 32.364385 0.748529 2.820156 0.085905 -0.025600 96249.500000 0 0 1
-7.623177 -5.720158 -29.979223 31.457699 0.643734 2.833788 0.062529 -0.022734 -160128.000000 0 0 1
-6.761577 -4.485158 -30.349003 31.414925 0.585689 2.880349 0.065873 -0.024065 -349989.000000 0 0 1
-5.408577 -4.526558 -29.998453 30.816385 0.696853 2.910680 0.094676 -0.026169 -418514.000000 0 0 1
-4.790377 -3.322358 -30.324133 30.879424 0.606383 2.951663 0.097994 -0.047910 -731241.000000 0 0 1
-3.297777 -3.162458 -30.086383 30.431347 0.764455 2.990879 0.083260 -0.034238 -943899.000000 0 0 1
-2.518577 -3.913758 -31.013233 31.360506 0.998991 2.992636 0.102923 -0.036835 837082.000000 0 0 1
-1.103177 -3.735158 -30.817613 31.062737 1.283611 3.015881 0.100133 -0.041829 948257.000000 0 0 1
-0.527877 -2.416758 -31.457983 31.555095 1.355750 3.063118 0.097441 -0.043310 -135158.000000 0 0 1
0.853623 -2.297658 -31.091543 31.188009 -1.215081 3.062920 0.103692 -0.029529 671627.000000 0 0 1
1.469023 -1.031458 -31.348883 31.400229 -0.612160 3.084397 0.063237 -0.028613 75697.000000 0 0 1
1.343123 -0.059158 -30.240543 30.270413 -0.044017 3.097164 0.070904 -0.034642 -485020.000000 0 0 1
0.030623 0.257642 -29.856343 29.857470 1.452494 3.132903 0.087565 -0.030201 -856658.000000 0 0 1
-0.031877 0.866242 -28.652943 28.666052 -1.534013 3.111349 0.097095 -0.048029 -289310.000000 0 0 1
-1.440177 1.225042 -28.190683 28.254016 -0.704853 3.074624 0.091419 -0.038413 -480480.000000 0 0 1
-2.193177 2.139042 -28.948623 29.110278 -0.772903 3.036157 0.093983 -0.059124 -256078.000000 0 0 1
-2.002377 3.438442 -28.473763 28.750436 -1.043456 3.002749 0.122801 -0.053560 -505912.000000 0 0 1
-3.129377 4.261042 -29.066373 29.543248 -0.937344 2.961675 0.151211 -0.054653 -330657.000000 0 0 1
-3.012377 4.426542 -30.461083 30.928082 -0.973260 2.967595 0.151438 -0.059649 -46762.200000 0 0 1
-4.176577 5.054042 -30.929903 31.617179 -0.880174 2.932707 0.162829 -0.053793 -464769.000000 0 0 1
-4.059277 5.777042 -32.314593 33.076953 -0.958290 2.926478 0.158512 -0.045267 -167731.000000 0 0 1
-3.843877 4.965142 -33.453133 34.037334 -0.912003 2.956051 0.176036 -0.046117 643957.000000 0 0 1
-2.573777 4.306642 -33.508643 33.882158 -1.032122 2.992971 0.163408 -0.050904 121548.000000 0 0 1
-2.249077 3.595642 32.867979 33.140475 -1.011837 0.128326 0.120070 -0.048534 -510960.000000 0 0 1
-3.020077 2.482442 32.569207 32.802998 -0.688000 0.119462 0.130158 -0.052712 -192832.000000 0 0 1
-2.743077 1.892042 31.287465 31.464421 -0.603815 0.106106 0.122670 -0.039529 -39609.600000 0 0 1
-2.770277 2.808942 29.995015 30.253356 -0.792328 0.130778 0.109194 -0.035843 -433111.000000 0 0 1
-3.970477 3.499142 29.852125 30.317620 -0.722381 0.175462 0.098731 -0.042645 -297057.000000 0 0 1
-3.798877 4.422842 28.803345 29.387509 -0.861145 0.199721 0.091517 -0.044569 -300829.000000 0 0 1
-5.044377 5.270742 28.612195 29.527685 -0.807340 0.249664 0.088185 -0.040971 -453351.000000 0 0 1
-5.068977 6.133542 27.522965 28.650105 -0.880143 0.281433 0.086144 -0.034357 -749796.000000 0 0 1
-6.269177 6.830642 27.447795 28.971395 -0.828232 0.325752 0.077776 -0.031051 -870884.000000 0 0 1
-6.444077 7.684142 26.158885 28.015343 -0.872946 0.366090 0.074095 -0.027088 -372239.000000 0 0 1
-5.608677 8.826542 26.173525 28.185431 -1.004730 0.380123 0.099578 -0.028231 54320.500000 0 0 1
-5.691677 9.538242 25.009515 27.365108 -1.032791 0.417958 0.082461 -0.026322 -63778.100000 0 0 1
-4.836277 10.815142 25.109425 27.764008 -1.150293 0.440854 0.085120 -0.027863 -924080.000000 0 0 1
-4.864677 11.536542 23.888485 26.970662 -1.171745 0.482751 0.099276 -0.032596 445113.000000 0 0 1
-4.130677 12.754742 24.014275 27.503297 -1.257601 0.509186 0.092547 -0.026332 -458985.000000 0 0 1
-2.603577 12.717042 24.169385 27.434667 -1.368856 0.492867 0.090698 -0.020506 -756703.000000 0 0 1
-1.931677 12.230342 25.337725 28.201294 -1.414149 0.454548 0.105012 -0.027464 125374.000000 0 0 1
-2.214877 12.933842 26.521475 29.590178 -1.401195 0.459457 0.093483 -0.028275 -956144.000000 0 0 1
-1.407477 12.547342 27.735065 30.473770 -1.459090 0.427201 0.098252 -0.031002 94473.800000 0 0 1
-0.084977 13.060442 27.704755 30.629003 -1.564290 0.440528 0.103068 -0.026963 -212756.000000 0 0 1
0.596423 12.969742 28.916105 31.697178 1.524843 0.422025 0.105119 -0.030458 -664789.000000 0 0 1
2.107623 13.022342 28.749835 31.631891 1.410341 0.430187 0.099842 -0.024861 -538631.000000 0 0 1
2.622923 14.310542 28.372555 31.885314 1.389522 0.473821 0.089818 -0.024057 -149916.000000 0 0 1
4.020323 14.161642 28.247775 31.853601 1.294186 0.480422 0.094366 -0.025217 -162195.000000 0 0 1
4.826323 15.409442 28.616845 32.858304 1.267269 0.513732 0.088625 -0.025724 -382220.000000 0 0 1
4.731223 15.963042 29.938935 34.257014 1.282658 0.507524 0.101291 -0.018973 351993.000000 0 0 1
3.790923 17.035942 30.150685 34.837598 1.351839 0.524721 0.078641 -0.018550 223566.000000 0 0 1
4.008823 18.326042 29.387855 34.864890 1.355439 0.568133 0.078173 -0.015147 -318426.000000 0 0 1
4.995623 19.131242 29.966545 35.902013 1.315376 0.583252 0.103074 -0.014651 -441320.000000 0 0 1
5.514723 20.044342 29.068575 35.737514 1.302313 0.620838 0.080636 -0.013982 -196246.000000 0 0 1
6.696323 20.827142 29.670785 36.864157 1.259716 0.635343 0.082274 -0.012671 -236751.000000 0 0 1
6.329323 21.604842 30.811755 38.160107 1.285812 0.631007 0.086681 -0.026635 -450457.000000 0 0 1
7.372023 22.341742 31.360375 39.204251 1.252079 0.643630 0.059044 -0.025566 -480422.000000 0 0 1
7.605523 23.743942 30.714665 39.560200 1.260808 0.681858 0.059497 -0.020045 -12897.000000 0 0 1
8.113423 23.669942 29.413945 38.617017 1.240574 0.704889 0.029440 -0.015509 88795.800000 0 0 1
8.015823 24.962142 28.823005 38.963157 1.260078 0.738097 0.030180 -0.014806 -105867.000000 0 0 1
8.429623 24.961742 27.351745 37.977165 1.245119 0.766683 0.050109 -0.015095 -441422.000000 0 0 1
7.606523 24.221542 26.509785 36.705735 1.266509 0.763783 0.051731 -0.020900 -305065.000000 0 0 1
8.098523 24.301642 25.183425 35.921592 1.249121 0.793904 0.060507 -0.022169 -153182.000000 0 0 1
27.921164 3.111442 7.375947 29.046119 0.110979 1.314046 0.236085 -0.017501 198398.000000 0 0 1
28.963264 4.052642 7.664747 30.233143 0.139021 1.314478 0.224549 -0.045420 504650.000000 0 0 1
29.173564 4.136042 9.042447 30.821576 0.140835 1.273035 0.193086 -0.022582 -185575.000000 0 0 1
30.149344 5.198342 9.510147 32.038236 0.170741 1.269417 0.192285 -0.023342 -86636.300000 0 0 1
29.579264 6.504242 9.457547 31.728271 0.216447 1.268116 0.192487 -0.029956 82937.300000 0 0 1
29.992264 7.194642 8.283947 31.936226 0.235435 1.308405 0.204882 -0.048741 -123278.000000 0 0 1
29.387564 8.607142 8.022947 31.655639 0.284915 1.314557 0.234691 -0.052019 309396.000000 0 0 1
28.106964 8.615742 7.405747 30.316291 0.297441 1.324016 0.177727 -0.054092 254142.000000 0 0 1
28.006364 9.555342 6.362147 30.267770 0.328800 1.359021 0.198990 -0.082794 -143658.000000 0 0 1
26.814564 9.436142 5.357347 28.926852 0.338370 1.384518 0.165545 -0.065367 -395255.000000 0 0 1
25.631164 9.816442 5.959147 28.086127 0.365756 1.356997 0.140499 -0.058432 -745564.000000 0 0 1
24.556564 9.773342 5.030147 26.904375 0.378775 1.382726 0.174719 -0.056890 -60945.600000 0 0 1
23.319864 10.557842 5.465147 26.175407 0.425130 1.360459 0.081508 -0.048588 -399223.000000 0 0 1
23.573564 11.923642 5.609247 27.006477 0.468281 1.361573 0.077568 -0.039289 462751.000000 0 0 1
22.564664 12.578642 6.394247 26.613393 0.508544 1.328158 0.071743 -0.022402 256381.000000 0 0 1
22.747864 14.121342 6.499747 27.552211 0.555557 1.332645 0.066643 -0.004394 34499.400000 0 0 1
22.561864 14.727042 5.216647 27.443339 0.578299 1.379545 0.061176 -0.007231 302515.000000 0 0 1
22.584764 16.112342 5.427847 28.269076 0.619674 1.377590 0.101836 -0.014930 -158944.000000 0 0 1
22.310564 16.900742 4.159747 28.296640 0.648298 1.423257 0.096765 -0.023359 30026.300000 0 0 1
20.945664 16.800342 3.793247 27.117541 0.676015 1.430454 0.108974 -0.009352 484026.000000 0 0 1
20.521364 17.764042 2.790147 27.285023 0.713502 1.468358 0.100334 -0.010023 3284.830000 0 0 1
19.014164 17.650142 2.474647 26.061270 0.748212 1.475698 0.083985 -0.009108 115488.000000 0 0 1
18.205664 18.006442 3.603447 25.858519 0.779897 1.430989 0.086986 -0.021483 581829.000000 0 0 1
16.831364 17.908942 3.246347 24.790397 0.816406 1.439467 0.073997 -0.031512 -214734.000000 0 1 0
15.972964 18.953242 3.919747 25.094330 0.870523 1.413954 0.086796 -0.038356 93668.300000 0 0 1
14.587564 18.695142 3.684847 23.997572 0.908192 1.416636 0.092357 -0.044881 312749.000000 0 1 0
13.816364 19.823442 3.910547 24.477605 0.962106 1.410349 0.071335 -0.042340 -79002.700000 0 1 0
12.282164 19.703942 3.882447 23.540821 1.013395 1.405115 0.055028 -0.038859 102580.000000 0 1 0
11.682064 19.060842 4.991847 22.906437 1.020958 1.351110 0.048960 -0.043472 -982611.000000 0 1 0
10.315564 19.209542 4.888547 22.345363 1.077987 1.350240 0.047378 -0.028892 -945340.000000 0 1 0
9.501064 18.732342 6.107947 21.874137 1.101404 1.287803 0.037985 -0.023871 -458813.000000 0 1 0
9.575164 19.519242 7.285247 22.929444 1.114737 1.247468 0.057721 -0.026602 -307615.000000 0 1 0
8.798064 18.949842 8.299947 22.480916 1.136129 1.192649 0.053078 -0.017280 55638.800000 0 1 0
7.598564 19.874742 8.671647 22.976967 1.205621 1.183803 0.060061 -0.020358 817223.000000 0 1 0
6.447064 19.931342 7.847347 22.369709 1.257955 1.212369 0.050823 -0.026602 221330.000000 0 1 0
6.523164 21.112642 7.107547 23.212336 1.271131 1.259601 0.054943 -0.027600 -888646.000000 0 1 0
5.310964 21.285942 6.180547 22.792473 1.326283 1.296192 0.049061 -0.025270 154852.000000 0 1 0
4.069264 21.486142 6.847647 22.915137 1.383623 1.267334 0.040897 -0.020270 172634.000000 0 1 0
3.871164 22.738742 7.489047 24.251229 1.402168 1.256854 0.051843 -0.021406 -604931.000000 0 1 0
3.858664 24.061242 6.666547 25.264115 1.411782 1.303760 0.064667 -0.025902 -355138.000000 0 0 1
2.734164 24.050342 5.833547 24.898291 1.457597 1.334303 0.054498 -0.025111 -191389.000000 0 1 0
2.656464 25.247142 5.073247 25.888469 1.465964 1.373554 0.063287 -0.025101 -423446.000000 0 0 1
1.360064 25.504342 4.290147 25.898390 1.517520 1.404376 0.067232 -0.024543 132444.000000 0 0 1
0.253964 25.694842 5.184247 26.213848 1.560913 1.371716 0.075950 -0.030619 -63589.700000 0 0 1
-0.914836 25.832642 4.409547 26.222251 -1.535397 1.401833 0.086696 -0.033940 73434.000000 0 0 1
-2.175136 26.314142 5.160347 26.903429 -1.488323 1.377790 0.117886 -0.035786 313542.000000 0 0 1
-3.260936 26.706142 4.346947 27.253398 -1.449293 1.410611 0.147513 -0.045268 -281288.000000 0 0 1
-4.017236 27.710142 4.922947 28.429308 -1.426826 1.396755 0.148098 -0.047247 -35244.600000 0 0 1
-5.111436 28.175442 3.914347 28.901634 -1.391334 1.434942 0.166006 -0.051666 52902.900000 0 0 1
-4.556336 28.945242 2.879447 29.442800 -1.414665 1.472842 0.160436 -0.045375 -349246.000000 0 0 1
-5.483536 29.539442 2.016147 30.111670 -1.387251 1.503791 0.164399 -0.054623 -882849.000000 0 0 1
-4.834336 30.427642 0.932447 30.823395 -1.413234 1.540540 0.148099 -0.039332 -3463.830000 0 0 1
-4.234636 31.629242 1.351947 31.940082 -1.437704 1.528456 0.146147 -0.034608 -96662.800000 0 0 1
-2.991836 31.455242 2.000847 31.660492 -1.475968 1.507557 0.150956 -0.038568 -608337.000000 0 0 1
-2.228936 32.804442 2.101247 32.947152 -1.502954 1.506977 0.134056 -0.039243 -585927.000000 0 0 1
-1.484236 33.088142 0.926547 33.134372 -1.525969 1.542829 0.094606 -0.025941 70946.900000 0 0 1
-0.641636 -33.463205 0.934347 33.482395 1.551624 1.542887 0.088777 -0.028589 1147260.000000 0 0 1
0.724364 -33.716505 1.708947 33.767557 -1.549316 1.520166 0.071546 -0.020942 414923.000000 0 0 1
0.580464 -33.593905 3.135147 33.744874 -1.553519 1.477755 0.070120 -0.022546 -95628.100000 0 0 1
1.735864 33.666842 3.818247 33.927106 1.519282 1.458015 0.073087 -0.020684 -35416.200000 0 0 1
1.530264 -33.706605 5.303147 34.155531 -1.525428 1.414901 0.072473 -0.022953 -97838.800000 0 0 1
0.570364 33.156142 5.914947 33.684443 1.553596 1.394282 0.087239 -0.030402 -222889.000000 0 0 1
0.155464 33.629942 7.210547 34.394610 1.566174 1.359588 0.091445 -0.034581 252064.000000 0 0 1
1.204164 33.530642 8.352247 34.576206 1.534899 1.326823 0.079856 -0.027180 213459.000000 0 0 1
1.519864 32.131942 8.634847 33.306640 1.523531 1.308548 0.085335 -0.033303 771108.000000 0 0 1
2.725364 31.984542 9.418347 33.453607 1.485793 1.285403 0.100749 -0.033120 861191.000000 0 0 1
3.170864 30.481042 9.369047 32.045707 1.467142 1.274097 0.095976 -0.030955 350921.000000 0 0 1
2.384964 29.703342 10.290947 31.525865 1.490675 1.238273 0.104853 -0.037451 547998.000000 0 0 1
2.834564 28.365842 10.255947 30.295878 1.471198 1.225446 0.088918 -0.032895 -66279.800000 0 0 1
2.209464 27.457742 11.350347 29.793283 1.490502 1.179951 0.071221 -0.039874 -217922.000000 0 0 1
2.562364 27.930642 12.680947 30.781373 1.479312 1.146183 0.073190 -0.035724 81179.600000 0 0 1
2.229764 27.009042 13.724847 30.378144 1.488427 1.102014 0.078867 -0.030787 -576602.000000 0 0 1
0.777464 26.583842 14.079447 30.092124 1.541559 1.083908 0.056278 -0.034676 307954.000000 0 0 1
0.033364 27.689742 14.649647 31.326268 1.569591 1.084169 0.068534 -0.039619 169106.000000 0 0 1
-0.362436 28.717642 13.745647 31.839867 -1.558176 1.124407 0.087452 -0.043005 -731230.000000 0 0 1
-1.059936 29.833642 14.592047 33.227963 -1.535283 1.116144 0.077183 -0.039309 1064330.000000 0 0 1
-2.316036 29.467342 15.199847 33.237383 -1.492361 1.095826 0.074940 -0.036058 866650.000000 0 0 1
-2.930236 30.532942 15.926147 34.561380 -1.475120 1.091891 0.083197 -0.034920 -902793.000000 0 0 1
-4.263636 30.235242 16.542047 34.727335 -1.430705 1.074308 0.080122 -0.032786 -954934.000000 0 0 1
-5.275836 29.889042 15.621847 34.135486 -1.396082 1.095454 0.083573 -0.032590 -836335.000000 0 0 1
-6.389636 29.531042 16.351847 34.355390 -1.357711 1.074739 0.072710 -0.030104 -1505770.000000 0 0 1
-7.481636 29.018942 15.431947 33.707846 -1.318472 1.095261 0.066141 -0.036533 567174.000000 0 0 1
-8.756136 28.794142 16.098847 34.131297 -1.275587 1.079608 0.056457 -0.032739 921393.000000 0 0 1
-9.697236 28.331842 15.163047 33.565573 -1.241021 1.102077 0.060997 -0.031113 52387.800000 0 0 1
-11.049436 27.853542 15.724847 33.840518 -1.193140 1.087529 0.053318 -0.021505 558073.000000 0 0 1
-11.939136 28.823342 16.324747 35.211154 -1.178094 1.088715 0.050714 -0.032137 716728.000000 0 0 1
-11.715136 29.022242 17.739747 35.975458 -1.187138 1.055139 0.055150 -0.032933 -528924.000000 0 0 1
-12.676236 30.068742 18.359747 37.441909 -1.171830 1.058302 0.055144 -0.032329 -1015490.000000 0 0 1
-13.982936 29.704842 18.011347 37.447414 -1.130838 1.069028 0.071057 -0.031956 -174294.000000 0 0 1
-14.928136 30.727242 18.344747 38.775539 -1.118551 1.077989 0.070736 -0.029237 -87362.500000 0 0 1
-15.572936 30.687042 19.728747 39.666540 -1.101186 1.050238 0.071696 -0.038176 -598504.000000 0 0 1
-14.771636 30.838442 20.883547 40.066611 -1.124089 1.022516 0.058428 -0.038380 -151416.000000 0 0 1
-15.471336 30.238142 21.965947 40.450097 -1.097872 0.996745 0.063293 -0.035992 7217.440000 0 0 1
-14.828736 30.228842 23.376947 40.989706 -1.114738 0.963910 0.042434 -0.025639 -2527.260000 0 0 1
-13.589836 29.512642 23.514847 40.107702 -1.139266 0.944322 0.042767 -0.023987 834863.000000 0 0 1
-13.046436 29.475142 24.799747 40.669657 -1.154092 0.915007 0.036957 -0.013447 115947.000000 0 0 1
-12.589436 30.776042 25.569547 41.945923 -1.182499 0.915261 0.031039 -0.000463 114192.000000 0 0 1
-13.725236 31.506942 26.024447 43.108484 -1.159960 0.922666 0.033441 -0.007370 769721.000000 0 0 1
-13.332436 32.716642 26.574447 44.207847 -1.183831 0.925888 0.031715 -0.006324 234495.000000 0 0 1
-14.613836 33.550242 26.943247 45.443608 -1.159998 0.936148 0.047268 -0.008674 897506.000000 0 0 1
-15.452536 32.973642 27.964647 45.913652 -1.132556 0.915908 0.037048 -0.010512 630946.000000 0 0 1
-14.897636 33.016242 29.290147 46.582449 -1.146927 0.890812 0.061002 0.004154 -66083.100000 0 0 1
-15.669936 32.054942 30.264847 46.787041 -1.116112 0.867331 0.056477 -0.000055 587030.000000 0 0 1
-16.913336 32.590042 30.726647 47.877956 -1.092086 0.873992 0.065892 0.002588 248254.000000 0 0 1
-17.337636 31.964742 31.930747 48.393295 -1.073808 0.850220 0.056804 0.005732 -251566.000000 0 0 1
-18.770336 32.372342 32.260047 49.406525 -1.045342 0.859322 0.050349 0.006719 -347638.000000 0 0 1
-18.993636 33.641342 32.901447 50.744491 -1.056819 0.865349 0.068953 -0.000068 874449.000000 0 0 1
-20.421536 33.819142 33.028047 51.493936 -1.027554 0.874479 0.075883 -0.006640 1120560.000000 0 0 1
-20.746336 -32.306405 33.134147 50.714751 0.999942 0.858804 0.086501 -0.003354 282416.000000 0 0 1
-20.298136 -31.703805 -33.365291 50.302964 1.001311 2.295999 0.092832 -0.004426 765415.000000 0 0 1
-21.299136 -31.969405 -32.346491 50.219434 0.983093 2.270646 0.089678 -0.003867 855512.000000 0 0 1
-21.124436 -31.130105 -31.109991 48.817586 0.974588 2.261747 0.103500 -0.013460 195309.000000 0 0 1
-21.468936 -29.762205 -31.406091 48.301621 0.945885 2.278654 0.102927 -0.015039 47954.900000 0 0 1
-21.099536 -28.913805 -30.300891 46.897148 0.940389 2.273278 0.106554 -0.008715 119105.000000 0 0 1
-21.516336 -27.425105 -30.356091 46.223169 0.905548 2.287269 0.106734 -0.015948 -210835.000000 0 0 1
-22.878136 -27.214605 -30.108691 46.589453 0.871752 2.273464 0.089625 -0.007431 -473255.000000 0 0 1
-23.118136 -25.836105 -30.057091 45.884433 0.840862 2.285059 0.098968 -0.015485 263427.000000 0 0 1
-24.316036 -25.376705 -29.178791 45.679849 0.806739 2.263691 0.096510 -0.014967 137068.000000 0 0 1
-24.212436 -25.622405 -27.813691 44.903798 0.813683 2.238782 0.099980 -0.016920 54464.000000 0 0 1
-23.529636 -24.583605 -27.094391 43.498315 0.807301 2.243220 0.106220 -0.023780 121375.000000 0 0 1
-23.361536 -24.949805 -25.612391 42.711224 0.818262 2.213878 0.106785 -0.024220 -134724.000000 0 0 1
-24.524436 -24.658105 -24.899191 42.771951 0.788116 2.192152 0.093561 -0.029927 -167661.000000 0 0 1
-24.333436 -25.188205 -23.571491 42.215838 0.802657 2.163200 0.099181 -0.018184 175367.000000 0 0 1
-25.612236 -24.970105 -22.695291 42.362354 0.772704 2.136183 0.089770 -0.017293 347143.000000 0 0 1
-26.824836 -25.558605 -23.045291 43.633697 0.761231 2.127221 0.090194 -0.014715 -343210.000000 0 0 1
-26.799636 -26.979905 -22.988391 44.436493 0.788750 2.114526 0.090685 -0.002199 -363238.000000 0 0 1
-28.245536 -27.557605 -23.016391 45.683543 0.773071 2.098814 0.056457 0.004751 441536.000000 0 0 1
-29.055236 -27.358405 -21.905891 45.525346 0.755329 2.072797 0.063358 0.008556 -392738.000000 0 0 1
-30.094336 -26.463505 -22.201991 45.813912 0.721289 2.076716 0.055183 0.012690 -167255.000000 0 0 1
-30.909636 -26.024405 -20.970491 45.524024 0.699803 2.049520 0.062013 0.018574 -36863.700000 0 0 1
-31.486736 -27.092905 -20.222191 46.199319 0.710532 2.023853 0.047084 0.016151 673463.000000 0 0 1
-32.309436 -26.607105 -19.129291 46.019207 0.688912 1.999487 0.053037 0.008539 -21139.200000 0 0 1
-33.071536 -27.592705 -18.230791 46.770136 0.695329 1.971206 0.037067 0.001986 -472409.000000 0 0 1
-34.296736 -28.176705 -18.683691 48.158832 0.687748 1.969213 0.034342 0.018050 1735880.000000 0 0 1
-35.475936 -27.310605 -18.702891 48.520195 0.656075 1.966509 0.013774 0.020021 694104.000000 0 0 1
-35.803536 -26.552305 -17.363491 47.837317 0.638111 1.942249 0.035288 0.008828 -1794990.000000 0 0 1
-35.038736 -25.432305 -17.110191 46.553988 0.627855 1.947153 0.031886 0.012577 -210686.000000 0 0 1
-35.307436 -24.921005 -15.817191 46.020159 0.614627 1.921652 0.039781 0.007102 -3229.010000 0 0 1
-34.830036 -25.720205 -14.564391 45.681307 0.636067 1.895287 0.047589 -0.000085 525600.000000 0 0 1
-35.653336 -26.906905 -14.338391 46.911953 0.646490 1.881412 0.051211 0.006098 724773.000000 0 0 1
-35.191636 -27.674605 -13.180191 46.669609 0.666391 1.857107 0.034481 0.002236 -308277.000000 0 0 1
-36.039136 -28.821805 -12.758991 47.878049 0.674580 1.840545 0.031520 -0.001921 -346443.000000 0 0 1
-35.682536 -29.947605 -13.615791 48.533413 0.698237 1.855158 0.030010 0.003534 214814.000000 0 0 1
-36.195336 -31.090105 -13.074291 49.473569 0.709669 1.838241 0.018944 -0.001821 -479392.000000 0 0 1
-35.853336 -32.374205 -13.830291 50.247665 0.734449 1.849638 0.019366 0.002381 334884.000000 0 0 1
-34.492036 -32.813805 -13.736691 49.549400 0.760469 1.851709 0.034250 -0.000922 621310.000000 0 0 1
-34.176736 -33.699505 -14.774991 50.219581 0.778367 1.869423 0.065378 -0.026273 145014.000000 0 0 1
-32.654236 -33.775305 -15.070391 49.337481 0.802273 1.881213 0.063965 -0.027151 400362.000000 0 0 1
-32.300236 33.040642 -16.117591 48.936347 -0.796729 1.906420 0.086830 -0.032696 140023.000000 0 0 1
-30.890736 33.082242 -16.344391 48.122878 -0.819642 1.917329 0.094432 -0.040410 503008.000000 0 0 1
9.818423 19.507042 -9.155753 23.680243 1.104491 1.967783 0.090365 -0.035552 -152929.000000 0 1 0
8.411923 19.525142 -9.318953 23.212809 1.164002 1.983904 0.077646 -0.038886 115065.000000 0 1 0
7.978123 19.776642 -10.677053 23.848804 1.187353 2.034985 0.088206 -0.038613 173843.000000 0 1 0
8.024323 18.511642 -11.606253 23.276077 1.161770 2.092819 0.079933 -0.025595 -312755.000000 0 1 0
9.307923 18.019842 -11.927253 23.528950 1.094006 2.102402 0.123018 -0.041888 -74796.700000 0 1 0
9.213523 16.925142 -12.751353 23.107281 1.072287 2.155357 0.120920 -0.049134 -865255.000000 0 1 0
10.596123 16.375242 -12.971653 23.424136 0.996475 2.157685 0.149486 -0.056464 -752292.000000 0 1 0
10.605123 15.388642 -13.981153 23.339913 0.967388 2.213077 0.162694 -0.051592 -390157.000000 0 1 0
11.923723 15.053242 -14.293953 23.939347 0.900889 2.210665 0.185225 -0.066912 -470406.000000 0 1 0
12.095223 13.793342 -15.238053 23.848458 0.850898 2.263933 0.159019 -0.056211 -372626.000000 0 1 0
11.931823 12.535442 -14.629253 22.660996 0.810064 2.272565 0.179280 -0.051234 497082.000000 0 1 0
13.054123 11.981242 -13.948953 22.550689 0.742570 2.237705 0.201424 -0.051294 316261.000000 0 1 0
14.126123 11.314542 -14.865253 23.420972 0.675330 2.258414 0.219146 -0.054470 202993.000000 0 1 0
14.909023 12.199542 -15.625053 24.804235 0.685780 2.252266 0.182939 -0.045451 -75801.000000 0 1 0
15.797523 11.534042 -16.469653 25.570399 0.630654 2.270630 0.172924 -0.052525 -155365.000000 0 0 1
16.353023 12.242842 -17.707153 27.034271 0.642642 2.284965 0.123684 -0.048380 549400.000000 0 0 1
17.298223 13.279542 -17.336353 27.859000 0.654722 2.242460 0.094452 -0.034368 349272.000000 0 0 1
17.815923 13.865042 -18.527353 29.204611 0.661330 2.258026 0.071036 -0.021256 732527.000000 0 0 1
18.962823 14.932742 -18.230053 30.247483 0.667057 2.217672 0.060208 -0.011047 594216.000000 0 0 1
18.545223 16.174342 -17.646753 30.281059 0.717217 2.192924 0.070290 -0.024480 407668.000000 0 0 1
17.779023 17.057542 -18.486853 30.802875 0.764691 2.214506 0.072633 -0.016713 272438.000000 0 0 1
17.606423 18.493342 -17.999553 31.240578 0.809962 2.184818 0.078925 -0.012350 788591.000000 0 0 1
18.812223 19.275942 -18.213953 32.514762 0.797572 2.165393 0.082917 -0.015050 1098200.000000 0 0 1
18.648723 20.579342 -17.659853 32.911314 0.834574 2.137186 0.071472 -0.013046 146998.000000 0 0 1
19.924123 21.484042 -17.707353 34.235728 0.823052 2.114394 0.071513 -0.010989 756929.000000 0 0 1
21.050823 21.244842 -16.883253 34.344209 0.789985 2.084710 0.084100 -0.012865 31196.100000 0 0 1
20.783223 21.349342 -15.502053 33.586461 0.798834 2.050545 0.082680 -0.014985 -916580.000000 0 0 1
21.569823 22.477942 -14.777953 34.480473 0.806012 2.013727 0.079075 -0.011238 -247674.000000 0 0 1
22.893323 22.061742 -14.638353 35.001515 0.766902 2.002282 0.080425 -0.020761 -610491.000000 0 0 1
23.760323 22.898742 -13.869453 35.794791 0.766935 1.968683 0.067735 -0.020124 -531935.000000 0 0 1
25.160223 22.314542 -13.900653 36.389610 0.725529 1.962750 0.055835 -0.004843 -557035.000000 0 0 1
25.860823 22.529342 -15.128853 37.486472 0.716660 1.986224 0.074462 -0.000639 203968.000000 0 0 1
26.747423 23.631542 -15.163153 38.778803 0.723628 1.972532 0.050906 0.007022 -114318.000000 0 0 1
27.125923 24.026742 -16.617353 39.865228 0.724885 2.000761 0.059592 0.001492 287138.000000 0 0 1
28.022523 23.059442 -17.202753 40.161354 0.688543 2.013452 0.066551 -0.006450 423692.000000 0 0 1
27.781123 23.176842 -18.600853 40.681058 0.695288 2.045681 0.069496 -0.013125 -918267.000000 0 0 1
28.540823 22.172542 -19.536553 41.083781 0.660478 2.066362 0.065427 -0.016463 -848587.000000 0 0 1
29.875023 22.456042 -19.657953 42.228260 0.644567 2.055014 0.058195 -0.009515 -1301910.000000 0 0 1
30.587823 21.727042 -20.631153 42.817330 0.617616 2.073551 0.072876 -0.015531 -62165.500000 0 0 1
32.095423 22.022042 -20.633253 44.054712 0.601365 2.058225 0.096480 -0.021457 -279315.000000 0 0 1
32.404223 23.247942 -21.264153 45.195848 0.622332 2.060641 0.089671 -0.012432 -677987.000000 0 0 1
33.776023 23.475242 -21.219653 46.283694 0.607380 2.047068 0.089189 -0.011495 -677324.000000 0 0 1
34.220623 24.846042 -21.809053 47.581631 0.627999 2.046934 0.088697 -0.013011 -212725.000000 0 0 1
34.045923 25.053642 -23.194453 48.216102 0.634402 2.072651 0.101870 -0.016412 -253953.000000 0 0 1
32.731723 25.133142 -23.679853 47.579154 0.654829 2.091734 0.109493 -0.018651 -501900.000000 0 0 1
32.678223 25.445742 -25.185653 48.473386 0.661602 2.117152 0.104458 -0.019640 -413199.000000 0 0 1
32.431423 26.778442 -25.477803 49.173169 0.690213 2.115453 0.111320 -0.021027 -177555.000000 0 0 1
31.099023 27.083742 -25.831813 48.661698 0.716496 2.130394 0.102596 -0.010350 17946.700000 0 0 1
30.693923 26.656742 -27.275833 48.955795 0.715119 2.161749 0.105272 -0.009526 -392990.000000 0 0 1
30.528923 25.284042 -27.456953 48.220143 0.691701 2.176582 0.105060 -0.025937 -188986.000000 0 0 1
30.408523 25.155442 -28.859103 48.890923 0.691137 2.202196 0.114134 -0.033073 -325239.000000 0 0 1
29.578123 23.938142 -29.243633 47.990520 0.680398 2.226053 0.124137 -0.039103 -674914.000000 0 0 1
28.299223 24.025242 -28.690393 46.916915 0.703897 2.228770 0.123938 -0.037495 -625091.000000 0 0 1
27.584023 22.858842 -29.087713 46.146506 0.691997 2.252780 0.134295 -0.048058 355666.000000 0 0 1
26.100623 22.920242 -28.598713 44.994070 0.720611 2.259596 0.117908 -0.037409 387094.000000 0 0 1
25.993823 22.866642 -27.187343 44.019470 0.721483 2.236510 0.103445 -0.024436 869633.000000 0 0 1
24.617723 23.140542 -26.872493 43.169987 0.754478 2.242705 0.067606 -0.011700 691853.000000 0 0 1
24.469223 23.380742 -25.344043 42.281467 0.762654 2.213563 0.072617 -0.013479 -551929.000000 0 0 1
24.501223 22.149442 -24.571853 41.166535 0.735028 2.210414 0.079352 -0.020810 370345.000000 0 0 1
25.086323 22.325742 -23.264753 40.853532 0.727239 2.176654 0.081623 -0.011896 62698.900000 0 0 1
25.489723 21.013042 -22.481753 39.958768 0.689427 2.168352 0.076447 -0.012851 -229376.000000 0 0 1
26.629723 20.474042 -23.086453 40.759205 0.655451 2.172940 0.079975 -0.008466 -598764.000000 0 0 1
27.492023 19.871742 -22.186553 40.533203 0.625877 2.150012 0.096046 -0.019682 -694949.000000 0 0 1
28.771123 19.407242 -22.854853 41.554336 0.593433 2.153160 0.123449 -0.030606 -104008.000000 0 0 1
29.749623 18.753842 -22.024753 41.495016 0.562465 2.130318 0.122716 -0.031633 -220193.000000 0 0 1
30.733323 18.229442 -22.857453 42.418308 0.535367 2.139877 0.111875 -0.025055 -391040.000000 0 0 1
31.908023 17.679442 -22.014953 42.606839 0.505967 2.113788 0.084704 -0.013152 57010.600000 0 0 1
32.780823 18.682842 -21.544053 43.448557 0.518017 2.089612 0.081050 -0.011890 -1323.300000 0 0 1
33.975623 18.205842 -20.964553 43.878333 0.491915 2.068932 0.091046 -0.015744 465300.000000 0 0 1
34.751923 19.328242 -20.204253 44.603687 0.507574 2.040893 0.052663 -0.023136 705042.000000 0 0 1
34.061823 19.698142 -18.963853 43.678968 0.524315 2.019907 0.053819 -0.018250 648171.000000 0 0 1
34.852923 20.657542 -18.300853 44.456512 0.535039 1.995068 0.034039 -0.010033 158695.000000 0 0 1
34.467723 20.826642 -16.800053 43.635017 0.543528 1.966018 0.028743 -0.012054 60811.700000 0 0 1
34.362923 19.618542 -16.066453 42.706306 0.518764 1.956497 0.032514 -0.024922 309933.000000 0 0 1
33.898323 19.897342 -14.736853 41.978272 0.530784 1.929498 0.032293 -0.021308 -252164.000000 0 0 1
34.049923 18.662042 -13.822653 41.215710 0.501367 1.912798 0.036113 -0.019219 374520.000000 0 0 1
35.461523 18.387342 -13.708053 42.231797 0.478350 1.901375 0.025928 -0.026803 767246.000000 0 0 1
35.801323 17.294642 -12.884753 41.795409 0.450014 1.884182 0.029084 -0.011232 -47644.800000 0 0 1
35.805023 17.427642 -11.318653 41.398481 0.452981 1.847730 0.032836 -0.016708 -266330.000000 0 0 1
36.691223 18.483942 -11.014553 42.534954 0.466659 1.832734 0.030300 -0.022649 -20589.700000 0 0 1
36.672823 19.039042 -9.725353 42.449541 0.478857 1.801953 0.038908 -0.017495 -457498.000000 0 0 1
35.558523 20.029442 -9.382153 41.876149 0.512983 1.796760 0.036221 -0.016473 845877.000000 0 0 1
34.218523 19.503642 -9.361853 40.483869 0.518048 1.804158 0.057573 -0.026005 161259.000000 0 0 1
33.198123 20.451942 -9.312753 40.088959 0.552143 1.805240 0.035424 -0.015233 -27299.000000 0 0 1
31.843723 19.735942 -9.528953 38.656578 0.554833 1.819866 0.029361 -0.011850 -78902.800000 0 0 1
31.741723 19.370442 -10.873953 38.742662 0.547923 1.855290 0.036924 -0.021054 282826.000000 0 0 1
30.510023 18.682642 -11.085353 37.453807 0.549447 1.871271 0.038689 -0.020790 370591.000000 0 0 1
30.434123 18.089242 -12.509853 37.549340 0.536272 1.910447 0.053214 -0.007802 121243.000000 0 0 1
31.418023 17.074842 -12.674753 37.937999 0.497818 1.911437 0.066211 -0.009950 175731.000000 0 0 1
31.082423 16.381742 -13.824953 37.757222 0.485046 1.945669 0.043880 -0.011152 -742090.000000 0 0 1
32.219523 15.822642 -14.635353 38.763994 0.456493 1.957946 0.058780 -0.015661 -321605.000000 0 0 1
32.928323 14.700642 -14.019753 38.690267 0.419893 1.941594 0.046239 -0.018521 732745.000000 0 0 1
34.106123 14.351342 -14.740053 39.830363 0.398295 1.949882 0.049399 -0.015740 248035.000000 0 0 1
34.891323 13.224542 -14.023053 39.861497 0.362291 1.930284 0.039011 -0.020717 -78799.600000 0 0 1
35.859423 13.756742 -13.124953 40.588305 0.366315 1.900083 0.044313 -0.002609 229954.000000 0 0 1
36.306223 12.903342 -12.101853 40.386791 0.341480 1.875121 0.040724 -0.005543 24487.700000 0 0 1
37.310523 13.610342 -11.177453 41.258356 0.349786 1.845138 0.068260 -0.004241 -884293.000000 0 0 1
-36.600718 13.840342 -11.706753 40.843796 -0.361524 1.861496 0.053949 -0.012830 -893246.000000 0 0 1
-35.671218 14.199442 -10.684153 39.852366 -0.378837 1.842210 0.057192 -0.017238 391940.000000 0 0 1
-34.220018 14.506642 -11.197953 38.818120 -0.400958 1.863427 0.098695 -0.030055 1006830.000000 0 0 1
-33.378318 13.447842 -11.679453 37.833401 -0.382997 1.884630 0.123859 -0.036487 449251.000000 0 0 1
-33.114718 12.421842 -10.763653 36.969487 -0.358872 1.866225 0.135059 -0.029147 -842927.000000 0 0 1
-31.924918 11.477742 -11.037253 35.675761 -0.345133 1.885334 0.161631 -0.034638 -41735.000000 0 0 1
-32.128718 10.656342 -12.188853 35.977497 -0.320259 1.916428 0.147524 -0.021263 284585.000000 0 0 1
-31.248918 9.563742 -12.005053 34.814959 -0.296998 1.922848 0.153656 -0.031758 5525.560000 0 0 1
-31.060318 8.839842 -13.381153 34.956279 -0.277271 1.963618 0.143704 -0.035115 285777.000000 0 0 1
-32.276918 8.339442 -13.935253 36.132216 -0.252842 1.966734 0.119394 -0.026038 568772.000000 0 0 1
-32.119518 7.773742 -15.199753 36.374813 -0.237459 2.001890 0.110045 -0.025627 -190034.000000 0 0 1
-33.437018 7.357042 -15.897853 37.747874 -0.216576 2.005519 0.095788 -0.029343 -123893.000000 0 0 1
-34.071318 6.357242 -15.162753 37.830918 -0.184465 1.983190 0.103381 -0.028391 -95795.400000 0 0 1
-35.312218 5.941242 -15.671253 39.087585 -0.166688 1.983324 0.086865 -0.039532 -17539.100000 0 0 1
-36.169418 5.094842 -14.660453 39.358774 -0.139940 1.952479 0.109359 -0.039805 238530.000000 0 0 1
-37.343418 4.578642 -15.278753 40.607082 -0.122000 1.956551 0.109312 -0.032227 376993.000000 0 0 1
36.921923 4.184342 -14.221253 39.786695 0.112848 1.936319 0.108955 -0.036125 -604665.000000 0 0 1
35.855523 3.267842 -14.639953 38.866766 0.090888 1.956995 0.106154 -0.034799 -1031160.000000 0 0 1
36.397323 1.942342 -14.898853 39.376562 0.053314 1.958830 0.128802 -0.040597 461513.000000 0 0 1
35.415123 0.939642 -15.119153 38.518861 0.026526 1.974159 0.122776 -0.033371 533825.000000 0 0 1
34.610923 0.467942 -13.848453 37.281558 0.013519 1.951373 0.111309 -0.038254 534507.000000 0 0 1
35.471123 -0.214858 -12.901753 37.745224 -0.006057 1.919640 0.141845 -0.042727 573171.000000 0 0 1
35.007023 -0.191158 -11.564853 36.868333 -0.005461 1.889862 0.121894 -0.036223 -366086.000000 0 0 1
35.311723 1.117342 -10.784253 36.938683 0.031632 1.867061 0.121079 -0.044974 360887.000000 0 0 1
34.459023 2.135542 -11.374453 36.350557 0.061894 1.889052 0.115583 -0.032131 873467.000000 0 0 1
34.482023 3.318542 -10.568153 36.217516 0.095944 1.866901 0.134295 -0.028882 -48677.000000 0 0 1
33.461523 4.339942 -11.136253 35.532024 0.128979 1.889583 0.141313 -0.033697 -115700.000000 0 0 1
33.764623 4.781142 -12.422153 36.293511 0.140667 1.920127 0.120284 -0.030861 385257.000000 0 0 1
32.869523 5.756442 -12.902053 35.777159 0.173372 1.939732 0.130150 -0.037216 -235230.000000 0 0 1
33.318023 6.153742 -14.301353 36.776186 0.182639 1.970207 0.099009 -0.029750 -447090.000000 0 0 1
32.926723 5.336742 -15.376453 36.729895 0.160682 2.002739 0.097860 -0.020518 154267.000000 0 0 1
33.224523 5.833542 -16.703653 37.641880 0.173808 2.030577 0.090647 -0.018609 -1093350.000000 0 0 1
32.357523 7.011042 -17.140053 37.281971 0.213376 2.048500 0.096458 -0.023168 1287490.000000 0 0 1
31.041123 6.637342 -17.659753 36.324544 0.210652 2.078493 0.088294 -0.018302 1948900.000000 0 0 1
30.073123 6.175742 -16.692653 34.945345 0.202542 2.068807 0.082804 -0.012387 -1240990.000000 0 0 1
28.732823 6.018442 -17.365753 34.108153 0.206477 2.104979 0.074818 -0.007517 -1011360.000000 0 0 1
28.657223 4.990242 -18.354853 34.395342 0.172407 2.133699 0.082544 -0.012306 92102.400000 0 0 1
27.483723 5.242342 -19.082853 33.867277 0.188479 2.169364 0.068899 -0.013641 -271539.000000 0 0 1
27.002323 4.147042 -20.070953 33.899359 0.152390 2.204427 0.067050 -0.004489 326862.000000 0 0 1
25.904023 3.457242 -19.457053 32.581403 0.132679 2.210781 0.082643 -0.010906 741666.000000 0 0 1
25.468023 2.279942 -20.106053 32.528014 0.089284 2.237139 0.083579 -0.015948 -136268.000000 0 0 1
24.428423 1.441842 -19.312453 31.173668 0.058955 2.238917 0.094222 -0.016442 269995.000000 0 0 1
23.228823 2.193842 -19.192153 30.211420 0.094166 2.259143 0.100026 -0.023844 895057.000000 0 0 1
22.174523 1.394442 -18.592553 28.971312 0.062802 2.267584 0.119495 -0.026520 137048.000000 0 0 1
20.829423 2.080842 -18.485653 27.926942 0.099569 2.294186 0.125175 -0.038167 -2137210.000000 0 0 1
20.171223 2.261942 -19.710753 28.293257 0.111671 2.341526 0.123225 -0.026997 337436.000000 0 0 1
19.046723 3.116942 -19.597653 27.505653 0.162209 2.363845 0.117851 -0.025918 -74927.900000 0 0 1
17.852123 2.727842 -18.710653 26.004383 0.151629 2.373906 0.167828 -0.039268 -1546020.000000 0 0 1
17.970523 2.826842 -17.325953 25.122089 0.156026 2.331830 0.168795 -0.044974 602227.000000 0 0 1
16.891923 2.194442 -16.578353 23.769611 0.129187 2.342643 0.138282 -0.033518 1027950.000000 0 1 0
15.703623 3.122442 -16.200953 22.777715 0.196276 2.362090 0.129650 -0.040310 23960.700000 0 1 0
14.896423 3.461142 -17.291253 23.083984 0.228297 2.417436 0.125540 -0.034054 -606553.000000 0 1 0
13.832723 4.248042 -16.916953 22.261477 0.297959 2.433987 0.120680 -0.041438 -762731.000000 0 1 0
-20.557077 -21.720458 -17.022853 34.411469 0.812909 2.088269 0.120429 -0.014262 43173.500000 0 0 1
-20.547977 -22.494558 -18.196853 35.487321 0.830592 2.109205 0.120263 -0.023165 -617936.000000 0 0 1
-21.644677 -22.167058 -18.959453 36.322601 0.797321 2.119960 0.120247 -0.019175 -720252.000000 0 0 1
-21.674177 -22.858358 -20.370653 37.513171 0.811983 2.144834 0.098338 -0.010657 -4665.630000 0 0 1
-21.795977 -24.230258 -20.262053 38.376045 0.838238 2.127025 0.090824 -0.016329 423363.000000 0 0 1
-20.807177 -24.889058 -21.057853 38.676052 0.874488 2.146550 0.086141 -0.018583 256067.000000 0 0 1
-20.687977 -26.427448 -20.964053 39.571377 0.906618 2.129135 0.089450 -0.006965 504364.000000 0 0 1
-21.922277 -27.015498 -21.411253 40.851745 0.889100 2.122479 0.098575 -0.000650 550300.000000 0 0 1
-21.890677 -28.372868 -21.126253 41.599759 0.913654 2.103478 0.129807 -0.024424 875110.000000 0 0 1
-23.252777 -29.202958 -21.216753 42.937804 0.898348 2.087627 0.114852 -0.020338 846832.000000 0 0 1
-23.842177 -29.375648 -22.478053 44.007283 0.889004 2.106888 0.095632 -0.012037 -68403.100000 0 0 1
-23.000277 -29.773968 -23.552053 44.386947 0.913052 2.130114 0.092845 -0.011739 -515659.000000 0 0 1
-23.442877 -29.065878 -24.871053 44.866056 0.892079 2.158366 0.088458 -0.001675 19205.300000 0 0 1
-24.738677 -29.411858 -25.287073 46.005386 0.871485 2.152747 0.082295 0.004422 241138.000000 0 0 1
-25.357217 -28.680428 -26.378283 46.490528 0.846819 2.174130 0.079800 0.006141 329498.000000 0 0 1
-24.751477 -28.843548 -27.828683 47.106491 0.861602 2.202798 0.079161 -0.005625 -340773.000000 0 0 1
-25.233627 -29.990288 -28.426003 48.416846 0.871320 2.198280 0.067886 0.002004 208223.000000 0 0 1
-24.925277 -30.071548 -29.818503 49.139704 0.878700 2.222838 0.093116 -0.004323 -268746.000000 0 0 1
-25.584397 -31.274908 -30.466473 50.605209 0.885147 2.216853 0.055696 -0.001648 -50307.600000 0 0 1
-24.975977 -32.509718 -30.068373 50.840813 0.915710 2.203617 0.060761 -0.012046 239247.000000 0 0 1
-25.705607 -33.602418 -30.601083 52.214241 0.917769 2.196994 0.053004 -0.011083 -201477.000000 0 0 1
-24.948777 32.746915 -30.505153 51.238328 -0.919744 2.208508 0.062555 -0.017234 127753.000000 0 0 1
-23.948777 32.583836 -31.477903 51.245572 -0.936971 2.232239 0.083358 -0.019596 60561.100000 0 0 1
-23.207577 31.342149 -31.407793 50.073659 -0.933429 2.248790 0.085841 -0.016003 1037940.000000 0 0 1
-22.046777 31.326709 -32.464533 50.213235 -0.957545 2.273828 0.077428 -0.007831 676598.000000 0 0 1
-22.610277 31.003159 -33.731673 51.090569 -0.940682 2.291925 0.065507 0.001772 487217.000000 0 0 1
-22.053877 29.769529 33.569201 49.994896 -0.933196 0.834629 0.049140 0.013174 61105.800000 0 0 1
-22.179477 29.534399 32.050543 48.902426 -0.926674 0.856087 0.046521 0.014240 -208430.000000 0 0 1
-21.335977 30.330969 31.256875 48.499318 -0.957766 0.870452 0.039652 0.010889 186869.000000 0 0 1
-21.279477 30.046909 29.873995 47.414011 -0.954582 0.889157 0.053611 0.008058 19145.900000 0 0 1
-20.580377 31.226059 29.107925 47.390822 -0.988067 0.909412 0.060329 -0.012162 48869.300000 0 0 1
-21.488077 32.272712 28.767805 48.278898 -0.983375 0.932451 0.059283 -0.005073 -30705.200000 0 0 1
-21.009677 33.527191 28.358325 48.679294 -1.011014 0.948929 0.068837 -0.021086 -854574.000000 0 0 1
-22.067277 -33.068758 28.343275 48.824673 0.982345 0.951440 0.080090 -0.029116 -426134.000000 0 0 1
-22.385077 -32.804218 29.713155 49.599194 0.971991 0.928463 0.067565 -0.013804 156087.000000 0 0 1
-23.482877 -31.923378 29.935665 49.665800 0.936574 0.923863 0.070792 -0.019867 187496.000000 0 0 1
-23.254877 -30.403478 29.746035 48.476669 0.917843 0.910165 0.079390 -0.015455 -332655.000000 0 0 1
-23.154377 -30.034338 28.349195 47.348321 0.914034 0.928873 0.057918 -0.011645 -13974.300000 0 0 1
-23.248077 -28.607358 28.108665 46.356781 0.888383 0.919328 0.049159 -0.018243 -798109.000000 0 0 1
-24.597677 -28.116378 27.640615 46.471282 0.852050 0.933793 0.044844 -0.012814 -1011730.000000 0 0 1
-25.692417 -28.266478 28.518275 47.669551 0.833066 0.929482 0.061686 -0.004541 431808.000000 0 0 1
-26.531207 -29.412878 28.307665 48.686202 0.836863 0.950310 0.054992 -0.018438 352939.000000 0 0 1
-27.490417 -29.448498 27.079305 48.540971 0.819774 0.978985 0.028150 -0.004109 -60680.000000 0 0 1
-26.764207 -29.410178 25.872775 47.441352 0.832466 0.993974 0.030989 -0.013036 870256.000000 0 0 1
-27.754087 -29.451528 24.818375 47.472451 0.815062 1.020670 0.034291 -0.011978 652773.000000 0 0 1
-27.100927 -29.748628 23.488515 46.595617 0.831938 1.042465 0.033337 -0.014759 222578.000000 0 0 1
-26.300157 -28.597908 22.993245 45.146738 0.827229 1.036425 0.020545 -0.015893 895313.000000 0 0 1
-25.777017 -28.730118 21.691585 44.276395 0.839523 1.058806 0.042826 -0.019171 1775.150000 0 0 1
-24.576277 -29.667188 21.430785 44.084170 0.878977 1.063137 0.056481 -0.029361 -536474.000000 0 0 1
-24.940077 -31.071128 21.513885 45.279904 0.894425 1.075683 0.076929 -0.040503 384170.000000 0 0 1
-23.877877 -31.930708 21.138185 45.128107 0.928703 1.083313 0.067938 -0.032335 253431.000000 0 0 1
-22.995277 -32.408108 22.359285 45.596117 0.953688 1.058274 0.059554 -0.027962 228271.000000 0 0 1
-22.155477 -31.354528 22.827735 44.666286 0.955647 1.034364 0.061579 -0.035098 537111.000000 0 0 1
-21.126977 -31.956978 23.628165 45.009863 0.986653 1.018134 0.065306 -0.039122 140728.000000 0 0 1
-20.827777 -31.199128 24.910725 45.030280 0.982165 0.984596 0.061349 -0.034651 -524504.000000 0 0 1
-19.984177 -30.053678 24.580745 43.666966 0.983983 0.972889 0.060117 -0.036977 833508.000000 0 0 1
-19.369877 -29.456068 25.752615 43.658324 0.989107 0.939902 0.077941 -0.035002 -42586.500000 0 0 1
-18.299977 -30.333218 26.454385 44.213434 1.027955 0.929377 0.073181 -0.036033 -851850.000000 0 0 1
-18.728177 -31.407728 27.288335 45.627221 1.033108 0.929704 0.078575 -0.033620 59806.500000 0 0 1
-17.667777 -31.936298 28.070085 46.043536 1.065485 0.915187 0.085322 -0.024167 16944.300000 0 0 1
-17.723577 -31.500408 29.529405 46.673190 1.058296 0.885781 0.115182 -0.026053 -36816.500000 0 0 1
-17.513777 -30.115088 29.672055 45.761138 1.044045 0.865300 0.108577 -0.022515 106121.000000 0 0 1
-18.043877 -29.598068 30.871255 46.418332 1.023326 0.843214 0.129407 -0.017954 -228755.000000 0 0 1
-17.792477 -28.094188 31.070585 45.510844 1.006240 0.819335 0.136878 -0.025157 -110694.000000 0 0 1
-18.582077 -27.101298 30.420895 44.779513 0.969764 0.823922 0.135753 -0.023378 70869.100000 0 0 1
-18.662177 -27.138048 29.022325 43.898131 0.968390 0.848474 0.115895 -0.023383 -290180.000000 0 0 1
-17.351877 -26.903548 28.249925 42.695981 0.997968 0.847775 0.114637 -0.026170 -224241.000000 0 0 1
-17.083877 -25.545568 28.285375 41.767181 0.981345 0.826825 0.114522 -0.019256 -960.400000 0 0 1
-16.037577 -25.077108 27.450935 40.492210 1.001816 0.825851 0.108876 -0.021831 75279.500000 0 0 1
-16.362977 -23.728658 26.732085 39.311584 0.967093 0.823026 0.106735 -0.014148 -171816.000000 0 0 1
-17.356977 -23.821258 25.733005 39.126775 0.941110 0.853058 0.121873 -0.026944 22640.800000 0 0 1
-17.355177 -22.708858 24.839405 37.866746 0.918239 0.855331 0.121524 -0.028006 -243762.000000 0 0 1
-17.893077 -21.352158 25.272185 37.613298 0.873311 0.834032 0.097966 -0.020523 -463946.000000 0 0 1
-17.883377 -20.454658 24.162215 36.359605 0.852367 0.843925 0.107508 -0.023712 148158.000000 0 0 1
-18.267977 -19.148658 24.558635 36.104247 0.808931 0.822741 0.083878 -0.009614 -129423.000000 0 0 1
-17.627977 -17.971958 23.769355 34.622523 0.795060 0.814092 0.094251 -0.022905 314832.000000 0 0 1
-16.247177 -17.800058 24.052975 34.049353 0.830976 0.786376 0.103701 -0.033163 -24163.000000 0 0 1
-15.733577 -16.814558 23.185015 32.677511 0.818598 0.781994 0.101592 -0.030226 1147050.000000 0 0 1
-14.234077 -16.351658 23.440555 31.928754 0.854522 0.746380 0.112696 -0.038582 561833.000000 0 0 1
-13.320277 -17.367158 23.066845 31.798228 0.916516 0.759162 0.102357 -0.041308 -373396.000000 0 0 1
-12.004277 -16.970258 23.353975 31.265004 0.955140 0.727306 0.101095 -0.042326 -427911.000000 0 0 1
-11.266477 -15.938458 22.439485 29.740519 0.955472 0.715891 0.107011 -0.028753 -479423.000000 0 0 1
-10.831377 -16.534658 21.212985 28.994903 0.990864 0.750114 0.121537 -0.029270 615462.000000 0 0 1
-9.556877 -17.187258 21.339585 29.019194 1.063324 0.744597 0.110482 -0.030880 129532.000000 0 0 1
-9.289177 -18.292258 20.322085 28.877027 1.100912 0.790140 0.102873 -0.029130 161011.000000 0 0 1
-9.244777 -17.850358 18.978085 27.645414 1.092928 0.814156 0.094361 -0.025918 -121905.000000 0 0 1
-8.876177 -18.974258 18.193885 27.745747 1.133238 0.855639 0.085083 -0.022063 214696.000000 0 0 1
-8.680177 -18.731458 16.720085 26.566412 1.136854 0.890055 0.071548 -0.022152 617798.000000 0 0 1
-7.386077 -18.206458 16.423685 25.607942 1.185399 0.874538 0.070145 -0.017739 235908.000000 0 0 1
-7.160277 -17.955658 15.072085 24.512099 1.191346 0.908558 0.086677 -0.019239 574117.000000 0 1 0
-6.053277 -16.885158 14.804785 23.257953 1.226572 0.880783 0.064719 -0.015994 723855.000000 0 1 0
-6.531977 -15.722258 15.501385 23.024966 1.177033 0.832211 0.075861 -0.020270 137246.000000 0 1 0
-5.490477 -14.786458 15.633485 22.207894 1.215258 0.789837 0.049028 -0.006405 -132123.000000 0 1 0
-5.596077 -13.656358 16.685085 22.275643 1.181889 0.724202 0.027517 -0.002542 -195020.000000 0 1 0
-5.238377 -13.906258 18.041185 23.373254 1.210543 0.689014 0.035226 -0.002462 461969.000000 0 1 0
-6.130977 -14.800158 18.752685 24.663673 1.178065 0.706966 0.073171 -0.015528 777753.000000 0 1 0
-7.465777 -14.250658 19.309185 25.132921 1.088220 0.694643 0.106545 -0.030216 254424.000000 0 0 1
-7.227377 -13.363458 20.385785 25.424343 1.075020 0.640459 0.095862 -0.027062 -452743.000000 0 0 1
-8.411677 -12.844658 20.900985 25.934393 0.991000 0.633572 0.097224 -0.018725 -132415.000000 0 0 1
-8.054277 -11.854958 21.999085 26.255879 0.974029 0.577422 0.089057 -0.013496 -334794.000000 0 0 1
-7.780777 -10.605858 21.490885 25.196882 0.937854 0.549246 0.063253 -0.011648 -97460.700000 0 0 1
-7.385477 -9.663558 22.440085 25.524245 0.918231 0.496684 0.061346 -0.022472 1035620.000000 0 0 1
-5.905277 -9.776058 22.995575 25.675671 1.027401 0.460979 0.066694 -0.019505 800382.000000 0 0 1
-5.678477 -10.883458 23.881755 26.852058 1.089898 0.474803 0.077184 -0.017196 -717032.000000 0 0 1
-4.345177 -10.998858 24.256905 26.986161 1.194558 0.453625 0.066538 -0.018933 -908218.000000 0 0 1
-4.159277 -12.278058 25.046945 28.202833 1.244173 0.477601 0.073883 -0.020825 88099.000000 0 0 1
-2.802777 -12.662458 25.262845 28.397267 1.352963 0.474279 0.038928 -0.019714 353191.000000 0 0 1
-2.638577 -13.390258 26.482165 29.792049 1.376237 0.475857 0.066415 -0.034225 -215860.000000 0 0 1
-2.530177 -14.930758 26.209625 30.270015 1.402930 0.523927 0.069344 -0.037343 292591.000000 0 0 1
-1.346877 -15.335558 25.526075 29.808957 1.483194 0.542690 0.061874 -0.037055 278840.000000 0 0 1
-1.544877 -16.633058 24.920915 30.001621 1.478182 0.590518 0.076258 -0.033855 183219.000000 0 0 1
-0.248677 -17.521558 24.838475 30.397643 1.556605 0.614402 0.086228 -0.032518 859739.000000 0 0 1
0.279723 -18.020958 26.090485 31.710355 -1.555275 0.604520 0.090345 -0.031722 310369.000000 0 0 1
0.892523 -17.048458 26.946245 31.899007 -1.518492 0.564724 0.107009 -0.037344 -657148.000000 0 0 1
1.562423 -17.682258 28.140785 33.271718 -1.482664 0.562758 0.098575 -0.032184 -964073.000000 0 0 1
2.751623 -18.320058 27.797295 33.404874 -1.421713 0.587854 0.092785 -0.034227 -721432.000000 0 0 1
3.718523 -18.322858 28.796315 34.333399 -1.370571 0.575857 0.104276 -0.045382 177664.000000 0 0 1
4.662623 -17.100858 29.047205 34.028217 -1.304612 0.547898 0.123041 -0.039444 -638690.000000 0 0 1
4.026223 -15.907758 29.382815 33.654377 -1.322904 0.509321 0.123332 -0.043567 -550640.000000 0 0 1
4.800723 -14.888458 29.902075 33.746811 -1.258876 0.481997 0.144056 -0.049559 -434764.000000 0 0 1
3.852723 -13.935958 30.644145 33.883891 -1.301074 0.440856 0.127207 -0.050111 111290.000000 0 0 1
3.267623 -14.520358 31.779788 35.092351 -1.349446 0.437994 0.126467 -0.054600 -297321.000000 0 0 1
2.670223 -13.526958 32.541199 35.341737 -1.375902 0.400776 0.110200 -0.050094 -234355.000000 0 0 1
1.715823 -14.106658 33.608563 36.489415 -1.449759 0.400029 0.099409 -0.044947 -52742.500000 0 0 1
2.411423 -14.593258 -33.029353 36.190002 -1.407034 2.720554 0.119064 -0.039689 -147663.000000 0 0 1
1.561623 -15.119658 -32.045723 35.467888 -1.467877 2.698695 0.099035 -0.047280 773049.000000 0 0 1
2.441123 -15.436158 -30.777303 34.517769 -1.413952 2.671743 0.107275 -0.035556 773543.000000 0 0 1
1.586723 -15.974758 -29.790043 33.840172 -1.471794 2.647324 0.096509 -0.028848 -93627.400000 0 0 1
2.231023 -16.110958 -28.518043 32.830157 -1.433193 2.623275 0.098325 -0.024867 -7054.180000 0 0 1
1.999923 -17.506358 -27.917283 33.012830 -1.457050 2.578577 0.092464 -0.033590 -176367.000000 0 0 1
2.784223 -18.527558 -28.486173 34.095224 -1.421638 2.559818 0.077538 -0.026036 -81671.600000 0 0 1
2.755523 -19.698958 -27.612773 34.030972 -1.431816 2.517342 0.067305 -0.030544 -832997.000000 0 0 1
3.913423 -20.677258 -27.863093 34.917271 -1.383747 2.494723 0.048094 -0.027871 736665.000000 0 0 1
5.213723 -20.253958 -27.387353 34.459727 -1.318849 2.489415 0.063370 -0.016819 989478.000000 0 0 1
5.399323 -20.199358 -25.959473 33.332581 -1.309601 2.463550 0.082599 -0.016992 -806920.000000 0 0 1
6.334623 -21.330458 -25.446003 33.802588 -1.282117 2.423076 0.039811 -0.010506 -140549.000000 0 0 1
5.773623 -22.619658 -25.455713 34.539498 -1.320884 2.399422 0.048430 -0.006751 289335.000000 0 0 1
6.208323 -23.299758 -26.626033 35.921687 -1.310392 2.405689 0.031342 -0.004022 -63553.100000 0 0 1
5.660823 -24.747458 -26.870743 36.966450 -1.345922 2.384587 0.041893 -0.001519 -84984.000000 0 0 1
6.053023 -25.664808 -25.882603 36.949027 -1.339180 2.346887 0.055426 -0.009330 163779.000000 0 0 1
5.518223 -26.974338 -26.220523 38.020803 -1.369007 2.331783 0.071564 -0.007626 43273.400000 0 0 1
6.035423 -28.060158 -25.317653 38.272475 -1.358935 2.293628 0.092883 -0.015635 -293261.000000 0 0 1
7.390223 -28.405338 -25.421233 38.829341 -1.316269 2.284571 0.114066 -0.028503 -476686.000000 0 0 1
7.726623 -29.682718 -24.881053 39.494699 -1.316141 2.252330 0.121355 -0.041548 -263838.000000 0 0 1
9.250623 -29.840458 -24.819953 39.900589 -1.270188 2.242148 0.139036 -0.047950 -304030.000000 0 0 1
9.795223 -29.953068 -26.083743 40.908365 -1.254739 2.262193 0.144551 -0.049800 -896099.000000 0 0 1
11.185923 -30.004908 -26.147833 41.341608 -1.213953 2.255550 0.137441 -0.034819 -593164.000000 0 0 1
11.656323 -29.828488 -27.558343 42.250098 -1.198265 2.281368 0.135484 -0.052169 -149201.000000 0 0 1
11.405223 -30.964258 -28.386193 43.527466 -1.217882 2.281206 0.145605 -0.059027 9851.960000 0 0 1
11.460223 -30.646778 -29.760573 44.229553 -1.212951 2.308873 0.118342 -0.029716 22930.300000 0 0 1
-36.119387 -4.921858 -5.674253 36.892167 0.135432 1.725216 0.211589 -0.053887 -29252.000000 0 0 1
-35.519826 -4.383058 -4.527853 36.074516 0.122777 1.696642 0.203928 -0.056225 313378.000000 0 0 1
-34.808803 -3.142158 -4.672753 35.261318 0.090025 1.703705 0.221339 -0.066902 -261683.000000 0 0 1
-35.528040 -1.930158 -5.241953 35.964499 0.054274 1.717071 0.222955 -0.056663 -444196.000000 0 0 1
-36.550207 -1.509258 -4.364253 36.840768 0.041269 1.689538 0.167783 -0.044661 278821.000000 0 0 1
-37.509297 -0.677158 -5.013453 37.848918 0.018051 1.703646 0.165576 -0.048500 -16840.800000 0 0 1
36.680844 -0.080358 -4.010053 36.899475 -0.002191 1.679686 0.155398 -0.040291 -733141.000000 0 0 1
37.288144 0.838442 -3.132053 37.428845 0.022482 1.654574 0.166665 -0.029648 -287022.000000 0 0 1
36.395744 1.749042 -2.565653 36.527960 0.048019 1.641092 0.144775 -0.032859 -1000420.000000 0 0 1
37.075714 2.953142 -1.840953 37.238672 0.079484 1.620253 0.142638 -0.038710 530464.000000 0 0 1
-37.265327 3.855842 -2.593553 37.553943 -0.103103 1.639913 0.179516 -0.052270 625445.000000 0 0 1
-35.983454 3.439042 -3.015553 36.272986 -0.095283 1.654027 0.151422 -0.034499 -215857.000000 0 0 1
-34.957902 4.588742 -3.232353 35.405643 -0.130519 1.662218 0.137593 -0.044399 -119712.000000 0 0 1
-34.666161 5.240542 -2.002753 35.117190 -0.150036 1.627858 0.153821 -0.042135 176293.000000 0 0 1
-34.209223 6.549542 -2.191653 34.899438 -0.189166 1.633637 0.168394 -0.055732 -373404.000000 0 0 1
-33.814547 7.216842 -0.864553 34.586903 -0.210269 1.595795 0.181809 -0.058534 16057.000000 0 0 1
-32.493497 6.914542 -0.438253 33.223942 -0.209670 1.583988 0.191664 -0.048159 511301.000000 0 0 1
-31.948997 7.460442 0.734747 32.816710 -0.229400 1.548405 0.206794 -0.055136 176836.000000 0 0 1
-31.637117 8.970442 0.836147 32.894911 -0.276290 1.545375 0.211216 -0.055950 -91582.600000 0 0 1
-32.850137 9.692842 0.795447 34.259531 -0.286921 1.547576 0.182795 -0.053246 212271.000000 0 0 1
-32.637167 11.061842 1.089147 34.478041 -0.326783 1.539201 0.190228 -0.038563 606356.000000 0 0 1
-33.976087 11.884742 1.209947 36.015074 -0.336494 1.537194 0.175664 -0.053297 -122976.000000 0 0 1
-34.586311 11.969242 -0.046353 36.598877 -0.333168 1.572063 0.137949 -0.043531 723362.000000 0 0 1
-35.973970 12.306842 0.090647 38.020956 -0.329623 1.568412 0.147043 -0.030822 1033590.000000 0 0 1
-36.991937 11.172242 0.396847 38.644274 -0.293307 1.560527 0.178825 -0.052779 -200821.000000 0 0 1
-37.432557 10.464242 -0.742253 38.874769 -0.272591 1.589891 0.172803 -0.046809 174544.000000 0 0 1
36.568404 9.653642 -0.579353 37.825608 0.258100 1.586113 0.205094 -0.048439 429963.000000 0 0 1
36.137614 8.848942 -1.802753 37.248904 0.240143 1.619213 0.198657 -0.058410 346613.000000 0 0 1
35.356264 9.612142 -2.739853 36.741876 0.265450 1.645436 0.184822 -0.057185 377953.000000 0 0 1
35.005114 8.738042 -3.848053 36.283865 0.244623 1.677050 0.166611 -0.059936 -171725.000000 0 0 1
34.175254 9.327542 -4.985853 35.774429 0.266443 1.710621 0.145784 -0.053864 -245134.000000 0 0 1
32.824794 9.555642 -4.691753 34.507824 0.283281 1.707181 0.167580 -0.047236 -337932.000000 0 0 1
32.094444 10.097942 -5.751653 34.133609 0.304826 1.740108 0.153257 -0.028718 219687.000000 0 0 1
30.590774 10.248242 -5.376153 32.706649 0.323260 1.735921 0.171048 -0.036077 -13141.800000 0 0 1
29.747964 9.214042 -5.716753 31.662615 0.300366 1.752344 0.155093 -0.026469 -191318.000000 0 0 1
28.405564 9.631942 -5.820953 30.553786 0.326919 1.762483 0.148491 -0.022297 -294035.000000 0 0 1
27.484264 8.439842 -6.144153 29.400107 0.297939 1.781332 0.162634 -0.012454 -410686.000000 0 0 1
27.602364 7.874042 -7.424453 29.648162 0.277886 1.823909 0.179968 -0.015453 10673.000000 0 0 1
26.836864 6.693342 -7.485653 28.654024 0.244422 1.835106 0.196500 -0.008679 -221557.000000 0 0 1
27.057264 5.694042 -8.616653 28.961428 0.207418 1.872892 0.202488 -0.026968 178343.000000 0 0 1
28.301164 5.017342 -8.492253 29.970785 0.175461 1.858083 0.185518 -0.023772 648272.000000 0 0 1
28.424864 4.038042 -9.513053 30.245278 0.141116 1.890758 0.183626 -0.023409 -133482.000000 0 0 1
29.423264 2.934742 -9.103353 30.938846 0.099413 1.869453 0.149015 -0.023212 307225.000000 0 0 1
30.810564 3.366242 -9.088853 32.299066 0.108824 1.856046 0.145699 -0.017680 1405750.000000 0 0 1
31.580354 2.675242 -8.144153 32.723125 0.084510 1.822321 0.117270 -0.017616 -355618.000000 0 0 1
31.552484 1.087342 -8.023853 32.574895 0.034448 1.819678 0.096819 -0.022294 -1091250.000000 0 0 1
30.412384 0.546842 -7.377453 31.299184 0.017979 1.808743 0.125801 -0.025059 367584.000000 0 0 1
30.553714 -0.795058 -6.978153 31.350537 -0.026016 1.795261 0.109958 -0.029354 -260522.000000 0 0 1
30.432834 -1.894558 -8.009553 31.526174 -0.062174 1.827672 0.104903 -0.023756 -854955.000000 0 0 1
31.455264 -1.782558 -8.947453 32.751611 -0.056609 1.847505 0.105173 -0.022558 -106929.000000 0 0 1
31.394534 -2.859858 -9.823353 33.019597 -0.090843 1.872870 0.084619 -0.035468 -966364.000000 0 0 1
32.451774 -2.950358 -10.898053 34.359712 -0.090666 1.893546 0.092919 -0.038198 -1321370.000000 0 0 1
33.592874 -3.551658 -10.355153 35.331638 -0.105335 1.868248 0.120329 -0.031973 -348123.000000 0 0 1
34.413084 -3.953458 -11.449053 36.482475 -0.114381 1.890013 0.134434 -0.043069 -248731.000000 0 0 1
35.881364 -4.221158 -11.073853 37.787837 -0.117104 1.868215 0.179636 -0.043187 -279292.000000 0 0 1
36.089144 -5.472558 -10.404353 37.955576 -0.150493 1.848470 0.168075 -0.048321 491573.000000 0 0 1
37.458764 -5.684158 -10.099853 39.210657 -0.150596 1.831312 0.197992 -0.047152 189968.000000 0 0 1
-37.466787 -6.988158 -9.317153 39.235237 0.184397 1.810556 0.193792 -0.055627 -122243.000000 0 0 1
37.308624 -6.815058 -7.925253 38.745168 -0.180675 1.776798 0.179910 -0.055385 502719.000000 0 0 1
36.794794 -8.015658 -7.386953 38.375444 -0.214496 1.764497 0.181235 -0.046748 -309194.000000 0 0 1
36.222414 -7.794658 -6.000953 37.534403 -0.211957 1.731364 0.168680 -0.038991 -606858.000000 0 0 1
37.236574 -7.662558 -5.026553 38.347666 -0.202947 1.702253 0.186546 -0.036172 451481.000000 0 0 1
37.448934 -8.744858 -4.143753 38.679011 -0.229403 1.678134 0.207746 -0.037116 -465992.000000 0 0 1
-36.859317 -9.880558 -4.665553 38.444793 0.261904 1.692453 0.202642 -0.043454 -673775.000000 0 0 1
-37.546837 -10.754158 -5.539153 39.447422 0.278952 1.711681 0.185164 -0.044612 228061.000000 0 0 1
-36.619987 -11.541558 -6.213153 38.895171 0.305316 1.731225 0.151767 -0.040153 -69418.300000 0 0 1
-37.203107 -12.010658 -7.588753 39.823564 0.312277 1.762528 0.163692 -0.046127 208408.000000 0 0 1
-37.501167 -10.888358 -8.473453 39.958645 0.282578 1.784474 0.163657 -0.050681 267741.000000 0 0 1
37.093144 -11.388158 -9.676053 39.990217 -0.297880 1.815182 0.174220 -0.038504 -33598.100000 0 0 1
37.274584 -10.584158 -11.006753 40.281107 -0.276669 1.847565 0.152928 -0.041382 -87835.300000 0 0 1
36.465044 -9.412958 -10.990453 39.231279 -0.252622 1.854742 0.153099 -0.042728 390879.000000 0 0 1
36.366274 -8.822658 -12.284153 39.385855 -0.238007 1.887981 0.154486 -0.050376 -509264.000000 0 0 1
35.154224 -7.962158 -12.668153 38.205988 -0.222734 1.908769 0.143914 -0.045606 -476995.000000 0 0 1
35.224194 -7.327458 -13.977453 38.597988 -0.205098 1.941347 0.144358 -0.030884 378608.000000 0 0 1
34.143204 -6.438058 -14.120853 37.504739 -0.186372 1.956821 0.117834 -0.036140 -159977.000000 0 0 1
34.455574 -5.361058 -15.134053 38.012722 -0.154356 1.980275 0.115441 -0.032481 -44590.600000 0 0 1
35.399414 -4.455758 -14.581453 38.543366 -0.125212 1.958769 0.130463 -0.018761 274877.000000 0 0 1
35.637964 -3.364158 -15.469053 38.995815 -0.094119 1.978699 0.127992 -0.029586 1082290.000000 0 0 1
37.061434 -2.677358 -15.301553 40.185266 -0.072116 1.961431 0.150252 -0.037895 397888.000000 0 0 1
-37.471797 -2.451558 -16.539553 41.032944 0.065331 1.985676 0.153638 -0.026519 2125870.000000 0 0 1
-36.032587 -2.134558 -16.397153 39.645558 0.059171 1.997194 0.186259 -0.021090 2207360.000000 0 0 1
-35.833642 -0.661858 -16.033553 39.262740 0.018468 1.991459 0.176979 -0.021839 -662388.000000 0 0 1
-36.053657 0.179242 -17.169053 39.933378 -0.004971 2.015225 0.143252 -0.010420 262129.000000 0 0 1
-35.842805 1.551042 -16.838353 39.631333 -0.043246 2.009620 0.143281 -0.028093 60301.600000 0 0 1
-36.093417 2.461342 -18.010253 40.412401 -0.068088 2.032709 0.119631 -0.024760 -424887.000000 0 0 1
-35.069240 2.407442 -18.936953 39.928130 -0.068541 2.064938 0.102736 -0.015635 -199038.000000 0 0 1
-35.265759 3.427642 -19.944353 40.659559 -0.096890 2.083483 0.094535 -0.020925 -211086.000000 0 0 1
-34.101409 3.582642 -20.954653 40.185058 -0.104674 2.119350 0.077206 -0.007794 411359.000000 0 0 1
-32.887977 4.066942 -20.358853 38.892698 -0.123036 2.121705 0.082705 -0.008161 488744.000000 0 0 1
-32.084207 4.592242 -21.390053 38.833225 -0.142165 2.154141 0.069656 -0.006511 164157.000000 0 0 1
-30.635457 5.007442 -21.011453 37.484488 -0.162020 2.165831 0.081491 -0.011334 660705.000000 0 0 1
-29.786577 3.942542 -20.622053 36.442460 -0.131595 2.172296 0.089975 0.000686 661282.000000 0 0 1
-28.395417 4.165442 -20.830453 35.462070 -0.145655 2.198640 0.069519 0.003175 347755.000000 0 0 1
-27.501187 3.156942 -20.134153 34.229602 -0.114293 2.199638 0.090303 0.002896 -329445.000000 0 0 1
-27.390997 3.255242 -18.770253 33.364438 -0.118289 2.168303 0.089736 0.003476 -55577.800000 0 0 1
-26.827347 2.088642 -18.212753 32.492666 -0.077698 2.165809 0.097839 0.000160 -539658.000000 0 0 1
-26.026277 2.447742 -16.962553 31.162265 -0.093773 2.146386 0.106330 -0.004441 -1394330.000000 0 0 1
-24.824477 2.990442 -17.291953 30.400807 -0.119886 2.175841 0.092707 -0.009863 -845775.000000 0 0 1
-23.920777 3.112542 -16.180653 29.046601 -0.129392 2.161636 0.113598 -0.022801 481.934000 0 0 1
-22.935877 4.258842 -16.206053 28.404724 -0.183594 2.177960 0.120311 -0.025274 -741028.000000 0 0 1
-21.809077 3.850442 -16.913553 27.866288 -0.174751 2.223018 0.138046 -0.036249 -555122.000000 0 0 1
-20.728977 4.746142 -16.758553 27.075181 -0.225082 2.238219 0.128849 -0.038158 713684.000000 0 0 1
-19.378877 4.168442 -17.350553 26.343091 -0.211874 2.289803 0.153582 -0.046154 466065.000000 0 0 1
-18.965777 3.077542 -16.595853 25.388862 -0.160866 2.283216 0.177863 -0.047270 117265.000000 0 0 1
-17.978777 2.338642 -17.311253 25.067611 -0.129352 2.333090 0.140207 -0.048416 -548302.000000 0 0 1
-17.836877 0.860442 -16.916353 24.597917 -0.048202 2.329133 0.145731 -0.048008 527801.000000 0 1 0
-18.801277 -0.132458 -17.344253 25.579849 0.007045 2.315894 0.094123 -0.042342 874688.000000 0 0 1
-20.136177 0.107842 -16.923653 26.303750 -0.005356 2.269719 0.104650 -0.046551 315578.000000 0 0 1
-21.245577 -0.820058 -17.510653 27.543965 0.038580 2.259756 0.091516 -0.044958 75250.100000 0 0 1
-21.142077 -2.000358 -16.817453 27.089031 0.094334 2.240586 0.087669 -0.045457 627801.000000 0 0 1
-22.040977 -2.963958 -17.356153 28.210384 0.133673 2.233487 0.084256 -0.029752 63425.400000 0 0 1
-22.138977 -4.224858 -16.442153 27.898533 0.188566 2.201057 0.098276 -0.032576 -109247.000000 0 0 1
-22.464877 -3.765758 -15.170253 27.367649 0.166085 2.158334 0.088673 -0.037200 337940.000000 0 0 1
-22.768777 -4.823458 -14.345153 27.339831 0.208759 2.123157 0.087323 -0.045521 -175735.000000 0 0 1
-22.951377 -4.266258 -12.912053 26.677477 0.183785 2.076023 0.096757 -0.044645 -490370.000000 0 0 1
-24.181777 -3.625858 -12.751553 27.577297 0.148833 2.051489 0.092591 -0.045752 113560.000000 0 0 1
-24.292977 -3.098758 -11.448153 27.033521 0.126873 2.008080 0.111657 -0.053900 50026.100000 0 0 1
-25.468237 -2.060058 -11.366353 27.965495 0.080712 1.989353 0.177909 -0.055665 90051.100000 0 0 1
-25.656977 -1.476458 -10.095153 27.611094 0.057483 1.945095 0.184302 -0.055353 379989.000000 0 0 1
-26.127957 -0.174658 -10.159153 28.034069 0.006685 1.941623 0.207151 -0.057171 -680848.000000 0 0 1
-26.470247 0.274142 -8.766653 27.885540 -0.010356 1.890600 0.226948 -0.051883 -464180.000000 0 0 1
-25.374377 0.367742 -7.891153 26.575638 -0.014492 1.872274 0.194657 -0.051028 245104.000000 0 0 1
-25.757657 0.607042 -6.571753 26.589722 -0.023563 1.820538 0.196764 -0.054353 236244.000000 0 0 1
-24.509077 1.011342 -5.728453 25.189935 -0.041241 1.800214 0.149695 -0.043265 211908.000000 0 0 1
-24.138077 2.363042 -5.925653 24.966860 -0.097586 1.810424 0.184849 -0.039761 561099.000000 0 1 0
-22.857277 2.659242 -5.372753 23.630344 -0.115820 1.800169 0.174454 -0.026460 370350.000000 0 1 0
-22.482177 4.147542 -5.590953 23.535275 -0.182430 1.810646 0.175685 -0.029596 -104454.000000 0 1 0
-23.085677 5.062442 -4.686853 24.094468 -0.215872 1.766564 0.191396 -0.032404 774422.000000 0 1 0
-22.561177 6.342942 -4.932353 23.949274 -0.274069 1.778231 0.164706 -0.035591 -543660.000000 0 1 0
-23.039977 7.242342 -3.732553 24.438167 -0.304559 1.724131 0.183658 -0.040303 -473966.000000 0 1 0
-22.448277 7.081542 -2.442253 23.665122 -0.305580 1.674181 0.174747 -0.036933 1169860.000000 0 1 0
-21.060577 7.461342 -2.449453 22.477085 -0.340483 1.679989 0.161834 -0.034388 484804.000000 0 1 0
-20.645977 8.959542 -2.578553 22.653448 -0.409436 1.684870 0.154494 -0.040811 -711187.000000 0 1 0
-20.603777 9.506642 -3.895853 23.023239 -0.432296 1.740828 0.132793 -0.032748 597383.000000 0 1 0
-20.029177 10.790242 -3.893653 23.081547 -0.494146 1.740298 0.127098 -0.029226 -323796.000000 0 1 0
-19.841677 11.278942 -5.345053 23.440910 -0.516896 1.800842 0.115003 -0.030103 -772877.000000 0 1 0
-18.711977 10.843142 -6.005653 22.445037 -0.525192 1.841668 0.079428 -0.022015 -356734.000000 0 1 0
-18.757477 11.349042 -7.363053 23.127003 -0.544118 1.894811 0.091525 -0.018906 5483.920000 0 1 0
-17.665477 10.830242 -8.322953 22.330131 -0.549977 1.952738 0.085719 -0.014770 -57267.600000 0 1 0
-17.800477 9.509542 -8.826053 22.026974 -0.490655 1.983069 0.115046 -0.011531 138730.000000 0 1 0
-18.675577 9.302642 -9.917853 23.101518 -0.462141 2.014532 0.116242 -0.003474 -161864.000000 0 1 0
-18.326977 10.046142 -11.201853 23.712540 -0.501431 2.062810 0.102439 -0.010840 53683.100000 0 1 0
-17.032777 9.733142 -11.681153 22.831971 -0.519152 2.107858 0.090555 -0.015871 53719.100000 0 1 0
-16.857377 10.464242 -12.842353 23.634668 -0.555538 2.145242 0.085005 -0.024088 93552.300000 0 1 0
-15.744777 10.002342 -13.817853 23.213744 -0.565958 2.208366 0.079536 -0.019118 -438167.000000 0 1 0
-15.871477 8.762342 -14.435853 23.174906 -0.504440 2.243252 0.090923 -0.034184 193062.000000 0 1 0
-15.525677 7.602942 -13.588953 21.988884 -0.455375 2.236982 0.075092 -0.026605 -155696.000000 0 1 0
-15.786377 6.198642 -14.293153 22.179429 -0.374161 2.271078 0.096557 -0.033327 -448510.000000 0 1 0
-14.981177 5.985542 -15.396753 22.300726 -0.380108 2.332859 0.113368 -0.031375 198399.000000 0 1 0
-15.336977 4.812542 -16.162553 22.794989 -0.304057 2.358932 0.134342 -0.030748 75363.700000 0 1 0
33.882134 -15.744058 27.789325 46.563086 -0.434987 0.931277 0.059209 -0.011260 -211633.000000 0 0 1
33.091264 -14.622358 28.167555 45.850368 -0.416081 0.909252 0.060235 -0.013065 349634.000000 0 0 1
32.167924 -14.964058 29.233805 45.970792 -0.435410 0.881595 0.065920 -0.013174 641775.000000 0 0 1
32.724994 -15.026758 30.715405 47.330379 -0.430464 0.864583 0.049893 -0.019634 45891.600000 0 0 1
32.993934 -13.710058 31.131065 47.388908 -0.393825 0.854060 0.053642 -0.024497 -59219.300000 0 0 1
33.032484 -13.610258 32.539047 48.323635 -0.390831 0.832056 0.047676 -0.031839 -72741.800000 0 0 1
32.995214 -12.151958 32.988722 48.214210 -0.352879 0.817274 0.064512 -0.024645 9208.250000 0 0 1
32.904324 -12.039358 -33.356563 48.376657 -0.350760 2.331619 0.052552 -0.034256 41169.900000 0 0 1
32.940764 -10.698758 -32.856783 47.740188 -0.314040 2.329859 0.066065 -0.023348 -122188.000000 0 0 1
32.388644 -10.466458 -31.426153 46.326818 -0.312560 2.316321 0.071090 -0.018890 -790599.000000 0 0 1
31.023134 -10.675558 -31.320023 45.357978 -0.331423 2.332987 0.107881 -0.024957 -756139.000000 0 0 1
30.579604 -10.553258 -29.956173 44.089179 -0.332310 2.317802 0.112034 -0.028384 183526.000000 0 0 1
29.481964 -9.404658 -29.754213 42.929558 -0.308793 2.336569 0.105884 -0.022871 888564.000000 0 0 1
28.948664 -9.168158 -28.435003 41.600837 -0.306710 2.323370 0.099616 -0.028571 203969.000000 0 0 1
28.075664 -10.195858 -28.061233 40.983304 -0.348347 2.324987 0.112290 -0.027268 -1203510.000000 0 0 1
27.519264 -10.062458 -26.588913 39.566820 -0.350550 2.307703 0.106241 -0.016122 -633437.000000 0 0 1
26.608764 -8.994958 -26.364773 38.523198 -0.325985 2.324559 0.099461 -0.013366 432511.000000 0 0 1
25.326164 -9.000658 -26.954453 38.065325 -0.341468 2.357615 0.099116 -0.013353 450291.000000 0 0 1
24.389364 -10.273058 -26.851563 37.701236 -0.398657 2.363452 0.105432 -0.010611 -822617.000000 0 0 1
24.993164 -11.371158 -27.521543 38.876687 -0.426980 2.357344 0.109497 -0.018370 -132140.000000 0 0 1
24.313964 -12.613358 -27.420533 38.757596 -0.478551 2.356734 0.120158 -0.027966 93711.300000 0 0 1
25.162264 -13.776758 -28.000403 40.086920 -0.500935 2.344085 0.117864 -0.016501 258463.000000 0 0 1
25.240164 -13.603458 -29.426673 41.085873 -0.494328 2.369172 0.115500 -0.023003 441328.000000 0 0 1
26.295564 -14.424858 -29.933073 42.373601 -0.501742 2.355207 0.114861 -0.015953 184195.000000 0 0 1
26.293864 -14.635258 -31.441373 43.521466 -0.507899 2.378112 0.121389 -0.020087 -23968.400000 0 0 1
25.116664 -15.231458 -31.976623 43.420600 -0.545133 2.398588 0.132824 -0.014156 207516.000000 0 0 1
25.251664 -15.525058 -33.348543 44.618373 -0.551240 2.414962 0.135512 -0.014173 202316.000000 0 0 1
25.483264 -14.386858 33.375535 44.388115 -0.513954 0.719853 0.106427 -0.017915 169355.000000 0 0 1
24.379764 -13.511958 33.357214 43.470101 -0.506084 0.696083 0.116667 -0.016863 -84046.800000 0 0 1
24.322464 -12.691058 32.141944 42.258133 -0.480922 0.706545 0.093011 -0.019471 239757.000000 0 0 1
23.245264 -11.535758 32.291366 41.426421 -0.460653 0.676949 0.091621 -0.020052 1050340.000000 0 0 1
21.876664 -11.901558 32.225619 40.727461 -0.498248 0.657945 0.079235 -0.007939 334276.000000 0 0 1
21.368064 -12.153458 30.910745 39.493985 -0.517138 0.671853 0.065946 -0.009548 -241802.000000 0 0 1
19.840664 -12.380558 30.895135 38.748413 -0.557879 0.647944 0.072132 -0.002842 624871.000000 0 0 1
18.891064 -11.321558 30.976905 38.008139 -0.539910 0.618055 0.071172 -0.004069 5331.340000 0 0 1
18.324764 -11.253358 32.206523 38.725898 -0.550727 0.588718 0.043771 0.008731 -267058.000000 0 0 1
17.431964 -10.004358 32.396638 38.124831 -0.521014 0.555282 0.050500 0.004312 -393244.000000 0 0 1
16.359364 -9.908958 31.488685 36.842279 -0.544604 0.545845 0.095746 -0.000468 -58046.500000 0 0 1
15.723064 -8.627958 31.461055 36.214008 -0.501879 0.518116 0.099240 -0.000312 806667.000000 0 0 1
14.594064 -8.396658 32.532065 36.630941 -0.522095 0.477594 0.105830 -0.006308 308920.000000 0 0 1
13.469364 -9.261458 32.377405 36.269750 -0.602351 0.467532 0.113854 -0.006231 76224.400000 0 0 1
12.362464 -9.074158 33.209381 36.579145 -0.633188 0.432603 0.107712 -0.011845 31260.300000 0 0 1
11.315364 -8.116258 32.625596 35.473097 -0.622228 0.403410 0.146015 -0.021825 -466369.000000 0 0 1
11.730964 -6.750058 32.707314 35.396994 -0.522139 0.392348 0.131635 -0.021590 1426780.000000 0 0 1
10.530664 -5.996858 32.362545 34.557076 -0.517666 0.358297 0.153705 -0.020028 1369830.000000 0 0 1
10.710164 -4.489158 32.479130 34.492812 -0.396905 0.343385 0.141457 -0.029070 -20684.900000 0 0 1
10.621364 -4.075958 33.858255 35.718458 -0.366421 0.324154 0.126013 -0.050231 276671.000000 0 0 1
11.299564 -2.846758 -33.620613 35.582717 -0.246799 2.807957 0.099378 -0.037726 -160459.000000 0 0 1
10.827464 -2.048958 -32.326983 34.153565 -0.187026 2.813065 0.091284 -0.044547 -1019800.000000 0 0 1
9.519264 -1.634558 -32.404133 33.812956 -0.170052 2.851911 0.094015 -0.024402 -1183640.000000 0 0 1
9.141364 -0.991958 -31.194023 32.521002 -0.108090 2.854942 0.093011 -0.021849 -967662.000000 0 0 1
7.648664 -0.788458 -31.199093 32.132649 -0.102722 2.899953 0.092518 -0.026252 -1247140.000000 0 0 1
7.177764 0.073542 -32.229683 33.019360 0.010245 2.922451 0.089141 -0.027405 -99796.800000 0 0 1
5.772164 0.125242 -32.076673 32.592123 0.021694 2.963508 0.111043 -0.029000 59317.000000 0 0 1
5.094964 1.091842 -33.063883 33.471945 0.211105 2.985285 0.114775 -0.025669 -49449.600000 0 0 1
5.544964 2.463642 -33.019323 33.572188 0.418106 2.959860 0.095007 -0.020503 -35537.300000 0 0 1
4.899764 3.138342 33.696545 34.195234 0.569674 0.170992 0.087178 -0.019506 238097.000000 0 0 1
5.780064 4.413342 33.368742 34.152009 0.652114 0.214583 0.082008 -0.016508 358427.000000 0 0 1
5.307564 5.315642 32.449244 33.307353 0.786159 0.227485 0.101087 -0.034151 -271815.000000 0 0 1
6.215364 6.365842 32.168526 33.376171 0.797358 0.269826 0.104452 -0.031696 -86349.900000 0 0 1
5.621864 7.397642 31.190855 32.545352 0.920955 0.289519 0.119786 -0.032420 -646378.000000 0 0 1
4.456364 7.973342 31.692983 32.983004 1.061140 0.280604 0.136857 -0.033533 -577526.000000 0 0 1
4.129064 9.263942 31.232385 32.837961 1.151513 0.313999 0.149586 -0.044116 -132632.000000 0 0 1
3.593364 9.348942 29.841165 31.477137 1.203845 0.323821 0.149101 -0.047825 -397716.000000 0 0 1
2.274464 8.916942 29.606395 31.003608 1.321050 0.301359 0.131389 -0.047857 -316077.000000 0 0 1
1.914564 9.018142 28.264365 29.729897 1.361601 0.315294 0.101837 -0.040740 320691.000000 0 0 1
0.659964 8.233342 27.788765 28.990325 1.490810 0.288917 0.120054 -0.042162 -9050.900000 0 0 1
-0.519336 8.712442 28.368965 29.681216 -1.511258 0.298467 0.113041 -0.035509 -668300.000000 0 0 1
-1.584036 8.522342 27.456535 28.792374 -1.387025 0.305807 0.112229 -0.032996 -521510.000000 0 0 1
-2.971436 8.679742 28.024495 29.487959 -1.240960 0.316371 0.093153 -0.033978 -885766.000000 0 0 1
-3.229336 9.958442 28.560295 30.418574 -1.257215 0.351348 0.094356 -0.034791 -1197160.000000 0 0 1
-4.480636 9.980342 29.118775 31.106051 -1.148819 0.359386 0.070979 -0.024362 -1397890.000000 0 0 1
-4.738336 11.342442 29.856875 32.288323 -1.175080 0.390561 0.055401 -0.022803 -285205.000000 0 0 1
-4.875536 12.507042 29.054735 32.005853 -1.199094 0.432801 0.054173 -0.026685 -737717.000000 0 0 1
-5.929436 12.504542 28.189095 31.402976 -1.128015 0.456373 0.056197 -0.030770 -1196000.000000 0 0 1
-6.196836 13.931542 27.631685 31.559447 -1.152270 0.504236 0.048028 -0.025943 -1168.770000 0 0 1
-5.256836 14.476242 26.724075 30.844321 -1.222468 0.522813 0.051804 -0.016875 -225869.000000 0 0 1
-5.523936 15.794142 26.326455 31.193766 -1.234348 0.566163 0.049968 -0.014790 154834.000000 0 0 1
-4.332336 16.534942 25.634115 30.810409 -1.314546 0.588102 0.081819 -0.020908 414698.000000 0 0 1
-4.024036 16.038942 24.355835 29.438873 -1.324979 0.596448 0.073436 -0.007871 -632228.000000 0 0 1
-2.934836 16.732842 23.862105 29.291660 -1.397169 0.618691 0.076355 -0.009287 -429467.000000 0 0 1
-2.714936 16.557942 22.349785 27.947258 -1.408277 0.643979 0.080253 -0.013168 149439.000000 0 0 1
-2.304136 15.223142 21.955585 26.816055 -1.420579 0.611570 0.083863 -0.020368 143954.000000 0 0 1
-2.394536 15.042442 20.563885 25.590667 -1.412935 0.637528 0.082008 -0.026001 237829.000000 0 0 1
-1.510336 13.861842 20.033485 24.408448 -1.462268 0.608056 0.071044 -0.026399 -234655.000000 0 1 0
-2.097936 12.603742 20.117185 23.831844 -1.405855 0.565855 0.073771 -0.023036 -416367.000000 0 1 0
-1.323736 11.571542 19.563785 22.768280 -1.456896 0.536982 0.061562 -0.024990 -263096.000000 0 1 0
-2.106936 10.218342 19.353885 21.986964 -1.367454 0.494421 0.049025 -0.021340 57408.000000 0 1 0
-2.400536 9.451042 20.505485 22.705940 -1.322059 0.443887 0.088182 -0.038433 416566.000000 0 1 0
-3.412336 9.959542 21.383885 23.834997 -1.240711 0.457491 0.093864 -0.032775 353786.000000 0 1 0
-4.918236 9.823342 21.051885 23.745925 -1.106614 0.480969 0.073022 -0.024834 160473.000000 0 1 0
-5.468036 8.507542 21.051585 23.354806 -0.999550 0.447847 0.050440 -0.030383 516502.000000 0 1 0
-6.889336 8.623542 20.959485 23.688150 -0.896727 0.484713 0.041316 -0.026224 646422.000000 0 1 0
-7.647136 7.293442 21.167085 23.658371 -0.761729 0.463043 0.039075 -0.017453 -18134.400000 0 1 0
-7.386636 6.705942 22.437285 24.555322 -0.737134 0.418390 0.037793 -0.013778 -13947.800000 0 1 0
-8.027736 5.492642 22.641685 24.642638 -0.600049 0.405764 0.037137 -0.013816 -207570.000000 0 1 0
-8.039436 4.994142 24.058395 25.853054 -0.555866 0.374796 0.043412 -0.018026 -540653.000000 0 0 1
-8.830736 5.694942 24.975785 27.096201 -0.572782 0.398240 0.052997 -0.021842 -74371.300000 0 0 1
-9.127236 4.860342 26.057195 28.034029 -0.489316 0.377784 0.054608 -0.017111 -126554.000000 0 0 1
-10.095236 5.643142 26.995055 29.368212 -0.509720 0.404770 0.065631 -0.022194 44364.700000 0 0 1
-9.397336 6.582642 27.802575 30.076973 -0.611048 0.391387 0.054984 -0.026772 -143058.000000 0 0 1
-10.214536 7.211942 28.748065 31.349643 -0.614773 0.410268 0.055798 -0.026397 -91263.900000 0 0 1
-9.485836 8.373942 29.577205 32.170096 -0.723222 0.404243 0.067730 -0.023463 655422.000000 0 0 1
-8.414436 7.782242 30.326355 32.419961 -0.746386 0.361345 0.091858 -0.027985 6366.300000 0 0 1
-7.846036 8.765842 31.107525 33.257757 -0.840712 0.361559 0.088864 -0.030517 -517619.000000 0 0 1
-6.741236 8.186242 31.999867 33.711279 -0.881899 0.320007 0.102657 -0.033361 -88049.000000 0 0 1
-5.580036 7.887542 31.242105 32.701977 -0.955088 0.299926 0.094892 -0.041463 -643749.000000 0 0 1
-4.749536 7.061042 32.016834 33.128448 -0.978670 0.259785 0.105953 -0.033580 636946.000000 0 0 1
-3.231436 7.352942 31.715764 32.716932 -1.156729 0.248025 0.087009 -0.033701 746374.000000 0 0 1
-2.900336 8.650742 32.142971 33.412840 -1.247304 0.276581 0.074207 -0.039230 403257.000000 0 0 1
-1.540036 8.958942 31.807480 33.080964 -1.400561 0.278372 0.070660 -0.040354 774129.000000 0 0 1
-1.345736 10.446642 31.451055 33.167940 -1.442682 0.323160 0.070071 -0.038561 -220903.000000 0 0 1
-1.599036 11.321242 32.484534 34.437950 -1.430482 0.338430 0.075859 -0.048033 103940.000000 0 0 1
-1.690836 12.667442 31.913959 34.377665 -1.438102 0.380890 0.069535 -0.042375 -232416.000000 0 0 1
-1.816936 13.748642 33.035148 35.828026 -1.439404 0.397459 0.070097 -0.037911 -1520200.000000 0 0 1
-0.614036 14.280642 33.423336 36.351523 -1.527825 0.404122 0.107818 -0.044765 -897620.000000 0 0 1
-0.794836 15.060542 -33.101133 36.374946 -1.518069 2.714076 0.107924 -0.048150 -470299.000000 0 0 1
0.541964 15.347242 -32.446683 35.897337 1.535498 2.699537 0.093476 -0.043683 -590325.000000 0 0 1
1.375664 16.139242 -33.274063 37.007173 1.485765 2.688562 0.117935 -0.046988 209188.000000 0 0 1
2.658064 16.303442 -32.684723 36.621833 1.409181 2.673638 0.134396 -0.045838 279729.000000 0 0 1
3.656764 16.999342 -33.635953 37.864586 1.358913 2.664475 0.137571 -0.032310 -347298.000000 0 0 1
3.422264 18.363742 -33.859423 38.670395 1.386550 2.637453 0.123043 -0.027342 304274.000000 0 0 1
4.596364 18.992442 33.357452 38.659527 1.333352 0.529911 0.098821 -0.008380 563433.000000 0 0 1
4.585964 20.540742 33.315032 39.406148 1.351137 0.563432 0.110115 -0.030710 -94247.200000 0 0 1
4.559464 21.130742 -33.148283 39.574052 1.358281 2.563720 0.133309 -0.050974 139701.000000 0 0 1
4.224464 22.488542 -33.209333 40.329151 1.385111 2.538274 0.128745 -0.043950 11310.500000 0 0 1
4.074764 23.189042 -31.882103 39.633368 1.396853 2.505505 0.146653 -0.050683 -105172.000000 0 0 1
3.737664 24.531242 -32.114363 40.584286 1.419596 2.483729 0.144465 -0.052272 60491.700000 0 0 1
3.293364 24.930542 -30.867823 39.814578 1.439455 2.457970 0.146634 -0.058130 -318927.000000 0 0 1
2.814664 26.367742 -30.728773 40.588639 1.464453 2.429626 0.147173 -0.063541 61987.000000 0 0 1
3.851864 27.348442 -30.813833 41.379541 1.430873 2.410827 0.155153 -0.062553 161689.000000 0 0 1
3.486164 28.639942 -30.427413 41.931218 1.449668 2.382776 0.135145 -0.061370 -385013.000000 0 0 1
4.637764 29.640242 -30.154903 42.536701 1.415586 2.358755 0.164278 -0.070983 286791.000000 0 0 1
5.519064 29.367342 -29.084893 41.699302 1.385031 2.342687 0.149159 -0.078108 322962.000000 0 0 1
6.461164 30.418842 -28.883453 42.441800 1.361500 2.319299 0.173499 -0.082688 465129.000000 0 0 1
7.624164 30.248342 -27.865803 41.828137 1.323887 2.299895 0.174367 -0.078877 -1179850.000000 0 0 1
8.750664 29.670642 -28.402923 41.995799 1.284000 2.313562 0.174030 -0.071108 -116699.000000 0 0 1
9.964664 30.369242 -28.093643 42.553944 1.253748 2.291867 0.170701 -0.069612 505281.000000 0 0 1
10.117364 31.789442 -28.779393 44.058860 1.262671 2.282604 0.185100 -0.071633 -740303.000000 0 0 1
9.345864 32.806642 -28.052573 44.165232 1.293271 2.259029 0.198183 -0.075208 754020.000000 0 0 1
9.104964 -33.630305 -28.764803 45.180877 -1.306398 2.260954 0.173200 -0.067462 -93256.200000 0 0 1
7.899664 -33.561605 -29.730973 45.527099 -1.339626 2.282387 0.153692 -0.047722 -134587.000000 0 0 1
8.099964 33.512342 -30.981683 46.352466 1.333644 2.302843 0.131812 -0.041517 -267918.000000 0 0 1
6.892764 32.996742 -31.482033 46.123894 1.364865 2.322047 0.126806 -0.041030 -147016.000000 0 0 1
7.059464 32.041942 -32.683363 46.311168 1.353941 2.354255 0.138599 -0.056071 -15419.600000 0 0 1
6.917364 32.781042 33.838645 47.618280 1.362830 0.780413 0.127579 -0.040372 143986.000000 0 0 1
6.962364 31.941342 32.744454 46.270110 1.356180 0.784586 0.115035 -0.034749 -13267.000000 0 0 1
6.225564 32.561742 31.531485 45.752150 1.381884 0.810439 0.103874 -0.032248 470561.000000 0 0 1
7.082964 33.438142 30.790215 46.003425 1.362059 0.837526 0.099760 -0.033568 418329.000000 0 0 1
6.387964 -33.687305 29.699875 45.362134 -1.383396 0.856973 0.076540 -0.043621 58002.000000 0 0 1
18.972423 -21.974858 28.917815 40.976667 -0.858592 0.787366 0.132244 -0.020596 -1056370.000000 0 0 1
18.075523 -20.894758 28.967655 40.030495 -0.857616 0.761735 0.112167 -0.018842 1090430.000000 0 0 1
16.705723 -21.361258 28.860715 39.602088 -0.907092 0.754276 0.098660 -0.016316 1295770.000000 0 0 1
16.058423 -21.683458 30.227075 40.518161 -0.933349 0.728742 0.087946 -0.015007 -578784.000000 0 0 1
16.833923 -22.645058 30.896655 41.842358 -0.931544 0.740093 0.106126 -0.024952 297257.000000 0 0 1
16.282723 -22.873758 32.204761 42.725666 -0.952160 0.717036 0.101883 -0.025773 250319.000000 0 0 1
17.137723 -23.867258 33.013720 44.195625 -0.948063 0.727272 0.124272 -0.029326 73078.200000 0 0 1
16.893523 -25.207008 32.639836 44.566167 -0.980357 0.748970 0.129146 -0.031831 126441.000000 0 0 1
17.589423 -26.044638 33.548154 45.969442 -0.976802 0.752778 0.131751 -0.037315 62964.500000 0 0 1
17.332623 -27.544948 33.275102 46.544349 -1.009148 0.774298 0.120152 -0.031402 240231.000000 0 0 1
17.961623 -28.014788 32.088399 46.228926 -1.000669 0.803600 0.124442 -0.036997 269069.000000 0 0 1
17.460623 -29.296678 31.826063 46.648333 -1.033328 0.819954 0.119239 -0.034527 57908.700000 0 0 1
18.282023 -30.103978 30.789885 46.781395 -1.025029 0.852417 0.144200 -0.040381 -434237.000000 0 0 1
19.479623 -30.630708 31.238535 47.890939 -1.004361 0.860201 0.144758 -0.042798 -546051.000000 0 0 1
20.205023 -31.264068 30.197215 47.932835 -0.997048 0.889256 0.129703 -0.035001 342097.000000 0 0 1
21.672423 -31.651018 30.578075 49.056086 -0.970392 0.897804 0.120293 -0.032334 560325.000000 0 0 1
22.582323 -30.593408 30.706085 48.875163 -0.934927 0.891488 0.109357 -0.028355 1015960.000000 0 0 1
23.952523 -31.002918 30.515405 49.659785 -0.912994 0.909058 0.088945 -0.026798 695149.000000 0 0 1
24.899423 -29.807008 30.368825 49.302176 -0.874866 0.907175 0.075603 -0.026496 -957967.000000 0 0 1
26.011723 -30.119678 29.629525 49.615658 -0.858453 0.930814 0.067272 -0.029118 -676526.000000 0 0 1
26.865223 -28.995218 29.429125 49.280181 -0.823510 0.930816 0.053878 -0.029742 -613255.000000 0 0 1
28.187123 -29.275568 28.787965 49.802808 -0.804338 0.954473 0.036071 -0.018650 -578500.000000 0 0 1
29.096323 -30.091498 29.542665 51.233420 -0.802210 0.956200 0.038993 -0.012303 466155.000000 0 0 1
30.368223 -30.068948 28.917555 51.600345 -0.780446 0.975911 0.033566 -0.027073 368901.000000 0 0 1
31.474023 -30.955058 29.512785 53.102111 -0.777085 0.981502 0.023981 -0.023285 235034.000000 0 0 1
31.207123 -32.300468 29.106475 53.520012 -0.802612 0.995787 0.011183 -0.024401 344248.000000 0 0 1
32.147023 -33.142778 29.764085 54.934284 -0.800648 0.998204 0.043115 -0.021328 -163107.000000 0 0 1
31.464623 33.148469 30.134425 54.744197 0.811453 0.987883 0.046614 -0.017297 330009.000000 0 0 1
30.494823 33.187386 31.127895 54.774836 0.827654 0.966372 0.066214 -0.013569 983310.000000 0 0 1
29.319523 -33.613408 31.179745 54.421247 -0.853522 0.960716 0.045277 -0.004054 608500.000000 0 0 1
28.110923 33.575858 30.392865 53.303738 0.873759 0.964068 0.058327 -0.011275 -521583.000000 0 0 1
27.546523 32.366014 30.914745 52.555602 0.865667 0.941929 0.046045 -0.005497 -393426.000000 0 0 1
26.235223 32.393967 30.397645 51.591403 0.890060 0.940728 0.050691 -0.001209 100935.000000 0 0 1
25.534523 30.996799 30.419825 50.380345 0.881723 0.922532 0.083790 -0.015328 47485.000000 0 0 1
25.724223 30.201109 29.298225 49.317630 0.865279 0.934685 0.075088 -0.013092 253942.000000 0 0 1
24.979523 28.986199 29.367315 48.235003 0.859507 0.916201 0.112304 -0.034124 262005.000000 0 0 1
24.312923 28.564169 27.990515 46.802766 0.865624 0.929727 0.111137 -0.043176 -161755.000000 0 0 1
23.166023 29.294299 27.678835 46.485896 0.901688 0.933003 0.133808 -0.042056 -128118.000000 0 0 1
22.460423 28.743979 26.553555 45.119599 0.907503 0.941576 0.128539 -0.029764 986164.000000 0 0 1
21.059723 29.426419 26.339235 44.756914 0.949628 0.941600 0.137348 -0.021795 590199.000000 0 0 1
21.120423 30.696109 25.765175 45.300857 0.968136 0.965803 0.133822 -0.025244 78019.200000 0 0 1
19.831423 31.172079 25.436865 44.855523 1.004189 0.967835 0.130882 -0.027976 -145920.000000 0 0 1
19.862123 32.606671 24.816525 45.536346 1.023681 0.994428 0.141173 -0.028883 143499.000000 0 0 1
20.514823 32.647023 23.512025 45.160839 1.009768 1.023209 0.135792 -0.031454 647927.000000 0 0 1
21.835423 33.155200 23.640285 46.205152 0.988412 1.033707 0.129477 -0.028951 540899.000000 0 0 1
22.688723 33.280869 22.302385 46.041186 0.972434 1.065118 0.125490 -0.032637 343502.000000 0 0 1
22.520123 -33.150878 21.606785 45.530098 -0.974083 1.076332 0.129383 -0.028455 433509.000000 0 0 1
23.121923 -33.144798 20.304785 45.227041 -0.961681 1.105204 0.128523 -0.027099 -4533.390000 0 0 1
22.664523 -31.847048 19.537985 43.699519 -0.952282 1.107277 0.095852 -0.028713 -19694.300000 0 0 1
23.207723 -30.580918 20.029385 43.300892 -0.921626 1.089913 0.087804 -0.025844 351060.000000 0 0 1
22.744023 -29.356878 19.400285 41.898543 -0.911647 1.089386 0.095473 -0.030651 -414352.000000 0 0 1
23.441823 -28.893328 18.148085 41.396817 -0.889189 1.116986 0.074462 -0.026944 -152959.000000 0 0 1
22.956223 -29.665678 17.016585 41.189863 -0.912217 1.144913 0.059481 -0.027137 579547.000000 0 0 1
23.454023 -29.035998 15.851185 40.551701 -0.891344 1.169200 0.055133 -0.022363 -170282.000000 0 0 1
22.893523 -29.528428 14.526585 40.088192 -0.911296 1.199991 0.052249 -0.022139 2357.550000 0 0 1
23.616123 -30.751118 14.157485 41.276954 -0.915889 1.220701 0.072367 -0.019610 579573.000000 0 0 1
23.661523 -31.170498 12.782485 41.168672 -0.921497 1.255087 0.079052 -0.023334 -408455.000000 0 0 1
22.323623 -31.461398 12.089885 40.426835 -0.953686 1.267093 0.083224 -0.024916 -271235.000000 0 0 1
21.734423 -32.708358 12.311285 41.155675 -0.984301 1.267006 0.087525 -0.027258 -1148890.000000 0 0 1
20.484623 -32.869308 11.781385 40.482246 -1.013482 1.275497 0.102072 -0.030426 -929749.000000 0 0 1
19.476023 -33.553788 12.725985 40.830416 -1.044882 1.253837 0.105465 -0.018834 -294625.000000 0 0 1
19.201623 -32.719338 13.826885 40.378709 -1.040096 1.221294 0.094460 -0.016820 350959.000000 0 0 1
19.663523 -33.214168 15.117185 41.453159 -1.036264 1.197506 0.084333 -0.021201 -604159.000000 0 0 1
19.398123 -32.240728 16.272785 40.994576 -1.029153 1.162605 0.083708 -0.027684 786796.000000 0 0 1
18.010423 -32.029818 16.572085 40.310279 -1.058557 1.147121 0.108906 -0.037136 636353.000000 0 0 1
17.190123 -33.032018 17.103085 40.977190 -1.090956 1.140235 0.103800 -0.028531 -692345.000000 0 0 1
17.567823 -33.727138 18.424185 42.256347 -1.090584 1.119636 0.092745 -0.032439 58968.300000 0 0 1
18.649423 33.009597 18.264085 42.083385 1.056533 1.121871 0.082561 -0.022935 425649.000000 0 0 1
19.062723 32.497544 19.482585 42.415196 1.040296 1.093555 0.074345 -0.020913 255952.000000 0 0 1
19.887223 31.202459 19.361185 41.760634 1.003358 1.088717 0.071846 -0.015351 77016.500000 0 0 1
19.062123 30.129819 19.014285 40.406850 1.006703 1.080859 0.061610 -0.017198 108133.000000 0 0 1
19.863523 28.959209 18.777185 39.821828 0.969587 1.079771 0.058279 -0.021266 525682.000000 0 0 1
19.055823 27.643619 18.515085 38.341915 0.967261 1.066840 0.063107 -0.019011 43227.600000 0 0 1
18.839923 26.854639 19.671685 38.250353 0.959030 1.030619 0.065186 -0.020167 -17775.700000 0 0 1
18.249223 25.588449 19.331585 36.898686 0.951278 1.019362 0.081892 -0.024868 -348547.000000 0 0 1
17.863623 24.672019 20.515185 36.724520 0.944115 0.978071 0.083945 -0.023327 -184275.000000 0 0 1
16.760423 25.058499 21.292985 36.908419 0.981282 0.955851 0.080673 -0.020677 -207728.000000 0 0 1
15.633723 24.271299 20.961985 35.677921 0.998563 0.942789 0.095703 -0.025953 251525.000000 0 0 1
14.377423 24.577209 21.854285 35.893722 1.041487 0.916172 0.108490 -0.043250 444425.000000 0 0 1
13.775023 25.798909 21.488185 36.291556 1.080368 0.937136 0.120505 -0.041361 -200789.000000 0 0 1
12.496223 25.917149 22.085785 36.271698 1.121522 0.916125 0.122357 -0.044014 243618.000000 0 0 1
11.666023 26.991009 21.286385 36.300425 1.162827 0.944195 0.127209 -0.053178 -169383.000000 0 0 1
12.202923 28.274189 21.417685 37.510776 1.163355 0.963104 0.122389 -0.052186 -31692.200000 0 0 1
11.814223 29.159839 20.345285 37.467355 1.185855 0.996774 0.129506 -0.056218 58875.300000 0 0 1
12.252723 30.604849 20.649985 38.899973 1.189986 1.011195 0.133413 -0.054050 188942.000000 0 0 1
11.536123 31.329839 21.668185 39.801397 1.217987 0.995114 0.124346 -0.052706 -87438.700000 0 0 1
11.989623 31.055739 22.980955 40.451629 1.202358 0.966589 0.103228 -0.049154 68419.800000 0 0 1
11.336923 31.935456 24.076755 41.570294 1.229679 0.953072 0.083844 -0.046194 988091.000000 0 0 1
9.934123 31.735640 24.311525 41.193299 1.267431 0.939513 0.086676 -0.049931 518119.000000 0 0 1
9.651923 32.139548 25.617345 42.217988 1.279052 0.918784 0.078063 -0.036970 -1772550.000000 0 0 1
8.239723 31.959451 26.043945 42.042676 1.318473 0.902736 0.121712 -0.052829 -1793220.000000 0 0 1
7.293623 32.829275 25.456165 42.177892 1.352179 0.922859 0.119891 -0.048509 173324.000000 0 0 1
6.684723 32.484747 24.211755 41.062798 1.367849 0.940199 0.123242 -0.053036 81848.000000 0 0 1
5.586923 31.391489 24.268735 40.070074 1.394665 0.920205 0.116484 -0.051558 -519994.000000 0 0 1
6.164423 30.248099 24.761245 39.573563 1.369754 0.894766 0.093833 -0.048889 -580135.000000 0 0 1
5.443223 29.032559 24.546485 38.406355 1.385461 0.877435 0.083568 -0.038707 -940804.000000 0 0 1
6.284723 27.802119 24.978535 37.899641 1.348481 0.851214 0.080531 -0.040567 1081020.000000 0 0 1
7.366123 27.417999 24.087485 37.231887 1.308334 0.867207 0.082904 -0.044799 1630850.000000 0 0 1
8.407323 28.414029 23.873895 38.052635 1.283118 0.892598 0.102198 -0.049734 131740.000000 0 0 1
9.761123 28.127819 24.577335 38.606983 1.236772 0.880711 0.085501 -0.049997 -161171.000000 0 0 1
9.637423 28.335979 26.011935 39.653857 1.242957 0.855323 0.075410 -0.041873 677317.000000 0 0 1
10.768023 28.050269 26.854665 40.298151 1.204261 0.841427 0.081664 -0.030826 820053.000000 0 0 1
12.004423 28.966369 26.872525 41.295149 1.177916 0.862234 0.086460 -0.040956 118338.000000 0 0 1
11.596723 30.192829 27.446775 42.419528 1.204081 0.867112 0.079051 -0.044308 -115653.000000 0 0 1
12.730723 30.970659 27.613375 43.402206 1.180794 0.881207 0.078794 -0.032242 -536613.000000 0 0 1
12.429623 32.203767 28.533945 44.785758 1.202445 0.880039 0.053830 -0.032870 -41947.300000 0 0 1
12.160723 31.823946 29.887135 45.319836 1.205794 0.850681 0.053415 -0.049866 205132.000000 0 0 1
10.802523 31.609059 30.225695 45.049082 1.241486 0.835307 0.083186 -0.046819 21445.700000 0 0 1
10.611423 31.501999 31.760066 45.974776 1.245885 0.808181 0.101161 -0.040759 -84441.600000 0 0 1
11.100323 30.267299 32.247818 45.598776 1.219284 0.785255 0.091387 -0.042594 205728.000000 0 0 1
11.225823 30.342219 33.652050 46.681151 1.216440 0.765708 0.109342 -0.040313 -108734.000000 0 0 1
11.339223 28.920629 -33.509043 45.692852 1.197135 2.394039 0.115690 -0.040303 372926.000000 0 0 1
12.509123 28.211759 33.790205 45.761987 1.153444 0.740116 0.112403 -0.034885 349619.000000 0 0 1
12.607623 26.911019 -33.468763 44.758386 1.132671 2.415486 0.116167 -0.039001 -15355.400000 0 0 1
13.845323 26.170259 33.675995 44.840251 1.084181 0.721188 0.127634 -0.035992 297520.000000 0 0 1
13.955423 24.850969 -33.557873 44.027892 1.059118 2.437495 0.091753 -0.035929 -133606.000000 0 0 1
14.280123 24.689099 -32.214043 43.025784 1.046412 2.416918 0.080285 -0.029705 -320138.000000 0 0 1
14.051723 23.168369 -31.879673 41.839428 1.025608 2.437120 0.068889 -0.040035 2144.350000 0 0 1
15.099223 22.395489 -32.422653 42.199204 0.977591 2.447015 0.061249 -0.022507 60760.000000 0 0 1
14.782523 21.036689 -32.496963 41.438121 0.958259 2.472248 0.061361 -0.025458 -421438.000000 0 0 1
15.951423 20.216489 -33.031363 41.883472 0.902780 2.479405 0.075701 -0.043655 617710.000000 0 0 1
17.124623 20.411789 -32.198533 41.792814 0.872748 2.450315 0.102821 -0.046811 1628140.000000 0 0 1
18.292423 19.781289 -32.823013 42.464836 0.824483 2.454267 0.118504 -0.051613 536911.000000 0 0 1
19.571823 20.038389 -32.037663 42.555906 0.797177 2.423158 0.095401 -0.048467 -1067410.000000 0 0 1
20.167623 21.265289 -32.340793 43.644844 0.811885 2.405353 0.099919 -0.040205 -12952.100000 0 0 1
21.176623 21.413989 -31.323443 43.453036 0.790971 2.375835 0.086633 -0.034113 309145.000000 0 0 1
20.699523 21.874289 -29.912513 42.446592 0.812985 2.352810 0.067594 -0.027278 -194362.000000 0 0 1
20.114623 23.164349 -29.862933 42.813314 0.855749 2.342720 0.053907 -0.021252 123187.000000 0 0 1
19.715423 23.562419 -28.536733 41.931260 0.874056 2.319323 0.052452 0.002673 -247983.000000 0 0 1
20.917523 23.931489 -27.612793 42.103744 0.852500 2.286075 0.041100 0.003966 352269.000000 0 0 1
21.742923 24.998929 -28.080953 43.430876 0.854945 2.273871 0.034779 0.004911 62246.800000 0 0 1
21.141223 26.278219 -28.170673 43.944088 0.893308 2.266671 0.027110 0.006729 -265261.000000 0 0 1
22.039323 27.241039 -29.016813 45.494850 0.890562 2.262440 0.026848 0.004144 -462116.000000 0 0 1
22.113123 27.117679 -30.445563 46.382011 0.886705 2.286845 0.045474 -0.002675 -59888.300000 0 0 1
22.742723 25.963109 -30.949093 46.359042 0.851421 2.301771 0.065195 -0.012710 13419.900000 0 0 1
24.205423 25.710719 -30.514393 46.669816 0.815546 2.283439 0.087385 -0.024678 -981246.000000 0 0 1
25.143923 26.666119 -30.876063 47.923168 0.814770 2.270881 0.074937 -0.018139 -558329.000000 0 0 1
26.377923 26.196599 -30.361993 47.999033 0.781949 2.255643 0.115649 -0.036762 -228683.000000 0 0 1
27.587423 27.069329 -30.732753 49.379313 0.775919 2.242578 0.103230 -0.020115 -254561.000000 0 0 1
27.686423 28.238729 -29.981133 49.626929 0.795274 2.219470 0.069274 -0.009160 134288.000000 0 0 1
28.871223 28.861049 -30.445073 50.925535 0.785222 2.211594 0.076034 -0.018942 287181.000000 0 0 1
29.237523 30.103329 -29.638033 51.375637 0.799988 2.185711 0.048254 0.005019 -32151.400000 0 0 1
29.475123 29.771959 -28.319073 50.567996 0.790408 2.165206 0.069936 -0.004955 -61855.500000 0 0 1
28.964823 30.759839 -27.523443 50.424880 0.815444 2.148176 0.048473 0.001812 -569063.000000 0 0 1
29.352323 30.749029 -26.007393 49.834186 0.808633 2.119848 0.069191 0.003372 -17011.200000 0 0 1
28.839023 29.698289 -25.219493 48.473708 0.800076 2.117965 0.056983 0.008114 441135.000000 0 0 1
27.428523 29.743099 -25.023053 47.572355 0.825861 2.124687 0.038764 0.008546 327574.000000 0 0 1
26.880623 29.301219 -23.627353 46.253444 0.828457 2.106939 0.043228 0.004797 21897.000000 0 0 1
27.130023 30.280149 -22.717153 46.572466 0.840214 2.080342 0.051386 0.008817 -33527.600000 0 0 1
26.528023 29.990249 -21.493753 45.443728 0.846580 2.063461 0.045397 0.003628 102427.000000 0 0 1
3.485523 -26.098858 -19.471753 32.748258 -1.438031 2.207551 0.078385 -0.015933 -158842.000000 0 0 1
3.392123 -27.298038 -18.677753 33.249779 -1.447168 2.167285 0.086640 -0.010808 133292.000000 0 0 1
3.025823 -27.037938 -17.347553 32.266752 -1.459350 2.138419 0.088410 -0.010366 -329789.000000 0 0 1
3.097323 -28.370028 -16.507053 32.968692 -1.462051 2.095191 0.085227 -0.005222 353562.000000 0 0 1
4.438423 -28.709258 -16.182053 33.253269 -1.417412 2.079025 0.084181 -0.011889 116759.000000 0 0 1
4.562323 -29.471218 -15.007253 33.385403 -1.417209 2.037019 0.088784 -0.015200 257895.000000 0 0 1
6.009523 -29.950138 -14.735953 33.915681 -1.372775 2.020266 0.111306 -0.023599 247257.000000 0 0 1
6.934223 -28.961128 -14.281553 33.027157 -1.335788 2.017970 0.114886 -0.018436 669441.000000 0 0 1
8.210123 -29.545988 -13.968653 33.697103 -1.299758 1.998229 0.110819 -0.019966 618561.000000 0 0 1
8.305423 -30.257238 -12.565153 33.798869 -1.302901 1.951703 0.105063 -0.024499 -1012670.000000 0 0 1
8.559623 -29.404968 -11.478053 32.705733 -1.287530 1.929381 0.100723 -0.025518 59401.200000 0 0 1
8.741523 -30.065368 -10.200853 32.930198 -1.287847 1.885750 0.108562 -0.023616 -528352.000000 0 0 1
9.876223 -31.057548 -10.076953 34.112403 -1.262911 1.870675 0.101317 -0.023999 -693674.000000 0 0 1
11.097623 -30.399538 -9.779253 33.807143 -1.220769 1.864256 0.102940 -0.025449 358805.000000 0 0 1
12.180523 -31.306968 -10.055153 35.065617 -1.199750 1.861632 0.098299 -0.026336 -193073.000000 0 0 1
13.394923 -31.094658 -9.178053 35.079030 -1.164041 1.835517 0.101402 -0.032575 -983565.000000 0 0 1
14.190623 -29.986058 -9.501353 34.508161 -1.128784 1.849736 0.117959 -0.031362 268691.000000 0 0 1
15.254823 -29.992978 -8.538753 34.715971 -1.100282 1.819307 0.102882 -0.028332 223619.000000 0 0 1
16.506523 -29.143508 -8.870753 34.648227 -1.055459 1.829702 0.111470 -0.031410 -28285.300000 0 0 1
16.467723 -27.684158 -8.993353 33.443667 -1.034177 1.843058 0.120378 -0.028893 77666.700000 0 0 1
15.889823 -27.207318 -10.227453 33.125902 -1.042204 1.884669 0.108566 -0.027164 -133656.000000 0 0 1
15.716723 -25.697218 -10.344753 31.849275 -1.021882 1.901600 0.102010 -0.029304 -535617.000000 0 0 1
14.677723 -25.146238 -9.540253 30.639603 -1.042452 1.887431 0.084073 -0.026981 348401.000000 0 0 1
14.116823 -23.902158 -9.923153 29.479939 -1.037311 1.914108 0.061480 -0.012483 549392.000000 0 0 1
13.415223 -23.940658 -11.345253 29.695758 -1.060039 1.962809 0.048883 -0.005681 -179972.000000 0 0 1
14.374123 -23.808758 -12.381053 30.442780 -1.027637 1.989634 0.041243 -0.001062 -20265.600000 0 0 1
13.733223 -23.849258 -13.640553 30.715683 -1.048335 2.030956 0.057846 -0.005640 165829.000000 0 0 1
14.467423 -23.160158 -14.866853 31.092162 -1.012435 2.069348 0.054687 -0.003169 695766.000000 0 0 1
15.588423 -23.817758 -15.452953 32.389478 -0.991273 2.068146 0.050020 -0.004328 378453.000000 0 0 1
16.137123 -23.092658 -16.550853 32.674276 -0.960877 2.101964 0.039997 -0.002779 -105343.000000 0 0 1
17.222223 -23.923358 -17.310053 34.184352 -0.946845 2.101770 0.061217 -0.011898 1629560.000000 0 0 1
18.494223 -24.144358 -16.629753 34.663164 -0.917143 2.071169 0.099103 -0.021655 587928.000000 0 0 1
19.384223 -23.099658 -16.900853 34.568499 -0.872631 2.081635 0.098174 -0.021295 -678099.000000 0 0 1
20.780123 -23.412558 -16.326053 35.305826 -0.844895 2.051517 0.083560 -0.018492 -53114.200000 0 0 1
21.422923 -24.443658 -17.033853 36.695860 -0.851162 2.053516 0.109694 -0.019784 -850091.000000 0 0 1
22.697323 -24.728358 -16.553753 37.425751 -0.828198 2.028968 0.120910 -0.019252 -342608.000000 0 0 1
23.500323 -25.680198 -17.440553 38.934697 -0.829693 2.035260 0.125750 -0.023435 -29315.200000 0 0 1
24.044323 -25.002028 -18.585353 39.352842 -0.804922 2.062666 0.136237 -0.020747 245784.000000 0 0 1
24.933223 -25.854938 -19.314653 40.782340 -0.803544 2.064174 0.116948 -0.025178 802418.000000 0 0 1
26.089123 -25.218988 -20.154453 41.507128 -0.768441 2.077807 0.116688 -0.028974 505783.000000 0 0 1
25.572323 -24.216358 -21.044953 41.027621 -0.758170 2.109409 0.131822 -0.023312 60067.200000 0 0 1
25.607323 -22.919658 -20.484753 40.008384 -0.730070 2.108321 0.141134 -0.017892 263596.000000 0 0 1
24.564723 -21.955558 -21.169253 39.161325 -0.729370 2.141905 0.181560 -0.021439 74340.300000 0 0 1
24.909823 -21.362558 -22.434953 39.751544 -0.708887 2.170478 0.154618 -0.014754 -34241.200000 0 0 1
24.775923 -22.280658 -23.520553 40.785910 -0.732421 2.185459 0.121706 -0.021840 -125930.000000 0 0 1
24.192823 -21.719558 -24.801153 40.891674 -0.731581 2.222458 0.112269 -0.028407 274886.000000 0 0 1
25.029423 -20.779158 -25.512933 41.341930 -0.692880 2.235874 0.110854 -0.016632 458100.000000 0 0 1
24.260223 -20.085958 -26.515723 41.171442 -0.691546 2.270553 0.097949 -0.006878 335525.000000 0 0 1
24.993623 -19.069158 -27.432943 41.723858 -0.651745 2.288277 0.108711 -0.002641 478947.000000 0 0 1
23.986523 -18.298358 -28.104703 41.231753 -0.651681 2.320781 0.115033 -0.006869 792367.000000 0 0 1
24.414223 -18.006158 -29.398953 42.244223 -0.635471 2.340508 0.117636 -0.016858 157335.000000 0 0 1
23.352523 -17.219658 -30.207803 41.885180 -0.635375 2.376337 0.133325 -0.017955 -352932.000000 0 0 1
22.261323 -17.905258 -30.733343 41.960733 -0.677370 2.392682 0.119986 -0.014052 -74766.600000 0 0 1
21.266223 -16.959158 -31.087153 41.307098 -0.673196 2.422777 0.116855 -0.013841 84127.700000 0 0 1
19.929823 -17.542258 -31.584813 41.261714 -0.721768 2.442576 0.100540 -0.012634 -214669.000000 0 0 1
20.063223 -18.310058 -32.826053 42.606817 -0.739743 2.450329 0.104974 -0.007332 250237.000000 0 0 1
18.899923 -18.972358 -33.277143 42.714467 -0.787311 2.463962 0.094312 -0.014008 -67643.900000 0 0 1
19.215523 -19.649658 33.109084 43.029720 -0.796568 0.692822 0.133567 -0.021982 126914.000000 0 0 1
20.072523 -20.743758 33.341459 44.100596 -0.801842 0.713567 0.131601 -0.022261 73121.700000 0 0 1
20.516423 -21.496758 32.236385 43.843115 -0.808728 0.744736 0.122637 -0.024986 88095.200000 0 0 1
21.410423 -22.673658 32.712056 45.194906 -0.814045 0.761503 0.115146 -0.016380 265613.000000 0 0 1
20.729323 -23.680758 33.515779 45.975978 -0.851759 0.753959 0.127373 -0.022179 328227.000000 0 0 1
20.711323 -23.380058 -32.808023 45.298481 -0.845852 2.380762 0.129209 -0.025425 -188644.000000 0 0 1
19.793223 -24.235758 -31.899523 44.684709 -0.885958 2.365820 0.129236 -0.030861 -183228.000000 0 0 1
20.082423 -25.613788 -31.809983 45.510931 -0.905859 2.344728 0.130873 -0.040077 736637.000000 0 0 1
21.108823 -25.972878 -30.840233 45.511457 -0.888344 2.315341 0.126946 -0.035677 668972.000000 0 0 1
21.182323 -27.503718 -30.692303 46.337487 -0.914516 2.294767 0.112256 -0.037529 -449603.000000 0 0 1
20.086823 -28.133408 -30.106013 45.840387 -0.950746 2.287307 0.106523 -0.038657 -568385.000000 0 0 1
20.180323 -29.470678 -30.427523 46.921215 -0.970372 2.276384 0.102174 -0.028071 -466483.000000 0 0 1
19.028923 -30.336468 -29.952833 46.685901 -1.010572 2.267355 0.109088 -0.029854 -591595.000000 0 0 1
17.809723 -30.291498 -30.643023 46.623555 -1.039288 2.287952 0.116784 -0.036617 -283060.000000 0 0 1
17.736023 -31.198068 -31.695023 47.879645 -1.053863 2.294244 0.134627 -0.038789 469661.000000 0 0 1
16.291423 -31.590168 -32.200493 47.960618 -1.094658 2.306885 0.137766 -0.043487 949762.000000 0 0 1
15.667923 -30.488418 -32.883173 47.500847 -1.096093 2.335419 0.135163 -0.038676 1084880.000000 0 0 1
14.343723 -30.935978 -33.306703 47.666692 -1.136642 2.344433 0.086368 -0.030322 1160570.000000 0 0 1
13.528023 -29.816268 33.775405 47.040358 -1.144859 0.769859 0.080954 -0.014482 -128206.000000 0 0 1
13.030423 -28.888428 -33.065633 45.800319 -1.147061 2.377416 0.092474 -0.026352 134802.000000 0 0 1
11.955123 -28.199958 -33.716853 45.552044 -1.169823 2.404139 0.094712 -0.027508 1015730.000000 0 0 1
10.904623 -27.484948 -32.768103 44.137079 -1.193096 2.407467 0.107801 -0.032332 805932.000000 0 0 1
9.987123 -28.334748 -32.113143 43.975612 -1.231924 2.389483 0.093063 -0.026650 122469.000000 0 0 1
8.926323 -27.626798 -31.513713 42.848959 -1.258280 2.397142 0.073990 -0.031936 356104.000000 0 0 1
7.895823 -28.410678 -30.644353 42.527485 -1.299720 2.375431 0.071024 -0.032891 533005.000000 0 0 1
6.799423 -28.995588 -31.341983 43.235358 -1.340460 2.381708 0.086479 -0.031886 300277.000000 0 0 1
7.058523 -30.173398 -32.129683 44.638248 -1.340997 2.374281 0.092537 -0.028830 443671.000000 0 0 1
5.708423 -30.945338 -32.345823 45.127068 -1.388379 2.369958 0.129029 -0.040796 706913.000000 0 0 1
5.158623 -31.402358 -31.138573 44.523367 -1.407976 2.345320 0.143258 -0.056560 -376611.000000 0 0 1
3.932723 -32.005668 -31.446153 45.040977 -1.448533 2.343631 0.167104 -0.072693 -1112020.000000 0 0 1
3.052623 -32.385958 -30.259383 44.427458 -1.476816 2.320055 0.144100 -0.079163 1001790.000000 0 0 1
1.812923 -31.645988 -30.072943 43.693674 -1.513571 2.329895 0.130411 -0.070626 1116600.000000 0 0 1
0.748323 -32.106428 -30.886463 44.557337 -1.547493 2.336695 0.107289 -0.041608 -291218.000000 0 0 1
-0.435477 -31.096008 -30.868323 43.817858 1.556793 2.352471 0.074918 -0.027035 -181751.000000 0 0 1
-1.124277 -31.005298 -29.648073 42.913876 1.534551 2.333493 0.050346 -0.032759 -249961.000000 0 0 1
-1.834877 -29.785098 -29.688623 42.094336 1.509270 2.353625 0.093928 -0.022498 -44489.400000 0 0 1
-2.713077 -29.556408 -28.440953 41.107540 1.479260 2.334868 0.096285 -0.023507 -394042.000000 0 0 1
-1.898677 -29.488648 -27.312363 40.238669 1.506498 2.316868 0.084723 -0.027740 -270856.000000 0 0 1
-2.506977 -29.678918 -26.050593 39.569641 1.486526 2.289418 0.103387 -0.029453 -311690.000000 0 0 1
-1.454977 -29.775298 -24.931553 38.862162 1.521970 2.267298 0.063051 -0.034741 -74335.300000 0 0 1
-1.954877 -29.907938 -23.621053 38.160980 1.505526 2.238245 0.095724 -0.032401 -526156.000000 0 0 1
-0.956977 -30.383458 -22.765953 37.978401 1.539310 2.213604 0.064905 -0.027478 -42696.000000 0 0 1
-1.369077 -30.329138 -21.230753 37.046941 1.525686 2.181052 0.034985 -0.010263 -140985.000000 0 0 1
-1.308677 -29.040998 -20.655853 35.661694 1.525764 2.188564 0.026935 -0.011640 872693.000000 0 0 1
-0.086477 -28.843418 -19.903553 35.044281 1.567798 2.174815 0.052968 -0.018545 535994.000000 0 0 1
-0.096977 -27.499788 -19.102653 33.483714 1.567270 2.177918 0.063176 -0.020429 -11351.100000 0 0 1
-1.082677 -27.401648 -18.069253 32.840834 1.531305 2.153408 0.061926 -0.017931 461346.000000 0 0 1
-0.858877 -26.254938 -17.248253 31.425494 1.538095 2.151798 0.067728 -0.016513 -298890.000000 0 0 1
-1.955677 -26.096068 -16.205753 30.780771 1.495995 2.125262 0.051963 -0.007331 -380726.000000 0 0 1
-1.969277 -24.788158 -15.619353 29.364860 1.491519 2.131646 0.048104 0.000278 208698.000000 0 0 1
-3.016077 -24.720958 -14.657853 28.897666 1.449391 2.102767 0.044454 0.002642 -66677.300000 0 0 1
-2.950577 -23.591458 -13.600153 27.390271 1.446373 2.090395 0.041951 0.008905 -1206800.000000 0 0 1
-1.955277 -23.749558 -12.708253 27.006745 1.488653 2.060720 0.042023 0.007330 -979873.000000 0 0 1
-1.509377 -22.510558 -12.125353 25.613036 1.503845 2.063949 0.044520 0.003804 536818.000000 0 0 1
-0.393677 -22.587158 -11.029053 25.139107 1.553369 2.024971 0.046609 -0.002312 586614.000000 0 0 1
0.220423 -21.320758 -10.868753 23.932260 -1.560458 2.042210 0.046436 0.002562 709189.000000 0 1 0
1.497623 -21.368058 -10.189953 23.720706 -1.500824 2.014824 0.043675 0.002667 1086260.000000 0 1 0
1.994023 -19.981158 -9.848453 22.365483 -1.471330 2.026775 0.049034 -0.006742 -873686.000000 0 1 0
2.493123 -19.282158 -10.955853 22.316989 -1.442213 2.083942 0.045898 0.000718 -112456.000000 0 1 0
3.186123 -18.109558 -10.533153 21.190912 -1.396643 2.091003 0.025381 -0.002176 77.232700 0 1 0
4.664023 -18.277958 -10.156653 21.424156 -1.320956 2.064709 0.055238 -0.021606 -525057.000000 0 1 0
4.714323 -18.981258 -8.918553 21.495431 -1.327355 1.998634 0.055379 -0.013201 -347173.000000 0 1 0
5.934523 -19.604158 -8.620953 22.223015 -1.276848 1.969180 0.070331 -0.015582 -61970.100000 0 1 0
5.535423 -20.550858 -7.427153 22.541989 -1.307688 1.906550 0.073233 -0.031357 431591.000000 0 1 0
4.750223 -21.668158 -7.886753 23.543036 -1.354984 1.912394 0.079655 -0.028488 281718.000000 0 1 0
4.586523 -22.564758 -6.823153 24.015826 -1.370268 1.858875 0.094247 -0.034866 -89997.300000 0 1 0
3.522923 -23.617458 -7.167853 24.931374 -1.422722 1.862415 0.081995 -0.028257 117230.000000 0 1 0
3.950523 -24.432558 -8.305953 26.106424 -1.410493 1.894582 0.102447 -0.023344 812432.000000 0 0 1
2.851823 -24.844258 -9.144553 26.626920 -1.456509 1.921366 0.084432 -0.013869 781991.000000 0 0 1
3.389023 -25.691408 -10.328353 27.896394 -1.439641 1.950063 0.091351 -0.015595 176804.000000 0 0 1
3.656923 -27.047568 -10.040653 29.081931 -1.436408 1.923306 0.079188 -0.021474 -324390.000000 0 0 1
4.369423 -27.653888 -11.067753 30.105224 -1.414088 1.947262 0.105817 -0.018361 -7355.570000 0 0 1
4.452323 -29.204698 -10.980253 31.516718 -1.419509 1.926654 0.100845 -0.023274 249000.000000 0 0 1
3.215623 -29.803608 -11.298553 32.035177 -1.463318 1.931243 0.109489 -0.018866 -2272.260000 0 0 1
3.432923 -31.193408 -11.453753 33.406618 -1.461185 1.920755 0.095156 -0.017961 614202.000000 0 0 1
2.212123 -32.051978 -11.974753 34.287279 -1.501889 1.927564 0.069910 -0.028324 469860.000000 0 0 1
1.847023 -31.653418 -13.297753 34.382853 -1.512511 1.967907 0.072061 -0.027663 771715.000000 0 0 1
1.038423 -32.688508 -13.921653 35.544750 -1.539040 1.973237 0.067706 -0.023666 219353.000000 0 0 1
0.638623 -32.364208 -15.416153 35.853975 -1.551067 2.015256 0.062035 -0.020313 620936.000000 0 0 1
-0.415677 -31.377238 -15.513253 35.005212 1.557549 2.029928 0.066305 -0.014561 354051.000000 0 0 1
-0.988577 -31.496188 -16.765453 35.694083 1.539419 2.059745 0.030378 -0.011798 -231417.000000 0 0 1
-2.174577 -30.542768 -16.969453 35.007882 1.499718 2.076853 0.042618 0.000544 -194180.000000 0 0 1
-3.320877 -30.859288 -16.230953 35.025244 1.463595 2.052633 0.054320 -0.006637 -302478.000000 0 0 1
-4.446977 -30.150038 -16.715353 34.759221 1.424357 2.072466 0.060488 0.001352 904679.000000 0 0 1
-5.748477 -30.323868 -15.858753 34.699885 1.383450 2.045445 0.060818 -0.006189 -83659.600000 0 0 1
-5.970277 -29.227108 -14.966253 33.374493 1.369297 2.035809 0.047358 -0.003096 1134860.000000 0 0 1
-7.374477 -28.997788 -14.735153 33.352351 1.321764 2.028403 0.068525 -0.007711 1044880.000000 0 0 1
-8.227877 -30.013158 -13.962353 34.109162 1.303228 1.992530 0.058801 -0.017650 -699657.000000 0 0 1
-8.415677 -31.273038 -14.538853 35.499363 1.307920 1.992760 0.065717 -0.016578 -75851.900000 0 0 1
-9.074277 -32.086978 -13.572453 36.001780 1.295191 1.957345 0.058295 -0.015502 89035.700000 0 0 1
-9.208177 -33.537708 -13.988153 37.486488 1.302837 1.953200 0.102497 -0.026003 -27911.600000 0 0 1
-7.973177 33.450657 -14.018053 37.135210 -1.336806 1.957877 0.094471 -0.025898 63808.700000 0 0 1
-8.013577 32.164439 -14.568053 36.207688 -1.326623 1.984875 0.122235 -0.032942 -640896.000000 0 0 1
-8.492177 -21.840858 -3.190053 23.649875 1.199964 1.706095 0.111487 -0.030841 211270.000000 0 1 0
-8.229677 -21.023158 -4.333753 22.988740 1.197676 1.760447 0.089423 -0.021902 -478525.000000 0 1 0
-6.873877 -21.055158 -4.691553 22.640241 1.255235 1.779531 0.086953 -0.020282 -223638.000000 0 1 0
-6.582177 -20.060158 -5.850353 21.908026 1.253743 1.841118 0.083602 -0.023341 -253752.000000 0 1 0
-7.141177 -20.365958 -7.060553 22.707269 1.233549 1.886976 0.075242 -0.021749 -656066.000000 0 1 0
-7.024877 -19.242658 -7.931253 21.966646 1.220762 1.940199 0.053090 -0.022230 -24370.900000 0 1 0
-7.936477 -19.407358 -9.162453 22.881953 1.182605 1.982774 0.053985 -0.023314 279132.000000 0 1 0
-7.381277 -20.284958 -10.144753 23.851180 1.221811 2.010129 0.050350 -0.007295 -555359.000000 0 1 0
-8.132577 -20.250358 -11.289553 24.569693 1.188910 2.048218 0.071681 -0.011948 -431893.000000 0 1 0
-7.697377 -21.231658 -12.449453 25.788016 1.222992 2.074601 0.062131 0.001998 -479216.000000 0 0 1
-6.900177 -20.600858 -13.412653 25.532470 1.247595 2.123884 0.066305 0.016159 -143974.000000 0 0 1
-6.601577 -21.525858 -14.448053 26.752376 1.273221 2.141312 0.047381 0.023421 78949.500000 0 0 1
-5.544577 -21.046458 -15.466553 26.700374 1.313204 2.188621 0.033998 0.029901 660298.000000 0 0 1
-4.183077 -20.905958 -15.056653 26.100958 1.373314 2.185678 0.028354 0.016690 589222.000000 0 0 1
-3.326177 -20.087858 -15.803553 25.774751 1.406704 2.230827 0.041508 0.022658 -41648.200000 0 0 1
-3.543877 -18.507458 -15.732253 24.547685 1.381603 2.266447 0.048082 0.022464 -219717.000000 0 1 0
-4.719777 -18.023658 -16.358253 24.793567 1.314682 2.291320 0.057837 0.025010 47330.900000 0 1 0
-4.694677 -18.057058 -17.775753 25.769647 1.316436 2.332001 0.085316 0.002013 21382.500000 0 0 1
-6.139577 -17.880858 -18.321853 26.326978 1.240049 2.340517 0.091508 0.005158 381234.000000 0 0 1
-6.914177 -18.957758 -17.849653 26.940908 1.221073 2.295012 0.083927 0.013116 -19731.000000 0 0 1
-8.239277 -18.958858 -18.354053 27.644081 1.160833 2.296874 0.081653 0.009390 441047.000000 0 0 1
-9.110377 -20.198358 -18.054353 28.582027 1.147073 2.254499 0.091799 -0.002141 52077.500000 0 0 1
-8.670777 -21.369858 -18.670253 29.672067 1.185345 2.251345 0.091368 0.003561 512547.000000 0 0 1
-9.442477 -22.505458 -18.226153 30.460608 1.173539 2.212238 0.111397 0.003019 315778.000000 0 0 1
-8.905177 -23.787258 -18.860153 31.636074 1.212580 2.209506 0.127947 -0.018500 -493727.000000 0 0 1
-9.087177 -23.815658 -20.291953 32.581063 1.206284 2.243131 0.128530 -0.019427 -82534.400000 0 0 1
-8.389677 -24.805158 -20.960653 33.541489 1.244651 2.245822 0.152887 -0.046431 362526.000000 0 0 1
-6.841777 -24.698158 -21.163153 33.236846 1.300557 2.261056 0.149295 -0.027703 109463.000000 0 0 1
-6.364077 -23.528958 -21.819753 32.714140 1.306639 2.300948 0.183881 -0.043059 67531.300000 0 0 1
-6.228577 -22.292058 -21.054353 31.289244 1.298337 2.308911 0.144924 -0.035771 -308411.000000 0 0 1
-5.295777 -22.251358 -19.815953 30.262851 1.337145 2.284707 0.131870 -0.011248 847288.000000 0 0 1
-3.892177 -22.335458 -20.098753 30.298211 1.398269 2.296102 0.115047 -0.021266 1307540.000000 0 0 1
-3.059777 -22.335058 -18.876853 29.403276 1.434649 2.267898 0.069442 -0.015239 -441183.000000 0 0 1
-1.698877 -22.866558 -19.119353 29.854904 1.496637 2.265827 0.085711 -0.017888 -1372780.000000 0 0 1
-0.756077 -21.967058 -19.626153 29.467086 1.536391 2.299679 0.121481 -0.026685 368687.000000 0 0 1
0.515223 -22.594558 -19.873753 30.095607 -1.547997 2.292086 0.076279 -0.021948 1089250.000000 0 0 1
1.604023 -21.690258 -20.509353 29.894376 -1.496979 2.326857 0.071008 -0.025989 279179.000000 0 0 1
1.466123 -21.645358 -21.901853 30.827945 -1.503166 2.360940 0.070862 -0.031764 -483106.000000 0 0 1
2.413323 -20.895758 -22.602753 30.876225 -1.455812 2.392114 0.065548 -0.033844 -478571.000000 0 0 1
2.238323 -21.006558 -24.162653 32.095472 -1.464643 2.423158 0.106017 -0.045604 1040390.000000 0 0 1
1.349923 -20.099258 -24.913353 32.038689 -1.503734 2.461639 0.116000 -0.046882 494863.000000 0 0 1
-0.011877 -20.065658 -24.557653 31.712917 1.570204 2.456521 0.141231 -0.047270 62489.400000 0 0 1
-0.902477 -19.052158 -25.333143 31.710681 1.523463 2.496233 0.156018 -0.043656 3484.890000 0 0 1
-0.548077 -17.697858 -25.055453 30.680454 1.539838 2.526393 0.110659 -0.034893 -181707.000000 0 0 1
-1.242277 -16.707058 -25.764813 30.732631 1.496576 2.565052 0.130397 -0.041600 -152023.000000 0 0 1
-0.863377 -15.287258 -25.263343 29.541194 1.514379 2.596714 0.122781 -0.027965 909550.000000 0 0 1
0.521623 -14.965358 -25.468173 29.544235 -1.535955 2.610068 0.117561 -0.028330 364377.000000 0 0 1
0.935923 -13.664758 -25.049653 28.549723 -1.502411 2.641221 0.101164 -0.026342 337175.000000 0 0 1
0.264223 -12.442558 -25.731893 28.583516 -1.549564 2.691106 0.100887 -0.016199 12277.800000 0 0 1
0.840223 -11.252558 -25.230873 27.639156 -1.496265 2.721049 0.088420 -0.014518 -44786.500000 0 0 1
0.454023 -10.095658 -25.962843 27.860324 -1.525855 2.770394 0.076026 -0.015254 -544258.000000 0 0 1
1.286323 -8.817458 -25.702963 27.203759 -1.425935 2.807876 0.066424 -0.024969 1061270.000000 0 0 1
2.688623 -8.802758 -26.047493 27.625878 -1.274366 2.801926 0.085897 -0.024107 908492.000000 0 0 1
3.037923 -8.990558 -27.401203 28.998017 -1.244940 2.808188 0.081685 -0.028108 -1801120.000000 0 0 1
4.491023 -8.844458 -27.725813 29.446806 -1.100946 2.798016 0.108787 -0.033709 -2082010.000000 0 0 1
4.783223 -7.496458 -28.061703 29.436971 -1.002858 2.834713 0.095028 -0.027865 693708.000000 0 0 1
6.069823 -7.289958 -28.671213 30.199746 -0.876474 2.822071 0.125276 -0.034371 -52456.100000 0 0 1
7.240623 -7.380458 -27.694363 29.561385 -0.794962 2.784287 0.147607 -0.035593 -992812.000000 0 0 1
7.783023 -8.650458 -27.358023 29.729905 -0.838134 2.739436 0.114476 -0.030854 -141383.000000 0 0 1
8.606223 -9.192558 -28.329563 31.002166 -0.818329 2.723323 0.113305 -0.042486 -843390.000000 0 0 1
9.145723 -10.589058 -27.908503 31.219496 -0.858405 2.676867 0.100284 -0.033011 -319484.000000 0 0 1
8.125323 -11.482158 -27.523323 30.909450 -0.954956 2.669130 0.107733 -0.033570 26536.300000 0 0 1
8.518323 -12.657558 -26.739473 30.785954 -0.978434 2.623087 0.099486 -0.026981 -350420.000000 0 0 1
9.502723 -13.686058 -27.327033 32.005884 -0.963882 2.594062 0.084698 -0.034931 -161614.000000 0 0 1
9.005423 -14.473858 -28.396923 33.120619 -1.014224 2.600952 0.101609 -0.043688 -401027.000000 0 0 1
10.017523 -15.253858 -29.001173 34.265127 -0.989711 2.579939 0.082130 -0.042702 13127.000000 0 0 1
9.622923 -15.891258 -30.359993 35.593003 -1.026307 2.592458 0.085438 -0.045146 -36801.000000 0 0 1
9.578523 -14.871658 -31.374303 36.017512 -0.998595 2.628203 0.104905 -0.043415 104055.000000 0 0 1
8.845623 -15.370858 -32.451723 36.981382 -1.048601 2.641452 0.123449 -0.042731 -40848.000000 0 0 1
7.498323 -14.727058 -32.860223 36.781861 -1.099853 2.675612 0.136859 -0.039774 234719.000000 0 0 1
7.627623 -13.443458 -33.440623 36.839957 -1.054703 2.708631 0.139274 -0.039542 -542098.000000 0 0 1
6.402623 -12.930158 -33.849843 36.796663 -1.111020 2.738663 0.128855 -0.051784 -388638.000000 0 0 1
6.601623 -11.656358 32.993823 35.609612 -1.055484 0.385681 0.156457 -0.037352 172969.000000 0 0 1
6.953223 -11.992958 31.619375 34.524821 -1.045381 0.413190 0.152870 -0.034985 293280.000000 0 0 1
7.083323 -10.906758 30.736335 33.374439 -0.994812 0.400274 0.156321 -0.035498 -187357.000000 0 0 1
7.421123 -11.316258 29.264865 32.242257 -0.990359 0.433132 0.163457 -0.027919 58870.000000 0 0 1
6.319823 -11.731558 28.499265 31.460733 -1.076668 0.437372 0.144202 -0.023762 11997.900000 0 0 1
6.820123 -11.981158 27.209185 30.502492 -1.053304 0.468976 0.133116 -0.024437 527245.000000 0 0 1
5.820323 -12.739958 26.266415 29.767554 -1.142256 0.489891 0.109577 -0.041538 28280.600000 0 0 1
5.912423 -14.131758 26.358985 30.487037 -1.174548 0.526450 0.109307 -0.033920 -221660.000000 0 0 1
5.350623 -14.778058 25.258675 29.749300 -1.223414 0.556610 0.075963 -0.031078 1088230.000000 0 0 1
3.796723 -15.080158 25.341205 29.732187 -1.324153 0.550400 0.070077 -0.035371 1256830.000000 0 0 1
2.978423 -13.910658 25.195375 28.934138 -1.359870 0.514002 0.066614 -0.041099 -81084.400000 0 0 1
1.760323 -14.217458 24.557055 28.430333 -1.447609 0.528107 0.060328 -0.029297 219125.000000 0 0 1
0.810423 -12.993658 24.318245 27.583854 -1.508506 0.491530 0.048138 -0.032077 -689630.000000 0 0 1
1.244823 -11.948158 23.423835 26.324592 -1.466986 0.473872 0.020944 -0.026087 28294.600000 0 0 1
0.319023 -10.864758 23.198965 25.619070 -1.541442 0.438157 0.031069 -0.024621 836992.000000 0 0 1
-1.101677 -11.306058 22.734315 25.414361 1.473662 0.463382 0.031818 -0.023541 -694656.000000 0 0 1
-1.061577 -12.122258 21.590285 24.783392 1.483447 0.513238 0.024757 -0.012727 -411142.000000 0 1 0
-2.281777 -12.755458 21.326585 24.954588 1.393782 0.545986 0.033638 -0.020799 -181533.000000 0 1 0
-2.248377 -13.543658 20.002485 24.260777 1.406287 0.601517 0.046336 -0.020525 -28880.300000 0 1 0
-1.500877 -14.729858 20.174685 25.024773 1.469253 0.633115 0.061336 -0.017368 -371142.000000 0 0 1
-1.442477 -15.553958 19.027485 24.618114 1.478321 0.687388 0.072992 -0.018080 -587917.000000 0 1 0
-2.681577 -16.364858 18.661585 24.965060 1.408378 0.726494 0.071827 -0.022612 -415661.000000 0 1 0
-2.509577 -17.306658 17.606585 24.815524 1.426794 0.782010 0.056414 -0.024238 -953270.000000 0 1 0
-3.623077 -18.107758 17.469085 25.420199 1.373320 0.813151 0.075660 -0.023136 -623921.000000 0 0 1
-3.279277 -19.378258 16.722285 25.805142 1.403160 0.865813 0.076415 -0.029052 352688.000000 0 0 1
-2.244877 -20.119358 17.386185 26.685342 1.459678 0.861203 0.090167 -0.030720 207417.000000 0 0 1
-2.252577 -21.486258 17.064585 27.530591 1.466340 0.902256 0.089818 -0.047229 -258578.000000 0 0 1
-1.248277 -22.370758 17.809185 28.621253 1.515055 0.899200 0.109507 -0.035290 -701448.000000 0 0 1
0.034423 -22.266658 17.317485 28.208164 -1.569250 0.909782 0.101877 -0.043848 -1374150.000000 0 0 1
0.921723 -23.133458 17.998485 29.324937 -1.530974 0.909981 0.118516 -0.030821 449456.000000 0 0 1
2.332223 -23.182358 17.363785 29.057908 -1.470530 0.930344 0.124841 -0.037126 5276.500000 0 0 1
2.957423 -21.941158 17.355085 28.131117 -1.436815 0.905953 0.117898 -0.030923 1062690.000000 0 0 1
4.226223 -21.969858 16.608785 27.863729 -1.380753 0.932196 0.107587 -0.027790 1512000.000000 0 0 1
4.971623 -20.631258 16.763685 27.044167 -1.334329 0.902228 0.082423 -0.018751 -412674.000000 0 0 1
5.785823 -20.621458 17.911285 27.920144 -1.297256 0.874320 0.083175 -0.010750 -210017.000000 0 0 1
6.361523 -19.420158 18.401285 27.499433 -1.254239 0.837730 0.082228 -0.002327 624262.000000 0 0 1
7.443823 -18.661358 17.544385 26.673250 -1.191248 0.852966 0.096300 -0.019929 329828.000000 0 0 1
6.865923 -18.180058 16.325385 25.380576 -1.209694 0.872095 0.079461 -0.019414 447253.000000 0 0 1
7.820223 -17.490058 15.501985 24.644869 -1.150337 0.890511 0.124004 -0.029209 559223.000000 0 1 0
7.137323 -16.671458 14.352685 23.127440 -1.166289 0.901300 0.077835 -0.023786 337643.000000 0 1 0
6.453423 -17.466558 13.373985 22.925767 -1.216880 0.947936 0.075354 -0.029605 25136.700000 0 1 0
5.707823 -16.653558 12.537085 21.612467 -1.240605 0.951962 0.050815 -0.017153 -386049.000000 0 1 0
6.174923 -16.707658 11.092585 20.983826 -1.216780 1.013816 0.048893 -0.024072 -691228.000000 0 1 0
7.378023 -16.022658 10.931585 20.752358 -1.139266 1.016008 0.061675 -0.029959 -921938.000000 0 1 0
8.089823 -16.720158 9.972085 21.082016 -1.120163 1.078088 0.068437 -0.017458 -1185610.000000 0 1 0
9.416323 -16.065958 9.718485 21.005502 -1.040657 1.089799 0.069656 -0.017885 -734757.000000 0 1 0
10.183323 -16.707458 8.705485 21.415525 -1.023415 1.152173 0.069732 -0.013650 -35553.300000 0 1 0
11.451923 -16.054358 8.679885 21.545982 -0.951185 1.156163 0.061902 -0.016753 509986.000000 0 1 0
12.511723 -16.833658 7.845285 22.393386 -0.931625 1.212863 0.086226 -0.025147 217349.000000 0 1 0
13.071023 -17.950558 8.511285 23.780583 -0.941415 1.204769 0.127709 -0.033089 -54905.500000 0 1 0
13.940123 -18.690658 7.687485 24.551276 -0.929967 1.252320 0.127021 -0.027795 129818.000000 0 1 0
14.519523 -19.923358 8.463585 26.065092 -0.941022 1.240092 0.125161 -0.031394 105357.000000 0 0 1
13.567623 -20.911258 8.757185 26.420624 -0.995252 1.232954 0.115906 -0.029375 126082.000000 0 0 1
14.252323 -22.026058 9.298085 27.833978 -0.996486 1.230194 0.095350 -0.020576 245604.000000 0 0 1
13.286523 -22.954458 10.052385 28.363520 -1.046095 1.208511 0.115446 -0.026802 -64459.400000 0 0 1
12.883923 -22.288758 11.222885 28.084468 -1.046676 1.159703 0.123690 -0.033012 -189469.000000 0 0 1
11.824723 -22.915158 11.933985 28.413879 -1.094414 1.137345 0.154934 -0.040484 72826.600000 0 0 1
12.021723 -24.275458 12.564485 29.861111 -1.110979 1.136509 0.125978 -0.033596 -165309.000000 0 0 1
13.148223 -24.340558 13.418685 30.747352 -1.075526 1.119183 0.110626 -0.032240 -31444.200000 0 0 1
13.316023 -25.642118 13.913685 32.069071 -1.091826 1.122017 0.105550 -0.045477 -371427.000000 0 0 1
14.611423 -25.829118 14.691085 33.112913 -1.055983 1.111111 0.083856 -0.033082 -404210.000000 0 0 1
14.662523 -25.133618 15.924785 33.170576 -1.042685 1.070042 0.086124 -0.029415 480384.000000 0 0 1
15.771823 -25.657348 16.654985 34.415671 -1.019631 1.065649 0.092653 -0.029275 366.446000 0 0 1
15.722423 -25.300298 18.146785 34.879872 -1.014767 1.023635 0.119982 -0.030429 13532.800000 0 0 1
16.088123 -23.959758 18.447885 34.252331 -0.979480 1.002036 0.108215 -0.022272 -345823.000000 0 0 1
17.453623 -23.875158 18.775485 35.031000 -0.939542 1.005143 0.105508 -0.028248 -279444.000000 0 0 1
17.734323 -22.348958 19.037185 34.298638 -0.900020 0.982383 0.107429 -0.030494 -119934.000000 0 0 1
17.788423 -21.490258 17.906785 33.149844 -0.879366 1.000149 0.108838 -0.029019 285764.000000 0 0 1
16.539323 -20.907958 17.554585 31.919514 -0.901534 0.988475 0.121465 -0.025915 -429344.000000 0 0 1
16.645223 -19.740358 16.572485 30.682119 -0.870259 1.000199 0.127928 -0.024807 720676.000000 0 0 1
17.550623 -18.625258 16.885085 30.659920 -0.815095 0.987568 0.122231 -0.031745 -92098.900000 0 0 1
18.884723 -18.953358 16.768885 31.576226 -0.787212 1.010945 0.116227 -0.029324 -1226900.000000 0 0 1
19.891323 -17.788058 17.003685 31.641824 -0.729636 1.003469 0.114577 -0.037960 11978.400000 0 0 1
20.064323 -17.520658 18.396685 32.372651 -0.717824 0.966384 0.105106 -0.034011 425378.000000 0 0 1
20.736823 -16.248858 18.511585 32.198137 -0.664645 0.958281 0.103340 -0.034642 -161441.000000 0 0 1
21.208423 -16.044758 19.996085 33.272735 -0.647666 0.926076 0.086145 -0.027934 -142612.000000 0 0 1
22.545423 -16.468858 20.149385 34.431339 -0.630887 0.945664 0.078853 -0.025043 -57045.400000 0 0 1
23.036423 -16.303958 21.465985 35.458206 -0.615906 0.920543 0.083074 -0.022880 119399.000000 0 0 1
34.608954 -1.846058 -7.760853 35.516453 -0.053290 1.791088 0.131121 -0.033369 -109215.000000 0 0 1
35.849414 -1.369058 -8.247153 36.811280 -0.038171 1.796753 0.155172 -0.039944 241830.000000 0 0 1
36.835664 -2.397358 -8.113253 37.794686 -0.064991 1.787147 0.196924 -0.052467 96071.400000 0 0 1
-36.963207 -1.810658 -8.587353 37.990786 0.048946 1.798805 0.190177 -0.056678 903628.000000 0 0 1
-35.851826 -2.749858 -8.476653 36.942777 0.076551 1.802313 0.225184 -0.050778 1202100.000000 0 0 1
-34.608399 -2.210058 -8.883653 35.798672 0.063772 1.821572 0.306363 -0.064974 64461.500000 0 0 1
-33.412207 -3.175558 -8.872053 34.715603 0.094757 1.829227 0.281599 -0.055951 -184289.000000 0 0 1
-33.022467 -3.519758 -7.618253 34.072127 0.106186 1.796294 0.258706 -0.056948 337492.000000 0 0 1
-31.807477 -4.259358 -7.626153 32.985087 0.133119 1.804107 0.237785 -0.062520 151690.000000 0 0 1
-31.232477 -4.492458 -6.229053 32.162881 0.142859 1.765700 0.212963 -0.073872 -214293.000000 0 0 1
-30.775387 -3.308958 -5.597653 31.454847 0.107108 1.749708 0.209945 -0.065739 416704.000000 0 0 1
-30.444777 -3.545758 -4.240153 30.942459 0.115943 1.708262 0.200257 -0.060234 -205055.000000 0 0 1
-30.136457 -2.226758 -3.505553 30.421266 0.073755 1.686287 0.210157 -0.056431 -149298.000000 0 0 1
-28.885127 -1.661558 -3.875753 29.191314 0.057460 1.703960 0.204446 -0.048352 494531.000000 0 0 1
-28.881427 -0.297758 -3.559453 29.101464 0.010309 1.693415 0.226589 -0.062580 -201848.000000 0 0 1
-27.526327 0.347942 -3.179653 27.711549 -0.012640 1.685791 0.253311 -0.038047 -184158.000000 0 0 1
-27.007537 -0.206358 -2.023653 27.084033 0.007641 1.645584 0.231775 -0.039795 -437224.000000 0 0 1
-25.710057 0.228842 -1.777553 25.772449 -0.008901 1.639822 0.231878 -0.034286 -619109.000000 0 0 1
-25.143057 -0.311058 -0.472453 25.149419 0.012371 1.589583 0.227858 -0.038790 -138650.000000 0 0 1
-25.046187 -1.704858 -0.473853 25.108616 0.067964 1.589670 0.210498 -0.041884 181208.000000 0 0 1
-24.349177 -2.197558 0.633747 24.456356 0.090008 1.544880 0.182846 -0.036252 -104755.000000 0 1 0
-24.166777 -3.748458 0.731947 24.466708 0.153882 1.540876 0.171731 -0.028130 398632.000000 0 1 0
-25.391097 -4.385758 1.120547 25.791439 0.171041 1.527336 0.169665 -0.037633 545699.000000 0 0 1
-25.372447 -5.853058 1.178547 26.065463 0.226719 1.525566 0.143514 -0.028035 -385232.000000 0 0 1
-26.635107 -6.638558 1.562047 27.494352 0.244264 1.513952 0.151644 -0.025192 -305878.000000 0 0 1
-26.830447 -6.623858 2.956847 27.793728 0.242039 1.464209 0.160752 -0.022399 -155406.000000 0 0 1
-27.845817 -7.466058 3.420247 29.031529 0.261960 1.452711 0.156881 -0.017850 -237147.000000 0 0 1
-27.914537 -7.695258 4.908347 29.368865 0.268991 1.402881 0.152973 -0.020296 561215.000000 0 0 1
-26.721557 -8.394358 5.302447 28.506540 0.304380 1.383699 0.140970 -0.001396 600356.000000 0 0 1
-26.684787 -8.614758 6.715947 28.833936 0.312272 1.335719 0.128809 -0.010232 -628601.000000 0 0 1
-25.928067 -7.661458 7.578547 28.078408 0.287313 1.297500 0.101884 0.006741 -418196.000000 0 0 1
-24.537777 -7.710558 7.296047 26.735511 0.304462 1.294393 0.116725 -0.009114 111591.000000 0 0 1
-24.023277 -6.485058 7.801147 26.077418 0.263664 1.266991 0.115693 -0.012109 -567985.000000 0 0 1
-22.604177 -6.059558 7.452747 24.560344 0.261914 1.262489 0.094125 -0.016850 -137367.000000 0 1 0
-21.599777 -6.709158 8.215747 24.063701 0.301164 1.222373 0.095990 -0.024664 -358486.000000 0 1 0
-20.314077 -6.410258 7.758947 22.670563 0.305668 1.221488 0.089113 -0.022861 -241901.000000 0 1 0
-19.282577 -6.636858 8.889647 22.246157 0.331489 1.159712 0.093462 -0.025204 -233682.000000 0 1 0
-19.349677 -5.593558 9.882147 22.435569 0.281406 1.114677 0.101903 -0.021362 815257.000000 0 1 0
-18.245477 -5.696858 10.793747 21.951233 0.302642 1.056738 0.101651 -0.028938 384277.000000 0 1 0
-18.088477 -4.478858 11.738347 22.023669 0.242726 1.008668 0.110141 -0.026670 -108434.000000 0 1 0
-19.112077 -4.521358 12.699247 23.387712 0.232300 0.996805 0.130275 -0.026942 55430.200000 0 1 0
-19.229977 -3.315158 13.301747 23.616070 0.170717 0.972483 0.137400 -0.022782 463615.000000 0 1 0
-20.601577 -3.365758 14.040747 25.157422 0.161943 0.978683 0.144673 -0.027579 275765.000000 0 0 1
-20.572777 -4.247158 15.132947 25.889836 0.203585 0.946517 0.158161 -0.033093 -460873.000000 0 0 1
-21.667477 -4.120958 15.969747 27.230400 0.187946 0.944106 0.144702 -0.021206 -588592.000000 0 0 1
-21.502877 -4.911558 17.281747 28.020634 0.224562 0.906188 0.147732 -0.021951 -324545.000000 0 0 1
-22.572277 -4.689958 18.146847 29.339589 0.204860 0.903950 0.134315 -0.019933 176201.000000 0 0 1
-22.349977 -5.307258 19.391847 30.062139 0.233143 0.869696 0.150401 -0.015700 -102697.000000 0 0 1
-23.469277 -4.961758 20.393447 31.485214 0.208347 0.866215 0.129447 -0.026071 -596366.000000 0 0 1
-23.447677 -3.640258 20.892447 31.615493 0.154021 0.848873 0.147821 -0.036312 203179.000000 0 0 1
-24.219577 -3.356158 22.049147 32.924408 0.137695 0.837005 0.132458 -0.038009 -142912.000000 0 0 1
-24.293077 -1.795758 22.342047 33.053675 0.073786 0.828567 0.109306 -0.026086 -183397.000000 0 0 1
-25.112647 -1.153758 21.417747 33.025689 0.045911 0.865161 0.124084 -0.031445 -169410.000000 0 0 1
-24.957677 0.210542 21.563647 32.983645 -0.008436 0.858243 0.115780 -0.029499 500804.000000 0 0 1
-26.302807 0.921242 21.185047 33.785982 -0.035010 0.893053 0.127665 -0.028801 345956.000000 0 0 1
-27.289367 0.681842 22.159647 35.159984 -0.024980 0.888919 0.123887 -0.029949 -435703.000000 0 0 1
-28.544697 1.165442 21.743047 35.901506 -0.040806 0.920238 0.105852 -0.029409 100859.000000 0 0 1
-29.521957 1.265842 22.954947 37.417615 -0.042852 0.910337 0.089096 -0.022929 13118.600000 0 0 1
-29.026857 2.128842 24.003547 37.726128 -0.073209 0.881158 0.089343 -0.022910 91385.400000 0 0 1
-29.726947 1.912742 25.168247 38.997316 -0.064255 0.869270 0.088406 -0.027300 -388377.000000 0 0 1
-29.238757 2.937142 26.236447 39.393945 -0.100118 0.841960 0.109357 -0.026847 -517589.000000 0 0 1
-27.996297 2.504142 26.684747 38.757440 -0.089208 0.811369 0.107619 -0.028166 -157223.000000 0 0 1
-27.492387 3.418942 27.685747 39.166582 -0.123724 0.785731 0.098756 -0.026901 -379654.000000 0 0 1
-26.190597 2.949742 28.327847 38.692574 -0.112153 0.749358 0.080461 -0.023346 -372909.000000 0 0 1
-26.456827 2.094442 29.402447 39.608766 -0.079000 0.734268 0.082132 -0.020303 835865.000000 0 0 1
-25.209957 1.834242 30.038547 39.258384 -0.072631 0.699522 0.054117 -0.022336 451526.000000 0 0 1
-25.311417 0.675842 31.097147 40.101835 -0.026695 0.683362 0.067008 -0.022360 -54955.300000 0 0 1
-25.805487 -0.456658 30.462947 39.926468 0.017694 0.702891 0.060235 -0.024305 -96153.800000 0 0 1
-26.025487 -1.604858 31.250347 40.699948 0.061587 0.695361 0.074825 -0.019320 -422983.000000 0 0 1
-26.905407 -2.651158 30.490647 40.750572 0.098219 0.725412 0.051676 -0.011288 1159700.000000 0 0 1
-28.288527 -2.289758 30.297147 41.513864 0.080767 0.752755 0.081842 -0.020476 1103270.000000 0 0 1
-28.603667 -1.241558 29.378847 41.022286 0.043378 0.772500 0.083312 -0.021138 -572163.000000 0 0 1
-30.087277 -1.163858 28.966047 41.780746 0.038663 0.804756 0.121642 -0.035558 209803.000000 0 0 1
-31.001667 -0.745958 29.953647 43.114740 0.024057 0.802734 0.137465 -0.033393 275367.000000 0 0 1
-32.309397 -0.638658 29.356547 43.659042 0.019764 0.833343 0.141970 -0.038822 765078.000000 0 0 1
-33.316117 -0.227058 30.459647 45.142057 0.006815 0.830169 0.152674 -0.036088 15750.700000 0 0 1
-33.980497 -1.292458 31.120947 46.096182 0.038017 0.829654 0.140199 -0.038456 30526.700000 0 0 1
-34.669904 -0.863558 32.278847 47.377969 0.024903 0.821252 0.165901 -0.036681 103921.000000 0 0 1
-34.955162 -2.095158 33.149447 48.219694 0.059867 0.812801 0.161267 -0.035962 314019.000000 0 0 1
-35.896807 -3.038558 32.639247 48.612077 0.084446 0.834670 0.138146 -0.039781 17251.900000 0 0 1
-35.913804 -4.179158 33.481947 49.277860 0.115845 0.823781 0.126652 -0.034509 -346051.000000 0 0 1
-37.142767 -5.062858 33.308347 50.146423 0.135473 0.844344 0.114732 -0.029965 -725388.000000 0 0 1
36.839634 -4.482158 33.788147 50.188517 -0.121072 0.832235 0.109541 -0.036576 -308639.000000 0 0 1
35.707004 -5.159158 33.268147 49.075214 -0.143493 0.825892 0.101352 -0.032386 296991.000000 0 0 1
34.285034 -4.748958 33.755347 48.347075 -0.137638 0.797933 0.095479 -0.034463 273426.000000 0 0 1
33.933734 -5.334758 -32.713991 47.435884 -0.155935 2.331797 0.091434 -0.028407 322684.000000 0 0 1
33.541074 -6.712858 -32.717991 47.334269 -0.197529 2.333960 0.086901 -0.030472 500960.000000 0 0 1
32.129974 -7.124158 -33.323991 46.835640 -0.218199 2.362440 0.095720 -0.033669 891275.000000 0 0 1
31.053184 -7.040258 -32.429691 45.448326 -0.222947 2.365350 0.108251 -0.037399 -109331.000000 0 0 1
29.833964 -7.469858 -33.010491 45.117144 -0.245337 2.391553 0.093354 -0.027791 -32567.100000 0 0 1
28.653664 -6.764558 -32.336891 43.731753 -0.231835 2.403031 0.102188 -0.033630 -740610.000000 0 0 1
27.391364 -7.258758 -32.641191 43.225267 -0.259047 2.426666 0.096356 -0.033840 -319779.000000 0 0 1
26.387764 -6.703558 -31.817491 41.876061 -0.248778 2.433804 0.105123 -0.039246 922207.000000 0 0 1
24.876764 -6.951458 -32.204391 41.283155 -0.272485 2.465599 0.089675 -0.038092 1154240.000000 0 0 1
24.531464 -8.370258 -32.201591 41.337590 -0.328818 2.463851 0.092385 -0.042755 251765.000000 0 0 1
24.310464 -8.960858 -30.906291 40.329821 -0.353149 2.443918 0.089938 -0.040660 -332014.000000 0 0 1
23.986664 -10.452958 -30.798491 40.412515 -0.410968 2.437351 0.096343 -0.038846 -146692.000000 0 0 1
22.709564 -10.793058 -31.266591 40.122488 -0.443664 2.464310 0.108106 -0.039996 -328122.000000 0 0 1
22.529864 -12.214458 -31.347391 40.490081 -0.496793 2.456245 0.100379 -0.024174 -566941.000000 0 0 1
21.412664 -12.602558 -32.337791 40.780625 -0.531963 2.486464 0.097006 -0.016296 706734.000000 0 0 1
20.060664 -12.392558 -31.952591 39.711129 -0.553372 2.505841 0.071695 -0.011614 213601.000000 0 0 1
19.649864 -11.057658 -31.751591 38.942938 -0.512568 2.524106 0.066993 -0.023203 -1621390.000000 0 0 1
18.212064 -10.929558 -31.301191 37.827226 -0.540513 2.545397 0.059996 -0.021801 -895243.000000 0 0 1
17.267964 -11.363158 -32.213291 38.275319 -0.582012 2.571073 0.034447 -0.001150 -196020.000000 0 0 1
15.935664 -11.122858 -31.761591 37.235225 -0.609372 2.592500 0.065466 -0.018343 943364.000000 0 0 1
14.845064 -11.506358 -32.812591 37.807913 -0.659370 2.621708 0.062664 -0.015314 -387668.000000 0 0 1
14.530564 -12.883558 -32.907791 38.210549 -0.725392 2.608467 0.067540 -0.011074 403625.000000 0 0 1
13.323664 -13.165558 -33.612391 38.479147 -0.779430 2.633188 0.067559 -0.012217 773500.000000 0 0 1
12.005764 -13.110658 -32.802391 37.309845 -0.829361 2.644953 0.076811 -0.016584 -354331.000000 0 0 1
11.880664 -11.859358 -32.219991 36.330736 -0.784501 2.661284 0.157161 -0.024399 -914694.000000 0 0 1
10.929764 -11.868858 -31.205391 35.129844 -0.826566 2.664399 0.149636 -0.035885 771677.000000 0 0 1
9.572364 -11.199258 -31.681291 34.939343 -0.863562 2.706311 0.143937 -0.029222 661385.000000 0 0 1
9.786264 -9.818358 -31.985991 34.860790 -0.787035 2.732633 0.147941 -0.033293 66212.800000 0 0 1
8.574064 -9.121458 -32.146091 34.497633 -0.816322 2.770233 0.139049 -0.024517 -97035.200000 0 0 1
8.812864 -7.656158 -32.307091 34.351586 -0.715278 2.794846 0.156252 -0.027739 -329508.000000 0 0 1
9.177564 -6.995958 -31.135491 33.205269 -0.651320 2.786652 0.166944 -0.039840 198296.000000 0 0 1
9.384664 -5.636758 -31.341391 33.198309 -0.540886 2.805547 0.143256 -0.040550 -93522.700000 0 0 1
9.392864 -4.723258 -30.094691 31.878291 -0.465930 2.805497 0.135316 -0.038595 -690307.000000 0 0 1
8.150964 -4.645458 -29.467591 30.925029 -0.518014 2.833362 0.160017 -0.038164 -592529.000000 0 0 1
8.059564 -3.632158 -28.475491 29.816148 -0.423406 2.840577 0.153013 -0.033322 268583.000000 0 0 1
6.596864 -3.190858 -28.207991 29.144312 -0.450517 2.887425 0.121782 -0.031197 -732489.000000 0 0 1
6.062764 -2.506958 -29.312191 30.037418 -0.392091 2.921402 0.102690 -0.024351 -881933.000000 0 0 1
4.805064 -2.036058 -29.010091 29.475745 -0.400796 2.963606 0.111568 -0.035783 -415388.000000 0 0 1
3.542964 -2.945958 -28.975591 29.339668 -0.693653 2.983892 0.091535 -0.042537 -296097.000000 0 0 1
3.527564 -3.664058 -27.736591 28.199069 -0.804376 2.960234 0.099243 -0.037999 200714.000000 0 0 1
2.430564 -4.573058 -27.647491 28.128353 -1.082270 2.956421 0.081182 -0.032480 382445.000000 0 0 1
2.482764 -5.442358 -26.380091 27.049816 -1.142805 2.918605 0.060763 -0.030746 -102467.000000 0 0 1
2.432464 -4.856858 -25.090191 25.671455 -1.106484 2.928387 0.058656 -0.039102 50551.900000 0 0 1
2.682464 -5.827758 -24.089791 24.929428 -1.139418 2.881318 0.063533 -0.045644 -95691.400000 0 1 0
2.678964 -5.137658 -22.731091 23.457938 -1.090147 2.892007 0.081031 -0.049568 403613.000000 0 1 0
3.752164 -4.189758 -22.666691 23.354050 -0.840442 2.898374 0.086688 -0.042970 381144.000000 0 1 0
3.621164 -3.403758 -21.497191 22.064170 -0.754460 2.914403 0.071430 -0.036687 -549898.000000 0 1 0
4.672964 -2.318858 -21.353791 21.981767 -0.460626 2.901988 0.071779 -0.034292 -1007510.000000 0 1 0
5.951364 -2.810858 -21.163091 22.162943 -0.441247 2.840073 0.067168 -0.029518 -1017190.000000 0 1 0
6.811864 -1.800958 -20.703191 21.869317 -0.258471 2.813558 0.080590 -0.023710 -40532.600000 0 1 0
8.272964 -2.220258 -20.490691 22.209004 -0.262197 2.745641 0.093788 -0.029418 -1252630.000000 0 1 0
9.008664 -2.526158 -21.650791 23.585891 -0.273393 2.733691 0.103745 -0.044140 644132.000000 0 1 0
10.362764 -2.916258 -21.417691 23.971001 -0.274322 2.675839 0.095177 -0.038310 1076080.000000 0 1 0
11.373664 -1.997258 -20.676591 23.682708 -0.173831 2.632254 0.096320 -0.033432 -945420.000000 0 1 0
11.113064 -1.832258 -19.304391 22.349874 -0.163404 2.613433 0.083397 -0.025140 970686.000000 0 1 0
12.280364 -1.506958 -18.493691 22.250727 -0.122102 2.551969 0.090399 -0.027402 854260.000000 0 1 0
12.718564 -0.035958 -18.565991 22.504648 -0.002827 2.540972 0.090829 -0.029434 -212982.000000 0 1 0
13.234464 0.503042 -19.719891 23.754540 0.037992 2.550177 0.109034 -0.039366 183269.000000 0 1 0
13.446364 1.877342 -19.548291 23.800521 0.138720 2.534550 0.131958 -0.054544 -224793.000000 0 1 0
13.876064 2.632642 -20.783091 25.127929 0.187497 2.544709 0.133991 -0.049050 -772213.000000 0 0 1
15.191264 2.389842 -21.180191 26.174154 0.156038 2.513590 0.148754 -0.045544 -219992.000000 0 0 1
15.692764 3.467842 -21.927891 27.186783 0.217488 2.509113 0.139873 -0.049389 -409663.000000 0 0 1
17.086464 3.220942 -22.501491 28.436575 0.186322 2.483707 0.119850 -0.032282 -430077.000000 0 0 1
17.132164 2.341842 -23.615491 29.269210 0.135851 2.509575 0.101467 -0.022376 -400505.000000 0 0 1
18.433664 1.877142 -23.779491 30.146108 0.101482 2.479664 0.107742 -0.020143 -514572.000000 0 0 1
10.217523 27.110442 3.370247 29.167317 1.210374 1.454989 0.028011 -0.016616 -20655.100000 0 0 1
9.965123 27.347642 4.747947 29.491358 1.221363 1.409098 0.036113 -0.017698 81405.400000 0 0 1
11.127423 27.674642 5.483147 30.327714 1.188498 1.389000 0.025576 -0.010259 -554926.000000 0 0 1
10.919923 28.095942 6.935247 30.930961 1.200099 1.344657 0.040995 -0.018682 -141587.000000 0 0 1
10.843923 27.004542 7.839847 30.138002 1.188947 1.307638 0.042693 -0.027430 38458.300000 0 0 1
10.786223 27.540642 9.152247 30.961156 1.197511 1.270708 0.056603 -0.018437 -892931.000000 0 0 1
10.982223 26.458442 10.262447 30.429857 1.177363 1.226803 0.088158 -0.015143 2360520.000000 0 0 1
12.354123 25.930542 10.495347 30.580544 1.126181 1.220471 0.077105 -0.017913 2610860.000000 0 0 1
13.047223 25.496742 9.273147 30.104902 1.097816 1.257677 0.079382 -0.025966 -295259.000000 0 0 1
14.383323 24.759242 9.562947 30.188574 1.044519 1.248470 0.102409 -0.032858 636503.000000 0 0 1
15.488723 25.608142 9.897047 31.521882 1.026829 1.251421 0.084592 -0.030404 -169208.000000 0 0 1
16.586423 24.787042 10.184347 31.515517 0.981072 1.241737 0.104199 -0.032586 -213454.000000 0 0 1
17.779523 25.570742 10.793447 32.961687 0.963227 1.237188 0.099656 -0.034856 -231446.000000 0 0 1
18.519323 26.278342 9.760447 33.597365 0.956898 1.276034 0.094022 -0.033282 558028.000000 0 0 1
19.921123 26.209642 9.969347 34.397447 0.920882 1.276749 0.095707 -0.044364 212375.000000 0 0 1
20.460323 27.193842 11.056747 35.782419 0.925769 1.256656 0.096443 -0.041975 -711740.000000 0 0 1
20.432123 28.568842 10.806647 36.748252 0.949949 1.272311 0.109020 -0.053223 1061160.000000 0 0 1
19.127823 29.062042 11.189647 36.547012 0.988698 1.259628 0.082347 -0.031009 853405.000000 0 0 1
19.172723 30.625042 11.417047 37.892420 1.011444 1.264739 0.082588 -0.022272 -469100.000000 0 0 1
19.277623 31.449342 10.220547 38.277244 1.020892 1.300503 0.112307 -0.037666 1832080.000000 0 0 1
18.020123 31.532242 9.429947 37.522407 1.051610 1.316758 0.100609 -0.041085 1138840.000000 0 0 1
16.968023 32.399942 10.019447 37.921753 1.088365 1.303408 0.090379 -0.030765 -1183340.000000 0 0 1
17.287123 33.777542 9.995247 39.238654 1.097759 1.313228 0.081770 -0.027489 -1202190.000000 0 0 1
16.236623 -33.085705 10.264347 38.257661 -1.114581 1.299173 0.070230 -0.018930 -1072790.000000 0 0 1
16.469323 -31.575005 10.293647 37.069916 -1.090023 1.289416 0.077792 -0.006783 -163081.000000 0 0 1
16.673723 -31.005805 9.011847 36.339873 -1.077398 1.320194 0.073731 -0.019522 35983.400000 0 0 1
16.722423 -29.583205 9.176547 35.199637 -1.056307 1.307049 0.083042 -0.028499 -64306.700000 0 0 1
17.245123 -28.922405 7.861847 34.579017 -1.033135 1.341432 0.071986 -0.023925 -95600.000000 0 0 1
16.475323 -29.234305 6.710447 34.221498 -1.057601 1.373429 0.075096 -0.016474 -50281.100000 0 0 1
17.136023 -28.717605 5.591447 33.905875 -1.032801 1.405129 0.076094 -0.023007 14267.200000 0 0 1
16.752523 -29.314105 4.201947 34.023817 -1.051609 1.446980 0.078388 -0.022303 -177920.000000 0 0 1
17.272423 -30.547305 3.908147 35.309319 -1.056182 1.459886 0.081358 -0.023463 -454137.000000 0 0 1
17.060623 -30.941205 2.593047 35.428052 -1.066888 1.497539 0.079606 -0.021691 -84574.700000 0 0 1
17.515723 -32.373705 2.136347 36.870331 -1.074852 1.512822 0.081299 -0.015280 -442235.000000 0 0 1
18.884723 -32.616705 2.008147 37.742746 -1.045969 1.517565 0.077963 -0.004578 -481389.000000 0 0 1
19.152923 33.767042 1.421447 38.846726 1.054838 1.534197 0.095517 -0.016087 -144559.000000 0 0 1
20.653323 33.492642 1.623847 39.382149 1.018222 1.529552 0.118959 -0.024770 -135478.000000 0 0 1
20.945023 33.292342 2.975847 39.445275 1.009237 1.495282 0.116221 -0.037581 -184605.000000 0 0 1
22.203023 32.689042 3.136247 39.640683 0.974154 1.491597 0.095866 -0.023846 -229690.000000 0 0 1
22.508823 32.222342 4.535247 39.566335 0.961046 1.455920 0.114915 -0.021192 -201273.000000 0 0 1
21.759723 31.108242 4.869847 38.274321 0.960417 1.443215 0.116306 -0.037041 191522.000000 0 0 1
22.420823 30.337842 5.892247 38.181102 0.934348 1.415853 0.103183 -0.034344 543845.000000 0 0 1
21.388623 29.551942 6.739347 37.097295 0.944299 1.388115 0.110833 -0.049573 -216675.000000 0 0 1
20.719823 28.583442 5.967747 35.804165 0.943561 1.403337 0.113892 -0.045146 -620100.000000 0 0 1
19.588123 28.150042 6.631647 34.929904 0.962863 1.379781 0.117013 -0.048911 866423.000000 0 0 1
18.229223 28.801042 6.057547 34.619337 1.006510 1.394915 0.094123 -0.045122 712332.000000 0 0 1
17.990923 30.122942 6.411647 35.667551 1.032401 1.390052 0.086787 -0.041863 183312.000000 0 0 1
18.190023 31.025342 5.257747 36.346839 1.040515 1.425632 0.100592 -0.037280 -105045.000000 0 0 1
18.030723 32.557442 5.556747 37.629396 1.065031 1.422584 0.104366 -0.031122 -259861.000000 0 0 1
16.689823 32.957742 5.647047 37.371809 1.102041 1.419111 0.053890 -0.028413 -478943.000000 0 0 1
16.581823 -33.308505 5.800847 37.657179 -1.108890 1.416137 0.058216 -0.020640 -150201.000000 0 0 1
15.128923 -32.793705 5.762247 36.572050 -1.138555 1.412578 0.066366 -0.021565 171145.000000 0 0 1
14.560323 -32.949605 4.456947 36.297987 -1.154701 1.447698 0.065226 -0.020041 1550610.000000 0 0 1
13.239723 -32.287405 4.423347 35.175741 -1.181649 1.444713 0.061515 -0.020661 1546630.000000 0 0 1
12.554223 -32.204105 3.065847 34.700321 -1.199085 1.482329 0.065495 -0.016167 -746702.000000 0 0 1
11.458023 -31.362705 3.153147 33.538752 -1.220522 1.476642 0.057549 -0.016790 -800292.000000 0 0 1
10.900323 -31.192105 1.883147 33.095478 -1.234605 1.513865 0.068434 -0.014650 -159542.000000 0 0 1
9.792023 -30.091905 1.926447 31.703590 -1.256199 1.509995 0.068346 -0.018220 187672.000000 0 0 1
9.215123 -29.552805 0.741447 30.965085 -1.268532 1.546849 0.086715 -0.012595 117722.000000 0 0 1
8.303723 -30.437605 0.097647 31.550105 -1.304466 1.567701 0.069630 -0.012513 -616025.000000 0 0 1
8.861023 -30.875505 -1.278053 32.147285 -1.291316 1.610563 0.087112 -0.017865 1022610.000000 0 0 1
9.981423 -31.796105 -1.098453 33.344080 -1.266619 1.603745 0.089432 -0.022250 753031.000000 0 0 1
9.956123 -32.770505 -2.122253 34.315220 -1.275845 1.632682 0.088143 -0.009471 758110.000000 0 0 1
11.295423 -33.599005 -2.003353 35.503424 -1.246483 1.627253 0.084686 -0.019223 806796.000000 0 0 1
11.368423 33.257842 -0.842553 35.157289 1.241421 1.594764 0.078753 -0.015382 268089.000000 0 0 1
12.573223 32.493942 -0.873253 34.852615 1.201599 1.595855 0.090481 -0.022199 192424.000000 0 0 1
12.909723 31.541842 0.299147 34.082814 1.182308 1.562019 0.072443 -0.020334 -641540.000000 0 0 1
13.197823 32.306542 1.481547 34.929789 1.182968 1.528369 0.056522 -0.018703 1179030.000000 0 0 1
14.524023 32.886442 1.641447 35.988327 1.154915 1.525170 0.065159 -0.020899 520098.000000 0 0 1
15.709423 31.935642 1.701747 35.630986 1.113643 1.523018 0.058277 -0.025344 -1134060.000000 0 0 1
16.145023 31.479242 0.437547 35.380728 1.096899 1.558429 0.072243 -0.027948 -435161.000000 0 0 1
16.977223 30.371342 0.554547 34.798736 1.061079 1.554860 0.072595 -0.024392 -557585.000000 0 0 1
17.505723 29.887042 -0.750653 34.644611 1.040936 1.592465 0.075006 -0.023817 300994.000000 0 0 1
18.535223 30.639442 -1.424653 35.837962 1.026748 1.610559 0.056638 -0.015421 321219.000000 0 0 1
18.209423 31.913642 -1.940953 36.794441 1.052287 1.623572 0.075943 -0.025060 -506128.000000 0 0 1
19.410023 32.621542 -2.582853 38.047143 1.034057 1.638734 0.069768 -0.019085 62777.000000 0 0 1
20.412123 33.028542 -1.650253 38.862098 1.017236 1.613273 0.059965 -0.011351 151226.000000 0 0 1
21.404123 33.690942 -2.423953 39.988643 1.004819 1.631450 0.061160 -0.007276 -963145.000000 0 0 1
22.491023 -33.263505 -1.600953 40.185444 -0.976259 1.610646 0.074724 -0.003400 -780960.000000 0 0 1
23.362423 33.593242 -0.828053 40.926695 0.963131 1.591030 0.077793 -0.007353 744207.000000 0 0 1
24.193923 32.633642 -1.506553 40.651817 0.932835 1.607865 0.075350 -0.004142 -393417.000000 0 0 1
25.172223 33.162842 -2.537353 41.711546 0.921529 1.631665 0.078993 -0.009078 -1115480.000000 0 0 1
24.484123 33.650142 -3.693553 41.778543 0.941781 1.659320 0.067354 -0.023529 253162.000000 0 0 1
25.356923 -33.219205 -4.477553 42.030198 -0.918824 1.677531 0.064749 -0.022053 28404.100000 0 0 1
24.658423 -32.719205 -5.746253 41.371531 -0.924971 1.710141 0.067927 -0.027937 915358.000000 0 0 1
23.551623 -31.805205 -5.480053 39.953485 -0.933406 1.708391 0.080291 -0.026458 1008940.000000 0 0 1
22.981423 -31.406205 -6.699753 39.489013 -0.939079 1.741282 0.089300 -0.031191 -526392.000000 0 0 1
22.103623 -30.162705 -6.678953 37.986409 -0.938386 1.747540 0.103480 -0.028251 -372525.000000 0 0 1
20.901323 -30.454405 -6.013453 37.423224 -0.969314 1.732184 0.116629 -0.025813 -565073.000000 0 0 1
20.222423 -29.204605 -5.887553 36.007202 -0.965163 1.735044 0.115987 -0.028845 186123.000000 0 0 1
18.991623 -29.250605 -4.953053 35.225166 -0.994932 1.711875 0.096181 -0.022435 839849.000000 0 0 1
17.808223 -29.816605 -5.536253 35.168350 -1.032395 1.728875 0.101428 -0.029643 849929.000000 0 0 1
16.708423 -29.756205 -4.616253 34.437086 -1.059159 1.705250 0.080909 -0.026168 1287290.000000 0 0 1
15.369423 -30.434305 -5.071853 34.470128 -1.103154 1.718470 0.078261 -0.022117 561826.000000 0 0 1
15.355323 -31.852105 -5.113353 35.727985 -1.121586 1.714408 0.077359 -0.012208 257627.000000 0 0 1
14.049423 -32.419305 -5.325253 35.731721 -1.161861 1.720388 0.084227 -0.008366 723194.000000 0 0 1
14.043123 33.724642 -5.185853 36.897884 1.176228 1.711809 0.082027 -0.023352 -9637.010000 0 0 1
14.286823 33.168042 -3.910753 36.325285 1.164073 1.678665 0.093066 -0.030057 -261494.000000 0 0 1
14.734123 31.837942 -3.941953 35.302803 1.137361 1.682691 0.092974 -0.033374 -132258.000000 0 0 1
13.827423 30.698542 -4.478453 33.965492 1.147588 1.703034 0.095102 -0.028220 449197.000000 0 0 1
12.647723 30.329842 -3.790053 33.079128 1.175716 1.685624 0.081759 -0.027524 115708.000000 0 0 1
12.984623 29.345242 -2.848053 32.215758 1.154215 1.659317 0.091449 -0.030345 -322645.000000 0 0 1
11.832523 28.510642 -2.285553 30.953014 1.177408 1.644703 0.061649 -0.023312 -164154.000000 0 0 1
10.998123 29.238342 -1.420353 31.270701 1.211014 1.616233 0.052384 -0.025924 -642815.000000 0 0 1
10.194523 28.395342 -0.678153 30.177535 1.226108 1.593270 0.037120 -0.017153 -128888.000000 0 0 1
9.182423 29.151842 0.237447 30.564737 1.265648 1.563028 0.032192 0.000015 846807.000000 0 0 1
8.221423 28.245942 0.797347 29.428911 1.287556 1.543699 0.031885 -0.006725 6962.300000 0 0 1
7.107123 28.864642 1.359747 29.757817 1.329376 1.525087 0.048818 -0.000791 66371.900000 0 0 1
6.011623 27.948342 1.969847 28.655361 1.358927 1.501999 0.055081 -0.012057 361845.000000 0 0 1
5.234923 27.266342 1.049547 27.784157 1.381112 1.533012 0.058695 -0.022428 -596228.000000 0 0 1
4.008623 26.801942 1.521147 27.142716 1.422332 1.514724 0.060702 -0.032543 100808.000000 0 0 1
3.193523 25.866842 0.574647 26.069567 1.447958 1.548752 0.070148 -0.036662 526475.000000 0 0 1
1.957623 25.437242 1.124947 25.537249 1.493989 1.526731 0.072837 -0.039326 334273.000000 0 0 1
1.212223 24.722842 0.142647 24.752954 1.521803 1.565033 0.054113 -0.029629 261012.000000 0 1 0
-0.072177 24.029742 0.642247 24.038432 -1.567793 1.544076 0.057726 -0.026557 202449.000000 0 1 0
-1.107577 24.911442 0.985547 24.955520 -1.526365 1.531294 0.070002 -0.032207 -281671.000000 0 1 0
-2.384677 24.354742 0.775047 24.483481 -1.473193 1.539135 0.062664 -0.027293 204012.000000 0 1 0
-3.605877 25.131042 1.377447 25.425754 -1.428286 1.516595 0.098553 -0.047363 -558279.000000 0 0 1
-4.796877 24.458242 1.156647 24.951021 -1.377129 1.524423 0.087594 -0.038872 -974021.000000 0 1 0
-5.720477 25.090342 2.017447 25.813160 -1.346633 1.492561 0.090357 -0.045974 -438691.000000 0 0 1
-7.057277 25.490342 1.400847 26.486319 -1.300701 1.517882 0.102633 -0.046543 -328874.000000 0 0 1
-6.839877 26.487042 0.467047 27.359924 -1.318082 1.553725 0.106719 -0.043016 -250053.000000 0 0 1
-7.972677 26.713142 -0.330253 27.879466 -1.280757 1.582642 0.111738 -0.034342 -489342.000000 0 0 1
-7.838577 27.868742 -1.322553 28.980325 -1.296612 1.616448 0.102206 -0.026012 -21449.400000 0 0 1
-8.049877 29.092242 -0.699753 30.193521 -1.300849 1.593974 0.127360 -0.044345 -57802.400000 0 0 1
-7.901877 30.065342 -1.702553 31.132991 -1.313785 1.625510 0.133325 -0.037586 -25868.100000 0 0 1
-7.518677 31.504742 -1.130653 32.409222 -1.336526 1.605690 0.114573 -0.037062 -504120.000000 0 0 1
-7.684877 32.581542 -2.047553 33.538138 -1.339164 1.631886 0.106884 -0.019180 221654.000000 0 0 1
-6.858777 32.666642 -3.247453 33.536522 -1.363840 1.667782 0.095130 -0.021993 914410.000000 0 0 1
-5.328077 32.907442 -3.033153 33.473694 -1.410278 1.661534 0.108613 -0.027669 398659.000000 0 0 1
-4.907977 -33.474705 -2.522653 33.926507 1.425216 1.645221 0.116111 -0.032862 126508.000000 0 0 1
-4.488077 -33.578605 -1.162653 33.897158 1.437925 1.605102 0.122076 -0.039858 -64032.300000 0 0 1
-4.242077 -32.237305 -0.484153 32.518817 1.439959 1.585685 0.122238 -0.039869 -178361.000000 0 0 1
-5.373477 -31.429905 -0.300553 31.887356 1.401466 1.580222 0.122519 -0.039953 -548697.000000 0 0 1
-5.478177 -30.387305 -1.275853 30.903503 1.392434 1.612093 0.131119 -0.035760 103943.000000 0 0 1
-6.892477 -29.770205 -1.342953 30.587168 1.343282 1.614716 0.138951 -0.041101 210120.000000 0 0 1
-7.116677 -29.071705 -0.106453 29.930293 1.330720 1.574353 0.133395 -0.029356 -176633.000000 0 0 1
-8.479477 -28.708805 0.011147 29.934881 1.283600 1.570424 0.095879 -0.014670 377691.000000 0 0 1
-8.804877 -27.906905 1.305047 29.292053 1.265173 1.526229 0.100155 -0.017378 77394.300000 0 0 1
-8.232177 -26.619205 1.380647 27.897258 1.270869 1.521286 0.102286 -0.027315 -250046.000000 0 0 1
-7.870777 -26.344005 2.707547 27.627641 1.280469 1.472637 0.113605 -0.020560 137522.000000 0 0 1
-8.801277 -25.317705 3.356647 27.013251 1.236231 1.446215 0.095877 -0.017028 285679.000000 0 0 1
-8.308677 -23.995305 3.024247 25.572541 1.237455 1.452257 0.099254 -0.019156 198426.000000 0 0 1
-9.127077 -23.030605 3.660747 25.042232 1.193482 1.424088 0.094887 -0.020690 -178514.000000 0 0 1
-8.419777 -21.712805 3.723747 23.583995 1.200869 1.412240 0.064557 -0.010584 -254340.000000 0 1 0
-7.522377 -21.754605 4.789647 23.511480 1.237883 1.365645 0.051590 -0.004318 -564357.000000 0 1 0
-6.978277 -20.533505 5.299947 22.325112 1.243194 1.331109 0.039767 -0.002895 -90605.100000 0 1 0
-7.961577 -19.519905 5.914547 21.895097 1.183524 1.297267 0.042438 -0.004116 -138462.000000 0 1 0
-8.607677 -20.044705 7.052447 22.926389 1.165184 1.258113 0.045926 -0.006864 206.851000 0 1 0
-9.389477 -19.097005 7.750847 22.648035 1.113833 1.221507 0.034426 -0.003007 -520205.000000 0 1 0
-28.552057 29.317442 -5.377453 41.275288 -0.798623 1.701450 0.126144 0.017551 -891789.000000 0 0 1
-27.449547 29.950442 -4.864053 40.916569 -0.828940 1.689955 0.113018 -0.001684 -973358.000000 0 0 1
-26.602737 29.125242 -4.127253 39.661311 -0.830632 1.675047 0.091800 0.004638 -64693.700000 0 0 1
-25.447097 29.938142 -3.523653 39.449502 -0.866309 1.660236 0.079705 -0.004281 -521167.000000 0 0 1
-25.918647 30.764642 -2.464153 40.302748 -0.870683 1.631976 0.052132 -0.009811 984249.000000 0 0 1
-24.956077 31.686342 -1.832253 40.375577 -0.903664 1.616192 0.045442 -0.015509 486807.000000 0 0 1
-23.862777 31.036142 -0.952153 39.160961 -0.915327 1.595113 0.051423 -0.013972 -262199.000000 0 0 1
-22.868577 30.495242 -1.775653 38.158676 -0.927355 1.617347 0.085747 -0.021070 -647578.000000 0 0 1
-21.798577 30.024642 -1.028353 37.117578 -0.942818 1.598505 0.086729 -0.018951 -501421.000000 0 0 1
-20.646277 29.320642 -1.740653 35.902628 -0.957287 1.619298 0.103063 -0.017810 1080580.000000 0 0 1
-19.453677 29.198842 -0.892753 35.097221 -0.983083 1.596236 0.113836 -0.018951 495374.000000 0 0 1
-18.394377 28.705642 -1.635153 34.132693 -1.000921 1.618720 0.116027 -0.014651 253258.000000 0 0 1
-17.003277 29.127142 -1.020153 33.742296 -1.042403 1.601035 0.123270 -0.022686 754533.000000 0 0 1
-16.711877 28.645142 0.301047 33.165066 -1.042664 1.561719 0.108692 -0.034330 107820.000000 0 0 1
-15.409277 29.019042 0.714047 32.864274 -1.082653 1.549067 0.113104 -0.044927 402345.000000 0 0 1
-14.847177 28.261342 1.958447 31.984022 -1.087073 1.509526 0.100136 -0.048682 -85770.400000 0 0 1
-15.649677 28.452342 3.132147 32.622975 -1.067929 1.474638 0.083872 -0.044095 -130298.000000 0 0 1
-15.218377 27.856242 4.355447 32.039650 -1.070784 1.434435 0.072654 -0.052730 114656.000000 0 0 1
-13.959877 28.408242 5.056147 32.054189 -1.114050 1.412397 0.097982 -0.048234 22693.800000 0 0 1
-14.163177 29.596442 5.827147 33.324175 -1.124461 1.395030 0.078586 -0.045038 -265038.000000 0 0 1
-14.320677 30.777742 5.023947 34.316049 -1.135298 1.423866 0.093160 -0.042503 -230970.000000 0 0 1
-14.145277 32.096542 5.820147 35.554901 -1.155695 1.406362 0.097636 -0.037841 -638223.000000 0 0 1
-15.247977 32.417342 6.589847 36.425416 -1.131137 1.388881 0.080630 -0.035219 -744691.000000 0 0 1
-15.095177 33.659642 7.333747 37.611431 -1.149219 1.374552 0.120872 -0.045431 305712.000000 0 0 1
-16.254177 -33.622905 8.307447 38.258485 1.120496 1.351913 0.085485 -0.037344 302492.000000 0 0 1
-16.257077 33.350542 9.514347 38.302402 -1.117230 1.319767 0.057007 -0.040965 -285180.000000 0 0 1
-17.423577 33.562642 10.273547 39.186449 -1.091957 1.305525 0.069269 -0.042173 -791302.000000 0 0 1
-17.385877 33.000342 11.691647 39.089460 -1.085909 1.267047 0.058585 -0.027263 1536.330000 0 0 1
-16.464777 33.520442 12.617347 39.419619 -1.114225 1.244985 0.056975 -0.038729 -541977.000000 0 0 1
-15.145377 33.109742 12.354847 38.448403 -1.141781 1.243657 0.066701 -0.033058 -506581.000000 0 0 1
-14.264577 33.303142 13.644847 38.713813 -1.166113 1.210604 0.064749 -0.032940 25166.700000 0 0 1
-14.646277 32.402042 14.710947 38.481395 -1.146266 1.178526 0.052719 -0.030285 360181.000000 0 0 1
-13.995677 31.124942 14.817247 37.204728 -1.148224 1.161174 0.043221 -0.026695 68665.200000 0 0 1
-14.760977 29.986342 14.053847 36.257107 -1.113363 1.172752 0.042297 -0.029266 178855.000000 0 0 1
-14.846077 30.133042 12.671447 35.902254 -1.113018 1.210082 0.046039 -0.026400 708319.000000 0 0 1
-15.941577 29.475442 11.996247 35.592773 -1.075011 1.227023 0.021837 -0.023147 434207.000000 0 0 1
-15.880677 29.350842 10.462847 34.973404 -1.074840 1.266978 0.029698 -0.019992 -183923.000000 0 0 1
-15.046177 28.337742 9.995547 33.605447 -1.082689 1.268788 0.018069 -0.010786 78806.100000 0 0 1
-15.509577 27.946242 8.723647 33.130672 -1.064139 1.304344 0.027831 -0.012440 167019.000000 0 0 1
-14.713277 26.666442 8.324447 31.573344 -1.066609 1.303988 0.032484 -0.018083 -369493.000000 0 0 1
-13.412777 26.939242 7.903547 31.114167 -1.108838 1.313964 0.065747 -0.020298 -721649.000000 0 0 1
-12.751977 25.724342 7.930147 29.786607 -1.110581 1.301315 0.071156 -0.030555 -279116.000000 0 0 1
-11.432177 25.639842 7.144847 28.968000 -1.151378 1.321578 0.108046 -0.044960 296517.000000 0 0 1
-11.815277 25.725342 5.719847 28.880974 -1.140247 1.371429 0.114889 -0.051673 683506.000000 0 0 1
-10.753477 25.218342 4.936947 27.856337 -1.167728 1.392626 0.148466 -0.042331 -101086.000000 0 0 1
-10.917777 25.370642 3.399147 27.828430 -1.164419 1.448344 0.125637 -0.044289 -101770.000000 0 0 1
-10.741577 26.693842 2.902047 28.919968 -1.188223 1.470280 0.141172 -0.041391 180479.000000 0 0 1
-11.327577 26.857742 1.621047 29.193837 -1.171671 1.515241 0.138314 -0.046313 -22084.400000 0 0 1
-11.034477 28.316942 1.159747 30.413055 -1.199220 1.532654 0.168421 -0.033968 51888.500000 0 0 1
-11.573377 29.313442 2.009547 31.579411 -1.194768 1.507119 0.141776 -0.043302 -261693.000000 0 0 1
-11.083277 30.561042 1.709147 32.553610 -1.222888 1.518270 0.145338 -0.045576 -31066.100000 0 0 1
-11.438377 31.746642 2.709647 33.853034 -1.224973 1.490669 0.126719 -0.040437 218757.000000 0 0 1
-12.763177 32.230642 2.682547 34.769369 -1.193747 1.493567 0.131722 -0.040477 -340568.000000 0 0 1
-12.876377 33.313942 1.751047 35.758719 -1.201968 1.521808 0.133609 -0.031220 873369.000000 0 0 1
-14.362777 33.772442 1.442147 36.728014 -1.168688 1.531521 0.134633 -0.032612 866149.000000 0 0 1
-15.108077 32.759542 0.801447 36.084400 -1.138683 1.548584 0.113591 -0.028600 -326247.000000 0 0 1
-15.273277 33.007742 -0.614053 36.375281 -1.137417 1.587678 0.112160 -0.024172 -58710.400000 0 0 1
-14.066977 32.896142 -1.577353 35.812345 -1.166710 1.614856 0.122706 -0.024463 124917.000000 0 0 1
-13.547477 31.575342 -1.760453 34.404005 -1.165498 1.621989 0.121189 -0.023978 -324012.000000 0 0 1
-12.271677 31.543642 -2.307153 33.925188 -1.199775 1.638856 0.112871 -0.019625 -600588.000000 0 0 1
-11.645277 30.177742 -2.499753 32.443140 -1.202513 1.647923 0.080256 -0.027851 -53024.200000 0 0 1
-11.860877 29.494142 -3.745253 32.009557 -1.188443 1.688069 0.086675 -0.025784 -353387.000000 0 0 1
-10.608977 29.284242 -4.324153 31.445437 -1.223227 1.708746 0.076814 -0.018538 -224681.000000 0 0 1
-10.702377 28.776842 -5.764953 31.239113 -1.214738 1.756403 0.079888 -0.019325 66130.500000 0 0 1
-11.210377 27.443342 -5.891253 30.224434 -1.182991 1.766969 0.075349 -0.016090 13968.700000 0 0 1
-11.167377 26.869942 -7.183953 29.971875 -1.176907 1.812843 0.054964 -0.017417 22182.200000 0 0 1
-11.705977 25.441742 -7.211453 28.919149 -1.139568 1.822822 0.067065 -0.020654 -176883.000000 0 0 1
-11.022477 24.487642 -6.470753 27.622640 -1.147839 1.807249 0.044285 -0.012468 -530180.000000 0 0 1
-11.489077 23.189742 -6.699153 26.732783 -1.110805 1.824093 0.065208 -0.029277 -556838.000000 0 0 1
-10.870277 22.175842 -5.806053 25.370084 -1.115031 1.801697 0.080206 -0.035100 -633755.000000 0 0 1
-9.516677 21.925442 -6.065753 24.659390 -1.161288 1.819328 0.087248 -0.031243 -223962.000000 0 1 0
-8.891277 20.835542 -5.380253 23.283508 -1.167456 1.803979 0.077658 -0.025581 -219883.000000 0 1 0
-8.716777 20.689342 -3.844053 22.777353 -1.172049 1.740374 0.070504 -0.037252 441801.000000 0 1 0
-9.874877 20.632342 -2.981553 23.067215 -1.124405 1.700414 0.094462 -0.041649 532258.000000 0 1 0
-10.695077 19.461842 -3.152653 22.429605 -1.068306 1.711821 0.102258 -0.042814 -508447.000000 0 1 0
-11.905877 19.555942 -2.256053 23.005968 -1.023923 1.669018 0.086183 -0.041247 -911135.000000 0 1 0
-11.621577 19.443542 -0.851953 22.668000 -1.032063 1.608389 0.085758 -0.043077 211209.000000 0 1 0
-11.202477 18.182742 -0.353853 21.359607 -1.018619 1.587364 0.076977 -0.035479 -249563.000000 0 1 0
-11.016577 18.132542 1.190547 21.250211 -1.024838 1.514742 0.079811 -0.037984 410307.000000 0 1 0
-12.259477 18.276442 1.885847 22.087995 -0.979951 1.485313 0.097688 -0.039119 602056.000000 0 1 0
-12.098277 18.420842 3.301847 22.284477 -0.989676 1.422081 0.100103 -0.031874 -276289.000000 0 1 0
-13.417077 18.442642 4.086247 23.169947 -0.941849 1.393509 0.098370 -0.035115 -199459.000000 0 1 0
-13.918577 17.120742 4.172347 22.455625 -0.888199 1.383906 0.065599 -0.031755 -567439.000000 0 1 0
-15.193877 17.135642 4.702447 23.379417 -0.845388 1.368279 0.086919 -0.040209 -897419.000000 0 1 0
-15.443777 15.764542 5.365347 22.711627 -0.795676 1.332304 0.065249 -0.032150 -375406.000000 0 1 0
-14.599977 15.474242 6.478947 22.239340 -0.814460 1.275181 0.060510 -0.022248 247557.000000 0 1 0
-15.002877 16.060842 7.712347 23.292000 -0.819443 1.233311 0.051073 -0.016591 -1273800.000000 0 1 0
-13.982477 15.861142 8.818847 22.909770 -0.848266 1.175655 0.032111 -0.005904 567939.000000 0 1 0
-12.778477 16.634042 8.733847 22.721376 -0.915741 1.176250 0.034921 -0.022646 869070.000000 0 1 0
-11.865177 16.173742 7.704447 21.487924 -0.937869 1.204085 0.036121 -0.025043 222080.000000 0 1 0
-10.651077 17.184442 7.528947 21.573955 -1.015938 1.214310 0.054141 -0.032316 305821.000000 0 1 0
-9.713577 17.129142 8.567247 21.474609 -1.054935 1.160427 0.053153 -0.030318 -570564.000000 0 1 0
-8.884577 18.250242 8.368847 21.955515 -1.117748 1.179732 0.051235 -0.040404 -684888.000000 0 1 0
-7.661577 18.394542 9.255347 21.970899 -1.176136 1.135968 0.049730 -0.034205 -1001750.000000 0 1 0
-6.597677 17.491942 8.945247 20.724740 -1.210112 1.124507 0.040253 -0.028071 -89656.000000 0 1 0
-5.480777 17.803542 9.745247 21.023198 -1.272156 1.088802 0.032475 -0.022451 161524.000000 0 1 0
-4.544877 18.884842 9.146947 21.469975 -1.334625 1.130691 0.030246 -0.026181 -1635330.000000 0 1 0
-5.111777 20.144542 9.125047 22.698003 -1.322287 1.157075 0.051563 -0.033664 -507415.000000 0 1 0
-4.648277 21.078742 8.156247 23.074753 -1.353750 1.209518 0.057109 -0.040900 721450.000000 0 1 0
-3.184777 21.640442 8.355547 23.415096 -1.424677 1.205909 0.056169 -0.032752 1112630.000000 0 1 0
-2.088977 20.746442 8.209247 22.409159 -1.470444 1.195730 0.038189 -0.018969 -92847.900000 0 1 0
-0.920577 21.555242 8.191747 23.077709 -1.528114 1.207921 0.035675 -0.012117 1645110.000000 0 1 0
0.425523 20.682442 8.014947 22.185217 1.550225 1.201162 0.029306 -0.003871 1699660.000000 0 1 0
0.897723 20.013542 9.189247 22.040645 1.525971 1.140739 0.025284 -0.009832 -639260.000000 0 1 0
2.243823 19.666842 8.956847 21.726586 1.457196 1.145871 0.023546 -0.012834 -133143.000000 0 1 0
2.771423 19.090042 10.280547 21.858640 1.426627 1.081143 0.015696 -0.029075 1316870.000000 0 1 0
4.196023 18.769742 10.336547 21.834698 1.350860 1.077650 0.037289 -0.013646 1534330.000000 0 1 0
4.574723 18.318242 11.640947 22.181022 1.326066 1.018298 0.035039 -0.017731 -550201.000000 0 1 0
6.081323 18.376542 11.775147 22.656873 1.251212 1.024277 0.054613 -0.021740 -435784.000000 0 1 0
6.924323 17.471742 11.065647 21.809552 1.193470 1.038659 0.044688 -0.024616 -36626.500000 0 1 0
7.746123 16.783242 11.999547 22.037894 1.138388 0.995008 0.053216 -0.014562 330227.000000 0 1 0
9.060323 16.216242 11.364447 21.776286 1.061284 1.021752 0.053410 -0.017075 520995.000000 0 1 0
9.957123 17.184842 10.901147 22.656083 1.045652 1.068822 0.064090 -0.030840 -346511.000000 0 1 0
11.093223 16.684442 10.256247 22.508239 0.984029 1.097676 0.065391 -0.030419 -119604.000000 0 1 0
12.114523 17.695742 9.721847 23.546024 0.970480 1.145175 0.066787 -0.024625 817287.000000 0 1 0
13.059323 17.071642 8.782847 23.219071 0.917782 1.182880 0.059404 -0.022373 737776.000000 0 1 0
13.939023 18.057742 8.221447 24.248105 0.913417 1.224884 0.076866 -0.021081 684231.000000 0 1 0
14.967223 17.569642 7.160247 24.165662 0.865212 1.269982 0.084897 -0.028651 700996.000000 0 1 0
16.023623 16.749742 7.696247 24.424221 0.807550 1.250227 0.099663 -0.033836 551837.000000 0 1 0
16.969423 16.500442 6.677947 24.593106 0.771387 1.295806 0.104448 -0.025886 -403522.000000 0 1 0
18.441423 16.415242 7.099247 25.689406 0.727335 1.290803 0.102232 -0.028098 -186585.000000 0 0 1
18.632723 15.197042 7.876947 25.301675 0.684187 1.254213 0.106310 -0.031491 -431622.000000 0 0 1
19.594923 15.305942 8.841947 26.389636 0.663121 1.229134 0.113654 -0.031784 -833539.000000 0 0 1
19.748123 14.158542 9.775447 26.191831 0.622016 1.188313 0.097422 -0.033110 -34943.800000 0 0 1
20.622023 13.186742 9.201247 26.149970 0.568923 1.211234 0.113751 -0.043456 526714.000000 0 0 1
20.885423 12.163242 10.152547 26.214873 0.527362 1.173115 0.113493 -0.050886 429116.000000 0 0 1
21.918123 11.031442 9.668047 26.373622 0.466286 1.195466 0.106178 -0.041543 -195950.000000 0 0 1
23.231023 11.581742 9.658047 27.696481 0.462484 1.214602 0.105305 -0.045406 231109.000000 0 0 1
24.185223 10.824742 8.987347 27.979858 0.420837 1.243792 0.126532 -0.051742 -524187.000000 0 0 1
24.399023 9.307942 9.361047 27.741292 0.364447 1.226599 0.148801 -0.058198 -1461590.000000 0 0 1
23.314223 8.460942 9.084547 26.413435 0.348128 1.219690 0.149684 -0.056628 42660.600000 0 0 1
23.492123 7.041642 9.353447 26.247886 0.291223 1.206437 0.133252 -0.053537 -120454.000000 0 0 1
24.478923 6.230242 8.459847 26.638367 0.249223 1.247619 0.142631 -0.057330 272273.000000 0 0 1
24.014123 6.135642 7.119347 25.787774 0.250150 1.291089 0.124619 -0.040787 1113070.000000 0 0 1
25.083123 5.783242 6.214047 26.480622 0.226603 1.333923 0.151350 -0.048266 377887.000000 0 0 1
24.547123 5.551342 4.825547 25.625467 0.222409 1.381355 0.155737 -0.050366 -722919.000000 0 0 1
23.712823 4.433642 4.845947 24.605657 0.184838 1.372556 0.137876 -0.040763 122684.000000 0 1 0
23.607623 3.891742 3.509947 24.182333 0.163382 1.425137 0.168255 -0.044534 -42976.500000 0 1 0
22.587923 2.727342 3.298647 22.989861 0.120162 1.426817 0.152769 -0.033129 39974.400000 0 1 0
23.000923 1.506442 3.884747 23.375266 0.065401 1.403831 0.171354 -0.031489 232763.000000 0 1 0
22.151523 0.425142 3.572247 22.441739 0.019190 1.410938 0.152495 -0.027216 -445987.000000 0 1 0
22.752223 -0.943358 3.786747 23.084476 -0.041438 1.406013 0.168614 -0.030381 -560636.000000 0 1 0
22.823223 -1.256258 5.152147 23.431225 -0.054987 1.349101 0.161263 -0.028794 686417.000000 0 1 0
22.963123 -2.644158 5.279947 23.710218 -0.114643 1.346227 0.153820 -0.032168 -492560.000000 0 1 0
22.843323 -3.207858 6.695247 24.019452 -0.139516 1.288312 0.185810 -0.040188 -153242.000000 0 1 0
22.717923 -4.604158 6.936547 24.195412 -0.199958 1.280028 0.164377 -0.042743 531612.000000 0 1 0
22.791823 -4.829758 8.342947 24.746687 -0.208818 1.226925 0.193796 -0.048636 -53150.400000 0 1 0
22.435723 -6.289358 8.751647 24.889938 -0.273313 1.211502 0.189737 -0.054495 -762627.000000 0 1 0
21.119123 -6.640758 8.526047 23.723627 -0.304654 1.203182 0.195260 -0.054713 -375712.000000 0 1 0
20.813323 -7.861958 9.121647 24.045982 -0.361168 1.181711 0.186517 -0.050337 -310274.000000 0 1 0
-27.866067 -32.847305 5.220847 43.390326 0.867260 1.450181 0.048555 -0.005440 22682.300000 0 0 1
-28.549807 33.664642 5.627347 44.497940 -0.867427 1.443994 0.058885 -0.006986 -173064.000000 0 0 1
-28.463877 33.353242 6.981847 44.400194 -0.864328 1.412893 0.064318 -0.006263 -178399.000000 0 0 1
-29.345747 32.200842 7.437447 44.197090 -0.831754 1.401713 0.078199 -0.025125 -330643.000000 0 0 1
-30.723247 32.415542 7.473347 45.282847 -0.812195 1.405001 0.068565 -0.013436 -425385.000000 0 0 1
-31.481607 31.265442 7.892947 45.065708 -0.781953 1.394745 0.087657 -0.028614 317166.000000 0 0 1
-32.989317 31.531242 7.977447 46.326601 -0.762803 1.397734 0.079627 -0.021420 -70175.500000 0 0 1
-33.574427 31.725242 6.679747 46.672820 -0.757087 1.427185 0.066935 -0.016545 -36642.700000 0 0 1
-34.978694 31.839342 6.658347 47.765953 -0.738449 1.430946 0.057239 -0.016046 -204396.000000 0 0 1
-35.486979 31.834942 5.212847 47.957930 -0.731204 1.461885 0.032158 -0.009978 -407338.000000 0 0 1
-35.438395 30.596142 4.549947 47.039407 -0.712200 1.473919 0.043462 -0.015107 -128683.000000 0 0 1
-36.204127 30.484442 3.409147 47.451684 -0.699840 1.498890 0.056474 -0.008699 -389380.000000 0 0 1
-35.885948 29.200242 2.662247 46.341590 -0.683036 1.513316 0.066908 -0.019162 -36896.400000 0 0 1
-36.209197 28.052842 3.370747 45.928530 -0.659150 1.497339 0.089019 -0.020459 227764.000000 0 0 1
-35.600196 26.874342 2.805947 44.693149 -0.646625 1.507973 0.103461 -0.018458 -92952.200000 0 0 1
-36.041897 25.539942 3.397947 44.304097 -0.616487 1.494025 0.118169 -0.017531 -712481.000000 0 0 1
-37.340977 25.156242 3.077647 45.129336 -0.592849 1.502547 0.118137 -0.013332 -721096.000000 0 0 1
37.334644 24.190742 3.980947 44.664478 0.574928 1.481548 0.114841 -0.003674 -42425.200000 0 0 1
35.826164 23.982342 3.718547 43.272328 0.589898 1.484757 0.128627 -0.003261 -87110.500000 0 0 1
35.458514 23.035142 2.692147 42.369466 0.576120 1.507214 0.121691 -0.022970 85920.100000 0 0 1
35.694914 21.687742 2.962147 41.871940 0.545979 1.499994 0.120163 -0.015441 -684850.000000 0 0 1
34.735034 20.780042 2.128547 40.532252 0.539128 1.518257 0.128082 -0.017082 1154430.000000 0 0 1
33.413694 20.764842 2.726247 39.434579 0.556040 1.501608 0.132542 -0.032027 988849.000000 0 0 1
33.211924 19.892642 3.880347 38.907662 0.539655 1.470898 0.114684 -0.022510 -471607.000000 0 0 1
33.393274 18.290042 3.728447 38.256211 0.501088 1.473181 0.139156 -0.032684 -179379.000000 0 0 1
32.524044 17.681042 2.779447 37.123550 0.497939 1.495856 0.128436 -0.049601 388186.000000 0 0 1
32.670864 16.249242 2.804047 36.596255 0.461535 1.494100 0.132981 -0.046583 -472838.000000 0 0 1
31.749334 15.562642 3.803247 35.562350 0.455755 1.463646 0.164191 -0.047604 449419.000000 0 0 1
30.395814 15.584042 3.287647 34.315834 0.473759 1.474844 0.145818 -0.038941 642397.000000 0 0 1
29.569864 14.754142 4.042447 33.292686 0.462814 1.449074 0.133356 -0.044831 -353451.000000 0 0 1
28.074264 15.089042 3.935847 32.114395 0.493171 1.447930 0.110752 -0.037233 -185578.000000 0 0 1
27.391064 14.433242 2.883847 31.095103 0.484961 1.477920 0.109571 -0.042118 1223510.000000 0 0 1
26.060664 15.029542 2.777047 30.211874 0.523121 1.478747 0.077468 -0.020450 1418950.000000 0 0 1
25.189264 14.684642 1.523747 29.196910 0.527805 1.518584 0.078061 -0.023455 -30776.000000 0 0 1
25.755964 15.115242 0.276347 29.864972 0.530705 1.561543 0.097758 -0.025812 847385.000000 0 0 1
26.877964 14.336742 -0.167953 30.463016 0.490010 1.576310 0.098289 -0.030712 -350863.000000 0 0 1
27.727664 15.003942 -1.289953 31.553218 0.495999 1.611690 0.126543 -0.036739 251027.000000 0 0 1
28.372964 16.259042 -1.086753 32.719452 0.520365 1.604017 0.106535 -0.032482 517642.000000 0 0 1
29.303964 16.188742 -0.013853 33.478319 0.504716 1.571210 0.112582 -0.036638 -612885.000000 0 0 1
30.095964 17.493942 0.195447 34.811539 0.526535 1.565182 0.141627 -0.029075 -298660.000000 0 0 1
30.969904 17.905242 -0.796153 35.782209 0.524198 1.593048 0.137100 -0.030932 -169158.000000 0 0 1
31.470064 19.210642 -0.525453 36.873972 0.548062 1.585047 0.127380 -0.016598 228026.000000 0 0 1
32.637784 19.626542 -1.464453 38.112606 0.541407 1.609230 0.118251 -0.014868 -157806.000000 0 0 1
32.986244 20.963342 -1.522953 39.113596 0.566127 1.609743 0.062249 -0.007069 308111.000000 0 0 1
32.080084 21.844242 -2.183653 38.872497 0.597811 1.627001 0.095528 -0.014640 149098.000000 0 0 1
32.778644 23.248842 -2.540653 40.266649 0.616919 1.633934 0.091461 -0.016303 340482.000000 0 0 1
33.038484 24.150842 -1.497553 40.951767 0.631224 1.607373 0.112543 -0.011989 -618137.000000 0 0 1
34.223984 23.899742 -0.842853 41.751517 0.609606 1.590985 0.125553 -0.001087 -1100520.000000 0 0 1
34.680974 25.000542 0.201147 42.753216 0.624597 1.566091 0.119754 -0.021833 -137710.000000 0 0 1
35.129464 26.173942 -0.363353 43.809662 0.640339 1.579090 0.139671 -0.014692 300997.000000 0 0 1
36.411874 26.412342 0.228447 44.983203 0.627555 1.565718 0.132009 -0.018222 755311.000000 0 0 1
37.216124 27.632842 -0.329653 46.354315 0.638682 1.577908 0.111328 -0.034270 73762.700000 0 0 1
-37.551117 27.576642 -1.705253 46.620441 -0.633427 1.607382 0.114085 -0.036922 128557.000000 0 0 1
36.486694 27.755342 -2.538753 45.913866 0.650313 1.626118 0.101801 -0.030300 -272248.000000 0 0 1
36.538924 27.200042 -3.997753 45.726549 0.639916 1.658335 0.114260 -0.029703 -85441.600000 0 0 1
37.380774 28.003842 -4.821653 46.955146 0.642957 1.673664 0.098603 -0.026565 286796.000000 0 0 1
-37.475897 27.519442 -6.116353 46.895334 -0.633393 1.701595 0.084027 -0.022434 -275556.000000 0 0 1
36.491394 27.565042 -7.109853 46.281782 0.646938 1.725028 0.061768 -0.009649 -42868.400000 0 0 1
35.525074 26.668342 -6.600753 44.908811 0.643943 1.718312 0.075230 -0.018929 -1250520.000000 0 0 1
34.406904 26.670942 -7.414353 44.160466 0.659412 1.739491 0.054055 -0.021856 -668706.000000 0 0 1
33.275194 25.784742 -6.835053 42.647502 0.659244 1.731759 0.052871 -0.018398 -572694.000000 0 0 1
33.346714 24.370142 -7.066553 41.902784 0.631107 1.740248 0.045145 -0.018563 -900188.000000 0 0 1
34.363004 23.840742 -6.290153 42.293771 0.606547 1.720075 0.046356 -0.019278 -418158.000000 0 0 1
34.570514 22.293442 -6.465553 41.640381 0.572760 1.726698 0.044141 -0.011855 604482.000000 0 0 1
33.499224 21.516342 -5.889553 40.247209 0.570939 1.717658 0.038317 -0.003648 527063.000000 0 0 1
33.744074 20.122242 -5.878153 39.725556 0.537709 1.719311 0.048841 -0.008567 -834498.000000 0 0 1
32.652994 19.368642 -5.184553 38.317645 0.535379 1.706517 0.079465 -0.013296 -500597.000000 0 0 1
31.508634 19.271242 -6.029053 37.423579 0.548918 1.732605 0.065406 -0.017541 -658517.000000 0 0 1
30.504264 18.651442 -5.312653 36.147070 0.548787 1.718304 0.131288 -0.033365 -778006.000000 0 0 1
29.255964 18.427942 -6.183353 35.124554 0.562106 1.747759 0.091160 -0.029072 -320180.000000 0 0 1
29.354064 17.308042 -7.038053 34.796028 0.532760 1.774467 0.071689 -0.022301 -185829.000000 0 0 1
28.321464 17.299242 -7.992353 34.135711 0.548336 1.807125 0.086231 -0.028233 -69623.100000 0 0 1
28.352164 16.083542 -8.913353 33.793096 0.516011 1.837717 0.073445 -0.023732 -219904.000000 0 0 1
27.589164 16.350842 -10.054453 33.609582 0.535001 1.874603 0.056283 -0.021102 52704.200000 0 0 1
27.620764 15.341242 -11.012453 33.459444 0.506998 1.906177 0.051859 -0.010194 -93145.900000 0 0 1
26.974164 15.664542 -12.424453 33.576039 0.526125 1.949848 0.058616 -0.009405 179822.000000 0 0 1
25.552664 15.651642 -12.416653 32.435872 0.549578 1.963628 0.070870 -0.015298 494117.000000 0 0 1
24.999364 15.700942 -13.730753 32.557969 0.560792 2.006151 0.056827 -0.017473 -365292.000000 0 0 1
25.012364 14.355642 -14.585253 32.317679 0.521039 2.039028 0.053895 -0.021242 12508.700000 0 0 1
26.308564 13.842842 -14.906153 33.255950 0.484366 2.035575 0.073691 -0.027054 454586.000000 0 0 1
26.799664 14.455642 -16.073053 34.431535 0.494666 2.056479 0.079637 -0.028156 -332967.000000 0 0 1
28.239264 14.013242 -16.392153 35.532093 0.460629 2.050294 0.106508 -0.025837 -120934.000000 0 0 1
28.307064 12.617342 -16.822753 35.263185 0.419298 2.068106 0.109346 -0.029255 -3450.300000 0 0 1
29.605364 12.162842 -17.137853 36.305899 0.389810 2.062400 0.111030 -0.011399 130093.000000 0 0 1
29.602964 10.741042 -17.764053 36.156148 0.348065 2.084395 0.088639 -0.007820 -138846.000000 0 0 1
29.118264 10.642842 -19.087253 36.406958 0.350420 2.122660 0.098172 -0.014457 37489.500000 0 0 1
29.402264 9.422842 -19.666553 36.606780 0.310138 2.137955 0.105497 -0.010941 -675523.000000 0 0 1
30.824704 9.059342 -20.067753 37.880717 0.285850 2.129116 0.100282 -0.014407 -1146010.000000 0 0 1
31.307794 9.761142 -21.263553 39.084479 0.302229 2.146042 0.096432 -0.019036 145223.000000 0 0 1
31.856544 8.959242 -22.244753 39.874007 0.274155 2.162621 0.076571 -0.025621 -536144.000000 0 0 1
33.308914 8.512342 -22.103053 40.871612 0.250202 2.142175 0.072196 -0.019439 -974343.000000 0 0 1
34.310714 9.440942 -22.324053 42.008568 0.268515 2.131068 0.069719 -0.016972 -738756.000000 0 0 1
35.570514 8.814142 -22.266753 42.880751 0.242901 2.116795 0.033793 -0.017018 -136789.000000 0 0 1
36.615634 9.937342 -22.022953 43.868734 0.265013 2.096728 0.047656 -0.021949 -356798.000000 0 0 1
36.709014 10.412742 -20.717353 43.418724 0.276396 2.068208 0.022653 -0.018574 317521.000000 0 0 1
37.421764 11.639242 -20.605053 44.276727 0.301544 2.054849 0.008153 -0.006572 -97687.000000 0 0 1
37.121574 12.295842 -19.244253 43.583715 0.319858 2.028118 0.018968 -0.013722 -186918.000000 0 0 1
-37.530977 11.533942 -18.160053 43.259607 -0.298157 2.004013 0.024227 -0.011234 264749.000000 0 0 1
37.400304 12.243542 -17.001453 42.868828 0.316369 1.978598 0.036052 -0.007784 -251810.000000 0 0 1
-37.361257 11.450842 -15.766553 42.137507 -0.297400 1.954297 0.035418 -0.005240 -857160.000000 0 0 1
36.982794 10.374242 -15.554453 41.440233 0.273487 1.955567 0.024654 -0.006528 -369487.000000 0 0 1
-37.508177 9.503442 -14.700953 41.391989 -0.248148 1.933886 0.027201 -0.013702 -184684.000000 0 0 1
36.826074 8.232142 -14.377553 40.381207 0.219925 1.934829 0.071751 -0.015905 505090.000000 0 0 1
35.678034 8.551242 -13.560553 39.114376 0.235241 1.924836 0.100012 -0.025580 870897.000000 0 0 1
35.881194 8.375642 -12.200653 38.813237 0.229321 1.890560 0.107357 -0.030124 -256530.000000 0 0 1
34.690464 8.854742 -11.321053 37.549980 0.249914 1.877054 0.134448 -0.030005 22897.700000 0 0 1
34.400434 10.229942 -11.367653 37.646581 0.289050 1.877541 0.129481 -0.033749 -31450.200000 0 0 1
33.569684 10.670242 -10.298753 36.699347 0.307755 1.855241 0.110651 -0.026654 -316652.000000 0 0 1
34.089944 10.502042 -8.815453 36.744106 0.298843 1.813074 0.138210 -0.024855 373751.000000 0 0 1
35.236904 11.326142 -8.570653 37.991801 0.310998 1.798347 0.135778 -0.026604 396660.000000 0 0 1
34.942814 12.601342 -8.051653 38.008199 0.346111 1.784254 0.131161 -0.027009 -331007.000000 0 0 1
34.736004 12.736342 -6.531753 37.569511 0.351440 1.745542 0.128193 -0.027610 610408.000000 0 0 1
35.931584 12.580442 -5.730853 38.499207 0.336784 1.720208 0.140588 -0.027520 713477.000000 0 0 1
35.798394 12.850742 -4.344053 38.282337 0.344648 1.684515 0.144876 -0.036709 -492594.000000 0 0 1
37.114034 12.655142 -3.587553 39.376067 0.328617 1.662033 0.143754 -0.027674 -734663.000000 0 0 1
-37.236837 13.755342 -3.846053 39.882121 -0.353853 1.667382 0.143700 -0.025833 -912520.000000 0 0 1
-36.026497 13.510342 -3.170153 38.606835 -0.358781 1.653003 0.139442 -0.039670 -151996.000000 0 0 1
-35.226313 14.849342 -2.947153 38.341646 -0.398937 1.647738 0.128256 -0.034836 428388.000000 0 0 1
-35.833540 15.810842 -2.033853 39.219407 -0.415537 1.622678 0.149315 -0.030304 715810.000000 0 0 1
-34.906956 16.851642 -1.683853 38.798309 -0.449760 1.614210 0.133131 -0.029079 272360.000000 0 0 1
-35.517074 17.980542 -0.819353 39.817506 -0.468636 1.591375 0.141092 -0.021274 -115996.000000 0 0 1
-36.365317 18.813442 -1.613453 40.975421 -0.477428 1.610183 0.118416 -0.016743 -61525.600000 0 0 1
-37.344157 19.299942 -0.734453 42.042993 -0.477007 1.588266 0.116080 -0.015146 -385998.000000 0 0 1
36.802204 20.130942 -1.534053 41.976307 0.500540 1.607350 0.117525 -0.010194 -122829.000000 0 0 1
37.344174 21.425242 -1.727853 43.088441 0.520875 1.610907 0.109917 -0.014022 93535.300000 0 0 1
36.670694 22.090842 -2.763553 42.899677 0.542191 1.635260 0.097811 -0.012707 -264155.000000 0 0 1
37.376904 23.383342 -3.293153 44.211520 0.559037 1.645352 0.109276 -0.026443 -41801.500000 0 0 1
-36.529677 23.086242 -3.884653 43.387584 -0.563607 1.660450 0.127279 -0.023584 -229412.000000 0 0 1
-35.886230 24.256542 -4.307453 43.528789 -0.594388 1.669915 0.140281 -0.028411 354634.000000 0 0 1
-34.367943 23.949442 -4.500853 42.130618 -0.608611 1.677832 0.151223 -0.040121 441307.000000 0 0 1
-34.070256 23.107142 -5.576253 41.542953 -0.595959 1.705431 0.119087 -0.024984 -725165.000000 0 0 1
-32.688957 23.053942 -5.839053 40.424580 -0.614242 1.715746 0.131237 -0.019932 -312120.000000 0 0 1
-32.370987 22.257042 -7.195653 39.937879 -0.602329 1.751957 0.131896 -0.040076 -592263.000000 0 0 1
-32.867767 22.819442 -8.348153 40.874304 -0.606877 1.776483 0.138195 -0.049993 -219984.000000 0 0 1
-32.497407 22.243842 -9.573153 40.527956 -0.600234 1.809261 0.076965 -0.037609 326998.000000 0 0 1
-33.651187 22.187042 -10.657253 41.692257 -0.582902 1.829282 0.098486 -0.027317 416489.000000 0 0 1
-33.977697 23.466142 -11.201453 42.785702 -0.604412 1.835687 0.082620 -0.029955 -176296.000000 0 0 1
-34.610130 23.374342 -12.446253 43.579011 -0.593998 1.860431 0.058123 -0.022918 -480221.000000 0 0 1
-34.912128 24.827442 -12.965753 44.759014 -0.618164 1.864688 0.053916 -0.017863 910325.000000 0 0 1
-33.706497 25.604542 -13.046153 44.293596 -0.649637 1.869768 0.048707 -0.017390 146230.000000 0 0 1
-32.875127 25.404242 -14.155653 43.892277 -0.657903 1.899175 0.056670 -0.026547 -612913.000000 0 0 1
-31.526227 26.106742 -13.975553 43.252527 -0.691639 1.899816 0.070982 -0.030549 -481512.000000 0 0 1
-30.649277 25.539642 -13.011053 41.963544 -0.694711 1.886048 0.057434 -0.028304 21404.100000 0 0 1
-31.015797 25.529842 -11.586253 41.809015 -0.688683 1.851595 0.076630 -0.023086 -438869.000000 0 0 1
-31.176477 26.921942 -10.867453 42.601235 -0.712299 1.828744 0.094038 -0.014581 208345.000000 0 0 1
-29.928367 27.432542 -10.452353 41.922586 -0.741915 1.822780 0.099089 -0.011745 -192994.000000 0 0 1
-30.033277 28.830242 -10.321953 42.891996 -0.764963 1.813832 0.082615 -0.012443 280398.000000 0 0 1
-28.739277 29.630842 -10.022453 42.478023 -0.800671 1.808987 0.098346 -0.009733 59140.400000 0 0 1
-28.960667 31.025642 -9.882353 43.577191 -0.819809 1.799565 0.087040 -0.038792 -85793.700000 0 0 1
-27.860717 31.803942 -9.412353 43.316310 -0.851392 1.789837 0.134830 -0.010156 167883.000000 0 0 1
35.762644 -24.767958 33.598377 54.966075 -0.605719 0.913149 0.043756 -0.011215 -8801.330000 0 0 1
35.555794 -23.382558 33.792535 54.340537 -0.581720 0.899673 0.040984 -0.015445 1285230.000000 0 0 1
34.313364 -23.246458 -33.182083 53.092894 -0.595448 2.245904 0.030433 -0.007028 1301600.000000 0 0 1
33.948884 -21.813058 -32.835033 52.023798 -0.571103 2.253837 0.025962 -0.006282 20327.500000 0 0 1
33.545044 -21.056858 33.799415 52.067857 -0.560552 0.864341 0.017241 0.002304 5832.890000 0 0 1
33.036744 -19.788958 -33.595873 51.104911 -0.539683 2.288147 0.019093 -0.000906 134072.000000 0 0 1
32.838164 -18.860058 32.945580 50.194203 -0.521333 0.854809 0.027898 0.000438 78543.100000 0 0 1
34.052504 -18.459758 32.344249 50.462720 -0.496755 0.875057 0.043381 -0.012057 15006.300000 0 0 1
33.944334 -18.465158 30.936935 49.500241 -0.498212 0.895683 0.054799 -0.006203 -888815.000000 0 0 1
35.299344 -18.360058 30.283425 50.002212 -0.479617 0.920224 0.046619 -0.011481 -885438.000000 0 0 1
35.876494 -17.096158 30.449885 50.065926 -0.444694 0.917011 0.042012 -0.021869 -430399.000000 0 0 1
37.035204 -17.008158 29.693935 50.424335 -0.430514 0.941123 0.039997 -0.021160 -508877.000000 0 0 1
-37.174637 -15.803658 30.039015 50.339365 0.401972 0.931376 0.040740 -0.024236 410633.000000 0 0 1
-35.896261 -16.045258 29.469135 49.136766 0.420348 0.927624 0.042652 -0.021400 344237.000000 0 0 1
-34.913358 -15.138758 29.954025 48.429001 0.409140 0.903946 0.053479 -0.030703 -313181.000000 0 0 1
-33.527657 -15.515358 29.410015 47.220537 0.433417 0.898451 0.068522 -0.030556 -162564.000000 0 0 1
-32.541237 -14.731058 30.072305 46.693466 0.425088 0.871033 0.077220 -0.027322 -51997.600000 0 0 1
-31.585617 -15.504358 30.779555 46.748448 0.456315 0.852095 0.079091 -0.035821 28553.900000 0 0 1
-30.561007 -14.521558 31.429755 46.180952 0.443584 0.822245 0.082018 -0.036536 63076.800000 0 0 1
-31.013327 -13.941758 32.625145 47.123234 0.422472 0.806074 0.082960 -0.035918 756497.000000 0 0 1
-30.110387 -12.879958 32.974729 46.474310 0.404204 0.781971 0.078207 -0.032301 564892.000000 0 0 1
-30.565187 -12.346358 -33.364823 46.902821 0.383894 2.362229 0.070819 -0.017895 108396.000000 0 0 1
-30.196917 -13.202658 -32.313373 46.155368 0.412174 2.346334 0.078191 -0.019235 246806.000000 0 0 1
-30.513647 -12.549958 -31.125903 45.358637 0.390201 2.327073 0.087524 -0.012769 -411000.000000 0 0 1
-30.593677 -13.543258 -29.954393 44.907222 0.416751 2.301009 0.097427 -0.017839 213901.000000 0 0 1
-31.780837 -14.330958 -29.933803 45.950305 0.423628 2.280275 0.102669 -0.017940 317458.000000 0 0 1
-31.916607 -15.022458 -28.703403 45.477790 0.439916 2.253834 0.112057 -0.016723 481586.000000 0 0 1
-33.241637 -15.835658 -28.669063 46.665723 0.444574 2.232358 0.099836 -0.023843 327847.000000 0 0 1
-33.186617 -17.045058 -29.357273 47.473519 0.474478 2.237492 0.106783 -0.028375 -58379.000000 0 0 1
-34.406705 -17.752258 -29.416393 48.623947 0.476329 2.220534 0.081902 -0.030315 6256.590000 0 0 1
-34.255248 -19.111158 -30.131303 49.462650 0.508892 2.225813 0.087022 -0.036706 -436568.000000 0 0 1
-35.494911 -19.694758 -30.349263 50.683823 0.506568 2.212793 0.051122 -0.039264 -719709.000000 0 0 1
-35.280400 -20.965158 -31.022943 51.445772 0.536176 2.218081 0.052094 -0.034343 -1136090.000000 0 0 1
-36.486697 -21.808458 -31.275143 52.773312 0.538734 2.205119 0.057365 -0.034743 -1086850.000000 0 0 1
-37.033597 -22.356058 -30.122593 52.712913 0.543113 2.179063 0.035656 -0.027757 118929.000000 0 0 1
37.092144 -23.316158 -30.420153 53.337192 -0.561185 2.177712 0.040460 -0.025759 545146.000000 0 0 1
-37.538127 -24.787358 -30.732033 54.479188 0.583599 2.170146 0.043212 -0.020102 483061.000000 0 0 1
-36.760537 -24.862758 -31.942813 54.679403 0.594672 2.194670 0.056832 -0.020698 171060.000000 0 0 1
-36.046737 -26.114598 -31.985033 54.812241 0.626957 2.193875 0.042452 -0.011328 156298.000000 0 0 1
-36.472777 -27.011348 -33.207043 56.236857 0.637451 2.202456 0.061200 -0.014256 538036.000000 0 0 1
37.426454 -27.664738 -33.034133 57.073033 -0.636538 2.188058 0.065662 -0.013772 -24611.400000 0 0 1
37.409894 -28.965228 -33.531913 57.990290 -0.658852 2.187358 0.074449 -0.018343 43156.500000 0 0 1
-37.001147 -30.044778 -32.726213 57.816767 0.682013 2.172482 0.086320 -0.025569 -139640.000000 0 0 1
37.510924 -30.394078 -31.515223 57.654823 -0.680973 2.149118 0.101468 -0.031786 -155015.000000 0 0 1
-36.876017 -31.322898 -30.809263 57.360049 0.704152 2.137816 0.089041 -0.033458 -11560.300000 0 0 1
37.471124 -31.940598 -29.647653 57.474083 -0.705889 2.112789 0.083566 -0.035778 -169726.000000 0 0 1
36.473114 -32.822338 -30.051733 57.538687 -0.732763 2.120327 0.108176 -0.032853 -181633.000000 0 0 1
35.853784 -33.354718 -28.843133 56.832713 -0.749305 2.103088 0.108341 -0.033407 -455055.000000 0 0 1
34.667554 33.419682 -29.063643 56.244197 0.767073 2.113835 0.114629 -0.039844 -764264.000000 0 0 1
33.537034 -33.555938 -29.490783 55.860897 -0.785680 2.126961 0.125301 -0.037198 189336.000000 0 0 1
32.318064 33.539439 -28.960723 54.845917 0.803942 2.127085 0.118481 -0.027728 1734750.000000 0 0 1
31.018264 -33.740848 -29.753213 54.642760 -0.827415 2.146594 0.074287 -0.016586 658095.000000 0 0 1
30.930014 33.389062 -31.067753 55.106265 0.823612 2.169750 0.094905 -0.025916 -1142410.000000 0 0 1
29.733564 33.730679 -31.640623 54.981565 0.848297 2.183984 0.071259 -0.017031 -870514.000000 0 0 1
29.518564 33.049112 -33.045573 55.277475 0.841766 2.211566 0.077530 -0.023756 139242.000000 0 0 1
29.360064 31.645599 -32.904103 54.278331 0.822845 2.222084 0.063044 -0.010388 -62119.900000 0 0 1
29.122164 30.928829 33.590349 54.157220 0.815475 0.901751 0.075911 -0.015397 326955.000000 0 0 1
28.983064 29.393449 33.706855 53.293010 0.792428 0.886043 0.081835 -0.030141 440645.000000 0 0 1
30.302304 28.912979 -33.851333 53.852601 0.761940 2.250538 0.089744 -0.027765 13626.100000 0 0 1
30.294204 27.511419 -33.733223 53.033454 0.737295 2.260196 0.079375 -0.031975 -503741.000000 0 0 1
31.684014 26.910459 -33.674433 53.497822 0.704110 2.251647 0.100480 -0.031494 -487232.000000 0 0 1
32.386494 27.405819 -32.546833 53.472051 0.702290 2.225180 0.107018 -0.022840 -215840.000000 0 0 1
33.712504 26.896209 -32.627393 54.078514 0.673405 2.218471 0.120699 -0.028653 518033.000000 0 0 1
34.525334 27.014169 -31.299813 53.865037 0.663945 2.190850 0.121942 -0.023757 -220564.000000 0 0 1
35.049794 28.360669 -31.018923 54.726494 0.680298 2.173412 0.105297 -0.028771 288172.000000 0 0 1
34.190764 29.488709 -30.831063 54.673089 0.711693 2.169917 0.129222 -0.026513 473880.000000 0 0 1
33.218534 29.452239 -29.596433 53.355920 0.725374 2.158797 0.146550 -0.027822 831506.000000 0 0 1
33.927114 29.753349 -28.378093 53.306913 0.719949 2.132174 0.127286 -0.025934 1010590.000000 0 0 1
32.976544 29.768889 -27.298593 52.142615 0.734321 2.121793 0.122114 -0.022001 594903.000000 0 0 1
33.728214 30.273499 -25.994153 52.247231 0.731472 2.091536 0.126324 -0.022054 169989.000000 0 0 1
33.956314 31.628269 -26.153363 53.267035 0.749916 2.084017 0.127700 -0.027558 26196.400000 0 0 1
34.384154 32.192850 -24.934553 53.295230 0.752496 2.057661 0.102196 -0.032966 52701.100000 0 0 1
34.692104 33.702369 -24.977953 54.436108 0.770928 2.047496 0.101980 -0.034244 1144120.000000 0 0 1
33.512004 -33.137068 -25.195173 53.440775 -0.779773 2.061742 0.082607 -0.018188 1162830.000000 0 0 1
33.768114 -31.750448 -24.986953 52.656664 -0.754613 2.065222 0.078112 -0.019225 -123444.000000 0 0 1
34.525754 -30.985808 -26.178173 53.267670 -0.731415 2.084545 0.073778 -0.029257 -233077.000000 0 0 1
35.891544 -31.086248 -26.338293 54.297913 -0.713776 2.077240 0.096660 -0.038308 -1085550.000000 0 0 1
36.695884 -30.465868 -25.347223 54.011468 -0.692901 2.059287 0.094136 -0.038740 -99608.100000 0 0 1
-36.947607 -30.569048 -25.733523 54.422482 0.691204 2.063316 0.068193 -0.030847 233451.000000 0 0 1
-36.463807 -31.914658 -25.761243 54.879835 0.718967 2.059421 0.061807 -0.031356 -228051.000000 0 0 1
-36.275067 -32.577558 -24.531353 54.579896 0.731748 2.036954 0.062521 -0.015572 -532941.000000 0 0 1
-35.120385 -32.248088 -23.570853 53.188022 0.742788 2.029918 0.039554 -0.006384 -168183.000000 0 0 1
-35.118212 -30.856928 -23.281653 52.225226 0.720899 2.032857 0.013861 0.000925 -400056.000000 0 0 1
-34.558975 -30.555368 -22.032753 51.121380 0.723990 2.016385 0.035023 0.003898 -259780.000000 0 0 1
-34.100430 -29.088118 -21.861353 49.868594 0.706241 2.024591 0.037318 0.012612 -410351.000000 0 0 1
-35.101970 -28.133018 -22.034453 50.091238 0.675634 2.026268 0.013105 0.021519 -595208.000000 0 0 1
-35.303928 -27.764398 -23.403453 50.645343 0.666417 2.051163 0.003084 0.004422 410766.000000 0 0 1
-36.559727 -26.950548 -23.877553 51.313577 0.635236 2.054799 0.007095 0.002381 440797.000000 0 0 1
-36.559377 -25.596298 -23.494153 50.435441 0.610813 2.055364 -0.000392 0.012557 -382021.000000 0 0 1
37.501544 -24.973158 -24.126853 51.108995 -0.587488 2.062430 0.023690 0.004883 5815.620000 0 0 1
-37.369297 -24.369858 -25.500233 51.386927 0.577875 2.090058 0.030770 -0.008950 198424.000000 0 0 1
-36.248327 -23.495758 -25.615563 50.221001 0.575101 2.106047 0.022327 -0.008265 113745.000000 0 0 1
-36.251607 -22.976958 -26.946653 50.677823 0.564916 2.131432 0.035524 -0.023495 393359.000000 0 0 1
-35.079381 -21.953758 -27.106783 49.470275 0.559197 2.150697 0.045112 -0.041477 -86361.300000 0 0 1
-35.047266 -20.778158 -26.298483 48.493844 0.535154 2.143975 0.044868 -0.021638 -401781.000000 0 0 1
-36.027217 -19.827858 -26.564653 48.956972 0.503118 2.144340 0.041286 -0.026571 198061.000000 0 0 1
-37.295947 -19.913458 -25.644783 49.448846 0.490422 2.116024 0.035865 -0.024949 217826.000000 0 0 1
-37.172867 -19.297058 -24.356453 48.450338 0.478824 2.097527 0.029205 -0.027677 -317270.000000 0 0 1
-36.275717 -19.864258 -23.427953 47.532992 0.500992 2.086190 0.020816 -0.024608 45865.800000 0 0 1
-36.833067 -21.074058 -22.627353 48.091453 0.519690 2.060661 0.030342 -0.004742 296639.000000 0 0 1
37.331994 -20.730958 -21.676153 47.888474 -0.506913 2.040518 0.029613 -0.009060 -73801.200000 0 0 1
36.827284 -21.877258 -21.016853 47.713429 -0.536033 2.026931 0.039487 0.006756 703499.000000 0 0 1
35.659634 -21.573458 -19.993253 46.225033 -0.544075 2.018082 0.032104 -0.000287 1052660.000000 0 0 1
34.470824 -21.064758 -20.592053 45.343074 -0.548534 2.042202 0.057261 0.003648 346345.000000 0 0 1
33.355034 -21.209758 -19.718453 44.172723 -0.566384 2.033528 0.064860 -0.001721 1353910.000000 0 0 1
32.011164 -20.586458 -20.308253 43.138637 -0.571511 2.060956 0.053189 -0.002947 804145.000000 0 0 1
31.569884 -21.286258 -21.485553 43.719461 -0.593240 2.084540 0.056007 0.003996 2272390.000000 0 0 1
30.272644 -20.856558 -22.097753 42.892186 -0.603276 2.112029 0.097808 -0.005805 2273160.000000 0 0 1
30.076264 -19.404658 -22.707053 42.387883 -0.572981 2.136129 0.082046 -0.013786 -204101.000000 0 0 1
30.268194 -18.412358 -21.735853 41.564718 -0.546505 2.121093 0.069664 -0.002856 -38717.300000 0 0 1
30.295214 -17.094458 -22.313253 41.326768 -0.513727 2.141141 0.060526 -0.009344 153377.000000 0 0 1
31.090844 -16.157958 -21.366853 41.039768 -0.479284 2.118394 0.053604 -0.017725 -545349.000000 0 0 1
30.432954 -15.947858 -20.163953 39.838221 -0.482688 2.101506 0.048714 -0.012977 -43178.300000 0 0 1
31.321934 -15.623958 -19.098953 39.874072 -0.462702 2.070291 0.031485 -0.008309 58629.300000 0 0 1
32.325584 -16.706858 -18.667153 40.896516 -0.477021 2.044796 0.046130 -0.018629 658858.000000 0 0 1
33.429594 -16.757858 -19.626253 42.232136 -0.464678 2.054118 0.030057 -0.019950 112673.000000 0 0 1
34.451884 -17.589858 -19.193953 43.182673 -0.472062 2.031393 0.034683 -0.025722 -838471.000000 0 0 1
35.510184 -17.797058 -20.249253 44.584085 -0.464593 2.042249 0.037257 -0.027433 -671830.000000 0 0 1
36.289444 -16.683658 -20.589753 44.935577 -0.430923 2.046772 0.050102 -0.034910 -200210.000000 0 0 1
37.458514 -17.228158 -21.163053 46.344627 -0.431078 2.045017 0.063826 -0.033288 -550476.000000 0 0 1
-36.867217 -16.159658 -21.818353 45.786098 0.413099 2.067497 0.089194 -0.038151 -730249.000000 0 0 1
-36.051927 -15.431558 -20.962153 44.466687 0.404440 2.061688 0.113436 -0.041949 -267224.000000 0 0 1
-35.426317 -14.317458 -21.559253 43.872713 0.384077 2.084498 0.130061 -0.042230 -485952.000000 0 0 1
-34.250700 -13.760558 -20.707353 42.323255 0.382023 2.082045 0.131326 -0.044053 646687.000000 0 0 1
-33.050027 -14.533258 -20.771653 41.653108 0.414285 2.092874 0.152379 -0.052678 467425.000000 0 0 1
-33.035757 -15.657958 -19.882153 41.615296 0.442608 2.068900 0.134131 -0.051027 53486.000000 0 0 1
-31.851087 -16.629458 -20.236753 41.237808 0.481171 2.083727 0.106492 -0.053108 537603.000000 0 0 1
-31.804797 -17.819758 -19.468753 41.329423 0.510705 2.061292 0.124816 -0.057886 395683.000000 0 0 1
-30.689167 -18.605958 -19.859653 41.017222 0.545018 2.076220 0.118829 -0.065937 58905.500000 0 0 1
-30.931387 -20.088958 -19.543253 41.740336 0.576001 2.058061 0.093672 -0.021081 -504119.000000 0 0 1
-31.964457 -20.719758 -20.238353 43.134972 0.575118 2.059166 0.081609 -0.022245 -8946.960000 0 0 1
-32.385747 -21.943258 -19.618353 43.763260 0.595506 2.035641 0.055895 0.005272 -574203.000000 0 0 1
-33.493307 -22.627958 -20.365753 45.261352 0.594159 2.037516 0.028744 -0.000985 -831250.000000 0 0 1
-33.103857 -23.109458 -21.658453 45.814855 0.609443 2.063192 0.029182 -0.002110 149798.000000 0 0 1
-33.797527 -24.237058 -22.193553 47.140870 0.622127 2.060985 0.028351 0.008282 -336415.000000 0 0 1
-33.602037 -24.375758 -23.704553 47.803559 0.627587 2.089638 0.036462 0.006745 -271364.000000 0 0 1
-32.300977 -24.655158 -24.173253 47.281879 0.651955 2.107445 0.043876 -0.006367 -131184.000000 0 0 1
-32.326287 -24.959058 -25.549583 48.173900 0.657494 2.129823 0.044509 0.001987 489928.000000 0 0 1
-30.906407 -25.454548 -25.933163 47.703972 0.688967 2.145549 0.049556 -0.003001 279099.000000 0 0 1
-29.903347 -24.501758 -25.811313 46.484085 0.686438 2.159486 0.061055 -0.019010 1011290.000000 0 0 1
-28.551877 -24.990938 -26.101133 46.054596 0.718990 2.173344 0.063888 -0.018603 1972050.000000 0 0 1
-27.467357 -23.900658 -26.114043 44.806700 0.716075 2.192986 0.076685 -0.019529 -55525.900000 0 0 1
-27.459347 -23.199558 -27.345403 45.166429 0.701508 2.221110 0.073805 -0.029326 112925.000000 0 0 1
-26.411957 -22.241558 -27.419523 44.092047 0.699891 2.241925 0.093612 -0.031045 206124.000000 0 0 1
-26.405527 -21.567158 -28.795633 44.627151 0.684881 2.272146 0.059697 -0.024635 82752.400000 0 0 1
-25.741777 -22.388558 -29.733093 45.254209 0.715841 2.287660 0.067116 -0.014915 119592.000000 0 0 1
-25.574607 -21.750058 -30.996013 45.693308 0.704758 2.316310 0.059504 -0.009132 -38711.600000 0 0 1
-25.049097 -22.747758 -32.059413 46.612484 0.737287 2.329231 0.054840 -0.021704 -20602.700000 0 0 1
-25.954977 -23.785958 -32.397163 47.843587 0.741819 2.314675 0.032013 -0.018615 -226339.000000 0 0 1
-25.502247 -24.711658 -33.337353 48.707389 0.769655 2.324634 0.060877 -0.000874 37914.400000 0 0 1
-19.449877 -14.284758 -11.310153 26.650921 0.633468 2.009075 0.075439 0.003973 754263.000000 0 0 1
-20.201477 -13.933958 -10.110953 26.542159 0.603813 1.961608 0.079733 -0.008566 597487.000000 0 0 1
-19.466877 -14.428158 -9.032853 25.859688 0.637822 1.927623 0.062674 -0.016390 258504.000000 0 0 1
-20.021577 -13.794358 -7.719753 25.509654 0.603288 1.878238 0.108287 -0.038281 545437.000000 0 0 1
-21.230477 -14.376958 -7.222253 26.638150 0.595249 1.845357 0.119335 -0.031740 512366.000000 0 0 1
-21.731477 -13.630958 -6.118053 26.372157 0.560212 1.804918 0.126825 -0.046981 729171.000000 0 0 1
-23.101077 -14.177958 -5.561253 27.669510 0.550458 1.773163 0.130571 -0.044299 351977.000000 0 0 1
-23.043277 -15.514458 -5.140253 28.250898 0.592564 1.753766 0.111342 -0.039166 378705.000000 0 0 1
-22.418877 -15.738258 -3.872653 27.663988 0.612073 1.711247 0.114552 -0.045315 -281289.000000 0 0 1
-22.133877 -17.202858 -3.557553 28.257796 0.660695 1.697028 0.091031 -0.030658 -646723.000000 0 0 1
-23.228677 -18.059858 -3.464953 29.626607 0.660858 1.688019 0.096233 -0.017747 -172044.000000 0 0 1
-22.947377 -19.211958 -2.712553 30.050614 0.697027 1.661185 0.077500 -0.007853 -331416.000000 0 0 1
-24.226677 -20.027358 -2.585553 31.539056 0.690790 1.652868 0.097291 -0.021499 -269578.000000 0 0 1
-24.539877 -20.881358 -3.688653 32.432127 0.705025 1.684777 0.080820 -0.034835 -254257.000000 0 0 1
-25.673247 -21.636858 -3.367053 33.743241 0.700287 1.670747 0.101911 -0.025789 -139440.000000 0 0 1
-25.769337 -22.916058 -4.208253 34.740666 0.726859 1.692228 0.116844 -0.029760 -184262.000000 0 0 1
-24.692877 -23.763858 -3.910253 34.492741 0.766228 1.684405 0.124574 -0.031353 -289359.000000 0 0 1
-24.360577 -24.677658 -4.963753 35.029464 0.791864 1.712977 0.139297 -0.034395 649218.000000 0 0 1
-22.871477 -24.700458 -5.441753 34.100290 0.823826 1.731062 0.118978 -0.020671 869566.000000 0 0 1
-22.280177 -23.526258 -6.067653 32.965247 0.812595 1.755914 0.081978 -0.011673 519151.000000 0 0 1
-21.933077 -22.429658 -5.168353 31.794045 0.796591 1.734078 0.067729 -0.016774 -331965.000000 0 0 1
-21.833877 -21.021658 -5.834153 30.865282 0.766448 1.760960 0.063306 -0.006120 805602.000000 0 0 1
-20.545777 -20.730458 -6.409953 29.882576 0.789872 1.786981 0.024162 0.007225 769667.000000 0 0 1
-20.558277 -19.424158 -6.961853 29.127445 0.757040 1.812146 0.016712 0.002232 205112.000000 0 0 1
-19.315577 -19.078858 -7.808553 28.250095 0.779233 1.850851 0.024219 0.008321 -24408.500000 0 0 1
-19.352977 -19.547758 -9.154953 28.990787 0.790405 1.892084 0.031416 0.013202 -170282.000000 0 0 1
-18.107677 -19.528558 -9.819253 28.384331 0.823133 1.924036 0.049650 0.013982 130512.000000 0 0 1
-17.611177 -18.154858 -10.448853 27.366603 0.800598 1.962551 0.054025 0.013129 54048.000000 0 0 1
-17.224877 -17.121358 -9.582853 26.108779 0.782384 1.946617 0.064467 -0.005403 -300445.000000 0 0 1
-15.996977 -17.174758 -8.920053 25.108623 0.820889 1.933987 0.098046 -0.013574 -558607.000000 0 0 1
-15.763977 -16.007158 -7.884253 23.809526 0.793052 1.908306 0.080234 -0.020957 64389.700000 0 1 0
-16.541777 -16.116458 -6.693653 24.045282 0.772376 1.852900 0.066525 -0.022439 167962.000000 0 1 0
-16.700977 -14.837458 -6.028653 23.139089 0.726380 1.834378 0.091815 -0.031952 -197821.000000 0 1 0
-17.596077 -14.940658 -4.791753 23.575540 0.703966 1.775473 0.113914 -0.033736 -320934.000000 0 1 0
-18.134277 -13.777158 -4.315853 23.179488 0.649699 1.758082 0.121219 -0.035543 -149709.000000 0 1 0
-18.787977 -14.072258 -3.143653 23.683308 0.642863 1.703926 0.120260 -0.031063 -280877.000000 0 1 0
-19.577677 -12.895358 -2.455753 23.571305 0.582451 1.675170 0.132886 -0.029744 -811809.000000 0 1 0
-20.784677 -12.685858 -3.092753 24.545853 0.547993 1.697131 0.155420 -0.045902 -704768.000000 0 1 0
-21.488777 -11.692358 -2.447453 24.585947 0.498313 1.670508 0.161596 -0.036425 -586226.000000 0 1 0
-23.012577 -11.691258 -2.613953 25.944112 0.470057 1.671721 0.137831 -0.035260 -409901.000000 0 0 1
-23.520977 -11.135558 -3.762453 26.294354 0.442167 1.714379 0.154310 -0.052248 309421.000000 0 0 1
-24.901277 -11.438158 -3.905653 27.679581 0.430594 1.712371 0.138571 -0.042278 361133.000000 0 0 1
-25.537247 -10.953358 -5.269553 28.282419 0.405184 1.758211 0.152056 -0.047780 -88051.800000 0 0 1
-25.083977 -11.750958 -6.299353 28.407266 0.438103 1.794407 0.138581 -0.048126 64284.900000 0 0 1
-25.405367 -11.209558 -7.586053 28.786022 0.415535 1.837479 0.159748 -0.049474 494877.000000 0 0 1
-24.367577 -11.573758 -8.741253 28.357366 0.443420 1.884153 0.155207 -0.053837 507716.000000 0 0 1
-23.171977 -10.842258 -8.649253 27.005641 0.437643 1.896817 0.155732 -0.051016 591.906000 0 0 1
-22.250677 -11.179858 -9.647153 26.704858 0.465606 1.940405 0.133518 -0.044992 733571.000000 0 0 1
-20.941577 -10.257758 -9.641653 25.233563 0.455476 1.962860 0.138011 -0.045940 654174.000000 0 0 1
-21.076977 -8.881358 -10.046753 24.981087 0.398798 1.984687 0.133589 -0.046598 433040.000000 0 1 0
-19.832077 -8.215258 -9.953553 23.661677 0.392722 2.004970 0.125571 -0.034431 9895.450000 0 1 0
-19.614677 -6.893658 -10.772053 23.415704 0.337970 2.048831 0.078742 -0.035123 -206797.000000 0 1 0
-19.542477 -7.113758 -12.154553 24.088319 0.349106 2.099695 0.109988 -0.024790 375545.000000 0 1 0
-19.261377 -5.925358 -12.860853 23.906318 0.298441 2.138822 0.101089 -0.025603 -254513.000000 0 1 0
-18.606677 -6.092458 -14.256953 24.219562 0.316432 2.200190 0.110900 -0.027332 -70389.700000 0 1 0
-19.402077 -6.755858 -15.203053 25.558072 0.335073 2.207867 0.119012 -0.038110 182626.000000 0 0 1
-18.879177 -6.462458 -16.465353 25.870727 0.329804 2.260680 0.124673 -0.050136 -49240.400000 0 0 1
-19.476977 -7.380458 -17.576153 27.253347 0.362214 2.271711 0.120291 -0.042291 69048.100000 0 0 1
-20.856777 -7.177558 -17.785753 28.334705 0.331441 2.249394 0.112728 -0.048315 296002.000000 0 0 1
-21.404677 -8.030158 -18.799953 29.598680 0.358910 2.259014 0.117262 -0.044998 1324680.000000 0 0 1
-22.950877 -7.741258 -19.058353 30.820296 0.325313 2.237463 0.106175 -0.041306 1088760.000000 0 0 1
-23.301877 -6.493458 -19.562753 31.110188 0.271772 2.250833 0.103999 -0.045111 696698.000000 0 0 1
-24.613777 -6.424558 -20.123353 32.435510 0.255318 2.240063 0.085703 -0.037139 834267.000000 0 0 1
-25.828927 -5.918158 -19.327553 32.798054 0.225241 2.200976 0.093457 -0.030214 -121665.000000 0 0 1
-25.759607 -4.559958 -19.033653 32.351669 0.175205 2.199796 0.102138 -0.032163 136747.000000 0 0 1
-26.742097 -4.213458 -18.087653 32.558504 0.156274 2.159812 0.119383 -0.024510 -322639.000000 0 0 1
-26.752667 -2.646958 -17.791153 32.237194 0.098621 2.155417 0.105000 -0.025268 52867.500000 0 0 1
-27.181217 -1.724058 -18.798253 33.093281 0.063343 2.174917 0.110579 -0.022321 848051.000000 0 0 1
-28.571257 -1.797758 -19.151953 34.443373 0.062839 2.160412 0.116925 -0.008892 659725.000000 0 0 1
-28.925937 -0.538658 -20.047953 35.198301 0.018620 2.176781 0.114049 -0.006786 -219932.000000 0 0 1
-28.434857 -0.539358 -21.392753 35.587665 0.018966 2.215709 0.099910 -0.005165 271158.000000 0 0 1
-29.196747 -1.245758 -22.367653 36.801003 0.042642 2.224084 0.095668 0.006438 -340488.000000 0 0 1
-28.390737 -1.362458 -23.696353 37.005505 0.047953 2.265746 0.087118 0.001104 -210673.000000 0 0 1
-28.340257 -0.117358 -24.418253 37.409023 0.004141 2.281988 0.104337 0.000072 240353.000000 0 0 1
-27.740787 1.019742 -23.829853 36.584874 -0.036743 2.280169 0.094554 -0.001077 -347467.000000 0 0 1
-26.240857 1.009542 -23.458453 35.212225 -0.038453 2.299901 0.092589 -0.005339 181928.000000 0 0 1
-25.392437 1.029342 -24.610353 35.376615 -0.040515 2.340145 0.079858 -0.009888 2241280.000000 0 0 1
-23.946877 0.906742 -24.337053 34.155047 -0.037847 2.363917 0.085670 -0.010857 2771520.000000 0 0 1
-23.037577 0.298742 -25.481733 34.353135 -0.012967 2.406485 0.085694 -0.013853 516222.000000 0 0 1
-23.081777 1.139442 -26.638293 35.265641 -0.049325 2.427001 0.060807 -0.008748 36125.500000 0 0 1
-22.033977 0.705142 -27.452703 35.208582 -0.031992 2.465009 0.059894 -0.010404 -155458.000000 0 0 1
-21.661577 1.451942 -28.756463 36.031461 -0.066928 2.494920 0.053175 -0.006125 -364339.000000 0 0 1
-21.067877 2.704042 -28.489733 35.536350 -0.127651 2.500942 0.065260 -0.007024 132823.000000 0 0 1
-20.951377 3.560442 -29.661163 36.488649 -0.168330 2.519889 0.048047 -0.011027 175161.000000 0 0 1
-20.256477 3.010042 -30.988943 37.144310 -0.147517 2.557631 0.042473 -0.004604 1039090.000000 0 0 1
-18.823977 2.946642 -30.922573 36.321210 -0.155277 2.589376 0.037498 -0.003965 908601.000000 0 0 1
-18.223877 2.413142 -32.114863 37.004018 -0.131651 2.621705 0.029145 0.000626 -400255.000000 0 0 1
-16.719877 2.194342 -32.093223 36.253888 -0.130496 2.657796 0.029349 -0.006938 -410743.000000 0 0 1
-16.047077 3.468242 -31.906993 35.883054 -0.212855 2.666377 0.027366 -0.000717 342325.000000 0 0 1
-14.642877 3.293742 -32.063463 35.402376 -0.221256 2.703793 0.022760 -0.003400 301322.000000 0 0 1
-13.920877 4.613642 -32.393673 35.558776 -0.320027 2.716473 0.047859 -0.006716 -282835.000000 0 0 1
-13.876377 5.543942 -31.303593 34.687232 -0.380096 2.696226 0.058113 -0.026440 63031.800000 0 0 1
-13.288177 6.810842 -31.645603 34.991533 -0.473636 2.700718 0.099764 -0.016465 -118554.000000 0 0 1
-13.091077 7.865742 -30.497593 34.107908 -0.541042 2.677326 0.098721 -0.032858 -393005.000000 0 0 1
-12.049977 7.598442 -29.591773 32.842218 -0.562600 2.692931 0.139943 -0.049919 105561.000000 0 0 1
-12.217277 6.478142 -28.757043 31.909179 -0.487549 2.693362 0.119092 -0.036407 -2283.680000 0 0 1
-10.879077 5.683242 -28.795333 31.302152 -0.481407 2.738661 0.135372 -0.049465 307333.000000 0 0 1
-10.504077 5.034542 -30.054863 32.233166 -0.446946 2.771850 0.109969 -0.051479 327198.000000 0 0 1
-11.048177 3.736442 -30.065843 32.248692 -0.326120 2.771550 0.114330 -0.050568 -338075.000000 0 0 1
-10.515977 2.911842 -31.230513 33.081861 -0.270129 2.805460 0.097249 -0.037087 -225431.000000 0 0 1
-11.070077 1.614642 -31.387163 33.321279 -0.144835 2.799204 0.096058 -0.028076 301583.000000 0 0 1
-10.619177 0.865342 -32.521383 34.222158 -0.081309 2.825001 0.084759 -0.021403 -398373.000000 0 0 1
-11.038577 1.451642 33.841315 35.625722 -0.130756 0.317841 0.079686 -0.018321 258656.000000 0 0 1
-12.445777 1.567642 33.676672 35.937072 -0.125298 0.356566 0.033041 -0.008092 253039.000000 0 0 1
-12.815077 1.810842 32.314971 34.810383 -0.140376 0.380944 0.038363 -0.002088 -588799.000000 0 0 1
-14.252077 1.660842 31.875819 34.956372 -0.116010 0.422969 0.038881 0.002415 -211691.000000 0 0 1
-15.251877 2.534742 32.440449 35.936436 -0.164687 0.444752 0.040968 0.008251 -304874.000000 0 0 1
-16.483177 2.157842 31.944631 36.011261 -0.130172 0.479830 0.034842 0.020698 -830063.000000 0 0 1
-17.296677 3.373042 31.421685 36.026029 -0.192594 0.511127 0.041964 0.013572 -251280.000000 0 0 1
-17.860177 4.169242 32.437745 37.263599 -0.229331 0.514591 0.043823 0.003553 316290.000000 0 0 1
-17.084277 5.331342 32.731141 37.304468 -0.302485 0.500369 0.046358 0.003964 -295237.000000 0 0 1
-17.534777 6.111642 -33.758173 38.528364 -0.335377 2.638696 0.037597 0.007307 -707663.000000 0 0 1
-18.832977 6.562342 33.849175 39.287556 -0.335293 0.532432 0.044270 -0.000149 -830007.000000 0 0 1
-19.767277 5.829242 -33.099873 38.991369 -0.286765 2.584702 0.034556 0.002814 -6304.010000 0 0 1
-21.220077 6.256342 -33.384963 40.049834 -0.286708 2.556364 0.034966 0.000373 -147324.000000 0 0 1
-21.559577 7.603342 -33.021073 40.162388 -0.339048 2.536042 0.050569 -0.009518 179893.000000 0 0 1
-21.238377 8.655442 33.848425 40.886443 -0.386988 0.595507 0.048422 -0.004833 -543889.000000 0 0 1
-21.342577 10.045242 -33.270873 40.784353 -0.439907 2.524865 0.057696 -0.010716 -192440.000000 0 0 1
-20.370477 10.384742 -32.274353 39.552915 -0.471452 2.525217 0.057430 -0.005776 376992.000000 0 0 1
-20.368077 11.710542 -31.826003 39.558688 -0.521794 2.505674 0.065574 -0.014020 -103621.000000 0 0 1
-19.647377 12.756642 -32.657603 40.190426 -0.575869 2.519347 0.062324 -0.021997 -505245.000000 0 0 1
-20.327477 12.919742 -33.857063 41.550292 -0.566171 2.523259 0.081845 -0.023955 -74758.100000 0 0 1
-19.440577 13.031242 32.789617 40.285336 -0.590522 0.619904 0.071425 -0.026326 -306574.000000 0 0 1
-19.967077 12.651842 31.390585 39.295320 -0.564785 0.645436 0.083281 -0.023048 -584677.000000 0 0 1
-20.124577 11.216142 31.108865 38.711264 -0.508458 0.637455 0.068506 -0.011693 45893.600000 0 0 1
-18.951677 10.465042 30.905415 37.733644 -0.504528 0.611058 0.070419 -0.009303 -140295.000000 0 0 1
-19.224077 8.943342 30.836135 37.422129 -0.435435 0.602347 0.085094 -0.005384 -52206.000000 0 0 1
-19.885777 8.417342 29.702185 36.722141 -0.400417 0.628627 0.077219 -0.016065 290518.000000 0 0 1
-19.843977 7.029542 29.637605 36.353618 -0.340448 0.617620 0.062059 -0.009500 -156747.000000 0 0 1
-20.472777 6.323142 28.421185 35.593265 -0.299562 0.645999 0.046513 -0.008749 472986.000000 0 0 1
-21.877377 6.432542 28.197675 36.264392 -0.285968 0.680023 0.061361 -0.018276 526042.000000 0 0 1
-22.340477 5.526842 27.228625 35.651661 -0.242522 0.701708 0.061501 -0.013623 811572.000000 0 0 1
-23.907477 5.474942 27.075625 36.532615 -0.225124 0.736036 0.070080 -0.014359 728888.000000 0 0 1
-24.361677 6.506642 26.221135 36.378230 -0.260993 0.765852 0.069025 -0.015691 -239999.000000 0 0 1
-25.755937 6.565242 26.171825 37.301946 -0.249587 0.793127 0.077881 -0.019766 -869180.000000 0 0 1
-26.130417 7.271342 24.845775 36.782926 -0.271405 0.829194 0.070850 -0.015170 -312947.000000 0 0 1
-26.027237 6.508642 23.613705 35.740545 -0.245045 0.849048 0.073629 -0.014487 329865.000000 0 0 1
-26.979177 5.473042 23.522965 36.209945 -0.200146 0.863702 0.076921 -0.017765 -283472.000000 0 0 1
-27.026727 4.730642 22.127385 35.248321 -0.173280 0.892128 0.089666 -0.016821 -252642.000000 0 0 1
-27.829057 5.409342 21.209385 35.405585 -0.191983 0.928494 0.082912 -0.010499 -22854.300000 0 0 1
-28.058857 4.596542 20.065785 34.800336 -0.162376 0.956238 0.111315 -0.015562 -126689.000000 0 0 1
-28.892687 5.245742 18.959085 34.953571 -0.179603 0.997496 0.117847 -0.018844 -935654.000000 0 0 1
-30.188237 5.512242 19.347885 36.277474 -0.180606 1.008263 0.126244 -0.017656 -784524.000000 0 0 1
-31.003027 5.903442 18.230485 36.447070 -0.188162 1.046977 0.143312 -0.020440 147826.000000 0 0 1
-32.487387 5.812242 18.660085 37.913207 -0.177035 1.056205 0.140958 -0.019387 -51971.600000 0 0 1
-32.766567 6.829342 19.593785 38.784072 -0.205482 1.041180 0.145313 -0.026442 130626.000000 0 0 1
-34.148022 6.968942 19.870085 40.118249 -0.201316 1.052630 0.144348 -0.019851 240944.000000 0 0 1
-34.609461 8.038042 20.932585 41.238308 -0.228204 1.038399 0.160437 -0.018070 56434.100000 0 0 1
-34.401427 7.556642 22.265085 41.668874 -0.216227 1.007077 0.126264 -0.023717 261760.000000 0 0 1
-34.720435 8.494542 23.296635 42.666135 -0.239942 0.993188 0.160244 -0.022276 20440.400000 0 0 1
-0.208377 32.705442 11.890647 34.800530 -1.564425 1.222092 0.102561 -0.033538 -177848.000000 0 0 1
-0.360777 32.612642 13.300847 35.222537 -1.559734 1.183568 0.102149 -0.032908 -42435.100000 0 0 1
-0.205677 33.831842 13.963847 36.600886 -1.564717 1.179360 0.099958 -0.036154 -71007.100000 0 0 1
-0.410677 33.715242 15.496747 37.108427 -1.558616 1.139986 0.108494 -0.036102 -479397.000000 0 0 1
-1.729777 33.732042 15.924647 37.342164 -1.519561 1.130230 0.095220 -0.028802 -887821.000000 0 0 1
-1.717477 -33.534705 17.270447 37.759694 1.519626 1.095752 0.086257 -0.029422 -135290.000000 0 0 1
-3.070577 -33.171005 17.891047 37.813140 1.478491 1.077941 0.085054 -0.025672 -426879.000000 0 0 1
-3.934877 33.436742 18.139947 38.243387 -1.453654 1.076595 0.085057 -0.021994 -141247.000000 0 0 1
-4.916677 -33.816905 19.072947 39.134819 1.426417 1.061727 0.075872 -0.020924 20760.700000 0 0 1
-5.961177 32.776642 19.424047 38.563422 -1.390890 1.042930 0.069777 -0.028641 37411.300000 0 0 1
-6.971977 32.490642 18.488147 38.027120 -1.359418 1.063080 0.063688 -0.036542 101349.000000 0 0 1
-7.979877 31.683042 19.075847 37.833603 -1.324062 1.042337 0.050758 -0.047235 -907613.000000 0 0 1
-9.190977 31.525542 18.217147 37.552607 -1.287118 1.064307 0.044303 -0.048592 -1296220.000000 0 0 1
-9.784277 32.786842 17.979847 38.652089 -1.280789 1.086968 0.047695 -0.046026 -197490.000000 0 0 1
-10.653477 32.730242 16.867347 38.331093 -1.256118 1.115149 0.052520 -0.039431 -393766.000000 0 0 1
-11.518877 -33.713405 16.659247 39.329489 1.241561 1.133401 0.071437 -0.045346 -198291.000000 0 0 1
-12.666477 -33.739705 17.494247 40.060654 1.211660 1.118876 0.054683 -0.040530 -293172.000000 0 0 1
-13.585077 -32.775405 17.085247 39.378765 1.177861 1.122013 0.035583 -0.038700 -898142.000000 0 0 1
-14.858277 -32.922405 17.913947 40.318267 1.146852 1.110389 0.062228 -0.042162 -462359.000000 0 0 1
-14.715877 -32.576505 19.301547 40.624321 1.146502 1.075693 0.057075 -0.036983 207035.000000 0 0 1
-15.909877 -32.919005 19.976647 41.663551 1.120595 1.070740 0.058274 -0.045564 27791.300000 0 0 1
-15.894477 -32.314705 21.383447 41.882292 1.113678 1.034960 0.063031 -0.043543 -166391.000000 0 0 1
-16.236977 -30.923705 21.427447 40.976218 1.087298 1.020519 0.064738 -0.042995 120495.000000 0 0 1
-16.122477 -30.534805 22.794247 41.374948 1.084998 0.987331 0.064387 -0.042818 130024.000000 0 0 1
-16.068277 -29.004905 22.904847 40.300199 1.064899 0.966290 0.086645 -0.050506 -227880.000000 0 0 1
-16.074077 -28.587705 24.248147 40.787320 1.058580 0.934150 0.087503 -0.051141 -91421.400000 0 0 1
-16.184277 -27.165505 24.398747 39.939884 1.033496 0.913616 0.096546 -0.043678 798105.000000 0 0 1
-17.575377 -26.539605 24.006847 39.869452 0.985870 0.924622 0.116849 -0.037400 881039.000000 0 0 1
-18.592577 -26.556105 25.004347 40.940542 0.959987 0.913792 0.104528 -0.031917 252871.000000 0 0 1
-19.715077 -25.771205 24.667847 40.759563 0.917762 0.920774 0.110141 -0.028379 63842.500000 0 0 1
-20.922377 -25.921905 25.657547 42.047601 0.891722 0.914480 0.088830 -0.016166 321448.000000 0 0 1
-21.585477 -27.172705 25.752047 43.214079 0.899491 0.932388 0.070929 -0.013258 196927.000000 0 0 1
-22.237377 -27.674305 24.582247 43.181651 0.893901 0.965172 0.075407 -0.017423 -83527.200000 0 0 1
-23.685177 -27.136205 24.337647 43.470476 0.853199 0.976572 0.055428 -0.000375 37910.600000 0 0 1
-23.794277 -25.739705 24.095947 42.536040 0.824653 0.968564 0.067224 -0.009814 147162.000000 0 0 1
-25.075927 -25.381505 23.603747 42.780367 0.791454 0.986344 0.051912 -0.008591 -299274.000000 0 0 1
-25.277787 -24.027905 23.088947 41.825904 0.760054 0.986005 0.039689 0.004678 -316533.000000 0 0 1
-25.549077 -23.128405 24.129147 42.070111 0.735710 0.959968 0.031933 0.005510 180501.000000 0 0 1
-26.001127 -21.853205 23.713947 41.424298 0.698936 0.961288 0.035600 0.005298 28207.900000 0 0 1
-26.448177 -21.014305 24.964447 42.003937 0.671407 0.934357 0.038933 0.010284 479362.000000 0 0 1
-27.667577 -21.570605 25.476747 43.357242 0.662199 0.942706 0.026279 0.015889 699742.000000 0 0 1
-28.095187 -20.880705 26.650047 43.995095 0.639143 0.920088 0.032089 0.001948 225435.000000 0 0 1
-29.202407 -21.598905 27.528847 45.575550 0.636830 0.922252 0.031306 -0.003907 -420249.000000 0 0 1
-30.498637 -21.715305 27.082847 46.208246 0.618740 0.944554 0.040229 -0.005669 -599488.000000 0 0 1
-30.775047 -22.469405 25.870647 46.057226 0.630654 0.974349 0.033134 -0.002319 -472267.000000 0 0 1
-32.290077 -22.431105 25.536347 46.881858 0.607143 0.994770 0.062921 -0.010281 240502.000000 0 0 1
-32.824257 -23.128405 24.437647 47.005889 0.613815 1.024080 0.055432 -0.013968 86996.300000 0 0 1
-32.535797 -24.508105 24.279247 47.420535 0.645588 1.033286 0.052570 -0.010856 -444917.000000 0 0 1
-33.089857 -25.114705 22.963747 47.465996 0.649227 1.065812 0.070685 -0.008337 384981.000000 0 0 1
-34.508674 -25.182305 22.861447 48.452480 0.630407 1.079428 0.093543 -0.017832 393089.000000 0 0 1
-34.825999 -25.792405 21.610947 48.426557 0.637463 1.108212 0.092804 -0.015189 1214850.000000 0 0 1
-36.297307 -26.414605 21.649447 49.838985 0.629095 1.121438 0.092570 -0.013676 1094700.000000 0 0 1
-36.496417 -27.512405 22.570447 50.973974 0.645953 1.112095 0.087238 -0.012828 486996.000000 0 0 1
-35.701570 -28.712505 22.353447 50.977315 0.677319 1.116870 0.074087 -0.015702 -145406.000000 0 0 1
-36.026247 -29.610805 21.139647 51.201318 0.687966 1.145190 0.075767 -0.017038 -177602.000000 0 0 1
-35.827128 -29.122605 19.838847 50.252255 0.682536 1.164962 0.061320 -0.010011 380686.000000 0 0 1
-36.319867 -30.103705 18.949547 50.837497 0.692086 1.188828 0.072576 -0.005380 -280650.000000 0 0 1
-36.711417 -29.548405 17.594147 50.302986 0.677711 1.213478 0.080374 -0.005810 -61234.800000 0 0 1
-35.656193 -29.514605 16.620447 49.180436 0.691437 1.226060 0.100387 -0.010389 523020.000000 0 0 1
-36.034007 -29.025605 15.348447 48.749464 0.678089 1.250505 0.117650 -0.020125 143033.000000 0 0 1
-36.832647 -30.051605 14.500847 49.699270 0.684359 1.274718 0.105268 -0.022379 523701.000000 0 0 1
-35.948901 -31.029405 13.972547 49.501308 0.712081 1.284641 0.097422 -0.030470 572168.000000 0 0 1
-36.608597 -31.814105 12.947547 50.199259 0.715441 1.309924 0.091897 -0.027300 444369.000000 0 0 1
-36.848937 -31.149905 11.532847 49.610153 0.701783 1.336180 0.091628 -0.030832 715867.000000 0 0 1
37.344094 -30.064805 11.554347 49.315076 -0.677828 1.334302 0.087228 -0.033033 654860.000000 0 0 1
37.369234 -29.513305 10.235347 48.705822 -0.668475 1.359072 0.058502 -0.020877 256321.000000 0 0 1
36.353124 -28.327605 10.185547 47.199027 -0.661950 1.353285 0.100394 -0.019575 116665.000000 0 0 1
36.496124 -27.368405 9.167447 46.529977 -0.643436 1.372476 0.102436 -0.058175 -555577.000000 0 0 1
35.395584 -26.538805 9.000147 45.145965 -0.643359 1.370095 0.092569 -0.050096 -471825.000000 0 0 1
35.505704 -25.450405 7.952247 44.402887 -0.621911 1.390732 0.072420 -0.048752 229482.000000 0 0 1
36.125344 -24.240305 8.402747 44.308453 -0.591000 1.379999 0.084824 -0.055093 141800.000000 0 0 1
36.125974 -23.270305 7.357647 43.597340 -0.572247 1.401221 0.078754 -0.051481 -328320.000000 0 0 1
36.429624 -21.825305 7.750847 43.168705 -0.539764 1.390270 0.084528 -0.054019 -383121.000000 0 0 1
35.407714 -21.191505 8.488147 42.128787 -0.539316 1.367927 0.074426 -0.053208 -245423.000000 0 0 1
35.447514 -19.766705 8.364047 41.439186 -0.508685 1.367561 0.098024 -0.042012 -102891.000000 0 0 1
34.768504 -19.064005 9.534947 40.782353 -0.501547 1.334811 0.104939 -0.031248 -43963.000000 0 0 1
35.491354 -19.038205 10.752347 41.685758 -0.492356 1.309909 0.085275 -0.046467 156367.000000 0 0 1
34.791524 -18.402505 11.822447 41.095895 -0.486528 1.278993 0.086655 -0.035216 -152360.000000 0 0 1
35.457784 -18.639605 13.193647 42.175368 -0.483983 1.252627 0.070462 -0.046791 415749.000000 0 0 1
36.703024 -17.930205 13.182747 42.923059 -0.454422 1.258626 0.060028 -0.037747 484395.000000 0 0 1
37.329154 -18.047905 14.438747 43.905239 -0.450345 1.235698 0.050241 -0.019553 -311292.000000 0 0 1
-36.506487 -17.273505 14.581247 42.938448 0.441948 1.224321 0.081118 -0.033584 874882.000000 0 0 1
-35.358048 -17.883005 13.887147 41.986263 0.468252 1.233693 0.071067 -0.035998 1671850.000000 0 0 1
-34.171809 -17.150505 14.240847 40.800173 0.465159 1.214251 0.061428 -0.030969 -425683.000000 0 0 1
-33.057837 -17.371205 13.292247 39.639162 0.483823 1.228840 0.096001 -0.033385 -747152.000000 0 0 1
-32.396567 -18.649505 13.201047 39.643527 0.522332 1.231320 0.099014 -0.033582 1694780.000000 0 0 1
-31.161477 -18.560805 12.425947 38.339866 0.537202 1.240736 0.078034 -0.024817 1132200.000000 0 0 1
-30.414247 -19.830305 11.995347 38.238146 0.577785 1.251708 0.076510 -0.022422 91424.800000 0 0 1
-31.222687 -20.741505 11.251447 39.136444 0.586368 1.279188 0.113388 -0.030016 -5625.170000 0 0 1
-30.472737 -21.732305 10.528547 38.880986 0.619512 1.296584 0.119642 -0.030573 1887.030000 0 0 1
-31.317007 -22.643705 9.606647 39.821853 0.626028 1.327152 0.137841 -0.043525 421036.000000 0 0 1
-32.158367 -23.610605 10.220647 41.183527 0.633311 1.320002 0.132751 -0.041978 173381.000000 0 0 1
-33.498947 -23.186605 10.423447 42.052900 0.605444 1.320320 0.122719 -0.047906 -215869.000000 0 0 1
-34.356705 -24.427705 10.690347 43.489993 0.618072 1.322439 0.145369 -0.044894 -512171.000000 0 0 1
-34.485939 -25.259105 9.546547 43.799988 0.632172 1.351075 0.118159 -0.036649 -215114.000000 0 0 1
-35.075599 -26.492105 9.774047 45.029560 0.646876 1.351996 0.121901 -0.025524 -138640.000000 0 0 1
-35.248249 -27.168805 8.446947 45.298278 0.656671 1.383224 0.101843 -0.024765 599851.000000 0 0 1
-33.980487 -27.538205 7.873947 44.441257 0.681058 1.392679 0.097840 -0.027508 630450.000000 0 0 1
-34.011467 -28.391705 6.725847 44.811894 0.695585 1.420136 0.086154 -0.022415 -301579.000000 0 0 1
-32.660047 -28.481705 5.993647 43.747114 0.717166 1.433357 0.106314 -0.017782 -57078.700000 0 0 1
-32.220527 -27.273305 5.470947 42.566733 0.702434 1.441913 0.118501 -0.012257 401182.000000 0 0 1
-30.918057 -27.461405 4.902747 41.642430 0.726257 1.452788 0.109668 -0.018910 638215.000000 0 0 1
-30.309587 -26.234005 4.264247 40.312255 0.713444 1.464818 0.124714 -0.018460 -31993.300000 0 0 1
-30.709107 -25.891805 2.957647 40.276327 0.700493 1.497296 0.111910 -0.020356 362917.000000 0 0 1
-29.820317 -24.856705 2.485247 38.900945 0.694866 1.506866 0.132927 -0.028039 665212.000000 0 0 1
-30.243557 -24.260605 1.079647 38.786793 0.676065 1.542957 0.125488 -0.021687 -95647.300000 0 0 1
-29.904137 -25.113405 -0.001553 39.050487 0.698541 1.570836 0.115940 -0.022165 -136689.000000 0 0 1
-29.979977 -24.574705 -1.355953 38.788578 0.686641 1.605761 0.119468 -0.027308 111300.000000 0 0 1
-31.374077 -24.358405 -1.995853 39.769939 0.660176 1.621002 0.112561 -0.021939 285765.000000 0 0 1
-32.100317 -23.183605 -1.637653 39.630693 0.625486 1.612131 0.108521 -0.009107 -779523.000000 0 0 1
-33.411207 -23.318105 -2.054853 40.795407 0.609324 1.621187 0.092974 -0.014064 -864469.000000 0 0 1
-34.211599 -22.000805 -1.985553 40.723597 0.571495 1.619572 0.084766 -0.016610 -157564.000000 0 0 1
-34.476478 -21.673605 -0.656253 40.728410 0.561219 1.586910 0.078479 -0.021088 -306820.000000 0 0 1
-35.325993 -20.586405 -0.613853 40.891352 0.527643 1.585809 0.076214 -0.017575 -567410.000000 0 0 1
-35.478738 -20.065705 0.809747 40.767991 0.514718 1.550933 0.080355 -0.025334 -211056.000000 0 0 1
-36.254537 -20.973905 1.559147 41.913328 0.524474 1.533588 0.072536 -0.032072 171367.000000 0 0 1
-36.376277 -20.491305 2.907047 41.851858 0.513008 1.501280 0.089999 -0.037589 -623549.000000 0 0 1
-37.426227 -21.336405 3.677247 43.237562 0.518138 1.485646 0.086327 -0.024825 735939.000000 0 0 1
36.384134 -21.186805 3.213347 42.225721 -0.527310 1.494623 0.075851 -0.025619 419918.000000 0 0 1
35.741064 -20.087305 3.872247 41.181522 -0.512027 1.476628 0.091042 -0.031529 1186710.000000 0 0 1
34.298234 -19.807405 3.239047 39.739068 -0.523715 1.489198 0.083292 -0.016674 885339.000000 0 0 1
33.277454 -20.738505 3.318447 39.350814 -0.557304 1.486366 0.071138 -0.019104 -1257380.000000 0 0 1
32.222824 -20.250705 2.575347 38.144906 -0.561082 1.503230 0.117221 -0.024555 1063580.000000 0 0 1
30.844304 -21.060505 2.819847 37.454872 -0.599089 1.495438 0.114486 -0.011465 1642650.000000 0 0 1
30.893564 -22.321805 2.233547 38.179366 -0.625693 1.512261 0.105959 -0.015013 91178.000000 0 0 1
29.595764 -22.867405 2.366747 37.475711 -0.657845 1.507600 0.115350 -0.014320 210827.000000 0 0 1
29.334764 -24.086005 1.460447 37.984166 -0.687459 1.532338 0.105233 -0.008963 -5802.220000 0 0 1
29.182564 -23.863405 0.054947 37.697309 -0.685458 1.569339 0.109102 -0.007426 246451.000000 0 0 1
28.249864 -24.774805 -0.514453 37.578058 -0.719955 1.584487 0.094613 -0.020076 131735.000000 0 0 1
27.386964 -24.115205 -1.624653 36.527091 -0.721957 1.615289 0.111731 -0.024425 -155011.000000 0 0 1
27.931364 -23.864805 -2.904953 36.852798 -0.707048 1.649704 0.088956 -0.042912 -240646.000000 0 0 1
28.179864 -25.002705 -3.710953 37.855134 -0.725728 1.668984 0.085570 -0.041525 -404006.000000 0 0 1
26.977164 -25.563505 -4.507553 37.437657 -0.758499 1.691491 0.089714 -0.039459 125719.000000 0 0 1
26.484864 -24.797705 -5.580953 36.708598 -0.752511 1.723422 0.089344 -0.048015 509427.000000 0 0 1
25.536864 -23.812805 -5.154953 35.295249 -0.750477 1.717373 0.099368 -0.046645 -308011.000000 0 0 1
25.142664 -22.725805 -6.191753 34.452192 -0.734951 1.751498 0.099361 -0.051947 -188953.000000 0 0 1
24.351364 -23.217305 -7.288753 34.426125 -0.761562 1.784132 0.075604 -0.052441 364053.000000 0 0 1
23.097264 -22.547805 -7.341653 33.102673 -0.773361 1.794440 0.062630 -0.045693 143420.000000 0 0 1
23.109164 -21.136105 -8.030653 32.330477 -0.740834 1.821817 0.056939 -0.040969 -667618.000000 0 0 1
23.535864 -21.276905 -9.359053 33.079229 -0.735032 1.857642 0.059226 -0.042146 195631.000000 0 0 1
23.427064 -20.027705 -10.049353 32.417985 -0.707330 1.885982 0.054421 -0.040200 -519126.000000 0 0 1
24.112964 -19.831905 -11.353353 33.221049 -0.688286 1.919577 0.055885 -0.036024 -456290.000000 0 0 1
25.519364 -19.732805 -11.360453 34.200605 -0.658215 1.909401 0.092174 -0.031287 33952.700000 0 0 1
25.904764 -19.628205 -12.702653 34.895280 -0.648415 1.943379 0.085791 -0.036710 -709940.000000 0 0 1
27.413864 -19.731805 -12.888953 36.152305 -0.623875 1.935335 0.085363 -0.027689 -570710.000000 0 0 1
27.893064 -21.028005 -12.902753 37.238166 -0.645979 1.924626 0.048664 -0.019250 -81651.800000 0 0 1
28.744064 -21.408705 -11.852053 37.749503 -0.640168 1.890163 0.079183 -0.030487 -222005.000000 0 0 1
29.222664 -22.848305 -11.992853 38.985095 -0.663587 1.883494 0.067156 -0.016504 135512.000000 0 0 1
30.148524 -22.986705 -13.084053 40.106290 -0.651421 1.903114 0.058814 -0.022810 561059.000000 0 0 1
30.494514 -24.356605 -13.381153 41.257906 -0.673961 1.901099 0.048147 -0.018301 -91845.300000 0 0 1
-3.274477 -8.946158 -27.527823 29.129658 1.219921 2.808422 0.045214 -0.023840 59561.100000 0 0 1
-3.523277 -7.675058 -27.015683 28.304895 1.140437 2.838616 0.062284 -0.018339 -84998.400000 0 0 1
-4.728277 -7.057058 -27.424743 28.710193 0.980485 2.841221 0.061665 -0.024288 115661.000000 0 0 1
-4.951977 -5.624458 -26.854693 27.880659 0.848896 2.869466 0.059732 -0.021594 -232299.000000 0 0 1
-5.430677 -5.561258 -25.568663 26.724078 0.797277 2.846465 0.048128 -0.022656 148951.000000 0 0 1
-5.282177 -4.278158 -25.046453 25.952434 0.680762 2.876586 0.052656 -0.022974 -61395.400000 0 0 1
-5.710977 -4.149058 -23.583653 24.617445 0.628294 2.850761 0.040885 -0.025875 -162059.000000 0 1 0
-4.915477 -4.932858 -22.715053 23.758548 0.787163 2.844116 0.033188 -0.034627 579952.000000 0 1 0
-5.484277 -5.000258 -21.428553 22.677362 0.739266 2.808181 0.028120 -0.025314 -32816.300000 0 1 0
-4.731377 -6.095058 -20.598253 21.995992 0.910697 2.783180 0.025653 -0.022638 -111397.000000 0 1 0
-5.230477 -7.392858 -20.808953 22.694157 0.955052 2.731114 0.027544 -0.017708 621035.000000 0 1 0
-4.432577 -8.300658 -20.046653 22.145359 1.080318 2.702718 0.031484 -0.027682 -806491.000000 0 1 0
-5.130177 -9.653558 -19.841953 22.654205 1.082323 2.638015 0.046096 -0.034512 113191.000000 0 1 0
-6.241677 -9.589058 -18.968353 22.151907 0.993777 2.598831 0.048392 -0.033470 283002.000000 0 1 0
-7.445477 -9.032358 -19.498753 22.742471 0.881406 2.600938 0.043523 -0.024224 113660.000000 0 1 0
-8.633577 -9.276958 -18.466853 22.396992 0.821305 2.540156 0.040502 -0.014744 367070.000000 0 1 0
-8.926977 -10.643258 -18.367353 23.028884 0.872873 2.494067 0.041341 -0.020427 153081.000000 0 1 0
-9.706577 -10.937758 -17.212853 22.586157 0.844965 2.437343 0.055207 -0.020206 21743.200000 0 1 0
-10.709777 -12.083658 -17.447453 23.772415 0.845601 2.394896 0.056972 -0.001859 305916.000000 0 1 0
-11.919077 -11.827158 -18.160953 24.733909 0.781527 2.395362 0.077381 -0.018256 674512.000000 0 1 0
-11.759577 -11.978558 -19.547953 25.766179 0.794623 2.432061 0.082436 -0.026628 1021180.000000 0 0 1
-13.113677 -11.656858 -20.373253 26.887177 0.726653 2.430626 0.084553 -0.026982 2753440.000000 0 0 1
-14.253977 -12.550058 -20.473853 27.925946 0.721914 2.393736 0.084113 -0.021994 1092370.000000 0 0 1
-14.807077 -12.912058 -19.190353 27.463438 0.717139 2.344459 0.078559 -0.016399 -379582.000000 0 0 1
-16.029277 -13.850158 -19.416553 28.736164 0.712597 2.312688 0.075149 -0.008633 216981.000000 0 0 1
-15.722877 -15.115558 -19.959953 29.564991 0.765707 2.311925 0.095041 -0.006116 -1046640.000000 0 0 1
-16.821177 -15.710558 -20.512053 30.830471 0.751272 2.298715 0.083782 -0.013510 -896395.000000 0 0 1
-16.529677 -17.161058 -20.966153 31.738174 0.804136 2.292410 0.059912 -0.007950 59433.300000 0 0 1
-16.502077 -18.186458 -20.016753 31.681796 0.833917 2.254677 0.084248 -0.001615 90226.900000 0 0 1
-16.355977 -19.388858 -20.726353 32.757098 0.870044 2.255868 0.064095 -0.001407 -317523.000000 0 0 1
-17.033177 -20.575358 -20.084253 33.419331 0.879307 2.215519 0.087138 -0.010195 -259422.000000 0 0 1
-16.635177 -21.826358 -20.600553 34.314746 0.919558 2.214724 0.076457 -0.015140 292941.000000 0 0 1
-17.341277 -22.865058 -19.914053 34.929934 0.921929 2.177441 0.103884 -0.011494 231448.000000 0 0 1
-16.919577 -24.252758 -20.348953 35.896354 0.961659 2.173511 0.109011 -0.017954 -30859.100000 0 0 1
-17.308577 -24.537258 -21.697653 37.046619 0.956456 2.196521 0.064817 -0.014562 488175.000000 0 0 1
-16.597677 -25.717508 -22.075453 37.738557 0.997673 2.195624 0.071957 -0.014524 237497.000000 0 0 1
-17.245777 -26.289448 -23.361353 39.170202 0.990217 2.209813 0.069646 -0.011160 686142.000000 0 0 1
-18.538377 -26.901248 -23.273953 40.112659 0.967405 2.189789 0.097180 -0.010261 371140.000000 0 0 1
-18.490777 -28.299358 -23.181353 40.989482 0.992035 2.171889 0.110491 -0.008299 -109203.000000 0 0 1
-19.298877 -29.023528 -24.311453 42.495395 0.983991 2.179856 0.121331 -0.011701 -163526.000000 0 0 1
-18.833777 -28.969718 -25.683483 43.053420 0.994337 2.209991 0.127711 -0.008817 47148.000000 0 0 1
-18.725777 -27.671878 -26.230113 42.478305 0.975874 2.236349 0.145733 -0.020579 -295904.000000 0 0 1
-17.598977 -27.519298 -27.261653 42.546838 1.001828 2.266264 0.147529 -0.019158 -568069.000000 0 0 1
-17.868077 -27.747398 -28.635843 43.694368 0.998682 2.285465 0.146436 -0.019592 -370882.000000 0 0 1
-16.798877 -27.462698 -29.501963 43.666553 1.021820 2.312601 0.108793 -0.009547 -293419.000000 0 0 1
-17.032177 -27.729028 -30.982143 44.932029 1.019975 2.331641 0.124220 -0.010421 9103.930000 0 0 1
-16.955477 -29.100378 -31.379763 46.032703 1.043228 2.320858 0.111247 -0.010406 41906.400000 0 0 1
-17.415377 -29.250668 -32.696073 47.200955 1.033778 2.336021 0.116518 -0.009016 -18793.800000 0 0 1
-17.290977 -30.651358 -33.256513 48.419823 1.057179 2.327924 0.102057 -0.008915 571596.000000 0 0 1
-15.971377 -31.016278 -33.680603 48.492034 1.095272 2.338604 0.090962 -0.006005 497091.000000 0 0 1
-16.010877 -32.225798 33.279521 49.014047 1.109685 0.824425 0.078060 -0.001923 759462.000000 0 0 1
-14.609677 -32.639968 32.704369 48.460148 1.149939 0.830006 0.058611 -0.001815 906701.000000 0 0 1
-13.775077 -33.415868 33.554348 49.318022 1.179790 0.822533 0.064280 -0.004251 391690.000000 0 0 1
-12.716177 33.621600 32.819186 48.674553 -1.209210 0.830837 0.068038 -0.008454 635181.000000 0 0 1
-11.814077 32.802289 33.817385 48.571372 -1.225099 0.800649 0.076991 -0.010996 385213.000000 0 0 1
-10.987477 33.679120 -33.175083 48.534461 -1.255443 2.323393 0.086505 -0.015315 111076.000000 0 0 1
-10.200077 33.040586 -32.178453 47.235312 -1.271365 2.320248 0.086421 -0.023973 762506.000000 0 0 1
-9.356977 -33.733948 -31.204703 46.896330 1.300223 2.298823 0.080339 -0.022719 588789.000000 0 0 1
-10.237277 -33.068628 -30.301663 46.005725 1.270577 2.289819 0.089652 -0.020939 101632.000000 0 0 1
-9.595577 -32.123978 -29.522283 44.672030 1.280528 2.292770 0.083952 -0.024282 -273737.000000 0 0 1
-10.619477 -31.262938 -28.693023 43.742818 1.243342 2.286234 0.089248 -0.014043 529337.000000 0 0 1
-10.745077 -31.566098 -27.297863 43.093486 1.242700 2.256809 0.123486 -0.028733 -46676.600000 0 0 1
-11.357577 -32.825518 -27.128823 44.073600 1.237691 2.233860 0.116490 -0.024838 -484006.000000 0 0 1
-11.852077 -33.087908 -25.712823 43.548027 1.226835 2.202409 0.138161 -0.036454 -444371.000000 0 0 1
-10.844577 -33.041238 -24.759753 42.689268 1.253661 2.189524 0.147544 -0.054744 -787988.000000 0 0 1
-11.323877 -33.419168 -23.501253 42.395517 1.244095 2.158358 0.165976 -0.063411 200801.000000 0 0 1
-10.224177 -33.561378 -22.419253 41.635595 1.275087 2.139409 0.158381 -0.066961 758274.000000 0 0 1
-9.301677 33.010563 -22.596653 41.071002 -1.296139 2.153382 0.125652 -0.064799 246340.000000 0 0 1
-8.206077 33.144473 -21.726853 40.471619 -1.328092 2.137485 0.141492 -0.064826 -135048.000000 0 0 1
-7.324577 31.919292 -21.589153 39.224764 -1.345230 2.153635 0.135618 -0.064475 276002.000000 0 0 1
-6.144877 31.831770 -22.394753 39.402361 -1.380100 2.175308 0.109194 -0.068612 565225.000000 0 0 1
-5.381877 30.653289 -22.100453 38.170915 -1.396995 2.188282 0.094380 -0.061050 615923.000000 0 0 1
-3.868377 30.836789 -22.407853 38.314276 -1.446001 2.195483 0.095746 -0.066467 149840.000000 0 0 1
-3.548877 30.966579 -23.782453 39.206231 -1.456691 2.222572 0.112082 -0.063643 97533.600000 0 0 1
-2.292877 30.373259 -24.090453 38.834805 -1.495449 2.239962 0.093167 -0.069115 196968.000000 0 0 1
-2.012177 30.596029 -25.591383 39.938512 -1.505125 2.266297 0.106321 -0.033657 -469432.000000 0 0 1
-1.304877 31.681259 -26.062583 41.044647 -1.529632 2.258781 0.099805 -0.058133 -173094.000000 0 0 1
-1.995377 32.924306 -25.817263 41.887021 -1.510265 2.234901 0.102577 -0.049672 -23852.700000 0 0 1
-1.413877 -33.464328 -26.478593 42.696325 1.528571 2.239744 0.043150 -0.028561 585104.000000 0 0 1
-0.077777 -33.240478 -26.003043 42.203005 1.568456 2.234631 0.077443 -0.046257 357163.000000 0 0 1
0.527023 -32.164658 -26.665423 41.783822 -1.554413 2.262923 0.048590 -0.029345 -149870.000000 0 0 1
1.911623 -31.787208 -26.108383 41.179225 -1.510731 2.257535 0.071446 -0.031575 -189567.000000 0 0 1
1.898023 -31.175238 -24.835753 39.903791 -1.509989 2.242590 0.048968 -0.026150 -426019.000000 0 0 1
3.086923 -30.506408 -24.569153 39.291389 -1.469950 2.246320 0.044466 -0.025369 -787053.000000 0 0 1
3.093623 -29.754888 -23.207753 37.861902 -1.467198 2.230595 0.051032 -0.024335 -134770.000000 0 0 1
3.188623 -30.650768 -22.101953 37.922727 -1.467138 2.192986 0.062906 -0.031705 403768.000000 0 0 1
3.294023 -29.794408 -20.931653 36.560791 -1.460685 2.180368 0.061130 -0.015848 -435410.000000 0 0 1
3.369723 -30.545418 -19.570153 36.433068 -1.460922 2.137855 0.060526 -0.011483 -471328.000000 0 0 1
2.161523 -31.045138 -19.050953 36.488513 -1.501283 2.120117 0.057650 -0.016809 -124002.000000 0 0 1
1.731623 -32.342278 -19.517153 37.814557 -1.517307 2.113120 0.065292 -0.023420 78921.500000 0 0 1
2.450823 -33.578378 -18.848453 38.584688 -1.497937 2.081161 0.034562 -0.022754 -32532.900000 0 0 1
3.773423 33.775659 -19.172753 39.020870 1.459538 2.084431 0.050940 -0.018681 -406734.000000 0 0 1
4.206823 32.717384 -18.373553 37.758602 1.442917 2.078997 0.061596 -0.038823 350847.000000 0 0 1
5.422523 31.954757 -18.951453 37.545543 1.402704 2.099899 0.080645 -0.036289 -54971.600000 0 0 1
6.602123 32.676989 -19.195953 38.468926 1.371438 2.093240 0.094909 -0.035610 -319293.000000 0 0 1
7.571823 31.744385 -19.678253 38.108688 1.336647 2.113405 0.092077 -0.049577 -162234.000000 0 0 1
8.973823 32.360915 -19.705253 38.936555 1.300289 2.101437 0.107737 -0.053032 -299430.000000 0 0 1
9.578823 32.506231 -18.403453 38.562883 1.284231 2.068299 0.109135 -0.044601 -66943.800000 0 0 1
10.815523 33.154776 -18.596353 39.522639 1.255468 2.060681 0.110923 -0.036859 -11931.700000 0 0 1
11.691823 33.290050 -17.310953 39.301339 1.233043 2.026915 0.109015 -0.032929 -156788.000000 0 0 1
12.578023 32.219604 -17.141353 38.602273 1.198607 2.030910 0.100739 -0.038278 -342849.000000 0 0 1
13.236723 32.445089 -15.913153 38.485361 1.183436 1.997076 0.103207 -0.039214 -479235.000000 0 0 1
14.511123 31.651479 -15.722653 38.204589 1.140925 1.994938 0.097942 -0.034363 -233333.000000 0 0 1
14.279523 30.305379 -15.256353 36.811371 1.130463 1.998131 0.103489 -0.037146 -333125.000000 0 0 1
15.513823 29.633729 -15.275953 36.772154 1.088511 1.999203 0.099549 -0.033461 10371.400000 0 0 1
15.450623 28.265359 -14.496753 35.324327 1.070546 1.993678 0.102442 -0.033341 -169867.000000 0 0 1
15.611023 28.543829 -13.063053 35.058487 1.070325 1.952614 0.106877 -0.042151 838273.000000 0 0 1
14.358623 28.642419 -12.335153 34.332407 1.106104 1.938299 0.110818 -0.043022 1081710.000000 0 0 1
13.648423 27.324739 -11.963053 32.802979 1.107557 1.944101 0.106322 -0.036359 -600037.000000 0 0 1
12.962623 26.636489 -12.996353 32.348683 1.117886 1.984232 0.096153 -0.035661 59446.800000 0 0 1
12.347723 25.418259 -12.613953 30.946178 1.118588 1.990631 0.110061 -0.030763 466771.000000 0 0 1
11.296423 25.427389 -11.474553 30.096954 1.152724 1.961948 0.106195 -0.032308 -798147.000000 0 0 1
10.123223 26.134779 -11.657853 30.354766 1.201245 1.964979 0.090519 -0.033138 -310436.000000 0 0 1
9.222623 26.215419 -10.581253 29.736642 1.232518 1.934601 0.064703 -0.024681 440164.000000 0 0 1
8.129823 27.344829 -10.648853 30.450480 1.281812 1.928058 0.073863 -0.029400 30939.000000 0 0 1
8.618523 28.674559 -10.772453 31.820669 1.278823 1.916157 0.082235 -0.029149 -699710.000000 0 0 1
7.679123 29.681779 -11.014153 32.577423 1.317632 1.915685 0.068923 -0.023825 -566418.000000 0 0 1
8.320523 31.003349 -11.377453 34.057087 1.308600 1.911415 0.095601 -0.027498 202550.000000 0 0 1
9.196323 31.571819 -10.382553 34.484047 1.287356 1.876624 0.087096 -0.026581 461254.000000 0 0 1
9.901323 32.765299 -10.808753 35.894709 1.277332 1.876667 0.096569 -0.026522 642142.000000 0 0 1
11.079723 32.701601 -11.831553 36.498501 1.244122 1.900926 0.082881 -0.034042 73632.600000 0 0 1
12.290223 32.345689 -11.190853 36.366583 1.207680 1.883596 0.083217 -0.025274 124838.000000 0 0 1
13.384723 32.667128 -12.058953 37.305635 1.181930 1.899956 0.101476 -0.030225 459475.000000 0 0 1
14.795823 32.355129 -11.527553 37.398599 1.141893 1.884133 0.104906 -0.031031 126847.000000 0 0 1
15.138323 33.050668 -10.329653 37.791761 1.141282 1.847650 0.105473 -0.023580 382916.000000 0 0 1
16.487023 33.508603 -10.472353 38.785546 1.113550 1.844196 0.110310 -0.029642 541137.000000 0 0 1
16.923223 -33.169278 -9.376653 38.399454 -1.099016 1.817478 0.105322 -0.027829 -39062.200000 0 0 1
17.084923 -33.782108 -8.133153 38.720454 -1.102568 1.782420 0.107089 -0.038085 83912.700000 0 0 1
17.551923 -32.845528 -7.197353 37.930207 -1.080026 1.761706 0.101730 -0.032803 -971797.000000 0 0 1
17.913023 -33.433858 -5.746553 38.363031 -1.078940 1.721156 0.106466 -0.032604 40120.900000 0 0 1
19.022623 33.372414 -5.711953 38.835610 1.052720 1.718412 0.096735 -0.039351 -233790.000000 0 0 1
20.287923 -33.729178 -5.987953 39.813476 -1.029278 1.721769 0.097791 -0.031876 -728642.000000 0 0 1
20.961823 32.855566 -6.928753 39.584010 1.002904 1.746742 0.061981 -0.024497 53560.900000 0 0 1
21.333623 31.581949 -6.390853 38.644352 0.976703 1.736936 0.064968 -0.016948 -433075.000000 0 0 1
22.479723 31.665159 -5.586153 39.232962 0.953444 1.713666 0.065901 -0.019485 -494271.000000 0 0 1
22.843723 30.345089 -4.864153 38.292559 0.925507 1.698166 0.054418 -0.018754 -535372.000000 0 0 1
23.623223 29.596109 -5.695653 38.293952 0.897162 1.720085 0.052629 -0.020704 -527070.000000 0 0 1
23.853823 28.316809 -5.161753 37.383020 0.870736 1.709316 0.047838 -0.017421 -168669.000000 0 0 1
24.831423 27.407059 -5.967853 37.461469 0.834664 1.730784 0.041434 -0.010032 -767266.000000 0 0 1
26.120323 27.931379 -5.967153 38.704523 0.818892 1.725586 0.053836 -0.010594 -218457.000000 0 0 1
27.085123 27.006959 -6.530253 38.802370 0.783953 1.739896 0.034859 -0.007650 512977.000000 0 0 1
27.768623 26.164489 -5.461553 38.542255 0.755664 1.712978 0.035466 0.003768 219861.000000 0 0 1
28.901623 26.814719 -4.816753 39.718183 0.747960 1.692369 0.063172 -0.004566 590340.000000 0 0 1
29.729323 25.894709 -4.197153 39.648262 0.716569 1.676855 0.072705 -0.004344 81342.400000 0 0 1
31.106423 26.443139 -3.739453 40.997959 0.704544 1.662134 0.087197 -0.011826 154452.000000 0 0 1
30.980923 27.421579 -2.743553 41.464294 0.724528 1.637011 0.100468 -0.011431 84398.100000 0 0 1
32.179723 27.727069 -2.053453 42.526951 0.711208 1.619101 0.129815 -0.023505 299653.000000 0 0 1
31.951123 28.977669 -1.220553 43.151701 0.736635 1.599085 0.136519 -0.020324 199261.000000 0 0 1
31.792423 30.157179 -1.944653 43.863370 0.759008 1.615145 0.117641 -0.017300 -27803.900000 0 0 1
31.170823 31.137419 -1.163653 44.073951 0.784862 1.597202 0.131015 -0.019334 -9563.430000 0 0 1
34.493174 22.572642 19.161585 45.458438 0.579468 1.135677 0.141412 -0.039424 203694.000000 0 0 1
34.880064 22.308042 20.460285 46.183231 0.569004 1.111827 0.128867 -0.047672 229659.000000 0 0 1
35.941394 23.105342 20.981485 47.601086 0.571341 1.114332 0.126832 -0.038348 346820.000000 0 0 1
35.949934 23.171542 22.503385 48.329292 0.572535 1.086454 0.110540 -0.028044 -362985.000000 0 0 1
34.853014 23.913242 22.957515 48.100137 0.601348 1.073233 0.093947 -0.020138 -90221.200000 0 0 1
34.630154 23.804742 24.381205 48.583500 0.602219 1.045070 0.088898 -0.025784 -526648.000000 0 0 1
33.357064 24.410442 24.951885 48.282087 0.631746 1.027695 0.099194 -0.034105 -499336.000000 0 0 1
33.143744 25.805242 24.890795 48.825915 0.661546 1.035860 0.082967 -0.035959 460977.000000 0 0 1
31.828594 26.106842 25.352705 48.346523 0.686957 1.018791 0.074896 -0.037116 514834.000000 0 0 1
31.675974 27.649542 25.507495 49.178215 0.717632 1.025496 0.072218 -0.028188 -136961.000000 0 0 1
31.697914 28.331242 24.281325 48.959164 0.729373 1.051867 0.072626 -0.034372 201325.000000 0 0 1
31.402144 29.655142 24.629965 49.720793 0.756793 1.052541 0.069336 -0.026472 -216661.000000 0 0 1
31.403964 30.604642 23.398895 49.702730 0.772508 1.080625 0.074326 -0.030342 373219.000000 0 0 1
32.752214 30.808442 22.997845 50.505133 0.754826 1.098024 0.041404 -0.028145 131608.000000 0 0 1
32.855664 31.656042 21.912685 50.613886 0.766805 1.123047 0.044518 -0.018518 7305.080000 0 0 1
34.306324 32.087942 21.636985 51.717686 0.751998 1.139149 0.027052 -0.036131 -76.221100 0 0 1
34.857034 33.062342 22.477685 53.041282 0.758980 1.133185 0.031777 -0.009684 -992805.000000 0 0 1
36.175534 33.291642 22.130385 53.914345 0.743908 1.147824 0.041255 -0.003582 -931314.000000 0 0 1
36.702284 -33.106505 22.866555 54.460790 -0.733935 1.137492 0.041974 0.002071 -114146.000000 0 0 1
36.067474 -31.868005 22.567285 53.157453 -0.723661 1.132346 0.036283 0.005047 6532.140000 0 0 1
36.365664 -30.908905 23.579635 53.233646 -0.704464 1.111914 0.049385 0.001905 -661519.000000 0 0 1
35.459504 -29.665905 23.447695 51.838564 -0.696671 1.101430 0.046815 0.000046 2240470.000000 0 0 1
34.011264 -29.880305 23.604565 51.056578 -0.720832 1.090185 0.036399 0.006254 2616900.000000 0 0 1
33.283964 -30.534505 22.500485 50.462363 -0.742342 1.108632 0.038439 0.015372 4360.530000 0 0 1
32.747074 -31.982405 22.741005 51.111627 -0.773585 1.109702 0.021090 0.011601 348461.000000 0 0 1
31.717914 -31.911505 23.752845 50.877970 -0.788441 1.085061 0.022313 0.003722 510190.000000 0 0 1
31.114324 -33.181905 23.874955 51.372692 -0.817544 1.087455 0.021723 0.000179 -82396.400000 0 0 1
30.378084 -33.400805 25.202955 51.707163 -0.832756 1.061667 0.017792 -0.005205 -35064.900000 0 0 1
29.735564 33.010042 25.214925 51.084823 0.837537 1.054584 0.031552 -0.018476 251086.000000 0 0 1
29.060264 32.756142 26.451535 51.158064 0.845115 1.027390 0.035593 -0.007034 -595993.000000 0 0 1
28.752764 31.269842 26.648745 50.146586 0.827309 1.010524 0.056440 -0.015181 608552.000000 0 0 1
27.874764 30.769142 25.614975 48.783906 0.834713 1.017999 0.054100 -0.010821 1832530.000000 0 0 1
26.486064 31.207342 25.694225 48.328077 0.867050 1.010234 0.056656 -0.004030 899239.000000 0 0 1
25.700964 31.114642 24.346875 47.132057 0.880396 1.027959 0.090009 -0.020742 53202.600000 0 0 1
25.993564 32.060142 23.335915 47.413954 0.889520 1.056211 0.085873 -0.030222 684536.000000 0 0 1
27.263964 31.866242 22.691605 47.683226 0.863075 1.074829 0.067859 -0.022202 542741.000000 0 0 1
27.483764 32.811942 21.538485 47.915417 0.873537 1.104579 0.069581 -0.023266 -751738.000000 0 0 1
28.787364 33.055142 21.144985 48.666879 0.854299 1.121331 0.072222 -0.023792 -764382.000000 0 0 1
28.875964 33.595242 19.849085 48.543257 0.860798 1.149554 0.059012 -0.024614 296849.000000 0 0 1
30.291974 -33.672605 19.333685 49.246719 -0.838201 1.167352 0.063032 -0.023112 443076.000000 0 0 1
31.175374 32.954242 19.065985 49.207701 0.813130 1.172922 0.081781 -0.039499 -904463.000000 0 0 1
32.199194 33.375342 18.254185 49.838909 0.803332 1.195806 0.067990 -0.026953 -534989.000000 0 0 1
33.070654 32.268842 17.630885 49.454974 0.773127 1.206273 0.061416 -0.029881 59557.900000 0 0 1
34.036194 31.681242 18.483585 50.038051 0.749579 1.192443 0.055162 -0.029903 134111.000000 0 0 1
34.979754 30.903842 17.778785 49.947130 0.723612 1.206864 0.073683 -0.034317 368016.000000 0 0 1
36.029594 30.142642 18.658985 50.545704 0.696668 1.192701 0.089459 -0.038132 599571.000000 0 0 1
36.955634 31.114542 19.190285 51.981734 0.699798 1.192677 0.092225 -0.038864 249935.000000 0 0 1
-37.220297 30.402142 19.933685 52.028767 -0.684911 1.177616 0.103046 -0.032919 238223.000000 0 0 1
-36.177307 31.308442 20.659185 52.113511 -0.713376 1.163175 0.114450 -0.029498 328066.000000 0 0 1
-35.228551 31.776342 19.699585 51.369839 -0.733922 1.177229 0.117264 -0.032998 351443.000000 0 0 1
-34.087409 32.511942 20.087585 51.210242 -0.761747 1.167712 0.103089 -0.016927 351762.000000 0 0 1
-34.331291 -33.803305 20.864085 52.503438 0.777649 1.162131 0.081820 -0.019692 -442657.000000 0 0 1
-34.506992 33.611642 22.247785 53.060710 -0.772255 1.138134 0.090716 -0.017245 237634.000000 0 0 1
-34.388633 -32.892405 23.003685 52.855065 0.763163 1.120512 0.087555 -0.015434 -93911.100000 0 0 1
-34.357750 -33.268305 24.481205 53.726758 0.769290 1.097681 0.100418 -0.030223 -292352.000000 0 0 1
-35.644175 -33.635205 24.933995 54.986711 0.756408 1.100158 0.082566 -0.021678 -228661.000000 0 0 1
-35.772104 33.781242 26.297425 55.788622 -0.756782 1.079946 0.097230 -0.023704 49216.600000 0 0 1
-37.174737 33.643542 26.914805 56.905674 -0.735577 1.078135 0.067515 -0.029642 -117768.000000 0 0 1
-37.165477 32.998742 28.170805 57.129537 -0.726082 1.055142 0.090598 -0.028814 1799.720000 0 0 1
36.684664 32.910742 28.723915 57.043359 0.731225 1.043099 0.097672 -0.039671 1466.170000 0 0 1
36.842204 31.961342 29.941905 57.231050 0.714578 1.020223 0.108058 -0.028481 105467.000000 0 0 1
36.951004 30.542142 29.752855 56.421906 0.690726 1.015344 0.099903 -0.031730 259926.000000 0 0 1
-37.042177 30.179242 29.020375 55.902520 -0.683656 1.024970 0.095574 -0.029806 -178806.000000 0 0 1
-37.002927 28.688342 28.542255 54.835189 -0.659497 1.023348 0.101416 -0.025034 13380.300000 0 0 1
37.179484 28.454442 27.507735 54.301425 0.653238 1.039589 0.092160 -0.022831 522030.000000 0 0 1
37.060284 27.128042 27.034995 53.294336 0.631880 1.038774 0.100019 -0.033187 -938.314000 0 0 1
36.426584 26.069842 27.956165 52.802271 0.621173 1.012844 0.099445 -0.031885 83776.100000 0 0 1
37.386314 25.433642 28.817475 53.619525 0.597377 1.003393 0.092771 -0.025771 567036.000000 0 0 1
36.904784 24.140042 29.355655 52.976025 0.579264 0.983478 0.089820 -0.018024 166127.000000 0 0 1
37.419484 22.942642 28.458195 52.311103 0.550011 0.995578 0.083339 -0.004692 219594.000000 0 0 1
36.870684 22.979042 27.125515 51.217939 0.557328 1.012656 0.086710 -0.011253 61959.100000 0 0 1
37.397684 22.009842 26.196085 50.687817 0.531947 1.027673 0.084948 -0.023210 -13571.600000 0 0 1
36.887264 20.543242 26.350465 49.769891 0.508140 1.012849 0.085102 -0.016262 1300690.000000 0 0 1
35.437404 20.420442 26.232235 48.589445 0.522766 1.000508 0.103084 -0.015558 1566140.000000 0 0 1
35.007464 19.110142 26.630395 47.957252 0.499680 0.982079 0.115505 -0.009067 -111113.000000 0 0 1
34.830094 18.941642 28.170675 48.636490 0.498094 0.953039 0.100555 -0.006077 319567.000000 0 0 1
33.591934 19.458642 28.683905 48.268242 0.525034 0.934451 0.099434 -0.015119 707919.000000 0 0 1
33.641674 20.848242 29.022165 49.078483 0.554790 0.938074 0.093572 -0.025157 -542387.000000 0 0 1
32.353904 21.313542 29.744275 48.844284 0.582511 0.916046 0.080399 -0.036063 541455.000000 0 0 1
31.120564 21.163442 29.021025 47.524738 0.597209 0.913914 0.084716 -0.043206 455897.000000 0 0 1
30.886364 21.816042 27.766505 46.913601 0.614963 0.937426 0.103803 -0.038938 -484536.000000 0 0 1
30.805124 23.373942 27.794195 47.621572 0.649089 0.947583 0.111705 -0.039354 -330877.000000 0 0 1
32.028154 23.887242 28.246945 48.931512 0.640821 0.955409 0.097512 -0.042294 -521303.000000 0 0 1
31.944614 25.159442 28.782225 49.818394 0.667131 0.954836 0.085205 -0.032641 29891.700000 0 0 1
32.400514 25.152842 30.276215 50.981447 0.660128 0.934939 0.080613 -0.040882 -85704.000000 0 0 1
33.678494 24.574942 30.456245 51.630917 0.630377 0.939881 0.060836 -0.030636 -106248.000000 0 0 1
34.273094 24.769242 31.700423 52.849571 0.625800 0.927516 0.070821 -0.033126 -388819.000000 0 0 1
33.869934 23.688242 32.646305 52.669597 0.610315 0.902268 0.083246 -0.031178 -356651.000000 0 0 1
34.169324 23.942342 -33.755793 53.667793 0.611194 2.251033 0.080284 -0.040938 -30008.400000 0 0 1
33.701714 22.874542 -32.979193 52.408752 0.596311 2.251408 0.073199 -0.036959 -117327.000000 0 0 1
34.260124 22.693342 -31.561713 51.815881 0.585031 2.225738 0.065744 -0.035215 -206077.000000 0 0 1
33.664294 23.654242 -30.734533 51.355811 0.612503 2.212377 0.059057 -0.034565 104766.000000 0 0 1
33.977614 23.485742 -29.353853 50.672547 0.604804 2.188648 0.067768 -0.034263 220678.000000 0 0 1
35.358744 23.906642 -28.778843 51.478054 0.594517 2.164037 0.083429 -0.015084 203700.000000 0 0 1
35.631534 23.466542 -27.489393 50.753832 0.582390 2.143162 0.076256 -0.016668 -287655.000000 0 0 1
36.824994 24.089242 -27.087433 51.673018 0.579290 2.122582 0.088685 -0.001523 -222373.000000 0 0 1
37.571104 23.513442 -25.898663 51.334302 0.559202 2.099611 0.060225 0.001513 43655.200000 0 0 1
-36.696897 22.427842 -26.251263 50.386498 -0.548588 2.118816 0.035024 0.005575 398811.000000 0 0 1
-37.086787 21.244542 -25.580053 49.810636 -0.520204 2.110109 0.024710 0.001983 -149211.000000 0 0 1
-36.117697 20.062542 -25.791663 48.705272 -0.507038 2.128861 0.024575 0.013300 1224500.000000 0 0 1
-34.847886 20.244442 -25.082563 47.469438 -0.526285 2.127504 0.025848 0.004772 963392.000000 0 0 1
-34.095628 19.043342 -25.135273 46.442897 -0.509367 2.142669 0.002840 0.005471 1343320.000000 0 0 1
-32.637107 19.269242 -24.539653 45.151733 -0.533337 2.145389 0.016390 0.005260 1232510.000000 0 0 1
-32.764537 19.678442 -23.204953 44.712703 -0.540862 2.116452 0.034653 -0.000149 719746.000000 0 0 1
-31.448457 19.835442 -22.673253 43.549129 -0.562708 2.118392 0.067773 -0.006231 584238.000000 0 0 1
-31.628867 20.250842 -21.163953 43.109103 -0.569501 2.083964 0.061203 -0.010274 80348.200000 0 0 1
-32.204147 19.270642 -20.350753 42.692129 -0.539235 2.067678 0.055158 -0.013393 -31517.800000 0 0 1
-32.805767 19.922842 -19.229953 42.929350 -0.545768 2.035261 0.059210 -0.016438 -463350.000000 0 0 1
-33.715267 18.886742 -18.491653 42.841212 -0.510628 2.017098 0.049547 -0.014091 -96136.700000 0 0 1
-34.407569 19.335642 -17.380353 43.125683 -0.511978 1.985607 0.064800 -0.020091 618502.000000 0 0 1
-35.545220 20.186142 -17.669553 44.532641 -0.516482 1.978800 0.047560 -0.015862 -171372.000000 0 0 1
-36.668207 20.023342 -16.658653 44.977798 -0.499820 1.950209 0.034220 -0.020631 -499501.000000 0 0 1
-36.447177 20.696242 -15.431753 44.663969 -0.516438 1.923576 0.050613 -0.027127 849985.000000 0 0 1
-37.513997 20.259742 -14.555353 45.051253 -0.495178 1.899783 0.037349 -0.014618 -168444.000000 0 0 1
-37.562967 21.004742 -13.209453 45.018500 -0.509870 1.868602 0.040969 -0.016613 -48453.000000 0 0 1
37.239084 22.410642 -13.187253 45.419047 0.541745 1.865385 0.053321 -0.028058 1405560.000000 0 0 1
35.869974 22.681042 -13.581553 44.559435 0.563841 1.880521 0.048811 -0.017484 797878.000000 0 0 1
35.523724 24.078542 -14.148953 45.187432 0.595682 1.889270 0.062162 -0.023680 104177.000000 0 0 1
35.857064 25.167742 -13.327253 45.790391 0.611994 1.866120 0.056409 -0.023767 -143613.000000 0 0 1
35.688834 26.394342 -13.940253 46.526173 0.636792 1.875092 0.043667 -0.006294 -143636.000000 0 0 1
36.939344 27.155842 -14.421653 48.061824 0.633927 1.875557 0.063843 -0.004941 -220249.000000 0 0 1
37.434784 26.748842 -15.632953 48.592724 0.620421 1.898335 0.059409 -0.007279 -923951.000000 0 0 1
-36.841537 27.695142 -16.065853 48.810157 -0.644612 1.906199 0.086383 -0.011912 -1106030.000000 0 0 1
-36.539217 27.575942 -17.553353 49.027208 -0.646499 1.936957 0.101800 -0.016421 -145237.000000 0 0 1
-35.845347 26.486342 -18.079853 48.096739 -0.636363 1.956171 0.097309 -0.022257 849112.000000 0 0 1
-34.436599 26.417842 -17.828853 46.921740 -0.654383 1.960560 0.112652 -0.017951 465031.000000 0 0 1
-33.712057 25.189842 -18.325053 45.900310 -0.641710 1.981480 0.099313 -0.021145 -158724.000000 0 0 1
-33.697057 24.983142 -19.718653 46.351638 -0.637977 2.010216 0.074735 -0.015199 977057.000000 0 0 1
-32.504497 24.281742 -20.131753 45.292746 -0.641596 2.031391 0.064940 -0.012299 620258.000000 0 0 1
-32.478567 24.017442 -21.661653 45.835816 -0.636738 2.063026 0.055484 -0.008381 -627591.000000 0 0 1
-33.276207 22.989642 -22.109253 46.093911 -0.604574 2.071060 0.068798 0.000066 -334876.000000 0 0 1
-33.389407 22.769942 -23.479453 46.739785 -0.598510 2.097104 0.048932 -0.007255 -485411.000000 0 0 1
-34.293956 23.623342 -24.368853 48.249132 -0.603202 2.100251 0.038082 0.003145 -929039.000000 0 0 1
-33.961107 24.998242 -24.472953 48.756480 -0.634535 2.096640 0.040640 -0.001783 -328411.000000 0 0 1
-34.464986 25.653242 -25.622223 50.024218 -0.639861 2.108536 0.057210 -0.008040 -237595.000000 0 0 1
-34.093812 27.130442 -25.979303 50.728425 -0.672149 2.108454 0.058408 -0.008376 299863.000000 0 0 1
-32.778697 27.286342 -26.481423 50.202123 -0.694212 2.126447 0.024658 -0.009148 -234789.000000 0 0 1
-32.551187 28.659142 -26.740403 50.950715 -0.721899 2.123310 0.043695 -0.012949 972459.000000 0 0 1
-31.190097 28.946942 -27.496853 50.663838 -0.748115 2.144482 0.054694 -0.008293 452617.000000 0 0 1
-30.100657 28.674742 -26.666563 49.390242 -0.761143 2.141133 0.045851 -0.009201 -257637.000000 0 0 1
-28.859357 28.736442 -27.371613 49.069856 -0.783264 2.162540 0.065869 -0.009279 562128.000000 0 0 1
-28.025147 29.973142 -27.048213 49.146759 -0.818973 2.153587 0.052914 -0.012456 -471321.000000 0 0 1
-27.262657 30.186142 -25.886393 48.213701 -0.836243 2.137566 0.053445 -0.016388 241182.000000 0 0 1
-28.044797 30.128942 -24.730253 48.019259 -0.821209 2.111812 0.056526 -0.011455 -155272.000000 0 0 1
-27.226727 30.651542 -23.550153 47.280243 -0.844502 2.092199 0.022482 -0.008448 90713.800000 0 0 1
-27.157117 32.062042 -23.535753 48.160307 -0.868036 2.081391 0.034525 -0.006724 341788.000000 0 0 1
-25.998297 32.542542 -22.870553 47.518319 -0.896725 2.072933 0.043871 -0.002328 44051.400000 0 0 1
-25.776247 -33.634605 -23.067953 48.247611 0.916906 2.069305 0.041060 0.017198 209275.000000 0 0 1
-26.557607 -32.802805 -22.194353 47.685635 0.890221 2.054917 0.029849 0.005207 464141.000000 0 0 1
-26.329607 -31.443105 -22.558653 46.806088 0.873679 2.073686 0.048138 0.004389 44884.900000 0 0 1
17.264523 8.243942 -24.640253 31.195647 0.445492 2.481380 0.103407 -0.030011 526991.000000 0 0 1
15.893623 7.834642 -24.658653 30.365079 0.457986 2.518492 0.093381 -0.030773 787592.000000 0 0 1
15.908123 6.464042 -25.018253 30.344113 0.385956 2.540087 0.092585 -0.032310 -218210.000000 0 0 1
14.489623 5.909842 -25.196623 29.660499 0.387270 2.585835 0.098907 -0.037730 102799.000000 0 0 1
13.654123 6.065142 -24.042353 28.306461 0.418019 2.585566 0.128469 -0.049141 33699.000000 0 0 1
12.408323 5.452342 -24.213253 27.748443 0.414013 2.631294 0.129159 -0.049313 -545426.000000 0 0 1
11.524023 5.667942 -22.939053 26.289329 0.457096 2.631218 0.148784 -0.052578 -247819.000000 0 0 1
11.865623 4.878842 -21.817553 25.310111 0.390102 2.610017 0.131042 -0.045555 119091.000000 0 0 1
11.130023 5.045842 -20.623353 23.972080 0.425640 2.606668 0.126562 -0.042648 -303547.000000 0 1 0
11.643023 6.313842 -19.831353 23.847581 0.496901 2.552756 0.139935 -0.048335 125584.000000 0 1 0
11.147123 6.391542 -18.490453 22.516816 0.520616 2.534279 0.122726 -0.042199 -188443.000000 0 1 0
11.449123 7.545142 -17.786753 22.458409 0.582686 2.484852 0.134493 -0.050623 -525043.000000 0 1 0
12.861523 7.861042 -17.325853 22.965189 0.548619 2.425597 0.123548 -0.054399 -645374.000000 0 1 0
13.405623 7.117442 -16.248953 22.235044 0.488084 2.390262 0.133073 -0.057827 -32758.400000 0 1 0
14.726523 7.525142 -16.026553 23.029299 0.472403 2.340497 0.112600 -0.060193 -600894.000000 0 1 0
15.360023 6.946642 -14.745753 22.396950 0.424727 2.289464 0.112171 -0.054660 -793327.000000 0 1 0
16.657623 7.437142 -14.578653 23.352186 0.419915 2.245025 0.092110 -0.057644 -163322.000000 0 1 0
17.005823 7.494242 -13.232853 22.813813 0.415082 2.189570 0.067707 -0.056403 -155776.000000 0 1 0
18.093123 8.573142 -13.081653 23.916302 0.442497 2.149544 0.121567 -0.049926 -69174.000000 0 1 0
17.473823 9.879842 -13.203253 24.026478 0.514596 2.152597 0.157216 -0.033595 1119290.000000 0 1 0
18.312723 11.060242 -13.102153 25.086873 0.543330 2.120308 0.191047 -0.041996 -154058.000000 0 0 1
17.471323 12.253642 -12.636453 24.800782 0.611636 2.105421 0.220905 -0.037135 -425658.000000 0 1 0
16.983623 12.153142 -11.323753 23.756466 0.621106 2.067648 0.276259 -0.025762 520157.000000 0 1 0
16.338023 13.297942 -10.707553 23.630868 0.683175 2.041055 0.177570 -0.020916 221504.000000 0 1 0
14.916523 13.582642 -11.239053 23.093443 0.738628 2.079078 0.128317 -0.042985 -347498.000000 0 1 0
14.058323 14.415242 -10.485953 22.702221 0.797933 2.050922 0.159266 -0.055704 423433.000000 0 1 0
14.341923 15.772242 -10.682153 23.844554 0.832859 2.035314 0.168807 -0.053209 -489911.000000 0 1 0
13.256623 16.607542 -10.013753 23.490929 0.897136 2.011175 0.158704 -0.048735 -210521.000000 0 1 0
13.381623 16.627342 -8.600553 23.010994 0.893138 1.953854 0.150465 -0.036270 -60338.900000 0 1 0
12.215023 17.052842 -7.962353 22.436695 0.949212 1.933583 0.121512 -0.023624 -373019.000000 0 1 0
12.264123 16.799842 -6.420953 21.768602 0.940209 1.870214 0.091032 -0.023206 245187.000000 0 1 0
13.083923 17.811042 -5.848353 22.861004 0.937227 1.829494 0.091607 -0.020454 130750.000000 0 1 0
13.557523 17.319442 -4.609053 22.472491 0.906636 1.777360 0.098895 -0.026268 -787017.000000 0 1 0
14.623623 18.254942 -4.078253 23.742902 0.895399 1.743420 0.085626 -0.027311 -263486.000000 0 1 0
15.853723 18.102642 -4.780553 24.533647 0.851531 1.766908 0.098935 -0.037575 114159.000000 0 1 0
16.620223 19.276542 -4.671953 25.877481 0.859262 1.752333 0.084306 -0.024846 386609.000000 0 0 1
17.921223 19.332642 -5.552753 26.939828 0.823267 1.778401 0.072193 -0.018372 374153.000000 0 0 1
18.942923 18.564842 -4.965253 26.984096 0.775318 1.755857 0.082510 -0.036923 74624.100000 0 0 1
19.671523 17.836242 -5.938253 27.209616 0.736506 1.790808 0.102148 -0.035591 -93501.300000 0 0 1
20.790123 16.920542 -5.425053 27.348951 0.683144 1.770485 0.114654 -0.045682 -294739.000000 0 0 1
22.115323 17.391042 -5.411853 28.650026 0.666381 1.760833 0.093327 -0.048970 -469095.000000 0 0 1
22.842223 16.414142 -4.783953 28.532042 0.623092 1.739262 0.116628 -0.051613 855604.000000 0 0 1
24.422623 16.559542 -4.798853 29.895015 0.595836 1.732017 0.129198 -0.051281 1372970.000000 0 0 1
24.950923 17.576042 -3.968953 30.776913 0.613689 1.700115 0.135470 -0.052714 1270620.000000 0 0 1
26.389823 17.497142 -3.840853 31.895531 0.585478 1.691509 0.119610 -0.042212 1211540.000000 0 0 1
27.104323 18.704142 -3.137553 33.080712 0.604037 1.665784 0.134379 -0.036098 -158455.000000 0 0 1
27.114323 19.914342 -3.860953 33.862582 0.633480 1.685063 0.125858 -0.043307 267128.000000 0 0 1
27.535323 20.972242 -3.024153 34.744416 0.650915 1.657947 0.157344 -0.018207 -325950.000000 0 0 1
27.413323 22.377242 -3.669153 35.576592 0.684596 1.674114 0.099200 -0.018369 -599095.000000 0 0 1
28.315223 22.932442 -4.569253 36.722293 0.680747 1.695547 0.099464 -0.010914 -366825.000000 0 0 1
28.553423 22.202742 -5.762753 36.626070 0.660924 1.728793 0.077223 -0.012022 43873.000000 0 0 1
29.635923 22.738242 -6.717853 37.953196 0.654452 1.748737 0.056221 -0.011166 87243.200000 0 0 1
29.132923 23.828842 -7.530253 38.382882 0.685582 1.768265 0.027900 -0.004146 924795.000000 0 0 1
30.195323 24.592542 -8.137153 39.783965 0.683489 1.776783 0.017520 -0.000251 601407.000000 0 0 1
31.207623 23.972742 -9.153253 40.402848 0.655028 1.799330 0.018712 -0.011331 -52886.100000 0 0 1
30.660623 23.616142 -10.413053 40.077770 0.656331 1.833633 0.015155 0.000009 234112.000000 0 0 1
31.695123 23.209442 -11.297553 40.876567 0.632058 1.850824 0.004053 -0.005327 270160.000000 0 0 1
31.160623 22.574942 -12.613753 40.493446 0.626961 1.887569 0.008795 0.000707 114090.000000 0 0 1
31.043323 23.476942 -13.700253 41.261988 0.647498 1.909252 0.022337 -0.005410 83533.200000 0 0 1
31.006823 22.761842 -14.868853 41.238420 0.633242 1.939663 0.031029 -0.004322 -29123.900000 0 0 1
31.039623 23.528742 -16.214053 42.189517 0.648616 1.965262 0.035835 -0.000185 -336289.000000 0 0 1
32.226123 24.257642 -16.350353 43.523444 0.645247 1.955913 0.036393 0.000795 -311124.000000 0 0 1
32.346223 24.762842 -17.703553 44.417252 0.653383 1.980758 0.053185 -0.003981 -156928.000000 0 0 1
33.696623 25.457642 -17.964453 45.894177 0.647009 1.972984 0.051253 -0.007609 153487.000000 0 0 1
34.701023 24.473542 -18.157853 46.182495 0.614253 1.974880 0.057836 -0.001793 -1120340.000000 0 0 1
35.980023 25.016142 -18.190553 47.447504 0.607550 1.964252 0.073549 -0.007151 -416924.000000 0 0 1
36.998623 23.836542 -17.954653 47.533655 0.572326 1.958134 0.062734 -0.014014 132434.000000 0 0 1
37.116323 22.960842 -19.036853 47.615370 0.553997 1.982100 0.053799 -0.015516 -646019.000000 0 0 1
-36.950918 23.229642 -19.843153 47.945149 -0.561228 1.997500 0.077767 -0.008275 -643241.000000 0 0 1
-36.918618 22.264142 -21.092953 47.995719 -0.542666 2.025811 0.075186 -0.012937 164254.000000 0 0 1
-36.760218 20.900742 -20.699953 47.081235 -0.516988 2.026022 0.048215 -0.011161 108724.000000 0 0 1
-36.135318 20.202742 -21.765553 46.772335 -0.509792 2.054827 0.050792 -0.007689 34915.100000 0 0 1
-36.018918 18.715942 -21.516253 45.941246 -0.479216 2.058211 0.043964 -0.008738 340227.000000 0 0 1
-37.198818 17.929042 -21.396653 46.508272 -0.449127 2.048860 0.044733 -0.015543 271716.000000 0 0 1
-36.818318 16.565942 -21.627553 45.801419 -0.422802 2.062584 0.030979 -0.019293 -162150.000000 0 0 1
37.199723 15.534242 -21.557353 45.714894 0.395578 2.061856 0.017426 -0.008969 382270.000000 0 0 1
36.253723 15.761342 -22.656353 45.563830 0.410101 2.091216 0.057980 -0.002301 1038040.000000 0 0 1
35.155523 14.837342 -22.632753 44.365516 0.399368 2.106147 0.095105 -0.014479 297028.000000 0 0 1
35.412823 13.394842 -23.201153 44.404767 0.361615 2.120568 0.059695 -0.017521 -474602.000000 0 0 1
35.658723 13.386142 -24.641653 45.364572 0.359118 2.145030 0.073316 -0.012145 -202766.000000 0 0 1
36.251223 12.236442 -24.999153 45.703821 0.325537 2.149551 0.042446 -0.008703 -720302.000000 0 0 1
36.562123 12.213142 -26.506703 46.781994 0.322385 2.173171 0.024413 -0.000742 118048.000000 0 0 1
35.437423 12.115042 -27.385133 46.395373 0.329415 2.202172 0.029199 -0.002224 309090.000000 0 0 1
34.888623 13.397642 -27.664173 46.497519 0.366648 2.208012 0.057507 0.000206 -128848.000000 0 0 1
35.082323 13.816342 -29.119673 47.640487 0.375173 2.228420 0.060979 -0.001992 200711.000000 0 0 1
36.442423 14.086242 -29.437303 48.918577 0.368844 2.216501 0.044616 0.005951 78616.600000 0 0 1
36.609223 13.796742 -30.796423 49.789607 0.360405 2.237668 0.057739 -0.003347 -1149930.000000 0 0 1
-37.103518 14.083742 -31.214883 50.491502 -0.362780 2.237273 0.054701 -0.002360 -227770.000000 0 0 1
-36.148018 13.134242 -30.783693 49.262798 -0.348515 2.245783 0.042729 0.001787 36350.900000 0 0 1
-35.871418 13.039442 -29.414143 48.186902 -0.348655 2.227384 0.018836 0.000103 -796038.000000 0 0 1
-34.788618 12.001142 -28.980113 46.841459 -0.332190 2.237864 0.020925 -0.005877 171881.000000 0 0 1
-35.231318 10.684342 -29.164133 46.967516 -0.294447 2.240741 0.022131 -0.007867 -399444.000000 0 0 1
-34.240018 9.735042 -29.028673 45.932709 -0.277008 2.254905 0.024246 -0.011960 -631395.000000 0 0 1
-34.629918 8.368942 -29.642563 46.346002 -0.237122 2.264765 0.033234 -0.007086 -395107.000000 0 0 1
-34.668418 8.312642 -31.059793 47.283295 -0.235333 2.287479 0.042197 -0.007290 52171.100000 0 0 1
-34.903318 7.026542 -31.632073 47.625644 -0.198659 2.297195 0.055810 -0.010099 3569.940000 0 0 1
-36.291918 6.351442 -31.473333 48.456319 -0.173255 2.277749 0.074570 0.001631 28968.100000 0 0 1
-36.384118 5.720542 -30.212813 47.637619 -0.155950 2.257798 0.079324 -0.003358 1201820.000000 0 0 1
37.382523 5.377642 -29.999273 48.232027 0.142874 2.242063 0.070972 0.008847 684560.000000 0 0 1
37.182123 4.687642 -28.643393 47.169144 0.125411 2.223389 0.076937 -0.008155 8312.520000 0 0 1
-37.260118 3.463442 -28.502263 47.039248 -0.092687 2.221725 0.102986 -0.003068 374667.000000 0 0 1
-37.522518 2.902242 -27.215153 46.443804 -0.077193 2.196886 0.124845 -0.003459 123494.000000 0 0 1
-36.806618 1.519742 -26.982843 45.663011 -0.041266 2.202986 0.157565 -0.012379 603253.000000 0 0 1
-35.419418 1.598842 -26.674683 44.369248 -0.045110 2.215795 0.138064 -0.008598 317055.000000 0 0 1
-34.886518 0.330942 -26.501123 43.811964 -0.009486 2.220416 0.154211 -0.015489 -944177.000000 0 0 1
-33.581118 0.202042 -25.770313 42.330147 -0.006016 2.225335 0.136465 -0.015296 -839347.000000 0 0 1
-33.692218 0.337942 -24.386753 41.593190 -0.010030 2.197300 0.131950 -0.005468 -207340.000000 0 0 1
-32.483918 0.217142 -23.699153 40.210719 -0.006685 2.201080 0.138669 -0.000223 -397724.000000 0 0 1
-32.778218 0.171542 -22.140853 39.555763 -0.005233 2.164866 0.128899 0.008986 -358857.000000 0 0 1
-33.141918 -1.159358 -21.828953 39.701814 0.034967 2.152948 0.148363 -0.002708 352620.000000 0 0 1
-33.567618 -1.386958 -20.501853 39.357777 0.041295 2.118713 0.142533 -0.002135 91354.200000 0 0 1
-35.052518 -1.045658 -20.196553 40.468175 0.029822 2.093324 0.146257 0.000894 -380485.000000 0 0 1
-35.894418 -2.133758 -20.452753 41.367587 0.059376 2.087958 0.141504 -0.006530 -773405.000000 0 0 1
-37.162718 -1.833058 -19.975553 42.230918 0.049285 2.063498 0.141891 -0.004279 -518031.000000 0 0 1
36.997223 -3.025458 -19.906253 42.121334 -0.081594 2.063027 0.132346 -0.015300 -266435.000000 0 0 1
36.652723 -3.692658 -21.105753 42.455984 -0.100408 2.091074 0.121730 -0.010345 -49030.700000 0 0 1
-37.514718 -4.418058 -21.788153 43.607303 0.117229 2.093985 0.119783 -0.013512 -162067.000000 0 0 1
36.974223 -5.330458 -22.864653 43.798393 -0.143180 2.120041 0.120734 -0.011672 -415206.000000 0 0 1
36.669723 -6.628458 -22.432953 43.495315 -0.178830 2.112686 0.129585 -0.012142 437730.000000 0 0 1
35.943823 -7.412958 -23.382553 43.516136 -0.203386 2.138065 0.131550 -0.009093 59631.400000 0 0 1
34.471723 -7.091858 -23.658253 42.406450 -0.202899 2.162641 0.102834 -0.006462 -904728.000000 0 0 1
34.409923 -6.122358 -24.648053 42.767424 -0.176082 2.185024 0.115187 -0.012193 275143.000000 0 0 1
33.120223 -6.027658 -25.235823 42.072896 -0.180023 2.214062 0.087449 -0.013043 117154.000000 0 0 1
32.869323 -4.766158 -26.069123 42.222124 -0.144000 2.236265 0.115959 -0.039276 -4411.970000 0 0 1
33.657223 -4.727158 -27.239673 43.556336 -0.139537 2.246427 0.136380 -0.043896 204951.000000 0 0 1
33.297123 -3.667358 -28.087433 43.715578 -0.109698 2.268558 0.114444 -0.044584 -48508.500000 0 0 1
32.378123 -4.098358 -29.298173 43.857979 -0.125908 2.302346 0.119539 -0.042019 409452.000000 0 0 1
32.004023 -3.028458 -30.081943 44.026723 -0.094346 2.323022 0.100488 -0.038930 -94208.900000 0 0 1
31.380723 -3.435158 -31.289593 44.447595 -0.109033 2.351762 0.090424 -0.044055 -377075.000000 0 0 1
30.902923 -2.238558 -32.177903 44.670115 -0.072312 2.375096 0.091010 -0.047319 -407263.000000 0 0 1
29.813023 -1.474558 -31.687793 43.532825 -0.049420 2.386059 0.089421 -0.041594 687870.000000 0 0 1
28.486323 -1.999258 -31.749293 42.702286 -0.070068 2.409090 0.110256 -0.040712 678406.000000 0 0 1
27.831223 -2.114058 -33.158753 43.342232 -0.075814 2.441907 0.109117 -0.048685 -672346.000000 0 0 1
28.293423 -3.256958 33.849295 44.236866 -0.114609 0.699471 0.111280 -0.046819 -332710.000000 0 0 1
27.571323 -3.602058 32.726226 42.943667 -0.129909 0.704287 0.087810 -0.034862 -512603.000000 0 0 1
28.277523 -4.700758 31.845036 42.846491 -0.164730 0.732903 0.062565 -0.038731 805676.000000 0 0 1
29.522423 -4.405058 31.200315 43.179135 -0.148118 0.763271 0.065914 -0.032492 363978.000000 0 0 1
29.605223 -3.311258 30.320615 42.506157 -0.111384 0.776568 0.081022 -0.038752 -483280.000000 0 0 1
30.309923 -2.096158 30.958225 43.376226 -0.069048 0.776010 0.076357 -0.042759 -441142.000000 0 0 1
31.661023 -2.274558 31.283325 44.567257 -0.071718 0.792685 0.081261 -0.041811 -651608.000000 0 0 1
32.184123 -1.102958 31.778407 45.242695 -0.034257 0.792035 0.080442 -0.039721 257618.000000 0 0 1
33.661323 -1.226658 32.263318 46.642374 -0.036425 0.806933 0.060744 -0.034470 731973.000000 0 0 1
34.560223 -1.603858 31.216875 46.599084 -0.046374 0.836718 0.078985 -0.034749 -108877.000000 0 0 1
35.845823 -1.832058 31.748239 47.918996 -0.051065 0.846592 0.100217 -0.035198 57491.000000 0 0 1
36.789123 -2.528758 30.732405 48.003280 -0.068629 0.876019 0.123820 -0.033918 -115636.000000 0 0 1
37.210023 -1.614658 29.720605 47.649841 -0.043366 0.897291 0.119353 -0.025526 -142065.000000 0 0 1
-36.733818 -2.127258 29.208075 46.978828 0.057845 0.899849 0.132624 -0.025035 63420.900000 0 0 1
-36.290518 -1.481158 27.880475 45.787733 0.040791 0.916114 0.117926 -0.028554 20850.700000 0 0 1
-37.213118 -1.648258 26.830195 45.906343 0.044263 0.946588 0.122179 -0.028384 -137032.000000 0 0 1
-36.779818 -0.907658 25.726205 44.893391 0.024673 0.960572 0.103816 -0.024433 -149160.000000 0 0 1
-27.168917 14.836842 11.457447 33.008409 -0.499841 1.216312 0.150140 -0.026987 174466.000000 0 0 1
-28.136237 14.162042 12.241447 33.794442 -0.466315 1.200134 0.115029 -0.013720 483289.000000 0 0 1
-28.999267 15.033842 12.964747 35.143400 -0.478276 1.192960 0.128932 -0.018907 -285271.000000 0 0 1
-30.174607 14.324742 13.610547 36.068714 -0.443227 1.183863 0.133809 -0.018699 -629617.000000 0 0 1
-31.100907 15.179742 14.214547 37.413158 -0.454067 1.181071 0.135210 -0.021020 -510223.000000 0 0 1
-32.246767 14.419442 14.550147 38.203156 -0.420489 1.180067 0.159139 -0.027704 426174.000000 0 0 1
-33.382477 15.177242 15.308647 39.737805 -0.426712 1.175327 0.125213 -0.032117 225368.000000 0 0 1
-33.086127 15.571842 16.604847 40.160864 -0.439890 1.144547 0.121353 -0.024495 -211703.000000 0 0 1
-34.223064 15.916242 17.356647 41.542726 -0.435318 1.139771 0.141685 -0.045042 59312.600000 0 0 1
-33.832407 16.306742 18.805347 42.002175 -0.449133 1.106579 0.172936 -0.030560 307286.000000 0 0 1
-33.140687 15.302342 19.506647 41.388116 -0.432573 1.080020 0.162431 -0.029555 224444.000000 0 0 1
-32.126197 15.681142 20.448647 41.184195 -0.454091 1.051215 0.129962 -0.027495 696294.000000 0 0 1
-32.595277 16.140342 21.875447 42.444057 -0.459780 1.029328 0.123825 -0.039938 -633388.000000 0 0 1
-33.364087 17.322142 21.891047 43.502148 -0.478878 1.043478 0.139590 -0.041372 113845.000000 0 0 1
-34.046756 17.533742 23.103647 44.725745 -0.475568 1.027965 0.155876 -0.047486 -95965.700000 0 0 1
-35.253513 16.600842 23.453347 45.480300 -0.440097 1.028993 0.143481 -0.048103 1174600.000000 0 0 1
-36.543537 16.806742 22.810747 46.240965 -0.431065 1.054915 0.130471 -0.043939 1330080.000000 0 0 1
-37.226507 18.024842 23.004747 47.327858 -0.450923 1.063207 0.121643 -0.043393 -236028.000000 0 0 1
36.412414 17.709042 23.186747 46.659397 0.452665 1.050732 0.136730 -0.042087 206148.000000 0 0 1
36.129874 17.152542 24.448247 46.875306 0.443242 1.022119 0.122510 -0.037844 -54323.100000 0 0 1
35.480544 15.931342 24.294047 45.857141 0.422036 1.012459 0.120610 -0.037506 -282368.000000 0 0 1
35.061964 15.210142 25.595647 45.998118 0.409307 0.980689 0.118910 -0.029326 -1014330.000000 0 0 1
34.005144 15.876142 26.203447 45.771414 0.436798 0.961263 0.117443 -0.022146 -29579.100000 0 0 1
33.397484 15.207042 27.295847 45.735209 0.427282 0.931260 0.109248 -0.018713 418308.000000 0 0 1
32.536484 13.942642 26.943647 44.485730 0.404851 0.920189 0.101571 -0.025129 -437645.000000 0 0 1
33.339374 12.828042 26.642947 44.563653 0.367310 0.929964 0.111065 -0.022727 -47368.100000 0 0 1
32.629234 11.648342 26.796447 43.799547 0.342889 0.912466 0.110911 -0.023306 -77291.800000 0 0 1
33.465474 10.383942 26.345147 43.838693 0.300869 0.926099 0.114219 -0.020582 1311.450000 0 0 1
34.384124 10.070742 27.357147 45.078835 0.284921 0.918675 0.129957 -0.020129 -339537.000000 0 0 1
35.136324 8.948242 27.020647 45.218886 0.249371 0.930351 0.118594 -0.017323 -394587.000000 0 0 1
36.203094 8.452342 28.017947 46.552244 0.229362 0.924968 0.100037 -0.009920 -181801.000000 0 0 1
37.454384 9.057142 27.794947 47.512333 0.237263 0.945910 0.106690 -0.016330 348192.000000 0 0 1
-36.711897 8.326542 28.563547 47.254322 -0.223034 0.921703 0.114148 -0.023207 1226210.000000 0 0 1
-35.307211 8.981242 28.796347 46.438039 -0.249091 0.901923 0.105190 -0.023294 829305.000000 0 0 1
-34.579868 9.252842 27.603747 45.203421 -0.261454 0.913907 0.099052 -0.023341 -212955.000000 0 0 1
-33.262157 9.585642 27.899747 44.459549 -0.280582 0.892418 0.085033 -0.008144 -334128.000000 0 0 1
-32.361287 10.120742 26.761147 43.195386 -0.303106 0.902643 0.067565 -0.008750 80821.600000 0 0 1
-32.034207 9.238742 25.732347 42.115300 -0.280783 0.913476 0.074958 -0.013115 44121.900000 0 0 1
-31.114967 9.820542 24.864747 41.022432 -0.305726 0.919616 0.069769 -0.008305 -473876.000000 0 0 1
-30.463107 8.841142 23.898447 39.715268 -0.282465 0.925113 0.071094 -0.009338 -837992.000000 0 0 1
-29.534707 9.412542 23.102047 38.660050 -0.308518 0.930331 0.075551 -0.010437 -402880.000000 0 0 1
-28.822337 8.513142 22.214847 37.372452 -0.287200 0.934255 0.061127 -0.000083 74197.500000 0 0 1
-27.702567 9.183642 21.435047 36.210948 -0.320107 0.937321 0.052649 0.000555 -1387550.000000 0 0 1
-26.567387 9.510242 22.204447 35.906939 -0.343754 0.904106 0.052210 -0.007951 558072.000000 0 0 1
-25.439637 10.081942 21.563547 34.839737 -0.377320 0.903410 0.042250 0.000985 350057.000000 0 0 1
-24.747477 9.236242 20.500947 33.437025 -0.357209 0.910791 0.036524 0.003510 -1579720.000000 0 0 1
-25.510527 9.017242 19.338347 33.257621 -0.339764 0.950261 0.033664 -0.000618 -123980.000000 0 0 1
-24.969077 8.217142 18.336247 32.049871 -0.317929 0.961713 0.046966 -0.012159 -429789.000000 0 0 1
-24.966777 6.689342 18.583947 31.834735 -0.261781 0.947440 0.054915 -0.008651 -356052.000000 0 0 1
-23.730477 6.303442 19.143347 31.134172 -0.259631 0.908580 0.063259 -0.007411 404728.000000 0 0 1
-23.608777 4.935042 19.428447 30.970850 -0.206067 0.892697 0.084275 -0.021089 -162043.000000 0 0 1
-23.635477 3.848342 18.283547 30.128618 -0.161404 0.918705 0.105299 -0.023035 195316.000000 0 0 1
-24.973277 3.592842 17.837347 30.898933 -0.142887 0.955402 0.121146 -0.024660 932333.000000 0 0 1
-25.032547 2.695342 16.774847 30.253740 -0.107260 0.983068 0.128074 -0.021760 -134082.000000 0 0 1
-24.867477 1.175842 17.145847 30.228366 -0.047249 0.967681 0.128719 -0.024355 144870.000000 0 0 1
-23.572877 0.706542 17.541947 29.392170 -0.029964 0.931260 0.128485 -0.018143 668739.000000 0 0 1
-23.535077 -0.555058 18.238247 29.779886 0.023580 0.911659 0.141618 -0.022424 -1074890.000000 0 0 1
-22.184577 -1.169858 18.523747 28.924959 0.052684 0.875768 0.152842 -0.015507 -545685.000000 0 0 1
-21.429377 -0.529558 19.567647 29.023981 0.024707 0.830930 0.123470 -0.014202 582448.000000 0 0 1
-20.311777 -1.359558 19.916647 28.479634 0.066835 0.796337 0.114730 -0.016289 585804.000000 0 0 1
-19.316077 -0.740058 20.908347 28.474858 0.038294 0.746200 0.125688 -0.019630 327721.000000 0 0 1
-19.857377 -0.593458 22.198647 29.790058 0.029877 0.730007 0.109756 -0.022208 191854.000000 0 0 1
-18.758577 -0.549358 23.102647 29.764380 0.029277 0.682205 0.092806 -0.022110 -190390.000000 0 0 1
-19.201477 -0.718258 24.572547 31.193312 0.037389 0.663648 0.098858 -0.019190 525015.000000 0 0 1
-19.979377 0.307842 25.242247 32.193809 -0.015407 0.669598 0.082184 -0.021263 634969.000000 0 0 1
-21.351877 0.291642 24.847247 32.762378 -0.013658 0.709929 0.114265 -0.027996 314899.000000 0 0 1
-22.197877 1.455842 25.469347 33.816459 -0.065491 0.717937 0.087334 -0.028632 -97943.500000 0 0 1
-21.951677 2.706542 24.802347 33.231881 -0.122676 0.728247 0.070942 -0.026038 329796.000000 0 0 1
-23.129577 3.069342 24.109647 33.551055 -0.131931 0.769015 0.073799 -0.027986 -569146.000000 0 0 1
-22.857177 4.098442 22.987947 32.675580 -0.177421 0.790457 0.077199 -0.027906 60129.300000 0 0 1
-22.181577 3.614042 21.857747 31.350355 -0.161511 0.799300 0.089455 -0.019976 899102.000000 0 0 1
-20.829077 3.171442 22.004947 30.465164 -0.151100 0.763676 0.098687 -0.023639 124769.000000 0 0 1
-20.124477 2.606242 20.717947 29.000352 -0.128789 0.775025 0.096405 -0.023317 12628.600000 0 0 1
-19.754577 3.596042 19.759647 28.171235 -0.180064 0.793419 0.089062 -0.019780 291157.000000 0 0 1
-19.395977 2.771942 18.596647 27.013384 -0.141952 0.811483 0.111877 -0.025305 -48718.400000 0 0 1
-18.835677 3.519842 17.382447 25.871249 -0.184740 0.834048 0.080926 -0.022882 -869526.000000 0 0 1
-17.563177 4.053642 17.493547 25.118149 -0.226831 0.800357 0.111283 -0.036873 -597628.000000 0 0 1
-17.221777 4.626242 16.245247 24.122599 -0.262432 0.831937 0.116830 -0.036232 -217161.000000 0 1 0
-15.765277 5.124942 16.263547 23.223091 -0.314302 0.794954 0.117970 -0.035515 -208146.000000 0 1 0
-15.391477 6.223342 17.146547 23.866957 -0.384239 0.769265 0.117521 -0.038875 307665.000000 0 1 0
-16.016677 7.486442 16.908347 24.463707 -0.437242 0.807703 0.123799 -0.041966 -322285.000000 0 1 0
-15.678777 8.134742 15.538847 23.525600 -0.478604 0.849301 0.080609 -0.042470 -151097.000000 0 1 0
-16.111377 7.588742 14.335047 22.861738 -0.440194 0.893059 0.113683 -0.037389 172971.000000 0 1 0
-17.487177 7.576242 14.011647 23.654325 -0.408834 0.936823 0.085104 -0.043398 111585.000000 0 1 0
-17.753277 6.701542 12.721947 22.845951 -0.360945 0.980198 0.089252 -0.045141 -185281.000000 0 1 0
-17.369277 5.383342 12.967347 22.334374 -0.300546 0.951330 0.080055 -0.042922 281888.000000 0 1 0
-17.798677 4.466142 11.980547 21.915128 -0.245850 0.992403 0.065337 -0.054126 297049.000000 0 1 0
-17.454477 2.979342 12.488147 21.667697 -0.169063 0.956543 0.069718 -0.025477 -157252.000000 0 1 0
-18.230377 2.633142 13.651247 22.926767 -0.143445 0.932998 0.091578 -0.033851 447356.000000 0 1 0
-18.036577 1.315642 14.074347 22.915852 -0.072814 0.909456 0.089776 -0.022384 -514287.000000 0 1 0
-19.192577 0.713742 14.868247 24.288459 -0.037171 0.912016 0.120868 -0.029005 -22453.700000 0 1 0
-20.381977 0.624342 14.104047 24.793930 -0.030622 0.965688 0.137262 -0.027050 -88778.300000 0 1 0
-21.530377 0.441842 14.885147 26.178617 -0.020519 0.965994 0.146828 -0.028418 -152663.000000 0 0 1
-22.808977 0.282242 14.038747 26.784614 -0.012374 1.019097 0.145742 -0.026837 -197202.000000 0 0 1
-22.720477 -0.924958 13.312447 26.349514 0.040688 1.041153 0.153042 -0.032849 1227430.000000 0 0 1
-24.002177 -1.097958 12.665347 27.161021 0.045712 1.085686 0.152535 -0.028488 910506.000000 0 0 1
-24.080377 -2.297358 11.703147 26.872032 0.095116 1.120187 0.148128 -0.036898 -113580.000000 0 0 1
-23.914977 -3.569258 12.343147 27.148094 0.148154 1.098806 0.139378 -0.027378 209396.000000 0 0 1
-23.853877 -4.694758 11.537847 26.910409 0.194329 1.127687 0.121391 -0.018170 -60908.800000 0 0 1
-23.623477 -6.035758 12.306747 27.312178 0.250147 1.103364 0.105950 -0.015977 815626.000000 0 0 1
-24.859177 -6.455158 12.908847 28.745193 0.254058 1.105063 0.106193 -0.010452 1004710.000000 0 0 1
-24.737077 -7.759558 13.340047 29.156313 0.303961 1.095575 0.105663 -0.017157 383146.000000 0 0 1
-25.720897 -8.030458 14.549347 30.622481 0.302625 1.075696 0.121690 -0.012261 118554.000000 0 0 1
-27.074257 -7.965458 14.228147 31.605444 0.286134 1.103829 0.137161 -0.008715 -728414.000000 0 0 1
-27.917387 -8.232358 15.314047 32.888786 0.286756 1.086449 0.137859 -0.009397 339994.000000 0 0 1
-29.350367 -7.606858 14.986947 33.821841 0.253594 1.111726 0.154704 -0.021445 655655.000000 0 0 1
-30.120407 -8.343158 14.038347 34.262551 0.270219 1.148640 0.143170 -0.013460 612116.000000 0 0 1
-30.593427 -9.668558 14.212247 35.091691 0.306101 1.153814 0.135755 -0.013678 -476492.000000 0 0 1
-31.188267 -10.065958 15.599947 36.295866 0.312194 1.126526 0.132787 -0.028114 10852.900000 0 0 1
-30.127417 -10.050458 16.577347 35.825709 0.321989 1.089733 0.132947 -0.014613 600967.000000 0 0 1
-30.493317 -10.516858 17.841147 36.861270 0.332116 1.065567 0.112988 -0.011133 49860.000000 0 0 1
-29.283087 -10.640458 18.809347 36.393819 0.348532 1.027655 0.137917 -0.021115 582529.000000 0 0 1
-28.364007 -11.656858 18.424847 35.775330 0.389930 1.029771 0.132053 -0.023122 -335805.000000 0 0 1
-27.202337 -11.678358 19.204747 35.287016 0.405519 0.995309 0.135240 -0.031368 -49908.300000 0 0 1
-26.255777 -12.763058 18.552247 34.589700 0.452470 1.004688 0.127710 -0.028473 44238.900000 0 0 1
-25.652197 -12.320758 17.365947 33.337853 0.447764 1.022882 0.117856 -0.028218 -433737.000000 0 0 1
-24.817077 -13.268758 16.842747 32.796728 0.490991 1.031480 0.110228 -0.030013 -492057.000000 0 0 1
-24.247577 -12.930258 15.419147 31.510104 0.489900 1.059464 0.102880 -0.027122 138913.000000 0 0 1
-23.185377 -11.983158 15.416447 30.312120 0.477030 1.037250 0.091301 -0.030466 27385.000000 0 0 1
-22.637077 -11.910458 14.135547 29.225160 0.484347 1.065945 0.087897 -0.018527 -162209.000000 0 0 1
-21.425977 -11.002058 13.945247 27.831416 0.474382 1.045972 0.078418 -0.018792 -482895.000000 0 0 1
-21.754677 -9.593158 14.060347 27.622238 0.415319 1.036747 0.079429 -0.024290 438440.000000 0 0 1
-20.628677 -8.767858 13.757247 26.299801 0.401898 1.020320 0.078879 -0.021256 564387.000000 0 0 1
-20.139877 -8.754258 12.238847 25.140427 0.410035 1.062351 0.097957 -0.013485 97324.000000 0 0 1
-19.402277 -9.909858 11.815147 24.784095 0.472216 1.073873 0.087061 -0.018720 449567.000000 0 1 0
-19.350277 -10.055058 10.385447 24.153570 0.479231 1.126330 0.109592 -0.012122 -996838.000000 0 1 0
-18.698877 -11.342358 9.864447 23.991757 0.545243 1.147070 0.098646 -0.006765 1608970.000000 0 1 0
-17.242977 -11.425958 9.799447 22.888904 0.585213 1.128373 0.113318 -0.023028 1902990.000000 0 1 0
-16.665777 -11.575058 11.099047 23.128315 0.607052 1.070267 0.102308 -0.018265 -755510.000000 0 1 0
-15.157777 -11.863858 11.120247 22.229918 0.664097 1.046923 0.115950 -0.018590 -254214.000000 0 1 0
-14.813277 -13.194758 10.804447 22.589177 0.727675 1.072076 0.102439 -0.021830 -382071.000000 0 1 0
-13.429277 -13.348458 10.776047 21.786464 0.782380 1.053397 0.118324 -0.027830 -469748.000000 0 1 0
-13.083177 -14.871658 10.750647 22.536907 0.849289 1.073531 0.124328 -0.025636 -131529.000000 0 1 0
-13.247577 -15.536958 9.539947 22.536769 0.864766 1.133705 0.093283 -0.029158 291183.000000 0 1 0
-12.993977 -16.967958 9.727247 23.481362 0.917263 1.143673 0.076587 -0.019171 -32781.000000 0 1 0
-13.210977 -17.714658 8.432947 23.652772 0.930011 1.206244 0.064111 -0.016381 -849443.000000 0 1 0
-12.249777 -17.564258 7.482047 22.683501 0.961800 1.234657 0.065217 -0.020970 -641599.000000 0 1 0
-12.624777 -18.445758 6.416847 23.255256 0.970599 1.291238 0.042503 -0.018687 229370.000000 0 1 0
-11.739677 -18.243358 5.135347 22.293764 0.999001 1.338360 0.048434 -0.019575 187464.000000 0 1 0
-12.104077 -19.067758 4.072747 22.949409 1.005186 1.392385 0.060130 -0.024497 173826.000000 0 1 0
-11.168377 -18.899858 3.042147 22.162850 1.037077 1.433098 0.067042 -0.031474 191965.000000 0 1 0
-11.625277 -19.737358 1.789847 22.976378 1.038505 1.492818 0.078788 -0.030938 162030.000000 0 1 0
-11.258177 -21.149158 1.858847 24.030996 1.081626 1.493367 0.069452 -0.032647 -260965.000000 0 1 0
-11.838777 -22.093958 0.994347 25.085620 1.078891 1.531148 0.079893 -0.029429 -351088.000000 0 0 1
-11.216877 -22.160258 -0.428253 24.841070 1.102224 1.588037 0.105136 -0.026615 41418.300000 0 1 0
-11.438777 -21.019758 -1.211753 23.961306 1.072423 1.621389 0.105747 -0.045376 250923.000000 0 1 0
-12.679377 -20.916358 -1.888053 24.532130 1.025835 1.647835 0.115047 -0.042152 71031.200000 0 1 0
-13.731277 -19.889858 -1.421853 24.211074 0.966566 1.629558 0.133494 -0.039956 -11063.500000 0 1 0
-14.308677 -20.305058 -0.225853 24.841188 0.956933 1.579888 0.115552 -0.032875 -900831.000000 0 1 0
-15.565877 -19.777758 -0.026953 25.168571 0.904008 1.571867 0.138964 -0.015694 -837781.000000 0 0 1
26.946623 -19.781258 -4.104753 33.678890 -0.633241 1.692979 0.124777 -0.034512 64400.800000 0 0 1
25.619923 -19.992558 -3.656253 32.702462 -0.662645 1.682834 0.110583 -0.030467 159144.000000 0 0 1
25.605723 -20.809758 -2.516553 33.091269 -0.682437 1.646919 0.101447 -0.035402 -95491.400000 0 0 1
24.187623 -20.907358 -1.908353 32.028121 -0.712785 1.630415 0.087203 -0.028367 24391.600000 0 0 1
23.371423 -21.722258 -2.701553 32.021528 -0.748842 1.655263 0.092882 -0.028256 -87860.200000 0 0 1
22.214023 -22.190158 -2.026353 31.463821 -0.784861 1.635244 0.061648 -0.019266 146510.000000 0 0 1
21.170523 -22.910458 -2.885753 31.327427 -0.824849 1.663043 0.069364 -0.025125 155903.000000 0 0 1
20.538323 -21.968358 -3.780253 30.310423 -0.819028 1.695840 0.067558 -0.034000 -334487.000000 0 0 1
19.574923 -22.586258 -4.584053 30.237893 -0.856701 1.722983 0.077438 -0.029593 -644411.000000 0 0 1
18.581923 -21.661558 -5.286953 29.025210 -0.861774 1.753969 0.070489 -0.026078 -426808.000000 0 0 1
17.530823 -21.245258 -4.442753 27.900337 -0.880899 1.730714 0.081578 -0.022475 -167518.000000 0 0 1
17.881023 -20.299058 -3.511553 27.278448 -0.848646 1.699884 0.068649 -0.025392 -306405.000000 0 0 1
16.709323 -19.920858 -2.543053 26.124876 -0.872849 1.668293 0.078383 -0.011854 366482.000000 0 0 1
16.322923 -20.928558 -1.635753 26.591691 -0.908410 1.632349 0.081003 -0.019024 44380.400000 0 0 1
15.389123 -20.360358 -0.747453 25.532880 -0.923570 1.600075 0.090766 -0.004238 -272783.000000 0 0 1
15.045523 -21.233158 0.454547 26.027320 -0.954331 1.553331 0.076956 -0.004601 83859.500000 0 0 1
14.045923 -22.229058 0.280447 26.296342 -1.007270 1.560131 0.081720 -0.006863 68119.700000 0 0 1
13.282623 -22.313358 1.473847 26.009349 -1.033857 1.514100 0.063268 -0.003344 -97043.000000 0 0 1
12.377123 -23.559558 1.485547 26.654320 -1.087071 1.515034 0.077983 -0.011735 -183543.000000 0 0 1
12.963523 -24.764758 1.811547 28.011210 -1.088552 1.506079 0.080749 -0.014466 123429.000000 0 0 1
12.034323 -25.819458 1.547247 28.528290 -1.134639 1.516534 0.080577 -0.011759 300490.000000 0 0 1
12.399923 -27.164248 2.168047 29.939186 -1.142567 1.498318 0.084138 -0.012344 -138472.000000 0 0 1
12.400023 -27.225728 3.621047 30.134910 -1.143417 1.450344 0.083105 -0.015193 220120.000000 0 0 1
12.799623 -28.510528 4.141747 31.525143 -1.148821 1.439036 0.075956 -0.018676 40714.300000 0 0 1
12.709223 -28.483088 5.690747 31.704814 -1.151105 1.390327 0.089345 -0.021062 -1451.150000 0 0 1
12.928223 -29.718938 6.302547 33.016304 -1.160472 1.378726 0.070787 -0.020801 -236297.000000 0 0 1
12.967923 -29.637258 7.722747 33.259208 -1.158340 1.336459 0.083369 -0.022176 211092.000000 0 0 1
12.861423 -31.068478 8.300347 34.634698 -1.178305 1.328787 0.062383 -0.019598 137254.000000 0 0 1
12.580423 -31.224888 9.667347 35.024538 -1.187795 1.291149 0.065931 -0.013407 -358325.000000 0 0 1
11.860023 -32.374308 9.885247 35.867451 -1.219639 1.291577 0.068374 -0.009214 -168930.000000 0 0 1
11.539023 -32.552668 11.362547 36.358393 -1.230143 1.252957 0.080296 -0.013380 537075.000000 0 0 1
12.613423 -33.223948 12.072147 37.532198 -1.207956 1.243327 0.076170 -0.019899 574728.000000 0 0 1
12.430423 -33.451338 13.497547 38.153522 -1.215012 1.209198 0.086223 -0.017633 -173972.000000 0 0 1
11.253523 33.349588 13.944947 37.858927 1.245353 1.193574 0.098819 -0.018993 -31025.300000 0 0 1
11.518023 32.092229 13.445347 36.651785 1.226212 1.195186 0.114758 -0.024916 713444.000000 0 0 1
10.336923 31.267819 13.407847 35.556980 1.251514 1.184154 0.117390 -0.022271 465608.000000 0 0 1
10.562623 30.076269 12.447047 34.221045 1.233058 1.198533 0.129407 -0.016644 10702.500000 0 0 1
10.740223 30.276979 11.044847 33.971112 1.229912 1.239653 0.111623 -0.013345 -3372.950000 0 0 1
11.808823 31.100879 10.644347 34.928714 1.207917 1.261126 0.067134 -0.012364 -241716.000000 0 0 1
11.583323 31.556049 9.185247 34.847186 1.218995 1.304058 0.046582 -0.013576 636404.000000 0 0 1
10.304723 32.160781 8.953447 34.938050 1.260719 1.311639 0.071959 -0.013346 483903.000000 0 0 1
9.985523 32.237918 7.565147 34.586493 1.270424 1.350282 0.071697 -0.008354 41603.500000 0 0 1
10.340823 33.574078 6.860947 35.794188 1.272016 1.377925 0.058689 -0.004631 -254366.000000 0 0 1
9.482623 -33.041268 7.179947 35.116907 -1.291315 1.364886 0.066157 -0.009607 -18860.100000 0 0 1
9.728823 -31.928798 6.339847 33.974870 -1.275030 1.383092 0.073631 -0.013925 216621.000000 0 0 1
8.708223 -30.789968 6.674947 32.686545 -1.295168 1.365139 0.085455 -0.013631 341465.000000 0 0 1
8.817123 -30.217088 7.975947 32.471985 -1.286886 1.322631 0.097197 -0.019457 -274674.000000 0 0 1
8.242023 -28.917668 8.000947 31.115553 -1.293142 1.310738 0.118987 -0.019854 -423128.000000 0 0 1
9.049823 -27.704328 7.586147 30.116087 -1.255066 1.316157 0.112497 -0.024340 -925417.000000 0 0 1
9.950323 -27.276808 8.544147 30.266081 -1.221006 1.284604 0.112279 -0.030350 -699294.000000 0 0 1
10.721823 -26.152678 8.129847 29.411128 -1.181724 1.290729 0.101292 -0.034212 -45222.500000 0 0 1
10.095523 -24.884858 7.455747 27.870484 -1.185395 1.299984 0.106221 -0.033175 -900747.000000 0 0 1
9.844523 -25.169978 6.091147 27.704593 -1.197967 1.349125 0.097035 -0.025955 -260146.000000 0 0 1
8.877923 -24.379558 5.438747 26.509627 -1.221568 1.364168 0.091813 -0.016068 152540.000000 0 0 1
8.613223 -24.763658 3.989647 26.520627 -1.236068 1.419787 0.079566 -0.015259 637744.000000 0 0 1
7.774523 -25.940798 3.765347 27.341288 -1.279612 1.432641 0.071895 -0.018099 397241.000000 0 0 1
8.396523 -27.174078 3.976947 28.718430 -1.271112 1.431869 0.083503 -0.023048 974506.000000 0 0 1
7.331123 -28.280918 3.530847 29.428261 -1.317154 1.450525 0.077678 -0.020563 1679770.000000 0 0 1
6.117823 -28.357348 4.312147 29.328511 -1.358313 1.423232 0.072494 -0.021090 815564.000000 0 0 1
5.063323 -29.127108 3.747947 29.800550 -1.398681 1.444695 0.068485 -0.016063 480405.000000 0 0 1
5.092423 -30.704808 3.925247 31.370776 -1.406441 1.445343 0.078462 -0.012691 368050.000000 0 0 1
6.167323 -31.284958 3.167847 32.044028 -1.376158 1.471775 0.074288 -0.015473 334109.000000 0 0 1
6.431523 -32.602688 3.647247 33.430557 -1.376027 1.461480 0.071432 -0.007543 34044.200000 0 0 1
7.536923 -33.409808 2.955747 34.376691 -1.348920 1.484709 0.071520 -0.006538 197633.000000 0 0 1
7.185623 -33.603238 1.591147 34.399746 -1.360132 1.524525 0.069259 -0.007545 10646.100000 0 0 1
8.201423 33.253239 1.057947 34.266025 1.328987 1.539917 0.057369 -0.009232 -352299.000000 0 0 1
7.822523 32.694269 -0.340153 33.618786 1.335948 1.580914 0.071438 -0.010423 182636.000000 0 0 1
6.794323 31.731420 -0.441153 32.453666 1.359862 1.584390 0.055009 -0.004627 233982.000000 0 0 1
5.493323 32.327502 -0.324653 32.792520 1.402477 1.580697 0.050730 -0.007548 868878.000000 0 0 1
4.353323 31.282589 0.041647 31.584071 1.432523 1.569478 0.046142 -0.008435 777092.000000 0 0 1
4.021623 30.393949 -0.960953 30.673914 1.439244 1.602129 0.055447 -0.003672 -270192.000000 0 0 1
2.861723 29.649289 -0.662453 29.794440 1.474575 1.593032 0.060618 -0.017496 269698.000000 0 0 1
2.434023 28.620709 -1.766153 28.778268 1.485956 1.632206 0.049457 -0.013512 97932.700000 0 0 1
2.062223 29.238109 -3.010753 29.464969 1.500381 1.673156 0.057780 -0.017359 34342.100000 0 0 1
1.826323 28.309489 -4.064853 28.658082 1.506373 1.713116 0.071824 -0.025738 -230163.000000 0 0 1
1.756523 28.868749 -5.512453 29.442778 1.510026 1.759134 0.066345 -0.029805 -344806.000000 0 0 1
0.612923 29.620799 -5.764153 30.182658 1.550107 1.762952 0.080670 -0.025507 -502532.000000 0 0 1
0.707023 30.435729 -6.905053 31.217194 1.547570 1.793835 0.072428 -0.027831 -197226.000000 0 0 1
0.370223 29.870749 -8.295053 31.003332 1.558403 1.841649 0.083420 -0.039940 -253289.000000 0 0 1
-0.951077 29.397349 -8.463153 30.606104 -1.538455 1.850966 0.089807 -0.043162 84923.300000 0 0 1
-1.204977 28.949909 -9.844453 30.601674 -1.529198 1.898317 0.099289 -0.042301 215780.000000 0 0 1
-1.469977 30.005859 -10.981153 31.985905 -1.521846 1.921238 0.077842 -0.042166 513906.000000 0 0 1
-0.232277 30.586059 -11.433053 32.653876 -1.563202 1.928505 0.077545 -0.036287 759361.000000 0 0 1
-0.427677 31.898191 -11.821953 34.021112 -1.557390 1.925688 0.072271 -0.042163 -80266.900000 0 0 1
-0.661677 32.979449 -10.747853 34.692913 -1.550736 1.885779 0.067445 -0.041495 -692032.000000 0 0 1
0.482623 33.408193 -10.085153 34.900581 1.556351 1.863945 0.056796 -0.040069 -491723.000000 0 0 1
0.234223 -33.611818 -8.832453 34.753725 -1.563828 1.827759 0.052303 -0.029890 -136514.000000 0 0 1
1.522023 -33.324158 -8.029653 34.311680 -1.525155 1.807008 0.046893 -0.025993 1136970.000000 0 0 1
2.589523 -32.473058 -8.523353 33.672729 -1.491221 1.826704 0.053964 -0.019382 541881.000000 0 0 1
3.520223 -32.189698 -7.518253 33.242935 -1.461871 1.798931 0.051778 -0.015158 -1302830.000000 0 0 1
4.775623 -31.549818 -8.072153 32.914393 -1.420569 1.818571 0.051951 -0.011561 37850.800000 0 0 1
5.713823 -32.318158 -8.850753 33.991866 -1.395806 1.834211 0.068518 -0.015548 667824.000000 0 0 1
6.429223 -33.256248 -8.055553 34.816733 -1.379828 1.804282 0.078392 -0.001590 -1019510.000000 0 0 1
6.708823 33.093421 -8.790053 34.891945 1.370783 1.825462 0.072647 -0.012053 351022.000000 0 0 1
5.650623 32.154020 -9.049253 33.877714 1.396837 1.841195 0.058052 -0.015641 422544.000000 0 0 1
4.661623 32.527121 -10.030253 34.356226 1.428451 1.867060 0.064183 -0.020234 207781.000000 0 0 1
3.774423 31.301069 -10.220853 33.143159 1.450791 1.884291 0.051576 -0.032869 -356437.000000 0 0 1
4.406123 30.222279 -10.883953 32.423147 1.426026 1.913128 0.044323 -0.032399 -15801.800000 0 0 1
3.684923 29.010199 -10.750653 31.156810 1.444451 1.923088 0.038328 -0.034144 29448.500000 0 0 1
4.360723 27.885779 -11.565753 30.502446 1.415675 1.959700 0.051426 -0.038954 -254780.000000 0 0 1
4.253723 28.214139 -12.916953 31.320591 1.421158 1.995895 0.057754 -0.036980 801036.000000 0 0 1
5.524923 28.306969 -13.598453 31.886160 1.378041 2.011381 0.060050 -0.036776 767545.000000 0 0 1
5.319423 28.834349 -15.066653 32.965436 1.388365 2.045465 0.060400 -0.032394 564136.000000 0 0 1
4.400023 28.078259 -15.887653 32.560195 1.415355 2.080533 0.059147 -0.031731 427233.000000 0 0 1
4.176523 28.668939 -17.144553 33.664329 1.426133 2.105144 0.090288 -0.032581 365458.000000 0 0 1
3.237323 27.877119 -18.124453 33.408229 1.455186 2.144224 0.081727 -0.036097 250290.000000 0 0 1
3.784323 26.668109 -18.515053 32.685108 1.429833 2.173009 0.091773 -0.023550 -485181.000000 0 0 1
3.086523 26.135779 -19.585053 32.805180 1.453245 2.210566 0.107983 -0.033120 -273660.000000 0 0 1
3.678123 24.869889 -20.212253 32.257947 1.423966 2.247956 0.115878 -0.032548 46485.900000 0 0 1
3.725223 23.745509 -19.341353 30.851489 1.415184 2.248387 0.108400 -0.030610 25435.500000 0 0 1
4.699523 22.826259 -19.794153 30.576659 1.367751 2.274914 0.102745 -0.032937 333332.000000 0 0 1
5.100223 21.801389 -18.694853 29.168653 1.340989 2.266496 0.109150 -0.035559 -175455.000000 0 0 1
4.084523 20.855189 -18.592153 28.236331 1.377393 2.289551 0.134095 -0.036257 -390450.000000 0 0 1
4.549323 19.771289 -17.862553 27.030926 1.344635 2.292706 0.117720 -0.031930 -4875.690000 0 0 1
3.482423 18.661389 -17.707353 25.960066 1.386307 2.321426 0.100529 -0.040844 -52253.600000 0 0 1
2.637623 18.979689 -16.609553 25.358685 1.432710 2.284959 0.105773 -0.037096 55724.300000 0 0 1
1.778123 17.833489 -16.271853 24.206781 1.471418 2.307976 0.083858 -0.027630 632610.000000 0 1 0
2.402623 16.648989 -15.491753 22.868227 1.427475 2.315067 0.059841 -0.027388 -17968.300000 0 1 0
3.409623 15.836489 -16.099353 22.838762 1.358732 2.353098 0.076032 -0.033419 -388874.000000 0 1 0
3.062923 14.836489 -17.003153 22.773012 1.367211 2.413787 0.087337 -0.036067 -374336.000000 0 1 0
3.102123 15.144989 -18.477953 24.092086 1.368762 2.444905 0.076126 -0.036714 -692660.000000 0 1 0
4.380223 15.563689 -18.827753 24.817313 1.296454 2.432041 0.105177 -0.045046 -761174.000000 0 1 0
4.569023 15.956189 -20.197053 26.141860 1.291911 2.453714 0.101454 -0.044828 -471158.000000 0 0 1
4.744923 14.833189 -21.290153 26.378180 1.261197 2.510041 0.099135 -0.052545 69823.800000 0 0 1
3.665923 13.967289 -21.592553 25.976191 1.314121 2.552138 0.088104 -0.042496 -515079.000000 0 0 1
2.562223 14.556889 -22.201953 26.671983 1.396567 2.554234 0.090656 -0.044213 -457249.000000 0 0 1
1.580223 13.485289 -22.713553 26.462343 1.454147 2.602812 0.083692 -0.028943 221838.000000 0 0 1
0.700623 12.893589 -21.724953 25.272694 1.516511 2.605325 0.076891 -0.019702 762740.000000 0 0 1
-0.205077 12.004489 -22.387653 25.403874 -1.553715 2.649337 0.034359 -0.012494 167814.000000 0 0 1
-0.733477 10.910889 -21.445353 24.072570 -1.503673 2.670037 0.015497 -0.010105 -346053.000000 0 1 0
-1.710177 11.251189 -20.477153 23.427073 -1.419951 2.634337 0.020064 -0.010222 27071.600000 0 1 0
-1.941577 10.286689 -19.494853 22.127697 -1.384244 2.648802 0.003472 -0.004062 86573.300000 0 1 0
-2.912777 9.135489 -19.909053 22.097778 -1.262144 2.692756 -0.001675 -0.010519 -111792.000000 0 1 0
-2.452677 8.114689 -20.800953 22.462044 -1.277275 2.754602 0.004169 -0.005852 2756.500000 0 1 0
-3.502777 7.166789 -20.853053 22.326713 -1.116188 2.776234 0.013876 -0.007232 11595.900000 0 1 0
-3.046777 5.911489 -21.564253 22.566469 -1.094905 2.842446 0.018722 -0.022784 -615126.000000 0 1 0
-2.280477 5.033889 -20.802753 21.524292 -1.145430 2.881935 0.025275 -0.022632 -242153.000000 0 1 0
-2.167477 3.845889 -21.477253 21.926267 -1.057585 2.938868 0.042641 -0.028691 -746356.000000 0 1 0
-1.216777 2.841689 -20.822353 21.050561 -1.166228 2.994212 0.043173 -0.030966 83215.100000 0 1 0
0.151023 3.050689 -21.195853 21.414800 1.521332 2.998473 0.030821 -0.010061 181334.000000 0 1 0
0.926223 2.316889 -20.258453 20.411535 1.190488 3.019043 0.035639 -0.014623 1712450.000000 0 1 0
2.494623 2.591389 -20.449153 20.763099 0.804422 2.967474 0.027368 -0.013793 1587380.000000 0 1 0
3.073623 1.989289 -21.555453 21.864171 0.574414 2.973348 0.053668 -0.016070 259962.000000 0 1 0
4.494923 2.001689 -21.417753 21.975696 0.418957 2.915773 0.069442 -0.016873 389335.000000 0 1 0
5.186323 1.369689 -22.632053 23.259058 0.258201 2.908872 0.079206 -0.016795 1065990.000000 0 1 0
6.622623 1.295089 -22.429553 23.422665 0.193118 2.849351 0.078128 -0.026575 1074920.000000 0 1 0
7.252123 0.671689 -23.514453 24.616538 0.092356 2.841232 0.086653 -0.030006 112459.000000 0 1 0
8.790423 0.676489 -23.295353 24.907883 0.076806 2.779790 0.102339 -0.040608 62701.300000 0 1 0
9.347423 1.916589 -23.425053 25.293887 0.202236 2.754777 0.099273 -0.047823 -1225380.000000 0 0 1
10.713223 1.868189 -23.262853 25.679244 0.172646 2.704299 0.118060 -0.044691 -1074800.000000 0 0 1
13.569623 -19.961958 22.354585 32.898965 -0.973774 0.823726 0.120426 -0.020260 33297.700000 0 0 1
12.734823 -21.121558 22.281585 33.238005 -1.028225 0.836096 0.104804 -0.015149 700487.000000 0 0 1
11.447623 -21.064658 21.662185 32.311270 -1.072995 0.836019 0.080160 -0.003278 723201.000000 0 0 1
11.407623 -20.814758 20.163185 31.143893 -1.069448 0.866602 0.118582 -0.021611 -343478.000000 0 0 1
11.591623 -19.448758 19.775485 30.061433 -1.033317 0.852855 0.157924 -0.025074 -122626.000000 0 0 1
11.545223 -19.324158 18.389585 29.067028 -1.032254 0.885811 0.154185 -0.025042 107772.000000 0 0 1
11.608323 -17.775358 18.036185 27.857144 -0.992275 0.866559 0.187106 -0.047686 136049.000000 0 0 1
10.487223 -17.057458 18.502985 27.263514 -1.019553 0.824843 0.207769 -0.052548 -276379.000000 0 0 1
10.450723 -15.719358 18.082185 26.139649 -0.984065 0.806882 0.224664 -0.052519 -284226.000000 0 0 1
9.257023 -14.968458 18.642085 25.637366 -1.016932 0.756642 0.183630 -0.046088 -321452.000000 0 0 1
8.011823 -15.426758 18.190385 25.160769 -1.091792 0.762710 0.152121 -0.036608 -752406.000000 0 0 1
6.964723 -14.527858 18.412885 24.466311 -1.123760 0.718823 0.119084 -0.025498 -717207.000000 0 1 0
5.629423 -15.160558 18.108085 24.278296 -1.215256 0.728979 0.048080 -0.007778 -832319.000000 0 1 0
5.317023 -15.125258 16.716385 23.162075 -1.232757 0.764522 0.024768 -0.014275 -168731.000000 0 1 0
3.945723 -15.297458 16.448185 22.806222 -1.318365 0.765242 0.002584 -0.006161 -8973.050000 0 1 0
3.371223 -16.718058 16.373885 23.642393 -1.371813 0.805758 -0.004320 0.001661 1109400.000000 0 1 0
1.955723 -16.701158 16.075785 23.263370 -1.454226 0.807877 -0.005823 0.003117 661349.000000 0 1 0
1.309023 -17.917958 16.025885 24.074795 -1.497869 0.842404 0.014833 -0.004885 79045.500000 0 1 0
-0.154177 -17.830458 15.570985 23.672866 1.562150 0.852960 0.037398 -0.003623 -576396.000000 0 1 0
-0.185577 -17.463658 14.209485 22.514956 1.560170 0.887809 0.032137 -0.008417 414378.000000 0 1 0
-1.497577 -17.511458 13.660485 22.259891 1.485484 0.910081 0.036855 -0.007295 220251.000000 0 1 0
-1.868377 -18.877658 13.039185 23.019061 1.472145 0.968603 0.037604 0.010211 500780.000000 0 1 0
-3.279977 -18.982858 12.802085 23.130079 1.399699 0.984257 0.038744 -0.002380 699369.000000 0 1 0
-3.541477 -20.159658 12.095585 23.775135 1.396899 1.037065 0.059459 -0.008775 -721361.000000 0 1 0
-4.962577 -20.659058 12.063985 24.432838 1.335050 1.054387 0.047000 -0.007420 -604035.000000 0 1 0
-5.492377 -21.100058 13.320885 25.550433 1.316146 1.022356 0.039882 -0.007135 73606.500000 0 0 1
-6.894477 -21.247858 13.195485 25.944674 1.257036 1.037237 0.040848 -0.016460 -108689.000000 0 0 1
-7.528377 -21.931058 14.426885 27.309024 1.240125 1.014220 0.038706 -0.018084 -1265450.000000 0 0 1
-8.883477 -21.739158 14.502585 27.601307 1.182864 1.017575 0.041916 -0.024169 -1500810.000000 0 0 1
-9.469277 -22.580858 15.457685 28.956906 1.173721 1.007688 0.047161 -0.025634 -522414.000000 0 0 1
-10.972077 -22.365158 15.547385 29.365081 1.114707 1.012842 0.077830 -0.026707 -536469.000000 0 0 1
-11.153877 -21.017658 15.938385 28.638838 1.082899 0.980592 0.080097 -0.020570 -459626.000000 0 0 1
-12.452777 -20.496758 15.801185 28.720484 1.024845 0.988227 0.071942 -0.018828 -155686.000000 0 0 1
-12.677077 -19.175258 16.628685 28.370971 0.986646 0.944539 0.082856 -0.015180 -39834.800000 0 0 1
-12.720677 -19.386658 18.025485 29.369649 0.990105 0.910000 0.093521 -0.023614 -137619.000000 0 0 1
-13.157277 -18.235658 18.702885 29.248095 0.945777 0.877005 0.098664 -0.028254 -35261.000000 0 0 1
-13.740777 -18.675558 20.062485 30.660867 0.936470 0.857493 0.103700 -0.035167 -28014.800000 0 0 1
-15.017177 -19.261458 19.960185 31.542485 0.908588 0.885628 0.098055 -0.027455 -192263.000000 0 0 1
-15.340977 -19.923858 21.153685 32.860069 0.914630 0.871407 0.106702 -0.027515 551812.000000 0 0 1
-16.728177 -20.651958 21.064685 33.912479 0.889985 0.900589 0.110296 -0.029264 -391185.000000 0 0 1
-16.872677 -21.659558 20.075485 34.012480 0.908995 0.939442 0.124087 -0.032969 1269870.000000 0 0 1
-18.212177 -21.741758 19.533185 34.437375 0.873511 0.967683 0.103685 -0.029815 1459400.000000 0 0 1
-19.406477 -22.127858 20.449685 35.839128 0.850826 0.963564 0.107706 -0.032608 -546862.000000 0 0 1
-19.892077 -21.110058 21.320185 35.998328 0.815095 0.936942 0.114608 -0.029415 951858.000000 0 0 1
-20.914277 -21.737558 22.169285 37.435353 0.804698 0.937008 0.076804 -0.023916 498663.000000 0 0 1
-21.573977 -20.849458 23.171595 37.908564 0.768322 0.913158 0.076808 -0.007825 -396942.000000 0 0 1
-22.476677 -20.009758 22.489385 37.568123 0.727400 0.929007 0.078035 -0.008960 -142909.000000 0 0 1
-22.876177 -18.982358 23.348025 37.799202 0.692642 0.905000 0.080747 -0.006991 -445402.000000 0 0 1
-23.748577 -18.033558 22.615685 37.425571 0.649460 0.921929 0.090406 -0.003524 -114351.000000 0 0 1
-23.013677 -17.376358 21.554085 36.002024 0.646722 0.928931 0.097835 -0.000946 158836.000000 0 0 1
-23.878777 -16.673858 20.679885 35.719339 0.609565 0.953350 0.102992 -0.016387 -35307.700000 0 0 1
-23.244477 -15.992658 19.462185 34.276048 0.602640 0.966957 0.115683 -0.012847 725956.000000 0 0 1
-22.377677 -14.836158 19.708185 33.305924 0.585452 0.937590 0.118316 -0.009129 354922.000000 0 0 1
-21.575777 -14.567458 18.602385 31.996464 0.593871 0.950362 0.120253 -0.020403 -195269.000000 0 0 1
-20.836977 -13.197858 18.612385 30.899579 0.564607 0.924353 0.107921 -0.019977 14217.500000 0 0 1
-20.031877 -13.355758 17.469685 29.746299 0.588043 0.943091 0.114669 -0.023403 -365412.000000 0 0 1
-19.337877 -12.198258 17.092485 28.546524 0.562756 0.928846 0.103648 -0.030033 -503177.000000 0 0 1
-18.577077 -12.416758 15.749085 27.337106 0.589196 0.956839 0.077379 -0.030350 58333.700000 0 0 1
-18.122477 -11.153358 15.208285 26.155564 0.551698 0.950280 0.077680 -0.027542 703592.000000 0 0 1
-16.941777 -10.604058 15.803285 25.479672 0.559255 0.901759 0.081331 -0.032850 -182884.000000 0 0 1
-16.414677 -9.300258 15.221885 24.241333 0.515485 0.891904 0.080273 -0.032980 -276839.000000 0 1 0
-17.256077 -8.205158 15.399685 24.540724 0.443851 0.892438 0.104814 -0.035992 -79959.700000 0 1 0
-16.795877 -7.079758 14.678885 23.402866 0.398917 0.892810 0.092574 -0.038869 -739596.000000 0 1 0
-16.803477 -5.798458 15.610185 23.657068 0.332280 0.850173 0.104406 -0.032526 477642.000000 0 1 0
-15.899577 -5.808958 16.710685 23.786289 0.350286 0.791844 0.078744 -0.022649 -95132.400000 0 1 0
-14.546377 -6.055058 16.456485 22.783256 0.394444 0.763665 0.063779 -0.015042 -705640.000000 0 1 0
-13.555477 -6.026658 17.663885 23.066955 0.418348 0.698565 0.045489 -0.009806 290895.000000 0 1 0
-13.604977 -7.101758 18.549285 24.075015 0.481090 0.691205 0.038081 -0.019402 57361.200000 0 1 0
-13.171677 -8.350358 17.970185 23.793888 0.565019 0.714770 0.030036 -0.016728 -703682.000000 0 1 0
-13.390177 -9.588958 18.867685 25.044650 0.621462 0.717637 0.056230 -0.021489 641028.000000 0 0 1
-14.756977 -9.954158 19.081085 26.094855 0.593433 0.750687 0.071243 -0.023668 557815.000000 0 0 1
-15.437377 -9.140158 20.031285 26.890658 0.534575 0.730387 0.063579 -0.024953 153431.000000 0 0 1
-16.841577 -9.760358 20.428985 28.217845 0.525239 0.761250 0.079828 -0.022780 1602840.000000 0 0 1
-17.981677 -9.747458 19.573885 28.310610 0.496740 0.807375 0.099910 -0.029777 724481.000000 0 0 1
-18.400777 -8.478158 19.081285 27.830976 0.431758 0.815351 0.104212 -0.031689 -823125.000000 0 0 1
-19.492177 -8.591358 18.047985 27.919280 0.415143 0.867894 0.125476 -0.037971 -522048.000000 0 0 1
-20.798477 -8.919858 18.421085 29.180077 0.405145 0.887581 0.129083 -0.045321 -557056.000000 0 0 1
-21.638577 -8.955458 17.324485 29.130157 0.392402 0.933871 0.138783 -0.033542 -258554.000000 0 0 1
-23.094677 -9.341058 17.648085 30.529894 0.384352 0.954448 0.127455 -0.025833 165209.000000 0 0 1
-23.823177 -8.341858 18.385285 31.227377 0.336815 0.941278 0.131758 -0.022298 548172.000000 0 0 1
-25.209547 -8.654758 18.357085 32.363694 0.330705 0.967679 0.136141 -0.024444 239461.000000 0 0 1
-26.017397 -7.437458 18.927285 33.022157 0.278439 0.960428 0.128809 -0.017601 -183997.000000 0 0 1
-26.031657 -7.279358 20.331285 33.823031 0.272670 0.925910 0.123257 -0.024743 673464.000000 0 0 1
-26.950807 -6.306058 20.894085 34.679608 0.229849 0.924180 0.113204 -0.024814 -63827.200000 0 0 1
-27.093917 -6.273058 22.449785 35.741075 0.227521 0.891658 0.111153 -0.030831 1544010.000000 0 0 1
-25.874907 -5.930558 23.193285 35.250686 0.225310 0.852699 0.115289 -0.035878 2564660.000000 0 0 1
-24.741677 -6.869158 23.206705 34.610506 0.270814 0.835900 0.118593 -0.034771 766791.000000 0 0 1
-23.746477 -6.621258 24.327475 34.634698 0.271925 0.792030 0.112879 -0.028174 -206612.000000 0 0 1
-23.190677 -5.302758 24.266765 33.982387 0.224794 0.775461 0.099496 -0.030407 725043.000000 0 0 1
-22.165977 -5.137858 25.266395 34.001748 0.227768 0.733119 0.091258 -0.023444 383394.000000 0 0 1
-21.610377 -3.710458 25.183895 33.391683 0.170040 0.716366 0.083975 -0.021717 -1188150.000000 0 0 1
-20.475677 -3.418358 25.896435 33.189816 0.165422 0.675727 0.079035 -0.021683 -1042650.000000 0 0 1
-20.540877 -3.156458 27.292045 34.303740 0.152474 0.650800 0.075858 -0.026738 -265250.000000 0 0 1
-21.431977 -1.962658 27.746345 35.114689 0.091321 0.659721 0.068782 -0.028837 334002.000000 0 0 1
-22.779077 -2.142658 27.376365 35.678323 0.093787 0.696159 0.072161 -0.030654 -549586.000000 0 0 1
-23.628577 -1.171858 27.912445 36.589446 0.049554 0.703079 0.066384 -0.019786 880848.000000 0 0 1
-25.037767 -1.022358 27.237335 37.010910 0.040810 0.743761 0.067091 -0.022570 367889.000000 0 0 1
-24.891577 -0.446558 25.940425 35.954078 0.017938 0.764848 0.062633 -0.020624 556108.000000 0 0 1
-26.116237 0.045142 25.390545 36.424438 -0.001729 0.799487 0.093375 -0.032538 1213070.000000 0 0 1
-27.181917 -1.055658 24.900975 36.878579 0.038817 0.829540 0.086318 -0.030225 398480.000000 0 0 1
-27.984927 -1.641658 25.912065 38.174420 0.058595 0.824695 0.072203 -0.026033 129223.000000 0 0 1
-28.561617 -2.894558 25.626435 38.481926 0.100999 0.842051 0.064298 -0.030048 38215.700000 0 0 1
-27.619017 -4.132358 25.598915 37.883914 0.148518 0.828855 0.073024 -0.028146 -11689.700000 0 0 1
-27.086327 -4.371058 26.874495 38.405908 0.159996 0.795750 0.047997 -0.021907 -562770.000000 0 0 1
-26.157367 -5.395358 26.795845 37.832989 0.203413 0.783756 0.069278 -0.026612 -537755.000000 0 0 1
-25.784787 -5.956058 28.163415 38.645929 0.227010 0.754294 0.033717 -0.021945 -664252.000000 0 0 1
-26.862117 -6.416758 28.893365 39.969672 0.234483 0.762832 0.056065 -0.019752 -690614.000000 0 0 1
-26.444877 -6.957858 30.107615 40.672003 0.257277 0.737348 0.047909 -0.022022 -520796.000000 0 0 1
-27.603877 -7.139558 31.110315 42.199515 0.253097 0.741850 0.057181 -0.018574 -97724.000000 0 0 1
-28.505607 -8.070458 30.538565 42.547690 0.275898 0.770232 0.053774 -0.021310 69164.500000 0 0 1
-29.620097 -8.315958 31.393535 43.955197 0.273708 0.775292 0.068502 -0.020738 442339.000000 0 0 1
-30.748597 -9.112058 30.656015 44.365495 0.288096 0.807942 0.062613 -0.020263 -63165.600000 0 0 1
-30.485067 -10.469858 30.272725 44.219850 0.330821 0.816747 0.058698 -0.022860 314536.000000 0 0 1
-31.535707 -11.102458 29.524635 44.603470 0.338509 0.847398 0.060967 -0.024196 40148.200000 0 0 1
-31.118357 -12.366258 28.755595 44.137974 0.378258 0.861245 0.059886 -0.027132 -262208.000000 0 0 1
-30.272107 -12.102358 27.674655 42.763935 0.380322 0.866957 0.072923 -0.027381 -202019.000000 0 0 1
-29.405627 -13.190858 27.381965 42.290208 0.421675 0.866526 0.069597 -0.029321 18705.300000 0 0 1
-28.204497 -12.665558 26.547635 40.751527 0.422073 0.861301 0.079340 -0.029054 -11843.100000 0 0 1
-27.169597 -12.025358 27.314335 40.359251 0.416686 0.827416 0.071979 -0.029972 477682.000000 0 0 1
-27.410407 -10.659158 27.790085 40.462784 0.370877 0.813711 0.067275 -0.031855 -560169.000000 0 0 1
-27.310747 -9.571058 26.666395 39.351985 0.337076 0.826251 0.070685 -0.029693 1170330.000000 0 0 1
-26.000727 -9.351658 26.058015 37.980409 0.345263 0.814694 0.069918 -0.026646 1323230.000000 0 0 1
-25.565977 -10.272158 25.042855 37.232795 0.382049 0.833077 0.068373 -0.027193 -336084.000000 0 0 1
-26.327627 -10.235058 23.730935 36.892515 0.370777 0.872067 0.089289 -0.025454 -465467.000000 0 0 1
-27.628277 -10.779758 23.839465 38.050558 0.372005 0.893715 0.083806 -0.023628 -485783.000000 0 0 1
-28.253857 -10.953658 22.623485 37.816467 0.369847 0.929488 0.106710 -0.024288 -265962.000000 0 0 1
-29.534227 -11.819558 22.769345 39.120527 0.380678 0.949573 0.098397 -0.029959 828237.000000 0 0 1
-30.734507 -11.292258 23.339875 40.210382 0.352103 0.951522 0.089140 -0.027676 582114.000000 0 0 1
-30.571517 -10.937058 24.688365 40.789120 0.343565 0.920693 0.083376 -0.025063 -202064.000000 0 0 1
-31.977527 -10.545058 25.297775 42.115768 0.318535 0.926455 0.064209 -0.026194 329590.000000 0 0 1
-32.487367 -9.286058 24.867415 41.952929 0.278412 0.936333 0.070704 -0.026828 223140.000000 0 0 1
-33.863747 -9.085958 25.174505 43.163222 0.262135 0.948085 0.066677 -0.020130 464287.000000 0 0 1
-34.308884 -9.079258 26.625635 44.367296 0.258703 0.927147 0.064803 -0.023937 -832195.000000 0 0 1
-34.521879 -10.407858 27.173485 45.149551 0.292819 0.924974 0.057348 -0.034417 -77435.200000 0 0 1
-35.018823 -10.340158 28.471015 46.301572 0.287116 0.908532 0.074110 -0.032957 -881295.000000 0 0 1
-35.598788 -11.601358 29.069335 47.401387 0.315038 0.910616 0.065344 -0.027913 1463860.000000 0 0 1
-36.891107 -12.183058 28.686135 48.293634 0.318967 0.934782 0.044023 -0.030564 2154120.000000 0 0 1
37.137434 -11.369558 29.074655 48.515888 -0.297088 0.928194 0.057478 -0.025648 504056.000000 0 0 1
35.768454 -11.828458 28.501405 47.240076 -0.319374 0.923125 0.049362 -0.027445 365729.000000 0 0 1
35.635624 -11.659558 27.132065 46.281659 -0.316210 0.944389 0.048313 -0.022444 225554.000000 0 0 1
34.390024 -12.164458 26.644825 45.172940 -0.339985 0.939935 0.068390 -0.017942 257865.000000 0 0 1
34.156984 -11.724858 25.235445 44.056776 -0.330661 0.960886 0.061298 -0.019139 -86307.700000 0 0 1
33.858734 -10.372358 25.034815 43.367518 -0.297265 0.955414 0.070949 -0.028229 22106.300000 0 0 1
33.827384 -9.950758 23.663635 42.465011 -0.286093 0.979726 0.068542 -0.015776 -330238.000000 0 0 1
33.245614 -8.543558 23.373915 41.528341 -0.251540 0.972976 0.070915 0.003465 301368.000000 0 0 1
31.856924 -8.384058 23.581595 40.512315 -0.257343 0.949506 0.089524 -0.003806 -289096.000000 0 0 1
31.430554 -7.119458 23.176025 39.695019 -0.222755 0.947331 0.100700 0.008929 440216.000000 0 0 1
29.925064 -6.773758 22.992025 38.340924 -0.222606 0.927704 0.110470 0.013291 305389.000000 0 0 1
29.326664 -7.559358 22.026085 37.447904 -0.252272 0.941991 0.107841 0.018218 -22236.000000 0 0 1
27.958164 -7.892958 22.135485 36.523108 -0.275152 0.919689 0.097391 0.001048 121071.000000 0 0 1
15.449423 -17.362258 25.178435 34.264942 -0.843630 0.745401 0.120430 -0.013964 -180061.000000 0 0 1
14.852923 -18.586458 25.372975 34.782950 -0.896589 0.753256 0.119047 -0.016877 291265.000000 0 0 1
15.792723 -19.655758 25.461475 35.833583 -0.893946 0.780520 0.103742 -0.014822 -349317.000000 0 0 1
14.960523 -20.911658 25.409545 36.149131 -0.949799 0.791317 0.093833 -0.018964 558499.000000 0 0 1
14.063523 -21.278258 26.465875 36.755809 -0.986773 0.766928 0.087198 -0.022040 140641.000000 0 0 1
12.865223 -20.568758 26.534765 35.953881 -1.011856 0.740662 0.093874 -0.023894 -566438.000000 0 0 1
12.005723 -20.986558 27.775445 36.824562 -1.051169 0.716264 0.080730 -0.015279 171730.000000 0 0 1
12.579323 -20.549458 28.968765 37.679025 -1.021492 0.693787 0.074708 -0.024400 9174.570000 0 0 1
11.839723 -19.496958 29.579645 37.353257 -1.025056 0.656900 0.071262 -0.021536 94923.300000 0 0 1
11.969323 -18.027358 28.985505 36.171948 -0.984675 0.641289 0.093296 -0.017201 8097.340000 0 0 1
13.167323 -17.339158 29.234815 36.451327 -0.921308 0.640121 0.080916 -0.002025 -525865.000000 0 0 1
13.405023 -16.179958 28.450235 35.368087 -0.878920 0.636125 0.103238 0.001113 248184.000000 0 0 1
14.106723 -15.017258 29.215075 35.749662 -0.816652 0.614238 0.088737 0.001875 201974.000000 0 0 1
13.613623 -13.699758 28.930635 34.784993 -0.788552 0.588636 0.129122 -0.004444 -321220.000000 0 0 1
14.182323 -12.679458 29.692195 35.263769 -0.729508 0.569811 0.114919 0.002332 -249290.000000 0 0 1
13.649023 -11.227558 29.472455 34.365382 -0.688365 0.540172 0.118477 -0.000574 57757.500000 0 0 1
13.870223 -10.700658 28.208235 33.205296 -0.657110 0.555740 0.149596 -0.009506 958137.000000 0 0 1
15.244223 -10.465458 27.827745 33.411009 -0.601621 0.586484 0.146679 -0.008482 744699.000000 0 0 1
15.353923 -9.709158 26.433445 32.073942 -0.563872 0.602113 0.141860 -0.009805 197503.000000 0 0 1
15.756123 -8.343158 26.331325 31.799409 -0.486983 0.595186 0.141976 -0.010397 410082.000000 0 0 1
17.135523 -8.121458 26.607245 32.673073 -0.442595 0.619192 0.128776 -0.020231 -160828.000000 0 0 1
17.524523 -6.628258 26.679315 32.601052 -0.361597 0.612249 0.112859 -0.015569 -388143.000000 0 0 1
18.898223 -6.538658 26.952375 33.560802 -0.333101 0.638332 0.089118 -0.023945 -431447.000000 0 0 1
19.315323 -5.183258 26.741105 33.392133 -0.262173 0.642132 0.092754 -0.022681 -82023.300000 0 0 1
20.852523 -5.079058 26.888165 34.403459 -0.238918 0.673643 0.093977 -0.020333 -18607.000000 0 0 1
21.522623 -6.051858 26.022265 34.307529 -0.274108 0.709788 0.091655 -0.010081 -252522.000000 0 0 1
22.848623 -5.845458 25.674525 34.862734 -0.250462 0.742994 0.084420 -0.009765 214958.000000 0 0 1
23.969623 -5.956258 26.774465 36.426526 -0.243559 0.745090 0.085970 -0.016120 -64618.500000 0 0 1
23.989023 -4.862958 27.639975 36.920046 -0.200006 0.724782 0.091206 -0.019162 -484229.000000 0 0 1
24.946723 -4.980258 28.630015 38.299083 -0.197045 0.726449 0.092198 -0.030187 -570567.000000 0 0 1
25.631923 -3.698758 29.072635 38.934489 -0.143314 0.727700 0.099419 -0.038575 233293.000000 0 0 1
26.455923 -3.070758 28.047955 38.678588 -0.115554 0.759537 0.091650 -0.031701 547416.000000 0 0 1
26.607023 -1.664058 28.194675 38.802609 -0.062461 0.757410 0.087544 -0.039350 -380292.000000 0 0 1
27.544923 -0.990958 27.138075 38.680485 -0.035961 0.793161 0.095599 -0.037818 -275641.000000 0 0 1
28.883223 -1.068758 27.541265 39.923729 -0.036986 0.809519 0.089618 -0.035871 -709400.000000 0 0 1
29.690623 -0.492358 26.539105 39.825866 -0.016581 0.841455 0.090622 -0.021783 -406082.000000 0 0 1
31.175723 -0.435558 26.884325 41.168949 -0.013970 0.859225 0.077274 -0.025174 -405638.000000 0 0 1
31.502923 0.470242 27.929855 42.103825 0.014926 0.845501 0.057841 -0.016884 60854.900000 0 0 1
32.880723 0.337642 28.235685 43.341780 0.010268 0.861281 0.066004 -0.024208 218341.000000 0 0 1
33.362923 1.378242 29.270975 44.404664 0.041287 0.851059 0.090767 -0.028359 -99504.700000 0 0 1
33.606223 2.631942 28.651745 44.240568 0.078158 0.866320 0.083506 -0.014063 183865.000000 0 0 1
33.942423 3.581842 29.669675 45.223968 0.105138 0.855209 0.080648 -0.009399 -26343.300000 0 0 1
34.264123 4.921142 29.038205 45.182575 0.142648 0.872797 0.083776 -0.003580 -123757.000000 0 0 1
34.537523 6.004942 29.967695 46.119005 0.172146 0.863487 0.082115 -0.000311 72280.900000 0 0 1
33.381423 6.492242 30.594815 45.743976 0.192089 0.838166 0.070324 0.002515 -221515.000000 0 0 1
33.643623 7.119642 31.993421 46.969795 0.208543 0.821466 0.073881 -0.002245 -112442.000000 0 0 1
33.997623 6.183842 32.982974 47.769811 0.179923 0.808676 0.058690 0.003893 259007.000000 0 0 1
34.175123 6.929342 -33.542533 48.384463 0.200048 2.336785 0.058423 -0.005628 -423921.000000 0 0 1
34.492823 6.078042 -32.279033 47.630173 0.174421 2.315428 0.075455 -0.001670 263320.000000 0 0 1
33.465423 5.230342 -31.720093 46.405337 0.155037 2.323403 0.055177 0.006298 625821.000000 0 0 1
33.161123 4.036942 -32.440513 46.565479 0.121141 2.341534 0.077308 -0.008608 80433.600000 0 0 1
33.609023 2.828242 -31.566633 46.195429 0.083953 2.323108 0.080599 -0.020645 23217.600000 0 0 1
33.665123 1.579142 -32.228363 46.631551 0.046873 2.333845 0.083085 -0.023766 70853.400000 0 0 1
33.786823 0.570342 -31.205573 45.996331 0.016879 2.316428 0.069493 -0.028086 -36928.500000 0 0 1
34.144423 -0.815758 -31.755033 46.635707 -0.023887 2.319810 0.070557 -0.048917 -607526.000000 0 0 1
35.404423 -0.942658 -32.402793 48.003153 -0.026619 2.311780 0.087451 -0.039066 330710.000000 0 0 1
36.161823 -2.064458 -31.969563 48.311410 -0.057028 2.293933 0.099595 -0.034201 311969.000000 0 0 1
36.918923 -1.925458 -30.659503 48.028318 -0.052106 2.263166 0.104771 -0.031339 -611057.000000 0 0 1
36.040723 -2.094758 -29.581553 46.673225 -0.058057 2.257254 0.098243 -0.028918 -62160.500000 0 0 1
36.729123 -1.779558 -28.418583 46.473768 -0.048413 2.228748 0.125043 -0.032297 135593.000000 0 0 1
35.791223 -1.325158 -27.261173 45.010434 -0.037008 2.221396 0.129590 -0.031841 -12732.900000 0 0 1
35.116523 -0.064558 -27.395353 44.538519 -0.001838 2.233301 0.115159 -0.024914 839052.000000 0 0 1
34.238323 0.099242 -26.255643 43.146626 0.002899 2.224992 0.103467 -0.025610 497480.000000 0 0 1
33.602523 1.540342 -26.126073 42.591946 0.045808 2.231160 0.072680 -0.019546 98881.800000 0 0 1
32.696723 1.832842 -27.151033 42.539553 0.055997 2.263024 0.096122 -0.037244 53305.700000 0 0 1
31.986723 3.025642 -26.891643 41.898274 0.094310 2.267681 0.077119 -0.015477 412212.000000 0 0 1
31.048323 3.552542 -28.044283 41.989293 0.113924 2.302168 0.100528 -0.013855 -18049.500000 0 0 1
30.292923 4.661042 -27.694083 41.307974 0.152668 2.305584 0.075058 -0.009287 -106251.000000 0 0 1
29.693123 5.267742 -28.841103 41.728166 0.175579 2.333898 0.070065 -0.015893 -442633.000000 0 0 1
28.615623 6.257042 -28.421133 40.813787 0.215270 2.341111 0.072532 -0.013489 -587112.000000 0 0 1
27.493323 5.573242 -27.904783 39.567925 0.200002 2.353554 0.096873 -0.016486 100602.000000 0 0 1
26.600823 6.415142 -27.235033 38.607057 0.236645 2.353843 0.114831 -0.019153 741814.000000 0 0 1
25.128623 5.868842 -27.030023 37.369949 0.229439 2.379379 0.129084 -0.012854 1107340.000000 0 0 1
24.421923 5.711442 -28.272543 37.794015 0.229736 2.415944 0.137089 -0.014189 303247.000000 0 0 1
23.226423 5.000842 -28.078913 36.781795 0.212071 2.439344 0.135480 -0.009337 -156777.000000 0 0 1
22.363923 4.639142 -29.281573 37.135928 0.204538 2.479158 0.114908 -0.006612 307988.000000 0 0 1
22.911723 3.503542 -29.998513 37.909532 0.151739 2.483759 0.090260 -0.010050 931420.000000 0 0 1
22.059123 3.154642 -31.136163 38.288605 0.142045 2.520420 0.062584 -0.013726 614581.000000 0 0 1
22.137723 4.024642 -32.428203 39.469797 0.179836 2.535000 0.099045 -0.010509 719667.000000 0 0 1
23.441423 3.838442 -32.990303 40.652109 0.162306 2.517558 0.086242 -0.014748 672556.000000 0 0 1
23.359323 3.999842 33.425542 40.974670 0.169586 0.616752 0.102595 -0.020438 -392779.000000 0 0 1
24.681323 3.708642 32.733334 41.163004 0.149145 0.651438 0.085882 -0.008476 -338515.000000 0 0 1
25.145123 2.405242 32.870239 41.454976 0.095364 0.655219 0.098156 -0.024403 -64115.500000 0 0 1
26.461023 2.189442 32.409438 41.896910 0.082554 0.686369 0.081135 -0.024206 -337905.000000 0 0 1
26.776023 0.646442 32.221406 41.899789 0.024138 0.693503 0.067083 -0.028880 -157522.000000 0 0 1
26.163223 -0.079458 31.124175 40.659991 -0.003037 0.699018 0.072996 -0.027835 1400400.000000 0 0 1
24.742823 -0.168258 30.917615 39.599678 -0.006800 0.674924 0.096374 -0.038870 1148110.000000 0 0 1
23.853723 -1.085358 31.818632 39.781949 -0.045469 0.643791 0.094220 -0.041107 127223.000000 0 0 1
23.850023 -2.489658 31.473425 39.567645 -0.104011 0.651074 0.099297 -0.050148 872912.000000 0 0 1
22.877223 -3.275758 32.232233 39.661250 -0.142222 0.622045 0.104410 -0.037082 593223.000000 0 0 1
22.945323 -4.747258 31.758870 39.467077 -0.204016 0.635639 0.102883 -0.039436 -85621.300000 0 0 1
24.165723 -5.339058 32.134096 40.559683 -0.217442 0.656281 0.102936 -0.028428 -146647.000000 0 0 1
24.101823 -6.786058 31.966617 40.605579 -0.274453 0.664465 0.095756 -0.025660 -206486.000000 0 0 1
25.429423 -7.579558 31.831052 41.440574 -0.289678 0.694907 0.095484 -0.029195 -46542.500000 0 0 1
26.186623 -7.153058 30.755245 41.021830 -0.266652 0.723144 0.093208 -0.028244 -65984.100000 0 0 1
27.322623 -8.004458 30.546795 41.757679 -0.284986 0.750240 0.085717 -0.028635 693558.000000 0 0 1
27.900223 -7.825558 29.082525 41.054294 -0.273457 0.783579 0.086805 -0.029845 540152.000000 0 0 1
27.138323 -8.487958 28.064265 39.951683 -0.303128 0.791955 0.081501 -0.025863 121822.000000 0 0 1
27.585023 -8.021258 26.776695 39.271688 -0.282980 0.820532 0.095344 -0.018597 283054.000000 0 0 1
26.992723 -8.922158 25.636805 38.281298 -0.319234 0.836998 0.079724 -0.024269 -390814.000000 0 0 1
25.647623 -8.630058 25.446705 37.145838 -0.324585 0.816126 0.072954 -0.028606 -1022010.000000 0 0 1
25.176123 -9.493858 24.450075 36.356247 -0.360608 0.833196 0.073186 -0.029020 539801.000000 0 0 1
23.744623 -9.236258 23.882935 34.921486 -0.370973 0.817696 0.080117 -0.016161 329623.000000 0 0 1
22.701723 -9.463058 24.784935 34.917198 -0.394941 0.781553 0.071044 -0.015049 -559883.000000 0 0 1
21.486423 -9.213758 24.141045 33.605800 -0.405100 0.769355 0.080006 -0.013153 492699.000000 0 0 1
20.204923 -8.949658 25.017775 33.380000 -0.416971 0.723514 0.086269 -0.006508 475795.000000 0 0 1
19.570523 -10.084258 25.681815 33.826813 -0.475795 0.708691 0.107497 -0.012191 267673.000000 0 0 1
20.226823 -10.658158 26.797275 35.225199 -0.484960 0.706341 0.079272 -0.013681 -288500.000000 0 0 1
19.314223 -11.648558 27.539605 35.597162 -0.542701 0.686221 0.093147 -0.014835 -3655.770000 0 0 1
18.835023 -12.715558 26.709525 35.069107 -0.593820 0.704978 0.113435 -0.017690 440011.000000 0 0 1
17.965023 -13.518858 27.492495 35.515333 -0.645106 0.685501 0.100608 -0.009199 -4829.550000 0 0 1
18.659123 -14.798858 27.860445 36.652060 -0.670530 0.707278 0.102177 0.001964 -420463.000000 0 0 1
17.757223 -15.685858 28.471315 37.040261 -0.723540 0.694055 0.086197 0.001121 320632.000000 0 0 1
18.359123 -16.927458 28.868085 38.170179 -0.744848 0.713158 0.086080 0.000403 -10724.900000 0 0 1
18.859023 -17.896258 27.755935 38.030655 -0.759210 0.752722 0.093335 -0.010051 773153.000000 0 0 1
20.122623 -17.506658 27.181215 38.081774 -0.715990 0.775945 0.093206 -0.011322 971619.000000 0 0 1
20.530223 -18.495658 26.244605 38.109825 -0.733312 0.811161 0.087696 -0.005356 -311618.000000 0 0 1
21.756023 -18.147358 25.410475 38.057107 -0.695208 0.839690 0.079356 -0.016186 -72472.000000 0 0 1
23.012223 -18.206058 26.062285 39.246218 -0.669320 0.844545 0.075819 -0.017946 -31727.100000 0 0 1
23.960523 -17.456158 25.360175 39.012339 -0.629624 0.863139 0.070382 -0.018747 -502811.000000 0 0 1
25.106323 -16.936958 26.323355 40.126139 -0.593481 0.855269 0.073711 -0.017662 755792.000000 0 0 1
25.997123 -17.962958 26.755115 41.404764 -0.604633 0.868222 0.075807 -0.016063 -83316.000000 0 0 1
26.951623 -18.321058 25.801535 41.566457 -0.597023 0.901123 0.071774 -0.021090 -957114.000000 0 0 1
27.602723 -19.689658 26.128625 42.805350 -0.619612 0.914224 0.060066 -0.018444 -304547.000000 0 0 1
28.486623 -19.606158 27.191345 43.991572 -0.602802 0.904468 0.063402 -0.016822 -77542.800000 0 0 1
29.088423 -20.882358 27.599095 45.209726 -0.622634 0.914145 0.051878 -0.009131 344666.000000 0 0 1
28.167023 -21.940958 28.312035 45.567073 -0.661779 0.900362 0.055621 0.003743 204231.000000 0 0 1
28.036423 -21.789158 29.678495 46.277657 -0.660666 0.874587 0.068883 -0.002151 -101624.000000 0 0 1
27.196123 -22.780358 30.225335 46.606273 -0.697270 0.865151 0.094083 -0.012492 -170578.000000 0 0 1
27.188323 -22.839858 31.810742 47.673759 -0.698696 0.840274 0.090904 -0.010601 239735.000000 0 0 1
26.613723 -23.954558 32.567157 48.401765 -0.732861 0.832741 0.095652 -0.012646 217397.000000 0 0 1
26.512423 -23.774358 -33.784803 49.087081 -0.731003 2.329888 0.127746 -0.017579 -226083.000000 0 0 1
25.899423 -25.076048 -33.091153 48.934780 -0.769247 2.313429 0.103157 -0.019731 65619.900000 0 0 1
24.571423 -25.472978 -33.227083 48.545509 -0.803411 2.324648 0.130201 -0.025489 -570226.000000 0 0 1
24.179323 -25.872598 33.219037 48.554458 -0.819216 0.817344 0.117343 -0.029998 -460907.000000 0 0 1
22.824523 -26.583808 33.179229 48.254730 -0.861338 0.812638 0.146396 -0.037685 -147441.000000 0 0 1
22.786723 -27.943508 33.543859 49.246978 -0.886701 0.821484 0.140410 -0.032899 -256159.000000 0 0 1
21.445623 -28.355728 33.562578 48.891806 -0.923271 0.814178 0.149855 -0.033957 -166952.000000 0 0 1
21.330423 -29.922838 33.711575 49.868161 -0.951500 0.828456 0.125071 -0.036635 -15596.500000 0 0 1
21.831423 -30.507398 -32.832023 49.852323 -0.949670 2.289734 0.082345 -0.033550 -376122.000000 0 0 1
22.993023 -31.245748 -33.019783 50.943909 -0.936395 2.275961 0.062470 -0.015452 -413572.000000 0 0 1
23.606123 -32.047728 -31.816353 50.956709 -0.935931 2.245134 0.042921 -0.011405 -866369.000000 0 0 1
24.555623 -32.984598 -32.229323 52.246450 -0.930852 2.235557 0.032705 -0.008576 450857.000000 0 0 1
25.345723 -33.556428 -31.128493 52.320384 -0.923901 2.208011 0.025797 0.001964 1136170.000000 0 0 1
26.431223 -32.618348 -30.499613 51.892124 -0.889796 2.199072 0.029023 -0.004098 -81158.000000 0 0 1
27.008123 -33.031928 -29.216553 51.712222 -0.885393 2.171210 0.033109 0.011327 42145.400000 0 0 1
27.693223 -31.975858 -28.609093 51.067115 -0.857048 2.165454 0.038781 0.012589 -195834.000000 0 0 1
28.130423 -32.257468 -27.127053 50.672891 -0.853634 2.135703 0.026828 0.013564 226196.000000 0 0 1
29.129223 -33.246058 -27.031673 51.812386 -0.851304 2.119665 0.027799 0.015536 -88934.000000 0 0 1
29.833323 -33.154788 -25.795113 51.523344 -0.838081 2.095145 0.030088 0.010832 468247.000000 0 0 1
-27.723887 -30.919305 9.118447 42.517801 0.839833 1.354655 0.090398 -0.013888 -275787.000000 0 0 1
-27.743987 -32.014305 10.075947 43.545026 0.856737 1.337289 0.080864 -0.019953 365073.000000 0 0 1
-26.596277 -31.996105 10.948447 43.023031 0.877298 1.313488 0.062182 -0.017479 674186.000000 0 0 1
-26.584387 -33.190705 11.963647 44.175575 0.895471 1.296551 0.065870 -0.017763 40641.800000 0 0 1
-26.548447 33.159142 11.467447 43.998308 -0.895667 1.307118 0.073944 -0.011856 942997.000000 0 0 1
-27.859337 32.594442 11.197747 44.316248 -0.863565 1.315349 0.059406 -0.031989 962039.000000 0 0 1
-27.777577 31.099342 10.953047 43.113016 -0.841757 1.313927 0.075817 -0.020642 246969.000000 0 0 1
-27.333037 30.759742 9.630347 42.261096 -0.844317 1.340899 0.099470 -0.033193 -25810.100000 0 0 1
-27.447687 29.404142 9.482147 41.326628 -0.819798 1.339290 0.122294 -0.025693 45856.500000 0 0 1
-26.960937 28.992142 8.035947 40.398179 -0.821684 1.370542 0.102284 -0.012917 606055.000000 0 0 1
-25.541747 29.184142 7.949947 39.589098 -0.851857 1.368610 0.087336 -0.007838 603516.000000 0 0 1
-25.104617 28.994042 6.605047 38.916872 -0.857170 1.400249 0.084451 -0.007297 1202540.000000 0 0 1
-23.642477 28.379242 6.503847 37.505308 -0.876201 1.396504 0.100503 -0.004398 1108840.000000 0 0 1
-23.594477 26.955342 6.794647 36.461720 -0.851787 1.383350 0.099455 -0.010053 375497.000000 0 0 1
-24.125377 26.174942 5.674147 36.046600 -0.826122 1.412727 0.084803 -0.012513 -291872.000000 0 0 1
-24.297177 24.651742 5.962947 35.122898 -0.792642 1.400196 0.101707 0.000210 -305039.000000 0 0 1
-25.404017 24.420042 6.807447 35.889328 -0.765652 1.379961 0.114688 -0.010022 229197.000000 0 0 1
-25.640227 23.008442 7.039347 35.161941 -0.731353 1.369236 0.124275 -0.024671 -158117.000000 0 0 1
-26.249997 22.115942 5.926047 34.832388 -0.700131 1.399834 0.124626 -0.034724 -116491.000000 0 0 1
-27.598277 22.528942 5.727547 36.083555 -0.684611 1.411392 0.128622 -0.034649 233247.000000 0 0 1
-28.193597 22.104042 4.529247 36.110687 -0.664914 1.445038 0.120832 -0.027486 -130855.000000 0 0 1
-27.958217 22.928742 3.268047 36.305224 -0.686882 1.480658 0.098868 -0.027129 -724688.000000 0 0 1
-26.598817 23.148242 3.017447 35.389874 -0.716147 1.485430 0.100468 -0.025392 -179855.000000 0 0 1
-26.277897 23.886742 1.834247 35.559370 -0.737768 1.519191 0.081353 -0.018197 1049370.000000 0 0 1
-24.825577 24.514042 1.866947 34.938990 -0.779084 1.517336 0.077174 -0.010356 947518.000000 0 0 1
-24.504277 25.135942 0.707047 35.110897 -0.798122 1.550657 0.055942 -0.011932 -259551.000000 0 0 1
-23.313877 25.894142 0.872547 34.854050 -0.837786 1.545759 0.080966 -0.019245 -302820.000000 0 0 1
-22.816977 26.360042 -0.529353 34.867556 -0.857321 1.585979 0.102629 -0.012972 -43889.800000 0 0 1
-22.345577 25.400642 -1.472453 33.862746 -0.849297 1.614293 0.101768 -0.011516 346787.000000 0 0 1
-21.129177 24.789342 -1.041653 32.588934 -0.864940 1.602765 0.095414 -0.030257 -116098.000000 0 0 1
-20.552877 23.827142 -2.103853 31.536957 -0.859043 1.637557 0.120536 -0.045322 -190360.000000 0 0 1
-21.468877 22.826142 -2.560153 31.440417 -0.816030 1.652315 0.116812 -0.037002 40179.000000 0 0 1
-21.023877 21.828742 -3.435453 30.500815 -0.804178 1.683671 0.129240 -0.040552 -396261.000000 0 0 1
-22.202277 21.238942 -4.215653 31.012989 -0.763226 1.707150 0.122878 -0.035132 9009.710000 0 0 1
-22.799877 22.058342 -5.226653 32.151559 -0.768869 1.734084 0.115532 -0.025948 272190.000000 0 0 1
-24.139577 21.642742 -5.429253 32.872546 -0.730915 1.736717 0.113950 -0.025133 -5220.820000 0 0 1
-24.662477 22.122042 -6.754953 33.812008 -0.731151 1.771929 0.119643 -0.010601 -235904.000000 0 0 1
-24.016877 21.494942 -7.856953 33.174910 -0.730042 1.809902 0.139447 -0.027923 165939.000000 0 0 1
-23.616977 22.405542 -8.852753 33.736348 -0.759082 1.836315 0.135385 -0.035348 -88034.100000 0 0 1
-23.225377 21.755542 -10.194953 33.416445 -0.752733 1.880827 0.133066 -0.041231 -807189.000000 0 0 1
-24.262977 21.229042 -10.891653 34.029287 -0.718805 1.896597 0.080288 -0.032414 -827814.000000 0 0 1
-23.778377 20.827942 -12.166853 33.871030 -0.719350 1.938219 0.079717 -0.023540 23067.300000 0 0 1
-24.933077 20.674542 -13.162353 34.962016 -0.692295 1.956786 0.058646 -0.033080 377210.000000 0 0 1
-25.656787 19.465042 -12.844553 34.671907 -0.649027 1.950300 0.063450 -0.027472 607053.000000 0 0 1
-26.919217 19.351642 -13.495353 35.794620 -0.623284 1.957375 0.072362 -0.036313 569123.000000 0 0 1
-27.523087 17.956742 -13.743953 35.621077 -0.578078 1.966912 0.139153 -0.043946 57387.300000 0 0 1
-26.754847 17.292642 -14.734953 35.099518 -0.573796 2.004027 0.131091 -0.044314 188598.000000 0 0 1
-27.182867 15.980842 -14.910853 34.880211 -0.531476 2.012508 0.144530 -0.061986 -719038.000000 0 0 1
-26.535757 15.259542 -16.109653 34.590764 -0.521876 2.055246 0.155759 -0.054131 655299.000000 0 0 1
-25.149287 14.963942 -15.931653 33.320020 -0.536738 2.069333 0.144911 -0.062828 773624.000000 0 0 1
-24.510677 14.547642 -17.153253 33.266218 -0.535643 2.112546 0.146280 -0.067824 -80016.000000 0 0 1
-23.558877 13.393742 -17.090953 32.039252 -0.516952 2.133456 0.146544 -0.067847 133360.000000 0 0 1
-22.315677 13.609442 -16.410953 30.863016 -0.547638 2.131444 0.132171 -0.071909 775318.000000 0 0 1
-21.566677 12.374942 -16.487153 29.834325 -0.520931 2.156305 0.133653 -0.057755 508457.000000 0 0 1
-20.226177 12.348842 -15.687553 28.419913 -0.548132 2.155547 0.118199 -0.057237 -274447.000000 0 0 1
-19.285677 13.252142 -16.145353 28.429369 -0.602049 2.174762 0.108083 -0.046959 -1245850.000000 0 0 1
-18.149577 13.159342 -15.385453 27.189843 -0.627341 2.172264 0.111931 -0.031002 -1129370.000000 0 0 1
-17.160477 14.271642 -15.749953 27.317078 -0.693749 2.185309 0.097786 -0.026573 -315130.000000 0 0 1
-16.591777 14.231542 -17.044553 27.718958 -0.708974 2.233063 0.111959 -0.032518 44311.300000 0 0 1
-15.732077 15.316742 -17.237153 27.914517 -0.772022 2.236354 0.091908 -0.016254 -826712.000000 0 0 1
-14.835077 15.385242 -18.437753 28.226511 -0.803601 2.282608 0.103102 -0.020012 -180907.000000 0 0 1
-13.832477 14.405542 -18.405753 27.159322 -0.805689 2.315421 0.099269 -0.018645 -84073.000000 0 0 1
-12.793877 14.527142 -19.361153 27.378374 -0.848754 2.356283 0.116582 -0.029038 575296.000000 0 0 1
-11.745677 13.386842 -19.297453 26.259477 -0.850606 2.396280 0.105573 -0.031368 218786.000000 0 0 1
-12.253577 12.180242 -19.788653 26.269740 -0.782397 2.423842 0.123448 -0.033837 25302.500000 0 0 1
-11.299577 11.172442 -19.656353 25.275999 -0.779741 2.461745 0.093315 -0.019063 -274569.000000 0 0 1
-11.798877 10.062142 -20.576153 25.765059 -0.706120 2.495773 0.111564 -0.029804 115998.000000 0 0 1
-11.495577 10.193942 -21.946253 26.789975 -0.725458 2.530805 0.119511 -0.044502 -323162.000000 0 0 1
-11.899777 9.045842 -22.626853 27.118378 -0.649978 2.557791 0.111637 -0.023737 -27009.600000 0 0 1
-11.678077 9.163342 -24.141353 28.339888 -0.665318 2.590305 0.103297 -0.037521 -585494.000000 0 0 1
-10.345077 9.178742 -24.541553 28.170157 -0.725730 2.628417 0.107301 -0.042333 -781347.000000 0 0 1
-10.275577 8.524442 -25.817753 29.065615 -0.692521 2.664334 0.095462 -0.053097 36005.000000 0 0 1
-10.025177 9.495142 -27.063363 30.382355 -0.758252 2.669809 0.136376 -0.056410 -275190.000000 0 0 1
-8.751977 10.051342 -27.239553 30.325234 -0.854391 2.686561 0.105518 -0.059141 -306340.000000 0 0 1
-8.471977 11.183242 -26.476403 29.963965 -0.922474 2.654309 0.085120 -0.049894 -109843.000000 0 0 1
-6.958577 11.526742 -26.478393 29.705098 -1.027668 2.671167 0.071033 -0.042189 181401.000000 0 0 1
-6.463577 11.991842 -27.701003 30.869526 -1.076439 2.684541 0.061153 -0.048104 698723.000000 0 0 1
-5.110077 12.455142 -27.614443 30.721343 -1.181461 2.687977 0.081930 -0.043452 711369.000000 0 0 1
-4.402277 12.506042 -29.027073 31.911629 -1.232330 2.713136 0.086125 -0.043095 -1167720.000000 0 0 1
-3.051377 12.738742 -28.973143 31.796689 -1.335691 2.716984 0.102059 -0.049690 -1166250.000000 0 0 1
-2.630977 12.656242 -30.313613 32.954781 -1.365836 2.738506 0.107096 -0.047443 860734.000000 0 0 1
-1.071477 12.448142 -30.431013 32.896061 -1.484933 2.752004 0.129808 -0.057279 404405.000000 0 0 1
-0.727477 11.221242 -29.811603 31.861845 -1.506057 2.780899 0.105855 -0.029399 229178.000000 0 0 1
0.648623 10.876542 -29.856033 31.782111 1.511232 2.791665 0.108406 -0.034411 462464.000000 0 0 1
1.323423 10.491542 -31.188553 32.932502 1.445317 2.814700 0.117049 -0.038915 -394554.000000 0 0 1
1.537923 11.571642 -32.068713 34.127268 1.438666 2.792490 0.122616 -0.047600 96729.600000 0 0 1
1.651023 10.984742 -33.370273 35.170521 1.421612 2.820255 0.130320 -0.044298 -81487.200000 0 0 1
2.042523 11.953142 33.265661 35.406973 1.401553 0.349562 0.129256 -0.050582 111297.000000 0 0 1
3.443723 12.165642 33.309961 35.628859 1.294944 0.362776 0.138877 -0.054310 -5082.690000 0 0 1
3.757823 12.891042 32.123654 34.817084 1.287150 0.395924 0.140067 -0.047946 280242.000000 0 0 1
5.279723 13.022942 31.854116 34.816048 1.185629 0.415471 0.140411 -0.043071 -69614.500000 0 0 1
5.938623 11.870842 31.475845 34.160108 1.106933 0.399074 0.150964 -0.042242 -418566.000000 0 0 1
7.299223 12.176842 31.297475 34.366933 1.030793 0.425855 0.122136 -0.028015 221245.000000 0 0 1
8.194723 11.063042 30.654315 33.604039 0.933255 0.422123 0.091725 -0.019058 257393.000000 0 0 1
7.796323 10.812542 29.329015 32.216220 0.946086 0.426594 0.107653 -0.027479 392295.000000 0 0 1
8.662123 9.839342 28.702815 31.554661 0.848941 0.428423 0.089195 -0.026806 338491.000000 0 0 1
7.993123 8.995742 27.604915 30.113863 0.844346 0.411093 0.095557 -0.027720 179980.000000 0 0 1
7.125023 8.003942 28.148125 30.118865 0.843428 0.363754 0.101235 -0.030553 57881.200000 0 0 1
6.743923 7.078742 27.120005 28.828524 0.809616 0.346005 0.107574 -0.029804 -708523.000000 0 0 1
5.765723 6.029142 27.601935 28.835065 0.807728 0.293507 0.126407 -0.039131 -436368.000000 0 0 1
6.312623 4.878642 28.193145 29.300236 0.657959 0.275771 0.102369 -0.032950 -329758.000000 0 0 1
5.374823 4.241942 29.008525 29.805660 0.668136 0.231795 0.111454 -0.031824 -724504.000000 0 0 1
5.901723 3.086042 29.911055 30.643518 0.481803 0.219082 0.110024 -0.025664 42214.400000 0 0 1
6.167423 1.848542 29.264175 29.964081 0.291206 0.216563 0.103187 -0.021217 812941.000000 0 0 1
7.514523 1.722242 28.766275 29.781417 0.225298 0.261847 0.109196 -0.022009 632563.000000 0 0 1
7.750823 0.353842 28.047525 29.100930 0.045621 0.269885 0.097799 -0.024456 -128425.000000 0 0 1
7.760823 -0.730058 28.938345 29.969838 -0.093794 0.263123 0.075333 -0.030500 113912.000000 0 0 1
8.180623 -1.962558 28.285885 29.510431 -0.235453 0.289087 0.094858 -0.027554 -278015.000000 0 0 1
8.703423 -3.088458 29.199715 30.625341 -0.340994 0.306321 0.086123 -0.024006 935274.000000 0 0 1
10.124123 -3.140758 29.433015 31.283616 -0.300811 0.345682 0.081184 -0.026998 819702.000000 0 0 1
10.871923 -3.843658 28.443955 30.692524 -0.339825 0.385159 0.099611 -0.019033 -230201.000000 0 0 1
12.375423 -3.905158 28.794015 31.583171 -0.305668 0.423421 0.083928 -0.016282 378621.000000 0 0 1
13.118723 -4.931958 28.121345 31.420299 -0.359602 0.462352 0.110154 -0.017971 294558.000000 0 0 1
13.391623 -6.015858 28.994035 32.498926 -0.422210 0.468706 0.123347 -0.014157 -316519.000000 0 0 1
12.571123 -7.281358 28.725575 32.190216 -0.524995 0.468227 0.139974 -0.012049 666998.000000 0 0 1
11.165023 -7.063758 28.887425 31.765355 -0.564095 0.428956 0.134286 -0.009985 578699.000000 0 0 1
10.384423 -8.227758 28.587105 31.508012 -0.670039 0.433987 0.129618 -0.005510 398544.000000 0 0 1
8.878523 -7.948958 28.432805 30.829183 -0.730213 0.396886 0.131060 -0.011254 -113074.000000 0 0 1
8.202423 -7.712158 29.621815 31.689258 -0.754602 0.363217 0.141195 -0.021932 -739437.000000 0 0 1
6.867523 -7.386758 29.376135 31.059369 -0.821809 0.330729 0.127572 -0.032390 -376499.000000 0 0 1
6.145523 -6.732458 30.582785 31.912383 -0.830943 0.289678 0.118929 -0.038000 86901.900000 0 0 1
5.881023 -7.606158 31.670505 33.097749 -0.912617 0.294739 0.125169 -0.034690 16960.800000 0 0 1
5.460323 -7.033358 32.933478 34.115938 -0.910646 0.264054 0.122199 -0.032178 -262365.000000 0 0 1
6.352323 -5.947158 33.570179 34.679643 -0.752468 0.253629 0.134913 -0.033437 -302330.000000 0 0 1
6.383023 -4.666358 32.939513 33.875204 -0.631267 0.235583 0.130154 -0.031167 -118926.000000 0 0 1
6.843123 -3.606558 33.770685 34.645271 -0.485040 0.225171 0.111422 -0.021336 214671.000000 0 0 1
7.136823 -2.352558 32.929715 33.776248 -0.318420 0.224358 0.102279 -0.025516 382136.000000 0 0 1
5.862723 -1.952458 32.438618 33.021926 -0.321477 0.188237 0.115587 -0.038153 473907.000000 0 0 1
6.001423 -0.938258 31.541605 32.121181 -0.155084 0.190252 0.098661 -0.019118 -973614.000000 0 0 1
4.684923 -0.432958 31.019825 31.374600 -0.092153 0.150526 0.120518 -0.031993 -495246.000000 0 0 1
3.813823 0.047942 32.050815 32.276963 0.012570 0.118445 0.111488 -0.032304 30710.500000 0 0 1
2.617923 0.581242 31.483715 31.597717 0.218480 0.084971 0.122899 -0.038068 -27749.400000 0 0 1
1.660823 0.895442 32.629864 32.684372 0.494479 0.057761 0.112035 -0.038033 -459772.000000 0 0 1
1.887423 2.015842 33.382006 33.496035 0.818287 0.082537 0.100722 -0.030668 -1316410.000000 0 0 1
0.954723 2.112742 -33.405503 33.485859 1.146373 3.072301 0.074172 -0.032704 -1063900.000000 0 0 1
1.273323 3.192442 -32.351303 32.533365 1.191277 3.035749 0.069620 -0.026179 -169680.000000 0 0 1
2.291623 2.716242 -31.514263 31.714007 0.869986 3.029299 0.054942 -0.014090 -434039.000000 0 0 1
2.776523 3.791342 -30.722513 31.079835 0.938699 2.989810 0.050933 -0.007888 -376408.000000 0 0 1
3.824523 3.357042 -29.722433 30.154928 0.720395 2.972023 0.063817 -0.004702 -252068.000000 0 0 1
3.203423 2.639642 -28.653663 28.952755 0.689209 2.997730 0.073340 -0.020068 174435.000000 0 0 1
4.062323 2.624242 -27.573133 27.994049 0.573555 2.967962 0.094388 -0.027355 -451723.000000 0 0 1
3.548323 1.755842 -26.403253 26.698414 0.459509 2.992758 0.075137 -0.033730 -102594.000000 0 0 1
3.670723 0.385142 -26.649863 26.904232 0.104540 3.003973 0.093708 -0.032783 114122.000000 0 0 1
3.249223 -0.359758 -25.533483 25.741904 -0.110272 3.014254 0.090746 -0.030469 -315978.000000 0 0 1
3.951123 -1.723458 -25.325053 25.689297 -0.411314 2.972996 0.097312 -0.038327 142653.000000 0 0 1
5.316323 -1.683658 -24.955553 25.571030 -0.306703 2.921745 0.089591 -0.043557 -29431.800000 0 0 1
5.756723 -3.017158 -24.815853 25.652868 -0.482749 2.885438 0.094707 -0.040214 145898.000000 0 0 1
7.241023 -3.109958 -24.371953 25.614377 -0.405669 2.828856 0.113637 -0.046581 465196.000000 0 0 1
8.145623 -2.861358 -25.448583 26.873200 -0.337811 2.814522 0.122778 -0.047303 355120.000000 0 0 1
9.476023 -3.034458 -24.924553 26.837218 -0.309907 2.761771 0.112730 -0.037158 783432.000000 0 0 1
-31.046737 -3.827958 17.560585 35.873769 0.122677 1.059268 0.173591 -0.016061 739582.000000 0 0 1
-32.464247 -3.974558 17.632385 37.156769 0.121823 1.076355 0.151831 -0.005962 158348.000000 0 0 1
-32.873557 -4.975658 18.506185 38.051371 0.150217 1.062892 0.123791 -0.010843 1387230.000000 0 0 1
-34.411149 -4.954258 18.888685 39.565822 0.142990 1.073104 0.117259 -0.006343 1313020.000000 0 0 1
-35.357044 -4.996958 17.843085 39.918240 0.140399 1.107398 0.114347 -0.000494 844698.000000 0 0 1
-36.689687 -5.161158 18.363285 41.351916 0.139754 1.110657 0.074632 0.010811 869072.000000 0 0 1
37.401874 -5.030958 17.235585 41.488265 -0.133708 1.142378 0.060526 0.007819 574251.000000 0 0 1
36.058534 -5.164958 17.688685 40.494249 -0.142270 1.118736 0.046674 0.024160 323883.000000 0 0 1
35.134344 -5.189958 16.625385 39.214299 -0.146657 1.132980 0.053955 0.018244 -380812.000000 0 0 1
33.668344 -5.389958 16.986985 38.094182 -0.158743 1.108594 0.067381 0.022563 -638620.000000 0 0 1
33.211514 -4.295558 17.802185 37.925905 -0.128625 1.082192 0.079294 0.019201 -30594.200000 0 0 1
31.894924 -4.602158 18.183785 37.001569 -0.143302 1.057062 0.100656 0.007231 -293089.000000 0 0 1
31.691034 -3.908258 19.570085 37.451093 -0.122704 1.020957 0.112144 0.009209 -236778.000000 0 0 1
30.856864 -2.777358 19.584685 36.652690 -0.089766 1.007080 0.125855 0.008189 -24575.000000 0 0 1
31.301504 -1.648258 18.903085 36.603655 -0.052609 1.028124 0.115825 0.016007 987003.000000 0 0 1
30.229994 -0.481758 19.240185 35.836704 -0.015935 1.004056 0.143736 0.007816 1214320.000000 0 0 1
30.561404 0.740942 18.669785 35.820515 0.024240 1.022536 0.129233 0.005172 -267433.000000 0 0 1
29.691164 1.704842 19.138685 35.366099 0.057356 0.998981 0.126304 0.000804 -402894.000000 0 0 1
29.850664 3.028442 18.392985 35.192833 0.101107 1.020858 0.123563 0.001961 43661.700000 0 0 1
29.463264 2.983942 17.064585 34.178764 0.100933 1.048035 0.127672 0.001591 25247.700000 0 0 1
29.396864 4.207042 16.401885 33.924868 0.142147 1.066174 0.127094 -0.002128 145261.000000 0 0 1
29.098064 4.109342 14.877185 32.938043 0.140296 1.102158 0.137021 -0.002612 -71161.800000 0 0 1
28.740864 5.351742 14.321385 32.554270 0.184098 1.115283 0.155066 -0.015570 214600.000000 0 0 1
27.971864 5.155042 13.172185 31.344953 0.182249 1.137094 0.139763 -0.015921 -268372.000000 0 0 1
27.286764 6.465342 12.654985 30.765513 0.232650 1.146876 0.157095 -0.015939 147223.000000 0 0 1
26.210164 6.931742 13.450585 30.264500 0.258548 1.110254 0.103885 -0.007460 79672.600000 0 0 1
25.658464 8.064342 12.894485 29.827137 0.304520 1.123746 0.140819 -0.035439 -1145030.000000 0 0 1
24.448064 8.580042 13.712685 29.314888 0.337521 1.084028 0.132746 -0.037209 1438010.000000 0 0 1
23.112564 8.151242 13.312485 27.890063 0.339057 1.073194 0.130908 -0.025016 1895830.000000 0 0 1
22.967964 6.766542 13.529585 27.502057 0.286503 1.056470 0.134395 -0.023967 -781170.000000 0 0 1
21.494664 6.246342 13.362385 26.068961 0.282810 1.032611 0.137505 -0.020867 288715.000000 0 0 1
21.069264 6.173142 12.044785 25.041933 0.285016 1.069019 0.146951 -0.032465 491901.000000 0 0 1
20.182464 5.102642 11.827185 23.942663 0.247636 1.054136 0.125025 -0.027140 -257214.000000 0 1 0
19.838264 4.978942 10.286685 22.894595 0.245898 1.104808 0.131904 -0.034743 -226086.000000 0 1 0
20.888364 4.439642 9.520785 23.381179 0.209425 1.151411 0.157015 -0.038146 478136.000000 0 1 0
20.445764 4.060142 8.238585 22.414020 0.196031 1.194408 0.168826 -0.036766 91736.000000 0 1 0
21.597764 3.430442 7.411185 23.090193 0.157517 1.244046 0.162770 -0.032580 -671407.000000 0 1 0
21.896764 2.143442 7.967385 23.399612 0.097578 1.223356 0.157530 -0.031383 315046.000000 0 1 0
22.723364 1.319442 7.207485 23.875511 0.058000 1.264135 0.147639 -0.019859 -502822.000000 0 1 0
24.233864 1.659742 7.210585 25.338260 0.068382 1.282235 0.131995 -0.027119 -523429.000000 0 0 1
24.926164 1.244942 8.371485 26.323854 0.049904 1.247157 0.157796 -0.013207 431875.000000 0 0 1
24.924164 2.171542 9.417385 26.732315 0.086907 1.210785 0.147324 -0.011957 -852656.000000 0 0 1
25.640364 1.596942 10.628385 27.801817 0.062202 1.178522 0.132663 -0.002961 -1165340.000000 0 0 1
27.008164 1.717142 10.470585 29.017626 0.063493 1.201633 0.141614 -0.014342 -993330.000000 0 0 1
27.712664 0.864942 11.294985 29.938546 0.031201 1.183947 0.131616 -0.005604 1455890.000000 0 0 1
29.305764 0.964242 11.193985 31.385711 0.032891 1.206107 0.189470 -0.005639 1811290.000000 0 0 1
29.947264 2.149842 11.635885 32.200221 0.071665 1.201070 0.178690 -0.002342 -1130440.000000 0 0 1
31.303914 1.955942 11.669985 33.465643 0.062401 1.214596 0.197988 -0.011021 -1017280.000000 0 0 1
32.083834 3.123342 12.361285 34.524325 0.097044 1.204622 0.177218 -0.022706 209550.000000 0 0 1
32.799924 3.900742 11.395985 34.941655 0.118369 1.238575 0.193343 -0.035646 551527.000000 0 0 1
33.580724 4.937542 12.002385 36.001411 0.145989 1.230903 0.167136 -0.035416 -412749.000000 0 0 1
35.039934 5.007642 11.600185 37.248325 0.141951 1.254101 0.168314 -0.026740 -693021.000000 0 0 1
35.784724 3.858342 11.980885 37.933822 0.107406 1.249458 0.146736 -0.036119 -72430.600000 0 0 1
37.156274 4.114842 11.833385 39.211601 0.110295 1.264234 0.135319 -0.023120 -33664.200000 0 0 1
-37.082837 3.304942 12.818485 39.374777 -0.088888 1.239202 0.157406 -0.014676 -170387.000000 0 0 1
-36.912007 1.928242 12.469385 39.008973 -0.052191 1.245432 0.153504 -0.018996 762088.000000 0 0 1
37.141504 1.076742 12.822485 39.307338 0.028982 1.238504 0.152373 -0.014807 305152.000000 0 0 1
36.909384 0.798842 14.401485 39.627560 0.021640 1.198859 0.154133 -0.011143 -155748.000000 0 0 1
-37.255767 0.011242 15.022985 40.170666 -0.000302 1.187501 0.118556 -0.002533 303040.000000 0 0 1
37.548534 -0.129058 16.411985 40.978803 -0.003437 1.158735 0.110680 -0.005315 -41545.200000 0 0 1
-36.577187 -0.919558 17.266885 40.458393 0.025135 1.129866 0.100816 0.004455 -214249.000000 0 0 1
-35.387130 -0.175458 17.454785 39.458197 0.004958 1.112566 0.114257 -0.008836 279987.000000 0 0 1
-34.404050 -0.984958 18.117885 38.895586 0.028621 1.086249 0.102288 -0.002268 234297.000000 0 0 1
-34.335189 -0.958758 19.678185 39.586051 0.027916 1.050544 0.086136 -0.009601 67378.200000 0 0 1
-35.514471 -1.481958 20.313985 40.940590 0.041704 1.051601 0.075172 -0.007266 693988.000000 0 0 1
-35.476933 -1.326158 21.745585 41.632223 0.037363 1.021220 0.065539 -0.002704 32299.400000 0 0 1
-36.072287 -2.566958 22.432285 42.555923 0.071042 1.015583 0.061408 0.006122 156407.000000 0 0 1
-35.309834 -3.786858 22.205685 41.883376 0.106838 1.011985 0.077158 -0.006162 386336.000000 0 0 1
-35.753392 -4.986058 22.869275 42.733706 0.138563 1.006102 0.085914 -0.007737 -115674.000000 0 0 1
-35.645872 -5.013658 24.395635 43.484618 0.139735 0.975182 0.090729 -0.016873 -19396.300000 0 0 1
-34.354275 -4.749658 24.883355 42.684387 0.137384 0.948427 0.095200 -0.020552 -682003.000000 0 0 1
-34.274456 -4.758658 26.292115 43.458699 0.137958 0.921042 0.107285 -0.033540 424453.000000 0 0 1
-33.099117 -3.927758 26.904835 42.835138 0.118114 0.891685 0.118874 -0.037090 215374.000000 0 0 1
-33.177087 -2.538258 26.743845 42.689520 0.076358 0.893776 0.119675 -0.033349 -143771.000000 0 0 1
-32.842367 -2.144558 25.425625 41.589454 0.065206 0.913034 0.099361 -0.027490 -364707.000000 0 0 1
-32.774487 -0.675658 25.057015 41.261090 0.020612 0.918164 0.091435 -0.031602 208291.000000 0 0 1
-33.979577 0.029842 24.760415 42.043914 -0.000878 0.941077 0.099423 -0.038497 182485.000000 0 0 1
-33.765047 1.420742 24.679755 41.847189 -0.042052 0.940036 0.077165 -0.025158 135728.000000 0 0 1
-35.072818 2.178542 24.332585 42.742523 -0.062035 0.965163 0.096376 -0.021377 291135.000000 0 0 1
-35.738206 1.721542 23.163495 42.623123 -0.048134 0.996256 0.092856 -0.013779 -240629.000000 0 0 1
-36.893867 2.445442 22.826605 43.453326 -0.066186 1.017713 0.102866 -0.010906 -11757.000000 0 0 1
-36.718117 3.827642 22.104485 43.028819 -0.103869 1.031289 0.092375 -0.001183 -135095.000000 0 0 1
-36.081557 3.554242 20.859785 41.828723 -0.098189 1.048703 0.083372 -0.019419 154980.000000 0 0 1
-36.992937 3.464342 19.782485 42.093061 -0.093376 1.081539 0.111981 -0.013317 70354.700000 0 0 1
-36.361147 2.762242 18.575085 40.924281 -0.075821 1.099671 0.117954 -0.010548 316264.000000 0 0 1
-35.453818 3.513942 17.760185 39.808858 -0.098791 1.108353 0.136062 -0.021613 264931.000000 0 0 1
-35.063712 2.692542 16.695885 38.928991 -0.076640 1.127543 0.154271 -0.015767 -554194.000000 0 0 1
-34.117627 3.430242 15.766485 37.740709 -0.100205 1.139820 0.144888 -0.018526 -133118.000000 0 0 1
-34.720226 4.477842 15.003385 38.087357 -0.128261 1.165903 0.160454 -0.021034 1001420.000000 0 0 1
-33.683817 5.135442 14.226285 36.923698 -0.151295 1.175276 0.184146 -0.027049 435114.000000 0 0 1
-34.139359 6.481142 13.577885 37.307640 -0.187611 1.198298 0.209764 -0.031368 30292.300000 0 0 1
-33.265077 7.090642 12.621585 36.278740 -0.210013 1.215460 0.224124 -0.029126 44386.700000 0 0 1
-33.631847 8.414342 12.316085 36.791144 -0.245157 1.229449 0.211139 -0.032101 -186908.000000 0 0 1
-32.591257 9.269042 11.541285 35.795341 -0.277087 1.242507 0.234062 -0.034458 31754.700000 0 0 1
-32.912807 10.626942 11.357185 36.402891 -0.312315 1.253514 0.212832 -0.025513 102731.000000 0 0 1
-31.942487 11.222242 10.517085 35.452367 -0.337856 1.269609 0.188124 -0.035220 128589.000000 0 0 1
-32.201027 12.706142 10.485485 36.170397 -0.375832 1.276683 0.171323 -0.027576 41965.100000 0 0 1
-31.535337 13.374642 9.442585 35.531971 -0.401122 1.301816 0.155194 -0.022480 -81146.200000 0 0 1
-31.535247 14.803542 9.549885 36.122251 -0.438893 1.303239 0.146001 -0.027603 -128672.000000 0 0 1
-30.785137 15.555942 8.464885 35.515719 -0.467884 1.330138 0.134490 -0.022466 -197657.000000 0 0 1
-29.382047 15.441642 8.431385 34.246712 -0.483876 1.322043 0.162373 -0.018997 -90812.700000 0 0 1
-28.824867 16.298442 7.462085 33.943997 -0.514612 1.349151 0.148667 -0.029352 208287.000000 0 0 1
-27.275337 16.458442 7.506285 32.728713 -0.542929 1.339388 0.156480 -0.015760 97485.600000 0 0 1
-26.769277 16.844742 8.790685 32.827057 -0.561654 1.299700 0.153601 -0.020755 314707.000000 0 0 1
-26.965117 18.264642 9.038185 33.799460 -0.595358 1.300096 0.147305 -0.036753 -409755.000000 0 0 1
-26.970217 18.603342 10.546485 34.419548 -0.603830 1.259377 0.157749 -0.020111 143695.000000 0 0 1
-25.743677 18.511542 11.252085 33.645557 -0.623411 1.229796 0.145216 -0.018792 386984.000000 0 0 1
-25.873927 18.904942 12.597685 34.431942 -0.631006 1.196227 0.152211 -0.024320 -148774.000000 0 0 1
-26.290757 17.921442 13.689885 34.638057 -0.598313 1.164482 0.126860 -0.011593 108418.000000 0 0 1
-25.296937 16.960942 13.975485 33.510040 -0.590634 1.140595 0.140368 -0.014378 227062.000000 0 0 1
-25.662397 16.334242 15.167285 33.991361 -0.566830 1.108270 0.131379 -0.008767 182654.000000 0 0 1
-24.714477 15.176942 15.655785 32.958285 -0.550716 1.075812 0.121746 -0.003910 103784.000000 0 0 1
-23.566877 15.647742 16.334485 32.665960 -0.586135 1.047144 0.110053 -0.001591 348977.000000 0 0 1
-22.613677 14.623442 16.656485 31.664838 -0.574026 1.016877 0.097852 -0.016623 362384.000000 0 0 1
-23.019377 13.676942 17.803385 32.154487 -0.536106 0.984016 0.089785 -0.004274 -570292.000000 0 0 1
-22.898877 14.277342 19.034585 33.022970 -0.557517 0.956475 0.097892 -0.009867 454781.000000 0 0 1
-23.503477 13.457242 20.073685 33.711477 -0.520002 0.932964 0.086668 -0.012624 -158410.000000 0 0 1
-23.106977 13.984742 21.505885 34.525476 -0.544247 0.898353 0.078993 -0.012733 -362117.000000 0 0 1
-21.766377 13.917342 21.870585 33.849521 -0.568885 0.868317 0.090822 -0.016948 -198682.000000 0 0 1
-20.993077 15.089042 21.513985 33.633912 -0.623208 0.876751 0.106419 -0.002986 601372.000000 0 0 1
-19.504377 15.182842 21.988085 33.081949 -0.661451 0.843764 0.113356 -0.022197 1152780.000000 0 0 1
-18.442977 14.555642 21.289685 31.705849 -0.668136 0.834599 0.100090 -0.024819 240816.000000 0 0 1
-18.034277 15.263642 20.133985 31.041767 -0.702382 0.865040 0.094126 -0.021787 -892139.000000 0 0 1
-16.713077 14.665842 19.527685 29.592978 -0.720248 0.850143 0.080013 -0.012923 1431170.000000 0 0 1
-15.587877 14.555142 20.430285 29.533551 -0.751150 0.806866 0.080910 -0.019180 646878.000000 0 0 1
-15.164877 15.733442 21.086385 30.366929 -0.803797 0.803229 0.060655 -0.020775 -1244840.000000 0 0 1
-14.081577 15.346942 22.104985 30.371859 -0.828370 0.755671 0.026190 -0.019242 -174360.000000 0 0 1
-12.905577 14.773042 21.599485 29.177636 -0.852766 0.737316 0.023988 -0.002707 110780.000000 0 0 1
-12.013677 14.235742 22.596785 29.284800 -0.869849 0.689410 0.042411 -0.012576 745282.000000 0 0 1
-10.595977 13.842142 22.099285 28.147079 -0.917457 0.667881 0.028044 -0.009710 -1627230.000000 0 0 1
-10.240677 12.721342 22.831325 28.070865 -0.893014 0.620916 0.038581 -0.018837 -124183.000000 0 0 1
-9.007377 12.147442 22.455085 27.072570 -0.932755 0.592691 0.039324 -0.006979 -581413.000000 0 0 1
-7.794877 12.999342 22.697995 27.293626 -1.030644 0.588773 0.040533 -0.001228 -2311570.000000 0 0 1
-7.462877 13.765342 21.529385 26.621300 -1.074000 0.628810 0.028211 -0.002022 -288142.000000 0 0 1
-6.552177 14.798842 21.801185 27.151951 -1.153988 0.638597 0.040682 -0.002055 -56619.300000 0 0 1
-7.219477 16.099242 22.415185 28.526251 -1.149244 0.666850 0.052957 -0.012701 576262.000000 0 0 1
-8.309377 16.657142 21.697785 28.588460 -1.108071 0.709066 0.016203 -0.014286 -137076.000000 0 0 1
-7.952477 17.187542 20.416185 27.847336 -1.137441 0.747859 0.028781 -0.014181 444981.000000 0 0 1
-9.286677 17.147142 19.554085 27.615740 -1.074435 0.784024 0.029036 -0.008318 862178.000000 0 0 1
-10.240077 18.091642 19.848185 28.742254 -1.055743 0.808536 0.014403 -0.002960 -948310.000000 0 0 1
-11.089277 17.709842 20.890385 29.546891 -1.011360 0.785514 0.026557 -0.014314 -1058740.000000 0 0 1
-12.286577 18.659442 21.054485 30.698960 -0.988494 0.815043 0.020405 -0.014721 -55815.900000 0 0 1
-13.053977 18.713042 19.865085 30.252370 -0.961692 0.854434 0.016195 -0.010214 -176307.000000 0 0 1
-14.276177 19.375342 20.080085 31.343627 -0.935783 0.875461 0.006219 -0.019861 -83026.600000 0 0 1
-15.212977 19.455842 18.866485 31.079072 -0.907175 0.918456 0.024380 -0.014098 -150000.000000 0 0 1
-15.786777 18.222342 18.487385 30.381894 -0.856891 0.916627 0.051691 -0.009172 45184.400000 0 0 1
-16.370977 18.403642 17.222885 30.055461 -0.843784 0.960590 0.080379 -0.012993 -1069900.000000 0 0 1
-16.998777 17.217242 16.485285 29.277235 -0.791783 0.972694 0.090742 -0.018804 229084.000000 0 0 1
-18.082477 16.589542 17.139485 29.932438 -0.742366 0.961116 0.090795 -0.019075 689978.000000 0 0 1
-19.305977 17.361242 17.121685 31.101215 -0.732410 0.987815 0.106697 -0.018764 184072.000000 0 0 1
35.896544 -9.213158 11.348847 38.758747 -0.251236 1.273635 0.074907 -0.020506 696806.000000 0 0 1
34.569854 -9.789258 11.389747 37.691255 -0.275949 1.263812 0.076160 -0.013322 1083080.000000 0 0 1
34.534874 -11.156058 11.884547 38.188449 -0.312456 1.254333 0.056706 -0.019023 -696194.000000 0 0 1
33.135174 -11.746258 12.071047 37.170210 -0.340674 1.240048 0.106962 -0.014567 -2250.170000 0 0 1
32.403934 -11.147258 13.172947 36.712434 -0.331328 1.203799 0.106293 -0.002132 640545.000000 0 0 1
31.007974 -11.059158 12.937047 35.371834 -0.342591 1.196364 0.127416 -0.017169 651800.000000 0 0 1
30.114464 -11.930558 13.905947 35.250454 -0.377203 1.165284 0.111306 -0.012680 -297009.000000 0 0 1
30.080964 -11.248258 15.169347 35.517556 -0.357835 1.129519 0.135953 -0.018451 -91277.100000 0 0 1
29.076264 -11.631758 16.080847 35.203985 -0.380544 1.096412 0.128756 -0.023480 459107.000000 0 0 1
27.668664 -11.047258 15.729847 33.690132 -0.379877 1.085017 0.127316 -0.040552 46349.000000 0 0 1
27.577564 -9.639358 15.868947 33.245492 -0.336262 1.073187 0.107803 -0.018899 -780340.000000 0 0 1
26.526664 -9.147858 15.103947 31.866541 -0.332084 1.076997 0.141982 -0.028014 -74381.700000 0 0 1
26.176864 -7.684558 15.524147 31.389167 -0.285541 1.053456 0.161612 -0.032882 452792.000000 0 0 1
27.311364 -6.872158 15.247547 32.025378 -0.246505 1.074572 0.139855 -0.020044 399863.000000 0 0 1
27.178864 -5.630858 15.895447 31.985347 -0.204288 1.050704 0.137735 -0.012646 448184.000000 0 0 1
28.473264 -4.799658 15.639347 32.838280 -0.166997 1.074407 0.137039 -0.004465 352063.000000 0 0 1
28.708664 -4.376458 14.318547 32.378412 -0.151279 1.112718 0.147205 -0.006070 11548.000000 0 0 1
29.962864 -3.762958 14.173147 33.358824 -0.124933 1.131979 0.142829 0.003382 -193281.000000 0 0 1
30.199894 -3.078358 12.868447 32.971303 -0.101582 1.169847 0.148087 -0.009794 -21963.800000 0 0 1
30.602994 -3.942358 11.793647 33.032946 -0.128117 1.205713 0.141142 -0.018595 327846.000000 0 0 1
31.107304 -3.250258 10.668947 33.046255 -0.104108 1.242058 0.147886 -0.027279 84165.800000 0 0 1
31.601184 -4.080558 9.462447 33.238888 -0.128416 1.282124 0.180324 -0.024350 -178530.000000 0 0 1
32.777014 -4.765558 9.794547 34.539489 -0.144382 1.283276 0.170801 -0.031208 -96859.900000 0 0 1
33.260294 -5.570058 8.741747 34.838066 -0.165929 1.317160 0.164498 -0.040437 160715.000000 0 0 1
34.692754 -6.140758 8.955547 36.352413 -0.175190 1.321880 0.139228 -0.035293 1042380.000000 0 0 1
35.764054 -5.167158 8.873047 37.208843 -0.143486 1.330010 0.146919 -0.034695 641021.000000 0 0 1
37.007364 -5.818458 8.721647 38.463834 -0.155948 1.342058 0.136367 -0.033926 169956.000000 0 0 1
-37.002117 -4.915658 8.201247 38.217546 0.132075 1.354520 0.146438 -0.035432 101162.000000 0 0 1
-37.062287 -4.512358 6.886547 37.965761 0.121154 1.388398 0.153139 -0.042106 46335.600000 0 0 1
-36.006871 -3.624858 6.592147 36.784382 0.100333 1.390612 0.151507 -0.026943 70645.400000 0 0 1
-36.066107 -3.182658 5.124547 36.567122 0.088017 1.430193 0.145475 -0.037655 -122639.000000 0 0 1
-35.776079 -4.073058 4.151347 36.245708 0.113361 1.456011 0.160258 -0.045615 38133.300000 0 0 1
-35.655902 -3.421058 2.894147 35.936376 0.095654 1.490174 0.179054 -0.037698 171564.000000 0 0 1
-34.903229 -4.272758 1.822747 35.210997 0.121811 1.519007 0.207499 -0.042781 444502.000000 0 0 1
-35.626164 -5.489558 1.453747 36.075923 0.152885 1.530489 0.189917 -0.036071 969117.000000 0 0 1
-36.599637 -5.306358 0.398547 36.984452 0.143981 1.560020 0.166750 -0.026505 447410.000000 0 0 1
-35.953861 -5.328158 -1.004053 36.360384 0.147124 1.598414 0.203726 -0.035167 -972631.000000 0 0 1
-35.533450 -6.621858 -1.449653 36.174253 0.184242 1.610881 0.206509 -0.051840 642552.000000 0 0 1
-34.632986 -6.590658 -2.566353 35.347796 0.188051 1.643463 0.185099 -0.045900 448374.000000 0 0 1
-33.228977 -6.001558 -2.284253 33.843780 0.178686 1.638342 0.181154 -0.051742 -701758.000000 0 0 1
-32.600117 -6.601158 -1.177353 33.282564 0.199787 1.606178 0.180026 -0.050318 391051.000000 0 0 1
-31.329427 -6.047958 -0.821753 31.918429 0.190698 1.596545 0.181234 -0.057822 583165.000000 0 0 1
-30.508937 -6.927758 0.159947 31.286014 0.223287 1.565684 0.169626 -0.053658 -227111.000000 0 0 1
-30.018787 -8.091058 -0.467353 31.093588 0.263277 1.585827 0.148365 -0.046581 289308.000000 0 0 1
-29.574177 -9.065158 0.441547 30.935481 0.297430 1.556523 0.170230 -0.039712 -238838.000000 0 0 1
-29.146837 -10.330958 -0.284353 30.924871 0.340629 1.579991 0.136487 -0.032963 185422.000000 0 0 1
-28.040677 -10.347758 -1.207853 29.913452 0.353524 1.611186 0.129349 -0.040319 718673.000000 0 0 1
-27.605387 -11.710358 -1.354153 30.017055 0.401198 1.615924 0.116613 -0.020596 -56444.400000 0 0 1
-28.457267 -12.726758 -2.206553 31.251485 0.420543 1.641461 0.110974 -0.021726 -104034.000000 0 0 1
-29.494677 -13.366258 -1.484153 32.415977 0.425491 1.616597 0.137234 -0.031213 359097.000000 0 0 1
-29.914477 -14.470658 -2.274653 33.308406 0.450551 1.639140 0.128515 -0.019933 -516518.000000 0 0 1
-30.965267 -15.335958 -1.616153 34.592649 0.459851 1.617533 0.153624 -0.022066 -344493.000000 0 0 1
-30.414867 -16.148758 -0.570953 34.440855 0.488100 1.587375 0.117598 -0.010207 395758.000000 0 0 1
-31.397667 -16.865158 0.150147 35.640842 0.492922 1.566584 0.132077 -0.010476 -7800.800000 0 0 1
-31.600687 -18.321458 -0.179653 36.528229 0.525419 1.575715 0.127336 -0.005036 -342768.000000 0 0 1
-30.581127 -19.159758 0.296047 36.088631 0.559693 1.562593 0.154523 -0.013205 8419.640000 0 0 1
-30.808067 -20.566758 0.166347 37.042627 0.588633 1.566306 0.145738 -0.014496 113829.000000 0 0 1
-31.874917 -21.194258 1.101347 38.293862 0.586792 1.542032 0.127216 -0.018647 40386.900000 0 0 1
-31.394677 -21.376558 2.467447 38.061415 0.597790 1.505923 0.147675 -0.022639 635356.000000 0 0 1
-32.465307 -21.894058 3.235647 39.291416 0.593326 1.488353 0.139109 -0.022693 332230.000000 0 0 1
-31.900727 -22.314558 4.588547 39.200136 0.610390 1.453473 0.149426 -0.031802 118971.000000 0 0 1
-31.360887 -21.198658 5.229547 38.213041 0.594408 1.433513 0.138338 -0.031902 137315.000000 0 0 1
-30.305337 -21.485958 6.137847 37.652796 0.616729 1.407054 0.156088 -0.037643 591879.000000 0 0 1
-29.531987 -20.203758 6.637447 36.392112 0.599996 1.387383 0.164093 -0.032729 345727.000000 0 0 1
-28.577067 -20.443958 7.657747 35.961720 0.620985 1.356212 0.161165 -0.040910 -125597.000000 0 0 1
-27.934387 -19.222658 7.944347 34.827478 0.602719 1.340665 0.151107 -0.039145 125403.000000 0 0 1
-26.790967 -19.376558 8.970547 34.258979 0.626160 1.305863 0.153068 -0.033359 83081.300000 0 0 1
-27.244207 -19.622958 10.299247 35.119536 0.624195 1.273159 0.143268 -0.031534 -428327.000000 0 0 1
-26.216317 -19.648458 11.230247 34.633447 0.643165 1.240567 0.126275 -0.015990 -440048.000000 0 0 1
-26.038007 -18.383158 12.103447 34.094160 0.614750 1.207882 0.113475 -0.022919 -323042.000000 0 0 1
-25.512897 -17.240158 11.427347 32.843801 0.594260 1.215434 0.110949 -0.026917 158765.000000 0 0 1
-25.223917 -16.150358 12.223047 32.349389 0.569511 1.183329 0.110990 -0.018487 72523.000000 0 0 1
-24.299977 -16.201058 13.477747 32.165398 0.588033 1.138437 0.101142 -0.019470 -229055.000000 0 0 1
-24.850877 -16.975558 14.536647 33.422295 0.599291 1.120826 0.096420 -0.032388 -266170.000000 0 0 1
-24.058077 -17.178958 15.655547 33.451515 0.620101 1.083762 0.109516 -0.030678 246960.000000 0 0 1
-24.950677 -17.793258 16.809047 34.952545 0.619489 1.069103 0.105424 -0.011937 865966.000000 0 0 1
-25.808057 -16.899758 17.533347 35.483460 0.579760 1.053966 0.112862 -0.015295 437259.000000 0 0 1
-26.817727 -17.650458 18.192447 36.901142 0.582093 1.055256 0.092180 -0.001194 -258957.000000 0 0 1
-27.769077 -16.783558 19.000947 37.601137 0.543647 1.041033 0.089454 -0.008266 -239949.000000 0 0 1
-27.117527 -16.228458 20.132347 37.470449 0.539278 1.003580 0.096446 -0.013245 268234.000000 0 0 1
-27.988097 -15.322258 20.773147 38.073991 0.500888 0.993692 0.096852 -0.018706 -78452.400000 0 0 1
-27.367427 -14.726558 22.019547 38.088162 0.493665 0.954373 0.096797 -0.018706 136430.000000 0 0 1
-26.342137 -13.800258 21.683747 36.804079 0.482573 0.940769 0.099909 -0.016414 -103555.000000 0 0 1
-25.327977 -13.724358 22.637347 36.637603 0.496576 0.904763 0.096239 -0.019017 -130323.000000 0 0 1
-24.130877 -12.858458 22.146847 35.186958 0.489591 0.890009 0.114879 -0.020913 -6049.600000 0 0 1
-24.402177 -11.504358 21.825047 34.700853 0.440546 0.890596 0.119033 -0.024651 308266.000000 0 0 1
-23.293777 -10.952058 21.107847 33.287969 0.439501 0.883954 0.133328 -0.031917 -131526.000000 0 0 1
-22.996977 -9.497358 21.458947 32.856463 0.391648 0.859110 0.136366 -0.031810 -202374.000000 0 0 1
-22.336077 -9.316958 22.675347 33.164400 0.395182 0.817941 0.122693 -0.033977 -268233.000000 0 0 1
-20.937577 -9.395658 22.642547 32.238882 0.421811 0.792122 0.095004 -0.023293 -558291.000000 0 0 1
-20.343977 -9.418458 24.040847 32.871676 0.433579 0.750490 0.077845 -0.022174 21164.700000 0 0 1
-20.658177 -10.612058 24.796547 33.974179 0.474546 0.752673 0.097913 -0.015837 41252.700000 0 0 1
-19.992377 -10.611258 26.057447 34.514990 0.487956 0.715203 0.088424 -0.017538 -731336.000000 0 0 1
-20.156977 -11.899658 26.922047 35.674952 0.533293 0.715678 0.086140 -0.026648 593016.000000 0 0 1
-21.312677 -11.892958 27.760147 36.963474 0.508982 0.721197 0.081214 -0.017261 445437.000000 0 0 1
-22.534577 -12.185158 27.070847 37.270847 0.495700 0.757832 0.078258 -0.018580 799572.000000 0 0 1
-23.677377 -12.624058 28.076347 38.836405 0.489830 0.762750 0.071358 -0.017224 466452.000000 0 0 1
-23.566277 -13.961058 28.661647 39.645562 0.534825 0.762738 0.065352 -0.007835 -541808.000000 0 0 1
-22.482577 -14.054158 29.540247 39.693978 0.558681 0.731460 0.049351 -0.009203 -107396.000000 0 0 1
-22.659477 -15.221258 30.581447 40.992237 0.591506 0.728716 0.040172 -0.016196 -285466.000000 0 0 1
-22.542677 -16.560358 30.114047 41.100774 0.633587 0.748533 0.045112 -0.012682 -59564.900000 0 0 1
-22.779277 -17.627958 31.069447 42.366861 0.658597 0.747570 0.037381 -0.007864 1115510.000000 0 0 1
-24.294577 -17.807158 31.517447 43.596684 0.632511 0.762759 0.057814 -0.021749 1305840.000000 0 0 1
-24.837377 -16.795158 32.385247 44.133625 0.594577 0.746898 0.067343 -0.020587 -30120.600000 0 0 1
-26.144837 -17.132958 32.824847 45.327270 0.580099 0.760960 0.069497 -0.029943 11060.800000 0 0 1
-26.776647 -15.914658 33.568147 45.793948 0.536254 0.748037 0.064931 -0.028933 212509.000000 0 0 1
-26.218407 -15.555958 -32.913191 44.862800 0.535495 2.394461 0.067105 -0.024139 664001.000000 0 0 1
-27.283017 -14.836258 -32.235891 44.761928 0.498064 2.374834 0.079614 -0.021141 785231.000000 0 0 1
-26.894047 -14.102358 -30.961891 43.368248 0.482951 2.365891 0.071470 -0.009601 -341880.000000 0 0 1
-26.861457 -14.892158 -29.809691 42.801074 0.506220 2.341264 0.088816 -0.003829 254849.000000 0 0 1
-26.431347 -14.207358 -28.625991 41.471828 0.493211 2.332633 0.085466 0.006237 -154768.000000 0 0 1
-26.562927 -15.127658 -27.401391 41.052057 0.517693 2.301615 0.084138 -0.001424 -370303.000000 0 0 1
-27.827417 -15.120058 -26.809391 41.493671 0.497724 2.273270 0.099141 -0.010261 -337821.000000 0 0 1
-28.148947 -14.035558 -25.930891 40.764828 0.462541 2.260242 0.108322 -0.011792 22812.500000 0 0 1
-27.283807 -13.895658 -24.620491 39.289490 0.471060 2.248035 0.100592 -0.018532 1349180.000000 0 0 1
-25.929577 -13.388258 -24.748691 38.263378 0.476627 2.274175 0.066512 -0.008292 1693980.000000 0 0 1
-24.993077 -13.719358 -23.741891 37.101915 0.502019 2.265178 0.059751 -0.009098 486394.000000 0 0 1
-24.306977 -15.133258 -23.759291 37.206835 0.556864 2.263439 0.049436 -0.003366 -258676.000000 0 0 1
-23.421677 -15.378458 -24.831091 37.438683 0.580995 2.295945 0.044200 0.001179 122749.000000 0 0 1
-23.022577 -16.734458 -24.809291 37.756881 0.628534 2.287735 0.058067 -0.002334 114576.000000 0 0 1
-22.208277 -17.228258 -26.064091 38.332196 0.659784 2.318495 0.037315 -0.001062 567881.000000 0 0 1
-22.881377 -17.307758 -27.350591 39.637996 0.647592 2.332298 0.044058 -0.003581 21523.000000 0 0 1
-23.931277 -18.202058 -27.567791 40.792205 0.650249 2.312860 0.059351 -0.009878 133243.000000 0 0 1
-24.739677 -18.027258 -28.917591 42.110102 0.629715 2.327755 0.055679 -0.005646 355434.000000 0 0 1
-24.015177 -18.455458 -30.075591 42.683414 0.655231 2.352684 0.051541 -0.003653 104720.000000 0 0 1
-24.294977 -17.702558 -31.224091 43.342477 0.629697 2.375181 0.045944 -0.005462 -219838.000000 0 0 1
-23.413477 -17.910958 -32.494291 43.873366 0.653023 2.404816 0.045682 -0.005545 -191061.000000 0 0 1
-22.078277 -17.447658 -32.480891 42.975334 0.668776 2.427676 0.042250 -0.004776 225504.000000 0 0 1
-21.071177 -18.427058 -32.250091 42.703856 0.718555 2.426760 0.051117 -0.010025 204046.000000 0 0 1
-20.909277 -19.675058 -33.116691 43.829453 0.754996 2.427337 0.060564 -0.012073 -738466.000000 0 0 1
-20.422377 -19.324958 33.338547 43.611767 0.757795 0.700625 0.057387 -0.012260 73943.300000 0 0 1
-20.088777 -20.450258 32.510747 43.344212 0.794315 0.722644 0.066989 -0.012718 -526155.000000 0 0 1
-21.220877 -21.137558 31.760147 43.655801 0.783431 0.756107 0.059049 -0.010730 -259182.000000 0 0 1
-22.210077 -21.703358 32.644247 45.055190 0.773860 0.760431 0.058705 -0.007307 597791.000000 0 0 1
-23.445177 -22.064058 32.035747 45.417927 0.755059 0.787873 0.059130 -0.004442 505341.000000 0 0 1
-23.351777 -23.211558 30.952547 45.190067 0.782387 0.816273 0.065527 0.001143 -586838.000000 0 0 1
-22.912577 -24.422958 31.579147 46.029443 0.817295 0.814731 0.076539 0.004842 50247.000000 0 0 1
-23.019677 -25.539368 30.764447 46.136927 0.837241 0.840880 0.065926 0.006860 -101655.000000 0 0 1
-22.615877 -26.873788 31.400747 47.113536 0.871223 0.841304 0.098887 -0.006871 -178843.000000 0 0 1
-23.464177 -27.322268 32.408747 48.449983 0.861219 0.838053 0.076163 0.001515 -543314.000000 0 0 1
-22.922177 -28.458908 33.027247 49.255809 0.892742 0.835880 0.086057 -0.009236 -664963.000000 0 0 1
-23.880577 -29.289358 -33.785991 50.691633 0.886776 2.300301 0.073549 -0.004141 349104.000000 0 0 1
-24.991777 -29.955308 33.302847 51.293168 0.875487 0.864179 0.053908 -0.003293 1532300.000000 0 0 1
-26.008377 -29.077498 32.757847 50.941271 0.841056 0.872320 0.047623 0.002251 238397.000000 0 0 1
-26.856117 -28.247988 33.820647 51.604613 0.810652 0.856110 0.028791 0.007882 -763422.000000 0 0 1
-27.994637 -27.612238 33.362047 51.567059 0.778521 0.867200 0.021865 0.006417 -773512.000000 0 0 1
-28.773267 -27.141118 -33.336091 51.728485 0.756216 2.271092 0.019835 0.013642 160408.000000 0 0 1
-30.049527 -26.348038 -33.774491 52.325036 0.719860 2.272441 0.020525 0.007118 94132.200000 0 0 1
-30.950927 -27.155748 33.267547 52.935095 0.720177 0.891226 0.019710 0.001352 -824532.000000 0 0 1
-32.008857 -26.358958 32.837247 52.892782 0.688901 0.901000 0.037718 -0.006089 -395356.000000 0 0 1
