# x y z rho theta phi s1 s2 stress_xx np intf bulk
-0.866837 -10.820243 -14.462053 18.082590 1.490854 2.497721 0.009381 0.001030 200089.000000 1 0 0
2.071363 -13.528743 -13.042153 18.905428 -1.418868 2.332096 0.012879 0.006497 1815560.000000 1 0 0
2.022563 -11.177743 -14.704253 18.580844 -1.391788 2.483837 0.014468 -0.000324 645297.000000 1 0 0
-5.452837 -6.162743 -16.435253 18.380163 0.846439 2.677402 -0.001397 -0.001337 -1449990.000000 1 0 0
4.455863 -14.039843 -11.514253 18.696255 -1.263478 2.234272 0.008868 0.000835 -309891.000000 1 0 0
14.087863 -10.667143 -7.886953 19.350965 -0.648085 1.990592 0.025481 -0.013921 638130.000000 1 0 0
7.202663 10.886257 -10.795753 16.939221 0.986289 2.261815 0.012767 -0.005605 -736904.000000 1 0 0
5.705463 -4.224343 -12.609553 14.470598 -0.637331 2.628828 0.004210 -0.000253 1565760.000000 1 0 0
13.643063 0.460757 -10.006553 16.925619 0.033759 2.203352 0.011170 -0.000626 3128790.000000 1 0 0
14.227063 4.986157 -10.396453 18.312764 0.337093 2.174525 0.005323 0.001667 942159.000000 1 0 0
4.004663 4.359357 -13.358553 14.611374 0.827780 2.724467 0.007026 -0.000120 1820290.000000 1 0 0
10.360263 -5.109643 -13.664753 17.893266 -0.458190 2.439793 0.023055 -0.004531 243027.000000 1 0 0
2.522263 -7.549543 -11.982253 14.385125 -1.248361 2.555235 0.003265 0.002056 1922270.000000 1 0 0
-5.607637 -1.880743 -15.146653 16.260501 0.323600 2.769311 -0.001196 -0.002386 1625910.000000 1 0 0
10.632963 -0.039643 -9.619353 14.338529 -0.003728 2.306184 0.012105 -0.003686 1896140.000000 1 0 0
-1.628137 -9.548443 -17.049853 19.609210 1.401907 2.624949 0.022005 -0.010647 1418230.000000 1 0 0
8.727663 1.709557 -17.821653 19.917480 0.193429 2.678722 0.012259 -0.004503 -436898.000000 1 0 0
16.562863 -5.988843 -8.871553 19.720525 -0.346956 2.037409 0.028390 -0.006680 -1465400.000000 1 0 0
10.122563 7.511957 -9.875653 16.013254 0.638426 2.235362 0.007972 -0.003432 1004390.000000 1 0 0
13.891163 -2.340343 -10.633953 17.650002 -0.166910 2.217414 0.022552 -0.003180 -809304.000000 1 0 0
7.204863 -1.890043 -13.694653 15.589286 -0.256548 2.643438 0.013976 -0.003648 1058110.000000 1 0 0
-2.849037 6.725157 -13.835653 15.645129 -1.170079 2.655880 0.008368 -0.002309 1623390.000000 1 0 0
11.233163 1.734857 -13.895653 17.952238 0.153230 2.455985 0.003918 -0.000635 522655.000000 1 0 0
-2.360937 10.763457 -12.826553 16.909952 -1.354868 2.431837 0.010130 -0.002559 -1030960.000000 1 0 0
2.883563 -0.997643 -15.248753 15.551035 -0.333085 2.944102 0.011922 -0.002562 583425.000000 1 0 0
-8.980637 0.653757 -15.361653 17.806169 -0.072668 2.611411 0.000305 0.001592 -345485.000000 1 0 0
2.382763 -1.836643 -17.955153 18.205448 -0.656683 2.975581 0.021063 -0.010504 2414360.000000 1 0 0
1.038663 7.958857 -13.147153 15.403566 1.441026 2.593488 0.007270 -0.001745 155851.000000 1 0 0
9.303263 -9.136243 -9.850353 16.341698 -0.776341 2.217770 0.017488 -0.005997 -764080.000000 1 0 0
3.947063 7.360857 -13.400353 15.790218 1.078592 2.584222 -0.002241 -0.000500 1784930.000000 1 0 0
-2.721237 9.156557 -15.422153 18.140851 -1.281919 2.587036 0.010214 -0.004182 1245740.000000 1 0 0
5.483663 -7.735143 -15.212053 17.925110 -0.954103 2.584215 0.011342 -0.001699 203901.000000 1 0 0
4.252463 7.438157 -16.271453 18.389394 1.051439 2.656921 0.001325 0.000618 835242.000000 1 0 0
-0.306837 5.168357 -13.483253 14.443136 -1.511497 2.774962 0.010386 -0.003275 2415960.000000 1 0 0
8.769363 4.294257 -16.568553 19.231727 0.455364 2.609056 0.000914 -0.003223 43617.400000 1 0 0
5.322563 0.327457 -14.395053 15.351041 0.061445 2.786818 0.008267 -0.001179 -501827.000000 1 0 0
6.257463 7.989257 -11.530953 15.360565 0.906362 2.419895 0.002951 -0.000386 -870139.000000 1 0 0
2.704663 -8.402843 -14.978753 17.386375 -1.259394 2.609057 0.008897 -0.006373 307056.000000 1 0 0
4.188363 11.427357 -13.770853 18.378337 1.219480 2.417798 0.000535 -0.011522 -40919.200000 1 0 0
0.607063 -4.508843 -13.715253 14.450134 -1.436963 2.821301 0.007913 0.000449 886264.000000 1 0 0
8.501063 -0.168043 -11.648853 14.421931 -0.019765 2.511068 0.004981 -0.001053 -456538.000000 1 0 0
-0.869537 -5.158843 -16.247853 17.069344 1.403813 2.830088 0.002883 -0.006680 -449249.000000 1 0 0
4.568463 0.874957 -11.615153 12.511922 0.189230 2.760683 0.001754 -0.002119 1844500.000000 1 0 0
-2.873237 -7.222543 -15.586853 17.417538 1.192175 2.678990 0.000615 -0.004269 2650350.000000 1 0 0
11.413463 -3.808743 -11.365553 16.551419 -0.322086 2.327711 0.020875 -0.005393 -75383.000000 1 0 0
6.498063 -7.032343 -12.564653 15.797126 -0.824865 2.490424 0.009387 -0.001597 -889355.000000 1 0 0
3.413263 -3.972843 -14.660353 15.567909 -0.861015 2.798454 0.013431 -0.002093 3719920.000000 1 0 0
-0.535837 -1.614343 -18.332453 18.411194 1.250316 3.049074 0.015328 -0.011678 230711.000000 1 0 0
14.935663 2.889157 -8.504753 17.428484 0.191080 2.080570 0.004822 0.002636 -355769.000000 1 0 0
6.871763 4.278857 -14.241153 16.381092 0.556924 2.624713 -0.001544 0.001827 4073990.000000 1 0 0
10.096363 -9.657243 -13.984553 19.767818 -0.763172 2.356666 0.025976 -0.013692 -1154420.000000 1 0 0
9.084063 -3.241543 -15.556253 18.303683 -0.342754 2.586587 0.021261 -0.009702 229272.000000 1 0 0
-5.263637 -1.935243 -18.064953 18.915432 0.352323 2.840584 -0.009469 0.001988 2368090.000000 1 0 0
5.058363 -9.082143 -11.134553 15.233208 -1.062628 2.390494 0.003978 -0.000034 1109820.000000 1 0 0
-2.397637 4.061557 -17.160553 17.796896 -1.037521 2.873373 0.002612 0.004333 1712610.000000 1 0 0
9.423763 9.175257 -14.485753 19.566034 0.772038 2.404390 0.016426 -0.008563 -178783.000000 1 0 0
9.869963 9.970457 -11.609353 18.209977 0.790463 2.262081 0.007938 -0.004030 486110.000000 1 0 0
12.024063 -6.049643 -9.703953 16.593462 -0.466147 2.195437 0.024114 -0.007305 670133.000000 1 0 0
8.060863 6.806057 -13.581353 17.197473 0.701195 2.481164 0.000585 -0.000927 68226.300000 1 0 0
4.021063 -4.187843 -17.537253 18.473284 -0.805712 2.821895 0.026617 -0.011843 37464.800000 1 0 0
9.284563 -7.519043 -12.344253 17.179048 -0.680714 2.372532 0.020593 -0.009442 450268.000000 1 0 0
12.038563 -8.800143 -8.885153 17.358441 -0.631227 2.108149 0.023601 -0.008250 1491540.000000 1 0 0
-2.902637 -2.408743 -13.922553 14.424453 0.692677 2.877022 0.003706 -0.003068 -651974.000000 1 0 0
-0.376937 6.288957 -17.600353 18.693996 -1.510932 2.797843 0.010973 0.000923 1289160.000000 1 0 0
1.116863 -8.473143 -17.507653 19.482286 -1.439740 2.687467 0.016894 -0.013856 3545460.000000 1 0 0
0.074963 8.676957 -15.935853 18.145154 1.562157 2.642972 0.009879 0.000308 -896017.000000 1 0 0
1.745663 3.476657 -14.901653 15.401096 1.105462 2.886227 0.009739 0.000992 1216570.000000 1 0 0
-1.890437 -0.406943 -15.885153 16.002420 0.212029 3.020456 0.005322 -0.002121 2077010.000000 1 0 0
14.177563 -4.408643 -8.556653 17.136386 -0.301481 2.093618 0.023150 -0.004410 837400.000000 1 0 0
0.601263 0.746157 -14.603953 14.635358 0.892521 3.076070 0.005871 -0.001295 572185.000000 1 0 0
8.822963 2.697157 -12.563053 15.586842 0.296676 2.508166 0.001966 0.000799 1190940.000000 1 0 0
6.005663 0.984757 -17.150653 18.198424 0.162525 2.800606 0.018033 0.002030 727367.000000 1 0 0
15.301763 1.444457 -12.435353 19.770392 0.094119 2.251048 0.009418 -0.000106 -185877.000000 1 0 0
8.764763 -11.258743 -11.942253 18.606391 -0.909313 2.267687 0.023133 -0.006902 2518930.000000 1 0 0
-4.554137 0.884057 -15.097953 15.794617 -0.191737 2.843479 0.003987 -0.002156 1434510.000000 1 0 0
2.448263 5.272557 -17.127453 18.087109 1.136081 2.814382 0.009391 -0.000099 1969980.000000 1 0 0
5.869863 -11.637543 -12.361553 17.963733 -1.103643 2.329718 0.010312 -0.002726 -1571890.000000 1 0 0
12.876363 7.107957 -8.642653 17.059285 0.504390 2.102062 0.003112 0.000694 935936.000000 1 0 0
-4.963037 3.766157 -15.697853 16.888999 -0.649135 2.763776 0.002699 0.001092 1889130.000000 1 0 0
-0.505537 -4.443443 -19.094653 19.611363 1.457512 2.911532 0.015666 -0.015648 -1707560.000000 1 0 0
9.715763 4.400357 -10.260353 14.799798 0.425270 2.336822 0.000710 0.000260 444663.000000 1 0 0
13.265163 3.551057 -12.834953 18.796557 0.261565 2.322433 0.006440 -0.004790 94892.400000 1 0 0
-6.153737 5.899057 -17.235753 19.228587 -0.764271 2.682288 -0.006093 0.007484 24706.000000 1 0 0
-10.086037 3.324757 -15.417753 18.721359 -0.318422 2.538417 0.000272 -0.000790 243463.000000 1 0 0
10.927663 13.513657 -8.271253 19.246983 0.890810 2.015004 0.031226 0.000217 -128939.000000 1 0 0
7.427863 13.477657 -12.354553 19.734623 1.067090 2.247254 0.013918 -0.003544 445780.000000 1 0 0
5.302463 15.299857 -11.263653 19.724898 1.237181 2.178565 0.010790 -0.004864 416607.000000 1 0 0
14.287863 9.441657 -9.808753 19.735743 0.583942 2.090940 0.024914 -0.002574 -418230.000000 1 0 0
8.202863 -17.248543 -2.157353 19.221170 -1.126884 1.683272 0.010674 -0.000630 108526.000000 1 0 0
0.665363 -15.966743 0.012847 15.980606 -1.529149 1.569992 0.004332 -0.004117 1829230.000000 1 0 0
-9.128237 -11.715243 7.476947 16.627579 0.908882 1.104399 0.005840 -0.003238 810065.000000 1 0 0
2.002263 -15.973243 -2.591353 16.305480 -1.446096 1.730398 0.003829 -0.003709 1781360.000000 1 0 0
-1.352237 -11.102943 -9.518553 14.686959 1.449602 2.275877 0.004620 0.000814 761538.000000 1 0 0
-5.018337 -12.624743 -13.112653 18.881460 1.192447 2.338483 0.019585 -0.000581 -490679.000000 1 0 0
-8.327537 -17.851543 -1.972453 19.796870 1.134316 1.670597 0.005834 -0.004092 -1121300.000000 1 0 0
-11.435837 -7.035143 -8.856853 16.084635 0.551509 2.153928 0.009357 -0.004273 2736450.000000 1 0 0
-13.561037 -11.426543 -4.777953 18.365633 0.700183 1.833981 -0.002150 -0.004874 -1640840.000000 1 0 0
-5.632337 -13.495043 9.559547 17.470671 1.175412 0.991809 -0.002919 -0.013764 620718.000000 1 0 0
0.048163 -14.053343 -3.632253 14.515235 -1.567369 1.823722 0.001822 -0.004214 932634.000000 1 0 0
-14.698837 -11.738343 1.882747 18.904742 0.673881 1.471040 -0.003931 -0.000882 567896.000000 1 0 0
-3.896237 -16.488243 -7.577253 18.559569 1.338749 1.991351 -0.001346 -0.008135 540764.000000 1 0 0
0.544963 -15.327043 -9.309953 17.941306 -1.535256 2.116374 0.005953 0.003169 1281240.000000 1 0 0
4.459563 -14.254343 -2.570853 15.155306 -1.267587 1.741254 0.001688 0.000763 -85881.200000 1 0 0
-3.622137 -17.941843 -2.485853 18.471846 1.371592 1.705781 -0.004587 -0.013444 1764660.000000 1 0 0
-0.976137 -13.464743 0.660247 13.516216 1.498427 1.521928 0.006956 -0.004423 2691690.000000 1 0 0
-8.615837 -11.341343 -10.529653 17.712491 0.921126 2.207410 0.016611 -0.004340 3132140.000000 1 0 0
-3.815937 -14.137643 -0.467253 14.651029 1.307165 1.602694 0.002083 -0.003180 5406150.000000 1 0 0
-1.514337 -14.956043 -7.393553 16.752346 1.469888 2.027893 -0.004521 -0.000802 134449.000000 1 0 0
-14.270037 -7.945543 -1.811953 16.433162 0.508048 1.681283 -0.003258 -0.002780 1801080.000000 1 0 0
-10.740037 -7.274843 -11.679553 17.455192 0.595367 2.303815 0.007544 -0.005755 392144.000000 1 0 0
-9.492337 -14.662443 6.734247 18.720091 0.996257 1.202814 -0.002326 -0.005043 1510630.000000 1 0 0
-2.749537 -14.376543 -12.460453 19.222587 1.381827 2.276040 0.014021 0.000304 332245.000000 1 0 0
2.178063 -17.816743 -4.791053 18.577796 -1.449152 1.831635 0.004952 -0.010854 -219654.000000 1 0 0
-6.773637 -9.591843 -9.312653 14.987032 0.955930 2.241300 0.014022 -0.003808 1655960.000000 1 0 0
-11.127937 -15.420243 0.290147 19.018388 0.945691 1.555540 0.008811 -0.000728 149576.000000 1 0 0
-12.653537 -11.213243 4.003547 17.374614 0.725124 1.338282 0.009563 -0.000586 902925.000000 1 0 0
-17.166037 -8.931843 -1.589553 19.415904 0.479772 1.652757 0.004870 -0.006327 433623.000000 1 0 0
-1.588937 -19.194043 -4.070253 19.685095 1.488202 1.779067 -0.002696 -0.012057 1359050.000000 1 0 0
3.259463 -14.257443 -8.836353 17.087420 -1.346044 2.114286 0.002092 0.000891 727158.000000 1 0 0
-4.387937 -8.007543 -13.080753 15.952456 1.069509 2.532179 0.002696 0.002515 3305110.000000 1 0 0
5.549363 -16.649043 1.259747 17.594688 -1.249063 1.499137 0.010772 0.000812 3114330.000000 1 0 0
-2.946437 -13.838343 -3.295953 14.527372 1.361011 1.799668 0.000182 -0.004937 -704810.000000 1 0 0
-0.463837 -14.045643 3.656447 14.521186 1.537785 1.316256 0.003503 -0.000664 -4105530.000000 1 0 0
1.139163 -16.193543 6.986347 17.673075 -1.500565 1.164391 0.012303 -0.006242 2809020.000000 1 0 0
-5.520137 -10.301543 -14.754853 18.822843 1.078878 2.471687 0.007057 0.000453 -1704190.000000 1 0 0
-0.451537 -17.223643 -5.879353 18.205070 1.544586 1.899643 0.001058 -0.010790 -993726.000000 1 0 0
-6.661537 -13.473843 -1.409153 15.096564 1.111635 1.664275 0.008697 -0.005653 3685790.000000 1 0 0
-1.685237 -17.660543 -0.280953 17.742992 1.475661 1.586632 -0.001260 -0.007388 1140000.000000 1 0 0
-9.570237 -9.712743 -4.903553 14.490399 0.792788 1.916013 0.018648 -0.007521 2169840.000000 1 0 0
-0.882437 -16.760543 4.836947 17.466842 1.518195 1.290207 0.012942 -0.004105 3147640.000000 1 0 0
-6.889137 -9.917843 -6.407853 13.670567 0.963690 2.058653 0.016722 -0.006708 3197260.000000 1 0 0
-5.944737 -14.475843 -8.629853 17.870767 1.181129 2.074764 0.007202 -0.007869 602231.000000 1 0 0
-5.814537 -12.116343 -10.344753 16.959615 1.123364 2.226811 0.017837 -0.006526 -198613.000000 1 0 0
-11.037937 -12.073343 -8.897453 18.621664 0.830169 2.068946 0.023192 -0.013758 1148110.000000 1 0 0
3.948163 -17.114043 6.589447 18.758979 -1.344066 1.211870 0.017431 -0.008890 -79115.700000 1 0 0
-6.725737 -14.391643 -4.239053 16.441548 1.133619 1.831567 0.011560 -0.009166 -2010030.000000 1 0 0
-2.820237 -12.302543 -7.153953 14.508114 1.345450 2.086446 0.009087 -0.002496 2446880.000000 1 0 0
-7.017337 -12.864143 4.304647 15.272825 1.071418 1.285075 -0.000464 -0.001349 2834590.000000 1 0 0
2.589963 -16.474443 2.406347 16.849501 -1.414862 1.427492 0.008751 -0.002948 3353200.000000 1 0 0
-6.162137 -12.019643 7.121047 15.269351 1.097062 1.085623 -0.003108 -0.004170 2170100.000000 1 0 0
-11.336937 -12.813443 -1.100853 17.144164 0.846460 1.635052 0.004174 -0.001409 1082740.000000 1 0 0
-14.171237 -8.772043 4.454247 17.251465 0.554275 1.309643 0.001312 -0.001267 -1556770.000000 1 0 0
-7.954137 -15.547743 4.318647 17.990312 1.097916 1.328375 -0.006082 0.002041 366970.000000 1 0 0
-16.477937 -9.362643 1.159847 18.987542 0.516703 1.509674 -0.008956 -0.003162 -515105.000000 1 0 0
-6.629237 -17.157143 2.185247 18.522680 1.202083 1.452544 -0.010258 0.006553 2653180.000000 1 0 0
-11.581637 -14.827943 -4.696853 19.392335 0.907706 1.815431 0.019750 -0.006126 -32787.700000 1 0 0
-10.069337 -9.943043 -12.698553 19.013388 0.779087 2.302145 0.007862 0.000177 477877.000000 1 0 0
-4.407037 -15.965143 -4.656753 17.204451 1.301462 1.844887 0.000267 -0.009214 -2046380.000000 1 0 0
-11.833937 -8.272243 -0.008053 14.438565 0.610073 1.571354 -0.001242 -0.001746 2221100.000000 1 0 0
-9.592337 -11.225343 3.431647 15.159072 0.863681 1.342441 0.002805 0.001699 2867330.000000 1 0 0
-14.247337 -12.944643 -0.692853 19.262151 0.737527 1.606774 0.003525 0.000881 -325825.000000 1 0 0
5.549363 -14.918543 -7.113653 17.434518 -1.214678 1.991082 0.002665 -0.005889 536089.000000 1 0 0
-7.509137 -10.622143 -1.319553 13.075102 0.955433 1.671890 0.008067 -0.004202 1198610.000000 1 0 0
-11.677837 -8.214943 -6.076253 15.517024 0.613047 1.973151 0.011687 -0.005691 41997.300000 1 0 0
-14.411037 -6.493743 -9.344853 18.362271 0.423360 2.104721 0.007740 -0.007651 908918.000000 1 0 0
-3.892937 -16.421743 1.304347 16.927195 1.338033 1.493664 -0.002641 -0.005108 1330430.000000 1 0 0
-8.119737 -15.622443 0.028747 17.606581 1.091475 1.569164 0.004740 -0.001080 2929450.000000 1 0 0
1.010163 -18.688643 3.794947 19.096791 -1.516797 1.370743 0.009671 -0.004348 1848040.000000 1 0 0
-14.169537 -8.700943 -4.587953 17.249102 0.550693 1.840019 -0.004403 -0.006866 1829960.000000 1 0 0
-3.204837 -14.573743 10.983447 18.528386 1.354337 0.936277 -0.013443 -0.008537 1898480.000000 1 0 0
-10.909237 -12.055143 -3.835153 16.704680 0.835256 1.802448 0.009734 -0.010402 604787.000000 1 0 0
-10.053137 -10.747343 0.433347 14.722729 0.818760 1.541358 0.004896 0.000631 679770.000000 1 0 0
-0.268237 -13.305743 -11.202253 17.395552 1.550640 2.270476 0.000977 0.002847 1934350.000000 1 0 0
-5.855137 -12.636543 -6.364253 15.312367 1.136896 1.999430 0.009690 -0.009512 2293070.000000 1 0 0
1.811363 -15.901643 9.859047 18.797449 -1.457375 1.018682 0.011579 -0.004975 -641366.000000 1 0 0
-9.006737 -15.574143 -5.659053 18.860014 1.046475 1.875547 0.023393 -0.009428 401698.000000 1 0 0
-3.352437 -15.577543 5.903247 16.992558 1.358820 1.215997 -0.003361 0.000040 -1415740.000000 1 0 0
-17.511437 -5.434143 -6.517653 19.459192 0.300897 1.912337 0.007892 -0.007704 246835.000000 1 0 0
18.883163 5.463657 -2.892153 19.869321 0.281649 1.716874 0.002641 0.004172 -1910160.000000 1 0 0
12.821163 -12.473643 -5.929953 18.845114 -0.771660 1.890903 0.026106 -0.008036 -651314.000000 1 0 0
10.926263 -13.621043 -1.593753 17.534426 -0.894739 1.661815 0.018982 -0.004111 3567700.000000 1 0 0
18.752963 -2.905043 4.464547 19.494744 -0.153690 1.339733 0.034622 -0.008608 -615899.000000 1 0 0
8.584363 -16.923943 4.939247 19.608858 -1.101380 1.316165 0.008140 -0.009393 -778022.000000 1 0 0
18.118963 -1.152743 6.650047 19.335169 -0.063535 1.219692 0.050639 -0.009454 -607282.000000 1 0 0
17.957263 -4.414743 -4.934853 19.139123 -0.241066 1.831583 0.030402 -0.007312 -3825.550000 1 0 0
5.502163 -11.689143 14.704447 19.573723 -1.130856 0.720867 0.002496 -0.000937 647113.000000 1 0 0
15.946163 -8.998543 -0.776853 18.326412 -0.513762 1.613199 0.029721 -0.002372 1251880.000000 1 0 0
13.801463 -12.714443 -1.502953 18.825417 -0.744426 1.650718 0.032087 -0.002868 241109.000000 1 0 0
11.209163 -1.912843 13.943647 17.992487 -0.169022 0.684128 0.008389 -0.001258 -1975950.000000 1 0 0
16.890863 -6.267443 -1.425353 18.072457 -0.355308 1.649747 0.020899 -0.001406 -892475.000000 1 0 0
17.832863 3.536957 -0.997153 18.207563 0.195798 1.625590 0.007318 0.004033 1480210.000000 1 0 0
9.754463 -11.155243 9.533047 17.620101 -0.852290 0.999132 0.002332 -0.000761 841610.000000 1 0 0
9.025663 -11.018443 4.199047 14.849265 -0.884492 1.284107 -0.001561 -0.002051 558702.000000 1 0 0
13.970363 -10.138543 6.739047 18.530403 -0.627779 1.198586 0.012007 -0.009192 -286577.000000 1 0 0
16.284063 -0.698543 -4.678953 16.957336 -0.042871 1.850348 0.011313 0.000787 -579749.000000 1 0 0
15.766663 -0.550643 -1.704553 15.868092 -0.034910 1.678424 0.010035 -0.000267 1661940.000000 1 0 0
12.861163 -5.191343 -0.256853 13.871753 -0.383645 1.589314 0.008449 -0.003101 1176310.000000 1 0 0
14.233763 -7.560643 1.046147 16.151091 -0.488277 1.505978 0.020915 -0.001287 2503990.000000 1 0 0
15.638463 2.408357 3.715147 16.253123 0.152802 1.340177 0.021700 -0.001746 1180270.000000 1 0 0
15.858963 -7.160643 4.920747 18.083010 -0.424117 1.295201 0.026454 -0.010182 -1943840.000000 1 0 0
13.546963 -12.113243 3.187547 18.450239 -0.729583 1.397161 0.014151 -0.003251 42770.500000 1 0 0
14.041663 -0.913143 9.216247 16.820860 -0.064940 0.990938 0.027678 -0.004806 875391.000000 1 0 0
14.170063 -2.854843 -1.542153 14.536817 -0.198809 1.677082 0.008734 0.000132 623189.000000 1 0 0
14.981163 1.951457 9.024847 17.598047 0.129531 1.032316 0.037951 -0.007126 -3079060.000000 1 0 0
14.343363 -10.202443 -2.986753 17.853364 -0.618270 1.738880 0.026111 -0.005433 746002.000000 1 0 0
7.321663 -12.571543 6.074347 15.765409 -1.043419 1.175268 -0.006355 -0.000378 -129346.000000 1 0 0
12.402363 -4.571443 6.964247 14.940463 -0.353143 1.085881 0.008121 -0.000102 3141190.000000 1 0 0
14.858263 -9.002243 -5.585753 18.248534 -0.544728 1.881883 0.034000 -0.009119 -68031.700000 1 0 0
14.337663 -4.628043 4.641147 15.764758 -0.312231 1.271969 0.014510 -0.004623 1216790.000000 1 0 0
17.136063 -4.311443 0.848347 17.690474 -0.246485 1.522823 0.017318 -0.005719 -1416930.000000 1 0 0
10.084863 -14.519243 1.132847 17.714294 -0.963713 1.506802 0.010675 -0.003500 -1155190.000000 1 0 0
16.390463 -2.603343 8.582447 18.683764 -0.157517 1.093529 0.042304 -0.007762 1221350.000000 1 0 0
16.048263 -2.684143 3.225747 16.587851 -0.165721 1.375085 0.018474 -0.003649 761438.000000 1 0 0
7.721363 -15.191143 2.686247 17.251267 -1.100546 1.414447 -0.000215 -0.003592 2951020.000000 1 0 0
16.487463 -7.060043 7.835247 19.572218 -0.404584 1.158925 0.027607 -0.010605 -728821.000000 1 0 0
10.278363 -8.575343 5.183847 14.354564 -0.695315 1.201318 0.001130 -0.002482 1077780.000000 1 0 0
10.828963 -11.874343 2.106647 16.208159 -0.831411 1.440453 0.007778 -0.002427 -311316.000000 1 0 0
12.203263 -7.280243 12.066147 18.641713 -0.537902 0.866804 -0.000717 -0.009585 912173.000000 1 0 0
15.118663 -9.942543 4.183647 18.572319 -0.581723 1.343584 0.019629 -0.005389 573971.000000 1 0 0
7.396963 -10.250343 7.880247 14.895734 -0.945700 1.013343 -0.006872 0.002087 -473210.000000 1 0 0
15.142563 -3.434243 -4.402753 16.139252 -0.223021 1.847096 0.016741 0.000346 2292370.000000 1 0 0
11.768363 -8.965143 9.832847 17.763812 -0.651011 0.984197 0.001781 -0.004507 -1249390.000000 1 0 0
16.921163 -6.690143 2.356947 18.347724 -0.376510 1.441980 0.029651 -0.008174 450253.000000 1 0 0
17.635763 3.891357 1.944547 18.164362 0.217172 1.463538 0.016987 0.001301 451117.000000 1 0 0
14.686063 -4.984343 8.889147 17.875711 -0.327194 1.050341 0.022700 -0.005000 538816.000000 1 0 0
12.581063 -12.602643 6.018147 18.797017 -0.786255 1.244893 -0.000120 -0.001684 181312.000000 1 0 0
18.265463 0.635957 -0.909453 18.299144 0.034803 1.620516 0.015918 -0.000594 956569.000000 1 0 0
11.797663 -2.087043 11.091647 16.326825 -0.175092 0.823918 0.009921 0.002917 1829860.000000 1 0 0
5.704963 -12.469843 10.579247 17.319470 -1.141722 0.913688 -0.006703 0.002562 -2121390.000000 1 0 0
10.738763 -4.908543 11.072547 16.186912 -0.428731 0.817505 0.002545 -0.000711 560287.000000 1 0 0
17.880463 1.262257 5.140747 18.647560 0.070477 1.291500 0.032964 0.000400 -296811.000000 1 0 0
12.326563 -7.687743 7.159147 16.195645 -0.557644 1.112923 0.011641 -0.006546 -1403940.000000 1 0 0
10.448263 -7.824243 14.367447 19.411556 -0.642769 0.737504 -0.008610 -0.011588 -86673.700000 1 0 0
14.196163 -0.326743 3.765147 14.690613 -0.023012 1.311608 0.011405 -0.000288 1609890.000000 1 0 0
11.691963 -7.721143 2.528747 14.237718 -0.583638 1.392240 0.007817 -0.002388 895379.000000 1 0 0
9.201263 6.040557 3.504447 11.551307 0.580926 1.262557 0.007382 -0.000815 3191630.000000 1 0 0
-3.952137 14.745857 -9.892253 18.191106 -1.308934 2.145750 0.001291 -0.004799 -3304.240000 1 0 0
8.814463 -6.341443 9.244647 14.260861 -0.623652 0.865508 0.001181 -0.001301 1179860.000000 1 0 0
5.866363 -10.575443 -8.471953 14.765778 -1.064340 2.181881 0.000220 -0.004738 170984.000000 1 0 0
5.419363 1.011957 0.547047 5.540109 0.184604 1.471892 0.000966 0.000766 2946890.000000 1 0 0
-0.491637 9.908057 11.036247 14.839476 -1.521217 0.732195 -0.007964 0.002060 366127.000000 1 0 0
-6.298237 -5.262843 0.985047 8.266537 0.696078 1.451352 0.005991 -0.002293 2422970.000000 1 0 0
-1.029637 3.960257 -10.853353 11.599098 -1.316435 2.781053 0.009476 -0.004055 865395.000000 1 0 0
10.910063 5.752657 1.240947 12.396067 0.485233 1.470520 0.008176 -0.000222 2063970.000000 1 0 0
-10.118437 -1.630643 -13.771953 17.167075 0.159782 2.501819 0.005739 -0.001244 2153050.000000 1 0 0
7.372163 10.905457 -6.101253 14.508723 0.976355 2.004818 0.003998 -0.001591 1450860.000000 1 0 0
-12.372237 -2.787543 -9.550553 15.876263 0.221606 2.216251 0.011157 -0.006370 1596510.000000 1 0 0
-3.843137 -8.714243 2.348247 9.809282 1.155437 1.329058 0.006567 -0.001262 -939989.000000 1 0 0
8.008463 -6.662543 -5.961753 12.002810 -0.693914 2.090585 0.000301 -0.004840 1260810.000000 1 0 0
14.381663 3.045157 -4.225453 15.295740 0.208657 1.850687 0.014595 0.000426 363424.000000 1 0 0
-2.573137 -5.014243 9.744447 11.256905 1.096672 0.524366 0.000136 -0.000455 2445060.000000 1 0 0
3.501763 -1.859043 -4.591853 6.066589 -0.488052 2.429366 0.000534 -0.002360 -1723700.000000 1 0 0
-3.974637 8.385157 -3.428653 9.892637 -1.128157 1.924726 -0.004658 -0.002277 -1001070.000000 1 0 0
5.798563 0.099557 11.788947 13.138208 0.017168 0.457176 0.004457 -0.001567 862676.000000 1 0 0
7.151063 4.726157 12.464347 15.127266 0.584002 0.602422 -0.000089 0.004254 933524.000000 1 0 0
1.253963 -14.538643 12.399647 19.149303 -1.484759 0.866465 -0.004274 -0.003547 -1491960.000000 1 0 0
2.944963 8.711257 -9.080753 12.923578 1.244794 2.349911 0.005740 -0.001791 1346430.000000 1 0 0
-4.444637 -8.919843 -4.654753 10.999324 1.108520 2.007754 0.011875 -0.003880 2530010.000000 1 0 0
5.702363 -6.581943 -4.074553 9.614619 -0.856878 2.008419 0.000623 -0.003983 1988200.000000 1 0 0
-3.194037 3.423257 8.719347 9.896846 -0.820024 0.492777 -0.005199 0.002433 2106230.000000 1 0 0
-3.829337 3.274357 -11.056153 12.150052 -0.707431 2.714002 0.003047 -0.004264 336178.000000 1 0 0
3.055363 -6.162543 8.639947 11.043589 -1.110518 0.672367 0.000960 -0.001043 518831.000000 1 0 0
-5.089637 -8.797843 10.383347 14.529981 1.046328 0.774722 0.001775 -0.006454 1508400.000000 1 0 0
-13.156537 -2.497843 6.626347 14.941291 0.187623 1.111305 0.002551 0.001804 -18224.000000 1 0 0
3.925463 -5.930643 -8.363253 10.978424 -0.986105 2.436868 0.001104 -0.001962 3855270.000000 1 0 0
2.915163 -0.499543 12.383147 12.731459 -0.169712 0.234453 0.004932 -0.000107 1682900.000000 1 0 0
1.472563 -1.405743 -7.610253 7.877849 -0.762188 2.880203 0.002171 -0.004484 680357.000000 1 0 0
3.622163 -3.572243 3.377247 6.106290 -0.778460 0.984744 0.001514 -0.001918 3822300.000000 1 0 0
1.624363 0.407757 -11.797653 11.915932 0.245944 3.000578 0.005429 -0.003174 -139211.000000 1 0 0
4.132063 3.509157 -10.501753 11.818415 0.704059 2.665063 -0.000251 -0.000430 1577390.000000 1 0 0
2.803463 3.236357 3.419547 5.479663 0.856949 0.896890 -0.007304 0.004576 189471.000000 1 0 0
-5.335637 0.891957 2.619747 6.010631 -0.165638 1.119811 0.000521 -0.002179 2365550.000000 1 0 0
-9.495837 -9.318243 5.622647 14.443502 0.775959 1.170940 0.006271 -0.000340 -1308190.000000 1 0 0
-2.979237 3.821157 -0.472953 4.868345 -0.908576 1.668098 -0.001622 -0.005224 82301.700000 1 0 0
-15.817637 -6.567843 4.925147 17.821091 0.393560 1.290785 0.010191 -0.000379 1628680.000000 1 0 0
1.019963 6.714857 -7.972253 10.473130 1.420052 2.435974 0.006543 -0.003460 495465.000000 1 0 0
-1.563837 6.536157 -9.395053 11.551362 -1.335952 2.520647 0.005537 -0.002067 459195.000000 1 0 0
2.066163 -0.405943 5.224747 5.633098 -0.194001 0.383105 0.000627 0.001852 2831790.000000 1 0 0
-3.415137 -0.506143 -6.320853 7.202259 0.147135 2.641673 0.006459 -0.006552 842263.000000 1 0 0
1.917663 -1.118443 -2.470853 3.321665 -0.527999 2.409623 0.005028 -0.001473 1831090.000000 1 0 0
2.452363 -8.615543 -7.635953 11.770703 -1.293486 2.276705 -0.000477 0.001663 752658.000000 1 0 0
-2.408237 14.031857 -5.593853 15.296529 -1.400826 1.945175 -0.004125 0.003378 2108820.000000 1 0 0
6.806663 -5.089443 -8.228953 11.829994 -0.642037 2.340052 0.002996 -0.004461 3062550.000000 1 0 0
-14.243337 -4.971343 -2.117753 15.233903 0.335810 1.710264 -0.001733 -0.002164 938744.000000 1 0 0
-2.731837 6.928657 -6.767853 10.063452 -1.195230 2.308402 0.000264 -0.001961 -1753280.000000 1 0 0
-5.679437 -1.123143 -8.150453 9.997367 0.195237 2.523974 0.008215 -0.007474 -181650.000000 1 0 0
-5.753437 -10.612043 3.363347 12.531146 1.073991 1.299066 0.002365 -0.002424 -1762370.000000 1 0 0
8.122763 -7.587043 6.708647 12.982621 -0.751310 1.027757 -0.003399 -0.003231 1526990.000000 1 0 0
8.778963 -5.786343 13.135747 16.825570 -0.582756 0.675009 0.003272 -0.003865 -735697.000000 1 0 0
-4.661837 9.595257 -0.758953 10.694750 -1.118534 1.641821 -0.009390 0.000322 121828.000000 1 0 0
2.800063 6.629057 12.094347 14.073307 1.171136 0.536736 -0.005281 0.002881 1253660.000000 1 0 0
5.943063 -2.829343 10.918347 12.748940 -0.444325 0.542517 0.002226 -0.002095 -1151460.000000 1 0 0
-9.670737 -6.506043 -1.156253 11.712757 0.592206 1.669675 0.010277 -0.003870 -160016.000000 1 0 0
0.832563 -13.346443 6.235947 14.754923 -1.508496 1.134446 0.003266 -0.001654 817832.000000 1 0 0
-0.509337 -3.213143 8.685647 9.274922 1.413588 0.358381 0.000007 -0.000350 1106280.000000 1 0 0
4.218263 0.711957 3.395547 5.461718 0.167204 0.899886 -0.004464 0.003989 1279480.000000 1 0 0
-10.205737 5.559357 8.334047 14.301044 -0.498787 0.948678 0.000210 -0.007869 1843860.000000 1 0 0
9.334763 7.954457 -0.011753 12.264229 0.705731 1.571755 0.003882 0.000553 -59429.400000 1 0 0
4.290163 2.778557 8.201547 9.663914 0.574727 0.557316 -0.004474 0.004228 5049810.000000 1 0 0
1.353563 2.622657 -9.725053 10.163027 1.094349 2.846947 0.007398 -0.004257 1956220.000000 1 0 0
-1.407837 -10.234943 2.973647 10.750751 1.434102 1.290543 0.004000 -0.003258 -1662810.000000 1 0 0
-9.821237 9.517357 9.071347 16.411158 -0.769686 0.985130 0.005067 -0.008094 852191.000000 1 0 0
9.810163 -2.110243 -7.670553 12.630511 -0.211879 2.223458 0.013208 -0.003074 886577.000000 1 0 0
-5.204037 -1.971043 6.662347 8.680661 0.362057 0.695875 -0.002878 -0.000424 1235660.000000 1 0 0
3.098763 -7.828743 -4.906153 9.744839 -1.193900 2.098397 -0.001831 -0.000810 1897790.000000 1 0 0
-5.118737 4.973757 -13.033153 14.859435 -0.771034 2.640579 -0.001498 -0.007424 3513840.000000 1 0 0
-5.651337 9.516857 5.533747 12.374592 -1.034930 1.107179 -0.007129 0.002113 1363170.000000 1 0 0
-0.479937 -1.849843 -9.426153 9.617933 1.316946 2.941561 0.005178 -0.005175 911925.000000 1 0 0
-16.735337 0.125057 6.474547 17.944551 -0.007472 1.201662 0.015788 -0.009675 94357.600000 1 0 0
-6.008337 -2.987443 4.006247 7.815046 0.461418 1.032548 -0.003816 -0.001936 2446040.000000 1 0 0
0.969363 -5.688643 -5.190053 7.761249 -1.402014 2.303274 0.001440 -0.000993 325242.000000 1 0 0
-6.984037 1.430457 -8.463853 11.066155 -0.202024 2.441591 0.002505 -0.002953 -230787.000000 1 0 0
7.983263 1.933957 4.766847 9.497131 0.237673 1.044973 0.000750 0.002585 -522614.000000 1 0 0
0.443463 -8.043443 -0.482853 8.070117 -1.515719 1.630664 0.001196 -0.000872 1455580.000000 1 0 0
5.428263 5.522457 -3.372553 8.446163 0.794000 1.981550 0.000494 -0.000418 1383010.000000 1 0 0
-0.714037 -0.302143 -1.204453 1.432427 0.400301 2.569644 0.003088 -0.003256 -370339.000000 1 0 0
9.123463 6.320457 -6.330653 12.777438 0.605857 2.089156 0.002899 -0.003483 1720860.000000 1 0 0
-15.005537 -7.166043 2.369447 16.796804 0.445535 1.429259 -0.003726 0.000237 2504840.000000 1 0 0
-6.396437 6.809857 8.979147 12.958149 -0.816693 0.805245 -0.001377 0.000910 -883099.000000 1 0 0
-9.388237 -3.098943 -9.629353 13.800974 0.318827 2.343020 0.006073 -0.002283 1777990.000000 1 0 0
14.938663 3.337657 -1.172553 15.351823 0.219814 1.647250 0.006854 -0.001915 672703.000000 1 0 0
12.059263 1.662957 -5.792353 13.481194 0.137034 2.014914 0.011101 0.000886 1276760.000000 1 0 0
1.630163 -9.420443 12.718747 15.911276 -1.399448 0.644577 0.000132 -0.004443 486045.000000 1 0 0
-3.646437 6.336257 7.914647 10.774335 -1.048596 0.745744 -0.004449 0.003325 275879.000000 1 0 0
-4.122437 13.119757 -12.375053 18.500390 -1.266349 2.303535 0.010927 -0.000596 -462194.000000 1 0 0
-10.182837 7.732357 6.526147 14.355142 -0.649459 1.098850 -0.004934 -0.004381 608221.000000 1 0 0
8.096863 -9.353943 -7.084553 14.256449 -0.857310 2.090862 0.005201 -0.005005 745165.000000 1 0 0
5.879463 -3.815743 -0.293253 7.015267 -0.575669 1.612611 0.002828 -0.002892 -243490.000000 1 0 0
-1.591737 -4.577743 4.049447 6.315646 1.236161 0.874765 0.001598 -0.002069 1383440.000000 1 0 0
9.933663 -2.050543 -2.555153 10.459980 -0.203564 1.817572 0.002432 -0.000607 -2073660.000000 1 0 0
13.570663 6.915657 1.404447 15.295805 0.471301 1.478848 0.009435 -0.004034 345633.000000 1 0 0
5.372863 -3.729443 -3.276453 7.315159 -0.606773 2.035211 0.002989 -0.004264 -1721440.000000 1 0 0
-12.259337 -5.950543 1.864047 13.754090 0.451890 1.434851 -0.001490 0.002113 1022830.000000 1 0 0
3.806463 -5.741343 -0.278153 6.894168 -0.985342 1.611153 0.002418 -0.003854 -319706.000000 1 0 0
-5.221737 3.721657 -8.628153 10.749991 -0.619214 2.502470 0.001117 -0.003434 536491.000000 1 0 0
-1.733937 -9.282443 7.204047 11.877230 1.386127 0.919092 -0.000990 -0.003057 1267870.000000 1 0 0
-7.434737 -7.508443 2.502547 10.858857 0.790331 1.338245 0.006955 -0.002507 -3784600.000000 1 0 0
-5.664437 13.073157 -8.418353 16.548775 -1.161927 2.104470 -0.003118 -0.004012 491661.000000 1 0 0
9.161563 -14.053843 -4.178653 17.288895 -0.993093 1.814909 0.011251 -0.001183 80109.200000 1 0 0
-6.511237 -5.063643 -6.805053 10.693243 0.660981 2.260603 0.010046 -0.003013 930007.000000 1 0 0
3.371763 0.407157 -6.251053 7.114086 0.120173 2.643901 0.003673 -0.004724 2033390.000000 1 0 0
-3.621037 5.719857 5.025547 8.431180 -1.006419 0.932203 -0.005137 0.003669 -158133.000000 1 0 0
-2.726537 -10.869143 -2.942053 11.585679 1.325017 1.827547 0.009018 -0.003951 2212920.000000 1 0 0
-12.565237 -0.431143 1.812547 12.702614 0.034299 1.427617 0.000271 -0.002456 779528.000000 1 0 0
8.415063 -12.058643 -5.997053 15.880454 -0.961518 1.958040 0.006538 -0.006693 -60381.100000 1 0 0
6.117763 3.904357 1.028847 7.330044 0.568035 1.429971 -0.000923 0.001568 -70137.200000 1 0 0
3.413063 -4.857043 -10.968853 12.472193 -0.958258 2.645533 0.002783 -0.000910 -711097.000000 1 0 0
-7.577737 4.208357 8.760147 12.323658 -0.506947 0.780105 -0.003387 0.000010 1704790.000000 1 0 0
8.163863 8.690257 4.123147 12.616242 0.816620 1.237867 0.008749 0.001801 1337900.000000 1 0 0
0.248763 10.601657 -6.295153 12.332314 1.547336 2.106516 0.000808 0.001366 1386800.000000 1 0 0
5.357563 8.080057 3.314047 10.245667 0.985295 1.241414 0.001770 0.004625 2522160.000000 1 0 0
8.026863 6.729757 -3.781053 11.136270 0.697724 1.917209 0.001583 -0.002238 -381587.000000 1 0 0
10.538163 2.559457 -8.272153 13.639362 0.238262 2.222436 0.004660 -0.001486 1320600.000000 1 0 0
3.311763 -12.460143 -0.323753 12.896812 -1.311014 1.595902 -0.001513 -0.001266 -1852840.000000 1 0 0
0.581963 2.039257 5.305147 5.713303 1.292806 0.380281 -0.000799 0.002582 870648.000000 1 0 0
-4.836737 13.441857 1.545947 14.368977 -1.225394 1.462998 -0.009437 0.004722 1860850.000000 1 0 0
8.236563 4.120857 -8.015653 12.209550 0.463898 2.286975 0.000656 -0.001531 1038060.000000 1 0 0
-13.851437 -0.498943 -3.527553 14.302269 0.036005 1.820011 0.002562 -0.003476 1067670.000000 1 0 0
-8.481237 -0.007943 -0.466053 8.494037 0.000937 1.625692 0.002184 -0.003426 -1182140.000000 1 0 0
1.836163 -3.813643 -1.139653 4.383398 -1.122081 1.833811 0.003100 -0.002700 -1480800.000000 1 0 0
8.088063 -5.643243 -0.262453 9.865690 -0.609197 1.597402 0.001780 -0.002282 1802650.000000 1 0 0
-2.310437 -1.281243 7.348547 7.809023 0.506327 0.345126 0.000507 0.001893 2148350.000000 1 0 0
-5.879537 8.887157 -11.655853 15.792702 -0.986326 2.400977 -0.004061 -0.001287 -105895.000000 1 0 0
-6.194937 9.213357 -8.851653 14.199118 -0.978844 2.243873 -0.005503 -0.000209 146060.000000 1 0 0
-1.497337 13.950457 -8.378453 16.341840 -1.463873 2.109122 0.011190 -0.001110 -304053.000000 1 0 0
-1.487537 7.199057 9.781647 12.236004 -1.367034 0.644475 -0.004444 0.000210 97920.000000 1 0 0
10.067263 2.404157 -4.045353 11.112814 0.234419 1.943383 0.004350 -0.001870 -2347410.000000 1 0 0
-2.993337 -7.515443 -7.060753 10.737607 1.191764 2.288388 0.008389 -0.001100 1540950.000000 1 0 0
-5.469437 -5.027943 -1.701753 7.621740 0.743365 1.795971 0.009050 -0.001281 386602.000000 1 0 0
5.699263 7.373157 -8.782453 12.805332 0.912753 2.326558 0.001807 -0.000500 819969.000000 1 0 0
-9.484037 5.272357 -7.416253 13.143269 -0.507376 2.170336 -0.004668 0.001337 -86273.300000 1 0 0
-0.436837 6.167257 -5.273853 8.126464 -1.500083 2.277030 0.003300 -0.002720 -236579.000000 1 0 0
-8.192237 2.826357 -6.276453 10.700230 -0.332217 2.197616 0.001189 -0.000053 1441890.000000 1 0 0
3.683263 1.432457 -2.028653 4.442273 0.370909 2.045045 0.000571 -0.002490 2080990.000000 1 0 0
-6.637037 12.570057 -3.461953 14.630164 -1.084997 1.809693 -0.006027 0.001955 -1062560.000000 1 0 0
-6.599337 3.142157 -2.248653 7.647277 -0.444372 1.869254 -0.000149 -0.001465 -1470270.000000 1 0 0
12.142763 4.010157 -0.816053 12.813820 0.318974 1.634525 0.006905 -0.001904 1165900.000000 1 0 0
2.331363 12.384757 -5.530053 13.762229 1.384729 1.984309 0.008976 0.000895 22895.100000 1 0 0
-9.165737 -1.423343 -4.256853 10.205756 0.154059 2.001052 0.004590 -0.000680 -1061200.000000 1 0 0
-1.174537 5.759357 3.437047 6.809039 -1.369619 1.041673 -0.005994 0.002236 530882.000000 1 0 0
11.555163 2.741057 12.048547 16.917525 0.232910 0.778179 0.016042 0.004191 981309.000000 1 0 0
-7.071337 -2.265543 -5.798553 9.421238 0.310051 2.233787 0.007408 -0.002896 -859395.000000 1 0 0
7.474263 -7.273243 10.831547 15.036192 -0.771768 0.766468 -0.001641 -0.000435 496972.000000 1 0 0
-5.445837 -1.909943 -10.974753 12.399606 0.337313 2.657481 0.008781 -0.002849 -379432.000000 1 0 0
0.874063 -6.258143 4.428847 7.716413 -1.432026 0.959473 0.003289 -0.002090 1715180.000000 1 0 0
-4.816537 -9.338143 7.319947 12.805529 1.094595 0.962313 -0.002379 -0.004250 1868100.000000 1 0 0
-8.703637 9.334357 1.690047 12.873996 -0.820350 1.439140 -0.000777 -0.001895 642435.000000 1 0 0
-8.140437 7.296257 -9.058753 14.197292 -0.730766 2.262775 -0.006082 0.002798 -794742.000000 1 0 0
-1.342937 -10.618843 -0.174553 10.704849 1.444997 1.587103 0.004355 -0.002201 -100913.000000 1 0 0
-3.970137 10.275857 7.872047 13.539732 -1.202107 0.950344 -0.002280 0.003463 1944180.000000 1 0 0
-7.414337 12.025357 2.086147 14.280533 -1.018290 1.424188 -0.009314 -0.003328 608907.000000 1 0 0
-8.209637 -8.265543 -2.894253 12.003918 0.788791 1.814305 0.015957 -0.004724 -290564.000000 1 0 0
5.448063 4.596257 -7.962453 10.686797 0.700796 2.411442 0.001274 -0.000182 1119840.000000 1 0 0
-8.874537 -0.092543 -10.229753 13.543036 0.010428 2.426987 0.002462 -0.003624 -168729.000000 1 0 0
-15.185237 -2.195043 -1.521753 15.418346 0.143557 1.669655 -0.000828 -0.003750 -118243.000000 1 0 0
-7.189337 -5.836943 8.706947 12.710917 0.681948 0.816196 0.001776 -0.002760 -1425510.000000 1 0 0
8.123863 3.444457 -0.984353 8.878647 0.401017 1.681892 0.002494 0.000473 1743810.000000 1 0 0
11.896963 7.142757 -5.884553 15.072646 0.540702 1.971876 0.002347 -0.003193 -800146.000000 1 0 0
3.856363 13.429757 -9.550953 16.924852 1.291169 2.170400 0.007780 -0.003893 821282.000000 1 0 0
-9.736037 5.473557 -0.333253 11.174136 -0.512158 1.600624 -0.002350 -0.001110 1402640.000000 1 0 0
11.285563 -1.330043 -5.169553 12.484279 -0.117312 1.997734 0.013932 -0.001451 -1394010.000000 1 0 0
10.674463 1.730357 -1.320853 10.894170 0.160705 1.692339 0.006873 -0.000536 16627.800000 1 0 0
14.651363 5.049157 4.798647 16.222929 0.331874 1.270510 0.016581 -0.006331 1946830.000000 1 0 0
0.760963 -0.839443 10.310147 10.372215 -0.834397 0.109454 0.002816 0.001566 2876610.000000 1 0 0
-7.936837 1.480457 -12.616353 14.978568 -0.184411 2.572321 -0.002581 -0.003649 -838025.000000 1 0 0
3.109063 -11.597243 -7.843453 14.341621 -1.308869 2.149455 -0.001266 0.002502 2113710.000000 1 0 0
2.906263 4.952257 -6.742653 8.856330 1.040097 2.436169 0.001829 -0.000609 -751306.000000 1 0 0
6.476363 8.032057 0.585947 10.334435 0.892217 1.514067 0.004277 0.001016 1014240.000000 1 0 0
-9.079937 -5.471243 6.695647 12.538399 0.542303 1.007458 -0.000781 0.000443 -2346570.000000 1 0 0
-0.326637 -6.879943 -11.771253 13.638281 1.523355 2.612180 0.007310 0.003570 1789660.000000 1 0 0
6.395163 -13.530343 -4.637053 15.667500 -1.129264 1.871263 0.002803 -0.000012 3228500.000000 1 0 0
-3.235337 -0.472143 10.013347 10.533634 0.144910 0.315610 -0.003284 0.004444 -833462.000000 1 0 0
8.528763 8.554057 7.004847 13.963508 0.786879 1.045287 0.002829 0.004253 -601815.000000 1 0 0
-7.929037 5.702557 -2.534653 10.090255 -0.623495 1.824714 0.000352 -0.002337 788023.000000 1 0 0
-5.418137 5.825757 -6.417253 10.221389 -0.821635 2.249553 0.000270 -0.001017 -234165.000000 1 0 0
3.231463 -13.642643 2.526747 14.246000 -1.338218 1.392488 0.005459 -0.004522 -643026.000000 1 0 0
-11.288437 -7.097343 6.503047 14.835455 0.561275 1.117040 0.003624 0.002275 -859046.000000 1 0 0
-12.895437 -3.604543 -6.751553 14.995616 0.272564 2.037825 0.012246 -0.003950 463476.000000 1 0 0
6.074263 0.411357 -7.272253 9.484279 0.067618 2.444589 -0.000846 -0.001108 2712620.000000 1 0 0
-1.388237 2.266157 -2.471853 3.629425 -1.021167 2.320004 0.002713 -0.006261 3670800.000000 1 0 0
7.621963 0.957257 -4.940953 9.133656 0.124938 2.142376 0.001176 -0.001154 -81864.500000 1 0 0
3.645363 -4.533643 10.879947 12.337578 -0.893579 0.491016 0.002411 0.000124 347753.000000 1 0 0
6.063063 -2.626343 2.085447 6.928744 -0.408771 1.265071 0.003490 -0.001560 -817786.000000 1 0 0
-6.251537 7.756557 1.134147 10.026574 -0.892427 1.457440 -0.006428 -0.001328 1533140.000000 1 0 0
6.072663 -3.483443 7.940447 10.585948 -0.520802 0.722593 0.003930 -0.002016 591848.000000 1 0 0
6.747663 -2.284143 -7.759253 10.533483 -0.326401 2.398866 0.001703 -0.002917 934927.000000 1 0 0
12.013663 -8.173143 -5.892353 15.679547 -0.597396 1.956055 0.018566 -0.006743 -96658.100000 1 0 0
5.589263 -9.619743 9.996147 14.956680 -1.044450 0.838821 -0.009330 0.002508 1557000.000000 1 0 0
-6.595937 7.537757 -4.360553 10.924220 -0.851936 1.981401 -0.002417 0.000082 912434.000000 1 0 0
-1.335337 -7.644943 9.648647 12.382434 1.397871 0.677375 -0.002007 -0.003135 -1413750.000000 1 0 0
10.025563 -9.249843 0.722247 13.659910 -0.745176 1.517898 0.003520 -0.004856 1098370.000000 1 0 0
11.050963 6.184557 9.739947 15.976203 0.510214 0.915173 0.001400 0.001289 1623270.000000 1 0 0
-15.354637 -4.232443 -4.963353 16.682726 0.268967 1.872885 0.000931 -0.005686 1383880.000000 1 0 0
-4.772837 -4.730143 7.742147 10.251589 0.780905 0.714815 -0.001649 -0.002442 -1567440.000000 1 0 0
2.998363 10.973357 -11.048453 15.857902 1.304067 2.341606 0.004550 -0.001769 81411.100000 1 0 0
9.927163 -1.398243 1.533347 10.141735 -0.139930 1.419023 0.003146 0.000700 -1053110.000000 1 0 0
-1.621137 -2.549943 0.638147 3.088289 1.004501 1.362662 0.003166 -0.004268 -390214.000000 1 0 0
1.648663 2.954357 0.865547 3.492203 1.061798 1.320335 -0.005962 -0.000013 -867423.000000 1 0 0
-9.002537 -2.433843 4.285147 10.263126 0.264039 1.140073 -0.002798 -0.000362 4074760.000000 1 0 0
9.907263 4.906457 -2.610753 11.359718 0.459831 1.802695 0.002132 -0.000438 2030020.000000 1 0 0
2.536363 8.455457 2.529047 9.182808 1.279369 1.291779 -0.005839 0.003817 -51759.400000 1 0 0
-8.112837 -0.108243 2.522947 8.496770 0.013341 1.269320 -0.001382 -0.002343 935311.000000 1 0 0
6.934463 2.073157 13.763747 15.550739 0.290506 0.484117 0.003830 -0.000886 -823031.000000 1 0 0
6.713363 4.315757 3.847147 8.859770 0.571340 1.121617 -0.002050 0.003719 -251406.000000 1 0 0
-0.369137 3.369757 7.794247 8.499518 -1.461687 0.410247 -0.003001 0.002638 68386.300000 1 0 0
2.682963 -10.239343 9.138847 13.984311 -1.314533 0.858588 -0.000917 -0.003461 2242930.000000 1 0 0
1.400363 -4.649543 6.858947 8.403834 -1.278255 0.616047 -0.000625 -0.000782 1079440.000000 1 0 0
-0.164737 10.766657 -2.017153 10.955224 -1.555497 1.755980 -0.002913 -0.000577 1714260.000000 1 0 0
8.723263 5.548057 7.987347 13.064224 0.566475 0.912979 0.001870 0.002186 277085.000000 1 0 0
2.656963 11.490957 -2.881853 12.141113 1.343568 1.810447 0.006824 -0.003140 2967280.000000 1 0 0
1.414163 2.436857 -6.650453 7.222649 1.044971 2.740866 0.006176 -0.004910 256410.000000 1 0 0
-13.447237 -2.218243 3.618747 14.101210 0.163487 1.311266 -0.003205 0.001797 1372470.000000 1 0 0
-0.979837 -10.696843 -5.412153 12.028048 1.479451 2.037518 0.004557 -0.001424 170289.000000 1 0 0
-5.658337 2.904457 0.502047 6.380024 -0.474235 1.492024 0.001932 -0.003381 1287610.000000 1 0 0
3.744663 7.259657 -4.997853 9.576202 1.094574 2.119877 0.002602 -0.001487 -2709350.000000 1 0 0
2.902163 9.798057 -6.468253 12.093914 1.282831 2.135109 0.005875 0.000091 1885350.000000 1 0 0
-12.190137 1.754757 -2.472953 12.561613 -0.142967 1.768957 0.002408 -0.000817 1438430.000000 1 0 0
-2.515937 9.633257 -5.689253 11.467222 -1.315331 2.089934 -0.003271 -0.000290 1674380.000000 1 0 0
-1.217637 3.337857 1.730347 3.951965 -1.221001 1.117596 -0.004123 -0.000766 -1594730.000000 1 0 0
12.825463 3.854757 9.651347 16.507578 0.291966 0.946333 0.015901 0.000768 28914.600000 1 0 0
-2.548537 -9.544743 11.612947 15.246564 1.309874 0.704900 -0.003490 -0.010019 -211188.000000 1 0 0
-0.470637 -8.938443 -7.578853 11.728439 1.518192 2.273384 0.006707 0.000007 3571970.000000 1 0 0
2.326163 7.641057 -0.423153 7.998490 1.275281 1.623725 -0.004572 0.001709 1369270.000000 1 0 0
-11.828537 -1.200243 -5.489753 13.095506 0.101124 2.003370 0.006836 -0.000334 -639400.000000 1 0 0
-6.257937 -7.055043 -11.010053 14.496782 0.845201 2.433314 0.006713 -0.001792 1632730.000000 1 0 0
-4.707637 -2.263443 -1.380853 5.402942 0.448172 1.829238 0.004740 -0.002760 -1665050.000000 1 0 0
-10.481437 3.572457 4.581647 11.983925 -0.328488 1.178495 0.002142 -0.003920 2751660.000000 1 0 0
6.716763 9.373357 -3.637553 12.091588 0.949029 1.876363 0.005103 -0.000694 1519110.000000 1 0 0
1.270863 -2.724643 -11.512953 11.899028 -1.134361 2.886160 0.004955 -0.002458 -482121.000000 1 0 0
1.229563 8.737257 7.638747 11.670558 1.430988 0.857234 -0.007515 0.007648 53186.600000 1 0 0
10.320863 0.464257 10.536947 14.756795 0.044952 0.775544 0.000407 -0.000161 241645.000000 1 0 0
-5.222637 -0.795443 -3.984653 6.617109 0.151145 2.217018 0.004110 -0.004632 145398.000000 1 0 0
11.697363 5.632557 5.310647 14.027008 0.448758 1.182511 0.008817 -0.002401 2657590.000000 1 0 0
9.890763 -3.528743 3.620647 11.108028 -0.342695 1.238781 0.005912 -0.004045 -2080340.000000 1 0 0
7.340163 -1.648643 -3.401353 8.256223 -0.220939 1.995416 0.001298 -0.000863 -2231250.000000 1 0 0
2.397463 9.260057 10.435347 14.156021 1.317455 0.741929 -0.008496 0.005090 1118870.000000 1 0 0
2.344063 -10.833543 6.299947 12.749495 -1.357710 1.053959 -0.001887 0.000046 2229840.000000 1 0 0
5.891763 -7.516043 -1.320853 9.640976 -0.905955 1.708233 -0.000993 -0.003601 1530620.000000 1 0 0
-0.245637 -5.570043 -2.359653 6.054229 1.526725 1.971160 0.003413 0.001031 678243.000000 1 0 0
7.737963 -5.106443 2.679047 9.650343 -0.583318 1.289489 0.002068 -0.004528 953433.000000 1 0 0
-2.782637 -12.574143 4.621647 13.682535 1.353008 1.226242 0.002920 -0.002932 -797344.000000 1 0 0
4.833863 -10.258543 -1.198753 11.403550 -1.130450 1.676112 0.000053 -0.005007 719666.000000 1 0 0
0.999063 0.192557 1.069347 1.476044 0.190403 0.760534 -0.002907 -0.000825 -1704810.000000 1 0 0
-1.593437 8.561257 2.454547 9.047594 -1.386780 1.296060 -0.008869 0.003545 -494779.000000 1 0 0
-7.563837 0.643557 -3.060053 8.184725 -0.084879 1.953978 0.001775 -0.001284 -586196.000000 1 0 0
4.445663 -6.344443 12.907647 15.054010 -0.959589 0.540556 0.006655 -0.006461 -1098080.000000 1 0 0
-5.164537 13.034057 8.593047 16.443830 -1.193541 1.020934 0.002821 -0.003405 4454180.000000 1 0 0
0.632963 6.099557 8.313747 10.330712 1.467395 0.635525 -0.005590 0.006167 2440740.000000 1 0 0
8.003563 -0.500443 -0.781653 8.057198 -0.062446 1.667962 0.002836 0.000094 4900520.000000 1 0 0
2.349063 -9.193943 -2.446553 9.799608 -1.320647 1.823124 0.000218 -0.000728 1986630.000000 1 0 0
-7.076037 12.130857 4.969547 14.897127 -1.042740 1.230686 -0.008409 -0.001921 488119.000000 1 0 0
-14.992237 0.323457 0.261347 14.998004 -0.021572 1.553370 0.009133 -0.005325 807566.000000 1 0 0
6.883463 -0.517143 3.992047 7.974079 -0.074988 1.046472 0.000454 0.002494 1107170.000000 1 0 0
-4.156737 -5.164243 5.001947 8.304658 0.893070 0.924409 0.002181 -0.002774 -141221.000000 1 0 0
2.854163 5.065057 6.885747 9.011912 1.057647 0.701195 -0.007301 0.005242 -828465.000000 1 0 0
2.110963 -7.293443 1.744147 7.790541 -1.289062 1.345003 0.000071 -0.003186 2929210.000000 1 0 0
-2.500637 6.363957 -1.648353 7.033506 -1.196393 1.807354 -0.002454 -0.000599 712349.000000 1 0 0
2.689463 -3.769943 -6.520353 7.997543 -0.951136 2.524034 0.001122 -0.003068 -558480.000000 1 0 0
-5.132837 0.994157 -12.215353 13.287183 -0.191317 2.737180 0.004196 -0.002228 -972980.000000 1 0 0
-7.511337 6.476057 -11.859153 15.459593 -0.711518 2.445115 -0.005771 -0.003960 2193790.000000 1 0 0
-1.001637 11.175557 -8.979353 14.370982 -1.481408 2.245704 0.007832 0.000117 1642030.000000 1 0 0
4.671663 5.947457 -0.586753 7.585575 0.904966 1.648225 -0.001518 0.000948 771905.000000 1 0 0
-2.648837 13.363557 3.638747 14.101116 -1.375119 1.309796 -0.007687 0.006068 1715030.000000 1 0 0
1.413963 -7.937943 10.234047 13.028659 -1.394518 0.667288 0.000117 -0.002899 -1484830.000000 1 0 0
12.965863 -0.313743 -1.116553 13.017631 -0.024193 1.656674 0.008735 -0.001692 505039.000000 1 0 0
-1.062337 3.194357 -5.369253 6.337299 -1.249736 2.581576 0.005992 -0.007731 602562.000000 1 0 0
6.584563 1.087957 7.315647 9.902464 0.163749 0.739552 -0.000157 0.002857 1437640.000000 1 0 0
5.467663 -6.235943 6.860947 10.763592 -0.850949 0.879649 0.000025 -0.000579 1921820.000000 1 0 0
12.180063 -4.932143 2.655147 13.406333 -0.384754 1.371427 0.005785 -0.002972 -637559.000000 1 0 0
4.405363 -9.175443 13.844747 17.183509 -1.123175 0.633941 -0.001792 -0.002376 -92589.300000 1 0 0
-2.688437 -4.305343 -1.462253 5.282221 1.012598 1.851285 0.006277 -0.002071 1188180.000000 1 0 0
-9.347937 -5.089343 -7.496753 13.018704 0.498561 2.184433 0.010567 -0.004422 2359840.000000 1 0 0
-10.464237 -3.167943 7.858547 13.464505 0.293969 0.947581 -0.003045 0.002200 124345.000000 1 0 0
12.112463 -0.632443 1.668147 12.243139 -0.052167 1.434120 0.007671 -0.001606 718189.000000 1 0 0
-7.580737 4.674757 4.442947 9.952924 -0.552581 1.108062 -0.001980 -0.002839 4225690.000000 1 0 0
-1.060637 10.566057 7.003347 12.720588 -1.470750 0.987771 -0.007157 0.006684 1832600.000000 1 0 0
7.323063 -10.001543 1.813247 12.527808 -0.938789 1.425548 -0.001944 -0.005137 3426630.000000 1 0 0
-4.336437 -1.725343 1.650947 4.950467 0.378670 1.230790 0.000972 -0.000861 145866.000000 1 0 0
6.610963 -15.063443 -0.948753 16.477630 -1.157233 1.628406 0.004360 0.000839 -1099480.000000 1 0 0
-10.506737 1.646757 2.467047 10.917402 -0.155469 1.342854 -0.003519 -0.000530 266214.000000 1 0 0
-3.025037 8.315057 -11.331953 14.377211 -1.221879 2.478656 0.005952 -0.000991 -115628.000000 1 0 0
-1.328237 -5.172443 -6.926453 8.746093 1.319436 2.484790 0.001714 -0.001356 -544501.000000 1 0 0
12.815363 -0.437743 6.488647 14.371071 -0.034144 1.102342 0.010720 -0.003114 3149460.000000 1 0 0
5.848463 -13.265843 3.732747 14.970655 -1.155564 1.318800 -0.002703 -0.000256 -162013.000000 1 0 0
-5.581337 3.494157 -4.855353 8.181376 -0.559349 2.206152 -0.000045 -0.002463 1282530.000000 1 0 0
-4.331337 8.071857 3.446847 9.787548 -1.078301 1.210911 -0.008851 0.002032 306670.000000 1 0 0
13.958463 5.990857 -4.029653 15.715188 0.405416 1.830111 0.008596 -0.001715 1816840.000000 1 0 0
-6.717737 -8.506443 5.242547 12.040427 0.902353 1.120300 0.006397 -0.003917 -6089.120000 1 0 0
1.632663 11.444657 2.720247 11.876258 1.429095 1.339696 -0.002243 0.001427 554653.000000 1 0 0
-7.356337 7.123157 6.046147 11.891634 -0.769295 1.037428 -0.003046 -0.003001 -38757.400000 1 0 0
-17.321237 -4.103543 5.128447 18.524721 0.232620 1.290289 0.010723 -0.001456 -773950.000000 1 0 0
7.518763 -13.088643 -8.588453 17.366805 -1.049376 2.088093 0.010614 -0.005968 -1734860.000000 1 0 0
-2.298537 12.814457 -2.770453 13.310484 -1.393313 1.780470 -0.009137 0.003656 494351.000000 1 0 0
-5.414437 14.014857 -5.757653 16.089839 -1.202125 1.936754 -0.000648 0.003134 867331.000000 1 0 0
-5.622937 2.362957 7.494547 9.662775 -0.397828 0.683115 -0.003060 0.000459 1926560.000000 1 0 0
-7.435437 5.153057 1.533047 9.175508 -0.606040 1.402929 -0.001472 -0.001438 1950820.000000 1 0 0
10.664463 -5.653643 -5.109253 13.107209 -0.487467 1.971216 0.009692 -0.003160 2287890.000000 1 0 0
-9.517737 -0.756343 6.788347 11.714992 0.079300 0.952733 -0.001132 -0.000195 1036470.000000 1 0 0
-11.309337 -4.536643 -2.536553 12.446540 0.381490 1.776030 0.007431 -0.002495 990930.000000 1 0 0
6.502963 -4.214543 13.581047 15.636359 -0.575035 0.518516 0.007563 -0.008445 135903.000000 1 0 0
0.259363 10.373057 -11.624953 15.582269 1.545798 2.412887 0.007536 0.000104 -1151450.000000 1 0 0
-11.786037 -3.210343 1.391647 12.294457 0.265934 1.457360 -0.002672 -0.000184 5558800.000000 1 0 0
5.177763 5.970857 5.522747 9.641633 0.856417 0.960876 -0.004413 0.005752 -5355710.000000 1 0 0
-7.163037 -0.088543 8.147447 10.848863 0.012361 0.721228 -0.007148 0.001586 -366943.000000 1 0 0
1.686263 2.039557 9.649347 10.005657 0.879939 0.267672 0.002704 0.000494 2364290.000000 1 0 0
10.464863 -4.954543 -2.046353 11.757908 -0.442179 1.745728 0.001810 -0.001370 1809020.000000 1 0 0
-9.572237 -2.386443 -1.678653 10.007033 0.244328 1.739341 0.003668 -0.002441 -693131.000000 1 0 0
-2.023837 -5.199443 -10.000453 11.451602 1.199599 2.632690 0.009401 -0.002482 460220.000000 1 0 0
7.654663 -1.617143 6.610747 10.242606 -0.208201 0.869228 0.005395 -0.001657 1860870.000000 1 0 0
1.484263 -11.815443 -2.631353 12.195563 -1.445830 1.788270 -0.000743 -0.001400 -3090380.000000 1 0 0
-0.769937 -1.588543 4.747747 5.065311 1.119479 0.355978 0.004394 -0.000100 3370170.000000 1 0 0
7.616263 1.509357 10.006847 12.665804 0.195641 0.659876 0.000795 0.002031 23333.200000 1 0 0
-3.842537 10.710957 -7.925953 13.867603 -1.226349 2.179183 0.000455 0.002866 2755050.000000 1 0 0
-9.580137 12.651957 6.344347 17.090985 -0.922699 1.190484 -0.003123 -0.001632 293867.000000 1 0 0
-2.537737 -2.442943 -11.133653 11.677599 0.766368 2.835173 0.009673 -0.004976 -1697310.000000 1 0 0
1.203663 -11.956443 11.045347 16.321919 -1.470464 0.827500 -0.004579 -0.000836 1050390.000000 1 0 0
1.440463 3.534157 -1.879753 4.254253 1.183770 2.028459 -0.001727 -0.003088 2880160.000000 1 0 0
-2.009037 -9.372543 -12.106053 15.441416 1.359638 2.471878 0.005747 0.002639 -503825.000000 1 0 0
1.257763 -2.663043 1.545747 3.326124 -1.129551 1.087468 0.006008 -0.002070 2536720.000000 1 0 0
-1.080637 -2.213843 -6.604953 7.049418 1.116692 2.784595 0.003333 -0.005974 2067690.000000 1 0 0
1.780563 5.857257 4.119047 7.378645 1.275681 0.978535 -0.010051 0.006039 -1286020.000000 1 0 0
-10.889837 8.556657 3.635147 14.318492 -0.665989 1.314109 -0.004098 -0.001251 1394870.000000 1 0 0
-16.289637 -1.533743 4.044947 16.854265 0.093878 1.328435 0.007631 -0.000722 574546.000000 1 0 0
-12.228937 0.285257 6.873447 14.031128 -0.023322 1.058854 0.000030 0.000291 1028530.000000 1 0 0
-5.078637 2.984757 4.689347 7.529363 -0.531332 0.898470 -0.003074 0.000710 633049.000000 1 0 0
5.179163 -6.105143 3.917047 8.912898 -0.867274 1.115776 -0.000497 -0.003463 1098190.000000 1 0 0
9.871563 3.475657 6.247647 12.188561 0.338534 1.032606 0.003891 0.002283 -337276.000000 1 0 0
-12.064137 5.796357 3.286447 13.781941 -0.447895 1.330016 -0.002724 -0.001885 1020420.000000 1 0 0
-4.864137 12.352757 -1.203653 13.330387 -1.195673 1.661213 -0.012828 0.006021 1445080.000000 1 0 0
-1.672237 -12.177443 10.285547 16.027444 1.434327 0.874024 -0.002732 -0.007973 1203290.000000 1 0 0
5.208163 6.385157 13.924947 16.180214 0.886575 0.534319 -0.003857 0.004746 1549810.000000 1 0 0
12.894463 -3.738843 -6.061353 14.730449 -0.282218 1.994879 0.009917 -0.001450 -372802.000000 1 0 0
3.586763 -2.611143 6.257347 7.670549 -0.629268 0.616750 -0.000003 0.001593 1114230.000000 1 0 0
7.144263 -11.893943 -0.731453 13.893934 -1.029889 1.623466 0.002155 -0.000414 -1170770.000000 1 0 0
-6.102437 -6.630343 -4.209253 9.945804 0.826835 2.007792 0.013290 -0.003486 -17998.000000 1 0 0
0.232363 -8.971243 5.003147 10.274662 -1.544901 1.062213 0.001499 -0.003316 1785880.000000 1 0 0
-10.207537 2.503457 -0.278653 10.513742 -0.240508 1.597303 -0.002950 0.000539 345778.000000 1 0 0
-1.827637 8.949657 -0.353753 9.141212 -1.369353 1.609505 -0.005172 -0.000500 634986.000000 1 0 0
-3.501637 2.350257 -6.615953 7.845764 -0.591126 2.574101 0.006090 -0.006599 56494.000000 1 0 0
-12.684537 3.046357 6.456647 14.555620 -0.235699 1.111202 -0.000494 -0.007952 -292148.000000 1 0 0
11.350163 1.699457 7.989147 13.983591 0.148626 0.962679 0.007550 -0.003073 -1682520.000000 1 0 0
5.998563 2.660557 -3.268653 7.331126 0.417462 2.032931 -0.000906 -0.000282 1697970.000000 1 0 0
10.501763 -2.332243 6.386247 12.510417 -0.218534 1.035060 0.007890 -0.000966 3283890.000000 1 0 0
-0.964237 11.003957 4.095647 11.780965 -1.483393 1.215733 -0.003422 0.005335 1159700.000000 1 0 0
-1.656837 -12.254143 7.367847 14.394246 1.436405 1.033447 -0.004359 -0.001863 -1507390.000000 1 0 0
8.149663 8.640957 -7.788853 14.203850 0.814650 2.151201 0.003609 -0.004220 115326.000000 1 0 0
-4.720737 -5.894543 -8.781353 11.582019 0.895528 2.431327 0.011983 -0.002219 -133887.000000 1 0 0
-8.650637 -5.227543 -11.711653 15.470086 0.543572 2.429585 0.010254 -0.001475 2040080.000000 1 0 0
6.140063 -0.663143 -9.898153 11.666772 -0.107586 2.583762 0.002262 -0.000871 -659424.000000 1 0 0
-11.203137 -5.446643 -5.361753 13.561881 0.452524 1.977250 0.007169 -0.005835 247291.000000 1 0 0
3.814963 8.961157 -2.709853 10.109380 1.168314 1.842168 0.005645 -0.001384 138033.000000 1 0 0
11.631063 -10.436243 -4.024653 16.136748 -0.731307 1.822866 0.016852 -0.006969 442821.000000 1 0 0
3.882363 -11.253043 3.958647 12.544904 -1.238578 1.249752 -0.001398 0.000807 1465270.000000 1 0 0
-0.975237 0.779957 3.181147 3.417472 -0.674595 0.374070 0.001665 0.000098 1022770.000000 1 0 0
-10.597837 -5.127543 4.485847 12.598757 0.450627 1.206754 0.002378 0.000264 3316960.000000 1 0 0
4.587963 -8.677243 2.646747 10.166082 -1.084426 1.307411 0.000225 -0.003092 2905730.000000 1 0 0
-3.645937 -5.834243 2.517047 7.325761 1.012254 1.220061 0.004981 -0.000919 1641340.000000 1 0 0
10.038163 5.238957 12.357547 16.760678 0.481017 0.741740 0.001954 0.008310 680940.000000 1 0 0
1.556763 -12.439543 -5.338153 13.625771 -1.446297 1.973350 0.001092 -0.002931 2198320.000000 1 0 0
9.810863 -10.825543 -1.789353 14.718940 -0.834528 1.692666 0.006093 -0.006155 1446370.000000 1 0 0
9.609363 -4.511843 -9.245953 14.077792 -0.438972 2.287331 0.015746 -0.006791 2333770.000000 1 0 0
-7.452837 -2.903243 -13.134653 15.378320 0.371464 2.594618 0.001745 0.001492 1883680.000000 1 0 0
0.413363 6.200657 -2.471453 6.687832 1.504230 1.949315 -0.001603 -0.002246 3977140.000000 1 0 0
-5.946737 -9.549043 0.869747 11.282924 1.013811 1.493635 0.007695 -0.001315 621402.000000 1 0 0
-8.901937 -4.129943 0.539547 9.828125 0.434384 1.515870 0.001261 -0.001183 3971060.000000 1 0 0
1.937763 3.762757 12.085447 12.805127 1.095233 0.336859 0.001199 -0.002555 1288800.000000 1 0 0
6.686663 4.288357 9.634447 12.486954 0.570256 0.689505 -0.001873 0.004502 1793490.000000 1 0 0
-8.154037 9.959357 -3.506653 13.340679 -0.884738 1.836776 -0.004695 0.001843 3350170.000000 1 0 0
16.430963 1.984057 -6.112953 17.643163 0.120169 1.924609 0.013504 0.004358 -239514.000000 1 0 0
-10.905237 2.644457 -5.033753 12.298619 -0.237902 1.992477 0.000424 0.002001 1785350.000000 1 0 0
-13.765337 4.076657 1.576647 14.442626 -0.287924 1.461412 0.001209 0.000715 636898.000000 1 0 0
-17.450037 10.503157 3.310347 20.634401 -0.541815 1.409672 0.030205 0.004187 822919.000000 1 0 0
-14.360537 2.934157 -1.087753 14.697534 -0.201547 1.644873 0.001638 -0.001104 514264.000000 1 0 0
-14.326237 5.098957 5.164647 16.059702 -0.341937 1.243388 0.000701 -0.002573 1440470.000000 1 0 0
-17.247037 7.538557 3.171047 19.087841 -0.412069 1.403893 0.009433 0.007234 -1131730.000000 1 0 0
-14.722137 12.763057 -3.466553 19.790249 -0.714241 1.746869 0.028033 -0.011652 -1147400.000000 1 0 0
-8.389437 12.543157 -9.485953 17.824050 -0.981287 2.131993 -0.000952 -0.009530 312187.000000 1 0 0
-12.373237 8.858257 -9.763853 18.080336 -0.621331 2.141264 0.002418 0.002947 -826822.000000 1 0 0
-13.817237 -3.290643 -12.193753 18.719829 0.233800 2.280200 0.009023 -0.002390 -2145600.000000 1 0 0
-14.696237 5.805057 -7.524953 17.501514 -0.376191 2.015245 0.014192 0.007284 -814590.000000 1 0 0
-10.787637 13.764257 -8.388553 19.395765 -0.906047 2.018053 0.011436 -0.005065 1498660.000000 1 0 0
-10.884137 13.575457 3.850247 17.820827 -0.894989 1.353026 0.000287 -0.001831 -1363500.000000 1 0 0
-15.179737 3.296057 3.064547 15.832873 -0.213816 1.376011 0.005285 -0.000314 669504.000000 1 0 0
-11.032837 9.570357 -12.293653 19.090551 -0.714534 2.270466 -0.005827 -0.006016 607701.000000 1 0 0
-12.913637 11.732457 -9.066553 19.662527 -0.737509 2.050040 0.017080 -0.007123 605563.000000 1 0 0
-8.714937 14.600257 -3.581253 17.376507 -1.032657 1.778381 -0.002304 -0.007366 389473.000000 1 0 0
-16.666037 8.294157 -4.042853 19.049790 -0.461780 1.784648 0.021538 0.001912 -1804630.000000 1 0 0
-16.752037 6.998057 0.342647 18.158220 -0.395708 1.551925 0.012073 0.004122 -1728940.000000 1 0 0
-10.424037 2.949557 -12.498953 16.540383 -0.275749 2.427462 0.000543 -0.002409 380644.000000 1 0 0
-16.898537 0.901657 2.407547 17.092976 -0.053307 1.429476 0.010316 -0.003737 -380518.000000 1 0 0
-12.628437 1.266557 -6.930853 14.460924 -0.099960 2.070632 0.006360 -0.000497 1586060.000000 1 0 0
-12.354537 9.038557 -5.382553 16.226583 -0.631620 1.908914 0.010948 -0.001124 84514.600000 1 0 0
-9.562637 13.918157 1.286047 16.935555 -0.968806 1.494785 0.004917 -0.006568 900188.000000 1 0 0
-12.186137 11.100457 2.749247 16.711686 -0.738809 1.405535 0.000546 -0.000520 1493330.000000 1 0 0
-12.568937 6.839157 -3.593353 14.753455 -0.498327 1.816831 -0.001997 0.004361 1429970.000000 1 0 0
-15.838637 3.800357 -9.270953 18.741817 -0.235490 2.088248 0.021726 0.003041 -807059.000000 1 0 0
-15.066237 5.835757 -4.547053 16.784614 -0.369545 1.845130 0.012061 0.004645 1885830.000000 1 0 0
-17.770737 5.078057 7.547447 19.963710 -0.278336 1.183098 0.013582 -0.008762 192686.000000 1 0 0
-15.637737 10.280357 -2.235753 18.847365 -0.581565 1.689700 0.018479 -0.001018 -1569020.000000 1 0 0
-8.756437 10.003057 -8.164553 15.601162 -0.851753 2.121550 -0.004246 -0.001947 1033890.000000 1 0 0
-16.918537 4.440457 -1.171253 17.530727 -0.256672 1.637658 0.007555 0.001096 475196.000000 1 0 0
-10.179437 5.457257 -4.539053 12.409899 -0.492113 1.945246 -0.000132 0.000857 -432529.000000 1 0 0
-18.285737 2.656857 6.013247 19.431578 -0.144287 1.256174 0.030733 -0.017412 -210266.000000 1 0 0
-10.351537 10.122357 -5.597353 15.522461 -0.774205 1.939704 -0.002547 -0.004130 931662.000000 1 0 0
-15.340637 0.488857 -5.818253 16.414208 -0.031856 1.933138 0.009137 -0.001446 1377080.000000 1 0 0
-16.346137 -4.037943 -8.825953 19.010488 0.242179 2.053604 0.010213 -0.012787 -918381.000000 1 0 0
-9.927037 9.703257 -1.100453 13.925166 -0.773999 1.649905 -0.003264 -0.000059 2158640.000000 1 0 0
-17.373037 -3.040943 -3.191153 17.923538 0.173283 1.749793 -0.000345 -0.003319 -1664740.000000 1 0 0
-11.975337 5.157557 -11.498453 17.384577 -0.406673 2.293503 0.005149 0.000281 1366520.000000 1 0 0
-16.287337 6.994357 5.984147 18.708511 -0.405621 1.245212 0.009551 0.002831 -740315.000000 1 0 0
-12.041737 6.063857 -8.740253 16.067539 -0.466499 2.145957 0.005449 0.004853 944529.000000 1 0 0
-14.472237 8.614557 -0.184053 16.843103 -0.536917 1.581724 0.011171 -0.001194 1133150.000000 1 0 0
-14.889237 11.895157 3.825347 19.437526 -0.674076 1.372701 0.004669 -0.002172 1135660.000000 1 0 0
-17.276237 4.101757 -3.994253 18.200188 -0.233106 1.792060 0.015229 -0.001448 -793536.000000 1 0 0
-13.800337 13.527957 -0.780653 19.340743 -0.775432 1.611170 0.022834 -0.010608 -37918.900000 1 0 0
-10.092037 6.927357 -13.057753 17.898112 -0.601552 2.388475 -0.008994 -0.005475 334496.000000 1 0 0
-15.839537 -1.077743 -8.222753 17.879210 0.067937 2.048685 0.010707 -0.008653 2140970.000000 1 0 0
-11.500737 11.947957 -0.058153 16.583848 -0.804468 1.574303 0.007872 -0.005994 104530.000000 1 0 0
-11.925537 7.458957 -0.882953 14.093760 -0.558931 1.633486 -0.004963 0.001747 1437820.000000 1 0 0
-11.460237 0.253457 -11.777453 16.435014 -0.022113 2.369722 0.004710 -0.003214 76766.300000 1 0 0
-19.127237 -1.256143 -4.583853 19.708902 0.065579 1.805524 0.007378 -0.009975 -423982.000000 1 0 0
-17.995937 1.394357 -4.924853 18.709681 -0.077327 1.837160 0.008052 -0.007376 -500638.000000 1 0 0
-13.259037 0.022157 -9.491853 16.306374 -0.001671 2.192099 0.008515 -0.002569 949746.000000 1 0 0
-6.159537 11.282257 -13.333353 18.520462 -1.071069 2.374491 -0.003193 0.000709 -2272490.000000 1 0 0
16.371763 5.912257 7.030847 18.772911 0.346551 1.186916 0.024691 -0.007602 1102540.000000 1 0 0
14.812163 9.991057 -5.235453 18.618038 0.593418 1.855844 0.019395 -0.003905 420202.000000 1 0 0
2.394963 16.976957 4.302447 17.676650 1.430650 1.324929 0.019697 -0.006135 2270280.000000 1 0 0
-3.947237 18.421957 -6.048953 19.787345 -1.359720 1.881468 -0.002458 -0.002739 2090790.000000 1 0 0
5.413963 14.589857 5.755147 16.592065 1.215469 1.216574 0.007955 -0.005756 -1359090.000000 1 0 0
9.902463 6.054757 15.145847 19.081811 0.548788 0.653876 0.010950 0.000245 -868183.000000 1 0 0
4.702163 12.814157 -1.099853 13.693890 1.219101 1.651200 0.005964 -0.002715 2446900.000000 1 0 0
3.563263 13.623557 13.160847 19.274491 1.314975 0.819192 -0.003437 0.001628 -1161450.000000 1 0 0
-0.663737 12.365157 9.237847 15.449125 -1.517170 0.929852 -0.005803 0.004045 1973020.000000 1 0 0
-7.888537 14.004557 8.389147 18.131034 -1.057812 1.089763 0.009860 -0.008880 988002.000000 1 0 0
11.484363 12.775957 -4.115553 17.665034 0.838587 1.805935 0.018344 -0.001749 267715.000000 1 0 0
-5.738537 16.160657 0.738647 17.165175 -1.229591 1.527751 -0.007466 0.000283 565171.000000 1 0 0
3.150863 10.617057 6.828347 13.010617 1.282302 1.018282 -0.006930 0.009258 1326050.000000 1 0 0
-1.239137 15.580457 2.525447 15.832371 -1.491432 1.410600 -0.001897 0.000609 -1205740.000000 1 0 0
9.914663 8.986357 9.466747 16.391291 0.736324 0.955075 0.006505 0.003017 2168390.000000 1 0 0
7.198463 12.320157 6.249347 15.577498 1.042013 1.157994 0.007226 0.000545 1487550.000000 1 0 0
11.805463 13.949057 -1.530153 18.338116 0.868439 1.654335 0.014158 -0.002686 -334613.000000 1 0 0
9.718563 15.874257 -1.200253 18.651624 1.021439 1.635192 0.012675 -0.004414 254283.000000 1 0 0
10.120163 13.740057 2.975147 17.322192 0.935963 1.398187 0.015376 -0.004529 2612450.000000 1 0 0
-6.063837 14.562557 6.343747 17.002391 -1.176233 1.188438 -0.006249 -0.001441 -304126.000000 1 0 0
-0.937637 18.269957 -6.319053 19.354610 -1.519520 1.903382 0.018302 -0.002936 2129930.000000 1 0 0
-3.672837 15.744357 5.404947 17.046640 -1.341615 1.248160 -0.000935 0.002332 1528770.000000 1 0 0
7.043763 12.414357 10.676947 17.824927 1.054701 0.928558 -0.002288 0.008760 2662660.000000 1 0 0
1.489863 14.679257 6.247747 16.022940 1.469648 1.170246 -0.000167 0.001814 -109704.000000 1 0 0
17.465163 7.608957 -1.559653 19.114409 0.410869 1.652483 0.009913 0.002189 591063.000000 1 0 0
2.094163 16.231557 -3.350753 16.705583 1.442487 1.772743 0.010754 -0.003793 1190950.000000 1 0 0
6.755263 11.205857 0.601247 13.098332 1.028296 1.524878 0.009906 -0.000884 1430420.000000 1 0 0
12.612863 9.205657 3.216547 15.942854 0.630488 1.367647 0.012975 -0.002678 -370450.000000 1 0 0
6.129763 14.368357 -3.380853 15.982923 1.167558 1.783936 0.002839 -0.000772 2995460.000000 1 0 0
3.116763 16.582357 1.471147 16.936736 1.385007 1.483825 0.015727 -0.013310 -862645.000000 1 0 0
2.719363 18.999157 -2.688853 19.380217 1.428631 1.709988 0.014723 -0.009652 -1382500.000000 1 0 0
3.983663 11.979857 10.709147 16.555131 1.249769 0.867313 -0.006122 0.004691 987849.000000 1 0 0
8.054863 11.506657 3.411847 14.454226 0.960059 1.332503 0.006450 0.001961 2579110.000000 1 0 0
0.646863 12.482857 0.186647 12.500999 1.519023 1.555865 0.004221 -0.001663 -1333530.000000 1 0 0
11.917563 9.805057 -4.610153 16.106550 0.688454 1.861085 0.010674 -0.002635 1283150.000000 1 0 0
-1.251937 16.425557 9.883947 19.210900 -1.494725 1.030376 0.005270 -0.001949 1468060.000000 1 0 0
8.316263 14.800457 -8.078753 18.801064 1.058869 2.014953 0.009394 0.002973 1574270.000000 1 0 0
14.469463 7.557057 -1.385753 16.382758 0.481309 1.655484 0.007610 -0.003306 134703.000000 1 0 0
12.504163 8.291657 5.995847 16.157222 0.585537 1.190610 0.011456 -0.002183 -2595750.000000 1 0 0
-3.016837 14.154957 10.284947 17.755119 -1.360809 0.952968 0.004420 -0.007494 744130.000000 1 0 0
-4.416837 17.205857 -3.278753 18.063781 -1.319517 1.753318 -0.009000 -0.004217 541969.000000 1 0 0
-6.991937 16.509257 -1.867453 18.025818 -1.170183 1.674581 -0.004797 -0.003137 26203.900000 1 0 0
8.352963 11.227357 -1.849753 14.115492 0.931157 1.702219 0.008120 -0.003776 -137216.000000 1 0 0
8.621563 12.906457 -4.231153 16.087592 0.981869 1.836934 0.017280 -0.002070 2303850.000000 1 0 0
2.601463 14.899257 -7.325753 16.805419 1.397935 2.021852 0.010853 -0.002610 -143910.000000 1 0 0
11.375963 11.410357 9.706647 18.810310 0.786908 1.028589 0.019247 0.000932 -236052.000000 1 0 0
8.613963 15.683957 1.367047 17.945909 1.068551 1.494547 0.010903 -0.006774 -254205.000000 1 0 0
5.975363 10.027457 7.809747 14.044465 1.033397 0.981143 -0.001941 0.010743 3464800.000000 1 0 0
14.417963 11.239857 2.677247 18.476463 0.662161 1.425384 0.022480 -0.006296 1154800.000000 1 0 0
12.118763 12.624757 1.173447 17.539266 0.805845 1.503842 0.022083 -0.002612 2257010.000000 1 0 0
5.047363 16.030857 8.285447 18.738006 1.265769 1.112776 0.012772 0.001939 -661289.000000 1 0 0
11.352763 15.174057 5.084747 19.621209 0.928468 1.308659 0.021944 -0.004547 779410.000000 1 0 0
5.986163 16.764657 1.719047 17.884154 1.227837 1.474526 0.006178 -0.021236 477517.000000 1 0 0
-0.667637 16.248657 -4.237053 16.805273 -1.529731 1.825673 0.006591 -0.001724 -240061.000000 1 0 0
16.133063 6.375757 2.463647 17.521288 0.376360 1.429720 0.009777 -0.001500 -364915.000000 1 0 0
7.803863 16.774157 -3.223753 18.779382 1.135348 1.743315 0.008191 -0.003370 71186.100000 1 0 0
14.841063 8.268457 7.425547 18.540854 0.508304 1.158738 0.020038 -0.005684 249191.000000 1 0 0
2.124863 12.990557 8.621647 15.735387 1.408662 0.990927 -0.002852 0.006513 1391110.000000 1 0 0
15.943663 7.333957 -5.819053 18.489150 0.431132 1.890966 0.003981 0.003851 -151568.000000 1 0 0
-2.999837 16.978757 0.679047 17.255095 -1.395919 1.531433 -0.006400 -0.002865 2115000.000000 1 0 0
-2.915937 18.593857 4.543247 19.361696 -1.415241 1.333937 -0.000958 -0.000987 469914.000000 1 0 0
-0.800537 18.909957 0.722147 18.940666 -1.528487 1.532660 0.005890 -0.013480 -320528.000000 1 0 0
7.153863 16.809057 -6.077253 19.252406 1.168421 1.891951 0.015838 -0.001846 422055.000000 1 0 0
11.006763 10.023157 0.731847 14.904633 0.738660 1.521675 0.010059 -0.002544 -1018610.000000 1 0 0
9.024763 8.718657 14.313547 19.035202 0.768148 0.719779 0.008030 0.000759 350101.000000 1 0 0
6.409663 12.452657 -8.382553 16.322366 1.095440 2.110128 0.010601 -0.002812 1575750.000000 1 0 0
6.335163 9.083457 13.372047 17.362462 0.961791 0.691689 -0.003562 0.000083 -524695.000000 1 0 0
16.676163 9.374357 2.832447 19.338969 0.512117 1.423804 0.018834 -0.006693 -2160400.000000 1 0 0
2.524963 14.711557 -0.747753 14.945383 1.400821 1.620850 0.005949 -0.004599 485345.000000 1 0 0
9.080363 12.954557 8.347347 17.887194 0.959440 1.085279 0.010514 0.001903 1787670.000000 1 0 0
7.198063 9.494157 10.587647 15.938927 0.922095 0.844288 -0.000349 0.005283 1878960.000000 1 0 0
4.441663 15.824057 -5.261853 17.257353 1.297147 1.880635 0.013810 -0.004080 3603520.000000 1 0 0
0.265563 16.361057 -8.209853 18.307277 1.554566 2.035824 0.013144 -0.002158 410576.000000 1 0 0
-2.330237 15.677657 -2.052753 15.982263 -1.423242 1.699592 -0.008321 0.001019 431372.000000 1 0 0
13.219163 10.600757 7.520047 18.538430 0.675913 1.153110 0.011544 -0.005563 3199580.000000 1 0 0
-1.054137 15.864957 6.983147 17.365840 -1.504449 1.156966 0.005409 -0.000398 4461950.000000 1 0 0
13.274763 13.424257 6.470747 19.957469 0.790997 1.240602 0.019023 -0.011010 -918491.000000 1 0 0
5.407063 17.358957 4.528047 18.736940 1.268836 1.326716 0.013827 -0.013510 1272330.000000 1 0 0
10.702563 9.455357 -1.915653 14.408967 0.723605 1.704140 0.008343 -0.001915 -66165.000000 1 0 0
3.171763 12.761257 4.789147 13.994487 1.327186 1.221521 0.000304 0.003539 1664680.000000 1 0 0
-0.184337 18.105857 3.532647 18.448187 -1.560616 1.378116 0.004007 -0.003371 1464830.000000 1 0 0
-7.597837 15.978157 -5.872053 18.641610 -1.126929 1.891250 0.009261 -0.008034 -270092.000000 1 0 0
-12.524137 -9.181643 8.211547 17.566619 0.632607 1.084390 0.015300 -0.003641 1384120.000000 1 0 0
-13.343637 -11.707843 6.775247 19.000795 0.720193 1.206195 0.016434 -0.002486 -1733350.000000 1 0 0
-6.237837 -12.286743 12.152947 18.373045 1.101017 0.848039 0.000436 -0.012887 378780.000000 1 0 0
-1.835937 -10.659343 14.379047 17.993033 1.400232 0.644924 0.003880 -0.010794 488309.000000 1 0 0
-8.776037 2.823557 11.085747 14.418221 -0.311276 0.693723 0.002938 0.000636 1827340.000000 1 0 0
0.647763 10.013857 15.308747 18.304498 1.506200 0.580227 -0.006461 -0.007213 119859.000000 1 0 0
1.032363 -6.786243 16.528647 17.897347 -1.419828 0.393625 0.011281 -0.012741 1124620.000000 1 0 0
5.936963 2.287657 17.856647 18.956285 0.367791 0.342283 0.010795 -0.005022 1406930.000000 1 0 0
-5.056637 -3.145343 17.653647 18.630996 0.556455 0.325341 0.009112 -0.007915 12859.800000 1 0 0
-4.313937 8.190857 13.064647 16.012032 -1.086035 0.616466 -0.000100 -0.005768 116077.000000 1 0 0
0.139763 -4.959843 18.521647 19.174748 -1.542625 0.261747 0.013116 -0.014082 -2090340.000000 1 0 0
-11.628837 2.125457 11.241047 16.312834 -0.180779 0.810561 0.004928 -0.004325 1662390.000000 1 0 0
-3.393437 -6.244043 14.295747 15.964707 1.072982 0.461334 0.009666 -0.010859 1575610.000000 1 0 0
-7.477737 -2.340043 14.685247 16.644784 0.303281 0.490127 0.003822 -0.000458 2412950.000000 1 0 0
-6.107237 -1.231943 10.636047 12.326456 0.199048 0.529889 -0.002142 0.000259 1720140.000000 1 0 0
-3.979737 2.385657 11.184547 12.108830 -0.540016 0.393250 -0.007085 0.003659 -1168800.000000 1 0 0
-6.387937 6.209757 13.599847 16.258003 -0.771255 0.579929 -0.006080 -0.002508 79034.100000 1 0 0
-8.915837 5.502657 12.532447 16.335042 -0.552955 0.696313 -0.003255 -0.003512 -935296.000000 1 0 0
-12.202437 -2.176343 15.840247 20.113413 0.176497 0.663979 0.006802 0.001520 554462.000000 1 0 0
-3.544437 -7.652843 16.941647 18.924810 1.137058 0.461898 0.013327 -0.015946 -1473290.000000 1 0 0
-0.529337 -5.403843 14.384547 15.375204 1.473152 0.360933 0.008171 -0.005655 2580930.000000 1 0 0
-14.236737 -2.222543 13.691847 19.876898 0.154863 0.810919 0.004900 -0.002811 -657848.000000 1 0 0
-6.407737 1.379257 12.213847 13.861439 -0.212014 0.492532 -0.003812 0.002504 1660650.000000 1 0 0
2.210363 -2.272743 14.497247 14.839853 -0.799312 0.215296 0.004493 -0.003002 1978050.000000 1 0 0
-12.654737 3.995957 9.181347 16.137137 -0.305859 0.965559 0.003583 -0.007181 1462380.000000 1 0 0
-9.089337 -3.050743 12.571747 15.810500 0.323825 0.651539 -0.002497 0.002060 1037800.000000 1 0 0
-7.188637 -7.283043 15.185047 18.311332 0.791922 0.592995 0.013776 -0.012496 -583954.000000 1 0 0
-3.085037 6.029757 19.427047 20.573905 -1.097884 0.335467 0.004258 -0.019140 -772287.000000 1 0 0
0.618663 5.427757 16.124347 17.024625 1.457305 0.326661 0.004775 -0.012147 1870080.000000 1 0 0
3.298563 1.463657 16.846247 17.228431 0.417624 0.211025 0.004877 -0.005033 1506860.000000 1 0 0
-11.685937 11.344457 7.801947 18.059020 -0.770572 1.124059 -0.000112 -0.011863 -44730.200000 1 0 0
0.661263 -9.538143 15.463947 18.180954 -1.501579 0.553752 0.001615 -0.004167 559481.000000 1 0 0
-2.450037 -3.724343 18.885547 19.404569 0.988927 0.231808 0.009778 -0.011613 1147150.000000 1 0 0
-12.845137 2.470457 13.873447 19.067596 -0.190006 0.755990 -0.001996 -0.003315 -1352750.000000 1 0 0
-5.433837 -0.653143 15.931247 16.845112 0.119625 0.330904 0.003014 0.002334 337355.000000 1 0 0
-4.500637 -6.067143 11.548947 13.800150 0.932561 0.579254 0.001567 -0.004939 -731205.000000 1 0 0
2.399763 1.804257 14.014847 14.332834 0.644683 0.211038 0.003870 -0.002377 -253146.000000 1 0 0
0.025963 3.329657 14.233047 14.617349 1.562999 0.229812 0.002284 -0.006191 720697.000000 1 0 0
-12.959637 7.008457 12.247047 19.158831 -0.495746 0.877290 0.009514 -0.008245 1051650.000000 1 0 0
0.730263 1.491957 18.291347 18.366616 1.115611 0.090564 0.003732 -0.005280 694745.000000 1 0 0
-2.026937 6.387157 12.581647 14.254897 -1.263503 0.489391 -0.006915 -0.002870 911551.000000 1 0 0
-13.452937 -2.664543 10.948347 17.548436 0.195533 0.897082 0.006474 -0.000629 1276630.000000 1 0 0
-2.601737 3.583457 13.504947 14.212452 -0.942806 0.316857 -0.005232 -0.002232 -288120.000000 1 0 0
3.463963 6.061357 16.347747 17.776049 1.051609 0.403607 -0.001718 -0.007481 -71731.200000 1 0 0
-3.597237 12.325857 12.427147 17.868991 -1.286838 0.801738 0.009724 -0.008829 -249957.000000 1 0 0
3.554563 -1.463443 17.082947 17.510101 -0.390559 0.221335 0.017339 -0.011992 -63383.700000 1 0 0
-15.718337 0.607857 9.199947 18.222915 -0.038653 1.041581 0.003769 -0.009248 -477113.000000 1 0 0
-4.674937 4.598757 15.268847 16.617499 -0.777184 0.405662 -0.001466 -0.005299 -122587.000000 1 0 0
-7.968637 -8.204543 10.453047 15.494512 0.799983 0.830334 0.004358 -0.005210 2708370.000000 1 0 0
-2.697137 -0.538443 14.749847 15.004081 0.197045 0.184350 -0.000472 0.001515 1984620.000000 1 0 0
-1.976737 0.969457 17.187347 17.327788 -0.455965 0.127404 -0.005740 -0.004998 1378640.000000 1 0 0
-0.739637 -2.528043 14.372047 14.611427 1.286167 0.181262 0.006078 -0.002681 107026.000000 1 0 0
5.261063 -8.211643 16.413247 19.092002 -1.000999 0.536129 0.011141 -0.008710 659679.000000 1 0 0
-4.441837 9.934557 10.705747 15.265594 -1.150349 0.793578 0.000661 -0.004230 -692227.000000 1 0 0
-6.157337 2.033157 15.263447 16.583707 -0.318928 0.401724 -0.001829 0.001037 -1296150.000000 1 0 0
-4.828437 6.858157 17.315647 19.240056 -0.957362 0.451075 -0.000328 -0.006605 50170.300000 1 0 0
-3.901437 9.114157 15.726747 18.590848 -1.166334 0.562470 0.006857 -0.011139 -1571710.000000 1 0 0
-4.659737 -9.855343 18.396447 21.383877 1.129134 0.534948 0.022195 -0.013463 -1058160.000000 1 0 0
-6.855737 -4.172243 11.082447 13.683179 0.546702 0.626760 0.000538 -0.000565 142832.000000 1 0 0
-2.471437 -0.866443 19.534047 19.708823 0.337194 0.133275 0.001471 -0.007355 -496467.000000 1 0 0
-5.677237 -4.561543 15.242947 16.893375 0.676859 0.445714 0.006802 -0.008067 2640580.000000 1 0 0
-12.866537 0.065457 9.819147 16.185417 -0.005087 0.918936 -0.001018 -0.000692 1644580.000000 1 0 0
-14.453537 8.789957 10.532547 19.927434 -0.546393 1.013911 0.004926 -0.006543 -2141470.000000 1 0 0
-8.283737 10.650157 12.935447 18.691493 -0.909737 0.806471 0.001272 -0.008056 -634818.000000 1 0 0
-10.466537 7.205157 10.802047 16.677737 -0.602898 0.866244 0.007138 -0.002690 44718.500000 1 0 0
-9.912237 -6.555543 14.721847 18.919841 0.584319 0.679134 0.015294 -0.008245 -358010.000000 1 0 0
-0.787137 -13.365243 14.267747 19.565733 1.511970 0.753613 -0.002755 -0.012794 1165270.000000 1 0 0
3.864963 -5.726143 17.022347 18.370818 -0.977069 0.385536 0.017226 -0.010253 2821820.000000 1 0 0
-7.254937 9.343157 10.444547 15.780280 -0.910551 0.847481 0.000068 -0.006058 712668.000000 1 0 0
-10.231637 -6.645143 11.717347 16.915689 0.576003 0.805583 0.007119 -0.008870 1845370.000000 1 0 0
-10.864537 -3.944243 10.656647 15.721302 0.348243 0.825965 -0.001988 0.003102 -107731.000000 1 0 0
-10.080837 -10.220643 9.788047 17.375002 0.792285 0.972373 0.007866 -0.007847 3035520.000000 1 0 0
-9.922237 -3.645643 15.261547 18.564922 0.352110 0.605771 0.009972 -0.007789 359109.000000 1 0 0
5.523463 -3.314143 16.152547 17.389564 -0.540428 0.379461 0.011926 -0.013863 12382.600000 1 0 0
-11.274137 0.539357 15.308247 19.019450 -0.047804 0.635334 0.007693 -0.000619 -1028020.000000 1 0 0
-3.271237 3.151557 18.697647 19.241499 -0.766767 0.238322 0.001443 -0.013570 -1792810.000000 1 0 0
0.543763 7.400957 13.963447 15.812896 1.497456 0.488492 -0.002461 -0.007002 1649350.000000 1 0 0
-13.061937 -7.458643 12.245347 19.395723 0.518839 0.887513 -0.001724 -0.001837 1691290.000000 1 0 0
-1.636637 -1.166943 12.160647 12.325651 0.619406 0.163811 0.001144 0.001338 -20985.100000 1 0 0
2.010563 -4.913543 13.147747 14.179158 -1.182395 0.383773 0.004740 -0.004815 1042770.000000 1 0 0
-14.541137 -4.081143 8.684947 17.422075 0.273622 1.048926 0.005108 -0.004666 -1193980.000000 1 0 0
7.991463 0.938957 16.225447 18.111053 0.116959 0.460374 0.018983 -0.013528 827438.000000 1 0 0
-1.135137 11.213757 13.507147 17.592040 -1.469913 0.695398 -0.000602 -0.008256 545770.000000 1 0 0
2.759863 -12.277243 -13.772653 18.655657 -1.349677 2.401278 0.016456 0.003133 170862.000000 1 0 0
0.661563 -10.621643 -14.039853 17.617447 -1.508592 2.492990 0.010384 0.000865 -1154550.000000 1 0 0
3.202463 -14.424743 -12.350953 19.258116 -1.352328 2.267037 0.012822 0.003585 -1376180.000000 1 0 0
-5.093037 -10.094443 -16.253653 19.799446 1.103524 2.533807 0.006986 -0.008961 -725512.000000 1 0 0
-1.173537 -12.386643 -14.890853 19.404732 1.476336 2.445545 0.012010 -0.005616 29148.000000 1 0 0
5.683263 -14.932843 -12.051953 20.013467 -1.207136 2.217040 0.010665 0.001825 309756.000000 1 0 0
1.865263 -11.917143 -16.121953 20.134917 -1.415537 2.499253 0.014281 -0.001659 -496886.000000 1 0 0
1.325463 -14.436443 -14.166553 20.269657 -1.479239 2.344661 0.018329 0.010194 -132361.000000 1 0 0
-1.067837 -10.656943 -16.033953 19.282074 1.470929 2.552684 0.013892 -0.010186 -414822.000000 1 0 0
-5.840137 -5.453843 -15.089053 17.074283 0.751208 2.654569 0.001951 0.000125 -92738.900000 1 0 0
-6.389237 -7.442143 -16.537353 19.227374 0.861376 2.606251 -0.001913 0.001651 23773.400000 1 0 0
4.857163 -12.463843 -11.508053 17.645813 -1.199200 2.281239 0.007533 0.000347 -576714.000000 1 0 0
-2.020937 -15.493043 -13.349353 20.550519 1.441087 2.277838 0.004875 0.003859 277596.000000 1 0 0
15.845663 -7.451243 -8.813553 19.603183 -0.439556 2.037112 0.018206 -0.004394 926032.000000 1 0 0
19.213363 -3.810343 -4.104553 20.012980 -0.195777 1.777357 0.018393 -0.009386 806010.000000 1 0 0
15.008663 -11.666943 -8.770753 20.935702 -0.660775 2.003071 0.033425 -0.016432 686661.000000 1 0 0
17.947563 -3.719943 -6.386453 19.409785 -0.204374 1.906075 0.042544 -0.001309 535972.000000 1 0 0
9.633563 -9.135543 -15.466253 20.383049 -0.758870 2.432235 0.035340 -0.014082 187873.000000 1 0 0
1.282663 2.011357 -15.308253 15.493011 1.003109 2.987003 0.008581 0.000171 37742.100000 1 0 0
4.840463 -4.344843 -13.970553 15.410519 -0.731493 2.705856 0.006224 0.001472 810276.000000 1 0 0
13.123863 -5.591243 -8.722053 16.720406 -0.402748 2.119570 0.023947 -0.006356 -1104060.000000 1 0 0
3.053563 0.898257 -12.171353 12.580658 0.286097 2.885810 0.003583 -0.002088 -2741190.000000 1 0 0
0.548463 6.446457 -12.973253 14.496997 1.485921 2.678987 0.010059 -0.002330 187055.000000 1 0 0
3.198163 -1.148343 -16.788053 17.128505 -0.344726 2.941880 0.016522 -0.002962 -248482.000000 1 0 0
13.230263 4.248657 -11.402053 17.974920 0.310729 2.257939 0.006741 -0.003411 597845.000000 1 0 0
-3.876637 9.470057 -16.464253 19.385095 -1.182249 2.585502 0.009099 -0.000520 -537795.000000 1 0 0
-0.185737 -5.199543 -17.709153 18.457623 1.535090 2.855838 0.015559 -0.009773 293850.000000 1 0 0
-0.521037 -8.501543 -17.597353 19.550309 1.509585 2.690809 0.019364 -0.013149 930408.000000 1 0 0
5.523363 -10.104443 -12.276753 16.832290 -1.070546 2.388178 0.009299 -0.001236 501275.000000 1 0 0
1.711663 -9.880143 -18.055753 20.653262 -1.399256 2.634649 0.022251 -0.009825 -261532.000000 1 0 0
10.973663 8.698557 -14.500853 20.158395 0.670259 2.373656 0.020808 -0.012400 417440.000000 1 0 0
11.082863 -3.836743 -12.923753 17.452044 -0.333274 2.404654 0.022714 -0.006656 623749.000000 1 0 0
4.857663 7.556257 -12.125853 15.090733 0.999452 2.503998 -0.004191 -0.000819 -1018730.000000 1 0 0
9.641663 -6.009443 -12.597453 16.963811 -0.557361 2.407752 0.021981 -0.006107 -1716340.000000 1 0 0
-3.252937 0.454857 -15.916153 16.251536 -0.138929 2.938082 0.003279 0.000617 -935957.000000 1 0 0
-0.785537 10.800557 -12.775453 16.747576 -1.498193 2.438466 0.010917 -0.001801 -1535200.000000 1 0 0
6.684063 -5.467643 -12.382553 15.096339 -0.685628 2.532619 0.008545 -0.002469 97705.600000 1 0 0
17.943463 -6.084943 -8.122453 20.614767 -0.326947 1.975788 0.019573 -0.009225 -636431.000000 1 0 0
12.929563 4.650957 -13.973153 19.597296 0.345303 2.364584 -0.002953 -0.009937 164930.000000 1 0 0
14.220863 0.781757 -11.479353 18.292611 0.054917 2.249186 0.015416 -0.002888 96756.700000 1 0 0
15.123463 6.041557 -11.260053 19.799200 0.380060 2.175736 0.007629 0.001404 541015.000000 1 0 0
8.235363 1.442057 -11.738553 14.411605 0.173348 2.522699 -0.000817 0.001843 635274.000000 1 0 0
9.920163 1.242257 -8.969653 13.431586 0.124577 2.302050 0.004554 -0.002762 479977.000000 1 0 0
-0.105537 -5.755243 -12.940253 14.162772 1.552461 2.723047 0.006331 0.000364 394342.000000 1 0 0
10.546063 -5.787643 -9.062053 15.061111 -0.501919 2.216406 0.018427 -0.007309 567987.000000 1 0 0
10.281263 8.466157 -11.142653 17.364875 0.688880 2.267480 0.011646 -0.006598 733092.000000 1 0 0
8.380363 7.984057 -14.563953 18.603343 0.761185 2.470058 0.010641 -0.005890 607277.000000 1 0 0
8.750063 10.627557 -10.644653 17.401644 0.881986 2.229009 0.012066 -0.004578 -1250840.000000 1 0 0
7.144363 1.816357 -17.823353 19.287638 0.248962 2.749422 0.014648 -0.001242 -2456850.000000 1 0 0
12.091763 2.487557 -12.795253 17.779684 0.202893 2.374103 0.001803 -0.004325 -1857490.000000 1 0 0
2.684963 -1.004643 -19.306253 19.517934 -0.358046 2.994181 0.024083 -0.009815 -558418.000000 1 0 0
10.289463 -2.191543 -15.455553 18.696257 -0.209853 2.543952 0.017002 -0.006264 -214414.000000 1 0 0
8.318563 -0.942243 -13.034253 15.491225 -0.112789 2.570657 0.007994 -0.001476 464442.000000 1 0 0
0.491463 4.372657 -14.604853 15.253308 1.458872 2.848960 0.007596 0.001516 -752427.000000 1 0 0
3.945963 -7.624843 -15.580253 17.789130 -1.093236 2.637949 0.017196 -0.008935 -1666370.000000 1 0 0
11.559863 -5.921043 -14.377253 19.375102 -0.473366 2.406916 0.021031 -0.009266 -317915.000000 1 0 0
-5.885837 4.407157 -16.866453 18.399548 -0.642715 2.730482 0.003009 0.000228 413496.000000 1 0 0
11.405363 7.714057 -8.950153 16.422369 0.594679 2.147183 0.009692 -0.003484 -53182.100000 1 0 0
9.497463 6.092657 -13.362853 17.489657 0.570379 2.440353 0.004585 -0.000080 64471.900000 1 0 0
12.026963 0.534657 -10.131953 15.734998 0.044426 2.270397 0.013211 -0.001891 -512119.000000 1 0 0
5.509963 -7.249543 -13.765353 16.504561 -0.920899 2.557175 0.010643 -0.000929 -632234.000000 1 0 0
8.550463 -10.253343 -10.693053 17.105053 -0.875712 2.246107 0.016770 -0.005203 -185372.000000 1 0 0
10.061863 4.678557 -15.702553 19.227588 0.435241 2.526410 0.008317 -0.007219 -369942.000000 1 0 0
9.908363 -0.449643 -11.012853 14.820957 -0.045349 2.408427 0.006437 -0.001228 -1329930.000000 1 0 0
-1.810337 5.513157 -13.976553 15.133283 -1.253522 2.748069 0.005615 -0.002450 503889.000000 1 0 0
1.375363 -0.592243 -14.918653 14.993618 -0.406612 3.041553 0.007018 -0.001832 -1004960.000000 1 0 0
11.463963 -10.461843 -14.230153 21.056350 -0.739725 2.312863 0.023641 -0.014554 -61503.000000 1 0 0
9.327463 -7.870143 -10.795253 16.293502 -0.700860 2.295014 0.021783 -0.008075 -37766.300000 1 0 0
14.011163 -1.065543 -9.644653 17.043104 -0.075903 2.172318 0.012343 -0.000018 805722.000000 1 0 0
4.091063 11.163457 -12.198053 17.033850 1.219526 2.369005 0.005327 -0.008947 -810882.000000 1 0 0
-1.261037 2.937557 -16.966553 17.265092 -1.165305 2.955359 0.003282 0.001615 -8518.180000 1 0 0
6.125863 -0.504643 -17.717853 18.753751 -0.082194 2.807668 0.017974 0.004315 77012.500000 1 0 0
6.384063 -6.843743 -16.178053 18.690171 -0.820135 2.617127 0.017007 0.000932 -46337.600000 1 0 0
-1.605337 -5.355543 -19.772253 20.547529 1.279567 2.866019 0.010113 -0.018692 -1145120.000000 1 0 0
-0.004337 -4.339743 -15.180753 15.788878 1.569797 2.863148 0.007860 -0.003514 -401011.000000 1 0 0
0.634063 0.888357 -12.973953 13.019780 0.950903 3.057666 0.006798 -0.004056 708545.000000 1 0 0
15.669563 0.530057 -13.739753 20.846990 0.033814 2.290386 0.003963 -0.000825 626149.000000 1 0 0
-0.201237 7.156657 -16.267353 17.773154 -1.542685 2.726991 0.013497 -0.001816 -371840.000000 1 0 0
-4.947337 -0.358743 -18.283553 18.944476 0.072386 2.876670 -0.002736 -0.000603 -221152.000000 1 0 0
10.384363 -8.447943 -12.957153 18.630366 -0.682934 2.339892 0.021184 -0.019648 -214930.000000 1 0 0
4.218663 8.800157 -17.138053 19.721885 1.123776 2.623947 0.003072 -0.005924 -506624.000000 1 0 0
9.316663 0.753457 -16.707053 19.144021 0.080696 2.631509 0.012471 -0.006081 -479589.000000 1 0 0
3.348363 4.913257 -18.400853 19.337606 0.972598 2.829060 0.009284 0.000691 -677795.000000 1 0 0
1.460163 -8.156143 -15.951353 17.974994 -1.393647 2.662512 0.010226 -0.012237 25052.700000 1 0 0
4.647363 7.806757 -14.752353 17.325569 1.033840 2.589595 -0.001715 -0.001916 609867.000000 1 0 0
-5.656437 -0.272543 -15.247853 16.265503 0.048146 2.785985 0.001057 -0.002324 -408110.000000 1 0 0
2.803863 3.392557 -13.687853 14.378053 0.880119 2.830489 0.006551 -0.001403 -274553.000000 1 0 0
-2.357637 -10.222443 -18.315453 21.107170 1.344126 2.621425 0.016451 -0.006333 -65458.400000 1 0 0
6.088163 -9.217143 -15.320553 18.887583 -0.987057 2.516902 0.007412 -0.005260 118444.000000 1 0 0
-1.754037 5.479057 -17.495753 18.417331 -1.260971 2.823909 0.006013 0.005533 397650.000000 1 0 0
9.982263 -12.272843 -11.615553 19.626241 -0.887961 2.204133 0.026123 -0.010194 326914.000000 1 0 0
10.866663 3.669657 -9.427253 14.846678 0.325674 2.258771 0.004757 -0.003899 -1430960.000000 1 0 0
4.887163 -0.495343 -10.875453 11.933365 -0.101011 2.717344 0.005411 -0.002677 209134.000000 1 0 0
6.471063 9.578357 -11.367253 16.212156 0.976640 2.347814 0.006160 -0.006028 63767.500000 1 0 0
10.808163 -9.565343 -9.601053 17.334717 -0.724472 2.157793 0.025450 -0.009411 -664748.000000 1 0 0
3.105863 -2.406943 -14.515353 15.037794 -0.659290 2.877226 0.012949 -0.002333 -180678.000000 1 0 0
9.352063 -4.601743 -14.780153 18.085631 -0.457273 2.527388 0.026217 -0.005859 -117221.000000 1 0 0
-3.948537 -6.561643 -16.561753 18.246583 1.029083 2.708479 -0.003787 -0.005909 -2134950.000000 1 0 0
5.907063 -7.773343 -11.262053 14.904768 -0.920981 2.427367 0.007456 -0.003592 -144508.000000 1 0 0
5.435863 6.462057 -16.799053 18.801994 0.871435 2.675814 0.004459 -0.007772 -845227.000000 1 0 0
9.145663 1.163357 -19.271753 21.363451 0.126524 2.695384 0.028726 -0.008132 316426.000000 1 0 0
13.219863 5.757057 -9.431053 17.229429 0.410718 2.150027 0.002230 0.000821 735939.000000 1 0 0
-1.543137 -0.822043 -17.405953 17.493548 0.489471 3.041478 0.009185 -0.002385 24831.600000 1 0 0
-0.313837 -0.728943 -19.605053 19.621110 1.164245 3.101134 0.017123 -0.009370 -578668.000000 1 0 0
2.875663 6.619857 -16.423553 17.939483 1.160991 2.727539 0.004603 0.001539 -562975.000000 1 0 0
7.589663 3.783457 -15.574253 17.733440 0.462448 2.642970 0.001459 -0.000204 236120.000000 1 0 0
2.994163 -9.968143 -14.885353 18.163222 -1.278997 2.531391 0.016213 -0.000899 -516161.000000 1 0 0
8.985563 -10.607843 -13.388853 19.300986 -0.868007 2.337392 0.024632 -0.007313 -442097.000000 1 0 0
3.816063 0.200957 -14.792653 15.278263 0.052612 2.888792 0.011733 -0.002087 -3150090.000000 1 0 0
-1.128937 -3.000443 -18.821153 19.092223 1.210924 2.972882 0.016948 -0.011003 -130895.000000 1 0 0
9.265463 9.953157 -13.099853 18.881745 0.821166 2.337526 0.015472 -0.009051 171203.000000 1 0 0
4.727763 2.046157 -10.552253 11.742595 0.408455 2.687434 -0.002158 0.000725 -185439.000000 1 0 0
-0.319437 7.263657 -18.900953 20.251143 -1.526847 2.774369 0.014157 0.003587 160063.000000 1 0 0
0.814163 -1.807643 -17.544053 17.655714 -1.147610 3.029067 0.015353 -0.012879 -1302460.000000 1 0 0
-4.455737 -2.119543 -14.099253 14.937704 0.444010 2.804954 0.005896 -0.005759 -2351300.000000 1 0 0
9.950563 5.999057 -10.497953 15.659163 0.542539 2.305548 0.006498 0.002179 30661.100000 1 0 0
8.340463 5.536957 -17.499353 20.160570 0.586062 2.621955 0.012658 -0.006736 -367132.000000 1 0 0
11.382763 0.174157 -13.657553 17.779943 0.015299 2.446733 0.004641 0.002128 247820.000000 1 0 0
6.894463 12.016757 -11.868753 18.242899 1.049911 2.279165 0.015067 -0.007020 -300511.000000 1 0 0
-0.847837 0.585157 -15.194453 15.229335 -0.604102 3.073898 0.005698 -0.001607 -1344350.000000 1 0 0
-4.136337 -2.710843 -18.945153 19.580010 0.580143 2.886248 -0.009286 -0.004047 64764.300000 1 0 0
5.767163 -11.974843 -13.922353 19.248090 -1.121971 2.379381 0.014050 -0.003845 85995.700000 1 0 0
2.154863 -4.779643 -14.040053 14.987045 -1.147243 2.784201 0.007988 -0.000485 -220315.000000 1 0 0
11.885963 1.974357 -15.348053 19.512481 0.164605 2.476041 0.015012 -0.003763 150407.000000 1 0 0
9.699063 2.185757 -13.805253 17.012771 0.221655 2.517449 0.004152 0.001275 -47497.900000 1 0 0
-2.148037 -4.275343 -16.428853 17.111395 1.105211 2.858198 -0.004125 -0.007786 -2402630.000000 1 0 0
-3.021137 10.080057 -14.145553 17.630414 -1.279602 2.501999 0.009911 -0.009871 32620.100000 1 0 0
3.392963 5.836957 -13.513753 15.106415 1.044248 2.678266 0.004609 -0.001176 18732.900000 1 0 0
-5.168837 -2.416543 -16.571053 17.525877 0.437329 2.809982 0.001416 -0.001448 387745.000000 1 0 0
-4.385637 6.266557 -13.624353 15.624550 -0.960172 2.630036 -0.000008 -0.001159 641993.000000 1 0 0
5.900063 -1.142343 -14.191253 15.411274 -0.191249 2.741015 0.011316 0.001571 -1184200.000000 1 0 0
6.681763 -3.005543 -12.624953 14.596873 -0.422698 2.615764 0.007868 -0.003681 485880.000000 1 0 0
2.959163 -3.293743 -18.258153 18.787377 -0.838855 2.903675 0.025308 -0.013576 -724963.000000 1 0 0
7.321763 -11.994543 -11.933853 18.436218 -1.022747 2.274840 0.014039 -0.005332 -1346190.000000 1 0 0
-6.027337 -5.225043 -17.597653 19.321161 0.714219 2.716006 0.015779 -0.006118 372669.000000 1 0 0
0.538763 8.772957 -11.894753 14.789868 1.509462 2.505209 0.008302 -0.002809 86221.700000 1 0 0
0.369863 8.670257 -14.396353 16.809674 1.528163 2.599116 0.007718 0.000309 8942.700000 1 0 0
7.746963 -2.579943 -14.989553 17.069219 -0.321474 2.642804 0.017859 -0.010441 -322511.000000 1 0 0
14.340563 1.427657 -8.881453 16.928383 0.099227 2.123099 0.006972 0.002814 773542.000000 1 0 0
2.977363 10.718157 -14.622053 18.372480 1.299841 2.491235 0.007587 -0.001723 212353.000000 1 0 0
6.106663 1.035457 -15.572153 16.758743 0.167964 2.763027 0.011672 -0.000510 203302.000000 1 0 0
16.832563 -5.581343 -10.404653 20.560724 -0.320172 2.101390 0.043166 -0.013398 583556.000000 1 0 0
4.842863 -4.252543 -11.237953 12.954885 -0.720586 2.620887 0.004314 -0.000275 -1748170.000000 1 0 0
8.879363 -3.592043 -17.093953 19.594619 -0.384413 2.630846 0.019028 -0.007927 70679.500000 1 0 0
13.337363 -9.729643 -8.911153 18.760593 -0.630253 2.065753 0.025476 -0.010563 97347.100000 1 0 0
2.250563 -7.954343 -13.506853 15.835773 -1.295068 2.592375 0.003268 0.000495 331532.000000 1 0 0
-6.754337 -2.419143 -18.637553 19.970772 0.343927 2.774129 -0.001870 0.004279 1137800.000000 1 0 0
-1.411037 -6.542543 -15.662953 17.033027 1.358379 2.737765 0.007080 -0.007328 676982.000000 1 0 0
1.843263 -7.364743 -18.416453 19.919910 -1.325552 2.750584 0.024030 -0.013947 -406900.000000 1 0 0
5.518663 10.865857 -14.519053 18.955880 1.100856 2.443297 0.001226 -0.014547 135621.000000 1 0 0
5.450963 -3.444643 -17.415753 18.571134 -0.563569 2.786995 0.021905 -0.009005 2184.290000 1 0 0
4.102663 13.024557 -14.083753 19.616907 1.265641 2.371634 0.000387 -0.009412 -96734.900000 1 0 0
9.092663 10.233557 -15.619053 20.769136 0.844363 2.421936 0.013248 -0.017083 237251.000000 1 0 0
2.589963 4.043457 -16.135753 16.835082 1.001106 2.852350 0.008499 -0.001176 143466.000000 1 0 0
16.681363 1.743657 -11.692053 20.445349 0.104149 2.179578 0.014415 0.007279 113765.000000 1 0 0
10.095463 -3.650843 -10.510153 15.023659 -0.347000 2.345597 0.018013 -0.003653 -727210.000000 1 0 0
14.818363 -2.079243 -11.912553 19.126318 -0.139405 2.243158 0.023980 -0.006325 -153348.000000 1 0 0
-2.673737 -8.711443 -16.175353 18.565564 1.273001 2.628551 0.008666 -0.001261 -719225.000000 1 0 0
13.989263 8.205757 -8.815753 18.459453 0.530490 2.068688 0.012896 -0.000451 -407161.000000 1 0 0
-8.146037 0.317957 -16.681253 18.566724 -0.039012 2.687020 -0.005313 -0.000402 -690850.000000 1 0 0
-3.408037 4.100657 -15.938653 16.806867 -0.877380 2.818764 0.001847 0.002583 -355224.000000 1 0 0
15.242963 3.908457 -9.729953 18.501241 0.251003 2.124579 0.010768 0.004121 986298.000000 1 0 0
5.449063 1.063257 -12.964353 14.103094 0.192705 2.736983 0.004232 -0.000014 79850.200000 1 0 0
7.842263 -7.767543 -13.002453 17.055779 -0.780612 2.437731 0.019167 -0.006024 -2352630.000000 1 0 0
3.218763 -6.123143 -11.913153 13.775941 -1.086823 2.615508 0.004613 0.000910 -879272.000000 1 0 0
-3.245337 3.553157 -18.490953 19.106870 -0.830645 2.886995 0.004326 -0.000451 353861.000000 1 0 0
0.922063 5.386457 -17.649853 18.476510 1.401258 2.841331 0.008101 -0.006411 -286166.000000 1 0 0
6.362263 7.129957 -10.182053 13.963842 0.842236 2.387909 0.000395 -0.001682 432700.000000 1 0 0
9.710563 3.586157 -11.643253 15.579502 0.353768 2.414853 0.003601 -0.000300 -725158.000000 1 0 0
4.581663 1.610057 -17.659453 18.315027 0.337933 2.873228 0.015205 0.002825 825703.000000 1 0 0
2.623663 8.226557 -13.117053 15.704042 1.262068 2.559413 0.002349 -0.002736 58267.900000 1 0 0
14.419963 -3.627543 -9.898053 17.862414 -0.246450 2.158111 0.024188 -0.002009 158258.000000 1 0 0
-1.264237 9.486057 -16.083753 18.715520 -1.438304 2.604853 0.015703 -0.001567 -393661.000000 1 0 0
-5.250737 2.187157 -15.749453 16.745124 -0.394686 2.795012 0.003967 -0.002096 800856.000000 1 0 0
4.494363 4.233857 -11.856453 13.367884 0.755561 2.661464 0.002040 -0.000544 394825.000000 1 0 0
9.254563 3.148557 -17.558853 20.096608 0.327933 2.633599 0.006202 -0.001939 561804.000000 1 0 0
-4.247537 14.359257 -13.363253 20.070036 -1.283193 2.299403 0.016245 -0.001370 -340797.000000 1 0 0
15.621163 -4.935643 -8.115353 18.282239 -0.306033 2.030735 0.027888 -0.005700 236178.000000 1 0 0
1.301663 9.240357 -16.795253 19.213512 1.430850 2.634454 0.008217 0.001399 -677576.000000 1 0 0
0.479863 -3.167943 -12.841853 13.235533 -1.420465 2.897082 0.006185 -0.000236 92828.400000 1 0 0
7.525363 3.561657 -12.962553 15.405982 0.442050 2.570660 -0.000601 0.001730 409950.000000 1 0 0
-2.864837 7.593557 -15.161753 17.197330 -1.210035 2.650110 0.007296 0.000499 -189739.000000 1 0 0
12.090763 -5.246443 -11.087453 17.223337 -0.409403 2.270180 0.026801 -0.007798 -1131050.000000 1 0 0
0.803763 -4.367643 -20.019753 20.506410 -1.388806 2.923297 0.028411 -0.016809 -603012.000000 1 0 0
3.438463 -4.504543 -16.117153 17.084395 -0.918817 2.803486 0.016914 -0.009348 358160.000000 1 0 0
-5.623737 4.120157 -14.297053 15.906220 -0.632296 2.687898 -0.001400 -0.001396 577289.000000 1 0 0
12.328363 -7.559443 -9.862453 17.504334 -0.550051 2.169327 0.022928 -0.006955 495003.000000 1 0 0
-2.005837 -1.802443 -15.092053 15.331088 0.732040 2.964775 0.006198 -0.002972 575295.000000 1 0 0
6.973763 5.865657 -14.204953 16.876611 0.699307 2.571210 -0.002467 0.000758 -507567.000000 1 0 0
4.209763 -5.461143 -18.458353 19.704238 -0.914080 2.784082 0.032418 -0.013811 74812.600000 1 0 0
7.520063 7.352557 -12.198353 16.106249 0.774136 2.430069 0.000136 -0.001141 -837593.000000 1 0 0
12.402863 -2.597443 -11.143653 16.874795 -0.206439 2.292111 0.025829 -0.002875 -1201670.000000 1 0 0
7.531263 -0.803943 -10.595053 13.023878 -0.106345 2.520959 0.004776 -0.000436 -2426350.000000 1 0 0
5.256363 4.081357 -14.329353 15.799278 0.660222 2.706812 0.002808 -0.000708 1073940.000000 1 0 0
14.611863 2.747257 -13.078153 19.801314 0.185846 2.292239 0.000182 -0.006241 -344158.000000 1 0 0
-6.362937 6.851157 -15.933353 18.474227 -0.822328 2.610914 -0.008232 0.008927 448531.000000 1 0 0
-11.093137 4.038957 -16.456153 20.252799 -0.349176 2.519288 0.011621 -0.011028 114366.000000 1 0 0
-4.911037 6.439257 -18.120553 19.847840 -0.919235 2.721310 0.001830 0.014690 333835.000000 1 0 0
-9.992337 1.822057 -15.744653 18.736617 -0.180364 2.568660 0.009408 -0.006023 -146431.000000 1 0 0
-7.592737 5.846657 -17.972353 20.367585 -0.656199 2.651735 -0.005967 -0.000112 444747.000000 1 0 0
-8.627137 4.024257 -15.520153 18.207067 -0.436461 2.591402 -0.005987 -0.000200 -239130.000000 1 0 0
9.005763 13.489857 -12.051053 20.206630 0.982151 2.209794 0.027248 -0.009759 -823619.000000 1 0 0
13.713363 9.105957 -11.306853 19.970470 0.586169 2.172659 0.003423 -0.007089 464866.000000 1 0 0
8.558163 15.834957 -9.219853 20.223592 1.075307 2.044175 0.026164 -0.009313 -168571.000000 1 0 0
7.214363 13.646157 -13.934653 20.795172 1.084474 2.305127 0.014707 -0.004417 -290252.000000 1 0 0
4.867763 16.238257 -12.454053 21.035198 1.279549 2.204406 0.018562 -0.008495 -119035.000000 1 0 0
11.154663 10.919957 -11.569753 19.430161 0.774766 2.208626 0.016938 -0.005611 -176221.000000 1 0 0
15.881863 9.673357 -9.831653 21.034942 0.547071 2.057140 0.032322 0.006454 442563.000000 1 0 0
13.511963 10.708257 -9.162753 19.524240 0.670152 2.059296 0.048045 -0.001217 445512.000000 1 0 0
10.687563 11.937957 -8.086453 17.947967 0.840607 2.038177 0.024556 0.003433 493250.000000 1 0 0
5.508463 16.283757 -10.024553 19.899637 1.244601 2.098737 0.016549 -0.010528 -130842.000000 1 0 0
6.771163 14.742657 -11.570353 19.926556 1.140243 2.190323 0.010386 0.002133 -247704.000000 1 0 0
10.970263 13.799857 -9.848053 20.193238 0.899139 2.080239 0.036494 -0.000431 -346737.000000 1 0 0
8.035263 -18.584643 -1.293153 20.288584 -1.162708 1.634578 0.019854 0.001117 -498628.000000 1 0 0
7.355263 -17.248943 -3.530753 19.081199 -1.167725 1.756907 0.016254 -0.004228 -290967.000000 1 0 0
4.494763 -18.401443 5.803847 19.811629 -1.331226 1.273484 0.022149 0.005677 58263.900000 1 0 0
9.753763 -17.121043 -2.599353 19.875177 -1.052958 1.701956 0.014929 -0.001692 -277564.000000 1 0 0
-9.888537 -12.172843 -10.027353 18.614755 0.888574 2.139663 0.019897 -0.007793 182185.000000 1 0 0
-5.212537 -6.913543 -12.217553 14.974520 0.924765 2.525062 0.002912 0.001829 582594.000000 1 0 0
-10.918837 -9.498143 -5.685453 15.548637 0.715926 1.945134 0.014064 -0.006178 -1919080.000000 1 0 0
-4.697237 -11.527843 -14.183153 18.871064 1.183868 2.421254 0.011584 -0.000885 174533.000000 1 0 0
-3.025137 -15.628443 7.476247 17.586755 1.379595 1.131717 -0.006679 0.002507 -80414.100000 1 0 0
-5.016437 -11.882243 -11.691453 17.408114 1.171317 2.307175 0.018253 -0.003408 133239.000000 1 0 0
-14.384937 -12.704443 -4.294653 19.666554 0.723442 1.790944 0.005107 -0.007051 -121295.000000 1 0 0
-3.341237 -12.282543 -3.318453 13.154348 1.305192 1.825822 0.007260 -0.005267 622432.000000 1 0 0
-2.436537 -17.233143 -1.659853 17.483508 1.430341 1.665878 -0.008858 -0.008614 -224720.000000 1 0 0
-5.770837 -12.136043 3.592347 13.910107 1.126930 1.309581 0.000353 -0.002575 361861.000000 1 0 0
-8.876837 -10.681543 -11.946253 18.319568 0.877410 2.281152 0.009405 -0.001146 178128.000000 1 0 0
-10.395437 -11.787743 -7.418653 17.379656 0.848080 2.011812 0.023025 -0.015132 -242942.000000 1 0 0
-10.959837 -15.075343 6.159947 19.629798 0.942176 1.251598 0.010267 -0.006138 359727.000000 1 0 0
-9.635437 -15.827743 0.522947 18.537330 1.023954 1.542582 0.008446 0.004465 -1857490.000000 1 0 0
-14.762137 -7.694543 -8.379053 18.636932 0.480491 2.037107 -0.008271 -0.004406 -59671.300000 1 0 0
-2.470737 -16.615543 5.062447 17.544492 1.423178 1.278085 0.003001 0.000220 152323.000000 1 0 0
4.465363 -15.794343 5.825447 17.416560 -1.295268 1.229746 0.013274 -0.000613 -66508.200000 1 0 0
4.237463 -14.538943 -10.038253 18.168750 -1.287196 2.156158 0.007464 -0.000987 -341326.000000 1 0 0
-7.787137 -14.072243 -0.389053 16.087850 1.065371 1.594982 0.006791 -0.001175 1428270.000000 1 0 0
3.035063 -14.888343 9.659147 18.004818 -1.369697 1.004541 0.012121 -0.005163 -619425.000000 1 0 0
2.420363 -17.323543 10.325347 20.311969 -1.431980 1.037543 0.021910 -0.006254 -305660.000000 1 0 0
-8.318037 -17.011443 -5.953553 19.850031 1.116014 1.875412 0.021824 -0.009483 -204334.000000 1 0 0
-6.661537 -9.114443 -7.777753 13.709216 0.939647 2.174065 0.016072 -0.004928 437170.000000 1 0 0
-6.125537 -13.012843 -4.828053 15.171236 1.130838 1.894666 0.010254 -0.010092 162343.000000 1 0 0
1.957463 -19.413943 -4.841153 20.103970 -1.470308 1.813992 -0.004825 -0.012123 -156833.000000 1 0 0
-5.337137 -12.916843 8.128847 16.168118 1.178969 1.043996 -0.004750 -0.006763 865929.000000 1 0 0
2.181163 -17.558243 3.526847 18.041287 -1.447205 1.374042 0.011127 -0.005627 1200840.000000 1 0 0
-17.710837 -10.071443 -2.569653 20.535600 0.517056 1.696257 0.012289 -0.011285 523722.000000 1 0 0
-3.539637 -15.447943 2.528747 16.048755 1.345551 1.412570 -0.001798 -0.003209 -38122.900000 1 0 0
-10.013337 -10.268143 -14.236053 20.208090 0.797961 2.352477 0.000468 -0.002877 -336082.000000 1 0 0
6.008963 -14.679243 -5.635253 16.832822 -1.182255 1.912166 -0.001172 -0.003710 276972.000000 1 0 0
-7.322737 -12.279243 -10.752853 17.889275 1.033064 2.215646 0.012533 -0.008113 -1863010.000000 1 0 0
-7.000437 -14.380343 3.910047 16.464776 1.117760 1.331026 -0.007498 0.003432 317923.000000 1 0 0
3.184263 -15.039043 -3.102053 15.682318 -1.362145 1.769915 0.003188 -0.003968 -1089770.000000 1 0 0
-7.559937 -11.488643 7.699447 15.761442 0.988793 1.060428 0.000226 -0.004740 -736091.000000 1 0 0
-12.855537 -12.306843 -1.074353 17.829119 0.763595 1.631091 0.005456 -0.000266 -1464680.000000 1 0 0
-1.957937 -13.757043 4.020547 14.465634 1.429423 1.289150 -0.000281 0.000452 -3176630.000000 1 0 0
-3.053837 -14.089643 5.263047 15.347431 1.357354 1.220765 -0.005792 -0.000134 -662322.000000 1 0 0
-14.550237 -10.239143 -4.434053 18.336038 0.613211 1.815039 -0.001917 -0.005408 939830.000000 1 0 0
-6.341137 -8.594343 -10.482253 14.964972 0.935132 2.346828 0.010827 -0.000800 261866.000000 1 0 0
0.900463 -19.613943 2.502047 19.793379 -1.524919 1.444049 0.011159 -0.003237 43064.800000 1 0 0
6.367163 -14.009343 -8.152653 17.414598 -1.144211 2.057993 0.003948 -0.005662 -2589610.000000 1 0 0
-3.932237 -16.639443 -5.986153 18.115397 1.338734 1.907572 -0.004276 -0.012136 -668194.000000 1 0 0
-3.863737 -13.678243 -13.258053 19.437047 1.295496 2.321430 0.020282 -0.003028 -2230940.000000 1 0 0
-8.210637 -14.622243 -4.650753 17.402703 1.059154 1.841327 0.016032 -0.010167 -2214270.000000 1 0 0
-4.461037 -14.527243 9.941847 18.159900 1.272856 0.991469 -0.007205 -0.006516 527217.000000 1 0 0
-0.342837 -12.223743 -10.009253 15.802613 1.542757 2.256725 0.009440 0.001214 475715.000000 1 0 0
2.374363 -17.158243 6.628147 18.546570 -1.433289 1.205337 0.013788 -0.011053 -1571250.000000 1 0 0
-3.075737 -19.139943 -3.377153 19.677468 1.411461 1.743276 -0.009809 -0.012125 993183.000000 1 0 0
0.581163 -15.427743 -3.049953 15.737065 -1.533144 1.765838 0.000917 -0.003946 -244302.000000 1 0 0
5.960863 -18.063443 0.557547 19.029733 -1.252052 1.541493 0.012146 -0.000189 -515894.000000 1 0 0
-7.119637 -16.812043 3.721447 18.632853 1.170210 1.369719 -0.007053 0.006139 1030140.000000 1 0 0
-5.233137 -13.385543 -9.581453 17.273180 1.198112 2.158800 0.012012 -0.007461 -119444.000000 1 0 0
5.574463 -15.268143 -2.165153 16.397522 -1.220730 1.703225 0.003461 0.001513 -1333000.000000 1 0 0
-8.924737 -10.333943 -0.600853 13.667566 0.858440 1.614772 0.005257 -0.002703 -185158.000000 1 0 0
-7.427837 -18.085243 -3.261453 19.821349 1.181089 1.736090 0.002079 -0.014676 58506.700000 1 0 0
7.869963 -16.007743 -1.245153 17.881123 -1.113863 1.640488 0.007671 0.001569 -133129.000000 1 0 0
-8.284037 -10.139843 -9.559453 16.211874 0.885788 2.201431 0.015563 -0.004672 354277.000000 1 0 0
-9.251937 -14.854743 -7.076053 18.876766 1.013761 1.955037 0.025881 -0.012765 -67200.500000 1 0 0
-11.507637 -10.400343 -12.079453 19.659757 0.734898 2.232454 0.012193 0.004529 337752.000000 1 0 0
6.482363 -16.273843 2.476347 17.691560 -1.191730 1.430362 0.008438 -0.001124 436717.000000 1 0 0
-2.235937 -11.235143 -6.185053 13.018554 1.374350 2.065869 0.007903 -0.002515 -1289880.000000 1 0 0
-12.488837 -15.304543 -3.389053 20.042100 0.886362 1.740709 0.008036 -0.004829 805591.000000 1 0 0
-0.525537 -19.577243 -2.930753 19.802373 1.543958 1.719342 0.007342 -0.015420 -398010.000000 1 0 0
-5.896237 -15.602643 -4.841853 17.368121 1.209486 1.853318 0.003855 -0.010399 -3876390.000000 1 0 0
1.858963 -15.991043 -1.019253 16.130967 -1.455066 1.634025 0.006647 -0.002937 -286087.000000 1 0 0
-13.258437 -12.035943 5.205447 18.647970 0.737105 1.287895 0.015481 0.000887 269487.000000 1 0 0
2.123663 -15.358143 -9.038353 17.946430 -1.433392 2.098591 0.007116 0.003913 -888729.000000 1 0 0
-11.938037 -16.795543 -0.101953 20.606247 0.952868 1.575744 0.025766 -0.000277 725365.000000 1 0 0
-7.777737 -16.542143 -1.235153 18.321062 1.131290 1.638265 0.006377 -0.003602 563064.000000 1 0 0
-3.183637 -14.488743 -1.863953 14.951039 1.354502 1.695792 -0.001075 -0.005076 136453.000000 1 0 0
-1.901037 -10.360343 -13.343353 16.999875 1.389323 2.473345 0.008128 0.002757 -192702.000000 1 0 0
1.519463 -19.600443 5.047247 20.296819 -1.493429 1.319488 0.018596 -0.008409 76741.300000 1 0 0
-17.377037 -9.668343 2.412747 20.031466 0.507733 1.450055 -0.001764 -0.005371 -792074.000000 1 0 0
-2.653237 -15.693143 -8.214053 17.910474 1.403310 2.047235 -0.003190 -0.001073 -583959.000000 1 0 0
-10.547737 -12.222343 0.160847 16.145164 0.858810 1.560834 0.004930 0.001376 406917.000000 1 0 0
-6.884137 -11.490443 -6.781153 15.013516 1.031025 2.039432 0.012811 -0.008297 479860.000000 1 0 0
-2.224337 -13.707643 -6.738353 15.435432 1.409929 2.022558 -0.002169 -0.003462 155848.000000 1 0 0
-14.420037 -14.446843 -1.252453 20.450364 0.786327 1.632078 0.018756 0.000456 253215.000000 1 0 0
-9.656237 -11.258243 -4.458453 15.487697 0.861847 1.862799 0.016115 -0.008276 1072480.000000 1 0 0
9.427063 -15.259643 -5.196953 18.674436 -1.017408 1.852812 0.005783 -0.004664 89853.200000 1 0 0
-5.720837 -10.793743 -9.424353 15.428912 1.083427 2.227898 0.014989 -0.003976 -434002.000000 1 0 0
-10.473137 -15.864143 -5.104553 19.682838 0.987300 1.833135 0.025320 -0.008553 -1421270.000000 1 0 0
2.210663 -17.412343 -3.236253 17.847971 -1.444512 1.753128 0.006845 -0.006218 521726.000000 1 0 0
-0.210637 -14.514343 -8.165553 16.654933 1.556285 2.083205 0.004352 -0.000158 -526664.000000 1 0 0
-0.721337 -18.259543 -7.067353 19.592824 1.531312 1.939827 -0.004568 -0.010743 -292345.000000 1 0 0
-1.936137 -10.087943 -10.664753 14.807167 1.381176 2.374948 0.007641 0.002572 609950.000000 1 0 0
-5.049337 -17.325543 1.936047 18.149891 1.287212 1.463923 -0.005634 0.001858 -293201.000000 1 0 0
0.266363 -12.844443 -2.624353 13.112509 -1.550062 1.772298 0.002591 -0.003672 -1077470.000000 1 0 0
2.571663 -14.998143 3.081947 15.525983 -1.400982 1.370967 0.010542 -0.002908 -828952.000000 1 0 0
-9.437137 -13.059143 6.658947 17.433943 0.945033 1.178888 0.000246 -0.003532 -373346.000000 1 0 0
-1.171237 -17.751343 -4.593153 18.373324 1.504912 1.823467 -0.002632 -0.014146 -543187.000000 1 0 0
-9.874637 -17.727543 -2.346153 20.427401 1.062578 1.685904 0.019431 -0.002339 -935778.000000 1 0 0
1.304663 -16.262143 1.466247 16.380151 -1.490741 1.481163 0.004447 -0.006197 361762.000000 1 0 0
-0.446437 -18.130243 4.136647 18.601529 1.546177 1.346539 0.008592 -0.007810 -186431.000000 1 0 0
-17.356537 -9.602643 -0.173653 19.836590 0.505341 1.579551 -0.008632 -0.005231 1096910.000000 1 0 0
-14.883337 -6.904643 -10.826053 19.656838 0.434367 2.154062 0.015933 -0.012484 479823.000000 1 0 0
2.695363 -12.737643 -8.871453 15.754848 -1.362266 2.168921 -0.001078 0.003114 722889.000000 1 0 0
-11.752837 -14.787743 1.636347 18.960068 0.899253 1.484384 0.007793 0.004123 -45866.800000 1 0 0
-2.079837 -15.682743 10.583947 19.034025 1.438946 0.981166 -0.004405 -0.001683 288657.000000 1 0 0
-7.077337 -15.935943 1.233147 17.480379 1.152850 1.500193 -0.002652 0.002373 -479141.000000 1 0 0
-12.646337 -14.942043 -5.891153 20.442607 0.868420 1.863122 0.016656 -0.010252 137615.000000 1 0 0
0.917963 -13.870943 -4.977053 14.765391 -1.504714 1.914605 0.002139 -0.003877 454852.000000 1 0 0
5.910463 -16.460843 -7.468353 19.017603 -1.226071 1.974370 0.003716 -0.007283 311805.000000 1 0 0
-6.577937 -12.877343 5.823147 15.588594 1.098534 1.187961 0.001598 -0.003296 -2513.500000 1 0 0
-2.594637 -13.551643 0.475247 13.805978 1.381623 1.536366 0.005177 -0.004119 2378530.000000 1 0 0
-4.334937 -15.527243 0.088047 16.121251 1.298546 1.565335 -0.001840 -0.003468 -43077.500000 1 0 0
-17.896337 -7.515943 -1.874353 19.500808 0.397603 1.667062 0.003203 -0.003952 335370.000000 1 0 0
1.007763 -12.854843 -12.024553 17.631009 -1.492561 2.321306 0.006361 0.004827 138986.000000 1 0 0
1.090563 -16.973043 -5.637753 17.918086 -1.506632 1.890874 0.004947 -0.012710 -1262660.000000 1 0 0
-12.825537 -6.339743 -9.291753 17.059409 0.459082 2.146792 0.008227 -0.000229 -583905.000000 1 0 0
-11.829137 -13.478043 -8.832153 19.989824 0.850462 2.028437 0.028173 -0.012641 84449.100000 1 0 0
-4.313737 -9.844243 3.430447 11.282084 1.157799 1.261843 0.004304 -0.002220 -2809050.000000 1 0 0
-6.991337 -14.353143 9.461147 18.558147 1.117526 1.035831 -0.005735 -0.012634 -1172260.000000 1 0 0
-5.248037 -15.859643 -8.209353 18.613534 1.251233 2.027556 0.010375 -0.009346 -79850.700000 1 0 0
-0.398937 -13.478443 2.159447 13.656163 1.541207 1.412000 0.005906 -0.003257 542438.000000 1 0 0
-11.060637 -13.335843 -4.686053 17.948301 0.878389 1.834944 0.017961 -0.009258 -983513.000000 1 0 0
-9.744037 -10.547743 6.599547 15.803644 0.824985 1.139998 0.006542 -0.001030 113880.000000 1 0 0
-15.636037 -8.024243 -4.839353 18.228919 0.474143 1.839495 0.004793 -0.007828 1158870.000000 1 0 0
-14.413537 -7.404543 5.275647 17.041413 0.474564 1.256047 0.001508 0.002602 1126450.000000 1 0 0
-1.652637 -19.266143 -0.069653 19.337020 1.485226 1.574398 0.002653 -0.006301 -211576.000000 1 0 0
-15.404937 -12.125743 -1.467653 19.659597 0.666846 1.645519 0.002598 0.000649 529138.000000 1 0 0
-4.371237 -12.134743 -6.756753 14.560681 1.225042 2.053348 0.008475 -0.005014 6979.820000 1 0 0
-7.410337 -18.518643 1.751047 20.022972 1.190156 1.483233 -0.004622 0.009253 341012.000000 1 0 0
-2.547237 -11.749043 -8.653853 14.812752 1.357297 2.194711 0.007782 -0.000023 300497.000000 1 0 0
-1.612937 -20.290343 -5.265453 21.024381 1.491470 1.823936 -0.000338 -0.011944 -266251.000000 1 0 0
-5.468837 -8.966343 -13.866753 17.395124 1.023108 2.493378 0.007332 -0.002616 1217620.000000 1 0 0
-8.157437 -19.114743 -0.977953 20.805614 1.167435 1.617818 -0.001262 0.007564 -8920.810000 1 0 0
-16.979437 -7.392343 5.663547 19.365531 0.410622 1.274003 0.012205 -0.003023 -326309.000000 1 0 0
-3.643337 -14.619843 -4.432853 15.705538 1.326566 1.856933 0.000044 -0.007496 -3160430.000000 1 0 0
-3.311637 -15.069543 -11.120153 19.018830 1.354478 2.195296 0.010950 -0.000297 38801.200000 1 0 0
-0.245537 -16.681443 6.338147 17.846651 1.556078 1.207727 0.015867 -0.008415 -432441.000000 1 0 0
-11.129437 -11.574843 3.803547 16.501768 0.805013 1.338212 0.002960 -0.000370 -638129.000000 1 0 0
-0.210137 -14.620343 -0.154153 14.622666 1.556424 1.581339 0.000646 -0.002367 838605.000000 1 0 0
-7.410037 -9.597343 -2.515753 12.383322 0.913305 1.775377 0.011003 -0.002384 -207471.000000 1 0 0
-11.269537 -14.406843 -0.930153 18.314606 0.906982 1.621606 0.011847 -0.005843 -49125.300000 1 0 0
0.186863 -14.784343 -10.711853 18.258026 -1.558158 2.197765 -0.000614 0.003535 534948.000000 1 0 0
-1.494837 -14.074443 -3.859853 14.670479 1.464984 1.837034 -0.000601 -0.004390 -3429260.000000 1 0 0
-11.534137 -8.071143 -7.661953 16.027639 0.610566 2.069225 0.012862 -0.005808 349134.000000 1 0 0
-0.202237 -17.208943 -0.410153 17.215018 1.559045 1.594624 0.007680 -0.006186 -2371080.000000 1 0 0
-12.851937 -9.663843 4.383047 16.666531 0.644739 1.304682 0.005168 -0.001328 -415905.000000 1 0 0
3.975563 -16.771043 1.605747 17.310442 -1.338043 1.477901 0.005361 -0.005599 1199120.000000 1 0 0
-3.684637 -17.964443 -8.168153 20.075271 1.368495 1.989828 0.004944 -0.008576 22033.300000 1 0 0
-13.302637 -11.507443 2.577047 17.777024 0.713167 1.425319 -0.002504 0.000110 -862241.000000 1 0 0
-8.533537 -12.273543 4.076347 15.494442 0.963246 1.304578 0.003325 -0.000057 1389500.000000 1 0 0
-8.305637 -9.423043 -5.897453 13.876502 0.848343 2.009753 0.017429 -0.007478 -10697.400000 1 0 0
3.622963 -17.640743 -5.421053 18.807166 -1.368238 1.863189 0.001153 0.003042 -717599.000000 1 0 0
-2.567637 -13.138043 11.195747 17.451237 1.377794 0.874286 -0.005226 -0.009466 43785.200000 1 0 0
0.144063 -16.874243 -9.354953 19.294455 -1.562259 2.076990 0.005771 -0.002055 -273720.000000 1 0 0
-7.033937 -10.726843 -14.889153 19.652693 0.990402 2.430446 0.009673 0.011345 -1986270.000000 1 0 0
-4.688837 -18.632743 -1.459653 19.269014 1.324270 1.646620 -0.001344 -0.012728 116327.000000 1 0 0
-2.475937 -17.116643 1.009847 17.324247 1.427142 1.512472 0.001572 -0.009967 507735.000000 1 0 0
4.020763 -14.615143 -7.461753 16.895168 -1.302328 2.028233 0.002249 -0.002257 -291481.000000 1 0 0
-1.077337 -15.802043 -6.147153 16.989783 1.502725 1.941010 -0.004380 -0.006455 -916897.000000 1 0 0
-9.467437 -15.043043 8.319547 19.624994 1.009070 1.133021 -0.001023 -0.010665 -864524.000000 1 0 0
-7.259037 -12.080643 -1.900953 14.221434 1.029729 1.704866 0.007131 -0.005704 649448.000000 1 0 0
-7.253937 -14.983943 -9.487653 19.161256 1.119938 2.088801 0.017918 -0.009053 726362.000000 1 0 0
-5.178237 -13.259843 -0.718753 14.253217 1.198489 1.621245 0.003548 -0.004418 3049810.000000 1 0 0
-6.419337 -13.708243 -7.348453 16.826277 1.132843 2.022751 0.010434 -0.009855 261478.000000 1 0 0
5.654563 -15.423943 0.240847 16.429550 -1.219402 1.556136 0.004281 0.001557 -137228.000000 1 0 0
-14.464337 -12.970643 0.896747 19.448877 0.731007 1.524672 0.000919 -0.001428 814751.000000 1 0 0
0.934763 -15.442143 11.115547 19.049644 -1.510337 0.947759 0.007499 -0.003733 -274810.000000 1 0 0
-9.377037 -10.816343 1.891947 14.439584 0.856554 1.439393 0.006206 0.001124 279450.000000 1 0 0
-9.508637 -8.835243 -3.546153 13.455516 0.748705 1.837493 0.014188 -0.005474 -1589660.000000 1 0 0
-12.261637 -7.326943 -12.286553 18.841211 0.538616 2.281161 0.008920 -0.005152 647781.000000 1 0 0
-13.315137 -8.389243 -0.614553 15.749602 0.562225 1.609826 -0.003320 -0.003831 -40007.200000 1 0 0
-11.244637 -9.718743 0.398147 14.867897 0.712738 1.544014 0.003795 -0.001263 -112411.000000 1 0 0
-15.822837 -12.231943 2.951847 20.216232 0.658095 1.424259 0.008641 -0.000165 414679.000000 1 0 0
-10.503437 -12.442643 -2.374153 16.455339 0.869709 1.715580 0.012767 -0.007706 329516.000000 1 0 0
-3.479637 -8.889043 -12.081253 15.397391 1.197680 2.472895 0.003270 0.003413 -2001350.000000 1 0 0
-0.325737 -15.635643 3.793847 16.092629 1.549966 1.332805 0.011348 -0.003943 -771657.000000 1 0 0
-15.798637 -7.893743 1.180847 17.700354 0.463365 1.504034 -0.002700 -0.001279 625254.000000 1 0 0
-6.390537 -13.360743 -13.439153 19.998982 1.124653 2.307692 0.024691 -0.003632 -727624.000000 1 0 0
-15.248937 -10.407943 1.102147 18.495137 0.598909 1.511170 -0.005105 -0.003527 515512.000000 1 0 0
-9.913937 -8.374643 -12.477553 18.003059 0.701429 2.336549 0.009321 -0.003370 79760.800000 1 0 0
-13.280737 -11.452843 -6.356253 18.653353 0.711629 1.918518 0.008928 -0.010636 -728611.000000 1 0 0
-12.277037 -11.307343 -3.907553 17.142072 0.744305 1.800769 0.002820 -0.005021 -3579240.000000 1 0 0
-12.058837 -10.850643 -9.222553 18.660319 0.732709 2.087749 0.016442 -0.012859 565406.000000 1 0 0
-13.231337 -8.427843 -5.885553 16.755195 0.567154 1.929721 0.000334 -0.005590 -1002120.000000 1 0 0
-13.543337 -8.128343 -3.217353 16.119656 0.540547 1.771738 0.001841 -0.006659 351409.000000 1 0 0
-4.420937 -16.893543 -3.353253 17.781474 1.314842 1.760514 -0.001124 -0.013612 -40841.100000 1 0 0
-15.586337 -8.832243 -1.845253 18.009647 0.515548 1.673436 0.000479 -0.005042 -1043420.000000 1 0 0
-9.305637 -15.448443 3.479647 18.367287 1.028638 1.380196 -0.001121 -0.003572 -1198420.000000 1 0 0
4.551263 -17.182743 8.072847 19.522590 -1.311868 1.144487 0.018925 -0.020368 -125845.000000 1 0 0
-8.325337 -15.478143 5.901547 18.539483 1.077308 1.246836 -0.002365 0.005088 779961.000000 1 0 0
0.966763 -16.154743 8.548347 18.302584 -1.511024 1.084837 0.006224 -0.004051 -18887.200000 1 0 0
-10.904837 -7.772043 -10.170953 16.815720 0.619209 2.220371 0.009360 -0.005118 608742.000000 1 0 0
-4.892837 -15.946243 5.780747 17.653316 1.273082 1.237183 -0.004926 -0.001241 -1350690.000000 1 0 0
-1.585337 -13.350143 -12.113453 18.096281 1.452599 2.304183 0.005048 0.002967 -114488.000000 1 0 0
-6.609437 -14.428143 -2.670953 16.093165 1.141232 1.737536 0.010496 -0.006493 383133.000000 1 0 0
-17.718237 -6.924943 -7.135353 20.317580 0.372582 1.929639 0.007980 -0.009067 135034.000000 1 0 0
-17.256237 -4.094343 -10.164453 20.441563 0.232960 2.091216 0.018690 -0.009224 1036780.000000 1 0 0
-15.202037 -5.203343 -8.868053 18.352632 0.329780 2.075106 0.003165 -0.016798 317227.000000 1 0 0
-16.157137 -5.441643 -5.671253 17.967406 0.324863 1.891929 0.003021 -0.006313 -180269.000000 1 0 0
-15.107037 -4.170943 -12.425353 20.000219 0.269382 2.241147 0.020004 -0.006154 -1128060.000000 1 0 0
-18.669237 -4.977443 -5.468153 20.080241 0.260551 1.846595 0.001088 -0.010355 -373642.000000 1 0 0
-17.427637 -4.367143 -7.710253 19.551023 0.245531 1.976174 0.003934 -0.011143 743874.000000 1 0 0
12.245563 -7.867443 8.762647 16.989245 -0.571066 1.028883 0.007627 -0.003496 387726.000000 1 0 0
16.120563 -3.466843 1.794647 16.586510 -0.211831 1.462385 0.018727 -0.004454 206502.000000 1 0 0
12.015963 -2.276443 12.636247 17.585229 -0.187233 0.769050 0.011230 0.002761 -146711.000000 1 0 0
9.670263 -10.014143 5.205247 14.862424 -0.802866 1.212981 -0.000698 -0.001197 125026.000000 1 0 0
17.008363 -2.142543 7.178847 18.585229 -0.125310 1.174216 0.044365 -0.008347 -30198.600000 1 0 0
5.078663 -12.878643 9.182747 16.612498 -1.195172 0.985122 0.000433 0.002949 -246537.000000 1 0 0
15.214563 -9.138543 -2.174653 17.880856 -0.540893 1.692717 0.026456 -0.002356 436113.000000 1 0 0
11.119063 -8.522843 6.502947 15.445411 -0.653982 1.136218 0.006582 -0.005874 -2427590.000000 1 0 0
19.999363 -2.852343 3.463447 20.496483 -0.141666 1.401004 0.032909 -0.011587 134.346000 1 0 0
13.562963 -8.573343 6.779747 17.418988 -0.563699 1.171016 0.011517 -0.008178 -2185540.000000 1 0 0
8.282763 -11.150743 8.909947 16.502436 -0.931920 1.000458 -0.004235 0.004767 -618012.000000 1 0 0
16.802263 0.015357 -0.634253 16.814236 0.000914 1.608526 0.009329 0.000365 37313.900000 1 0 0
12.316663 -12.391643 2.211747 17.610929 -0.788433 1.444874 0.009446 -0.003676 -1760650.000000 1 0 0
10.367863 -11.619643 3.561347 15.974726 -0.842268 1.345971 -0.000326 -0.001363 -130007.000000 1 0 0
16.397163 2.961257 2.401847 16.834632 0.178670 1.427635 0.014835 -0.001119 -68605.800000 1 0 0
18.292963 -3.304843 0.370947 18.592796 -0.178734 1.550844 0.017063 -0.004898 27703.600000 1 0 0
13.463963 -11.838143 -0.209953 17.929417 -0.721230 1.582507 0.028191 -0.001897 -326934.000000 1 0 0
16.935063 -7.706343 -0.762053 18.621622 -0.427048 1.611731 0.033544 -0.002419 605717.000000 1 0 0
10.176363 -5.615743 9.753747 15.173348 -0.504256 0.872621 0.004575 -0.002819 925489.000000 1 0 0
11.054363 -13.185343 6.041447 18.235989 -0.873086 1.233123 0.000419 -0.002959 319024.000000 1 0 0
13.158363 -1.661243 10.347847 16.822014 -0.125586 0.908236 0.019696 -0.001088 589031.000000 1 0 0
15.537963 -2.051343 -1.269153 15.724091 -0.131262 1.651598 0.005725 -0.004707 -365568.000000 1 0 0
10.539063 -12.533143 9.249647 18.807113 -0.871612 1.056622 0.005189 -0.004241 166275.000000 1 0 0
14.672063 1.164257 3.352147 15.095092 0.079186 1.346861 0.017143 -0.000637 989424.000000 1 0 0
14.863163 -6.001443 5.241247 16.864210 -0.383760 1.254771 0.018960 -0.009513 -1322240.000000 1 0 0
14.324863 -3.430643 -2.999653 15.032263 -0.235062 1.771693 0.011512 -0.000740 1094810.000000 1 0 0
14.080363 0.668057 9.506947 17.002498 0.047410 0.977436 0.030301 -0.006104 508881.000000 1 0 0
15.533563 -3.614043 4.425547 16.551083 -0.228594 1.300116 0.019769 -0.005828 -1092150.000000 1 0 0
18.524163 4.738157 -4.288353 19.595528 0.250414 1.791425 -0.003775 -0.001825 694345.000000 1 0 0
18.149863 -6.017243 -5.058853 19.779199 -0.320128 1.829437 0.041791 -0.004593 458532.000000 1 0 0
17.283163 0.000257 5.903047 18.263452 0.000015 1.241670 0.039756 -0.005461 943294.000000 1 0 0
16.958663 -6.593743 3.952747 18.619825 -0.370825 1.356882 0.031687 -0.014835 -533157.000000 1 0 0
9.724263 -6.432143 14.191647 18.366725 -0.584385 0.687740 0.001471 -0.009411 -1026550.000000 1 0 0
8.483863 -12.273843 5.044547 15.750257 -0.965991 1.244768 -0.005094 -0.002009 -2242540.000000 1 0 0
16.777763 -10.372543 -0.374653 19.728744 -0.553717 1.589788 0.033811 0.000051 702899.000000 1 0 0
14.799963 -8.871043 0.329547 17.258126 -0.539976 1.551700 0.031722 -0.004539 -18327.000000 1 0 0
9.892363 -12.966043 1.474747 16.375347 -0.919063 1.480615 0.006284 -0.004893 -313185.000000 1 0 0
16.691163 -8.279243 8.829947 20.618165 -0.460463 1.128229 0.019990 -0.008437 520914.000000 1 0 0
19.070963 -0.090143 -2.101453 19.186606 -0.004727 1.680544 0.016343 -0.000611 -639485.000000 1 0 0
13.384363 -1.194143 7.776647 15.525572 -0.088984 1.046166 0.014397 -0.003391 190480.000000 1 0 0
12.774063 -9.860143 -3.071553 16.426611 -0.657363 1.758890 0.015642 -0.003538 -600018.000000 1 0 0
8.721763 -15.249343 1.457447 17.627699 -1.051262 1.488022 0.007531 0.004074 -1378730.000000 1 0 0
11.293063 -8.265443 11.157847 17.898278 -0.631819 0.897708 -0.000085 -0.007825 170802.000000 1 0 0
13.957363 -4.089043 -0.584253 14.555741 -0.284992 1.610946 0.013111 -0.004188 -1043590.000000 1 0 0
7.090663 -13.227343 10.815147 18.498851 -1.078718 0.946362 0.003446 0.006709 -692921.000000 1 0 0
15.432663 -6.691743 1.757847 16.912614 -0.409140 1.466671 0.023942 -0.004863 -301575.000000 1 0 0
15.739563 -6.305143 -2.540753 17.144798 -0.381017 1.719538 0.024986 -0.002278 97354.000000 1 0 0
11.143563 -8.484643 3.825347 14.519003 -0.650754 1.304177 0.009772 -0.005033 441246.000000 1 0 0
10.575963 -14.649843 -0.423753 18.073419 -0.945512 1.594245 0.022703 -0.003047 791925.000000 1 0 0
13.178363 -12.879243 4.541547 18.978140 -0.773920 1.329147 0.004729 -0.002031 377981.000000 1 0 0
12.704363 -11.043743 6.450347 18.026982 -0.715585 1.204868 0.002993 -0.005631 -500615.000000 1 0 0
10.822563 -10.484843 1.341747 15.128122 -0.769550 1.481987 0.004128 -0.006137 374082.000000 1 0 0
13.799363 -7.564143 11.878047 19.716152 -0.501423 0.924226 0.006835 -0.014413 836573.000000 1 0 0
15.374163 -1.939943 -4.999053 16.282469 -0.125519 1.882857 0.018204 -0.000548 -868735.000000 1 0 0
12.948363 -11.420343 -7.078253 18.659743 -0.722776 1.959871 0.027015 -0.010978 -1138.800000 1 0 0
17.709363 -5.445843 1.828447 18.617786 -0.298334 1.472428 0.035144 -0.006220 180881.000000 1 0 0
10.629463 -9.866843 9.137947 17.141824 -0.748208 1.008561 -0.002593 -0.001287 -203196.000000 1 0 0
16.343263 1.941557 9.757847 19.133412 0.118244 1.035623 0.047096 -0.008411 -1648270.000000 1 0 0
18.218763 3.511157 0.573947 18.562892 0.190388 1.539872 0.007013 0.000734 414831.000000 1 0 0
13.316863 -3.986343 5.739547 15.039021 -0.290856 1.179222 0.013904 -0.005011 210629.000000 1 0 0
12.161063 -6.138343 6.691547 15.177203 -0.467443 1.114201 0.012294 -0.004428 -239856.000000 1 0 0
16.485363 -10.449743 3.456247 19.821956 -0.564960 1.395536 0.020352 -0.001794 478000.000000 1 0 0
16.168863 -8.056343 -5.412753 18.858279 -0.462257 1.861914 0.030626 -0.005962 707653.000000 1 0 0
14.013563 -0.400843 5.372547 15.013490 -0.028596 1.204834 0.014449 -0.001998 1115070.000000 1 0 0
18.493763 -4.347943 5.149647 19.683565 -0.230910 1.306094 0.054494 -0.008603 248184.000000 1 0 0
13.396063 -13.395843 7.094747 20.229645 -0.785390 1.212467 0.013097 -0.002921 -326935.000000 1 0 0
14.934363 -13.760543 -1.074753 20.335753 -0.744514 1.623671 0.030485 0.001407 237039.000000 1 0 0
17.764063 -6.102243 7.987447 20.410747 -0.330887 1.168714 0.042012 -0.006332 -294631.000000 1 0 0
14.281163 3.383257 9.327747 17.389793 0.232615 1.004640 0.021060 -0.003928 -1218870.000000 1 0 0
18.853363 3.602957 2.965947 19.422343 0.188827 1.417489 0.025381 -0.002502 136178.000000 1 0 0
14.621763 -10.644143 8.138947 19.832705 -0.629249 1.147926 0.006931 -0.009128 -117942.000000 1 0 0
14.687763 -4.861043 10.490147 18.692332 -0.319612 0.974961 0.022487 -0.009402 100609.000000 1 0 0
17.753263 -7.992743 1.984947 19.570444 -0.423031 1.469196 0.046404 -0.007599 157494.000000 1 0 0
18.375663 -6.030043 -2.012953 19.444238 -0.317082 1.674507 0.020925 -0.000978 362292.000000 1 0 0
14.211863 -13.186743 -5.541353 20.163676 -0.748001 1.849197 0.029070 -0.009503 -462737.000000 1 0 0
15.542963 -1.411943 9.287547 18.161382 -0.090593 1.033995 0.041974 -0.007820 -530097.000000 1 0 0
12.941363 -9.992043 10.262947 19.304089 -0.657497 1.010253 0.000578 -0.012121 -936178.000000 1 0 0
16.629963 2.173657 4.908947 17.475074 0.129970 1.286053 0.027381 -0.002418 -1990740.000000 1 0 0
14.961263 2.225357 -0.025453 15.125880 0.147659 1.572479 0.008190 0.000463 -1063230.000000 1 0 0
15.090863 -9.800943 -6.919253 19.278711 -0.575997 1.937892 0.035612 -0.015980 1892260.000000 1 0 0
16.330263 -0.267643 -3.174053 16.638020 -0.016388 1.762744 0.013608 0.002142 -426290.000000 1 0 0
12.109863 2.683857 13.548247 18.368638 0.218100 0.741324 0.031738 -0.006271 -222886.000000 1 0 0
17.599463 -3.002543 9.559147 20.251756 -0.168977 1.079221 0.041714 -0.011561 128500.000000 1 0 0
7.628063 -18.164743 4.578347 20.226381 -1.173221 1.342462 0.019025 -0.011603 -492442.000000 1 0 0
6.891763 -11.151043 6.646147 14.697395 -1.017219 1.101567 -0.004681 -0.000297 22522.800000 1 0 0
18.020663 2.073057 -1.589553 18.209023 0.114534 1.658202 0.007261 0.004456 405685.000000 1 0 0
17.520363 -2.319343 3.610047 18.038151 -0.131615 1.369302 0.018268 -0.004979 -1998980.000000 1 0 0
12.530863 -13.578143 -1.962153 18.580596 -0.825489 1.676596 0.028821 -0.004285 1338130.000000 1 0 0
15.026963 -8.347243 4.241547 17.705276 -0.507044 1.328880 0.023127 -0.008152 -548802.000000 1 0 0
11.769663 -2.707843 15.168647 19.389307 -0.226135 0.672414 0.007524 -0.010480 -263397.000000 1 0 0
11.929163 -13.651143 -6.501153 19.259378 -0.852613 1.915118 0.011399 -0.015900 -571655.000000 1 0 0
10.517763 -12.117143 -1.230253 16.092297 -0.855941 1.647321 0.016161 -0.007157 -863785.000000 1 0 0
13.203663 -8.051743 2.166347 15.616028 -0.547603 1.431622 0.013533 -0.001977 -1390090.000000 1 0 0
8.773663 -7.741243 10.012647 15.399906 -0.722965 0.862980 0.000370 -0.000117 -1144250.000000 1 0 0
15.547063 -3.895043 8.164747 17.987374 -0.245480 1.099642 0.035484 -0.008982 -1097840.000000 1 0 0
10.051763 -17.456443 5.289947 20.826639 -1.048346 1.313984 0.011166 -0.006761 -421307.000000 1 0 0
15.125463 -6.359043 8.322447 18.397831 -0.397985 1.101386 0.021023 -0.005903 -198432.000000 1 0 0
16.570563 -5.044243 -0.457753 17.327362 -0.295498 1.597217 0.017941 -0.003003 -1011500.000000 1 0 0
13.871863 -10.558143 3.379347 17.757335 -0.650580 1.379321 0.018354 -0.006087 282333.000000 1 0 0
14.873363 -10.093443 -4.461853 18.520331 -0.596236 1.814106 0.032476 -0.013295 103545.000000 1 0 0
13.577263 -6.592743 -0.055553 15.093357 -0.452039 1.574477 0.017152 -0.004497 -256044.000000 1 0 0
17.816963 -1.106043 -4.970853 18.530431 -0.061999 1.842376 0.015413 -0.000890 28955.900000 1 0 0
14.358363 0.182457 -1.692153 14.458881 0.012707 1.688097 0.010535 -0.000144 -1790400.000000 1 0 0
4.768763 -12.929743 11.765147 18.120100 -1.217454 0.864150 -0.006193 0.005010 -835277.000000 1 0 0
11.803663 -7.646643 13.566047 19.540605 -0.574841 0.803420 -0.003408 -0.010794 -353293.000000 1 0 0
11.921463 -5.716243 11.744647 17.684271 -0.447107 0.844467 0.001075 0.000786 -417931.000000 1 0 0
13.263263 -4.507643 8.321947 16.293796 -0.327612 1.034747 0.014690 -0.005662 -646619.000000 1 0 0
15.218063 -1.356743 3.091347 15.588028 -0.088918 1.371157 0.016996 -0.000657 -327745.000000 1 0 0
15.140263 -10.410643 5.686647 19.234006 -0.602364 1.270654 0.018212 -0.009106 310306.000000 1 0 0
13.584663 -8.052443 -5.670253 16.779055 -0.535079 1.915520 0.023260 -0.005017 -1639700.000000 1 0 0
9.658663 -2.218443 13.795747 16.986285 -0.225769 0.622935 0.010404 0.001447 -975835.000000 1 0 0
9.519063 -8.952943 13.661747 18.905319 -0.754760 0.763182 -0.003774 -0.011130 80482.500000 1 0 0
20.322863 6.124157 -3.140453 21.456619 0.292689 1.717687 0.021140 -0.003076 -48504.900000 1 0 0
11.388463 -3.524643 10.541447 15.913588 -0.300143 0.846754 0.008726 -0.000007 849910.000000 1 0 0
10.137463 -14.120943 -2.907853 17.624551 -0.948156 1.736543 0.013075 -0.003153 597338.000000 1 0 0
14.808063 -12.811143 2.527347 19.743140 -0.713222 1.442433 0.021709 -0.000091 -632703.000000 1 0 0
11.296163 -0.339643 14.237447 18.177556 -0.030058 0.670931 0.020885 -0.007354 254120.000000 1 0 0
19.064763 -1.908143 5.657547 19.977838 -0.099755 1.283676 0.042382 -0.009306 367322.000000 1 0 0
18.965763 -0.611043 7.922247 20.562965 -0.032207 1.175298 0.053710 -0.006462 361376.000000 1 0 0
19.158163 0.706957 0.428047 19.175980 0.036884 1.548472 0.021445 -0.003937 18343.500000 1 0 0
18.578863 0.759957 3.765747 18.971888 0.040882 1.370978 0.022613 -0.005546 238467.000000 1 0 0
16.571263 -4.125043 -4.231153 17.593334 -0.243969 1.813675 0.016771 -0.002473 -897244.000000 1 0 0
10.829663 -8.243843 15.893147 20.924499 -0.650648 0.708179 0.004418 -0.011608 540534.000000 1 0 0
16.417163 -7.620743 6.353247 19.182354 -0.434595 1.233218 0.019754 -0.008277 108890.000000 1 0 0
18.929363 2.048357 6.092547 19.990889 0.107791 1.261103 0.037028 0.000641 451662.000000 1 0 0
15.249463 1.834457 7.438847 17.065983 0.119721 1.119772 0.032865 -0.004357 -85051.200000 1 0 0
8.626663 -15.772443 3.870047 18.389305 -1.070301 1.358760 0.002593 -0.006272 553470.000000 1 0 0
11.236763 -15.103943 2.034447 18.934965 -0.931171 1.463145 0.012482 0.000108 -538832.000000 1 0 0
7.975663 -16.168643 6.203747 19.066271 -1.112539 1.239385 0.004315 -0.002962 9624.040000 1 0 0
14.444763 -11.730343 -2.588253 18.786995 -0.682065 1.709004 0.028034 -0.005318 581155.000000 1 0 0
13.633763 -4.982243 3.286347 14.882954 -0.350358 1.348149 0.010403 -0.003398 -1868650.000000 1 0 0
-1.104437 10.327157 -5.494553 11.749896 -1.464256 2.057399 -0.003402 0.000293 -969210.000000 1 0 0
8.274263 -1.838043 -7.944753 11.617269 -0.218590 2.323856 0.001393 -0.002779 -2619940.000000 1 0 0
2.866863 -10.058143 7.573547 12.912930 -1.293130 0.944055 0.001628 -0.001317 1016600.000000 1 0 0
-6.304337 1.197657 8.359347 10.538393 -0.187736 0.654705 -0.005946 0.002003 -351553.000000 1 0 0
7.297663 -6.259443 -7.287053 12.063899 -0.708966 2.219355 0.000096 -0.004049 -228434.000000 1 0 0
-11.505737 -4.501043 -4.106953 13.019541 0.372897 1.891722 0.008635 -0.003070 241598.000000 1 0 0
2.075163 -3.337943 2.798747 4.825054 -1.014582 0.952013 0.002485 -0.000654 2914470.000000 1 0 0
-3.663137 -4.348643 8.804947 10.481239 0.870753 0.573389 -0.002947 -0.000573 -1764430.000000 1 0 0
-4.795737 -1.070243 -2.439453 5.485932 0.219568 2.031607 0.003812 -0.002972 -89323.700000 1 0 0
5.034063 -5.228943 -3.651553 8.125114 -0.804385 2.036907 0.003535 -0.003909 -307771.000000 1 0 0
2.761463 14.312457 -8.821053 17.037696 1.380197 2.115001 0.014086 -0.005126 -453466.000000 1 0 0
5.455263 -5.459243 13.778647 15.792857 -0.785763 0.510581 0.006252 -0.007186 112822.000000 1 0 0
-4.706337 -1.025443 9.882147 10.993542 0.214533 0.453533 -0.003127 0.003030 -2415340.000000 1 0 0
-0.962537 11.988357 -2.638753 12.313009 -1.490679 1.786778 -0.005778 0.000687 -800111.000000 1 0 0
3.060863 9.491357 -10.472553 14.461297 1.258837 2.380638 0.006251 -0.000577 -577258.000000 1 0 0
-10.644837 2.628457 1.239747 11.034415 -0.242081 1.458206 -0.005699 0.000900 209936.000000 1 0 0
5.550063 -8.944043 -0.741853 10.552225 -1.015417 1.641157 -0.000990 -0.002974 250359.000000 1 0 0
-6.857137 5.405457 9.553247 12.942327 -0.667564 0.740487 0.000974 -0.000520 505454.000000 1 0 0
-5.554937 -1.882943 5.053047 7.741840 0.326813 0.859662 -0.001485 -0.002771 781652.000000 1 0 0
6.520963 -3.797543 -7.325953 10.517313 -0.527347 2.341390 0.000891 -0.003088 334788.000000 1 0 0
6.263163 4.724657 11.117247 13.606717 0.646283 0.614536 0.000294 0.003910 381742.000000 1 0 0
3.749663 -9.952643 3.121447 11.084156 -1.210492 1.285321 -0.002114 -0.002345 1238440.000000 1 0 0
-6.642337 6.628057 -5.695753 10.976948 -0.784322 2.116340 -0.001175 -0.002242 567143.000000 1 0 0
-10.924137 8.373957 5.247347 14.730736 -0.654013 1.206580 -0.002851 -0.003499 22658.200000 1 0 0
-9.163637 -5.515743 5.074947 11.838529 0.541827 1.127765 -0.000461 0.000674 -1304140.000000 1 0 0
3.256763 9.814657 -7.986853 13.066132 1.250403 2.228453 0.007996 0.000218 946710.000000 1 0 0
-8.118337 -8.649243 5.959547 13.275278 0.817050 1.105239 0.005338 -0.002014 -2753400.000000 1 0 0
-7.796137 -5.525643 -7.678153 12.258325 0.616586 2.247674 0.012331 -0.005853 423877.000000 1 0 0
9.236263 -1.473743 6.971847 11.665638 -0.158227 0.930243 0.002850 -0.001509 1898400.000000 1 0 0
-4.086337 -0.263943 -4.942053 6.418077 0.064502 2.449670 0.005226 -0.006499 -1218150.000000 1 0 0
9.042263 1.252857 -4.377553 10.123988 0.137679 2.017943 0.001574 -0.000277 -3624410.000000 1 0 0
-1.806537 -10.680443 10.759047 15.267368 1.403238 0.788784 -0.007484 -0.007335 -59465.900000 1 0 0
-12.841737 0.318957 -2.608453 13.107860 -0.024832 1.771133 0.002611 -0.002148 -661892.000000 1 0 0
-9.791737 -5.039743 -5.985853 12.534256 0.475333 2.068671 0.010155 -0.003741 -647816.000000 1 0 0
-5.492537 8.324057 -0.126653 9.973662 -0.987535 1.583495 -0.008445 0.000152 806598.000000 1 0 0
6.324663 9.624457 0.416147 11.524092 0.989415 1.534677 0.008185 0.000363 441738.000000 1 0 0
-0.595837 -12.067243 0.006347 12.081946 1.521460 1.570271 0.005772 -0.002282 -194190.000000 1 0 0
5.999963 4.593457 2.463647 7.947890 0.653399 1.255630 -0.000949 0.003670 -56452.600000 1 0 0
3.448663 -7.502043 -8.293253 11.702648 -1.139908 2.358400 0.000628 -0.002535 778256.000000 1 0 0
-6.576937 -9.906143 4.550647 12.731699 0.984694 1.205285 0.004495 -0.001930 -2297140.000000 1 0 0
-0.020237 6.477557 -9.099353 11.169484 -1.567672 2.522942 0.009759 -0.002424 -2649000.000000 1 0 0
-17.237637 -2.780343 4.230147 17.965539 0.159918 1.333106 0.014883 -0.002067 395554.000000 1 0 0
-8.310937 0.917757 -9.153853 12.397862 -0.109982 2.401404 0.000668 -0.003136 -89729.600000 1 0 0
-10.127237 -5.806343 -11.852953 16.636318 0.520585 2.363815 0.008789 0.001384 -635163.000000 1 0 0
2.130263 9.440857 6.462847 11.637705 1.348870 0.982028 -0.006992 0.008006 164876.000000 1 0 0
-11.326737 1.740457 -1.141353 11.516373 -0.152467 1.670066 0.000754 -0.001288 -1056470.000000 1 0 0
-5.999037 -5.392043 -3.199053 8.677357 0.732162 1.948371 0.011815 -0.002879 817032.000000 1 0 0
-6.882137 -8.300243 1.237847 10.853116 0.878533 1.456493 0.006782 -0.001118 -156832.000000 1 0 0
0.058163 10.964857 -7.805553 13.459499 1.565492 2.189438 0.006312 0.001322 526849.000000 1 0 0
-2.881037 9.194857 -4.164353 10.497028 -1.267154 1.978734 -0.003949 -0.002353 -1067240.000000 1 0 0
3.433563 -4.829443 9.374947 11.090649 -0.952750 0.563666 0.003613 -0.000197 -681550.000000 1 0 0
-8.888337 1.550657 -0.339053 9.028955 -0.172721 1.608357 -0.000290 -0.001064 -656565.000000 1 0 0
2.531763 3.538657 -10.341953 11.219978 0.949771 2.743352 0.002285 -0.001862 127867.000000 1 0 0
-13.749837 0.515157 1.283847 13.819250 -0.037449 1.477759 0.002447 -0.002154 78978.300000 1 0 0
9.408063 -12.720243 -4.952753 16.578480 -0.933976 1.874175 0.011592 -0.005797 -1931770.000000 1 0 0
-4.713137 9.433557 -8.288053 13.412587 -1.107458 2.236905 -0.005247 0.000984 -528008.000000 1 0 0
-2.363537 7.144057 8.425947 11.296921 -1.251292 0.728968 -0.004964 0.002746 -927692.000000 1 0 0
-10.697137 -1.220343 -4.411353 11.635206 0.113590 1.959661 0.004945 -0.001793 -3912850.000000 1 0 0
2.677563 -7.186143 9.749247 12.403943 -1.214131 0.666517 -0.001136 -0.001941 -1703250.000000 1 0 0
-16.141637 -6.620443 3.368247 17.768731 0.389223 1.380082 0.007722 0.000495 88652.900000 1 0 0
-10.810537 -0.047843 6.160247 12.442614 0.004426 1.052855 -0.002270 -0.000199 -150894.000000 1 0 0
-8.324937 9.889757 9.381747 15.972759 -0.871097 0.943004 0.000006 -0.006659 -891083.000000 1 0 0
0.202963 -6.118443 -3.828053 7.220148 -1.537636 2.129621 -0.000204 0.001772 406496.000000 1 0 0
4.890363 1.536957 -3.053853 5.966901 0.304508 2.108074 -0.000927 -0.000893 -531142.000000 1 0 0
0.301763 5.371657 3.824247 6.600804 1.514678 0.952852 -0.007564 0.004429 -2362050.000000 1 0 0
5.947763 -11.316843 -1.647053 12.890291 -1.086905 1.698921 -0.002346 -0.002429 -1765800.000000 1 0 0
6.213763 -13.422043 5.267647 15.700643 -1.137224 1.228655 -0.002901 -0.002734 -239032.000000 1 0 0
8.267863 -8.215743 -5.980953 13.100679 -0.782236 2.044896 0.003960 -0.005402 529397.000000 1 0 0
-13.120637 -1.303343 -4.628353 13.973957 0.099011 1.908385 0.006336 -0.001456 -3557290.000000 1 0 0
-6.809537 -1.378343 -7.045853 9.895134 0.199715 2.363213 0.004774 -0.004139 -195565.000000 1 0 0
-5.516437 13.166257 -4.420553 14.943985 -1.174033 1.871098 -0.006769 0.001283 -21233.700000 1 0 0
-4.284937 6.851857 -6.769453 10.542017 -1.011932 2.268083 -0.000619 -0.000289 -3096660.000000 1 0 0
-9.440737 -3.555643 -8.049753 12.906148 0.360197 2.244282 0.006620 -0.002977 333856.000000 1 0 0
-2.208237 -6.412443 9.072647 11.327341 1.239148 0.641914 -0.003661 -0.000646 194237.000000 1 0 0
7.421163 -5.912343 9.983547 13.773186 -0.672718 0.759974 0.001101 0.000041 715090.000000 1 0 0
9.571763 -4.813743 12.167847 16.212565 -0.465974 0.721948 0.002047 -0.002699 -561114.000000 1 0 0
-6.508437 2.836557 -9.064453 11.513910 -0.411006 2.477151 -0.000064 -0.003331 37868.100000 1 0 0
7.438363 5.478357 8.929647 12.848355 0.634805 0.802372 -0.002526 0.003784 -789162.000000 1 0 0
12.719463 3.252457 11.099647 17.192014 0.250343 0.868951 0.019090 0.002501 -212031.000000 1 0 0
-7.499637 -7.282243 -3.968353 11.181389 0.770692 1.933611 0.016750 -0.006657 -1593830.000000 1 0 0
2.244363 1.378857 -5.762253 6.335769 0.550915 2.712827 0.005214 -0.004071 -343143.000000 1 0 0
12.897563 6.734857 -7.086353 16.183999 0.481234 2.024015 0.002874 -0.001124 572176.000000 1 0 0
0.737263 -7.810243 1.040147 7.913619 -1.476678 1.438977 0.001730 -0.002045 1502770.000000 1 0 0
-10.373037 -5.893343 -8.486453 14.640741 0.516664 2.189091 0.007212 -0.003814 262099.000000 1 0 0
-6.723137 0.260157 3.185947 7.444361 -0.038676 1.128553 -0.000390 -0.002346 -376006.000000 1 0 0
10.802863 -7.961443 1.228447 13.475738 -0.635113 1.479510 0.001153 -0.004051 -227359.000000 1 0 0
6.221263 1.094957 10.623947 12.360068 0.174218 0.536432 0.003872 0.000146 -683498.000000 1 0 0
-12.885137 5.360957 2.010347 14.099933 -0.394272 1.427730 -0.000851 0.000333 -178059.000000 1 0 0
1.992463 7.371557 3.630547 8.455213 1.306814 1.126984 -0.008012 0.005727 224693.000000 1 0 0
10.104763 -9.486143 -0.899553 13.888929 -0.753832 1.635609 0.001240 -0.005321 695497.000000 1 0 0
6.876963 -11.689943 -8.966153 16.258515 -1.039039 2.154927 0.005151 -0.006699 -508241.000000 1 0 0
10.250563 3.708257 12.017547 16.224877 0.347114 0.736705 0.002514 0.003587 -192029.000000 1 0 0
-10.969237 -3.121943 -1.853853 11.554543 0.277277 1.731936 -0.001219 -0.001810 -781784.000000 1 0 0
12.317563 1.054457 6.837947 14.127694 0.085398 1.065565 0.008887 -0.002099 188104.000000 1 0 0
-9.478337 9.134557 3.087847 13.520865 -0.766930 1.340387 -0.000053 -0.003399 544200.000000 1 0 0
-6.615637 7.703357 -8.872953 13.484720 -0.861216 2.288957 -0.002301 -0.000128 -1110790.000000 1 0 0
8.487663 5.501857 12.117247 15.784122 0.575122 0.695574 0.000991 0.006686 -2099070.000000 1 0 0
1.404063 4.927957 -2.650653 5.769065 1.293233 2.048183 -0.002684 -0.003316 893268.000000 1 0 0
1.163663 0.507857 9.490647 9.575197 0.411512 0.132990 0.004185 0.000434 939818.000000 1 0 0
2.625263 12.652457 -3.980353 13.521090 1.366209 1.869604 0.010345 -0.002329 399458.000000 1 0 0
1.999763 0.611357 13.046547 13.213069 0.296691 0.158930 0.004690 -0.000310 115940.000000 1 0 0
-12.285537 -1.761643 0.852847 12.440465 0.142421 1.502188 -0.005899 0.000034 77122.900000 1 0 0
3.180463 8.708157 -1.217153 9.350337 1.220620 1.701339 0.001045 0.000628 -108648.000000 1 0 0
3.723363 -2.819643 -5.855753 7.490238 -0.648147 2.468319 0.001003 -0.002616 -1611490.000000 1 0 0
-7.679237 -7.267143 9.199947 14.015030 0.757834 0.854714 0.000583 -0.003369 -378991.000000 1 0 0
-6.877437 10.988257 -3.557853 13.442442 -1.011557 1.838661 -0.002809 0.000744 1465620.000000 1 0 0
0.492963 0.442657 2.534947 2.620098 0.731682 0.255643 -0.002891 -0.000120 -685297.000000 1 0 0
-7.084437 4.593157 -1.873653 8.648521 -0.575211 1.789172 0.000653 -0.001910 -1401790.000000 1 0 0
-6.751537 -3.797343 -5.966153 9.777426 0.512345 2.227105 0.009229 -0.003602 134302.000000 1 0 0
3.000763 -6.141143 13.474747 15.109170 -1.116284 0.469431 0.002044 -0.005191 -1815190.000000 1 0 0
-5.247237 -0.400543 -11.413853 12.568611 0.076186 2.709577 0.005660 -0.002713 -205330.000000 1 0 0
11.878463 2.459257 -0.610453 12.145718 0.204151 1.621078 0.004582 -0.001968 -1482510.000000 1 0 0
5.942863 -10.925043 10.862547 16.512695 -1.072597 0.852862 -0.007445 0.001876 571089.000000 1 0 0
-8.247237 6.469757 -10.432353 14.788802 -0.665203 2.353815 -0.003714 -0.000811 264047.000000 1 0 0
2.973763 8.005957 11.246147 14.121417 1.215147 0.649495 -0.006504 0.004014 916658.000000 1 0 0
-6.236937 -10.142343 -0.545853 11.919080 1.019464 1.616609 0.011073 -0.000405 -521336.000000 1 0 0
11.212063 4.334057 6.125647 13.491403 0.368861 1.099501 0.006277 -0.001114 -64372.500000 1 0 0
-7.825437 10.614057 1.498847 13.271858 -0.935492 1.457621 -0.007235 0.000532 231239.000000 1 0 0
4.290963 -2.648543 -3.527153 6.153694 -0.552998 2.181173 0.002576 -0.003597 -5375920.000000 1 0 0
6.318663 6.507957 6.366447 11.081996 0.800155 0.958821 -0.000715 0.005270 -5961110.000000 1 0 0
-0.294837 10.383157 -10.135253 14.512761 -1.542408 2.343912 0.006897 -0.001148 -297774.000000 1 0 0
13.979463 6.452357 -2.508453 15.599699 0.432425 1.732299 0.006832 -0.003668 836595.000000 1 0 0
1.354463 9.520757 -6.077953 11.376330 1.429480 2.134432 0.005567 -0.000307 -594781.000000 1 0 0
0.631763 7.331157 7.311547 10.373220 1.484834 0.788587 -0.008115 0.007767 -17112.500000 1 0 0
12.316963 6.085257 1.886647 13.867132 0.458880 1.434321 0.010635 -0.002704 -953740.000000 1 0 0
-6.771937 6.696057 -3.013753 9.988945 -0.779764 1.877281 -0.003730 -0.001888 608963.000000 1 0 0
1.101963 9.760757 11.144147 14.855258 1.458375 0.722459 -0.007654 0.003295 -1559520.000000 1 0 0
-3.650137 13.608857 -10.999453 17.874911 -1.308746 2.233635 0.003805 0.001103 31754.700000 1 0 0
-10.096537 -5.531643 -2.312853 11.742591 0.501210 1.769055 0.010382 -0.002358 -466185.000000 1 0 0
-3.962637 4.139357 -12.354453 13.618711 -0.807207 2.707299 0.003396 -0.006653 -874254.000000 1 0 0
-3.154837 8.336557 2.487447 9.254111 -1.209018 1.298656 -0.007957 0.002055 -3828760.000000 1 0 0
7.018463 9.009557 7.150847 13.474626 0.908991 1.011382 0.003391 0.007293 -981059.000000 1 0 0
-1.417337 -2.273943 -8.168853 8.597083 1.013424 2.824638 0.005300 -0.005368 -169106.000000 1 0 0
0.849563 -1.353143 4.784347 5.044078 -1.010155 0.322306 0.003004 0.000543 676101.000000 1 0 0
2.806663 -8.828943 -6.092353 11.088028 -1.263005 2.152506 -0.000067 0.000087 465054.000000 1 0 0
5.387363 3.816057 8.816747 11.014581 0.616298 0.642732 -0.002909 0.003910 736916.000000 1 0 0
6.139263 -7.507443 -2.859353 10.110794 -0.885321 1.857510 -0.000707 -0.004572 774908.000000 1 0 0
1.664763 2.237257 -8.217153 8.677463 0.931076 2.814416 0.005714 -0.003470 -34927.500000 1 0 0
-5.416537 10.957757 -0.624653 12.239342 -1.111710 1.621855 -0.009867 0.002712 503607.000000 1 0 0
-5.468437 3.440057 -3.276553 7.243866 -0.561524 2.040162 -0.000484 -0.002841 -566257.000000 1 0 0
2.133063 13.674657 -6.394253 15.245743 1.416057 2.003594 0.007662 -0.001595 471885.000000 1 0 0
-5.287137 -2.660343 2.588247 6.459897 0.466183 1.158555 -0.000650 -0.001285 742265.000000 1 0 0
10.378363 -3.416743 -1.859153 11.083366 -0.318042 1.739336 -0.000502 0.001049 58198.600000 1 0 0
2.452263 -3.478543 6.910947 8.116344 -0.956744 0.551985 0.000512 0.000249 -1996740.000000 1 0 0
-2.850937 9.910357 -11.585353 15.510107 -1.290687 2.414267 0.005525 -0.000031 -1984570.000000 1 0 0
0.440763 -2.032343 9.202947 9.434984 -1.357230 0.222237 0.001793 -0.000059 148345.000000 1 0 0
9.336663 2.738857 4.961247 10.921931 0.285340 1.099270 0.001997 -0.001009 -1213140.000000 1 0 0
13.440463 1.916557 -4.934353 14.445313 0.141641 1.919403 0.012543 0.001790 347461.000000 1 0 0
-6.436337 3.723757 7.754347 10.743496 -0.524500 0.764438 -0.003880 0.001022 15174.900000 1 0 0
10.661163 0.016957 1.810147 10.813755 0.001591 1.402612 0.003536 0.000498 649675.000000 1 0 0
15.380463 6.396757 -4.685553 17.304090 0.394139 1.844997 0.010522 -0.002791 495623.000000 1 0 0
8.060563 -4.945243 -9.285653 13.253356 -0.550295 2.347072 0.007780 -0.003886 1612060.000000 1 0 0
4.439063 5.686557 -2.118553 7.518675 0.907982 1.856437 0.000054 -0.001318 301208.000000 1 0 0
-1.693737 -10.506843 1.397647 10.733868 1.410968 1.440217 0.005032 -0.001441 -1779090.000000 1 0 0
-2.883437 12.242457 -12.778753 17.930100 -1.339484 2.364134 0.010408 -0.003871 -744904.000000 1 0 0
8.263363 4.173457 -9.630753 13.358604 0.467684 2.375954 0.002123 -0.001027 -985236.000000 1 0 0
4.148763 7.652157 -8.944053 12.480538 1.073985 2.369769 0.003690 -0.001817 -832975.000000 1 0 0
-1.669437 -4.895943 -2.521953 5.754783 1.242176 2.024432 0.004719 -0.000199 -1091100.000000 1 0 0
-3.291337 -8.978643 7.140547 11.934670 1.219433 0.929415 -0.001064 -0.002062 -1906460.000000 1 0 0
0.994763 7.156157 -1.278053 7.337135 1.432674 1.745879 -0.002841 -0.000720 1690430.000000 1 0 0
0.351263 -0.895943 -2.186753 2.389140 -1.197154 2.727021 0.005731 -0.001539 -1121050.000000 1 0 0
4.197163 -6.752743 7.704647 11.071463 -1.014682 0.801122 0.000442 0.000262 -281436.000000 1 0 0
-13.941737 3.873657 6.064647 15.689398 -0.271010 1.173915 -0.001623 -0.002350 -985599.000000 1 0 0
4.264063 6.339057 12.634047 14.764315 0.978652 0.543865 -0.003984 0.004386 -1354410.000000 1 0 0
8.344763 10.079257 -7.132453 14.902965 0.879265 2.069848 0.010504 -0.003867 1267260.000000 1 0 0
12.462963 5.416157 9.535247 16.600636 0.409957 0.958937 0.010746 0.002029 605591.000000 1 0 0
7.563063 3.988857 0.392147 8.559478 0.485337 1.524966 0.002381 0.001619 -1437690.000000 1 0 0
-10.859037 -7.579343 -1.056853 13.284656 0.609366 1.650435 0.009871 -0.002810 -736375.000000 1 0 0
10.465163 6.812257 0.197747 12.488618 0.577040 1.554962 0.007684 -0.001548 96607.100000 1 0 0
14.709263 3.552157 4.250147 15.717632 0.236954 1.296981 0.019001 -0.002134 76494.000000 1 0 0
2.199563 5.502657 8.321847 10.216185 1.190525 0.618801 -0.006647 0.005430 2519190.000000 1 0 0
4.230963 0.226057 11.843647 12.578717 0.053378 0.343557 0.002909 -0.000139 -1872730.000000 1 0 0
-1.544337 -1.423543 -0.481753 2.154887 0.744720 1.796265 0.005864 -0.005545 -1234450.000000 1 0 0
3.043163 -5.253643 -9.509453 11.282345 -1.045775 2.573375 0.000244 -0.001698 600337.000000 1 0 0
-3.911337 -5.273743 -1.409553 6.715487 0.932653 1.782265 0.005895 -0.003048 -1583970.000000 1 0 0
-1.175637 -8.843643 8.605347 12.395327 1.438635 0.803431 -0.002245 -0.003945 -845236.000000 1 0 0
3.895963 8.561857 -5.920353 11.114607 1.143761 2.132542 0.005959 -0.000452 1385710.000000 1 0 0
-14.255037 -1.760543 -2.697153 14.614385 0.122881 1.756415 0.000803 -0.004677 -1057810.000000 1 0 0
8.886663 -10.634043 -6.522653 15.316679 -0.874674 2.010701 0.002483 -0.007568 316642.000000 1 0 0
14.886763 6.019757 1.535047 16.131012 0.384268 1.475491 0.006482 -0.002750 -831477.000000 1 0 0
-5.761937 0.417457 -8.531453 10.303392 -0.072324 2.546370 0.006155 -0.005702 -496765.000000 1 0 0
-8.051237 -4.379043 -12.999053 15.905151 0.498145 2.527481 0.002458 -0.000225 905817.000000 1 0 0
0.936663 -10.723543 12.042047 16.151861 -1.483671 0.729434 0.000822 -0.003402 -379831.000000 1 0 0
0.215163 11.801157 3.345747 12.268154 1.552566 1.294579 -0.002251 0.003139 -1332270.000000 1 0 0
5.100863 -13.279743 -3.671253 14.691783 -1.204064 1.823358 -0.001149 0.000111 1438630.000000 1 0 0
-7.450637 1.576457 -6.938253 10.302261 -0.208511 2.309688 0.000647 -0.001548 691139.000000 1 0 0
1.426363 2.696557 4.092147 5.104076 1.084252 0.640594 -0.003846 0.002010 -383365.000000 1 0 0
17.326163 5.461457 2.045347 18.281325 0.305356 1.458680 0.010068 -0.002187 -553775.000000 1 0 0
2.393163 -8.161943 -3.594653 9.233963 -1.285581 1.970653 -0.002047 0.001130 -131793.000000 1 0 0
-0.495737 -9.348243 -0.663453 9.384859 1.517816 1.641549 0.005153 0.000510 -464629.000000 1 0 0
0.803563 11.925557 -5.605853 13.201902 1.503516 2.009344 0.005165 0.002560 -757706.000000 1 0 0
6.066463 -5.075243 7.755047 11.077040 -0.696667 0.795257 0.001772 0.000111 -1124900.000000 1 0 0
-5.911437 -1.964843 -9.466153 11.331980 0.320892 2.559563 0.010132 -0.003795 -478231.000000 1 0 0
2.093863 -1.145943 11.188147 11.439933 -0.500758 0.210194 0.001215 -0.000482 587558.000000 1 0 0
18.018663 1.995857 -5.865253 19.054051 0.110316 1.883699 0.006678 0.004139 -96780.900000 1 0 0
-8.830037 4.753457 7.953147 12.799119 -0.493838 0.900291 0.001161 -0.006017 285159.000000 1 0 0
11.394963 -7.047243 -5.010253 14.304246 -0.553877 1.928649 0.013961 -0.004914 -495389.000000 1 0 0
10.844963 0.626057 9.028247 14.124957 0.057664 0.877378 0.005439 -0.000413 734.317000 1 0 0
-8.441237 -7.358143 -1.608853 11.313053 0.716952 1.713492 0.014024 -0.005761 -1442810.000000 1 0 0
10.194363 -10.572443 -3.306953 15.054485 -0.803602 1.792268 0.009427 -0.006155 734363.000000 1 0 0
7.638263 -14.018443 -3.750153 16.398886 -1.071898 1.801521 0.004954 -0.000971 -2008920.000000 1 0 0
1.779263 -1.194143 -11.567353 11.764158 -0.591097 2.958420 0.003641 -0.003749 163406.000000 1 0 0
-11.786437 -2.508643 -6.329853 13.611776 0.209712 2.054462 0.009551 -0.002439 513766.000000 1 0 0
2.732563 -12.299743 -6.410753 14.136773 -1.352183 2.041463 0.002858 0.000099 822770.000000 1 0 0
-5.551237 1.511857 1.215347 5.880392 -0.265897 1.362618 0.002207 -0.003659 556495.000000 1 0 0
0.049363 6.869857 -3.931653 7.915508 1.563611 2.090592 0.002337 -0.003624 1079810.000000 1 0 0
5.386763 -11.765343 3.627647 13.438762 -1.141434 1.297467 -0.006999 -0.001534 -1397440.000000 1 0 0
-4.386637 -9.262343 0.963047 10.293738 1.128492 1.477103 0.008731 -0.001030 -1082800.000000 1 0 0
7.130363 -6.242943 -4.697153 10.577318 -0.719138 2.030941 0.001685 -0.002995 -107510.000000 1 0 0
-6.967837 -6.072343 2.136747 9.486295 0.716834 1.343601 0.001460 -0.001416 -146176.000000 1 0 0
-6.218237 -0.812343 7.131847 9.496821 0.129903 0.721264 -0.006012 0.001871 -196649.000000 1 0 0
4.191063 -5.047643 3.164047 7.283880 -0.877850 1.121435 -0.001043 -0.001777 -848847.000000 1 0 0
-2.452737 10.531757 -8.711453 13.886081 -1.341985 2.248944 0.002350 -0.000220 111342.000000 1 0 0
-2.354837 -4.909343 2.658647 6.059316 1.123549 1.116567 0.002351 -0.000870 -812547.000000 1 0 0
15.094463 5.154757 6.341447 17.164739 0.329082 1.192383 0.020241 -0.008613 1020470.000000 1 0 0
6.803363 0.268757 0.096147 6.809348 0.039483 1.556676 -0.000548 0.000860 3467660.000000 1 0 0
-9.700237 9.431457 0.458247 13.537244 -0.771350 1.536939 -0.006486 -0.000448 -1858520.000000 1 0 0
7.145563 10.444257 -2.533753 12.905869 0.970779 1.768406 0.005690 -0.001695 168481.000000 1 0 0
1.585163 -4.219043 -5.399553 7.033366 -1.211398 2.446049 0.002002 -0.001471 120451.000000 1 0 0
0.951363 -8.158343 -7.799953 11.327088 -1.454708 2.330368 0.002715 0.001580 54191.300000 1 0 0
-10.382137 0.297057 -10.593153 14.835495 -0.028604 2.366050 0.001163 -0.001743 -2565460.000000 1 0 0
5.968263 -2.489843 0.553147 6.490412 -0.395229 1.485468 0.003305 -0.001610 61100.200000 1 0 0
-3.379137 5.254157 -0.992553 6.325337 -0.999262 1.728365 -0.001995 -0.004289 604988.000000 1 0 0
-0.310337 4.570557 -5.036153 6.808020 -1.503001 2.403478 0.003589 -0.004556 -1218730.000000 1 0 0
3.998563 -9.672143 9.922747 14.422197 -1.178783 0.812041 -0.003664 0.000849 -838620.000000 1 0 0
7.185863 -13.527243 -0.687753 15.332839 -1.082490 1.615666 0.002384 0.000597 429192.000000 1 0 0
13.054463 -0.030743 0.488047 13.063618 -0.002355 1.533428 0.007815 -0.003125 680578.000000 1 0 0
9.356763 2.429257 -0.735253 9.694890 0.254017 1.646708 0.003718 0.000085 151017.000000 1 0 0
-0.697137 -5.889043 4.252547 7.297327 1.452966 0.948683 0.000208 -0.003165 433875.000000 1 0 0
11.421863 -3.777843 3.370347 12.493610 -0.319429 1.297647 0.005858 -0.003632 -2185470.000000 1 0 0
1.732963 -8.227243 11.756747 14.453781 -1.363194 0.620818 0.000912 -0.003719 411090.000000 1 0 0
9.379663 -5.873843 -5.991753 12.584960 -0.559485 2.067016 0.000687 -0.006315 -1935500.000000 1 0 0
3.209663 6.384157 -0.119053 7.146577 1.104948 1.587456 -0.004640 0.003003 -849780.000000 1 0 0
6.354163 -1.341343 11.334947 13.063522 -0.208042 0.520282 0.004412 -0.001962 481747.000000 1 0 0
-4.850337 -7.595743 -3.933053 9.833107 1.002505 1.982292 0.013327 -0.002664 243377.000000 1 0 0
-3.360737 -8.534643 -5.813153 10.859440 1.195667 2.135670 0.014252 -0.001951 -203822.000000 1 0 0
9.677463 5.319157 2.167047 11.253568 0.502570 1.377021 0.007742 -0.002036 649311.000000 1 0 0
8.969463 -1.386343 0.262547 9.079765 -0.153349 1.541877 0.003750 0.000077 879095.000000 1 0 0
-3.823137 9.573657 9.288147 13.875913 -1.190860 0.837433 -0.002422 -0.000505 -84906.400000 1 0 0
-14.317737 -3.581343 -6.001253 15.932315 0.245104 1.956997 0.005695 -0.004565 -178181.000000 1 0 0
10.666863 6.163157 -5.941553 13.677299 0.523925 2.020179 0.001483 -0.004774 -1382890.000000 1 0 0
-1.682037 4.457757 2.739047 5.495746 -1.209986 1.049051 -0.005117 0.000128 184371.000000 1 0 0
6.948863 -3.767143 2.720147 8.359262 -0.496776 1.239356 0.001167 -0.002161 -2604940.000000 1 0 0
8.277863 -11.274043 -1.640953 14.082606 -0.937458 1.687585 0.003937 -0.005353 -1707200.000000 1 0 0
4.542763 0.437157 1.782447 4.899481 0.095936 1.198449 -0.000756 0.001686 291877.000000 1 0 0
-10.954737 2.284357 3.827047 11.826700 -0.205581 1.241271 0.001431 -0.001285 -416570.000000 1 0 0
-0.831337 -3.174843 4.342147 5.442884 1.314695 0.647216 0.002220 -0.000375 241986.000000 1 0 0
8.644763 -8.768543 -8.457353 14.938075 -0.792506 2.172637 0.009485 -0.005678 -785554.000000 1 0 0
12.087763 -4.791743 1.074747 13.047218 -0.377410 1.488329 0.002831 -0.000860 90340.300000 1 0 0
2.866463 4.868257 3.551447 6.673028 1.038648 1.009588 -0.007424 0.003809 -965623.000000 1 0 0
5.997163 7.478057 2.010347 9.794324 0.894856 1.364071 0.000397 0.003149 -315706.000000 1 0 0
-1.710837 -1.333543 -10.338753 10.563859 0.662096 2.934783 0.008909 -0.005888 1590900.000000 1 0 0
-1.051837 -8.650643 5.932747 10.542176 1.449800 0.973072 -0.004608 -0.003072 84315.100000 1 0 0
-4.275537 -0.321843 2.371547 4.899800 0.075134 1.065566 0.001109 -0.001319 978324.000000 1 0 0
-8.363737 6.160157 -8.022353 13.124701 -0.634825 2.228424 -0.006274 0.000557 -1396600.000000 1 0 0
6.538563 11.223657 -9.396753 16.031913 1.043292 2.197068 0.008150 -0.002250 81321.700000 1 0 0
-11.270037 -5.825243 3.172947 13.077262 0.477059 1.325720 0.000577 0.001839 1228910.000000 1 0 0
1.757763 -6.426943 3.074547 7.338131 -1.303826 1.138472 -0.005281 -0.003266 14912.800000 1 0 0
10.074363 2.268157 7.290047 12.640494 0.221449 0.956086 0.006180 0.000237 -1895150.000000 1 0 0
-4.065737 -2.628043 -10.791153 11.827334 0.573832 2.719884 0.009001 -0.005631 -2844710.000000 1 0 0
-8.307637 11.842957 5.945647 15.640434 -0.959075 1.180842 -0.002425 0.000612 -868860.000000 1 0 0
6.901763 6.038057 -2.956153 9.634900 0.718749 1.882643 0.002020 -0.000663 -2652670.000000 1 0 0
3.808863 -9.888243 -2.339653 10.851671 -1.203121 1.788106 -0.001178 -0.002791 -1376110.000000 1 0 0
8.434463 -12.924443 -7.299653 17.072385 -0.992597 2.012600 0.007624 -0.007535 399881.000000 1 0 0
-1.196637 9.525657 3.634247 10.265370 -1.445828 1.208920 -0.008179 0.006123 -236437.000000 1 0 0
0.438463 -13.220443 4.666547 14.026726 -1.537643 1.231642 0.003918 -0.002573 -1530860.000000 1 0 0
-11.215237 -7.006543 -5.137753 14.186956 0.558408 1.941366 0.008648 -0.006405 -49217.200000 1 0 0
3.617963 10.355857 -3.402953 11.485361 1.234688 1.871598 0.008028 -0.002523 -682611.000000 1 0 0
11.597963 -8.351443 -7.414653 16.100821 -0.624075 2.049370 0.023953 -0.007564 14107.500000 1 0 0
11.612863 -4.606543 -5.873153 13.804809 -0.377638 2.010247 0.013423 -0.007026 -1334080.000000 1 0 0
1.219563 -10.269443 -2.704553 10.689406 -1.452593 1.826589 -0.001746 0.001777 -1139920.000000 1 0 0
2.318963 -11.969143 -3.998253 12.830589 -1.379422 1.887693 0.001423 -0.001166 -397883.000000 1 0 0
-7.637437 -5.711443 7.212847 11.957265 0.642106 0.923266 0.000682 0.000421 -3610770.000000 1 0 0
-7.255537 -0.876843 9.563547 12.036324 0.120268 0.652519 -0.004707 0.001032 437710.000000 1 0 0
16.205963 2.532557 -7.576353 18.067877 0.155019 2.003500 0.008665 0.003902 10030.400000 1 0 0
-2.026437 6.327757 -5.482153 8.613998 -1.260870 2.260649 -0.000224 -0.000991 76635.300000 1 0 0
7.681663 1.264157 8.457947 11.495342 0.163106 0.743991 0.003177 0.000760 -152637.000000 1 0 0
7.886263 8.296257 -3.751353 12.045483 0.810728 1.887496 0.004960 -0.000422 -60930.900000 1 0 0
8.084163 0.515257 4.023247 9.044650 0.063650 1.109822 0.002886 0.001369 -126838.000000 1 0 0
-6.852337 5.729457 5.476647 10.477350 -0.696388 1.020766 0.001859 -0.005326 -136556.000000 1 0 0
-6.114137 -1.957943 -4.597253 7.896262 0.309914 2.192236 0.003509 -0.003394 -1664880.000000 1 0 0
-15.003137 -2.100743 3.235447 15.491138 0.139116 1.360389 -0.000255 0.000718 -271818.000000 1 0 0
1.182163 1.323157 -10.558553 10.706601 0.841617 2.975101 0.005060 -0.005522 515278.000000 1 0 0
1.460763 -9.269843 9.381247 13.269198 -1.414499 0.785557 -0.000118 -0.004128 -1458020.000000 1 0 0
-0.236137 -6.791843 -1.261753 6.912085 1.536043 1.754369 0.003255 -0.001104 592233.000000 1 0 0
-0.455837 -10.244943 -8.528653 13.338088 1.526332 2.264541 0.005407 0.000723 -213248.000000 1 0 0
-4.398637 6.566557 3.901247 8.814046 -0.980590 1.112281 -0.005684 0.001335 24877.500000 1 0 0
10.798563 -1.222243 -8.566753 13.838067 -0.112706 2.238356 0.018255 -0.002715 422984.000000 1 0 0
3.088263 -1.099343 6.214647 7.026219 -0.341988 0.485389 -0.002144 0.002107 294036.000000 1 0 0
1.867263 -12.260943 6.740347 14.115583 -1.419664 1.072977 0.000911 -0.002346 1765.640000 1 0 0
2.962963 -4.892143 -1.335353 5.873277 -1.026227 1.800163 0.003970 -0.003980 -2033920.000000 1 0 0
-0.989837 9.458657 -1.654853 9.653212 -1.466527 1.743078 -0.004750 -0.002581 -190312.000000 1 0 0
4.535463 -2.636343 2.469347 5.798138 -0.526536 1.130855 0.001500 -0.001161 -1503210.000000 1 0 0
17.803763 6.524957 -2.678053 19.149961 0.351292 1.711103 0.009929 0.000580 -907455.000000 1 0 0
-7.106337 3.485457 -5.336353 9.545947 -0.455996 2.163997 -0.000057 -0.002345 -1168840.000000 1 0 0
-13.827437 -6.039043 2.157147 15.242091 0.411775 1.428794 -0.004498 0.000424 1131850.000000 1 0 0
6.655163 -6.113443 3.285147 9.615486 -0.742998 1.222123 0.000995 -0.004699 117343.000000 1 0 0
-4.596337 2.021657 3.522247 6.133485 -0.414373 0.959090 0.000256 -0.002176 777753.000000 1 0 0
6.926263 -12.186243 -5.352553 15.004248 -1.053961 1.935568 0.003303 -0.004346 285686.000000 1 0 0
2.845863 -12.343743 3.384047 13.111777 -1.344205 1.309749 0.002604 -0.003195 -868170.000000 1 0 0
3.333463 11.291157 -6.073953 13.247456 1.283723 2.047102 0.008367 0.000339 -603980.000000 1 0 0
-5.671937 -8.324943 6.395447 11.932196 0.972719 1.005125 0.003020 -0.002390 -916794.000000 1 0 0
-3.998637 6.515757 6.368547 9.950004 -1.020373 0.876227 -0.004397 0.002184 137437.000000 1 0 0
4.297863 4.173157 -6.966153 9.187717 0.770678 2.431349 0.001036 -0.000533 -999360.000000 1 0 0
-0.339637 -2.672243 1.565247 3.115483 1.444376 1.044414 0.003282 -0.002797 -1457750.000000 1 0 0
-13.209737 -0.922243 6.658747 14.821829 0.069702 1.104868 0.001782 0.000805 -556028.000000 1 0 0
-0.534237 -9.302843 -6.005053 11.085530 1.513432 2.143257 0.004037 0.001923 88319.400000 1 0 0
2.067663 -1.696443 -3.927053 4.751305 -0.687095 2.543695 0.003774 -0.002598 -1071520.000000 1 0 0
11.363963 -2.000543 1.126347 11.593553 -0.174257 1.473490 0.002810 -0.000770 802765.000000 1 0 0
0.613963 -4.296943 -2.013453 4.784837 -1.428873 2.005122 0.003182 -0.001198 -1848240.000000 1 0 0
1.104963 -7.384743 -11.267153 13.516809 -1.422270 2.556328 0.001016 0.001013 -515176.000000 1 0 0
-4.410537 4.143457 -9.896853 11.600378 -0.754185 2.592789 0.000973 -0.002999 -486931.000000 1 0 0
-1.098537 5.760157 -2.043653 6.209888 -1.382346 1.906143 -0.000833 -0.003356 -502745.000000 1 0 0
-11.298437 1.749857 -3.790753 12.045186 -0.153655 1.890949 0.001899 0.000800 -236030.000000 1 0 0
-1.873237 -11.346943 4.070447 12.199618 1.407185 1.230620 0.005026 -0.003925 -10121.000000 1 0 0
-3.573337 -5.374943 -9.722453 11.669827 0.984077 2.555535 0.006843 0.000836 -1916950.000000 1 0 0
-12.811637 -3.657143 -8.320853 15.708257 0.278060 2.129057 0.010151 -0.002534 -142025.000000 1 0 0
11.406763 4.449857 0.531547 12.255529 0.371949 1.527411 0.008794 -0.000095 669680.000000 1 0 0
-8.830337 -2.402743 -3.092553 9.659810 0.265669 1.896680 0.008409 -0.002417 -166124.000000 1 0 0
-2.457237 -6.154843 -6.379653 9.198918 1.190948 2.337163 0.006065 -0.000987 -239432.000000 1 0 0
0.022063 2.780657 -1.894653 3.364855 1.562862 2.168894 0.000454 -0.004551 -514285.000000 1 0 0
8.045763 6.000557 -5.187853 11.298442 0.640810 2.047852 0.003910 -0.002966 -80070.900000 1 0 0
-9.632637 -0.897943 -1.025753 9.728627 0.092950 1.676429 0.000340 -0.002531 -1559750.000000 1 0 0
6.239763 0.548657 -8.847653 10.840509 0.087704 2.525540 0.000648 -0.001699 141261.000000 1 0 0
-4.109237 2.354557 8.006947 9.302740 -0.520323 0.534137 -0.005463 0.004567 -768048.000000 1 0 0
-10.100837 -3.339643 1.320347 10.720236 0.319316 1.447319 -0.001431 -0.000842 4262350.000000 1 0 0
-1.805937 -8.125943 -7.971353 11.525400 1.352107 2.334545 0.005658 -0.001730 458997.000000 1 0 0
-9.448837 -9.832143 4.146347 14.252851 0.805276 1.275615 0.006299 -0.002315 -290875.000000 1 0 0
-1.259537 -10.752243 7.166847 12.983099 1.454186 0.986019 -0.001148 -0.003692 -119225.000000 1 0 0
9.489663 3.824057 -3.703153 10.880738 0.383065 1.918075 0.003388 -0.001657 -831560.000000 1 0 0
12.799063 -0.688343 3.088847 13.184491 -0.053729 1.334320 0.009081 -0.003189 -896263.000000 1 0 0
6.510163 11.976657 -6.870053 15.264998 1.072902 2.037621 0.008359 0.001846 127586.000000 1 0 0
-11.736637 0.016857 -6.452453 13.393397 -0.001436 2.073463 0.007355 -0.000123 812034.000000 1 0 0
-7.708937 -6.503943 -11.394853 15.217479 0.700819 2.417047 0.011092 -0.004995 -1342790.000000 1 0 0
4.152263 5.905957 6.678247 9.834663 0.958017 0.824326 -0.006708 0.007548 -3461290.000000 1 0 0
-4.289937 -1.326443 -7.422453 8.675012 0.299875 2.597530 0.007226 -0.007649 -1058630.000000 1 0 0
9.624163 9.206857 0.933347 13.351474 0.763241 1.500833 0.010562 -0.001203 -671391.000000 1 0 0
-8.915037 3.786757 4.919547 10.863671 -0.401668 1.100844 -0.000038 -0.004356 2250480.000000 1 0 0
-7.094737 7.970957 -12.091253 16.126681 -0.843493 2.418506 -0.005101 -0.002931 -964153.000000 1 0 0
11.065563 -3.656643 7.172447 13.684360 -0.319156 1.019098 0.006963 0.001452 806745.000000 1 0 0
11.839063 6.856157 6.343747 15.080232 0.524920 1.136617 0.008361 -0.003799 612742.000000 1 0 0
-9.876137 -0.627043 -14.980353 17.953893 0.063406 2.557802 -0.001001 0.003885 279567.000000 1 0 0
1.792163 -13.113543 11.941847 17.826513 -1.434973 0.836732 0.000563 -0.000985 -429248.000000 1 0 0
2.954663 2.997257 13.066247 13.727359 0.792554 0.311614 0.001002 0.000007 -668003.000000 1 0 0
-2.663137 -1.554243 11.020547 11.443794 0.528284 0.272819 0.000800 0.001426 -821616.000000 1 0 0
2.532963 -10.121043 -8.206153 13.273747 -1.325566 2.237278 -0.002462 0.003145 -780097.000000 1 0 0
13.933663 3.588557 -7.493953 16.222948 0.252068 2.050972 0.009963 0.001639 -2875450.000000 1 0 0
7.226563 -1.654343 5.092647 8.994171 -0.225047 0.968888 0.000677 0.000534 263581.000000 1 0 0
-1.218737 8.732757 10.232547 13.507456 -1.432133 0.711248 -0.003495 0.000800 -27863.000000 1 0 0
-12.223537 -4.677843 0.845647 13.115342 0.365497 1.506274 -0.001208 -0.000033 -203592.000000 1 0 0
-4.921437 4.851457 -5.234053 8.669054 -0.778238 2.219009 0.000548 -0.002229 -108455.000000 1 0 0
-11.192437 0.330557 1.907447 11.358621 -0.029525 1.402067 -0.005043 -0.001207 -2478110.000000 1 0 0
-1.409037 2.375557 -4.040153 4.894026 -1.035436 2.541933 0.004957 -0.007381 667718.000000 1 0 0
3.097863 -9.837943 13.191147 16.744797 -1.265736 0.663607 -0.001599 0.000018 -1443130.000000 1 0 0
8.874363 4.713857 -1.430753 10.149966 0.488277 1.712229 0.001730 -0.002245 -1054890.000000 1 0 0
4.020763 2.264457 3.766447 5.956544 0.512914 0.886251 -0.007253 0.005197 -277382.000000 1 0 0
-5.555837 -3.404643 7.324947 9.803763 0.549782 0.727023 -0.002525 -0.001152 -230840.000000 1 0 0
1.759563 -5.880343 7.764047 9.897218 -1.280048 0.668959 -0.000959 -0.002182 -441849.000000 1 0 0
-5.861137 -6.164243 -9.788153 12.967605 0.810598 2.426170 0.011404 -0.002293 -1528270.000000 1 0 0
-11.696737 -5.803543 5.551147 14.188376 0.460577 1.168811 0.002878 0.001374 -1826940.000000 1 0 0
10.523063 6.158557 4.412847 12.966722 0.529499 1.223538 0.007644 -0.000944 -501050.000000 1 0 0
1.448263 -3.662843 0.345347 3.953878 -1.194268 1.483341 0.007372 -0.003757 -636614.000000 1 0 0
8.726063 4.400057 6.862847 11.941664 0.467036 0.958562 0.002360 0.002681 -276545.000000 1 0 0
-7.766837 12.064957 3.583747 14.789529 -0.998826 1.326044 -0.008051 -0.001702 -128610.000000 1 0 0
-6.133837 13.262257 -6.926553 16.170608 -1.137593 2.013454 -0.000120 -0.001616 106575.000000 1 0 0
4.432963 -6.947743 -1.012253 8.303430 -1.002872 1.693008 0.002913 -0.004611 -518483.000000 1 0 0
-1.969337 -8.165143 11.007847 13.846319 1.334128 0.651786 -0.002822 -0.006002 -882437.000000 1 0 0
11.646363 8.751157 -5.800853 15.680255 0.644401 1.949748 0.011043 -0.002701 124716.000000 1 0 0
-3.346237 -2.917943 -1.884453 4.823159 0.717132 1.972198 0.005987 -0.002534 -2692600.000000 1 0 0
-2.055737 5.869457 4.753847 7.827876 -1.233905 0.918142 -0.006151 0.002690 -580495.000000 1 0 0
0.341363 -11.511443 -5.777753 12.884576 -1.541151 2.035798 0.000376 -0.004019 -259640.000000 1 0 0
-8.808237 6.261157 -1.351853 10.891035 -0.617957 1.695243 0.001016 -0.001151 -967148.000000 1 0 0
2.914263 -0.072143 3.837347 4.819062 -0.024750 0.649668 -0.003792 0.002806 -454782.000000 1 0 0
-9.970237 3.988857 -0.880853 10.774624 -0.380572 1.652640 0.003500 -0.001349 -271558.000000 1 0 0
6.503163 5.501957 13.675447 16.111502 0.702192 0.557084 -0.000416 0.006373 -664521.000000 1 0 0
-8.735837 -1.602643 5.628947 10.515149 0.181439 1.005912 -0.003978 -0.000051 106040.000000 1 0 0
12.887163 -1.915443 -1.417453 13.105612 -0.147552 1.679165 0.007152 -0.000682 -2041480.000000 1 0 0
5.111763 -5.706743 5.434447 9.393096 -0.840339 0.953837 0.001298 -0.004443 156220.000000 1 0 0
-8.996137 -1.323043 3.112947 9.611003 0.146021 1.240954 -0.002988 -0.000891 505140.000000 1 0 0
1.892763 5.455257 5.677247 8.097747 1.236831 0.793872 -0.005144 0.004615 -1160210.000000 1 0 0
9.305563 3.130657 -7.410753 12.300966 0.324534 2.217367 0.002222 -0.002954 -1103530.000000 1 0 0
2.351963 -2.345143 -1.558053 3.668645 -0.783946 2.009421 0.002941 -0.001978 -12767.200000 1 0 0
-6.199937 0.416357 -3.865653 7.318186 -0.067054 2.127306 -0.000037 -0.001575 -1407350.000000 1 0 0
-4.075637 4.155557 5.013847 7.682326 -0.795107 0.859724 -0.002515 0.000691 -358344.000000 1 0 0
-6.429237 1.824657 -12.431453 14.114018 -0.276535 2.648320 0.000581 -0.002559 -4221180.000000 1 0 0
-0.240837 2.996657 6.294847 6.975891 -1.490600 0.445555 -0.002835 0.002480 1454910.000000 1 0 0
-8.599137 9.607557 -2.014753 13.050270 -0.840729 1.725800 -0.003082 0.003091 622528.000000 1 0 0
-1.368537 -3.741143 -6.167253 7.341939 1.220109 2.568086 0.001650 -0.002176 259070.000000 1 0 0
-3.368937 6.986757 -2.842853 8.261133 -1.121499 1.922102 -0.003277 0.001093 876886.000000 1 0 0
7.055063 -0.414743 -4.308953 8.277258 -0.058719 2.118323 0.000591 -0.000844 -145915.000000 1 0 0
-5.107137 -10.840243 6.833147 13.794405 1.130512 1.052551 -0.002264 -0.004469 845730.000000 1 0 0
9.639063 8.324057 -1.501353 12.824021 0.712323 1.688139 0.006571 -0.002813 -141374.000000 1 0 0
13.695063 4.472357 -4.331653 15.043933 0.315649 1.862865 0.005890 -0.004171 526045.000000 1 0 0
4.650663 1.146357 -6.959653 8.448643 0.241675 2.538808 -0.000741 -0.001452 1765200.000000 1 0 0
8.977163 -4.833543 3.583447 10.807112 -0.493914 1.232816 0.000015 -0.003910 -1307410.000000 1 0 0
-8.689137 -3.325143 -0.788353 9.336980 0.365485 1.655330 0.004188 -0.001675 -158768.000000 1 0 0
-8.642637 -4.218643 -10.451953 14.203361 0.454098 2.397760 0.004227 -0.003244 -177079.000000 1 0 0
10.526463 -1.097643 10.892147 15.187169 -0.103899 0.771029 0.004615 0.002258 1171410.000000 1 0 0
2.206063 -11.607943 9.816347 15.361371 -1.382988 0.877562 -0.000696 -0.005623 725592.000000 1 0 0
-6.426437 -10.597543 1.942947 12.545201 1.025678 1.415295 0.008403 -0.001486 -802167.000000 1 0 0
-3.705237 -1.523043 6.642947 7.757396 0.389997 0.542662 0.001396 -0.000557 -2540110.000000 1 0 0
4.725863 -7.631543 3.858147 9.770339 -1.016340 1.164855 -0.001107 -0.002751 109282.000000 1 0 0
11.456363 -9.510643 -5.290653 15.801633 -0.692864 1.912207 0.013920 -0.004959 306859.000000 1 0 0
11.204963 1.312057 11.588547 16.173036 0.116565 0.771974 0.006938 0.004672 246110.000000 1 0 0
-10.277437 -3.491743 4.336147 11.688463 0.327513 1.190736 0.002018 0.000412 668263.000000 1 0 0
2.088363 8.671357 8.990447 12.664194 1.334462 0.781425 -0.009844 0.007848 -425702.000000 1 0 0
6.555663 8.770757 4.121347 11.699931 0.928932 1.210818 0.001745 0.005181 22553.600000 1 0 0
-4.161037 3.442257 0.565947 5.429886 -0.691143 1.466379 0.001031 -0.002786 -564316.000000 1 0 0
4.830763 6.982357 4.325547 9.528899 0.965559 1.099614 -0.002183 0.005336 -1108260.000000 1 0 0
-8.195837 13.098657 1.171547 15.495776 -1.011693 1.495120 -0.008308 -0.002663 166207.000000 1 0 0
8.930963 8.310557 -9.138353 15.242603 0.749430 2.213706 0.003969 -0.007671 -926476.000000 1 0 0
7.137663 1.938457 6.114647 9.596497 0.265185 0.879969 -0.001240 0.004128 -1242420.000000 1 0 0
11.532563 -6.271943 3.091047 13.486728 -0.498107 1.339549 0.003860 -0.002723 -307528.000000 1 0 0
11.421363 4.785657 -2.023853 12.547749 0.396786 1.732796 0.005283 -0.002080 815498.000000 1 0 0
-3.901937 14.331857 -6.012053 16.024107 -1.304983 1.955396 -0.003843 0.002393 -2642920.000000 1 0 0
7.267563 -3.071043 7.035747 10.571211 -0.399809 0.842556 0.003969 -0.001978 -1177600.000000 1 0 0
-7.930737 -0.489543 0.964347 8.004137 0.061649 1.450022 0.001910 -0.002475 81463.100000 1 0 0
-3.307737 0.990557 10.731747 11.273541 -0.290967 0.311284 -0.004467 0.004682 -322336.000000 1 0 0
7.107263 -1.277343 -1.867353 7.458673 -0.177825 1.823848 0.002072 -0.000453 -1427140.000000 1 0 0
-7.738737 5.489957 3.062347 9.970238 -0.617015 1.258601 0.000039 -0.002452 810878.000000 1 0 0
9.428463 -2.192343 2.841747 10.088498 -0.228464 1.285250 0.002922 -0.003358 -2010550.000000 1 0 0
0.309463 3.450457 1.568247 3.802738 1.481348 1.145710 -0.004628 0.001133 -4952780.000000 1 0 0
-7.601937 -3.169743 3.942947 9.131460 0.395045 1.124311 -0.002088 -0.001077 542644.000000 1 0 0
-2.231237 8.403657 -6.692153 10.972000 -1.311276 2.226769 -0.001366 -0.001204 -581845.000000 1 0 0
4.409963 9.818357 7.440847 13.084880 1.148645 0.965921 -0.006903 0.009755 806003.000000 1 0 0
-11.729237 -3.169743 6.873847 13.959658 0.263938 1.055942 0.000088 0.000216 -1023710.000000 1 0 0
-4.722537 2.343357 -5.581753 7.677868 -0.460609 2.384728 0.002144 -0.004709 156681.000000 1 0 0
-2.713337 2.926557 -1.744453 4.355462 -0.823186 1.982882 0.001783 -0.005001 1938730.000000 1 0 0
2.428263 5.211357 11.454247 12.816180 1.134753 0.465197 -0.000096 -0.001950 433368.000000 1 0 0
-0.689737 1.534057 4.557747 4.858202 -1.148261 0.353534 0.000592 -0.000128 -709144.000000 1 0 0
5.083163 1.531857 7.627047 9.292845 0.292703 0.608084 -0.005612 0.004337 51918.500000 1 0 0
3.431563 -8.201143 1.673147 9.046203 -1.174508 1.384770 0.000392 -0.002456 915428.000000 1 0 0
5.051063 6.462457 -4.628353 9.417974 0.907375 2.084537 0.004087 -0.001531 -3012960.000000 1 0 0
-4.194537 2.803157 -7.883253 9.359354 -0.589124 2.572307 0.003151 -0.005439 -1442960.000000 1 0 0
-8.766637 -2.018443 -12.912753 15.737447 0.226298 2.533101 0.002689 -0.001067 948213.000000 1 0 0
-7.780237 8.189957 1.132747 11.353000 -0.811048 1.470855 -0.003410 -0.002734 -1133090.000000 1 0 0
7.426963 0.915757 -6.518953 9.924472 0.122682 2.287438 -0.000536 -0.001178 1242350.000000 1 0 0
8.978863 8.728457 5.494647 13.674687 0.771258 1.157302 0.008310 0.003095 371034.000000 1 0 0
9.466163 -1.017043 -1.393553 9.622089 -0.107029 1.716136 0.004389 -0.000090 707301.000000 1 0 0
5.446463 0.160257 4.278547 6.927886 0.029415 0.905130 -0.003804 0.004047 -770205.000000 1 0 0
-4.234337 -7.246443 -7.998853 11.594059 1.041976 2.332161 0.015652 -0.003782 -615849.000000 1 0 0
-2.198537 7.388057 -0.564753 7.728900 -1.281561 1.643932 -0.004178 -0.001320 45579.100000 1 0 0
13.416263 -3.472043 -7.553153 15.782944 -0.253238 2.069815 0.017235 -0.003127 778859.000000 1 0 0
-4.782637 -5.130443 1.547847 7.182681 0.820469 1.353595 0.005596 -0.002552 1287760.000000 1 0 0
-8.979837 1.254757 2.649947 9.446381 -0.138832 1.286455 -0.001796 -0.002331 -1080130.000000 1 0 0
-0.940937 11.173557 10.286247 15.216458 -1.486783 0.828482 -0.004314 0.002327 548283.000000 1 0 0
-8.568837 0.260657 7.527747 11.408764 -0.030410 0.850215 -0.005983 0.000124 -1318630.000000 1 0 0
-6.120437 12.909057 -1.981753 14.423274 -1.128067 1.708632 -0.010484 0.003104 179744.000000 1 0 0
-12.812437 -0.779443 3.377447 13.273026 0.060760 1.313508 0.002268 -0.002419 426041.000000 1 0 0
-6.808537 12.873757 8.778447 17.004438 -1.084321 1.028336 0.008517 -0.005095 2468810.000000 1 0 0
-7.999437 0.967857 -14.132553 16.268276 -0.120405 2.623406 -0.005968 -0.001744 -240513.000000 1 0 0
7.172863 2.795557 3.754747 8.565233 0.371631 1.117011 -0.000034 0.002864 -1022680.000000 1 0 0
-1.542637 0.686957 -2.060353 2.663962 -0.418949 2.455010 0.002200 -0.005511 57480.600000 1 0 0
-6.257137 9.697357 -10.390753 15.529271 -0.997774 2.303804 -0.004667 0.001606 -125924.000000 1 0 0
-10.120137 13.695157 5.246147 17.818433 -0.934400 1.271945 -0.007002 -0.001585 820397.000000 1 0 0
-5.635137 8.304257 2.498747 10.342107 -0.974588 1.326773 -0.007429 0.000386 124566.000000 1 0 0
-2.497437 -10.840743 -1.317353 11.202425 1.344372 1.688664 0.007378 -0.002536 388559.000000 1 0 0
-2.301137 -12.382143 8.823547 15.377506 1.387049 0.959663 -0.006094 -0.004545 466087.000000 1 0 0
-14.775937 -6.411743 -1.669053 16.193348 0.409411 1.674050 0.002228 -0.002632 778008.000000 1 0 0
-2.757637 -9.473943 3.238047 10.384850 1.287547 1.253704 0.003451 -0.002028 -1016730.000000 1 0 0
4.683763 -2.811843 7.418047 9.212574 -0.540668 0.634769 0.001571 0.000933 -372850.000000 1 0 0
-15.037837 -1.160943 -0.299253 15.085553 0.077049 1.590635 0.002511 -0.004590 36396.700000 1 0 0
5.391563 8.835857 -2.858353 10.738319 1.022917 1.840227 0.004970 0.000802 -725396.000000 1 0 0
-5.641637 -5.788443 8.452247 11.695068 0.798241 0.763068 0.001606 -0.003412 -3622850.000000 1 0 0
3.367363 3.494857 7.048447 8.557672 0.803975 0.602995 -0.004503 0.004256 963646.000000 1 0 0
3.252263 2.238257 9.356747 10.155575 0.602773 0.399281 0.002467 -0.000693 865472.000000 1 0 0
9.954963 -3.109243 5.104747 11.611508 -0.302731 1.115612 0.004194 -0.001902 -304793.000000 1 0 0
6.445263 10.085057 -5.072153 12.999097 1.002129 1.971637 0.008818 -0.002476 448532.000000 1 0 0
-4.513037 11.998057 -8.579153 15.424744 -1.211020 2.160596 -0.001505 0.002368 -972386.000000 1 0 0
-3.259437 -7.300343 1.978947 8.236211 1.150876 1.328148 0.007379 -0.001509 691402.000000 1 0 0
-7.368337 -4.054343 1.151747 8.488617 0.503026 1.434695 0.005861 -0.001956 2990270.000000 1 0 0
-1.958937 -3.977843 -11.023153 11.881523 1.113197 2.759150 0.008288 -0.003054 -1369080.000000 1 0 0
-5.177337 8.258757 -4.413453 10.700021 -1.010839 1.995962 -0.002562 -0.001346 -2064210.000000 1 0 0
-10.919337 -3.081843 -10.187653 15.248540 0.275082 2.302458 0.009983 -0.002113 783927.000000 1 0 0
4.711463 -11.361743 -7.718653 14.521181 -1.177701 2.131219 -0.000462 -0.003750 -230349.000000 1 0 0
-9.283437 -3.949443 7.203847 12.396601 0.402234 0.950699 -0.002866 0.001287 -1210450.000000 1 0 0
-5.718237 -9.746343 -5.260553 12.464464 1.040209 2.006495 0.014823 -0.007360 1640760.000000 1 0 0
4.966163 4.285057 -9.442053 11.496819 0.711907 2.534439 -0.000823 0.002901 23925.800000 1 0 0
-3.398237 -7.207943 -14.091953 16.189058 1.130242 2.626936 -0.000404 0.001721 117817.000000 1 0 0
0.591963 -0.859843 -8.829653 8.891149 -0.967861 3.023911 0.004492 -0.007392 -401892.000000 1 0 0
-7.769937 2.193457 -2.806553 8.547510 -0.275141 1.905350 0.001856 -0.001694 -143561.000000 1 0 0
-2.379437 7.533657 -12.590053 14.863618 -1.264871 2.581185 0.007585 -0.003656 58129.500000 1 0 0
-9.737837 8.793757 7.639247 15.182678 -0.734498 1.043550 -0.000579 -0.006467 -372334.000000 1 0 0
-10.675037 -3.008543 -14.449253 18.215067 0.274705 2.486938 0.008272 0.005361 -300987.000000 1 0 0
-3.460037 4.763057 8.005447 9.937089 -0.942550 0.634087 -0.004265 0.001526 -21439.300000 1 0 0
8.766763 -2.259543 -3.578153 9.734724 -0.252250 1.947187 0.002308 0.000329 -4987470.000000 1 0 0
1.846763 -8.395143 -1.162053 8.674061 -1.354265 1.705169 0.001501 -0.000412 -538350.000000 1 0 0
-13.405837 -2.887043 5.092047 14.628070 0.212118 1.215252 0.006702 -0.000148 306142.000000 1 0 0
7.022163 2.779457 -1.972253 7.805506 0.376891 1.826240 0.001710 -0.000723 1453830.000000 1 0 0
-11.145937 4.487757 8.927047 14.968769 -0.382777 0.931815 0.002166 -0.007040 -1532740.000000 1 0 0
-1.777737 -2.632343 7.947647 8.558894 0.976810 0.380219 -0.000216 -0.000022 -1160140.000000 1 0 0
3.226763 11.980857 -9.837553 15.834468 1.307712 2.241165 0.009023 -0.005445 751938.000000 1 0 0
3.524963 -5.021043 -7.082053 9.369723 -0.958704 2.427739 0.000280 -0.003891 -180655.000000 1 0 0
8.393663 -13.743943 -9.733653 18.817374 -1.022534 2.114454 0.012476 -0.002884 -964.242000 1 0 0
-6.242937 -5.757143 -0.514953 8.507887 0.744938 1.631360 0.010283 -0.002209 -452308.000000 1 0 0
-1.197537 -4.128543 9.812047 10.712387 1.288481 0.412919 -0.000665 0.000045 1975180.000000 1 0 0
2.777763 3.224857 1.893647 4.658494 0.859744 1.152184 -0.007197 0.002567 -1066230.000000 1 0 0
-9.218737 13.387257 7.745747 18.005564 -0.967749 1.126097 -0.002451 -0.010443 73543.100000 1 0 0
4.040363 -11.032843 -0.047153 11.749484 -1.219752 1.574810 -0.001713 -0.003001 -174392.000000 1 0 0
-12.419337 -1.267543 -9.038153 15.412165 0.101710 2.197440 0.010167 -0.003320 290241.000000 1 0 0
-4.235637 0.947757 -13.551153 14.229287 -0.220132 2.831621 0.006708 -0.003433 385003.000000 1 0 0
3.962663 -3.114543 4.862747 7.003526 -0.666129 0.803310 -0.000253 0.001842 -331677.000000 1 0 0
1.743463 -1.226343 1.037147 2.370496 -0.613001 1.117954 0.000861 -0.000488 183506.000000 1 0 0
8.234363 -9.017543 7.429347 14.293915 -0.830764 1.024231 -0.001406 0.000142 -1704090.000000 1 0 0
-0.097837 2.325257 -6.272853 6.690671 -1.528745 2.786321 0.006238 -0.006925 -2248140.000000 1 0 0
-3.834837 -9.790843 -3.458353 11.069182 1.197486 1.888547 0.013327 -0.002852 736261.000000 1 0 0
-9.394237 2.259657 -5.400053 11.068799 -0.236052 2.080436 0.000481 0.000984 -640260.000000 1 0 0
8.974463 -7.611143 5.327847 12.917292 -0.703384 1.145645 -0.001697 -0.001600 1495620.000000 1 0 0
-5.435937 -4.347843 4.547147 8.314427 0.674639 0.992141 0.000111 -0.001903 -823060.000000 1 0 0
-0.139237 -12.543643 10.444547 16.323325 1.559697 0.876488 -0.001438 -0.002933 -2189090.000000 1 0 0
-14.130837 -8.339043 2.956547 16.672174 0.533131 1.392519 -0.006610 -0.003612 -966082.000000 1 0 0
11.030963 -1.450943 -3.586753 11.689832 -0.130783 1.882654 0.012250 0.001058 -124520.000000 1 0 0
-13.637037 2.978057 2.712947 14.219623 -0.215005 1.378831 -0.001038 0.000102 -931484.000000 1 0 0
-6.271837 6.156857 1.009447 8.846571 -0.776147 1.456441 -0.002778 -0.001109 1493180.000000 1 0 0
7.101863 -6.913743 -0.465253 9.922336 -0.771977 1.617703 -0.000172 -0.004536 78101.400000 1 0 0
-6.811937 7.822657 10.145847 14.509812 -0.854352 0.796462 0.000665 -0.001868 65642.600000 1 0 0
-12.646637 -5.080843 -1.927053 13.764663 0.382018 1.711258 0.000134 -0.002416 -1448530.000000 1 0 0
-9.365737 -5.640643 0.189247 10.934794 0.542082 1.553489 0.005476 -0.002157 -1168660.000000 1 0 0
-1.709637 1.816257 2.140247 3.286686 -0.815628 0.861649 0.001160 -0.000859 91554.900000 1 0 0
-7.106237 7.235957 7.592447 12.668975 -0.794443 0.928177 -0.001126 -0.001623 -416137.000000 1 0 0
5.607263 7.221157 -0.482353 9.155281 0.910547 1.623507 0.003360 0.000455 -1770090.000000 1 0 0
0.027263 -4.000943 7.400847 8.413134 -1.563982 0.495612 0.000546 0.000192 -46861.700000 1 0 0
6.444563 0.680257 13.116347 14.629890 0.105166 0.458891 0.007117 -0.000606 677805.000000 1 0 0
5.764563 6.145857 -7.792353 11.477043 0.817401 2.317130 -0.002077 -0.001602 -207326.000000 1 0 0
9.915663 5.318757 9.079347 14.458357 0.492341 0.891860 0.002453 0.000631 -1565360.000000 1 0 0
-1.282937 -4.965543 -8.548753 9.969139 1.317958 2.601229 0.008206 -0.002267 755798.000000 1 0 0
9.953263 -3.636543 -7.979653 13.265246 -0.350294 2.216231 0.014299 -0.006385 312960.000000 1 0 0
8.452363 -5.489043 1.300547 10.161863 -0.575960 1.442461 0.002744 -0.003843 1333550.000000 1 0 0
15.709363 3.003857 -5.066653 16.777312 0.188934 1.877580 0.011511 0.002628 -916030.000000 1 0 0
-6.808137 3.716557 1.309747 7.866318 -0.499689 1.403517 -0.000559 -0.002475 1063250.000000 1 0 0
-1.656637 3.842757 0.339647 4.198403 -1.163765 1.489809 0.000690 -0.004163 -1934810.000000 1 0 0
-2.617237 10.143257 6.976647 12.586071 -1.318277 0.983257 -0.006314 0.006576 904254.000000 1 0 0
5.503163 -5.764843 -8.757753 11.841303 -0.808617 2.403263 0.001005 -0.003536 -633389.000000 1 0 0
-1.199337 -1.058443 6.204047 6.406942 0.723075 0.252336 0.000569 0.002282 335997.000000 1 0 0
-5.708537 4.981157 -7.746153 10.835230 -0.717458 2.367284 -0.001627 -0.002764 -280862.000000 1 0 0
6.814963 -1.328943 2.629847 7.424682 -0.192587 1.208734 -0.001388 0.002184 -1262490.000000 1 0 0
8.643763 7.485757 3.169747 11.865853 0.713727 1.300381 0.007394 0.001388 -334410.000000 1 0 0
-5.220837 -4.862243 -7.683653 10.485089 0.749849 2.393249 0.011828 -0.004343 -197398.000000 1 0 0
-2.182237 7.865157 -10.051153 12.947916 -1.300148 2.459533 0.003839 -0.001611 438473.000000 1 0 0
-2.899437 -2.288243 1.572847 4.014554 0.668122 1.168224 0.000264 -0.000204 -2065340.000000 1 0 0
6.081363 -2.084443 -9.157753 11.188937 -0.330210 2.529531 0.000567 -0.000917 704544.000000 1 0 0
1.095063 -7.644643 5.196247 9.308099 -1.428518 0.978521 -0.000025 -0.001845 479294.000000 1 0 0
1.690663 11.896557 1.192247 12.075092 1.429628 1.471899 0.002118 -0.001278 -46730.100000 1 0 0
-1.090437 7.078857 2.502547 7.586963 -1.417956 1.234653 -0.006602 0.003574 142629.000000 1 0 0
8.841363 7.805957 -6.669953 13.549573 0.723282 2.085484 0.004963 -0.005152 -430738.000000 1 0 0
3.704863 -11.054843 5.477547 12.881735 -1.247425 1.131593 0.001385 0.002054 824197.000000 1 0 0
7.985663 -6.942443 12.311847 16.234220 -0.715629 0.709959 0.001683 -0.004023 71174.000000 1 0 0
-8.701837 0.051457 -3.916353 9.542664 -0.005913 1.993694 0.003717 -0.001779 -1848010.000000 1 0 0
-3.267037 -5.156843 11.152347 12.713827 1.006083 0.500834 0.001618 -0.003814 -250656.000000 1 0 0
-8.197237 0.269157 -11.619253 14.222313 -0.032823 2.526940 -0.002343 -0.003069 -1693870.000000 1 0 0
1.362263 -5.030343 5.306747 7.437854 -1.306331 0.776347 0.000204 -0.001840 -629385.000000 1 0 0
6.740963 3.773057 -7.528353 10.786688 0.510276 2.343299 -0.000477 -0.001970 -250259.000000 1 0 0
16.315763 4.121557 -1.191453 16.870415 0.247435 1.641479 0.006398 0.001773 93653.800000 1 0 0
7.894663 7.418357 0.184847 10.834753 0.754304 1.553735 0.004112 -0.000772 -2744420.000000 1 0 0
5.451463 -10.316143 13.849547 18.109423 -1.084656 0.700112 -0.001619 -0.003827 -881934.000000 1 0 0
-5.208537 -9.317243 8.893447 13.893642 1.061053 0.876156 -0.001742 -0.006028 463328.000000 1 0 0
-12.582937 -3.227243 2.764247 13.281057 0.251066 1.361129 -0.001149 0.000757 -575452.000000 1 0 0
-2.096737 -1.257143 -5.841053 6.332031 0.540104 2.745204 0.005382 -0.006556 -463934.000000 1 0 0
-2.482037 13.018257 -4.359953 13.951513 -1.382399 1.888628 -0.005650 0.005167 212563.000000 1 0 0
3.959963 -0.384143 -4.990853 6.382592 -0.096704 2.468581 0.002804 -0.002230 -387774.000000 1 0 0
-8.835837 3.846457 -7.360353 12.126090 -0.410583 2.223057 -0.001973 -0.000299 301374.000000 1 0 0
-4.578737 8.058057 -11.191653 14.531009 -1.054073 2.449937 -0.001057 -0.001918 -1709720.000000 1 0 0
-10.082637 -6.540843 7.381647 14.104287 0.575477 1.020005 -0.001895 0.002266 -1373100.000000 1 0 0
7.971263 5.270657 4.164747 10.424297 0.584213 1.159800 0.002710 0.001968 -868622.000000 1 0 0
-6.670837 -7.572643 3.910247 10.822894 0.848627 1.201141 0.006739 -0.000800 -612796.000000 1 0 0
-4.302337 11.812057 8.063747 14.935153 -1.221499 1.000458 0.002376 0.000925 370586.000000 1 0 0
-7.171837 9.988057 -7.848353 14.587432 -0.948064 2.138885 -0.004710 -0.002329 -433697.000000 1 0 0
13.112863 5.403057 4.610247 14.912899 0.390845 1.256503 0.009868 -0.003525 -365751.000000 1 0 0
5.377363 4.003457 -3.846253 7.728995 0.639973 2.091672 0.000476 -0.000632 410924.000000 1 0 0
-2.807137 -4.346743 5.088547 7.257238 0.997378 0.793761 0.001755 -0.000439 -876338.000000 1 0 0
12.512963 -2.271143 -5.487453 13.850793 -0.179549 1.978153 0.009533 -0.007049 -2093340.000000 1 0 0
-5.187437 9.656357 7.056747 13.036579 -1.077830 0.998810 -0.007131 0.002636 -98044.100000 1 0 0
1.875763 3.809657 -0.385353 4.263856 1.113271 1.661297 -0.006184 -0.001497 339022.000000 1 0 0
-0.124837 9.524057 7.689247 12.241232 -1.557689 0.891632 -0.007055 0.007270 -1276940.000000 1 0 0
-5.532937 2.108257 5.921747 8.374081 -0.364053 0.785334 -0.002022 0.000495 712200.000000 1 0 0
8.836663 0.883857 10.754047 13.946947 0.099690 0.690279 0.003335 0.002313 -3257960.000000 1 0 0
0.370363 -2.964443 -10.210453 10.638536 -1.446505 2.856947 0.003911 -0.002938 -2648980.000000 1 0 0
1.238963 10.640557 -2.750053 11.059804 1.454881 1.822086 0.001567 -0.000138 103699.000000 1 0 0
2.256363 -4.338443 11.680547 12.662876 -1.091210 0.396484 0.002425 -0.000812 347422.000000 1 0 0
6.528263 -3.013443 9.394247 11.830086 -0.432458 0.653274 0.002829 -0.001225 721105.000000 1 0 0
-10.664537 -8.233343 5.614647 14.596046 0.657452 1.175947 0.003149 0.001506 -746786.000000 1 0 0
-2.969637 0.913157 -6.917053 7.582759 -0.298321 2.719437 0.008886 -0.007101 453848.000000 1 0 0
11.090763 2.701657 -5.130153 12.514889 0.238942 1.993167 0.003477 -0.001615 -2707440.000000 1 0 0
-1.900137 -3.988643 -0.102853 4.419319 1.126217 1.594072 0.003376 -0.001586 874041.000000 1 0 0
-1.350337 -6.440643 -10.643753 12.513784 1.364131 2.587850 0.005477 0.001480 316366.000000 1 0 0
0.386863 6.831757 -6.501653 9.438965 1.514230 2.330643 0.004367 -0.001787 -2427040.000000 1 0 0
1.977163 3.820757 -6.203153 7.548938 1.093263 2.535228 0.002924 -0.003335 -2487060.000000 1 0 0
1.540563 -14.709443 6.539147 16.171008 -1.466444 1.154501 0.006477 -0.004240 35994.100000 1 0 0
-1.638537 5.400257 -10.483653 11.906073 -1.276206 2.647775 0.007561 -0.003065 -150347.000000 1 0 0
13.727963 4.260257 -0.740653 14.392891 0.300911 1.622279 0.008076 -0.003464 -409633.000000 1 0 0
-2.393837 3.424357 -6.198953 7.475540 -0.960700 2.548528 0.005315 -0.006277 -816978.000000 1 0 0
5.759663 7.866657 14.234647 17.253497 0.938810 0.600542 -0.005568 0.003132 586074.000000 1 0 0
15.980863 0.466257 -5.733353 16.984602 0.029168 1.915122 0.010639 0.003603 299101.000000 1 0 0
6.156463 -8.241643 10.630047 14.792722 -0.929221 0.769010 -0.007329 0.003143 1635090.000000 1 0 0
0.042863 -5.809243 -6.443053 8.675372 -1.563418 2.407865 0.001696 -0.000268 -1593790.000000 1 0 0
8.714763 5.553357 -7.580853 12.816247 0.567350 2.203718 0.002019 -0.002216 -448859.000000 1 0 0
-16.001737 -0.853143 5.456147 16.927876 0.053265 1.242620 0.007924 -0.006980 -231894.000000 1 0 0
-0.318437 4.092857 -12.312253 12.978615 -1.493150 2.819759 0.006157 -0.003176 890859.000000 1 0 0
-11.299137 3.594957 5.916647 13.251450 -0.308035 1.107957 0.001235 -0.004901 -1142080.000000 1 0 0
5.214063 -9.637943 -9.630753 14.588619 -1.074894 2.291822 0.000195 -0.000108 474198.000000 1 0 0
1.569763 11.192057 -11.712653 16.276134 1.431448 2.374053 0.009388 -0.000614 -2715620.000000 1 0 0
5.921563 2.330257 1.209647 6.477518 0.374908 1.382948 0.000157 0.001443 -397175.000000 1 0 0
5.719063 4.528957 5.031247 8.861860 0.669786 0.967037 -0.005808 0.005400 -686875.000000 1 0 0
0.402463 -1.505343 -6.417253 6.603724 -1.309550 2.903386 0.002893 -0.004722 1085960.000000 1 0 0
12.687563 6.792757 -4.603253 15.109789 0.491555 1.880371 0.004318 -0.003488 -90632.200000 1 0 0
7.500363 3.211657 12.786147 15.167588 0.404578 0.567976 0.002623 0.002462 -398529.000000 1 0 0
-2.422437 -0.303343 8.600847 8.940625 0.124574 0.276576 -0.003845 0.003346 766514.000000 1 0 0
2.295163 -15.285343 13.344847 20.420441 -1.421755 0.858591 -0.003058 0.002750 -259991.000000 1 0 0
18.914563 4.450857 -1.652653 19.501335 0.231109 1.655644 0.007558 0.004060 113210.000000 1 0 0
-0.441837 -13.201643 7.197947 15.042907 1.537340 1.071857 -0.002254 -0.003534 -2268740.000000 1 0 0
4.396163 1.620057 -0.583553 4.721373 0.353074 1.694711 -0.000048 -0.001087 851046.000000 1 0 0
2.702863 -0.392943 -7.450953 7.935778 -0.144369 2.790235 0.001896 -0.002536 119666.000000 1 0 0
7.201263 -11.275843 0.791647 13.402594 -1.002445 1.511695 -0.002982 -0.002887 242195.000000 1 0 0
-11.791037 -7.328343 1.249947 13.938994 0.556092 1.481003 0.001487 0.000273 -12362.800000 1 0 0
0.097463 -7.118643 9.971747 12.252360 -1.557106 0.620026 -0.002028 -0.003262 -2921770.000000 1 0 0
-4.673637 -7.279143 10.516147 13.616834 1.000024 0.688358 0.000849 -0.002328 -1453670.000000 1 0 0
11.843563 0.685357 -1.762053 11.993520 0.057803 1.718247 0.006024 -0.001327 538520.000000 1 0 0
6.541363 -9.667743 -7.348953 13.793542 -0.975936 2.132681 -0.002799 -0.004596 -82434.200000 1 0 0
-10.895437 4.756057 3.632247 12.430762 -0.411586 1.274272 -0.000876 -0.002079 302199.000000 1 0 0
5.974263 -9.051543 1.932147 11.016145 -0.987405 1.394492 -0.000897 -0.003335 1500660.000000 1 0 0
11.582763 -1.289143 5.871747 13.049892 -0.110842 1.104091 0.008219 -0.002911 -416616.000000 1 0 0
-6.457337 3.578957 4.175147 8.481626 -0.506098 1.056115 -0.003207 -0.002241 -1006010.000000 1 0 0
9.430363 6.306757 -3.168753 11.779130 0.589458 1.843166 0.003903 -0.002584 -384942.000000 1 0 0
-2.269837 6.513157 11.011647 12.993450 -1.235458 0.559583 -0.007247 -0.001353 286393.000000 1 0 0
1.835463 9.833257 2.949147 10.428774 1.386261 1.284095 -0.006890 0.004117 -164456.000000 1 0 0
2.904463 6.064257 -5.579353 8.737293 1.124132 2.263432 0.001225 -0.001173 -2194220.000000 1 0 0
11.590363 0.115557 -5.765853 12.945846 0.009970 2.032398 0.008829 -0.003026 58542.400000 1 0 0
-2.651837 -12.682743 6.198847 14.363493 1.364676 1.124564 -0.001653 -0.002156 -371835.000000 1 0 0
10.935463 1.910257 -2.845253 11.459882 0.172940 1.821700 0.005075 -0.001319 43453.900000 1 0 0
-8.915037 5.422457 1.043247 10.486624 -0.546454 1.471148 0.000939 -0.002536 -297346.000000 1 0 0
1.108563 -10.204043 5.460047 11.625985 -1.462581 1.081911 -0.001162 -0.002217 45798.700000 1 0 0
9.370363 -5.724043 -1.182953 11.043901 -0.548371 1.678116 0.003203 -0.003631 -670488.000000 1 0 0
-7.679837 8.689457 -4.373153 12.393992 -0.846998 1.931406 -0.007861 0.001126 -306077.000000 1 0 0
-7.407737 -0.058343 -1.624053 7.583899 0.007876 1.786613 0.001907 -0.002405 -1880620.000000 1 0 0
4.046063 8.846157 2.815747 10.126872 1.141821 1.289036 -0.000221 0.003386 -868365.000000 1 0 0
-1.403537 -10.583643 -3.853853 11.350577 1.438952 1.917213 0.006012 -0.001572 74762.500000 1 0 0
3.167763 7.853857 -3.648953 9.221315 1.187415 1.977636 0.005573 -0.002900 -440117.000000 1 0 0
-4.428837 1.806157 -11.080953 12.069148 -0.387227 2.734112 0.002994 -0.005335 -740407.000000 1 0 0
1.259863 2.782157 11.003247 11.419242 1.145586 0.270750 0.002042 -0.000060 740548.000000 1 0 0
2.201963 5.587157 -7.991753 9.996653 1.195377 2.497164 0.004757 -0.002184 416639.000000 1 0 0
15.629163 5.972257 3.914047 17.183083 0.365000 1.340994 0.016823 -0.006434 404482.000000 1 0 0
-4.397737 9.010857 4.716047 11.080466 -1.116755 1.131152 -0.007076 0.003659 -348416.000000 1 0 0
-1.003537 -8.179043 -12.396753 14.885675 1.448710 2.554938 0.008068 0.000904 -282358.000000 1 0 0
14.110063 -4.345343 -5.288853 15.682724 -0.298744 1.914781 0.013290 -0.001468 154974.000000 1 0 0
-6.143037 -6.197643 -5.731453 10.440175 0.789823 2.151940 0.011799 -0.003333 743656.000000 1 0 0
-8.870137 2.741057 -12.279453 15.394080 -0.299712 2.494224 -0.001411 -0.002696 -775885.000000 1 0 0
10.529063 5.594857 13.785047 18.226110 0.488430 0.713104 0.008336 0.005308 324504.000000 1 0 0
-0.406537 10.823657 5.562147 12.175972 -1.533254 1.096387 -0.005708 0.009564 711898.000000 1 0 0
0.309163 11.199557 -0.611153 11.220479 1.543198 1.625291 -0.000183 -0.000529 -206480.000000 1 0 0
-1.543237 -0.644543 3.674847 4.037514 0.395634 0.427088 0.001759 0.000401 272247.000000 1 0 0
-4.836737 6.732357 8.839047 12.118061 -0.947807 0.753336 -0.003240 0.000567 -2975400.000000 1 0 0
3.496263 -8.678643 -11.258453 14.638834 -1.187828 2.448199 -0.000850 0.002017 1481400.000000 1 0 0
6.593763 -3.779843 12.005147 14.208746 -0.520515 0.564395 0.006748 -0.003399 -1125960.000000 1 0 0
-2.288237 -1.875643 -12.565253 12.908898 0.686632 2.910336 0.007657 -0.005625 1031000.000000 1 0 0
-15.961237 -4.991743 5.269247 17.534069 0.303105 1.265564 0.001349 0.000791 1087340.000000 1 0 0
-8.921437 7.138957 5.753647 12.793014 -0.674864 1.104312 -0.003164 -0.000322 -2666970.000000 1 0 0
-12.848837 1.521157 6.109247 14.308369 -0.117840 1.129657 -0.001698 -0.005029 125129.000000 1 0 0
-3.613737 3.582457 10.254847 11.447924 -0.781051 0.460609 -0.004934 0.002554 429647.000000 1 0 0
2.020563 -12.253543 -1.201853 12.477037 -1.407371 1.667271 -0.001156 -0.001114 -2571380.000000 1 0 0
10.136463 -5.205843 -3.622453 11.957042 -0.474449 1.878589 0.008706 -0.001081 803330.000000 1 0 0
2.959563 -13.378343 0.960847 13.735440 -1.353082 1.500785 -0.000066 0.001082 480951.000000 1 0 0
10.082563 -1.766943 -6.091753 11.911743 -0.173486 2.107618 0.012829 -0.001729 -835767.000000 1 0 0
11.907263 -5.470043 -1.559653 13.196090 -0.430633 1.689264 0.008019 -0.002627 24963.800000 1 0 0
1.383463 0.832257 5.944847 6.160180 0.541577 0.265184 0.000905 0.001040 175604.000000 1 0 0
-10.817137 11.676757 6.549247 17.211907 -0.823595 1.180452 -0.002634 -0.005177 -533355.000000 1 0 0
4.704063 -14.072643 3.017247 15.141706 -1.248203 1.370186 -0.000339 -0.000744 -2965110.000000 1 0 0
5.314763 -3.462943 -1.692553 6.565319 -0.577479 1.831543 0.003007 -0.001899 -1984380.000000 1 0 0
2.051563 -2.907143 -7.730153 8.509739 -0.956257 2.710211 0.000674 -0.002607 -129105.000000 1 0 0
-2.774037 14.798957 -8.855453 17.467783 -1.385498 2.102450 0.008037 -0.003381 -1749090.000000 1 0 0
-2.265437 6.082357 -8.052553 10.342673 -1.214254 2.463189 0.005518 -0.003633 -438573.000000 1 0 0
2.631463 -3.530143 -11.365953 12.188987 -0.930229 2.772007 0.002575 0.000522 -1318890.000000 1 0 0
14.749063 2.782557 -2.666153 15.244207 0.186468 1.746597 0.015270 0.000023 749626.000000 1 0 0
-3.450437 13.071357 2.288847 13.711481 -1.312714 1.403082 -0.011015 0.004812 72286.800000 1 0 0
7.896963 -4.805443 14.012447 16.786988 -0.546659 0.583171 0.004534 -0.006438 -1831860.000000 1 0 0
-11.233437 7.123857 2.996947 13.635290 -0.565163 1.349194 -0.003434 0.002822 796246.000000 1 0 0
-2.255137 11.938757 4.263647 12.876266 -1.384104 1.233301 -0.006154 0.005479 -41585.500000 1 0 0
1.858463 1.411057 0.707947 2.438473 0.649401 1.276231 -0.004482 -0.000700 -1989560.000000 1 0 0
-6.875037 8.479657 5.351847 12.157836 -0.889524 1.114978 -0.005813 0.001278 -410855.000000 1 0 0
-1.219637 9.258857 1.058447 9.398630 -1.439824 1.457940 -0.006398 0.001851 42623.600000 1 0 0
5.078363 13.270457 -8.552553 16.584359 1.205308 2.112621 0.009559 -0.004350 -2406050.000000 1 0 0
8.818463 6.966457 7.232347 13.364267 0.668605 0.998968 -0.000933 0.002379 -1467590.000000 1 0 0
7.138563 -13.696343 2.917947 15.718248 -1.090331 1.384072 0.001687 -0.002264 -559695.000000 1 0 0
4.183663 -13.368843 -1.252553 14.064064 -1.267510 1.659975 -0.000273 0.002301 -3785930.000000 1 0 0
12.133663 -11.900743 -4.572953 17.600152 -0.775707 1.833637 0.016656 -0.006659 -522922.000000 1 0 0
2.955963 0.024957 -2.006753 3.572869 0.008443 2.167192 0.002824 -0.003016 980119.000000 1 0 0
-13.548637 -3.031443 -10.649753 17.497785 0.220120 2.225135 0.007847 -0.008640 1076570.000000 1 0 0
-6.541137 13.632757 5.111747 15.961469 -1.123431 1.244797 -0.005299 -0.001843 39743.100000 1 0 0
7.386163 -4.270343 -0.648253 8.556370 -0.524202 1.646632 0.002898 -0.001238 -421821.000000 1 0 0
11.757163 2.129157 -7.295553 13.999617 0.179153 2.118965 0.011908 -0.000871 -1115360.000000 1 0 0
-7.514537 -4.561643 9.677147 13.073792 0.545582 0.737437 0.001084 -0.001834 76855.400000 1 0 0
0.967063 2.864757 8.519547 9.040172 1.245236 0.341033 0.000258 0.002111 -1209510.000000 1 0 0
1.555063 8.067557 -8.648253 11.928788 1.380377 2.381816 0.007985 -0.002263 -596660.000000 1 0 0
-8.621637 -2.076943 -5.611353 10.494456 0.236395 2.134945 0.006383 -0.003170 -1542060.000000 1 0 0
6.724363 -0.486443 7.222447 9.880153 -0.072215 0.751002 0.003701 0.000798 -29125.300000 1 0 0
-10.866337 6.435757 7.169347 14.522251 -0.534713 1.054480 0.001929 -0.005366 275964.000000 1 0 0
-5.939537 11.006157 5.054047 13.489143 -1.075930 1.186750 -0.009589 0.001415 16892.200000 1 0 0
6.007063 -1.137643 -6.872753 9.198574 -0.187168 2.414566 0.001057 -0.002979 -755158.000000 1 0 0
4.547663 -5.699143 11.440847 13.566667 -0.897303 0.567392 0.002237 -0.002718 -1927580.000000 1 0 0
-8.986837 -7.348843 2.619647 11.900895 0.685461 1.348857 0.005835 -0.001240 -2747530.000000 1 0 0
-1.229237 12.708357 -9.354453 15.827797 -1.474370 2.203112 0.014922 0.000294 634172.000000 1 0 0
-4.533337 9.327357 -2.313353 10.625551 -1.118390 1.790270 -0.008780 -0.000895 294159.000000 1 0 0
-3.203137 9.776357 -0.232653 10.290353 -1.254177 1.593407 -0.007226 -0.000541 -2231070.000000 1 0 0
-3.551737 10.714357 -6.337453 12.945099 -1.250703 2.082386 0.000062 0.002704 956107.000000 1 0 0
4.960263 -4.891943 0.353847 6.975709 -0.778464 1.520049 0.000928 -0.003475 -2363410.000000 1 0 0
-2.269937 3.029457 -10.886253 11.525655 -0.927751 2.806937 0.007812 -0.003978 -1992620.000000 1 0 0
-3.574237 12.117257 -2.155553 12.815986 -1.283960 1.739792 -0.011489 0.004129 -617278.000000 1 0 0
-0.203337 0.426257 0.053847 0.475332 -1.125693 1.457270 -0.000889 -0.001541 -1816020.000000 1 0 0
-4.948337 -1.740543 0.153547 5.247772 0.338227 1.541533 -0.000377 -0.001678 362204.000000 1 0 0
2.584163 2.529357 -2.433553 4.358638 0.774681 2.163166 -0.004969 -0.003269 1049610.000000 1 0 0
6.123763 -9.756143 8.563747 14.353416 -1.010270 0.931495 -0.004571 0.002918 -2231230.000000 1 0 0
-4.219637 -5.595743 6.532047 9.580465 0.924689 0.820564 0.000756 -0.003040 159626.000000 1 0 0
-6.341237 5.381757 -11.973453 14.578689 -0.703734 2.534479 -0.005778 -0.003598 1507410.000000 1 0 0
-13.069037 3.101057 7.998947 15.633280 -0.232974 1.033679 0.000756 -0.008865 557792.000000 1 0 0
4.652363 -7.405843 -4.927953 10.038711 -1.009898 2.083913 -0.002340 -0.002772 191662.000000 1 0 0
-5.988237 2.533057 -0.950153 6.571009 -0.400180 1.715903 0.002573 -0.003112 -768514.000000 1 0 0
-6.995137 -2.521943 -14.600053 16.384557 0.346023 2.670529 0.001477 0.001914 336096.000000 1 0 0
2.791463 -6.115443 0.878247 6.779545 -1.142582 1.440888 0.000585 -0.003143 418078.000000 1 0 0
4.851363 -7.876443 13.013647 15.966499 -1.018744 0.617964 0.000049 -0.005150 -68025.300000 1 0 0
-9.995937 -1.682943 7.967447 12.893071 0.166798 0.904647 0.000556 0.001817 -792055.000000 1 0 0
-4.456437 13.311257 -0.023453 14.037448 -1.247738 1.572467 -0.012473 0.004078 432532.000000 1 0 0
6.902063 2.257057 -4.472753 8.528675 0.316051 2.122850 0.000301 0.000412 -2130710.000000 1 0 0
5.092163 4.508557 -0.017553 6.801287 0.724685 1.573377 -0.003091 0.001206 -983111.000000 1 0 0
-5.867937 12.313957 1.931547 13.776686 -1.126103 1.430129 -0.010927 0.003254 -1782790.000000 1 0 0
6.540763 -7.388443 6.531847 11.833668 -0.846180 0.986070 -0.001873 -0.001846 -398032.000000 1 0 0
-0.252837 4.943457 7.697147 9.151380 -1.519695 0.571499 -0.004891 0.003367 -978250.000000 1 0 0
-5.776437 -3.425543 -1.688753 6.924844 0.535271 1.817149 0.005676 -0.002108 -314329.000000 1 0 0
2.272163 -6.543143 -5.268653 8.702537 -1.236566 2.221084 0.001020 0.000011 -1449780.000000 1 0 0
-14.635537 -4.874443 -3.678953 15.858558 0.321500 1.804915 0.002361 -0.005331 -78637.500000 1 0 0
-12.370437 -5.066243 -6.357153 14.802295 0.388707 2.014703 0.009297 -0.008398 -1401150.000000 1 0 0
-14.802337 -3.728643 -1.241653 15.315145 0.246762 1.651959 -0.001522 -0.002230 73325.100000 1 0 0
11.828563 3.077957 8.644447 14.970477 0.254568 0.955215 0.008444 -0.002825 -943509.000000 1 0 0
8.760263 -6.432343 7.648947 13.289982 -0.633354 0.957529 0.001432 -0.002398 209272.000000 1 0 0
-8.730537 -1.611443 -9.854553 13.263908 0.182521 2.408278 0.001613 -0.002746 -110623.000000 1 0 0
-8.862737 5.136557 -3.726453 10.900403 -0.525260 1.919696 0.000812 -0.002768 -981571.000000 1 0 0
-3.996137 -6.378643 4.008747 8.527969 1.011128 1.081426 0.007182 -0.002613 -1488190.000000 1 0 0
-0.224337 -9.244243 3.484047 9.881546 1.546533 1.210468 0.000477 -0.002880 894433.000000 1 0 0
7.866463 -10.441343 3.260147 13.473360 -0.925126 1.326401 -0.002866 -0.001307 215584.000000 1 0 0
-0.044137 6.525657 9.674547 11.669747 -1.564033 0.593429 -0.006297 -0.000244 -570905.000000 1 0 0
0.015563 3.478357 -9.756953 10.358443 1.566322 2.799136 0.007976 -0.003845 -654370.000000 1 0 0
4.412063 -3.124543 10.980747 12.239521 -0.616196 0.457510 0.004849 -0.002154 -2592030.000000 1 0 0
8.531163 -9.091443 1.278547 12.532747 -0.817181 1.468602 -0.001775 -0.002840 -173582.000000 1 0 0
-0.401537 -0.496543 11.395747 11.413625 0.890794 0.055978 0.001484 0.001196 -1201090.000000 1 0 0
10.853263 6.144257 11.339747 16.856306 0.515136 0.832904 0.000005 0.004977 105632.000000 1 0 0
-6.360237 -2.762743 -11.971553 13.834864 0.409786 2.616580 0.003473 -0.001077 -354610.000000 1 0 0
-1.657337 2.985957 8.584247 9.238614 -1.064089 0.378634 -0.002472 -0.001194 -1316510.000000 1 0 0
-1.520537 13.465057 -6.825053 15.172381 -1.458348 2.037376 0.007199 0.001418 769936.000000 1 0 0
7.698263 3.071657 9.875947 12.893124 0.379650 0.698223 0.002151 0.003505 283579.000000 1 0 0
6.615163 8.447657 -8.036153 13.405336 0.906460 2.213640 0.006875 -0.002306 -1148680.000000 1 0 0
6.597063 -2.952043 -3.921253 8.222653 -0.420755 2.067903 0.003673 -0.002682 -1882820.000000 1 0 0
1.963663 8.151657 1.022447 8.446945 1.334409 1.449455 -0.005642 0.003224 1036660.000000 1 0 0
-17.518037 6.022157 6.302747 19.567131 -0.331113 1.242840 0.015811 -0.003149 -51191.400000 1 0 0
-14.703237 2.985457 -10.100253 18.086273 -0.200324 2.163311 0.026581 0.001739 -213137.000000 1 0 0
-18.287337 0.027357 -4.225953 18.769287 -0.001496 1.797896 0.009703 -0.007281 181750.000000 1 0 0
-12.950337 8.181957 0.081447 15.318691 -0.563471 1.565479 -0.002443 0.001108 -570059.000000 1 0 0
-12.611837 -4.102343 -12.808253 18.437435 0.314483 2.338782 0.012593 -0.000395 -1226390.000000 1 0 0
-17.364637 -0.521443 -8.546653 19.360987 0.030020 2.027996 0.022285 -0.012440 1713960.000000 1 0 0
-16.684337 -2.183443 -2.069453 16.953382 0.130128 1.693169 0.000843 -0.005535 -360374.000000 1 0 0
-15.355537 4.212357 1.812447 16.025649 -0.267735 1.457457 0.009037 -0.000606 -609113.000000 1 0 0
-13.056637 5.859057 4.489647 14.998708 -0.421807 1.266800 -0.001238 0.000295 -83160.000000 1 0 0
-9.921237 14.235157 2.794647 17.575002 -0.962118 1.411106 0.002155 -0.004541 -368404.000000 1 0 0
-11.807837 2.474457 -6.350753 13.633783 -0.206571 2.055346 0.002945 0.004466 1013.160000 1 0 0
-15.921537 10.711657 3.827747 19.567488 -0.592221 1.373909 0.010246 0.005186 64705.600000 1 0 0
-12.802737 1.266557 -8.543253 15.443491 -0.098608 2.156990 0.008519 0.001360 709744.000000 1 0 0
-12.239737 14.391657 3.953647 19.301872 -0.866027 1.364504 0.010622 -0.006706 -674255.000000 1 0 0
-10.518037 11.214157 -1.070253 15.412069 -0.817419 1.640295 0.001298 -0.003351 292938.000000 1 0 0
-16.913637 5.416457 8.854847 19.844834 -0.309922 1.108277 0.007599 -0.012280 -318725.000000 1 0 0
-11.579337 12.599257 -9.218353 19.437087 -0.827556 2.064927 0.011134 -0.007046 -931608.000000 1 0 0
-17.154637 -0.469943 3.229847 17.462369 0.027388 1.384765 0.010747 -0.003139 1011220.000000 1 0 0
-12.977637 14.909757 -0.629153 19.776647 -0.854571 1.602615 0.019462 -0.015125 63524.300000 1 0 0
-16.459637 4.964557 -10.155453 19.967466 -0.292942 2.104354 0.020190 0.000181 252738.000000 1 0 0
-11.938737 7.657357 -8.834853 16.709973 -0.570297 2.127885 0.003689 0.003509 -173121.000000 1 0 0
-14.712237 13.600557 -2.103353 20.145698 -0.746154 1.675394 0.031830 -0.018547 732737.000000 1 0 0
-11.857037 10.561457 -5.249053 16.723823 -0.727672 1.890059 0.016561 -0.006134 745836.000000 1 0 0
-17.496237 3.078757 -0.610653 17.775544 -0.174184 1.605157 0.003057 -0.004564 -985776.000000 1 0 0
-9.240337 15.295457 0.524847 17.877648 -1.027351 1.541434 0.003661 -0.009925 64036.200000 1 0 0
-8.017337 13.188657 -3.573753 15.842666 -1.024591 1.798332 -0.005005 -0.002082 -3222950.000000 1 0 0
-17.693337 11.422357 1.989147 21.153750 -0.573257 1.476624 0.034950 0.005082 197481.000000 1 0 0
-7.945737 15.774957 -7.427153 19.161070 -1.104199 1.968841 0.021738 -0.012069 220638.000000 1 0 0
-6.163337 15.403157 -5.435353 17.458151 -1.190174 1.887395 -0.007905 -0.000229 -775819.000000 1 0 0
-17.282237 5.543157 -0.024053 18.149460 -0.310377 1.572122 0.016669 0.003514 673490.000000 1 0 0
-5.442037 12.258657 -12.356853 18.236838 -1.152998 2.315259 -0.003828 -0.002203 -1387710.000000 1 0 0
-11.168637 3.793457 -11.380753 16.390556 -0.327427 2.338310 0.004251 -0.001179 149895.000000 1 0 0
-11.885637 11.100957 1.173347 16.305715 -0.751275 1.498775 0.003227 -0.003351 82949.400000 1 0 0
-12.879837 0.251957 -11.023453 16.954947 -0.019560 2.278593 0.008970 -0.005595 334500.000000 1 0 0
-14.047437 -1.879843 -12.901053 19.165111 0.133031 2.309261 0.013368 -0.007955 -109639.000000 1 0 0
-18.757237 -2.456643 -3.617653 19.260230 0.130229 1.759749 0.001551 -0.006082 -358108.000000 1 0 0
-18.238637 4.820757 -5.070953 19.534640 -0.258406 1.833392 0.014606 -0.000157 159734.000000 1 0 0
-8.134337 15.605157 -2.462653 17.769441 -1.090286 1.709833 0.003291 -0.005156 -139554.000000 1 0 0
-16.321837 9.076757 -5.387453 19.437452 -0.507523 1.851642 0.035269 0.000016 -276493.000000 1 0 0
-18.330137 1.551857 2.140447 18.519819 -0.084460 1.454961 0.027837 -0.007775 -630729.000000 1 0 0
-15.705037 -2.629643 -8.562253 18.079696 0.165901 2.064152 0.007149 -0.010300 -77470.900000 1 0 0
-9.710237 10.552157 -7.016153 15.964433 -0.826925 2.025823 -0.001553 -0.006475 523728.000000 1 0 0
-13.763837 12.177957 -7.743153 19.942474 -0.724342 1.969555 0.023155 -0.007078 351792.000000 1 0 0
-10.987537 6.582457 -3.789853 13.357309 -0.539746 1.858477 -0.002838 0.001581 -201926.000000 1 0 0
-13.116237 4.941857 -12.651853 18.881923 -0.360325 2.305074 0.014539 -0.003948 800119.000000 1 0 0
-17.797037 9.021957 2.932247 20.167506 -0.469181 1.424885 0.033631 0.009158 869747.000000 1 0 0
-13.473037 8.995157 -6.536853 17.469002 -0.588677 1.954327 0.012935 0.006592 -525597.000000 1 0 0
-15.862637 6.945157 -3.748953 17.717593 -0.412688 1.784003 0.016880 0.004834 -807958.000000 1 0 0
-14.830437 -0.272143 -9.224053 17.467086 0.018348 2.127137 0.014254 -0.008282 933639.000000 1 0 0
-9.785837 5.900357 -5.995753 12.904491 -0.542585 2.054008 -0.000975 0.002402 308602.000000 1 0 0
-12.823237 12.290057 -0.843753 17.781812 -0.764170 1.618265 0.015985 -0.010319 -1149370.000000 1 0 0
-10.641137 3.590557 -13.963253 17.919217 -0.325426 2.464238 -0.000568 -0.001510 272384.000000 1 0 0
-10.941137 6.341057 -11.856753 17.334938 -0.525255 2.324001 -0.005969 -0.002564 -636815.000000 1 0 0
-5.772737 11.563457 -14.873053 19.703952 -1.107771 2.426185 0.000007 -0.007489 -265498.000000 1 0 0
-15.532637 13.348757 3.527747 20.782135 -0.709926 1.400221 0.009394 -0.007535 481271.000000 1 0 0
-15.106437 11.212057 -3.382353 19.114261 -0.638493 1.748688 0.038019 -0.005143 308559.000000 1 0 0
-18.154637 7.760857 -4.185553 20.182681 -0.403975 1.779696 0.027407 0.001631 -1094560.000000 1 0 0
-4.099537 16.190257 -10.553053 19.755950 -1.322799 2.134323 0.011272 -0.005913 81258.000000 1 0 0
-15.749037 4.415657 -4.306053 16.913672 -0.273358 1.828220 0.013249 0.002562 -519245.000000 1 0 0
-18.783537 -1.732543 -6.073853 19.817030 0.091977 1.882307 0.016377 -0.010967 552953.000000 1 0 0
-10.843637 8.610157 -5.816553 15.018374 -0.671089 1.968493 -0.002275 0.001285 1378750.000000 1 0 0
-11.231537 13.909257 -6.852753 19.146151 -0.891507 1.936834 0.016871 0.000539 204592.000000 1 0 0
-9.386737 10.516657 -4.366453 14.757263 -0.842107 1.871178 -0.008192 -0.000657 5428.780000 1 0 0
-11.072237 6.310657 -0.123853 12.744966 -0.518033 1.580514 -0.005864 0.001673 -520679.000000 1 0 0
-14.489437 9.463057 -1.528553 17.373247 -0.578552 1.658893 0.017090 0.001405 -265526.000000 1 0 0
-18.743537 3.396057 4.602247 19.596787 -0.179241 1.333735 0.026544 -0.007405 745307.000000 1 0 0
-14.795137 13.374057 0.491847 19.950022 -0.734993 1.546140 0.016952 -0.001860 163073.000000 1 0 0
-16.995937 2.728257 -8.930053 19.392038 -0.159166 2.049356 0.019708 -0.001147 -10226.700000 1 0 0
-9.164337 8.496157 -8.748653 15.254792 -0.747581 2.181571 -0.002181 0.003611 -1925700.000000 1 0 0
-17.615237 4.774057 -2.582653 18.432534 -0.264661 1.711373 0.013327 0.002423 868039.000000 1 0 0
-13.464937 5.763157 -4.360953 15.281899 -0.404419 1.860186 0.001118 0.008145 -265520.000000 1 0 0
-12.073937 9.552357 3.250547 15.735105 -0.669324 1.362719 -0.010456 0.000848 393466.000000 1 0 0
-17.609337 2.544257 -3.884453 18.211287 -0.143490 1.785747 0.020695 -0.002783 1039650.000000 1 0 0
-11.250437 1.590457 -12.600953 16.967201 -0.140438 2.407838 0.006522 -0.001409 105227.000000 1 0 0
-11.101837 12.040657 3.499347 16.747347 -0.825943 1.360296 -0.000182 -0.002037 625839.000000 1 0 0
-15.827437 13.431457 -4.418953 21.223547 -0.703692 1.780541 0.012539 -0.005492 444188.000000 1 0 0
-10.988937 4.121857 -4.483953 12.563928 -0.358851 1.935734 -0.002103 0.002354 -624804.000000 1 0 0
-10.875637 15.168757 -9.068753 20.751216 -0.948768 2.023082 0.012898 -0.009688 204126.000000 1 0 0
-15.385437 7.313357 -0.369853 17.039180 -0.443728 1.592504 0.011620 0.003974 -1293650.000000 1 0 0
-12.840537 8.355957 -4.042653 15.844383 -0.576901 1.828796 0.002636 0.000352 450373.000000 1 0 0
-19.334137 1.788557 -5.719753 20.241625 -0.092245 1.857273 0.022601 -0.014361 263354.000000 1 0 0
-12.468437 10.213057 -8.909253 18.415842 -0.686287 2.075767 0.010388 -0.001667 484326.000000 1 0 0
-16.464837 11.192057 -1.200253 19.944764 -0.597009 1.631012 0.013703 -0.000719 208954.000000 1 0 0
-10.766537 6.628357 -14.460053 19.207982 -0.551843 2.423124 0.000309 -0.009428 -288140.000000 1 0 0
-13.261137 12.907557 -4.084453 18.951136 -0.771887 1.788026 0.017736 -0.015490 -491801.000000 1 0 0
-17.840537 8.035857 -0.088953 19.567005 -0.423209 1.575342 0.015401 0.004476 -479126.000000 1 0 0
-12.690637 6.719657 -2.017053 14.500847 -0.486966 1.710348 -0.006117 0.003578 -211240.000000 1 0 0
-13.790337 8.547857 -10.457153 19.302625 -0.554883 2.143311 0.010749 -0.001580 -412025.000000 1 0 0
-15.038337 1.443757 -0.900853 15.134317 -0.095712 1.630355 0.009449 -0.001038 -541064.000000 1 0 0
-13.347037 2.857157 -2.316653 13.844625 -0.210884 1.738920 0.000046 0.003873 -6472.390000 1 0 0
-11.203337 9.023357 -10.834753 18.009098 -0.678035 2.216332 0.001376 -0.006732 -107382.000000 1 0 0
-15.262537 4.375757 -7.882553 17.726447 -0.279210 2.031611 0.012181 0.003549 420727.000000 1 0 0
-18.451237 10.871657 4.522147 21.888145 -0.532448 1.362695 0.038428 0.000302 570214.000000 1 0 0
-15.247137 6.178757 -6.090053 17.542548 -0.385016 1.925336 0.012868 0.004996 811452.000000 1 0 0
-7.715437 11.362257 -13.086253 18.970474 -0.974276 2.332040 -0.014567 0.000275 -1911610.000000 1 0 0
-16.695337 9.250857 -2.812653 19.293099 -0.505984 1.717103 0.017297 -0.002863 537209.000000 1 0 0
-20.708437 -0.893243 -4.523053 21.215449 0.043108 1.785642 0.015468 -0.014372 1013100.000000 1 0 0
-15.381837 4.330257 4.246247 16.534287 -0.274415 1.311071 0.008475 0.000909 -138977.000000 1 0 0
-6.827237 12.488457 -9.309053 17.006798 -1.070503 2.150018 -0.004388 -0.007045 -2245690.000000 1 0 0
-17.277937 1.431057 5.763447 18.269985 -0.082637 1.249855 0.023488 -0.014715 528389.000000 1 0 0
-10.245637 14.307257 -3.199153 17.885896 -0.949337 1.750629 0.021102 -0.016845 -6239.600000 1 0 0
-10.032037 8.538457 -12.953153 18.475151 -0.705143 2.347752 -0.012622 -0.003049 -476109.000000 1 0 0
-13.731637 11.574057 2.760647 18.169695 -0.700343 1.418269 0.001474 -0.002206 714035.000000 1 0 0
-16.442537 7.010357 1.894547 17.974745 -0.403018 1.465200 0.003663 0.002212 301740.000000 1 0 0
-9.221137 13.386957 -8.377153 18.287063 -0.967617 2.046644 0.012543 -0.008771 446487.000000 1 0 0
-5.635537 9.810057 -12.933653 17.183593 -1.049364 2.422911 0.001679 -0.001176 -375176.000000 1 0 0
-16.083337 1.993957 3.236047 16.526391 -0.123347 1.373712 0.013473 -0.002635 -488490.000000 1 0 0
-18.554937 -4.968843 4.656747 19.765131 0.261652 1.332956 0.017253 0.003012 -619942.000000 1 0 0
-5.223937 14.449257 -8.996653 17.804783 -1.223881 2.100519 -0.001418 -0.007074 -857712.000000 1 0 0
-15.483537 -0.838143 -6.661353 16.876494 0.054078 1.976551 0.014704 -0.003634 832404.000000 1 0 0
-8.939537 11.036657 -9.345753 17.001948 -0.889996 2.152786 -0.006682 -0.005912 403176.000000 1 0 0
-16.759537 1.257657 -5.912153 17.816210 -0.074901 1.909051 0.010783 -0.006787 429209.000000 1 0 0
-11.019937 8.619157 -1.547853 14.075679 -0.663757 1.680986 -0.001501 -0.003223 -510654.000000 1 0 0
-10.537337 11.072357 -12.286653 19.611079 -0.810151 2.247871 -0.004922 -0.012593 -725650.000000 1 0 0
-13.823837 11.782657 -10.402753 20.931955 -0.705853 2.090911 0.018774 -0.006922 142056.000000 1 0 0
-13.117437 5.811557 -7.607853 16.239482 -0.417051 2.058364 0.007773 0.009228 -1306000.000000 1 0 0
-8.721837 15.176957 -5.051953 18.219020 -1.049205 1.851769 0.009190 -0.017413 467420.000000 1 0 0
-8.633637 6.281057 -12.986153 16.811649 -0.628951 2.453486 -0.006171 -0.004164 -301677.000000 1 0 0
-16.289937 7.566957 4.474947 18.510701 -0.434861 1.326628 0.009586 0.010857 306468.000000 1 0 0
-12.699537 5.441857 -10.069753 17.096549 -0.404838 2.200609 0.008586 0.002057 649184.000000 1 0 0
-12.412637 9.396457 -13.156353 20.382752 -0.647971 2.272428 0.009290 -0.009105 220527.000000 1 0 0
-10.730137 5.270057 -8.406553 14.614359 -0.456539 2.183676 -0.004783 0.004078 -1945250.000000 1 0 0
-17.703637 -4.473143 -2.546953 18.436777 0.247488 1.709385 -0.006528 -0.005177 262579.000000 1 0 0
-8.719737 13.204857 -10.895653 19.212426 -0.987184 2.173795 0.010352 -0.012435 -68002.600000 1 0 0
-14.988837 6.142457 6.137647 17.322405 -0.388928 1.208611 0.003338 -0.003365 -1850110.000000 1 0 0
-16.322837 -3.143343 -4.393153 17.193470 0.190244 1.829174 -0.003682 -0.004398 -1065090.000000 1 0 0
-11.212137 -1.016343 -12.756453 17.013879 0.090400 2.418507 0.006796 0.002782 90673.200000 1 0 0
-15.373037 6.915357 -8.407253 18.837047 -0.422718 2.033439 0.015981 0.005571 -79744.100000 1 0 0
-14.920037 9.508457 1.038947 17.722801 -0.567391 1.512141 0.008166 -0.000176 -479937.000000 1 0 0
-19.323837 5.150257 8.042747 21.555083 -0.260469 1.188421 0.034834 -0.018471 810857.000000 1 0 0
-16.347137 0.679057 0.932247 16.387773 -0.041516 1.513879 0.009250 -0.005034 -1487680.000000 1 0 0
-17.512137 3.586657 7.015047 19.202863 -0.202016 1.196828 0.021221 -0.010768 632926.000000 1 0 0
-15.336637 4.177557 -1.347353 15.952423 -0.265939 1.655358 0.007763 0.001283 -721096.000000 1 0 0
-10.709337 13.249357 0.375047 17.040423 -0.891020 1.548785 0.006802 -0.011598 -413811.000000 1 0 0
-13.474237 3.383157 0.150847 13.893293 -0.245998 1.559939 0.001107 0.000618 -505948.000000 1 0 0
-15.088237 0.224057 -4.277753 15.684524 -0.014849 1.847033 0.006069 -0.002056 165285.000000 1 0 0
-18.469837 6.524857 3.413547 19.883686 -0.339586 1.398266 0.004635 0.007261 287973.000000 1 0 0
-14.110537 1.344457 -6.348053 15.531021 -0.094994 1.991863 0.010511 0.000425 -543172.000000 1 0 0
-14.199237 11.915957 5.266147 19.270202 -0.698189 1.293996 0.001535 -0.010643 149442.000000 1 0 0
17.686063 5.554957 6.163847 19.535797 0.304330 1.249796 0.023454 -0.008092 182746.000000 1 0 0
18.425663 7.514857 -0.292553 19.901349 0.387253 1.585497 0.004910 0.002356 -21348.800000 1 0 0
16.724063 5.378557 8.528147 19.528247 0.311159 1.118860 0.036564 -0.000748 607032.000000 1 0 0
11.913463 12.335957 10.929847 20.336371 0.802819 1.003382 0.023958 0.001030 785099.000000 1 0 0
-2.437737 16.055957 -0.495353 16.247513 -1.420119 1.601289 -0.005858 -0.005387 -262021.000000 1 0 0
15.165463 12.340357 3.516047 19.865504 0.683048 1.392866 0.029471 -0.011866 58432.200000 1 0 0
13.414363 11.812357 6.525047 19.027694 0.721979 1.220769 0.012936 -0.003255 798007.000000 1 0 0
-0.689637 15.814857 8.516447 17.975404 -1.527217 1.077214 0.000363 -0.001231 31661.000000 1 0 0
0.799363 12.984957 9.526747 16.124732 1.509313 0.938727 -0.009512 0.004267 256135.000000 1 0 0
0.798363 15.675657 -4.130353 16.230324 1.519910 1.828110 0.007656 -0.000503 -884626.000000 1 0 0
5.305763 10.248557 13.685247 17.901676 1.093083 0.700582 -0.002450 -0.000154 -92997.100000 1 0 0
-1.155837 16.491457 -2.764453 16.761453 -1.500824 1.736483 0.000108 -0.000647 -839251.000000 1 0 0
8.570263 10.020257 3.380147 13.611772 0.863237 1.319845 0.008486 -0.000561 496338.000000 1 0 0
12.769963 13.496557 -4.750253 19.177953 0.813053 1.821095 0.035243 -0.011689 450509.000000 1 0 0
2.353963 11.582457 7.859447 14.193849 1.370292 0.983969 -0.004226 0.007848 234491.000000 1 0 0
-0.284337 14.899457 -8.625853 17.218595 -1.551715 2.095506 0.015222 -0.002842 -1899350.000000 1 0 0
2.337963 15.866457 0.280847 16.040243 1.424497 1.553287 0.012176 -0.008769 -557621.000000 1 0 0
1.868263 13.426657 5.335347 14.568165 1.432538 1.195839 0.002193 0.004764 -672160.000000 1 0 0
17.559263 9.085357 -2.206853 19.893255 0.477479 1.681960 0.001561 0.001582 572374.000000 1 0 0
-7.295137 15.009157 7.286547 18.209546 -1.118374 1.159116 0.003276 -0.005377 -243660.000000 1 0 0
8.534763 15.922857 -0.159153 18.066678 1.078760 1.579606 0.006033 -0.006466 -605794.000000 1 0 0
15.605763 10.275257 2.120847 18.804752 0.582277 1.457773 0.018553 -0.005466 75072.000000 1 0 0
14.115263 7.689557 8.741047 18.296880 0.498818 1.072722 0.013896 -0.003478 -787018.000000 1 0 0
4.190063 18.744757 -2.181053 19.330792 1.350879 1.683865 0.023615 -0.008982 -1587610.000000 1 0 0
-0.598537 17.692957 -4.880953 18.363623 -1.536980 1.839824 0.014497 -0.000825 757622.000000 1 0 0
1.263763 13.667557 -0.713853 13.744409 1.478594 1.622757 0.000712 -0.004025 963188.000000 1 0 0
10.114163 14.819557 4.157447 18.417381 0.971921 1.343099 0.015317 -0.010663 57800.400000 1 0 0
-1.604837 15.345557 -5.142453 16.263654 -1.466595 1.892510 0.003231 -0.001162 74835.200000 1 0 0
15.004063 8.617257 -6.002453 18.314160 0.521329 1.904717 0.005553 -0.001705 -71750.800000 1 0 0
-2.287137 18.392357 0.798747 18.551220 -1.447079 1.527727 -0.005307 -0.007285 -1557750.000000 1 0 0
-3.855037 19.470557 3.619647 20.175870 -1.375331 1.390415 0.013486 -0.005057 -348967.000000 1 0 0
1.911963 17.599257 -2.647053 17.899618 1.462582 1.719224 0.013149 -0.008381 -159007.000000 1 0 0
2.776463 12.336857 3.322747 13.074686 1.349430 1.313842 0.001155 0.002473 -200758.000000 1 0 0
-2.630337 16.095957 1.970547 16.428072 -1.408812 1.450557 -0.004854 -0.001928 -1410280.000000 1 0 0
11.830963 12.738657 -2.557553 17.572311 0.822325 1.716860 0.008541 0.002601 477200.000000 1 0 0
7.132263 11.727357 4.757947 14.527151 1.024389 1.237118 0.005443 0.001534 798650.000000 1 0 0
7.153763 15.671257 1.912147 17.332654 1.142559 1.460251 0.006613 -0.012508 -1567510.000000 1 0 0
5.483563 12.266557 10.303747 16.932367 1.150412 0.916597 -0.003692 0.009369 -1313560.000000 1 0 0
-1.355637 14.228457 3.273247 14.662908 -1.475807 1.345666 -0.004868 0.004322 -359999.000000 1 0 0
4.614963 16.072957 1.473547 16.787172 1.291192 1.482905 0.010469 -0.018247 -3065410.000000 1 0 0
7.210963 13.358157 11.954747 19.322378 1.075805 0.903710 0.003205 0.006249 -103011.000000 1 0 0
0.787663 17.153557 -9.502853 19.625726 1.524910 2.076249 0.021012 -0.005763 400841.000000 1 0 0
9.771363 9.637357 15.413847 20.638431 0.778494 0.727481 0.015547 -0.003483 -387611.000000 1 0 0
13.526963 7.448357 -0.119653 15.442508 0.503327 1.578545 0.004797 -0.004192 -22403.600000 1 0 0
12.376663 13.606857 -0.063453 18.393813 0.832708 1.574246 0.017628 -0.003730 759670.000000 1 0 0
9.400463 12.420657 3.450947 15.954637 0.922931 1.352776 0.009646 0.001209 870791.000000 1 0 0
-0.760137 12.900057 0.816247 12.948186 -1.511939 1.507715 -0.003356 0.000446 -595326.000000 1 0 0
15.987463 7.389457 -0.981253 17.639895 0.432956 1.626452 0.008116 -0.000037 -1423480.000000 1 0 0
-3.920237 18.560157 -2.495053 19.133033 -1.362638 1.701574 -0.011387 -0.003034 -63260.700000 1 0 0
11.398663 9.076457 -3.252753 14.929567 0.672465 1.790431 0.009188 -0.003581 -74117.400000 1 0 0
14.718663 9.879257 7.604447 19.289021 0.591139 1.165559 0.016465 -0.009652 1955800.000000 1 0 0
4.477763 13.747657 4.764947 15.223440 1.255922 1.252446 0.007279 0.000959 889074.000000 1 0 0
2.103163 16.033957 5.585747 17.108817 1.440372 1.238216 0.011641 0.002721 269479.000000 1 0 0
6.171163 18.409857 5.450847 20.167246 1.247358 1.297110 0.019786 -0.022694 -400106.000000 1 0 0
10.849463 16.902557 -0.723453 20.098026 1.000148 1.606800 0.029170 -0.010865 -1188560.000000 1 0 0
10.099563 13.516457 -4.428353 17.444371 0.929086 1.827461 0.022317 -0.004231 360091.000000 1 0 0
16.583963 7.926657 2.227947 18.515492 0.445870 1.450175 0.009381 -0.003755 306487.000000 1 0 0
3.910863 14.045957 -0.461753 14.587562 1.299241 1.602456 0.006294 -0.004032 -740862.000000 1 0 0
5.597163 13.251157 -2.372153 14.579043 1.171138 1.734233 0.008554 -0.001698 80499.400000 1 0 0
-5.981937 17.083957 -2.973653 18.343603 -1.233988 1.733623 -0.005609 -0.000073 -775878.000000 1 0 0
18.124363 9.987557 2.594747 20.856091 0.503654 1.446061 0.018512 -0.004867 -174847.000000 1 0 0
7.869563 13.065757 9.427747 17.931158 1.028684 1.017171 0.007404 0.007767 1080000.000000 1 0 0
-2.670337 15.804257 6.652647 17.354047 -1.403414 1.177377 -0.003247 0.003957 1846430.000000 1 0 0
10.781963 16.147057 6.232547 20.391733 0.982054 1.260185 0.016355 -0.008347 311707.000000 1 0 0
13.548063 11.899957 1.487947 18.093451 0.720725 1.488467 0.025573 -0.004342 1115720.000000 1 0 0
17.439563 7.778657 -5.373253 19.837280 0.419552 1.845089 0.001108 0.005223 407959.000000 1 0 0
9.454463 9.430657 8.014347 15.574142 0.784138 1.030263 0.005960 0.004227 -103177.000000 1 0 0
-2.001537 14.153357 -1.958153 14.427682 -1.430310 1.706938 -0.007619 0.001736 528825.000000 1 0 0
10.972963 11.567057 0.797647 15.963676 0.811749 1.520809 0.010864 0.000058 179653.000000 1 0 0
11.689163 9.668257 -0.689053 15.185075 0.691056 1.616189 0.009025 -0.001498 -1892330.000000 1 0 0
-0.202037 16.047657 11.080447 19.502420 -1.558207 0.966531 0.003773 -0.004252 338639.000000 1 0 0
2.070763 20.041457 -1.638353 20.214654 1.467838 1.651933 0.024184 -0.017158 -226976.000000 1 0 0
9.372663 14.307357 1.656747 17.184064 0.990848 1.474235 0.013786 -0.003326 -294122.000000 1 0 0
8.490363 11.624457 -5.188953 15.301617 0.939966 1.916769 0.011158 -0.002964 15979.200000 1 0 0
10.685063 10.155357 10.206347 17.929622 0.759986 0.965209 0.010648 0.002821 -286915.000000 1 0 0
-5.201537 15.845757 5.874147 17.681900 -1.253618 1.232148 -0.006718 0.002364 117795.000000 1 0 0
14.355163 9.069357 -1.882753 17.084165 0.563463 1.681225 0.012143 -0.001529 -246177.000000 1 0 0
12.132363 9.553157 6.929647 16.925632 0.667017 1.148981 0.009873 -0.002081 -1271110.000000 1 0 0
3.279663 13.021457 9.723747 16.579076 1.324062 0.944057 -0.003073 0.004261 -491900.000000 1 0 0
8.477363 12.538257 -2.662353 15.367553 0.976278 1.744920 0.008986 -0.003079 -857753.000000 1 0 0
9.437263 16.915857 1.969147 19.470122 1.061912 1.469486 0.012397 -0.014003 -365900.000000 1 0 0
9.724863 14.258757 -7.580853 18.850847 0.972235 1.984659 0.020538 -0.003641 -1306430.000000 1 0 0
6.343363 11.502657 7.299147 15.027538 1.066826 1.063612 0.000286 0.006510 -741179.000000 1 0 0
5.663663 16.854957 -5.517253 18.617377 1.246627 1.871665 0.013990 -0.005926 -1026800.000000 1 0 0
-4.059137 17.351157 -4.847153 18.467109 -1.340989 1.836382 -0.007352 0.001563 199982.000000 1 0 0
-0.084737 18.152557 -0.511853 18.159969 -1.566128 1.598986 0.006333 -0.019355 -799661.000000 1 0 0
6.607163 15.798957 -2.783153 17.349570 1.174697 1.731909 0.005290 0.001503 318503.000000 1 0 0
-0.748037 20.516757 0.398547 20.534257 -1.534353 1.551386 0.011671 -0.013957 102381.000000 1 0 0
-1.354537 18.855457 4.235547 19.372735 -1.499082 1.350382 0.005507 -0.006014 -769539.000000 1 0 0
7.320063 13.798057 -4.375653 16.220852 1.083037 1.843935 0.013449 0.000591 615606.000000 1 0 0
-0.846337 11.900057 7.726047 14.213354 -1.499795 0.996104 -0.004626 0.006960 595208.000000 1 0 0
7.577863 10.993857 11.037547 17.323866 0.967300 0.880028 0.002705 0.007504 234977.000000 1 0 0
1.493763 16.083057 -7.308053 17.728612 1.478184 1.995684 0.014646 -0.003844 -856393.000000 1 0 0
8.822363 7.256557 14.941047 18.807620 0.688322 0.652753 0.005970 0.007346 572578.000000 1 0 0
11.384963 11.321957 -4.788253 16.755042 0.782623 1.860616 0.015938 -0.002421 -275141.000000 1 0 0
-3.448237 17.088357 4.497247 18.003541 -1.371681 1.318325 -0.003249 0.002557 6907.750000 1 0 0
3.975363 15.379357 -6.700553 17.240230 1.317846 1.969971 0.016104 -0.007414 -574043.000000 1 0 0
-4.455337 13.955057 9.735747 17.589156 -1.261762 0.984225 0.006542 -0.003493 -1642140.000000 1 0 0
6.215363 17.791757 0.481747 18.852305 1.234710 1.545240 0.006262 -0.019714 -303602.000000 1 0 0
9.841363 10.727857 -2.092653 14.707771 0.828470 1.713563 0.011824 -0.000446 -1505490.000000 1 0 0
7.389663 18.255857 -2.761853 19.887465 1.186173 1.710121 0.013860 -0.003917 146570.000000 1 0 0
3.508263 10.453757 10.381047 15.144473 1.247009 0.815551 -0.009638 0.007159 899798.000000 1 0 0
0.022663 18.689357 2.067147 18.803342 1.569584 1.460639 0.007594 -0.006999 403267.000000 1 0 0
-0.922337 17.175157 -7.453153 18.745298 -1.517146 1.979697 0.016032 -0.002714 816674.000000 1 0 0
9.895763 8.709357 12.961747 18.487452 0.721717 0.793843 0.001042 0.000244 -141739.000000 1 0 0
3.606863 11.435657 5.583447 13.227191 1.265267 1.135015 -0.001651 0.004288 674639.000000 1 0 0
13.233963 13.956057 7.981447 20.823371 0.811949 1.177438 0.024596 -0.010763 71911.700000 1 0 0
-0.568137 17.339957 6.709247 18.601367 -1.538043 1.201793 0.006155 -0.002994 -741556.000000 1 0 0
11.933463 13.845457 5.737347 19.157801 0.859432 1.266650 0.014037 -0.003630 -658128.000000 1 0 0
4.863263 14.591457 -4.370653 15.989513 1.249080 1.847665 0.009437 -0.002154 203861.000000 1 0 0
3.818363 17.618157 4.682547 18.625401 1.357368 1.316663 0.017115 -0.010557 151650.000000 1 0 0
7.106063 11.697057 2.093147 13.845524 1.024874 1.419036 0.008184 0.002382 1015740.000000 1 0 0
6.429863 8.808457 11.812347 16.076802 0.940242 0.745506 -0.002109 0.003595 438266.000000 1 0 0
-5.386037 14.947557 1.767747 15.986362 -1.224950 1.459991 -0.007044 0.005332 -246249.000000 1 0 0
6.738063 13.847857 6.120047 16.571650 1.117944 1.192532 0.008900 -0.001142 -1176610.000000 1 0 0
5.829863 15.888057 4.929447 17.627169 1.219116 1.287366 0.010492 -0.012297 614966.000000 1 0 0
1.242663 18.120757 4.272547 18.659064 1.502327 1.339767 0.014981 -0.005399 726931.000000 1 0 0
7.502363 18.110857 -6.841753 20.762903 1.178069 1.906589 0.015704 -0.002985 265541.000000 1 0 0
-2.410937 18.923557 -6.197653 20.058029 -1.444075 1.884923 0.010034 -0.002000 566493.000000 1 0 0
13.491163 9.981957 -4.332353 17.332634 0.636998 1.823429 0.008817 -0.000473 -807982.000000 1 0 0
-1.657437 17.962957 9.894647 20.574716 -1.478787 1.069101 0.016064 -0.005164 -456264.000000 1 0 0
3.469763 11.874057 -1.564753 12.469199 1.286498 1.696618 0.007405 -0.003917 757708.000000 1 0 0
4.313863 14.077857 -10.921453 18.332310 1.273452 2.208994 0.007959 -0.009882 -32149.600000 1 0 0
11.607363 13.377357 2.448747 17.879622 0.856123 1.433407 0.022472 -0.007388 232523.000000 1 0 0
16.062663 6.552657 -7.207953 18.785660 0.387335 1.964590 0.008803 0.005979 142824.000000 1 0 0
2.513563 16.199557 2.898647 16.647696 1.416861 1.395787 0.011365 -0.006753 -13149.700000 1 0 0
13.474563 10.464757 3.641047 17.445119 0.660328 1.360536 0.015819 -0.001285 -991993.000000 1 0 0
-4.988437 19.639857 -5.848053 21.090477 -1.322061 1.851763 -0.002396 -0.006706 337244.000000 1 0 0
5.534063 12.177857 0.095247 13.376663 1.144259 1.563676 0.007324 -0.001075 825626.000000 1 0 0
4.646163 15.513757 9.754047 18.905155 1.279811 1.028684 0.008349 0.004753 -189961.000000 1 0 0
7.687563 9.531957 14.004247 18.603111 0.892102 0.718505 0.000303 -0.000570 -2621340.000000 1 0 0
-5.061637 13.753157 7.196547 16.326658 -1.218146 1.114323 -0.003444 0.003664 -1987800.000000 1 0 0
-4.579437 17.215357 0.505347 17.821199 -1.310808 1.542436 -0.004257 -0.000319 -1212880.000000 1 0 0
-0.656837 16.619457 3.582547 17.013889 -1.531295 1.358642 0.004402 -0.001708 -1442090.000000 1 0 0
8.091563 16.718557 -4.808453 19.186056 1.120041 1.824119 0.015252 -0.007520 262761.000000 1 0 0
3.188863 16.513057 -4.486153 17.406190 1.380033 1.831472 0.013459 -0.003880 603094.000000 1 0 0
9.473163 14.449357 8.064447 19.067250 0.990486 1.134101 0.016025 -0.000837 227464.000000 1 0 0
12.731963 10.998057 8.979847 19.070862 0.712460 1.080523 0.010857 -0.005373 174646.000000 1 0 0
3.713863 12.369257 12.228947 17.785905 1.279111 0.812668 -0.004505 0.002989 449331.000000 1 0 0
-3.195837 19.066657 6.038247 20.253671 -1.404726 1.268062 0.010249 -0.008861 95482.300000 1 0 0
-2.661537 15.663457 10.167447 18.862784 -1.402484 1.001521 0.006831 -0.006499 771364.000000 1 0 0
1.944263 14.342657 7.773347 16.429147 1.436060 1.077941 0.003431 0.004370 -178818.000000 1 0 0
4.198763 17.337857 7.861847 19.494602 1.333198 1.155694 0.014588 -0.007600 316846.000000 1 0 0
-1.929637 13.314857 9.440547 16.435718 -1.426875 0.958935 0.000545 -0.002756 81791.700000 1 0 0
5.834363 17.653257 3.037147 18.838830 1.251600 1.408872 0.004583 -0.021605 429315.000000 1 0 0
7.416363 15.456557 -6.932153 18.492223 1.123423 1.955051 0.014950 0.001418 95670.800000 1 0 0
10.944963 7.729657 9.302047 16.311587 0.614895 0.963959 0.006822 -0.001772 557903.000000 1 0 0
9.205563 16.308957 -2.624753 18.910679 1.056928 1.710043 0.017382 -0.006949 -41154.000000 1 0 0
14.695863 11.112657 -6.395153 19.502756 0.647442 1.904887 0.034703 -0.002844 385083.000000 1 0 0
11.060763 6.591457 16.098047 20.613949 0.537423 0.674643 0.030406 -0.012810 -589322.000000 1 0 0
8.548463 8.651257 10.257247 15.910109 0.791375 0.870166 0.003108 0.003829 764525.000000 1 0 0
16.452363 9.268557 4.420447 19.393987 0.513040 1.340846 0.023228 -0.006167 -39798.000000 1 0 0
-3.534837 14.356457 4.552247 15.470161 -1.329379 1.272115 -0.004158 0.005025 -1023720.000000 1 0 0
4.732663 14.650357 12.882047 20.074316 1.258337 0.874060 0.004920 0.005663 -1828990.000000 1 0 0
16.062663 10.446657 -4.343653 19.647114 0.576635 1.793722 0.016811 -0.007581 -76588.300000 1 0 0
14.569363 14.067357 5.816447 21.071020 0.767870 1.291125 0.017242 -0.013607 -794628.000000 1 0 0
6.143863 9.631357 9.367647 14.773723 1.002973 0.883985 -0.004164 0.008515 745522.000000 1 0 0
10.454863 12.270757 8.770947 18.352251 0.865134 1.072509 0.016213 0.004034 -203691.000000 1 0 0
7.998963 11.497257 -0.313053 14.009579 0.962943 1.593144 0.007896 -0.000137 -820753.000000 1 0 0
7.587263 13.492957 -8.782653 17.797793 1.058549 2.086870 0.009954 -0.000096 115841.000000 1 0 0
2.624063 15.201257 -2.271753 15.592459 1.399859 1.717012 0.006141 -0.003736 533701.000000 1 0 0
12.356863 13.946157 -7.674653 20.151616 0.845747 1.961507 0.029632 -0.004156 265733.000000 1 0 0
-8.279437 14.800057 9.727347 19.550244 -1.060750 1.050017 0.020276 -0.015149 314019.000000 1 0 0
11.527463 9.425357 2.057447 15.031727 0.685407 1.433492 0.017427 -0.001381 -1370630.000000 1 0 0
11.951963 8.669857 4.522247 15.442362 0.627565 1.273593 0.010153 -0.001072 230420.000000 1 0 0
14.023063 8.060657 6.058147 17.271989 0.521695 1.212425 0.012794 -0.005958 -4112210.000000 1 0 0
16.229963 7.506657 7.150147 19.258405 0.433215 1.190416 0.022605 -0.009446 183584.000000 1 0 0
13.572463 8.106657 2.521947 16.009055 0.538422 1.412605 0.010266 -0.000993 -1403030.000000 1 0 0
-4.352437 17.573257 -7.398253 19.557536 -1.328008 1.958735 -0.005721 -0.003584 167474.000000 1 0 0
2.790563 19.590257 -4.180353 20.224756 1.429302 1.778992 0.014049 -0.009893 434868.000000 1 0 0
-0.097437 14.812557 6.200947 16.058427 -1.564218 1.174343 0.002278 0.004006 -107914.000000 1 0 0
6.616463 16.360657 8.254947 19.483142 1.186491 1.133274 0.022075 0.003514 -511685.000000 1 0 0
12.780363 15.118557 -2.102353 19.907996 0.869012 1.676597 0.027929 -0.006925 45336.600000 1 0 0
12.509263 15.945957 4.228547 20.703521 0.905592 1.365106 0.024780 -0.007445 518981.000000 1 0 0
3.033763 18.154157 1.157547 18.442262 1.405215 1.507989 0.026291 -0.015167 -355945.000000 1 0 0
10.317163 14.449757 -1.360153 17.807002 0.950734 1.647254 0.011430 -0.000042 -1492050.000000 1 0 0
-6.333337 15.691857 -0.693253 16.935942 -1.187185 1.611742 -0.007924 -0.000812 -165010.000000 1 0 0
-3.761337 15.863457 -2.730153 16.530295 -1.337989 1.736717 -0.008376 0.000050 -960482.000000 1 0 0
-6.856237 16.984957 1.548347 18.381897 -1.187134 1.486464 -0.001980 -0.002402 -266997.000000 1 0 0
0.109563 19.464357 -6.584653 20.548256 1.565168 1.896999 0.023945 -0.009816 178577.000000 1 0 0
4.714863 14.932857 7.147747 17.213670 1.264965 1.142593 0.009428 0.001303 -502487.000000 1 0 0
8.679163 12.361057 6.927647 16.616735 0.958637 1.140756 0.013249 -0.001022 594974.000000 1 0 0
-7.703637 17.528857 -5.488153 19.917999 -1.156723 1.849945 0.018181 -0.017366 455893.000000 1 0 0
-7.760337 17.832457 -1.385053 19.497121 -1.160334 1.641895 0.011671 -0.004733 196641.000000 1 0 0
-13.880437 -9.123243 9.102347 18.940772 0.581471 1.069493 0.019310 -0.010836 632658.000000 1 0 0
-12.710637 -12.886143 7.666347 19.656700 0.792255 1.170152 0.022967 -0.006157 105174.000000 1 0 0
-3.800037 -15.012443 12.401147 19.839410 1.322878 0.895567 -0.008133 -0.009340 -190917.000000 1 0 0
-2.179337 -14.116443 14.595847 20.422101 1.417623 0.774589 0.005447 -0.015178 -362172.000000 1 0 0
-6.762737 -13.790843 12.464047 19.780658 1.114875 0.889098 -0.003945 -0.016730 -106523.000000 1 0 0
-9.886437 -11.534743 8.893647 17.603662 0.862194 1.041164 0.006395 -0.006779 764503.000000 1 0 0
-10.643637 -10.653243 11.261447 18.804223 0.785849 0.928696 0.016451 -0.010954 461912.000000 1 0 0
-5.777037 -12.287643 10.609547 17.231449 1.131312 0.907512 0.002538 -0.011780 427785.000000 1 0 0
-12.670337 -10.339943 7.158647 17.852118 0.684466 1.158191 0.017426 -0.003628 -82719.400000 1 0 0
-7.543637 -11.333343 12.415847 18.425645 0.983523 0.831409 0.004399 -0.012266 1009110.000000 1 0 0
-14.905737 -11.530943 7.017947 20.109581 0.658429 1.214308 0.021164 -0.006246 -545719.000000 1 0 0
-11.214637 -9.270543 9.162947 17.195077 0.690779 1.008794 0.008727 -0.004180 785865.000000 1 0 0
-5.008937 -11.883943 13.093447 18.378137 1.171904 0.777817 -0.000610 -0.017276 -435301.000000 1 0 0
4.111463 -12.526143 14.668447 19.722366 -1.253645 0.732138 -0.007864 0.001332 109245.000000 1 0 0
6.652763 -12.631943 14.075447 20.048527 -1.086047 0.792498 0.012615 -0.000233 -222446.000000 1 0 0
6.784263 -8.427743 15.917947 19.246665 -0.893019 0.596958 0.009362 -0.008875 -107501.000000 1 0 0
0.661163 -1.800443 14.301447 14.429488 -1.218862 0.133317 0.003343 -0.003346 -796390.000000 1 0 0
-0.104737 -6.370243 15.527247 16.783515 1.554356 0.389369 0.010668 -0.009424 -558419.000000 1 0 0
-1.343537 -4.660643 18.315047 18.946441 1.290133 0.258890 0.015830 -0.017074 -4505600.000000 1 0 0
-4.993837 12.735457 13.071147 18.920495 -1.197101 0.808138 0.010800 -0.004783 -519177.000000 1 0 0
-4.141837 8.726557 11.606947 15.100623 -1.127654 0.694084 -0.002178 -0.003511 -341338.000000 1 0 0
-0.506037 -3.953643 15.013947 15.534026 1.443496 0.259494 0.006622 -0.004531 -602916.000000 1 0 0
-4.353637 9.276857 14.211747 17.521072 -1.132008 0.624726 0.004932 -0.011520 319362.000000 1 0 0
-13.350737 -2.301943 16.920247 21.675698 0.170742 0.675157 -0.005857 0.007783 -931021.000000 1 0 0
-0.369137 0.892257 17.320447 17.347342 -1.178525 0.055692 -0.001090 -0.003550 -251283.000000 1 0 0
-3.395437 -7.400243 15.380947 17.403049 1.140625 0.486857 0.007590 -0.014234 349907.000000 1 0 0
-7.357937 5.539457 12.620647 15.623877 -0.645326 0.630421 -0.003862 -0.001073 -3141510.000000 1 0 0
-9.776637 10.285957 13.422447 19.533193 -0.810779 0.813222 0.001451 -0.005046 242305.000000 1 0 0
-5.524137 2.236357 11.226247 12.710075 -0.384666 0.488035 -0.004797 0.003050 -3555800.000000 1 0 0
-7.148237 -7.575443 16.742347 19.717779 0.814405 0.556519 0.010179 -0.013661 -499332.000000 1 0 0
-4.837537 3.012557 18.550647 19.406281 -0.556977 0.298055 -0.006166 -0.010449 -1610360.000000 1 0 0
1.033163 -8.375743 16.506547 18.538786 -1.448065 0.472619 0.011310 -0.009693 692858.000000 1 0 0
-15.016737 -3.656643 13.793447 20.715516 0.238856 0.842163 0.012122 -0.007054 628654.000000 1 0 0
-14.273637 2.383157 13.228347 19.606257 -0.165436 0.830238 -0.006107 0.001619 -1639170.000000 1 0 0
-5.510637 0.921057 16.187347 17.124417 -0.165611 0.332349 0.000951 -0.001402 -66069.600000 1 0 0
4.545163 5.734957 15.241247 16.906917 0.900623 0.447620 -0.002278 0.001677 -349979.000000 1 0 0
-1.108537 -11.905843 13.756747 18.227069 1.477955 0.715535 -0.001088 -0.013007 -442571.000000 1 0 0
-5.830037 -4.169743 16.769647 18.237246 0.620866 0.403920 0.013689 -0.011043 -256144.000000 1 0 0
-12.939837 -1.506043 9.998647 16.421952 0.115867 0.916175 0.001772 0.002787 -680260.000000 1 0 0
-14.605637 10.392957 10.383347 20.715986 -0.618450 1.045784 0.003050 0.005331 377779.000000 1 0 0
-3.484637 -3.472443 17.691847 18.363061 0.783645 0.271209 0.009348 -0.011053 -603865.000000 1 0 0
-7.889737 9.502957 11.909147 17.157561 -0.877886 0.803621 0.000903 -0.003925 165751.000000 1 0 0
-4.144737 10.576757 16.389047 19.941100 -1.197316 0.606106 0.012548 -0.014185 179712.000000 1 0 0
-12.475537 12.669157 8.240747 19.597359 -0.793098 1.136797 -0.000141 -0.012902 235933.000000 1 0 0
-12.629337 3.135557 10.519047 16.732669 -0.243355 0.890976 0.000609 -0.003922 332406.000000 1 0 0
-10.197337 -3.439043 13.693647 17.416333 0.325271 0.666075 0.006174 0.000381 -814893.000000 1 0 0
-4.358437 -6.486343 17.625647 19.280354 0.979151 0.417325 0.017919 -0.017592 -779891.000000 1 0 0
0.895663 -3.768243 17.749347 18.167035 -1.337439 0.214850 0.015594 -0.016622 -841418.000000 1 0 0
-5.943737 1.818457 13.684447 15.029933 -0.296902 0.426354 -0.003190 0.003943 -1180030.000000 1 0 0
-10.500237 8.692357 10.286347 17.076914 -0.691479 0.924349 0.002951 -0.009892 73678.700000 1 0 0
4.458463 2.439357 17.296947 18.028109 0.500637 0.285776 0.010175 -0.006147 -1603450.000000 1 0 0
0.518363 -5.450343 13.177847 14.269919 -1.475975 0.393767 0.006209 -0.004400 -981072.000000 1 0 0
-3.947237 5.651657 20.700047 21.817741 -0.961131 0.321472 0.003796 -0.019012 -775323.000000 1 0 0
-10.679237 10.866857 8.933147 17.661704 -0.794106 1.040497 0.002749 -0.011946 182930.000000 1 0 0
0.688863 4.142957 13.013747 13.674656 1.406031 0.312171 0.003479 -0.003403 -1911270.000000 1 0 0
-3.217937 7.080357 13.367547 15.465377 -1.144216 0.526934 -0.003098 -0.004300 -1534470.000000 1 0 0
0.962763 8.912657 14.171447 16.768788 1.463192 0.564028 -0.006511 -0.002566 275676.000000 1 0 0
-4.232237 -6.728143 13.010047 15.246018 1.009301 0.548437 0.007562 -0.011457 359483.000000 1 0 0
-4.938437 8.207257 16.491047 19.070969 -1.029116 0.526204 0.004669 -0.008074 -9906.080000 1 0 0
1.594863 -10.810443 15.755947 19.174439 -1.424323 0.606380 -0.001956 -0.002740 -458003.000000 1 0 0
-15.256737 -1.152343 14.277847 20.927323 0.075387 0.819949 0.000193 0.001749 450773.000000 1 0 0
-13.554237 -5.345243 8.614247 16.926140 0.375635 1.036853 0.007513 0.000721 -471655.000000 1 0 0
-14.141937 -1.942143 12.186347 18.768947 0.136478 0.864156 0.005292 -0.003111 557008.000000 1 0 0
9.346863 1.253257 17.054347 19.488079 0.133288 0.505119 0.027271 -0.014889 199926.000000 1 0 0
5.094063 -6.726743 16.876347 18.868217 -0.922649 0.463636 0.012300 -0.012536 -49888.600000 1 0 0
-6.045037 -2.800643 11.064447 12.915420 0.433856 0.541988 -0.001774 0.001035 271184.000000 1 0 0
0.552963 -6.360543 17.966147 19.066848 -1.484078 0.341446 0.017087 -0.017934 -328171.000000 1 0 0
-8.273237 12.061357 12.115047 18.992028 -0.969576 0.879026 -0.001861 -0.008455 197934.000000 1 0 0
-6.635137 -5.814143 14.855747 17.277804 0.719546 0.535886 0.009846 -0.008591 -253759.000000 1 0 0
-4.457337 -8.931143 17.148647 19.842108 1.107887 0.527128 0.018103 -0.016823 129146.000000 1 0 0
2.508563 -6.231343 16.263647 17.596270 -1.188075 0.391686 0.011790 -0.009510 445528.000000 1 0 0
2.210763 5.163757 15.999547 16.956926 1.166277 0.337636 0.001689 -0.009475 -900334.000000 1 0 0
0.853663 -8.933043 14.002647 16.631359 -1.475523 0.569923 0.003490 -0.004668 -621878.000000 1 0 0
-9.878237 -2.787743 11.213547 15.201800 0.275057 0.741219 -0.009188 0.001913 -109328.000000 1 0 0
-1.181937 9.999957 12.480247 16.035980 -1.453148 0.678898 -0.005029 -0.005673 -131281.000000 1 0 0
-12.274037 -3.669443 11.377947 17.134015 0.290502 0.844566 0.003708 -0.000600 -773976.000000 1 0 0
-1.632337 6.517057 19.868647 20.973785 -1.325374 0.326070 0.006086 -0.024971 -820230.000000 1 0 0
0.007563 -13.260843 15.691647 20.544532 -1.570226 0.701636 -0.008255 -0.011447 -608582.000000 1 0 0
4.175363 -8.689543 15.348147 18.124774 -1.122867 0.560847 0.006806 -0.006018 -246678.000000 1 0 0
4.340563 -4.396943 16.272747 17.406202 -0.791851 0.362870 0.012103 -0.007814 -313478.000000 1 0 0
8.018463 1.715057 14.855847 16.968599 0.210713 0.504346 0.004302 -0.001546 -36149.400000 1 0 0
-6.237137 -0.201943 11.853847 13.396132 0.032366 0.484580 -0.001425 0.002942 188974.000000 1 0 0
-3.348637 -10.804343 18.330247 21.539386 1.270251 0.552890 0.017052 -0.017035 281823.000000 1 0 0
3.256763 -1.570643 13.487747 13.963980 -0.449364 0.261916 0.006193 -0.002807 851062.000000 1 0 0
-2.402437 8.584357 15.801747 18.142714 -1.297915 0.513625 0.006799 -0.014278 -1495210.000000 1 0 0
-3.318637 3.920457 14.892247 15.753169 -0.868342 0.332132 -0.004998 -0.001882 -1628710.000000 1 0 0
-4.574737 -8.971043 19.755147 22.173716 1.099225 0.471416 0.028521 -0.014864 -272563.000000 1 0 0
-5.655537 -3.185043 19.098647 20.171463 0.512900 0.327607 0.016308 -0.013004 -1210230.000000 1 0 0
-6.568037 -8.715043 11.045947 15.527525 0.924967 0.779339 0.005451 -0.008569 32323.900000 1 0 0
-11.747137 2.594157 12.733147 17.517360 -0.217345 0.757018 0.005111 -0.006149 -301582.000000 1 0 0
-11.593237 -7.413543 11.487547 17.925610 0.568938 0.875197 0.006553 -0.007051 812264.000000 1 0 0
-11.129037 -7.326843 15.467347 20.415115 0.582225 0.711104 0.025944 -0.014894 359370.000000 1 0 0
0.128363 5.604157 17.670447 18.538278 1.547895 0.307190 0.004091 -0.014662 146892.000000 1 0 0
-2.351837 -0.227143 13.206447 13.416146 0.096283 0.177038 -0.004359 0.003344 -149332.000000 1 0 0
-6.010737 -10.647543 18.266147 21.980702 1.056875 0.589878 0.016277 -0.008150 -1274110.000000 1 0 0
0.198763 2.732857 19.176247 19.371021 1.498193 0.141928 0.002376 -0.012136 -341459.000000 1 0 0
-0.714037 10.764057 14.957447 18.441800 -1.504558 0.624831 0.002405 -0.008938 -678868.000000 1 0 0
-12.792437 -2.186143 14.329847 19.333137 0.169258 0.735930 0.011270 -0.002010 -1122710.000000 1 0 0
-13.680437 8.364657 11.849747 19.938364 -0.548783 0.934378 0.011216 -0.009031 -67603.400000 1 0 0
-18.035237 -0.601743 7.125147 19.401021 0.033352 1.194739 0.031875 -0.016742 516923.000000 1 0 0
-2.116737 -7.819443 17.627847 19.400135 1.306430 0.430767 0.013538 -0.017950 -1571310.000000 1 0 0
5.599863 2.526657 14.462047 15.712837 0.423851 0.401702 0.004496 -0.000173 -2653310.000000 1 0 0
-14.236137 -7.078743 11.205547 19.450977 0.461435 0.956857 0.023787 -0.001714 782775.000000 1 0 0
3.158263 7.685857 16.336447 18.328298 1.180913 0.470540 -0.005308 -0.010059 -629783.000000 1 0 0
0.977863 2.120057 14.645047 14.829978 1.138632 0.158089 0.004652 -0.007332 -1671120.000000 1 0 0
-14.276637 0.794457 9.780847 17.323929 -0.055590 0.970865 0.000604 -0.004491 -3196250.000000 1 0 0
-9.585537 -5.180043 15.418947 18.880130 0.495444 0.615169 0.008172 -0.005471 -269787.000000 1 0 0
-2.659737 -0.123343 18.099547 18.294344 0.046341 0.146061 -0.001732 -0.007341 -44313.800000 1 0 0
6.645263 3.742957 17.544247 19.130338 0.512960 0.410077 0.011585 -0.006846 -76809.400000 1 0 0
-4.223337 -1.036043 14.940447 15.560428 0.240563 0.283234 0.003905 0.002866 203665.000000 1 0 0
4.983963 -9.009043 17.800247 20.563354 -1.065486 0.524390 0.014121 -0.001009 -325794.000000 1 0 0
1.923863 6.827457 13.418847 15.178302 1.296135 0.486273 -0.000682 -0.000710 -799349.000000 1 0 0
-3.861937 -0.909443 20.311947 20.695817 0.231275 0.192903 0.005917 -0.008321 -1192600.000000 1 0 0
-10.678637 1.635857 16.328747 19.579001 -0.152008 0.584491 0.004565 0.002212 -205281.000000 1 0 0
-3.744737 7.075757 18.454947 20.116522 -1.084035 0.409293 0.004585 -0.012116 -556708.000000 1 0 0
-12.602037 1.126157 14.717147 19.408091 -0.089126 0.710096 0.005569 0.001122 -757666.000000 1 0 0
-16.000237 -4.636743 8.404147 18.658421 0.282066 1.103559 0.017985 -0.006298 -1519790.000000 1 0 0
-2.407337 0.720357 15.663247 15.863527 -0.290754 0.159071 -0.003519 -0.000469 41129.400000 1 0 0
-13.267137 -8.971443 12.820947 20.515370 0.594584 0.895737 -0.015197 -0.006418 522510.000000 1 0 0
6.100563 -3.109043 14.641147 16.163112 -0.471324 0.437445 0.012860 -0.009322 875774.000000 1 0 0
-15.715037 0.624657 7.603847 17.469147 -0.039728 1.120455 0.008524 -0.010289 256928.000000 1 0 0
-14.039437 5.840457 12.519047 19.696275 -0.394226 0.882005 0.008482 -0.011163 -200904.000000 1 0 0
0.598463 9.363057 16.761147 19.208358 1.506966 0.510303 -0.003246 -0.016516 -481492.000000 1 0 0
-10.259437 -5.421043 10.760547 15.825079 0.486105 0.823077 -0.000337 -0.005316 -78354.500000 1 0 0
-3.184437 -10.986743 15.192947 19.017750 1.288683 0.645361 0.005924 -0.009589 -557476.000000 1 0 0
-3.590337 2.633857 12.647747 13.408699 -0.632920 0.338514 -0.003809 0.001295 -2051200.000000 1 0 0
-12.397437 -7.801543 7.376647 16.400471 0.561676 1.104274 0.008619 -0.001013 -378768.000000 1 0 0
-8.218837 -1.955943 13.282847 15.741951 0.233637 0.566496 0.000284 0.003132 -409981.000000 1 0 0
-9.754537 6.434057 9.596047 15.120589 -0.583092 0.883261 0.001654 -0.003436 -122490.000000 1 0 0
-17.829537 -3.587043 6.564747 19.335335 0.198535 1.224389 0.018829 -0.006119 448691.000000 1 0 0
-1.541037 -0.029243 20.534247 20.592012 0.018974 0.074920 0.001717 -0.006711 -995713.000000 1 0 0
-2.958037 2.449457 20.083147 20.447068 -0.691623 0.188951 0.006269 -0.016182 -668060.000000 1 0 0
-3.757937 11.230457 11.299847 16.368622 -1.247888 0.808843 0.004095 -0.007055 -617738.000000 1 0 0
-4.128037 -4.930643 14.891847 16.220944 0.873768 0.407630 0.008181 -0.009923 1469810.000000 1 0 0
-0.069137 -14.303343 13.194147 19.459597 1.565963 0.825720 -0.007125 -0.010649 -1928090.000000 1 0 0
-12.029337 0.416657 8.479447 14.723436 -0.034623 0.957073 -0.001709 -0.000903 -506710.000000 1 0 0
-7.695237 1.888557 15.611447 17.507158 -0.240662 0.469670 -0.003146 0.004074 -1772180.000000 1 0 0
3.356963 -2.313343 18.437547 18.882899 -0.603385 0.217616 0.024861 -0.014469 -375657.000000 1 0 0
-2.053337 4.821557 12.686547 13.726328 -1.168192 0.391732 -0.005533 -0.001985 -1366290.000000 1 0 0
-10.268137 -6.184943 13.223947 17.848275 0.542141 0.736374 0.000370 -0.009179 -554121.000000 1 0 0
2.420363 -3.837343 14.247847 14.952742 -1.008081 0.308275 0.004961 -0.004252 -315818.000000 1 0 0
6.637663 1.107057 17.055447 18.335005 0.165263 0.375806 0.011541 -0.011045 -767705.000000 1 0 0
-1.922037 -5.921043 13.802647 15.141534 1.256916 0.423697 0.004344 -0.007597 -1463100.000000 1 0 0
-12.807837 3.759657 14.770847 19.908632 -0.285523 0.734849 -0.006433 0.005438 96413.500000 1 0 0
-13.205837 -6.451943 13.497247 19.954884 0.454460 0.827949 -0.002110 -0.009329 -458275.000000 1 0 0
-9.444737 6.890357 11.981347 16.740154 -0.630281 0.773135 -0.002512 -0.002059 -188501.000000 1 0 0
-1.208437 -2.569343 12.830947 13.141348 1.131166 0.217779 0.000465 0.001508 507812.000000 1 0 0
0.195863 6.721657 15.341447 16.750493 1.541666 0.413101 0.000276 -0.009804 372173.000000 1 0 0
-16.293137 -0.769143 9.825947 19.042246 0.047172 1.028613 0.011947 -0.003988 69206.600000 1 0 0
-1.340037 2.676657 13.738547 14.060863 -1.106638 0.214528 -0.003980 -0.001448 -1704660.000000 1 0 0
-11.170437 -3.329743 16.203447 19.960399 0.289699 0.623603 0.011070 -0.006150 -580009.000000 1 0 0
-5.234537 -1.596743 17.227347 18.075714 0.296074 0.307590 0.011618 -0.000002 447273.000000 1 0 0
-11.905537 6.600057 11.120647 17.577581 -0.506191 0.885812 0.010784 -0.005684 -1324890.000000 1 0 0
-2.808837 4.634057 18.675347 19.445632 -1.025882 0.282406 0.005769 -0.016274 106466.000000 1 0 0
5.013663 -1.852843 16.569347 17.410143 -0.353992 0.312049 0.016671 -0.011137 -254809.000000 1 0 0
-8.012737 -4.156543 12.171047 15.153059 0.478529 0.638136 0.003384 -0.002555 -1609710.000000 1 0 0
-11.595537 -0.734543 16.170847 19.912115 0.063263 0.623036 0.016694 0.002036 -1673.680000 1 0 0
1.957863 2.077657 17.464847 17.696631 0.815074 0.162027 0.003834 -0.007830 -1074740.000000 1 0 0
-8.898437 -7.546843 11.532647 16.405456 0.703395 0.791223 0.005721 -0.006599 310838.000000 1 0 0
-7.164537 6.818257 14.876347 17.864068 -0.760638 0.586736 -0.004906 -0.003883 -509320.000000 1 0 0
-5.659637 3.461357 15.765147 17.104161 -0.548895 0.398320 -0.003641 -0.001823 -76109.000000 1 0 0
-9.324537 4.259157 11.624947 15.499252 -0.428468 0.722685 0.001818 -0.003152 75334.300000 1 0 0
-10.194837 0.138057 14.187147 17.470801 -0.013541 0.623142 0.007862 -0.000632 -309283.000000 1 0 0
8.042163 -0.664043 15.943947 17.869717 -0.082383 0.468531 0.012914 -0.009204 340408.000000 1 0 0
-8.644537 -7.451243 14.624347 18.550487 0.711396 0.662668 0.013573 -0.009385 -3270490.000000 1 0 0
-0.244737 4.259557 15.524647 16.100260 -1.513403 0.268205 0.001775 -0.011612 -288296.000000 1 0 0
-8.049237 2.980857 9.694047 12.947983 -0.354668 0.724710 -0.005728 0.000783 -521145.000000 1 0 0
-2.226737 -9.662043 13.185447 16.497559 1.344289 0.644773 -0.001968 -0.006612 531787.000000 1 0 0
-5.997637 10.297357 10.555247 15.919185 -1.043385 0.845908 0.007778 -0.006851 -1559910.000000 1 0 0
-8.628137 -2.873643 15.713447 18.155302 0.321500 0.524645 0.008816 -0.005191 -126856.000000 1 0 0
3.965063 5.669957 17.812147 19.108707 0.960533 0.370495 0.007812 -0.009513 -41295.500000 1 0 0
-6.801637 -1.056943 15.290347 16.768247 0.154162 0.422996 -0.001518 0.002759 -1121130.000000 1 0 0
-0.897737 -9.912343 15.458247 18.385262 1.480475 0.572045 -0.000578 -0.008274 -435367.000000 1 0 0
-4.265037 5.827357 16.235247 17.768845 -0.938981 0.418519 0.000890 -0.009150 286997.000000 1 0 0
3.557663 0.058757 17.539747 17.897015 0.016514 0.200146 0.008906 -0.007703 -495062.000000 1 0 0
1.152463 0.387057 19.384947 19.423031 0.324015 0.062633 0.006629 -0.003679 -337678.000000 1 0 0
-6.297337 6.392057 17.843747 19.972835 -0.792862 0.465937 -0.007570 -0.005983 417054.000000 1 0 0
-12.166137 0.641557 11.132847 16.503538 -0.052684 0.830410 0.003764 -0.000785 -366451.000000 1 0 0
-5.263837 5.127357 13.907647 15.729603 -0.772265 0.486081 -0.003530 -0.000183 -1636810.000000 1 0 0
-8.636037 -9.504343 9.898847 16.214218 0.833228 0.914099 0.008166 -0.006638 117982.000000 1 0 0
6.724863 -3.684643 17.122647 18.761274 -0.501240 0.421053 0.006248 -0.012611 -802098.000000 1 0 0
-16.588537 1.801557 9.794147 19.348139 -0.108179 1.040016 0.012966 -0.010024 -199045.000000 1 0 0
-4.087137 -9.669543 11.275647 15.406004 1.170891 0.749691 0.000152 -0.010001 -1141390.000000 1 0 0
-11.032137 -3.851843 9.126147 14.826709 0.335915 0.907750 -0.002245 0.003558 -289137.000000 1 0 0
3.562463 -5.502643 18.608047 19.728903 -0.996244 0.338701 0.017522 -0.007636 -267064.000000 1 0 0
2.391663 -1.811043 16.057947 16.335776 -0.648114 0.184694 0.008048 -0.006371 -209039.000000 1 0 0
-3.100937 -4.514143 20.121847 20.853825 0.968891 0.265736 0.015112 -0.013868 -870829.000000 1 0 0
-6.262437 -3.363643 14.372847 16.034679 0.492896 0.459307 0.002048 -0.001362 653180.000000 1 0 0
-9.644037 5.181557 13.912247 17.703293 -0.493026 0.666717 0.003787 0.000288 207548.000000 1 0 0
-5.893737 -5.311943 11.629247 14.078077 0.733525 0.598727 0.000854 -0.002446 -599636.000000 1 0 0
6.014963 1.950357 19.413947 20.417762 0.313554 0.314871 0.025879 -0.016065 -124931.000000 1 0 0
-2.603937 11.780257 13.527947 18.126232 -1.353252 0.728282 0.013684 -0.018824 -1792880.000000 1 0 0
3.251363 1.346057 15.249347 15.650105 0.392515 0.226793 0.004463 -0.004612 -1346970.000000 1 0 0
-5.721837 7.480057 12.932347 15.998008 -0.917798 0.629415 -0.004488 -0.006643 -1096710.000000 1 0 0
-1.806637 -1.732743 15.229947 15.434300 0.764524 0.162908 0.002883 -0.001274 -612624.000000 1 0 0
-7.206437 10.646457 14.139047 19.110008 -0.975752 0.737910 0.013882 -0.011772 291084.000000 1 0 0
-10.100837 2.033957 10.718747 14.867933 -0.198708 0.765652 0.001364 -0.000858 -433897.000000 1 0 0
-13.721237 5.197057 9.235947 17.337372 -0.362063 1.008986 -0.002824 -0.005260 28420.500000 1 0 0
0.567563 -4.729943 20.042447 20.600829 -1.451374 0.233359 0.020275 -0.015556 -382863.000000 1 0 0
-14.322537 -2.989143 7.565847 16.471554 0.205749 1.093558 0.004083 -0.003368 -150686.000000 1 0 0
-2.492337 2.431557 17.515647 17.858390 -0.773055 0.196235 -0.006853 -0.008211 31595.600000 1 0 0
-6.246937 -8.433743 14.543547 17.935078 0.933269 0.625109 0.007453 -0.009571 64343.400000 1 0 0
-7.956537 1.855457 12.068547 14.573916 -0.229105 0.595100 -0.003767 0.001713 805286.000000 1 0 0
-14.597037 -3.528943 10.178047 18.141653 0.237206 0.975164 0.009453 -0.004094 1148650.000000 1 0 0
-0.633537 7.101757 12.904347 14.743082 -1.481823 0.504779 -0.001229 -0.002927 -50957.600000 1 0 0
-1.789837 -2.323143 19.395947 19.616403 0.914343 0.150063 0.006871 -0.005153 813512.000000 1 0 0
-12.816237 10.272857 7.441947 18.032473 -0.675685 1.145383 -0.000319 -0.008738 330501.000000 1 0 0
-19.649137 2.073657 6.645447 20.845878 -0.105145 1.246344 0.046540 -0.027063 784228.000000 1 0 0
-16.240837 8.252357 6.994747 19.513910 -0.470126 1.204190 0.014983 0.010462 202771.000000 1 0 0
-12.290337 7.327557 13.685547 19.799992 -0.537624 0.807663 0.010378 -0.002915 72856.200000 1 0 0
-15.909637 8.166957 10.602247 20.789983 -0.474258 1.035648 0.005512 -0.003268 -1189010.000000 1 0 0
1.886563 11.033057 15.133447 18.823089 1.401442 0.636833 -0.010747 -0.008681 -501993.000000 1 0 0
2.241063 14.438757 12.776247 19.409599 1.416813 0.852313 -0.005500 0.002127 -922271.000000 1 0 0
-2.984737 13.654857 11.803247 18.294272 -1.355597 0.869527 -0.001954 -0.005483 282070.000000 1 0 0
9.153263 4.838957 15.821947 18.908509 0.486311 0.579451 0.013632 0.003525 -59906.400000 1 0 0
-0.132637 12.416857 13.033447 18.001851 -1.560115 0.761204 -0.002138 -0.006360 145846.000000 1 0 0
3.691763 13.270357 14.752147 20.183095 1.299461 0.751133 -0.008678 0.004114 -277403.000000 1 0 0
-2.839837 -4.032943 -13.802353 14.657226 0.957284 2.798372 0.001515 -0.003709 -273955.000000 1 0 0
5.967863 -11.514643 16.231447 20.776483 -1.092628 0.674144 0.003029 0.000280 189376.000000 1 0 0
7.884663 -13.566543 7.193147 17.261528 -1.044327 1.140967 -0.007988 0.000869 -185084.000000 1 0 0
-0.136937 15.557757 1.366847 15.618285 -1.561995 1.483168 -0.000600 -0.002756 -2075220.000000 1 0 0
-13.764837 8.278657 9.200547 18.510996 -0.541474 1.050622 0.001555 0.001641 345671.000000 1 0 0
-15.405037 -9.723443 4.676947 18.807827 0.563035 1.319489 0.002580 -0.000876 -2006620.000000 1 0 0
9.509963 -11.133043 11.132847 18.393595 -0.863863 0.920708 0.001099 -0.004188 240431.000000 1 0 0
-5.361837 -10.740843 -16.895853 20.726429 1.107788 2.523843 0.006944 -0.005710 49480.800000 1 0 0
-2.091037 -12.624143 -14.955453 19.682658 1.406649 2.433846 0.009015 0.000337 -24011.800000 1 0 0
5.585763 -15.872943 -11.956253 20.642264 -1.232426 2.188558 0.021617 0.001198 226706.000000 1 0 0
2.709363 -11.946943 -16.556753 20.596023 -1.347786 2.504588 0.030363 -0.009801 286136.000000 1 0 0
0.664363 -14.031843 -14.715753 20.344223 -1.523485 2.379421 0.027253 0.009618 223494.000000 1 0 0
-6.630237 -5.840443 -14.730253 17.177054 0.722151 2.601292 0.006420 0.003277 44516.800000 1 0 0
-6.215037 -8.039343 -17.255353 20.025108 0.912688 2.609379 0.000568 -0.003145 25612.500000 1 0 0
-2.584037 -16.254543 -13.423553 21.238625 1.413142 2.254973 0.011758 -0.000541 404220.000000 1 0 0
16.048163 -7.936543 -9.604753 20.317075 -0.459274 2.063197 0.009852 -0.006098 35419.000000 1 0 0
19.031963 -2.983243 -3.673953 19.611560 -0.155484 1.759246 0.015196 -0.009018 143605.000000 1 0 0
15.953863 -11.572743 -8.783153 21.577718 -0.627563 1.990016 0.037343 -0.014240 364766.000000 1 0 0
18.711463 -3.198143 -6.602053 20.098111 -0.169283 1.905502 0.141865 -0.002783 -328056.000000 1 0 0
9.318363 -9.872743 -15.975853 20.964991 -0.814278 2.437231 0.050321 0.000099 75728.000000 1 0 0
-4.700037 9.554457 -15.997853 19.217422 -1.113633 2.554340 0.009571 -0.006435 356696.000000 1 0 0
2.378863 -9.798743 -18.727053 21.269153 -1.332632 2.647669 0.028321 0.004772 232894.000000 1 0 0
11.201863 7.982557 -15.082053 20.412527 0.619139 2.402177 0.021920 -0.029214 377514.000000 1 0 0
18.407363 -6.901443 -8.265753 21.325656 -0.358708 1.968819 0.012827 -0.000654 121011.000000 1 0 0
12.362463 5.320857 -13.609553 19.140584 0.406439 2.361760 0.004750 -0.011215 167871.000000 1 0 0
16.072463 6.007357 -11.231153 20.507345 0.357689 2.150367 0.011693 0.003406 341615.000000 1 0 0
3.123363 -0.181143 -19.126853 19.381040 -0.057931 2.979457 0.025369 -0.007589 261009.000000 1 0 0
10.414563 -1.795043 -14.601353 18.024561 -0.170682 2.515086 0.015932 -0.008276 172566.000000 1 0 0
12.392063 -5.902243 -13.919453 19.548680 -0.444502 2.363197 0.021901 -0.006296 107896.000000 1 0 0
10.065463 6.732557 -12.949953 17.729697 0.589531 2.389719 0.008302 -0.002743 325119.000000 1 0 0
10.467563 5.443057 -16.094453 19.955655 0.479514 2.509023 0.002705 -0.014308 343476.000000 1 0 0
11.659963 -10.542443 -15.156253 21.835976 -0.735107 2.337959 0.018269 -0.007878 246536.000000 1 0 0
-1.352837 2.134657 -17.466053 17.647945 -1.005930 2.997896 0.000506 -0.002661 275195.000000 1 0 0
6.916963 -0.942243 -17.425953 18.772215 -0.135389 2.760569 0.028148 0.013218 149860.000000 1 0 0
7.275663 -6.683443 -15.891753 18.712336 -0.742998 2.585390 0.020017 0.000385 355779.000000 1 0 0
-2.116937 -4.779543 -20.328053 20.989407 1.153849 2.889895 0.015967 -0.026125 70922.100000 1 0 0
16.005563 -0.309143 -13.447553 20.907183 -0.019312 2.269470 0.003419 0.001010 43106.100000 1 0 0
-4.016737 -0.209943 -18.403253 18.837675 0.052220 2.926416 -0.002517 -0.006673 258029.000000 1 0 0
3.509963 8.761857 -17.769653 20.120898 1.189776 2.653319 0.004008 -0.010980 85720.200000 1 0 0
10.201263 0.415457 -16.782453 19.644060 0.040704 2.595051 0.029329 -0.019241 -90211.000000 1 0 0
4.216663 4.597857 -18.179353 19.220026 0.828617 2.811014 0.010800 -0.006852 431122.000000 1 0 0
-2.933637 -10.949343 -18.109953 21.365036 1.309017 2.582326 0.025821 -0.019491 237123.000000 1 0 0
7.007663 -9.401643 -15.472353 19.413705 -0.930268 2.493077 0.044995 -0.023155 118102.000000 1 0 0
10.108063 -12.261943 -10.673953 19.143183 -0.881387 2.162270 0.008993 -0.008760 185512.000000 1 0 0
6.275463 6.897957 -16.886553 19.290384 0.832617 2.637032 0.008555 -0.012634 438858.000000 1 0 0
8.863063 1.686757 -20.012453 21.952160 0.188064 2.718052 0.035419 -0.006288 143310.000000 1 0 0
-0.936437 -0.969443 -20.281153 20.325893 0.802714 3.075231 0.016222 -0.008993 243668.000000 1 0 0
-0.956937 6.994257 -19.551753 20.787169 -1.434823 2.795096 0.009385 -0.000294 165061.000000 1 0 0
8.529663 5.484557 -18.428753 21.034601 0.571437 2.638542 0.004815 -0.007491 79682.500000 1 0 0
12.115663 -0.176043 -13.164753 17.892205 -0.014529 2.397616 -0.001554 -0.001705 101426.000000 1 0 0
-4.246537 -2.414543 -19.840953 20.433466 0.517004 2.900187 -0.010886 -0.008424 595747.000000 1 0 0
5.055463 -11.529043 -14.366453 19.101610 -1.157549 2.422050 -0.008327 -0.004907 -370028.000000 1 0 0
11.644463 2.779457 -15.790853 19.815901 0.234309 2.492906 0.026155 -0.002049 12847.800000 1 0 0
-2.667437 -4.471543 -17.199653 17.970476 1.032928 2.847640 -0.011460 -0.002821 131354.000000 1 0 0
-6.778737 -4.692443 -17.364953 19.222693 0.605492 2.698330 0.009590 -0.010549 146582.000000 1 0 0
3.133863 10.585357 -15.549653 19.069939 1.282961 2.524218 -0.000794 -0.003160 229151.000000 1 0 0
17.265463 -6.313343 -10.827953 21.335395 -0.350560 2.103090 0.043059 -0.015380 -210598.000000 1 0 0
9.672163 -3.399943 -17.580853 20.351824 -0.338027 2.613652 0.014675 -0.008947 127540.000000 1 0 0
-7.118137 -1.624443 -19.009753 20.363630 0.224369 2.774891 -0.006824 0.006789 526777.000000 1 0 0
1.638763 -7.506043 -19.333353 20.803961 -1.355844 2.763340 0.027631 -0.020449 343728.000000 1 0 0
5.838163 10.046657 -14.159453 18.316920 1.044386 2.454394 0.004519 -0.013758 454528.000000 1 0 0
6.049363 -3.747043 -18.088753 19.438058 -0.554570 2.766802 0.027661 -0.011674 508183.000000 1 0 0
4.786263 13.174257 -14.726253 20.330565 1.222319 2.380874 0.003883 -0.011330 168262.000000 1 0 0
8.990963 11.149957 -15.390353 21.024317 0.892185 2.392088 0.014974 -0.017598 149374.000000 1 0 0
17.213363 0.962357 -11.596453 20.777481 0.055849 2.162922 0.024167 0.009453 182467.000000 1 0 0
15.361563 -2.830143 -12.120953 19.771313 -0.182192 2.230721 0.020667 -0.006902 88220.700000 1 0 0
-8.572837 0.439357 -17.521253 19.511045 -0.051205 2.686038 0.003559 -0.007010 437071.000000 1 0 0
-3.747337 4.203257 -18.968353 19.786569 -0.842679 2.853009 0.015135 -0.005535 195649.000000 1 0 0
3.788563 1.572357 -17.137853 17.621905 0.393393 2.906665 0.008477 0.003010 725058.000000 1 0 0
-5.078137 14.429557 -13.818953 20.614632 -1.232407 2.305472 0.016110 -0.002342 63187.100000 1 0 0
1.051063 9.655057 -17.612453 20.112766 1.462362 2.637649 0.011860 0.000512 391871.000000 1 0 0
1.102263 -5.215343 -20.327553 21.014857 -1.362512 2.885134 0.025729 0.004843 523537.000000 1 0 0
3.758963 -6.141343 -17.971953 19.360708 -1.021545 2.760529 0.032854 -0.024473 -95501.700000 1 0 0
-7.214437 7.271957 -15.952453 18.958118 -0.789369 2.570772 -0.007242 0.003347 84024.000000 1 0 0
-11.569837 3.334957 -16.879953 20.734413 -0.280639 2.521980 0.013931 -0.014575 155080.000000 1 0 0
-4.288737 6.946257 -17.612453 19.412425 -1.017668 2.707560 0.003503 0.021695 463924.000000 1 0 0
-8.032137 5.067657 -17.652053 20.044734 -0.562847 2.647993 -0.000235 -0.009192 153248.000000 1 0 0
-8.445037 4.882957 -15.157053 18.024932 -0.524239 2.569729 -0.013508 -0.010865 510406.000000 1 0 0
9.442563 13.749057 -12.853953 21.057603 0.968999 2.227385 0.018019 -0.013210 206779.000000 1 0 0
14.383763 8.810657 -11.911653 20.649644 0.549590 2.185658 0.039266 -0.014373 70290.400000 1 0 0
8.944963 15.483257 -10.013053 20.494019 1.046921 2.081263 0.015003 -0.010861 143738.000000 1 0 0
7.972863 13.706757 -14.503453 21.489343 1.043961 2.311644 0.018164 -0.012330 58246.100000 1 0 0
4.292563 15.768557 -13.046553 20.911385 1.305014 2.244516 0.014154 -0.009942 165103.000000 1 0 0
11.045363 11.570657 -10.886153 19.349120 0.808621 2.168345 0.017609 -0.019782 257240.000000 1 0 0
16.179363 10.574657 -9.873353 21.704337 0.578894 2.043059 0.043855 -0.006965 408130.000000 1 0 0
13.193763 11.313557 -9.822253 19.963682 0.708828 2.085189 0.030726 -0.005629 89259.200000 1 0 0
10.591963 11.577657 -7.212653 17.270037 0.829830 2.001642 0.008151 -0.003749 50316.900000 1 0 0
5.878663 17.148757 -10.156153 20.779460 1.240547 2.081463 0.046427 -0.005719 95062.500000 1 0 0
11.820563 13.682457 -10.255053 20.787050 0.858276 2.086720 0.048766 -0.021450 146645.000000 1 0 0
7.852263 -19.326343 -1.857753 20.943181 -1.184872 1.659618 0.011333 -0.004651 79974.900000 1 0 0
6.957163 -16.446343 -3.846953 18.267002 -1.170602 1.782981 0.002259 -0.019413 325262.000000 1 0 0
3.879763 -19.125243 5.820347 20.364281 -1.370651 1.280943 0.028911 -0.003321 221727.000000 1 0 0
10.103763 -18.003243 -2.639553 20.812737 -1.059380 1.697963 0.012103 0.001082 528333.000000 1 0 0
-3.203037 -14.778343 7.861147 17.042785 1.357359 1.091382 0.008601 -0.032578 21954.600000 1 0 0
-15.286437 -12.586643 -4.018853 20.205196 0.688839 1.771034 0.000307 -0.011047 80628.100000 1 0 0
-9.662537 -12.388943 -7.356653 17.348513 0.908412 2.008710 0.025027 -0.013437 236861.000000 1 0 0
-11.451837 -15.446243 6.883047 20.423206 0.932822 1.227045 0.011138 -0.000930 162103.000000 1 0 0
-15.657137 -8.012743 -8.362453 19.475129 0.473014 2.014615 0.065475 -0.009484 26911.800000 1 0 0
4.895963 -15.085443 6.288547 17.061268 -1.256973 1.193309 0.012570 -0.009382 173562.000000 1 0 0
2.889963 -14.189343 9.032347 17.066711 -1.369873 1.013094 0.008765 -0.003516 300025.000000 1 0 0
3.016663 -17.793343 9.754247 20.514596 -1.402854 1.075289 0.010078 0.003608 88275.300000 1 0 0
-7.445837 -17.143843 -5.600953 19.512113 1.161062 1.861942 -0.025772 -0.011914 -217819.000000 1 0 0
1.894463 -19.743343 -3.952253 20.223968 -1.475135 1.767486 0.005360 -0.013745 107582.000000 1 0 0
-17.133237 -10.813943 -2.702353 20.439959 0.563022 1.703394 -0.080596 -0.008656 -254293.000000 1 0 0
-4.267237 -14.957643 2.893047 15.821192 1.292891 1.386903 0.000166 -0.000351 143055.000000 1 0 0
-10.828037 -10.142643 -14.708453 20.891582 0.752726 2.351863 0.007564 0.006107 249338.000000 1 0 0
0.732663 -20.518143 2.740547 20.713319 -1.535103 1.438099 0.011996 -0.000395 292221.000000 1 0 0
5.467663 -18.801843 0.895147 19.601172 -1.287797 1.525112 -0.000124 0.012298 252305.000000 1 0 0
-7.544237 -18.924943 -3.690253 20.704757 1.191463 1.749986 -0.007552 -0.013522 88409.600000 1 0 0
-9.535137 -15.422843 -7.782853 19.732099 1.017067 1.976239 0.029897 -0.013133 150341.000000 1 0 0
-11.682137 -11.264343 -12.433653 20.443911 0.767193 2.224567 -0.004115 0.008678 471331.000000 1 0 0
-13.372937 -15.067143 -3.642853 20.472534 0.844899 1.749688 0.006790 -0.004093 41462.000000 1 0 0
-0.498937 -20.521343 -2.829153 20.721452 1.546488 1.707757 0.005997 -0.007739 517693.000000 1 0 0
-11.701237 -17.182143 -0.936753 20.809193 0.972928 1.615828 0.006928 0.015191 -135276.000000 1 0 0
0.774063 -20.122243 5.320347 20.828105 -1.532347 1.312493 0.019757 -0.013949 270426.000000 1 0 0
-18.301237 -9.545943 2.230147 20.761355 0.480779 1.463171 0.018257 0.007764 27382.200000 1 0 0
-15.002437 -14.947243 -0.693153 21.188999 0.783555 1.603515 0.012715 0.001534 -21465.700000 1 0 0
10.337563 -15.286443 -5.466553 19.246396 -0.976184 1.858791 0.013828 -0.006923 -143806.000000 1 0 0
-0.299937 -19.102143 -6.945253 20.327774 1.555096 1.919482 -0.000856 -0.012843 190097.000000 1 0 0
-10.016037 -17.157143 -3.092653 20.106046 1.042387 1.725227 0.013746 0.005042 605170.000000 1 0 0
-14.468637 -6.314043 -11.443853 19.497959 0.411483 2.198053 0.004499 -0.006788 -23881.500000 1 0 0
-12.692037 -14.645743 1.622547 19.447835 0.856742 1.487269 0.020991 -0.013613 231010.000000 1 0 0
-2.367237 -16.272343 9.896747 19.192149 1.426334 1.029011 -0.006404 -0.015824 465333.000000 1 0 0
-12.479937 -14.267643 -6.539153 20.051808 0.852135 1.902985 0.011255 -0.010535 287422.000000 1 0 0
5.807563 -17.056443 -6.735453 19.235810 -1.242618 1.928529 0.017013 -0.014350 43436.100000 1 0 0
-17.891037 -7.304443 -2.800553 19.526577 0.387619 1.714715 0.002852 -0.006314 10780.100000 1 0 0
-12.711937 -13.411643 -9.176753 20.631974 0.812176 2.031728 0.046837 -0.025875 188319.000000 1 0 0
-7.795837 -13.973343 9.794447 18.760613 1.061902 1.021514 0.008725 -0.006688 683954.000000 1 0 0
-15.777137 -7.916743 -5.772653 18.571925 0.465075 1.886859 0.006534 -0.004996 293283.000000 1 0 0
-0.796837 -19.624043 -0.274353 19.642131 1.530213 1.584764 0.004116 -0.005056 178904.000000 1 0 0
-15.016537 -11.298243 -1.726253 18.871318 0.645027 1.662399 -0.002984 -0.004513 103191.000000 1 0 0
-6.995237 -18.894943 0.983847 20.172263 1.216225 1.522005 -0.008471 -0.000569 93940.100000 1 0 0
-2.282537 -20.944843 -5.105153 21.678538 1.462246 1.808523 -0.000409 -0.007854 39593.100000 1 0 0
-8.958037 -19.591743 -0.793753 21.557200 1.141942 1.607625 0.000682 0.008014 108026.000000 1 0 0
-17.586337 -7.796843 5.054847 19.890236 0.417307 1.313841 0.007274 -0.000318 23060.000000 1 0 0
-2.717237 -15.774743 -10.892553 19.361653 1.400218 2.168304 0.010037 -0.000399 207112.000000 1 0 0
-3.086537 -17.960343 -8.906153 20.283496 1.400606 2.025375 -0.004498 -0.005788 192609.000000 1 0 0
3.818463 -18.065443 -6.248053 19.493052 -1.362494 1.897082 -0.000791 0.035105 317775.000000 1 0 0
0.776063 -17.451843 -8.943353 19.625307 -1.526357 2.043961 0.008216 -0.002265 5853.720000 1 0 0
-7.639237 -9.995243 -14.918453 19.514689 0.918214 2.441020 0.001893 -0.000292 435570.000000 1 0 0
-5.011437 -19.501643 -1.668153 20.204241 1.319264 1.653455 -0.005883 -0.004128 393445.000000 1 0 0
-8.933737 -15.803043 8.519647 20.053235 1.056269 1.131998 -0.020993 -0.005399 308166.000000 1 0 0
-7.072637 -15.392243 -10.326053 19.838617 1.140076 2.118236 0.008777 -0.003587 299572.000000 1 0 0
-12.667937 -8.185343 -12.311153 19.468975 0.573661 2.255376 0.010149 -0.005808 375362.000000 1 0 0
-15.644037 -13.020143 3.450947 20.643863 0.694113 1.402842 0.009463 -0.002469 58524.400000 1 0 0
-6.414437 -14.248743 -13.102653 20.392430 1.147796 2.268586 0.015387 -0.000864 502767.000000 1 0 0
-13.890537 -10.965443 -6.897653 18.993831 0.668255 1.942445 0.003935 -0.024251 273332.000000 1 0 0
-11.641237 -9.998643 -9.268653 17.927610 0.709638 2.114144 0.011023 -0.004699 200928.000000 1 0 0
-9.983337 -14.807443 3.659447 18.229618 0.977589 1.368681 0.001300 -0.000160 691928.000000 1 0 0
5.411363 -17.570743 8.183747 20.124303 -1.272039 1.152001 0.037352 -0.035637 163024.000000 1 0 0
-5.066637 -16.732943 5.277247 18.262298 1.276778 1.277646 -0.001955 0.009429 469487.000000 1 0 0
-18.512137 -7.323943 -6.799253 21.037329 0.376733 1.899905 0.007250 -0.013199 -9832.920000 1 0 0
-16.865137 -3.800843 -10.978853 20.479612 0.221664 2.136591 0.027367 -0.006962 -555243.000000 1 0 0
-15.667637 -4.061043 -13.184453 20.875745 0.253618 2.254370 0.025403 -0.004498 446155.000000 1 0 0
-19.395637 -4.662943 -5.993453 20.829193 0.235934 1.862666 0.018547 -0.010612 -243021.000000 1 0 0
5.673663 -13.446343 8.707247 16.994433 -1.171513 1.032867 0.017556 0.000162 238905.000000 1 0 0
20.060963 -3.663643 2.973147 20.608350 -0.180635 1.426022 0.041994 -0.005332 47168.700000 1 0 0
18.084463 -2.412643 0.622147 18.255292 -0.132627 1.536709 0.018539 -0.016333 298682.000000 1 0 0
14.234263 -11.510243 0.239047 18.307296 -0.679981 1.557738 0.034543 -0.001713 103450.000000 1 0 0
10.999563 -13.903943 5.422447 18.539497 -0.901499 1.273976 0.003746 0.008253 411615.000000 1 0 0
9.982963 -13.295043 9.362847 19.080897 -0.926733 1.057912 0.009199 0.007617 290476.000000 1 0 0
17.905163 4.018657 -4.246453 18.835520 0.220783 1.798200 -0.003040 0.000301 -147228.000000 1 0 0
18.698063 -6.425743 -4.399253 20.254904 -0.331014 1.789736 0.016190 -0.008057 -22463.400000 1 0 0
17.716563 -10.237643 -0.319853 20.464316 -0.523979 1.586427 0.047502 -0.002019 388450.000000 1 0 0
17.496863 -8.758743 8.676847 21.404286 -0.464119 1.153403 0.056252 -0.014655 23895.200000 1 0 0
20.016363 -0.047943 -2.184753 20.135298 -0.002395 1.679514 0.037239 -0.002715 -14223.600000 1 0 0
7.578063 -12.734943 11.465047 18.736411 -1.034017 0.912320 0.004698 -0.008298 308170.000000 1 0 0
15.990763 -6.810443 -3.305053 17.692089 -0.402632 1.758710 0.023716 -0.001923 362833.000000 1 0 0
14.140863 -8.423243 12.096747 20.426608 -0.537227 0.937003 0.011406 -0.021594 333680.000000 1 0 0
16.310363 1.407757 10.543047 19.472173 0.086097 0.998645 0.050913 -0.013870 349920.000000 1 0 0
16.461463 -10.333143 2.513747 19.597768 -0.560551 1.442175 0.016764 -0.004768 295514.000000 1 0 0
16.164563 -7.292443 -5.977553 18.713737 -0.423800 1.895914 0.031495 -0.000136 235631.000000 1 0 0
18.278663 -4.365443 6.074847 19.750199 -0.234436 1.258143 0.091697 -0.009784 -20731.300000 1 0 0
13.046663 -13.221043 7.960647 20.208495 -0.792037 1.165898 0.009099 -0.011558 256845.000000 1 0 0
14.877663 -14.451243 -1.724453 20.812425 -0.770860 1.653748 0.024337 -0.000442 168860.000000 1 0 0
18.517963 -6.584943 8.305647 21.336827 -0.341653 1.170964 0.044403 -0.012076 72980.600000 1 0 0
19.671263 3.663657 2.486547 20.163429 0.184134 1.447162 0.014425 -0.002152 103505.000000 1 0 0
15.562463 -10.765043 8.085247 20.577843 -0.605155 1.167002 0.030337 -0.023436 306432.000000 1 0 0
13.823463 -4.664343 10.831947 18.170726 -0.325426 0.932136 0.015746 -0.008389 -636308.000000 1 0 0
18.654263 -7.977043 2.285547 20.416622 -0.404093 1.458616 0.043335 -0.007269 24311.800000 1 0 0
18.992063 -6.006943 -1.290453 19.961139 -0.306331 1.635490 0.028629 -0.008559 188471.000000 1 0 0
14.540463 -13.635443 -6.311453 20.908965 -0.753289 1.877433 0.030731 -0.013903 320420.000000 1 0 0
13.795763 -9.584843 10.180747 19.642808 -0.607205 1.025942 0.007875 -0.015565 364878.000000 1 0 0
14.437063 2.393557 0.748747 14.653276 0.164298 1.519677 0.007838 -0.000716 9410.070000 1 0 0
13.047663 2.556357 13.629947 19.040796 0.193474 0.772986 0.033800 -0.008966 -170757.000000 1 0 0
18.279063 -3.548043 9.180947 20.760600 -0.191720 1.112714 0.041541 -0.012269 234253.000000 1 0 0
6.732063 -17.859843 4.660347 19.647226 -1.210327 1.331312 0.001925 -0.026288 295086.000000 1 0 0
12.715363 -2.788743 15.128947 19.958521 -0.215902 0.710525 0.016692 -0.000331 236674.000000 1 0 0
11.313363 -13.367143 -7.166553 18.921738 -0.868422 1.959238 0.007864 -0.015181 162320.000000 1 0 0
10.180763 -18.371643 5.070047 21.607188 -1.064768 1.333942 -0.007871 0.007636 498732.000000 1 0 0
18.420863 -0.406943 -5.192253 19.142969 -0.022088 1.845473 0.028304 -0.006943 223749.000000 1 0 0
4.467063 -13.828043 11.698547 18.655440 -1.258335 0.892991 0.002817 0.004272 265770.000000 1 0 0
9.408663 -2.819843 14.487347 17.503076 -0.291188 0.595795 0.022089 -0.003456 298683.000000 1 0 0
8.703163 -9.177343 14.093547 18.936650 -0.811911 0.731389 -0.011217 -0.008572 468918.000000 1 0 0
21.003763 5.576957 -3.513953 22.013822 0.259533 1.731107 0.028214 -0.000750 553677.000000 1 0 0
14.622563 -13.332843 1.755447 19.866193 -0.739296 1.482317 0.022264 -0.005874 202532.000000 1 0 0
10.465363 0.011957 14.535247 17.910817 0.001142 0.624023 -0.001603 -0.023485 -118470.000000 1 0 0
18.943963 0.308357 8.160747 20.629265 0.016276 1.164085 0.026951 -0.008861 130040.000000 1 0 0
19.877863 1.319157 0.329247 19.924307 0.066266 1.554271 0.021333 -0.001944 223482.000000 1 0 0
17.997163 0.277457 3.190147 18.279822 0.015415 1.395381 0.017847 -0.002996 115366.000000 1 0 0
10.070763 -8.176643 16.460547 20.957752 -0.681966 0.667429 0.001137 -0.006349 228182.000000 1 0 0
18.988263 2.950957 5.801947 20.072988 0.154176 1.277570 0.025527 0.005873 135942.000000 1 0 0
15.476863 2.700657 7.121947 17.249607 0.172757 1.145187 0.038562 -0.005931 67223.600000 1 0 0
11.140163 -15.999443 2.336447 19.635284 -0.962568 1.451521 -0.006455 0.007870 188831.000000 1 0 0
8.360263 -16.302243 7.062047 19.634909 -1.096938 1.202884 -0.000325 0.005714 214200.000000 1 0 0
6.090763 6.852957 7.221747 11.671077 0.844215 0.903617 -0.000341 0.004621 -904441.000000 1 0 0
18.455863 2.445557 -6.578853 19.745403 0.131741 1.910475 0.002733 0.005332 23421.100000 1 0 0
14.368863 4.289457 -7.022953 16.558548 0.290103 2.008796 0.017035 -0.005718 370255.000000 1 0 0
-10.478837 -3.817343 -13.991153 17.892191 0.349349 2.468616 0.002207 0.001934 -119892.000000 1 0 0
7.846663 -13.993043 -10.469253 19.156739 -1.059734 2.148981 0.007635 -0.001733 153049.000000 1 0 0
1.893663 -16.011843 13.806747 21.227137 -1.453077 0.862647 -0.011419 -0.001827 333464.000000 1 0 0
-9.561337 -7.956643 2.169147 12.626660 0.694050 1.398149 0.007246 -0.000683 435489.000000 1 0 0
-13.815837 3.316157 -10.024953 17.388903 -0.235569 2.185253 0.019987 0.004099 154441.000000 1 0 0
-12.404137 -4.928443 -12.387753 18.210124 0.378196 2.318924 -0.002498 -0.024968 29450.400000 1 0 0
-18.098837 -1.091543 -8.350453 19.962201 0.060237 2.002384 0.059277 -0.023427 525663.000000 1 0 0
-12.566337 14.625457 4.814447 19.874499 -0.860980 1.326120 0.015530 -0.024408 403107.000000 1 0 0
-16.729037 6.345057 8.933647 19.998262 -0.362521 1.107699 -0.019749 -0.012472 190393.000000 1 0 0
-13.274637 15.439157 0.101647 20.361579 -0.860638 1.565804 0.021205 -0.029128 194150.000000 1 0 0
-15.848337 5.633657 -10.440453 19.796741 -0.341542 2.126313 0.018073 -0.001143 -50605.000000 1 0 0
-18.059237 3.122057 0.153247 18.327760 -0.171187 1.562435 0.026254 -0.005651 -29341.200000 1 0 0
-9.735937 15.440757 -0.272453 18.255949 -1.008227 1.585721 0.007237 -0.011291 65838.800000 1 0 0
-18.289637 12.159957 2.044047 22.057958 -0.586747 1.477996 0.050043 -0.011616 -3657.590000 1 0 0
-8.556537 16.409157 -7.783853 20.076432 -1.090137 1.968943 0.034820 -0.019965 -12047.600000 1 0 0
-14.956037 -1.719143 -13.126953 19.973868 0.114444 2.287903 0.023168 -0.011557 158948.000000 1 0 0
-18.999237 5.243857 -4.690153 20.259975 -0.269299 1.804414 0.031953 -0.000461 -23609.500000 1 0 0
-16.795137 9.879157 -5.573653 20.266721 -0.531709 1.849402 0.033673 0.016151 -100874.000000 1 0 0
-18.908937 1.324057 2.858547 19.169568 -0.069909 1.421119 0.019295 -0.016974 303516.000000 1 0 0
-13.516637 11.590757 -7.038453 19.146408 -0.708842 1.947236 0.024217 -0.013556 231841.000000 1 0 0
-12.763737 5.061657 -13.525853 19.273870 -0.377542 2.348677 0.010601 -0.010167 -27136.200000 1 0 0
-14.303337 9.446157 -6.438353 18.310318 -0.583663 1.930102 0.026912 -0.000500 47699.000000 1 0 0
-6.491137 11.809857 -15.443653 20.496683 -1.068232 2.424122 0.001928 -0.009238 -452544.000000 1 0 0
-14.913037 13.861557 3.022147 20.583362 -0.748872 1.423439 0.015195 -0.019197 79059.300000 1 0 0
-18.540737 8.136257 -4.968153 20.848025 -0.413527 1.811415 0.028663 0.000432 88002.400000 1 0 0
-3.971537 16.901157 -9.935953 20.003634 -1.339998 2.090597 0.007024 -0.004712 31327.800000 1 0 0
-19.337937 -2.435843 -6.390853 20.511757 0.125302 1.887641 0.016217 -0.013184 -49835.200000 1 0 0
-10.575137 14.394157 -6.366453 18.961988 -0.937171 1.913196 0.015342 -0.002704 -164894.000000 1 0 0
-19.591337 3.042657 4.359647 20.299871 -0.154075 1.354348 0.044415 -0.009455 141277.000000 1 0 0
-15.434237 12.672257 0.453147 19.975162 -0.687444 1.548109 0.025514 -0.003969 145629.000000 1 0 0
-16.830037 1.793057 -8.912753 19.128575 -0.106139 2.055492 -0.024489 0.002908 50289.900000 1 0 0
-16.014637 14.313157 -4.118853 21.870071 -0.729354 1.760261 -0.001431 0.040714 66742.600000 1 0 0
-11.136737 15.896757 -8.516953 21.196044 -0.959690 1.984298 0.041039 -0.009771 119852.000000 1 0 0
-19.336537 1.474257 -6.616253 20.490240 -0.076095 1.899586 0.038523 -0.017444 78418.100000 1 0 0
-16.921137 10.645657 -0.571153 19.999528 -0.561566 1.599359 0.009729 0.004228 -51823.400000 1 0 0
-11.668037 6.922357 -14.518053 19.870480 -0.535460 2.390047 0.006192 -0.010591 313806.000000 1 0 0
-13.267537 13.118957 -5.010553 19.319426 -0.779767 1.833149 0.034743 -0.007481 552836.000000 1 0 0
-17.977537 7.956357 -1.025653 19.686224 -0.416660 1.622920 -0.028245 0.010673 -54804.200000 1 0 0
-14.373237 9.297957 -10.446053 20.053977 -0.574188 2.118698 0.013141 0.006422 495020.000000 1 0 0
-18.299837 11.711957 4.938547 22.281006 -0.569316 1.347292 0.012997 -0.002551 71359.700000 1 0 0
-8.098737 11.824657 -13.822153 19.911403 -0.970275 2.338080 -0.018870 -0.005386 274821.000000 1 0 0
-21.066037 -0.669943 -5.374353 21.751102 0.031791 1.820466 0.007168 -0.011631 187466.000000 1 0 0
-10.246737 13.514057 -2.676353 17.169398 -0.922050 1.727314 0.009531 -0.009809 372859.000000 1 0 0
-18.784237 -5.031343 3.736947 19.802191 0.261706 1.380944 0.022459 0.000950 10370.200000 1 0 0
-11.236037 11.667757 -12.531553 20.479866 -0.804245 2.229252 0.004060 -0.011210 319045.000000 1 0 0
-14.728037 11.504757 -10.315053 21.346542 -0.663139 2.075124 0.025630 -0.004626 337984.000000 1 0 0
-12.523237 10.010457 -13.872753 21.201274 -0.674345 2.284100 0.012269 -0.009695 366060.000000 1 0 0
-18.090437 -5.143543 -3.097853 19.060867 0.277014 1.734045 -0.030061 -0.005211 -237407.000000 1 0 0
-9.542537 12.891257 -11.252253 19.592287 -0.933575 2.182570 0.016960 -0.010373 -116414.000000 1 0 0
-15.281037 7.823157 -8.142853 19.000472 -0.473163 2.013695 0.000247 0.008666 70463.500000 1 0 0
-14.424337 9.334257 1.830347 17.278311 -0.574347 1.464664 0.006040 0.002562 -158155.000000 1 0 0
-19.877337 5.826257 7.669647 22.087944 -0.285124 1.216178 0.047128 -0.017668 293560.000000 1 0 0
-18.360837 5.627857 3.120447 19.455855 -0.297422 1.409715 -0.005267 0.001351 110026.000000 1 0 0
-14.579537 12.531757 5.881447 20.104707 -0.710009 1.273914 0.012870 -0.013522 -124587.000000 1 0 0
17.882963 6.205857 5.500547 19.712154 0.334023 1.287999 0.010768 -0.010045 216678.000000 1 0 0
18.412963 8.263357 0.292347 20.184294 0.421838 1.556312 0.022896 0.008532 -13103.700000 1 0 0
16.603163 4.456657 8.723347 19.277541 0.262241 1.101214 0.028724 -0.001129 -86102.100000 1 0 0
12.534563 13.013757 10.690447 20.994256 0.804152 1.036532 0.037437 -0.002676 224245.000000 1 0 0
15.791363 11.913157 4.088847 20.199235 0.646317 1.366962 0.036078 -0.018920 246209.000000 1 0 0
5.321963 10.539857 14.589347 18.768615 1.103207 0.680391 -0.000990 0.005409 232070.000000 1 0 0
13.202363 13.029957 -5.455753 19.335134 0.778826 1.856849 0.027683 -0.007835 305815.000000 1 0 0
17.722263 9.230757 -3.131453 20.226009 0.480193 1.726245 0.004813 0.003576 -416581.000000 1 0 0
14.532763 7.799557 9.587247 19.077462 0.492565 1.044259 0.013792 0.000505 33890.000000 1 0 0
4.587563 19.540757 -1.848253 20.156958 1.340203 1.662618 0.011797 -0.006065 583707.000000 1 0 0
-4.739737 19.142657 3.508447 20.030367 -1.328077 1.394732 0.005674 -0.009964 201867.000000 1 0 0
6.682163 14.144957 11.892947 19.651292 1.129467 0.920780 0.004448 0.027628 -644852.000000 1 0 0
0.072563 17.276257 -10.116153 20.020261 1.566596 2.100521 0.018642 0.006705 73118.700000 1 0 0
10.456663 9.106657 15.802847 21.023866 0.716500 0.720218 0.022407 -0.008683 -37117.300000 1 0 0
-1.482437 12.289957 0.723947 12.400192 -1.450754 1.512381 -0.007683 0.003767 563319.000000 1 0 0
-4.425737 19.364457 -2.497753 20.020192 -1.346106 1.695884 -0.007270 0.006497 -41315.800000 1 0 0
6.760863 18.014557 6.082047 20.179812 1.211763 1.264643 0.025752 -0.028687 23729.900000 1 0 0
11.297563 17.352957 -1.429653 20.755817 0.993687 1.639731 0.027491 -0.008335 453749.000000 1 0 0
18.143263 10.868957 2.948547 21.354300 0.539730 1.432276 -0.000338 -0.004693 279960.000000 1 0 0
11.439963 16.321757 6.895147 21.090650 0.959465 1.237744 0.029699 -0.002585 62776.300000 1 0 0
18.180263 7.362857 -5.798653 20.453801 0.384802 1.858238 0.004499 0.011152 505429.000000 1 0 0
0.011363 15.137557 11.249547 18.859959 1.570046 0.931691 0.000676 0.003087 388331.000000 1 0 0
1.204763 20.335957 -1.894853 20.459547 1.511623 1.663544 0.021033 -0.005634 303131.000000 1 0 0
14.210363 9.745157 -1.230953 17.274771 0.601117 1.642114 0.007297 -0.004865 -80030.200000 1 0 0
10.379863 16.798857 1.951047 19.843128 1.017325 1.472314 0.034941 -0.028962 321030.000000 1 0 0
0.862463 18.190857 -0.449053 18.216826 1.523420 1.595449 0.003743 0.011784 -94729.300000 1 0 0
-0.017037 20.905557 0.864247 20.923420 -1.569981 1.529479 0.017612 -0.007064 270384.000000 1 0 0
6.347263 17.283357 -0.309853 18.414618 1.218840 1.587624 0.015176 -0.028414 -70966.500000 1 0 0
7.004463 18.754057 -3.473153 20.318463 1.213350 1.742576 -0.002569 -0.010520 177702.000000 1 0 0
10.037263 9.601557 12.667847 18.799225 0.763216 0.831390 0.003033 0.000114 133247.000000 1 0 0
13.379463 14.868757 8.200947 21.618175 0.838071 1.181698 0.033107 -0.009206 109587.000000 1 0 0
0.375063 17.451957 6.690647 18.694283 1.549308 1.204781 0.006817 -0.008763 96244.200000 1 0 0
7.183663 18.169557 -7.734753 21.013429 1.194289 1.947746 0.015460 -0.004327 43018.300000 1 0 0
-0.964737 18.517257 9.554847 20.859401 -1.518744 1.094985 0.027175 -0.007237 9704.400000 1 0 0
15.798563 7.107057 -7.932853 19.053477 0.422733 2.000220 0.009204 0.009409 -691049.000000 1 0 0
-5.339037 19.961457 -6.670453 21.713130 -1.309447 1.883054 -0.000793 -0.008163 267461.000000 1 0 0
3.703263 15.492657 9.868247 18.738166 1.336165 1.016154 0.004067 -0.000756 172004.000000 1 0 0
8.834563 14.929057 7.550047 18.919023 1.036451 1.160292 0.014585 -0.000160 97519.800000 1 0 0
-2.419137 19.249757 6.553747 20.478207 -1.445781 1.245030 0.006903 -0.008955 82168.600000 1 0 0
4.706763 18.129457 7.995747 20.365726 1.316785 1.167331 0.023782 -0.012435 277003.000000 1 0 0
13.869463 11.191357 -6.857153 19.095261 0.678938 1.938102 -0.049192 -0.022955 -57256.800000 1 0 0
11.813463 7.030657 15.719747 20.882971 0.536838 0.718560 0.037016 -0.010599 222515.000000 1 0 0
17.265763 9.249957 4.910947 20.193703 0.491829 1.325141 0.027628 -0.008005 163750.000000 1 0 0
4.507663 15.344857 12.274047 20.160255 1.285077 0.916219 -0.013880 0.010783 285301.000000 1 0 0
15.806663 10.577857 -3.438253 19.327784 0.589756 1.749640 0.019882 -0.014297 70882.100000 1 0 0
15.369963 13.760757 6.225647 21.548848 0.730213 1.277710 0.028325 -0.007395 284977.000000 1 0 0
12.825363 14.421957 -8.350353 21.028817 0.843928 1.979141 0.049991 -0.015216 159286.000000 1 0 0
-8.681437 15.643157 9.554047 20.281901 -1.064148 1.080301 0.021625 -0.010815 110679.000000 1 0 0
-4.891637 16.812557 -7.216453 18.938516 -1.287662 1.961724 -0.004728 -0.000059 583.653000 1 0 0
1.962063 19.592557 -4.645153 20.231051 1.470986 1.802468 0.007243 -0.016119 64400.900000 1 0 0
6.791963 16.952557 8.977047 20.349627 1.189734 1.113927 0.016394 0.007406 543745.000000 1 0 0
13.608463 15.209657 -1.645853 20.475174 0.840903 1.651266 0.056181 -0.014974 187037.000000 1 0 0
12.463263 16.867257 4.455847 21.440425 0.934435 1.361446 0.033103 -0.020360 342217.000000 1 0 0
3.490263 18.343657 0.346247 18.675962 1.382773 1.552256 0.042453 -0.017868 120664.000000 1 0 0
-7.057937 17.854357 1.222647 19.237656 -1.194343 1.507199 -0.016289 0.016278 283856.000000 1 0 0
-0.029537 20.275557 -6.110153 21.176238 -1.569340 1.863496 0.024144 0.002925 151036.000000 1 0 0
-7.446537 18.168757 -6.141453 20.573577 -1.181824 1.873929 0.021926 -0.020241 16136.300000 1 0 0
-7.462837 18.717557 -1.560153 20.210763 -1.191404 1.648067 0.009281 -0.006355 -32194.200000 1 0 0
-14.531237 -9.807443 8.997347 19.705204 0.593696 1.096629 0.017304 0.010313 390099.000000 1 0 0
-13.080037 -13.741243 7.479747 20.392542 0.810045 1.195242 0.012495 -0.003700 -175940.000000 1 0 0
-4.012837 -15.938043 12.422447 20.601973 1.324146 0.923573 0.014293 -0.009007 250873.000000 1 0 0
-2.176837 -15.057943 14.469247 20.996175 1.427227 0.810499 0.005702 -0.028415 316764.000000 1 0 0
-7.270337 -13.917943 13.257047 20.550334 1.089412 0.869641 -0.013233 -0.005954 324805.000000 1 0 0
-10.067637 -10.443143 11.987047 18.817701 0.803704 0.880184 0.023447 -0.014964 180538.000000 1 0 0
-7.297237 -10.585943 12.948047 18.247295 0.967266 0.781884 0.006755 -0.008997 538981.000000 1 0 0
-15.255637 -12.122843 7.673447 20.942292 0.671468 1.195650 0.015731 0.006177 212760.000000 1 0 0
-4.546337 -12.656943 13.395147 18.981500 1.225952 0.787393 0.008693 -0.013602 349693.000000 1 0 0
3.517363 -12.284143 13.967747 18.930662 -1.291924 0.740936 -0.005244 0.000106 553728.000000 1 0 0
6.726863 -13.388643 14.644947 20.951871 -1.105206 0.796826 0.015924 0.001782 353571.000000 1 0 0
7.182763 -9.129443 16.419247 20.112943 -0.904175 0.615730 0.004742 -0.008844 572115.000000 1 0 0
-4.863637 13.503457 13.614847 19.782880 -1.225084 0.811772 -0.003340 0.002138 516448.000000 1 0 0
-13.147637 -1.687643 17.615847 22.046010 0.127663 0.645084 -0.004362 0.001493 241414.000000 1 0 0
-10.093237 9.612457 12.831947 18.945491 -0.761005 0.826698 -0.000786 -0.006380 202866.000000 1 0 0
-7.314537 -8.495843 16.908947 20.287787 0.859977 0.585466 0.012348 -0.012219 -60439.000000 1 0 0
-5.125837 2.125957 18.367847 19.187801 -0.393159 0.293397 0.000729 -0.005044 605432.000000 1 0 0
-15.783437 -3.573243 14.348047 21.627561 0.222639 0.845423 0.019349 -0.011270 102421.000000 1 0 0
-14.414037 3.069157 12.586447 19.380476 -0.209795 0.863949 -0.005796 0.001966 277240.000000 1 0 0
-13.852837 10.883957 10.691247 20.607386 -0.665951 1.025342 -0.046605 0.048163 -74417.200000 1 0 0
-4.915137 11.046757 16.092147 20.128254 -1.152159 0.644366 0.041729 -0.011714 264098.000000 1 0 0
-13.186837 13.041657 7.733047 20.094216 -0.779863 1.175762 0.005770 -0.026221 174574.000000 1 0 0
-4.231037 -6.260043 18.539447 20.020013 0.976442 0.386999 0.020553 -0.016135 151098.000000 1 0 0
0.461763 -2.923143 17.745647 17.990719 -1.414123 0.165246 0.006967 -0.014739 35154.700000 1 0 0
-4.435937 6.402657 21.015747 22.412790 -0.964900 0.354939 0.005614 -0.014788 233474.000000 1 0 0
2.418563 -10.518443 16.128447 19.406542 -1.344789 0.589744 0.005034 -0.015734 247231.000000 1 0 0
-15.037037 -0.270343 14.001447 20.548141 0.017977 0.821126 -0.015014 0.004301 142531.000000 1 0 0
-13.911537 -6.135643 8.226847 17.287510 0.415384 1.074828 0.010640 0.003490 26996.400000 1 0 0
10.031963 0.657657 16.774347 19.556367 0.065462 0.539932 0.029079 0.002788 434619.000000 1 0 0
-7.497837 12.352057 11.649547 18.560787 -1.025237 0.892275 0.008565 -0.012829 124330.000000 1 0 0
-1.469937 7.445557 19.986947 21.379314 -1.375878 0.362895 0.009338 -0.025798 420348.000000 1 0 0
0.717763 -13.891743 15.690547 20.968762 -1.519174 0.725328 -0.014728 0.002039 432344.000000 1 0 0
-3.450237 -11.544343 17.743247 21.447583 1.280378 0.596540 0.010582 -0.016798 573455.000000 1 0 0
-2.275537 8.113157 16.616847 18.631183 -1.297347 0.469303 0.015069 -0.034587 165122.000000 1 0 0
-4.444837 -9.507343 20.528447 23.055656 1.133472 0.472603 0.031624 -0.015339 266084.000000 1 0 0
-6.605337 -3.188843 19.080147 20.441409 0.449767 0.367004 0.013738 -0.014049 110644.000000 1 0 0
-10.826537 -8.208943 15.649147 20.724296 0.648744 0.714973 0.044276 -0.014076 365778.000000 1 0 0
-0.182537 6.482157 17.857147 18.998141 -1.542644 0.348337 0.010501 -0.015371 41853.800000 1 0 0
-6.374537 -11.000243 19.069747 22.919322 1.045594 0.588025 0.027564 -0.007505 434331.000000 1 0 0
-0.066537 3.495157 18.675147 18.999517 -1.551762 0.185048 0.003478 -0.015654 58106.400000 1 0 0
-17.916737 -1.267143 7.792747 19.579122 0.070606 1.161446 0.002394 -0.007040 200420.000000 1 0 0
-1.752237 -8.663843 17.389947 19.507505 1.371241 0.470263 0.009128 -0.018198 375691.000000 1 0 0
5.749963 3.327557 14.950447 16.360029 0.524617 0.418155 0.002707 -0.005649 376742.000000 1 0 0
-13.823937 -6.979443 10.355447 18.629255 0.467545 0.981387 0.014861 0.001850 282661.000000 1 0 0
3.863663 8.217457 16.686047 18.996806 1.131290 0.498375 -0.002722 -0.007033 145203.000000 1 0 0
6.112863 4.466157 17.854047 19.392798 0.630980 0.401045 0.011314 -0.016636 273896.000000 1 0 0
5.716463 -9.047043 18.404047 21.289337 -1.007279 0.526696 0.026659 0.009419 261993.000000 1 0 0
-4.686437 -0.778043 19.858747 20.419056 0.164520 0.234806 0.005266 -0.006147 909569.000000 1 0 0
-11.355337 2.088757 16.818047 20.399835 -0.181911 0.601618 0.030158 -0.004051 195060.000000 1 0 0
-16.667637 -4.115443 8.834747 19.308023 0.242070 1.095537 0.019345 -0.007658 470333.000000 1 0 0
-13.239437 -9.058343 13.766547 21.138924 0.600039 0.861577 0.020418 -0.012747 34339.300000 1 0 0
-14.899937 6.181057 12.733647 20.551383 -0.393232 0.902563 0.015127 -0.017413 147572.000000 1 0 0
1.375863 8.933857 17.098747 19.340991 1.417991 0.486301 0.003415 -0.025630 -234328.000000 1 0 0
-3.861137 -10.344243 15.014647 18.637365 1.213548 0.634074 0.010091 -0.015093 561549.000000 1 0 0
-18.658737 -3.127743 6.627947 20.046469 0.166085 1.233826 0.088750 -0.011097 -199258.000000 1 0 0
-0.825637 -0.436843 21.008047 21.028803 0.486654 0.044434 0.008266 -0.010486 397831.000000 1 0 0
-2.043937 2.558257 20.318147 20.580317 -0.896692 0.159787 -0.002610 -0.015941 41105.200000 1 0 0
-8.027537 2.065257 16.483647 18.450400 -0.251811 0.465932 -0.003569 0.012843 568401.000000 1 0 0
2.567263 -2.084743 18.913647 19.200600 -0.682045 0.173103 0.012768 -0.006167 86405.600000 1 0 0
-12.538137 4.508757 14.252647 19.510810 -0.345204 0.751743 0.001909 -0.002079 247992.000000 1 0 0
-13.070537 -5.575843 13.155647 19.364917 0.403222 0.823913 -0.010158 -0.006132 62929.100000 1 0 0
-16.665937 -0.738643 10.699247 19.818500 0.044292 1.000524 -0.007344 0.002538 28655.200000 1 0 0
-7.263237 7.755057 14.752947 18.180895 -0.818134 0.624162 -0.000868 -0.006813 -64271.400000 1 0 0
-9.457237 0.736757 14.185747 17.065098 -0.077747 0.589403 0.006771 -0.000088 228450.000000 1 0 0
7.784863 -0.909443 15.062947 16.980092 -0.116295 0.479784 0.017662 -0.011098 27051.200000 1 0 0
3.686963 6.308757 18.457947 19.851698 1.041912 0.376949 0.007865 -0.010162 -11043.200000 1 0 0
1.283163 0.755957 20.250647 20.305336 0.532393 0.073411 0.005443 0.000679 103489.000000 1 0 0
-6.972237 6.972057 17.511147 20.096316 -0.785385 0.512827 -0.005526 -0.010997 549601.000000 1 0 0
7.500963 -3.139043 17.072847 18.910318 -0.396340 0.444485 0.006864 0.000464 442513.000000 1 0 0
-17.386537 2.047257 9.340947 19.842788 -0.117210 1.080658 0.047236 -0.011911 415903.000000 1 0 0
4.002163 -6.091643 19.209947 20.546228 -0.989521 0.362644 0.033891 -0.014519 158402.000000 1 0 0
-3.607037 -3.929043 20.673247 21.350204 0.828101 0.252493 0.007336 -0.007395 481046.000000 1 0 0
-9.716637 5.839057 14.594147 18.479630 -0.541106 0.660407 0.000496 0.003948 39694.400000 1 0 0
6.675863 2.459057 19.868847 21.104151 0.352928 0.343842 0.039592 -0.017898 109794.000000 1 0 0
-7.044037 11.536057 14.430447 19.772123 -1.022611 0.752711 0.005593 -0.014012 311971.000000 1 0 0
-14.574637 4.939457 9.564347 18.118913 -0.326759 1.014711 0.000153 -0.005072 202828.000000 1 0 0
1.479463 -4.494743 20.167047 20.714760 -1.252812 0.230469 0.037621 -0.020725 353535.000000 1 0 0
-6.457237 -8.513443 13.620547 17.311670 0.921893 0.665215 0.016287 -0.006150 381532.000000 1 0 0
-12.597637 9.866557 6.611547 17.313635 -0.664417 1.178978 -0.019981 -0.017785 180758.000000 1 0 0
-19.531037 1.721357 7.519747 20.999311 -0.087907 1.204570 0.022542 -0.024106 79466.800000 1 0 0
-16.477937 9.056657 6.548247 19.910424 -0.502554 1.235673 0.026384 0.006279 111121.000000 1 0 0
-13.015837 7.633557 14.217047 20.731802 -0.530421 0.815149 0.017659 -0.004402 276355.000000 1 0 0
-16.540737 8.855257 10.776947 21.636870 -0.491534 1.049410 0.012970 -0.010278 302622.000000 1 0 0
2.714063 10.589157 15.277547 18.785628 1.319892 0.621068 -0.007616 -0.019935 352572.000000 1 0 0
1.653463 14.640457 13.494947 19.979752 1.458335 0.829247 -0.005807 -0.004956 640049.000000 1 0 0
8.453263 5.040957 16.431547 19.153710 0.537719 0.539671 0.003869 -0.010341 197158.000000 1 0 0
-0.012737 13.149657 13.626047 18.936282 -1.569828 0.767608 -0.005144 0.009212 269088.000000 1 0 0
4.252063 12.516257 14.892847 19.913151 1.243306 0.725919 0.004727 0.000094 157658.000000 1 0 0
-3.680337 -4.469143 -13.878353 15.037514 0.881890 2.746382 0.000432 -0.005662 141077.000000 1 0 0
5.672663 -12.299843 16.677147 21.484703 -1.138669 0.682127 -0.026849 0.018880 271797.000000 1 0 0
8.797163 -13.815443 7.104247 17.852923 -1.003783 1.161535 -0.004212 0.001329 249108.000000 1 0 0
-0.424837 15.305357 0.497347 15.319327 -1.543046 1.538325 -0.002376 -0.000908 -371708.000000 1 0 0
-14.351837 7.723457 8.700947 18.475213 -0.493701 1.080426 0.011624 0.000624 -32162.400000 1 0 0
-15.940037 -9.592743 5.450947 19.386035 0.541743 1.285774 0.004400 -0.001488 183176.000000 1 0 0
9.136263 -10.286243 11.346647 17.833241 -0.844538 0.881151 -0.004749 -0.001368 50789.500000 1 0 0
-25.818957 5.874457 31.524690 41.169575 -0.223716 0.698624 0.011035 -0.010532 683825.000000 0 0 1
-24.500737 5.324857 31.337820 40.133517 -0.214006 0.674788 0.014523 -0.016245 500868.000000 0 0 1
-23.567837 5.887157 32.190050 40.327421 -0.244787 0.646466 0.007366 -0.012717 -762432.000000 0 0 1
-22.153737 5.409457 31.859940 39.180430 -0.239492 0.621236 0.007159 -0.010840 -487946.000000 0 0 1
-21.868937 4.107557 32.300540 39.223046 -0.185663 0.603227 0.016347 -0.012411 172354.000000 0 0 1
-20.719337 3.520557 31.709030 38.041397 -0.168309 0.585311 0.016315 -0.011098 203878.000000 0 0 1
-20.238037 2.216157 32.395320 38.261551 -0.109070 0.561080 0.010730 -0.011193 86305.700000 0 0 1
-21.030637 1.053057 32.197580 38.471819 -0.050031 0.579177 0.017741 -0.011080 318426.000000 0 0 1
-20.770037 0.152857 33.274009 39.224706 -0.007359 0.558045 0.007879 0.001342 -1678.010000 0 0 1
-21.412937 -1.209843 33.052200 39.400832 0.056441 0.575591 0.011055 -0.007498 186198.000000 0 0 1
-20.546637 -2.001643 32.197470 38.247196 0.097113 0.570140 0.034054 0.000856 702557.000000 0 0 1
-20.573037 -3.441343 32.430570 38.559494 0.165740 0.571570 0.036147 -0.008252 1021430.000000 0 0 1
-22.004437 -4.114143 32.212610 39.227206 0.184835 0.607320 0.031168 -0.002043 1525620.000000 0 0 1
-23.089237 -3.808743 33.073597 40.515210 0.163485 0.615776 0.024634 0.001499 506914.000000 0 0 1
-23.046137 -4.553743 34.282615 41.559099 0.195080 0.600749 0.024058 0.002422 11144.900000 0 0 1
-24.363337 -4.286743 -33.727703 41.827101 0.174168 2.508768 0.016851 0.006537 462969.000000 0 0 1
-24.321637 -4.865943 -32.444923 40.839840 0.197459 2.488886 0.015714 0.001227 179951.000000 0 0 1
-25.448217 -4.387943 -31.726783 40.907879 0.170747 2.458408 0.010521 0.001511 -144160.000000 0 0 1
-25.615097 -4.975243 -30.300513 39.987590 0.191842 2.430651 0.000872 0.000760 -610986.000000 0 0 1
-25.901827 -6.379543 -30.241973 40.325924 0.241490 2.418766 0.004486 0.002802 571376.000000 0 0 1
-25.582437 -6.961043 -28.991513 39.286449 0.265670 2.400827 -0.005649 -0.003412 -153614.000000 0 0 1
-25.877427 -8.497943 -28.906233 39.716830 0.317297 2.385917 -0.002997 0.001013 841872.000000 0 0 1
-27.276217 -8.834443 -28.803113 40.640605 0.313226 2.358489 0.011792 -0.001538 750869.000000 0 0 1
-27.404907 -10.234643 -28.848003 41.085085 0.357420 2.349213 0.015575 0.006532 258739.000000 0 0 1
-28.826467 -10.617443 -28.386113 41.826627 0.352904 2.316735 0.041089 0.001760 243039.000000 0 0 1
-28.898817 -11.020643 -27.069063 41.101465 0.364329 2.289741 0.054177 -0.001487 80341.300000 0 0 1
-30.246497 -11.101843 -26.631023 41.800872 0.351779 2.261517 0.062892 -0.003562 27195.100000 0 0 1
-30.413327 -11.842143 -25.267043 41.275057 0.371312 2.229589 0.071110 0.003022 -99287.900000 0 0 1
-29.793947 -11.224043 -24.138353 39.953955 0.360280 2.219500 0.059847 0.001893 263213.000000 0 0 1
-29.646887 -12.120243 -23.057853 39.465210 0.388087 2.194761 0.059320 -0.005722 -60757.500000 0 0 1
-28.587737 -11.612143 -22.035853 37.916743 0.385834 2.190955 0.051803 -0.009943 31764.300000 0 0 1
-28.681717 -12.160943 -20.714753 37.411635 0.401020 2.157595 0.058183 -0.006284 -69899.400000 0 0 1
-27.806717 -13.233043 -20.548553 37.021210 0.444177 2.159217 0.057271 -0.006446 -331460.000000 0 0 1
-27.665967 -13.643743 -19.085953 36.274386 0.458161 2.124869 0.047841 -0.011023 165056.000000 0 0 1
-27.202147 -12.564543 -18.247753 35.082832 0.432702 2.117803 0.041093 -0.008972 320002.000000 0 0 1
-27.040807 -12.951443 -16.853853 34.394731 0.446674 2.082901 0.046591 -0.021509 -103702.000000 0 0 1
-26.728027 -11.674443 -16.069353 33.300213 0.411811 2.074372 0.040947 -0.012292 512595.000000 0 0 1
-25.441227 -11.097943 -16.363053 32.220644 0.411335 2.103476 0.033317 -0.001850 970441.000000 0 0 1
-25.409117 -9.786643 -15.839753 31.500784 0.367651 2.097674 0.037887 -0.003562 -436951.000000 0 0 1
-24.018937 -9.171443 -16.054553 30.311275 0.364756 2.128991 0.047324 -0.003124 -128481.000000 0 0 1
-23.073537 -9.662443 -15.127953 29.233643 0.396580 2.114705 0.039202 -0.007149 -1003000.000000 0 0 1
-21.896737 -8.960943 -15.221353 28.132814 0.388443 2.142485 0.049512 -0.023160 -1188630.000000 0 0 1
-20.935237 -9.320943 -14.102653 26.908158 0.418878 2.122458 0.043015 -0.001560 -331904.000000 0 0 1
-20.258437 -10.549743 -14.307153 26.951735 0.480116 2.130392 0.030267 0.000202 1959010.000000 0 0 1
-19.037237 -10.633143 -13.464153 25.627399 0.509380 2.123959 0.028282 -0.001182 2525110.000000 0 0 1
-17.856437 -11.554143 -13.997153 25.461164 0.574304 2.152856 0.029903 -0.003775 645355.000000 0 0 1
-17.231637 -11.066443 -15.151253 25.474614 0.570884 2.207762 0.037273 -0.007766 -74425.900000 0 0 1
-17.897937 -11.412543 -16.352053 26.794999 0.567641 2.227192 0.035427 -0.011740 -61392.600000 0 0 1
-17.146337 -10.891743 -17.620953 26.890983 0.565917 2.285341 0.036467 -0.007383 9502.450000 0 0 1
-17.784437 -11.338043 -18.806853 28.258365 0.567556 2.299003 0.026236 0.000276 131515.000000 0 0 1
-17.357237 -10.652243 -19.999353 28.543267 0.550437 2.347130 0.035496 -0.006460 -69031.200000 0 0 1
-18.215837 -10.936543 -21.280953 30.071643 0.540704 2.356999 0.047342 -0.004948 268715.000000 0 0 1
-19.469537 -10.266743 -21.240653 30.588139 0.485267 2.338393 0.030282 -0.012989 -45554.900000 0 0 1
-20.307937 -10.876843 -22.161053 31.966081 0.491717 2.336810 0.029090 -0.005121 -522196.000000 0 0 1
-21.403037 -9.988243 -22.742453 32.788324 0.436633 2.337291 0.012396 -0.001907 -346517.000000 0 0 1
-20.975537 -8.933443 -23.553553 32.780321 0.402631 2.372479 0.008749 -0.010825 -224325.000000 0 0 1
-21.970237 -8.596843 -24.473253 33.993193 0.372980 2.374520 0.002583 -0.015996 -412339.000000 0 0 1
-21.434537 -7.678543 -25.595303 34.256663 0.343990 2.414579 0.001136 -0.019191 -69167.900000 0 0 1
-20.485437 -8.393143 -26.367853 34.429082 0.388851 2.443174 0.013733 -0.020993 38851.400000 0 0 1
-20.061437 -7.490443 -27.401343 34.776452 0.357345 2.478233 0.009064 -0.027527 -442165.000000 0 0 1
-18.835937 -8.047843 -28.122973 34.791694 0.403783 2.512097 0.036085 -0.027788 -289039.000000 0 0 1
-19.111337 -9.232843 -28.879673 35.840259 0.450043 2.507802 0.035376 -0.017661 635081.000000 0 0 1
-17.910837 -9.487643 -29.595273 35.870513 0.487136 2.541102 0.017967 -0.009771 207081.000000 0 0 1
-17.925137 -10.799143 -30.347503 36.863302 0.542225 2.537899 0.013283 -0.007127 -304790.000000 0 0 1
-18.443237 -10.799543 -31.644153 38.185542 0.529731 2.547568 0.013191 -0.004429 224631.000000 0 0 1
-18.411037 -12.080243 -32.227863 39.032470 0.580680 2.542182 0.009268 0.003466 -98410.300000 0 0 1
-19.082337 -12.116643 -33.619843 40.512251 0.565734 2.549668 0.004134 -0.002314 -106065.000000 0 0 1
-18.380937 -11.301043 34.288874 40.512953 0.551248 0.561667 0.015329 -0.005933 200580.000000 0 0 1
-19.028337 -11.296843 33.019654 39.749137 0.535763 0.590430 0.013089 -0.005429 69518.500000 0 0 1
-18.668237 -12.431843 31.995760 39.074064 0.587496 0.611393 0.023422 -0.013352 1538590.000000 0 0 1
-17.281637 -12.398643 31.500760 38.008937 0.622339 0.593886 0.028788 -0.010843 1888610.000000 0 0 1
-16.914237 -13.275343 30.469180 37.292052 0.665442 0.614534 0.029478 -0.015561 -63941.300000 0 0 1
-17.043537 -14.825943 30.745440 38.151971 0.715927 0.633657 0.032152 -0.007282 -585427.000000 0 0 1
-18.331637 -15.412643 30.636860 38.887218 0.699110 0.663504 0.018102 -0.007919 21054.500000 0 0 1
-18.369737 -16.806243 31.047470 39.797519 0.740980 0.675913 0.025673 -0.016071 -649300.000000 0 0 1
-18.509137 -16.954443 32.563010 41.114364 0.741587 0.656701 -0.009565 -0.013954 -492601.000000 0 0 1
-17.312037 -16.671043 33.263674 41.037816 0.766538 0.625686 0.016990 -0.007264 -149305.000000 0 0 1
-17.564437 -16.341143 -34.194915 41.771218 0.749334 2.529807 0.011148 -0.005391 -571836.000000 0 0 1
-16.371137 -15.813043 -33.451913 40.461055 0.768059 2.544135 0.010465 -0.005676 -697116.000000 0 0 1
-15.994637 -14.549643 -33.924633 40.229359 0.738125 2.574154 0.015055 -0.007008 553785.000000 0 0 1
-14.785337 -13.955143 -33.403893 39.104633 0.756520 2.594842 0.019954 -0.004869 596863.000000 0 0 1
-14.979037 -13.380643 -31.964203 37.750808 0.729096 2.580578 0.037249 -0.004617 -346835.000000 0 0 1
-15.065637 -14.417743 -31.022413 37.379605 0.763427 2.549776 0.027358 -0.009262 -161770.000000 0 0 1
-15.268737 -14.007843 -29.696243 36.210784 0.742356 2.532371 0.028975 -0.008283 -20464.600000 0 0 1
-15.598437 -15.192843 -28.764713 36.076897 0.772227 2.493633 0.040313 0.004672 56968.100000 0 0 1
-14.464037 -15.843343 -28.259653 35.479965 0.830877 2.492274 0.045419 -0.010454 -413851.000000 0 0 1
-13.910337 -16.819843 -29.130323 36.400280 0.879796 2.498554 0.038478 -0.012795 264602.000000 0 0 1
-12.536137 -17.360443 -28.633863 35.755249 0.945386 2.499476 0.031319 -0.007657 1063940.000000 0 0 1
-11.493137 -16.363543 -28.640643 34.930563 0.958487 2.532086 0.021287 -0.010961 286950.000000 0 0 1
-10.250837 -16.833043 -28.161373 34.372867 1.023807 2.530969 0.027042 -0.017220 762007.000000 0 0 1
-9.145137 -15.738543 -28.031243 33.422835 1.044415 2.565661 0.012898 -0.016799 222668.000000 0 0 1
-9.428237 -14.751943 -27.075163 32.242456 1.002109 2.567594 0.030405 -0.014927 426395.000000 0 0 1
-8.215837 -14.061143 -26.708053 31.281558 1.042006 2.594029 0.040858 -0.017623 692339.000000 0 0 1
-8.212537 -12.558143 -27.165043 31.033729 0.991642 2.636934 0.032631 -0.017845 -137436.000000 0 0 1
-7.858937 -12.404343 -28.560923 32.114747 1.006063 2.666696 0.039276 -0.012680 255402.000000 0 0 1
-7.726337 -10.991043 -28.878543 31.850739 0.958082 2.706150 0.031283 -0.012361 400896.000000 0 0 1
-6.731537 -10.772343 -30.072653 32.645389 1.012276 2.741928 0.025817 -0.004741 142442.000000 0 0 1
-5.344537 -10.931543 -29.863613 32.247451 1.116060 2.754675 0.027863 -0.004890 985813.000000 0 0 1
-4.433037 -10.639843 -30.949553 33.026246 1.176024 2.785081 0.026599 -0.004950 530138.000000 0 0 1
-4.418237 -9.143143 -31.361943 32.964972 1.120655 2.828455 0.011143 -0.010091 -1224070.000000 0 0 1
-3.357637 -8.777243 -32.198543 33.541913 1.205433 2.857618 0.014493 -0.007581 -225695.000000 0 0 1
-3.314537 -7.375643 -32.554563 33.543790 1.148450 2.898131 0.010560 -0.012766 425682.000000 0 0 1
-1.908337 -6.898043 -33.056883 33.822807 1.300898 2.928374 0.009230 -0.014240 483726.000000 0 0 1
-1.592337 -7.421843 -34.318349 35.147808 1.359453 2.923911 0.010372 -0.014621 -305539.000000 0 0 1
-0.490337 -6.681743 34.018764 34.672214 1.497543 0.194453 0.012338 -0.007228 -393037.000000 0 0 1
0.116063 -7.165843 32.728840 33.504325 -1.554601 0.215572 0.011893 -0.003100 -308624.000000 0 0 1
-0.603337 -6.947343 31.497630 32.260352 1.484169 0.217883 0.020353 -0.000254 242698.000000 0 0 1
-0.019437 -7.659843 30.411000 31.360844 1.568259 0.246746 0.016510 0.002909 87616.300000 0 0 1
-0.457437 -6.953543 29.110540 29.933001 1.505106 0.234962 0.011892 0.008492 197293.000000 0 0 1
0.318763 -5.779143 28.899430 29.473330 -1.515695 0.197663 0.030135 -0.000574 113565.000000 0 0 1
0.035163 -5.135243 27.656680 28.129414 -1.563949 0.183592 0.039825 0.007778 440407.000000 0 0 1
-1.270637 -4.295243 27.484160 27.846772 1.283175 0.161555 0.030705 0.012142 186842.000000 0 0 1
-2.491937 -4.967443 27.473430 28.029888 1.105826 0.199591 0.030756 0.014705 -949343.000000 0 0 1
-3.461637 -4.030143 27.077480 27.593748 0.861137 0.193743 0.018097 0.003338 -652754.000000 0 0 1
-4.911437 -4.426943 27.338020 28.126276 0.733563 0.237308 0.012484 0.001586 -217286.000000 0 0 1
-5.417937 -5.498143 26.566160 27.664860 0.792746 0.282773 0.006976 0.011113 -54528.600000 0 0 1
-6.648737 -6.015643 27.043090 28.490743 0.735450 0.320149 -0.002356 0.007880 573100.000000 0 0 1
-6.892637 -7.497043 26.684440 28.561748 0.827376 0.364585 0.001190 0.005803 658751.000000 0 0 1
-5.946937 -8.312243 27.419320 29.262238 0.949781 0.356796 -0.002772 0.003890 290085.000000 0 0 1
-6.319937 -9.635743 27.624550 29.931671 0.990295 0.395198 0.002414 0.004292 409843.000000 0 0 1
-5.297337 -10.383643 28.586970 30.872264 1.099052 0.387184 0.000994 -0.000068 597842.000000 0 0 1
-5.483537 -11.780343 28.641700 31.451434 1.135142 0.425907 0.015262 -0.003713 208022.000000 0 0 1
-4.703037 -12.396143 29.684750 32.511034 1.208178 0.420054 0.020030 -0.004186 90550.200000 0 0 1
-4.654137 -13.946743 29.776310 33.208452 1.248709 0.458656 0.044504 -0.014058 -500748.000000 0 0 1
-5.909637 -14.517443 29.961010 33.813342 1.184209 0.481998 0.059294 -0.017690 -753087.000000 0 0 1
-5.812137 -15.887243 30.244390 34.654128 1.220083 0.509989 0.049307 -0.020574 43830.600000 0 0 1
-6.081537 -16.208743 31.722720 36.139168 1.211849 0.499560 0.057672 -0.019724 -281481.000000 0 0 1
-7.428037 -16.178243 32.098840 36.704861 1.140370 0.506368 0.054966 -0.015454 -600580.000000 0 0 1
-7.649437 -16.493843 33.416020 38.041966 1.136546 0.498295 0.056164 -0.014060 -650055.000000 0 0 1
-9.111137 -16.743543 33.757006 38.767184 1.072449 0.514046 0.052618 -0.015124 -325411.000000 0 0 1
-9.704837 -17.991143 33.381640 39.143314 1.076110 0.549462 0.039131 -0.013194 205059.000000 0 0 1
-10.120137 -18.128443 32.009600 38.153272 1.061644 0.575401 0.038246 -0.017446 -96303.700000 0 0 1
-10.762437 -19.528643 31.732120 38.783056 1.067101 0.612531 0.028781 -0.023576 739168.000000 0 0 1
-11.938837 -19.891143 32.486060 39.919138 1.030223 0.620141 0.040446 -0.024945 832327.000000 0 0 1
-12.192437 -21.326143 32.444510 40.695284 1.051436 0.648063 0.023004 -0.019706 -444412.000000 0 0 1
-11.375637 -22.141343 33.482940 41.722314 1.096191 0.639291 0.010713 -0.010043 633418.000000 0 0 1
-9.995137 -22.275843 33.069798 41.106296 1.149025 0.635972 -0.000055 -0.012428 699952.000000 0 0 1
-9.263237 -23.007643 34.048120 42.124028 1.188037 0.629567 0.009622 -0.017432 -322638.000000 0 0 1
-9.694337 -24.470743 -34.304589 43.238898 1.193604 2.487127 0.008142 -0.000180 -400550.000000 0 0 1
-9.433037 -25.399793 33.471484 43.063581 1.215201 0.680501 0.003370 -0.003371 -108052.000000 0 0 1
-9.823337 -26.692143 33.838732 44.204392 1.218156 0.698969 0.028789 -0.006675 -585591.000000 0 0 1
-9.251137 -27.800363 32.951187 44.093361 1.249553 0.726799 0.011509 0.002095 1013280.000000 0 0 1
-7.835337 -27.760483 32.653820 43.569587 1.295704 0.723545 0.031952 -0.008152 923904.000000 0 0 1
-6.990837 -28.418903 33.561956 44.529887 1.329593 0.717130 0.029761 -0.010176 597139.000000 0 0 1
-5.506537 -27.917583 33.426945 43.898452 1.376053 0.705233 0.043029 -0.015423 791108.000000 0 0 1
-5.226937 -26.608783 33.921172 43.428034 1.376830 0.674388 0.033326 -0.011566 43607.200000 0 0 1
-5.014237 -25.636243 32.905118 42.013169 1.377643 0.670985 0.042338 -0.000449 38651.000000 0 0 1
-4.778037 -24.293543 33.539122 41.687871 1.376596 0.635913 0.039910 -0.007600 1092270.000000 0 0 1
-3.492337 -24.276643 34.218102 42.100242 1.427921 0.621893 0.029186 -0.001302 998968.000000 0 0 1
-3.187437 -23.014243 -34.034303 41.208603 1.433173 2.542598 0.025369 -0.006299 -96778.800000 0 0 1
34.206511 -15.151243 2.074547 37.469312 -0.416963 1.515401 0.048458 -0.024780 -106839.000000 0 0 1
34.623681 -15.373043 3.440447 38.039012 -0.417856 1.480227 0.038211 -0.021848 375290.000000 0 0 1
33.834051 -16.357743 4.013647 37.794552 -0.450336 1.464399 0.042564 -0.015699 122812.000000 0 0 1
34.577201 -16.718943 5.333247 38.775630 -0.450381 1.432818 0.037967 -0.005026 333013.000000 0 0 1
-35.320800 -17.504243 5.256647 39.769207 0.460104 1.438230 0.042405 -0.004289 -67841.100000 0 0 1
-34.632190 -17.508443 6.491347 39.345543 0.468081 1.405056 0.033130 0.004487 402048.000000 0 0 1
-33.306457 -18.306243 6.583447 38.571757 0.502559 1.399276 0.023868 -0.001118 53699.900000 0 0 1
-33.462827 -19.694543 6.423747 39.356072 0.531958 1.406842 0.034142 0.000250 -162825.000000 0 0 1
-32.391597 -20.451243 6.936747 38.930546 0.563170 1.391657 0.019676 0.002537 -184895.000000 0 0 1
-32.694177 -21.947143 7.081747 40.009217 0.591194 1.392856 0.021517 0.000272 -231250.000000 0 0 1
-32.546057 -22.673543 5.895647 40.101048 0.608481 1.423242 0.041332 -0.005087 95528.600000 0 0 1
-32.862937 -24.006543 6.188847 41.165381 0.630907 1.419883 0.047678 -0.011454 -278482.000000 0 0 1
-32.318357 -25.030633 5.188447 41.205932 0.658999 1.444546 0.052174 -0.012206 16840.400000 0 0 1
-32.812107 -24.881743 3.861547 41.359970 0.648798 1.477296 0.055077 -0.013978 322612.000000 0 0 1
-32.013227 -25.654273 2.972947 41.131823 0.675573 1.498455 0.055289 -0.011425 155069.000000 0 0 1
-32.474157 -25.618643 1.511547 41.390465 0.667932 1.534269 0.062699 -0.009862 -102609.000000 0 0 1
-33.684377 -26.293963 1.189847 42.748398 0.662798 1.542959 0.053243 -0.011817 265654.000000 0 0 1
-34.311271 -25.719923 0.069147 42.881028 0.643249 1.569184 0.053917 -0.012153 178604.000000 0 0 1
-35.304708 -24.542243 0.364547 42.998570 0.607467 1.562318 0.055566 -0.007297 -593539.000000 0 0 1
34.408121 -24.933143 0.435147 42.494350 -0.627065 1.560556 0.034681 -0.013466 -670893.000000 0 0 1
33.656631 -23.749543 0.536047 41.195837 -0.614503 1.557784 0.034827 -0.004851 1334650.000000 0 0 1
32.075911 -23.893743 0.447347 39.999690 -0.640237 1.559612 0.010657 -0.001671 1576690.000000 0 0 1
31.642501 -23.970843 -0.922453 39.707684 -0.648317 1.594030 0.014798 -0.011565 -171514.000000 0 0 1
30.250341 -23.802043 -1.056653 38.506323 -0.666662 1.598241 0.013027 -0.007112 -46920.900000 0 0 1
29.866831 -23.524443 -2.505353 38.101232 -0.667162 1.636599 0.005688 -0.003950 -108055.000000 0 0 1
30.254261 -22.243243 -2.970553 37.668374 -0.633968 1.649739 0.018392 -0.013316 163107.000000 0 0 1
30.185841 -22.066643 -4.392753 37.648613 -0.631247 1.687740 0.015597 -0.024267 -136299.000000 0 0 1
30.660731 -20.599643 -4.662653 37.231252 -0.591588 1.696361 0.023264 -0.025824 227127.000000 0 0 1
29.605681 -19.733143 -4.270553 35.834773 -0.587910 1.690254 0.021128 -0.022692 275444.000000 0 0 1
29.849751 -18.340243 -4.403853 35.309575 -0.550954 1.695843 0.028709 -0.021086 -270029.000000 0 0 1
28.716571 -17.679443 -3.611453 33.915288 -0.551850 1.677483 0.026022 -0.013922 -216063.000000 0 0 1
28.880471 -17.423243 -2.235453 33.803081 -0.542834 1.636976 0.020988 -0.010762 51976.500000 0 0 1
29.373021 -18.465543 -1.376953 34.722423 -0.561224 1.610463 0.013309 0.001579 -575134.000000 0 0 1
28.511211 -19.736343 -1.111953 34.693643 -0.605493 1.602852 0.014995 0.002128 -560188.000000 0 0 1
27.626041 -19.482143 -0.039153 33.804639 -0.614214 1.571955 0.012929 0.012855 -7467.250000 0 0 1
26.942311 -20.721843 0.139147 33.989738 -0.655625 1.566703 0.019599 0.012614 -223126.000000 0 0 1
26.035231 -20.675543 1.385247 33.275070 -0.671156 1.529154 0.018143 0.014092 -608798.000000 0 0 1
25.273771 -21.843843 1.629947 33.445086 -0.712731 1.522042 0.012877 0.024353 218230.000000 0 0 1
24.257171 -21.719143 2.602147 32.663477 -0.730251 1.491046 0.015512 0.011927 609406.000000 0 0 1
22.900671 -21.101743 2.126647 31.212929 -0.744538 1.502610 0.014737 0.008423 -286395.000000 0 0 1
22.795671 -19.711643 1.816247 30.190897 -0.712972 1.510601 0.025448 0.002233 186578.000000 0 0 1
22.795371 -18.933443 3.039347 29.788284 -0.693113 1.468587 0.033193 0.002168 -258694.000000 0 0 1
22.951871 -17.453643 2.825047 28.972383 -0.650153 1.473133 0.037564 0.007400 824588.000000 0 0 1
21.750671 -16.922143 2.218347 27.647273 -0.661185 1.490473 0.042283 0.004705 674050.000000 0 0 1
21.789671 -15.543043 1.880247 26.831163 -0.619611 1.500662 0.054122 -0.010074 700174.000000 0 0 1
20.443871 -14.977143 1.305047 25.376561 -0.632271 1.519346 0.059849 -0.008808 547689.000000 0 0 1
19.282971 -15.008543 2.095847 24.525129 -0.661388 1.485235 0.052273 -0.006601 -170472.000000 0 1 0
18.248571 -14.139443 1.794447 23.155005 -0.659201 1.493221 0.050809 -0.006821 -322973.000000 0 1 0
18.502271 -12.690443 2.236147 22.547323 -0.601190 1.471457 0.052622 -0.008370 -608110.000000 0 1 0
19.477771 -12.052943 1.436947 22.950421 -0.554132 1.508144 0.048777 -0.008118 242141.000000 0 1 0
19.870771 -10.842643 2.007047 22.725288 -0.499503 1.482363 0.052375 -0.009955 -33426.800000 0 1 0
20.885171 -10.072543 1.113747 23.213939 -0.449373 1.522800 0.059400 -0.011341 -334439.000000 0 1 0
20.355971 -9.639743 -0.107353 22.523360 -0.442272 1.575563 0.067793 -0.009286 90911.400000 0 1 0
21.260871 -9.039443 -0.963453 23.122812 -0.402013 1.612475 0.064731 -0.005809 -765308.000000 0 1 0
20.589471 -8.772243 -2.308753 22.499087 -0.402764 1.673593 0.070433 -0.001445 173819.000000 0 1 0
21.414871 -8.086643 -3.275453 23.123994 -0.361064 1.712922 0.061133 -0.008281 1333220.000000 0 1 0
22.384271 -8.897643 -4.007553 24.418930 -0.378345 1.735659 0.056403 -0.006908 104239.000000 0 1 0
21.816671 -9.938243 -5.033553 24.496377 -0.427447 1.777752 0.034986 -0.007038 -451289.000000 0 1 0
21.129971 -9.417043 -6.167653 23.941519 -0.419249 1.831348 0.023718 -0.017777 939289.000000 0 1 0
19.712771 -9.382743 -5.943953 22.626529 -0.444242 1.836614 0.018336 -0.010164 495711.000000 0 1 0
18.920971 -9.305643 -7.295553 22.311953 -0.457079 1.903902 0.015405 -0.009593 -124396.000000 0 1 0
18.926971 -10.542543 -8.083553 23.123998 -0.508210 1.927913 0.018016 -0.008944 984127.000000 0 1 0
20.231771 -10.825443 -8.574753 24.495738 -0.491310 1.928422 0.021837 -0.009233 124450.000000 0 1 0
20.136471 -12.165843 -9.286053 25.292608 -0.543480 1.946734 0.017708 -0.014600 -99945.200000 0 0 1
19.284871 -12.100643 -10.419453 25.037908 -0.560372 2.000000 0.036180 -0.027101 340753.000000 0 0 1
19.119071 -13.407043 -10.904553 25.772019 -0.611557 2.007678 0.027411 -0.017324 -418990.000000 0 0 1
17.873571 -13.583943 -11.771253 25.348579 -0.649871 2.053725 0.029324 -0.020880 -329905.000000 0 0 1
17.715571 -15.012943 -12.089253 26.179763 -0.703008 2.050796 0.029848 -0.024091 -671290.000000 0 0 1
16.685271 -15.215443 -12.963253 26.037549 -0.739356 2.091935 0.029434 -0.023997 -1212030.000000 0 0 1
16.406271 -16.675443 -13.373653 26.946071 -0.793535 2.090142 0.018539 -0.021736 -293581.000000 0 0 1
15.826871 -17.518343 -12.369553 26.653106 -0.836081 2.053408 0.022636 -0.018839 360817.000000 0 0 1
15.714171 -18.856743 -12.854253 27.708190 -0.876051 2.053206 0.020799 -0.020604 -244233.000000 0 0 1
14.738971 -19.756043 -12.036053 27.430004 -0.929829 2.025050 0.020945 -0.018094 -356619.000000 0 0 1
13.387271 -19.512043 -12.278653 26.659036 -0.969458 2.049446 0.003049 -0.011441 -492875.000000 0 0 1
12.555971 -20.279643 -11.385853 26.430172 -1.016421 2.016164 -0.000365 -0.004357 596636.000000 0 0 1
11.096571 -20.240243 -11.913353 25.975553 -1.069303 2.047257 0.002664 -0.011388 -95869.500000 0 0 1
10.213671 -21.007743 -11.175153 25.894563 -1.118261 2.017022 -0.000890 -0.008771 -775329.000000 0 0 1
8.895171 -20.888643 -11.639653 25.513546 -1.168216 2.044533 -0.002561 -0.009287 -354925.000000 0 0 1
7.854271 -21.602143 -10.788353 25.391549 -1.222068 2.009625 -0.002986 -0.005423 -494812.000000 0 0 1
7.814071 -22.997643 -10.731053 26.553848 -1.243258 1.986818 0.004241 -0.012223 15030.700000 0 0 1
6.998571 -23.451543 -9.639253 26.303424 -1.280783 1.946002 0.015506 -0.020645 355698.000000 0 0 1
6.890571 -24.962943 -9.461653 27.570843 -1.301471 1.921093 0.023389 -0.018576 -261602.000000 0 0 1
8.160171 -25.381213 -9.084153 28.165870 -1.259729 1.899191 0.022845 -0.013284 -845277.000000 0 0 1
8.393671 -26.733993 -9.492053 29.584780 -1.266573 1.897415 0.019287 -0.010354 -358920.000000 0 0 1
9.864971 -27.127573 -9.463753 30.377385 -1.222012 1.887609 0.014215 -0.002434 -127660.000000 0 0 1
10.412671 -27.239003 -8.107853 30.267546 -1.205667 1.841981 0.018154 -0.010787 -474212.000000 0 0 1
11.708771 -27.748813 -8.119053 31.193124 -1.171507 1.834112 0.019619 -0.001448 -855125.000000 0 0 1
12.241371 -27.990613 -6.687553 31.273775 -1.158521 1.786300 0.014014 -0.007700 -137290.000000 0 0 1
11.715571 -29.054523 -5.939653 31.885724 -1.187511 1.758170 0.023251 -0.012272 -660835.000000 0 0 1
10.347471 -29.028083 -5.673853 31.335162 -1.228374 1.752871 0.027269 -0.010790 -705003.000000 0 0 1
9.925971 -30.055683 -4.588953 31.983238 -1.251821 1.714773 0.034012 -0.015908 -46937.300000 0 0 1
10.036071 -31.463593 -4.886753 33.385039 -1.262024 1.717700 0.035965 -0.010782 -348423.000000 0 0 1
9.184371 -32.059843 -5.851753 33.858961 -1.291793 1.744496 0.050647 -0.011539 -30142.500000 0 0 1
9.400171 -33.517083 -6.214653 35.360713 -1.297362 1.747464 0.052345 -0.005806 -31707.300000 0 0 1
8.934771 -34.430087 -5.201553 35.948814 -1.316892 1.715999 0.043190 -0.004996 -31990.500000 0 0 1
9.528971 33.271669 -5.281253 35.009954 1.291864 1.722224 0.042923 -0.006242 -294471.000000 0 0 1
8.959371 32.273320 -4.284753 33.766798 1.300006 1.698032 0.039887 0.000678 -891414.000000 0 0 1
7.612671 32.025840 -4.440053 33.216280 1.337423 1.704869 0.039248 -0.004796 -1104770.000000 0 0 1
7.085971 31.038540 -3.569853 32.036632 1.346347 1.682459 0.015138 -0.005026 6431.730000 0 0 1
5.657771 30.536310 -3.831453 31.291479 1.387594 1.693548 0.019648 -0.009547 -7131.130000 0 0 1
5.446271 29.730020 -4.980953 30.632431 1.389614 1.734125 0.023619 -0.003533 -164083.000000 0 0 1
5.170871 30.517840 -6.100953 31.548345 1.402953 1.765407 0.023143 -0.004595 -388084.000000 0 0 1
5.358071 29.811000 -7.415953 31.183345 1.392960 1.810915 0.042025 -0.012444 201978.000000 0 0 1
4.595071 28.645290 -7.796953 30.040969 1.411739 1.833346 0.041109 -0.013431 -45932.100000 0 0 1
5.105871 27.484860 -7.225153 28.873695 1.387120 1.823717 0.029933 -0.008434 -673511.000000 0 0 1
4.368271 26.168140 -7.458953 27.558834 1.405391 1.844870 0.029743 -0.014284 -1522780.000000 0 0 1
3.134671 26.026020 -6.885053 27.103207 1.450930 1.827642 0.026420 -0.011983 -709775.000000 0 0 1
2.017271 26.495810 -7.667353 27.656566 1.494807 1.851711 0.032265 -0.016749 453587.000000 0 0 1
1.604471 25.700000 -8.963353 27.265473 1.508446 1.905769 0.033981 -0.019428 -345771.000000 0 0 1
2.543871 25.665950 -10.052453 27.681475 1.472004 1.942440 0.031295 -0.017790 355127.000000 0 0 1
2.060471 24.904810 -11.168153 27.371934 1.488250 1.991075 0.035676 -0.010353 -268129.000000 0 0 1
1.949171 23.330210 -10.951253 25.846236 1.487443 2.008331 0.045746 -0.017053 -780765.000000 0 0 1
0.866171 22.907910 -10.228253 25.102585 1.533003 1.990465 0.047661 -0.018745 -949539.000000 0 0 1
0.809971 21.535010 -10.400553 23.928732 1.533202 2.020443 0.036753 -0.018476 -105313.000000 0 1 0
-0.366529 20.812810 -9.682053 22.957560 -1.553187 2.006157 0.037740 -0.012059 392114.000000 0 1 0
-1.671029 21.182410 -10.081553 23.518600 -1.492072 2.013809 0.036707 -0.012822 275375.000000 0 1 0
-2.613929 20.346110 -9.371753 22.552751 -1.443023 1.999342 0.027103 -0.010298 797867.000000 0 1 0
-4.064329 20.935110 -9.375153 23.295731 -1.379042 1.984978 0.040083 -0.006709 -6454.700000 0 1 0
-5.066829 20.108110 -8.981153 22.598008 -1.323956 1.979512 0.027667 -0.011780 -660446.000000 0 1 0
-5.738729 19.491210 -10.058153 22.671716 -1.284461 2.030456 0.024113 -0.007190 -510741.000000 0 1 0
-6.656929 18.332010 -9.575953 21.727314 -1.222471 2.027212 0.026443 -0.012820 -108524.000000 0 1 0
-7.709429 18.711410 -8.726153 22.038555 -1.179973 1.977898 0.038065 -0.013263 -82152.300000 0 1 0
-8.967529 18.811610 -9.370753 22.849601 -1.125960 1.993366 0.051739 -0.020617 -149720.000000 0 1 0
-10.008229 19.147210 -8.286553 23.139733 -1.089155 1.937038 0.063295 -0.027760 -268333.000000 0 1 0
-10.294229 18.023110 -7.482253 22.063267 -1.051846 1.916785 0.057672 -0.025569 -85192.600000 0 1 0
-11.228829 18.300810 -6.462053 22.422408 -1.020459 1.863139 0.057052 -0.026825 -271530.000000 0 1 0
-11.595029 17.127410 -5.549553 21.414724 -0.975683 1.832935 0.035092 -0.030529 -401786.000000 0 1 0
-12.501729 17.524710 -4.577953 22.008324 -0.951149 1.780336 0.045973 -0.027738 -105210.000000 0 1 0
-12.964629 16.431310 -3.742253 21.262032 -0.902787 1.747724 0.043615 -0.025756 -297449.000000 0 1 0
-14.181029 16.788110 -2.915953 22.168558 -0.869383 1.702714 0.031041 -0.024034 -915970.000000 0 1 0
-15.421529 16.780410 -3.547753 23.064957 -0.827572 1.725225 0.055905 -0.028725 -337947.000000 0 1 0
-16.435329 17.242910 -2.672753 23.970431 -0.809373 1.682531 0.050208 -0.025393 297897.000000 0 1 0
-17.752129 17.460210 -3.476953 25.141325 -0.777108 1.709537 0.047189 -0.030848 -33097.400000 0 0 1
-17.614229 18.628510 -4.233953 25.984780 -0.813377 1.734466 0.032563 -0.030501 274655.000000 0 0 1
-18.903729 19.056810 -4.621453 27.237305 -0.789431 1.741295 0.019552 -0.030600 60542.600000 0 0 1
-18.945429 19.722910 -6.044053 28.008088 -0.805502 1.788304 0.007380 -0.009113 -341944.000000 0 0 1
-18.450929 21.036210 -6.115753 28.641950 -0.850776 1.785977 0.010335 -0.018274 210856.000000 0 0 1
-18.590429 21.512110 -7.428553 29.386363 -0.858125 1.826358 0.002832 -0.008455 -259955.000000 0 0 1
-18.589229 23.098910 -7.584853 30.604723 -0.893156 1.821239 0.011129 -0.003834 280279.000000 0 0 1
-17.407829 23.828510 -7.232653 30.383246 -0.939862 1.811151 0.029760 -0.014834 390608.000000 0 0 1
-17.238529 23.991340 -5.840853 30.114230 -0.947741 1.765990 0.026928 -0.010938 -178106.000000 0 0 1
-15.927729 24.753120 -5.542153 29.952044 -0.999030 1.756903 0.031308 -0.018983 -193252.000000 0 0 1
-15.959629 25.500260 -4.319753 30.391335 -1.011578 1.713417 0.025967 -0.020241 40573.300000 0 0 1
-14.773029 26.185890 -3.981453 30.328125 -1.057147 1.702456 0.041025 -0.016876 -32118.600000 0 0 1
-14.305029 27.445120 -4.738453 31.310084 -1.090315 1.722720 0.040860 -0.010188 138479.000000 0 0 1
-15.141729 28.580020 -4.520553 32.657692 -1.083593 1.709665 0.034778 -0.002335 242776.000000 0 0 1
-14.604429 29.741110 -5.160453 33.532868 -1.114333 1.725303 0.029983 -0.006760 -65208.400000 0 0 1
-15.067629 31.046200 -4.584153 34.812561 -1.118954 1.702861 0.020707 -0.003009 -1272780.000000 0 0 1
-16.307629 31.415130 -5.015153 35.749138 -1.091985 1.711548 0.041325 -0.004677 -1230440.000000 0 0 1
-16.500629 32.723400 -4.486553 36.921820 -1.103758 1.692612 0.032685 -0.002917 -122946.000000 0 0 1
12.478363 -8.329443 19.109930 24.295650 -0.588587 0.665582 0.019846 -0.011782 -202936.000000 0 1 0
12.811263 -9.640543 19.437730 25.197101 -0.645103 0.689715 0.029772 -0.014545 -85300.100000 0 0 1
13.124263 -10.415243 18.286830 24.801849 -0.670818 0.741706 0.025842 -0.018908 -252306.000000 0 1 0
13.674663 -11.769643 18.752130 26.022361 -0.710667 0.766106 0.047755 -0.019633 595350.000000 0 0 1
14.989963 -11.640343 19.342830 27.098739 -0.660273 0.775900 0.038032 -0.011618 979362.000000 0 0 1
15.296863 -12.760143 20.197230 28.367999 -0.695230 0.778493 0.039737 -0.015792 -179482.000000 0 0 1
15.970063 -13.962643 19.558830 28.853876 -0.718434 0.825951 0.037342 -0.002702 -91768.900000 0 0 1
15.176063 -14.480443 18.454930 27.938872 -0.761947 0.849250 0.047290 -0.013534 696551.000000 0 0 1
15.764763 -15.635143 17.929530 28.538632 -0.781270 0.891488 0.055965 -0.009757 -535663.000000 0 0 1
15.425263 -15.851943 16.416630 27.545028 -0.799039 0.932295 0.060586 -0.009021 -769661.000000 0 0 1
14.113063 -16.247643 16.182930 26.926784 -0.855590 0.926048 0.107206 -0.019910 -526645.000000 0 0 1
13.883163 -16.137743 14.799430 25.926668 -0.860358 0.963294 0.126579 -0.029815 921185.000000 0 0 1
12.847863 -17.291343 14.376830 25.898868 -0.931776 0.982296 0.074433 -0.011868 916273.000000 0 0 1
13.580963 -18.465743 14.082530 26.902488 -0.936661 1.019883 0.075060 -0.010586 583312.000000 0 0 1
12.705063 -19.538343 13.754230 27.061861 -0.994236 1.037643 0.071748 -0.015972 161460.000000 0 0 1
13.426563 -20.723443 13.044630 27.926619 -0.995904 1.084784 0.067126 -0.012995 -266377.000000 0 0 1
14.280763 -21.346543 13.935630 29.220145 -0.981183 1.073651 0.043723 -0.010075 -448104.000000 0 0 1
14.960463 -22.380143 13.294530 30.023837 -0.981546 1.112078 0.032174 -0.007860 -115390.000000 0 0 1
15.882463 -23.257143 14.203230 31.541704 -0.971635 1.103695 0.032184 -0.006632 -157515.000000 0 0 1
17.127963 -22.636243 14.388230 31.824327 -0.923046 1.101662 -0.002074 -0.005504 -536042.000000 0 0 1
17.693063 -23.211343 15.548130 33.068947 -0.919495 1.081309 0.008524 -0.006469 17845.100000 0 0 1
19.154063 -22.777743 15.865130 33.725451 -0.871602 1.081030 -0.015050 -0.001516 312286.000000 0 0 1
20.026863 -23.470343 15.002130 34.307378 -0.864399 1.118218 -0.014125 -0.012966 -408604.000000 0 0 1
21.248563 -22.762643 14.860530 34.503256 -0.819787 1.125529 -0.013923 -0.004709 72585.900000 0 0 1
22.355263 -23.613443 14.229730 35.494192 -0.812762 1.158294 -0.018685 -0.014562 -172986.000000 0 0 1
22.835363 -24.560343 15.190230 36.815857 -0.821777 1.145490 -0.015327 -0.010865 798636.000000 0 0 1
24.119863 -25.116283 14.861530 37.861069 -0.805633 1.167418 -0.006336 -0.018645 542718.000000 0 0 1
24.449263 -26.342853 15.775130 39.250059 -0.822662 1.157191 -0.004379 -0.016049 -22281.200000 0 0 1
24.694063 -26.022493 17.109330 39.745391 -0.811585 1.125779 0.008886 -0.006610 109909.000000 0 0 1
25.120863 -27.156783 17.885530 41.090641 -0.824323 1.120458 0.025007 -0.000867 110866.000000 0 0 1
25.395363 -26.867933 19.394330 41.748657 -0.813567 1.087670 0.012670 0.005928 -56080.500000 0 0 1
24.241763 -26.484253 20.092330 41.143413 -0.829577 1.060600 0.002330 0.012515 -56599.800000 0 0 1
24.588463 -25.805873 21.310530 41.529198 -0.809551 1.031950 0.007634 0.016067 -183875.000000 0 0 1
23.367663 -25.696533 22.230830 41.237959 -0.832828 1.001444 0.003688 0.018975 39383.100000 0 0 1
22.836763 -26.978433 22.622730 41.965957 -0.868348 1.001460 -0.001539 0.021746 67363.000000 0 0 1
21.787763 -26.804873 23.549430 41.806501 -0.888282 0.972427 0.007425 0.022321 -235877.000000 0 0 1
21.049163 -28.122523 23.844310 42.455797 -0.928268 0.974446 0.017484 0.013867 -631587.000000 0 0 1
21.928563 -28.992613 24.488250 43.830445 -0.923244 0.977974 0.010106 0.015469 191494.000000 0 0 1
21.994263 -30.214413 23.820300 44.317774 -0.941564 1.003340 0.021409 0.004289 -786265.000000 0 0 1
23.076163 -31.158863 24.303320 45.760632 -0.933340 1.010902 -0.000426 0.011773 -604478.000000 0 0 1
22.989963 -31.643123 25.647260 46.771868 -0.942480 0.990409 0.005307 0.010758 247129.000000 0 0 1
24.167363 -32.368203 25.993980 48.035914 -0.929450 0.999008 0.017906 0.008277 -94458.000000 0 0 1
23.993163 -33.193123 27.332940 49.239668 -0.944908 0.982313 0.024865 -0.013760 44163.700000 0 0 1
23.174563 -34.371465 27.300340 49.636343 -0.977570 0.988424 0.017084 -0.000552 119254.000000 0 0 1
21.809163 -34.064404 27.413810 48.862462 -1.001318 0.975154 0.018368 0.004688 -841432.000000 0 0 1
20.926863 33.743767 27.843510 48.495736 1.015678 0.959239 0.040485 -0.018974 -478374.000000 0 0 1
20.805563 33.688300 29.259570 49.233073 1.017543 0.934392 0.047221 -0.010787 283401.000000 0 0 1
20.349263 32.359780 29.631210 48.365861 1.009437 0.911391 0.046826 -0.014730 101454.000000 0 0 1
19.823363 32.419410 31.110060 49.110281 1.021989 0.884762 0.035430 -0.018475 -539502.000000 0 0 1
20.844063 32.506040 32.044460 50.179329 1.000606 0.878120 0.028523 -0.008743 -276633.000000 0 0 1
20.454763 32.857350 33.372202 51.104859 1.013973 0.859239 0.024269 -0.005752 -164888.000000 0 0 1
21.715363 33.046182 34.242340 52.308173 0.989431 0.857107 0.012162 -0.003887 208514.000000 0 0 1
22.238663 31.772740 -34.194551 51.704279 0.960118 2.293412 0.014992 -0.002195 129782.000000 0 0 1
23.597363 31.856250 -33.815103 52.106788 0.933245 2.277010 0.005048 -0.001159 -125014.000000 0 0 1
24.168563 30.529710 -33.271233 51.216770 0.901173 2.277876 0.009430 0.006684 -718540.000000 0 0 1
24.505063 29.639390 -34.317498 51.543013 0.879942 2.299366 0.022616 -0.003140 -431886.000000 0 0 1
23.775663 28.453700 -34.265150 50.487580 0.874727 2.316767 0.036058 -0.017113 -327482.000000 0 0 1
23.812863 27.622230 33.228508 49.337347 0.859325 0.831868 0.065783 -0.024463 -531979.000000 0 0 1
25.028863 27.022710 32.938644 49.412803 0.823685 0.841156 0.064847 -0.025840 -404234.000000 0 0 1
24.874563 26.215820 31.741030 48.098920 0.811645 0.850095 0.077815 -0.040348 40216.800000 0 0 1
26.133763 25.386980 31.270120 48.013464 0.770904 0.861529 0.077540 -0.031205 560034.000000 0 0 1
26.583663 24.412320 32.216650 48.379387 0.742845 0.842074 0.097105 -0.039136 490502.000000 0 0 1
27.315163 24.967590 33.302815 49.785301 0.740527 0.838030 0.079677 -0.033538 -1312620.000000 0 0 1
27.347963 24.059840 -34.262190 50.006846 0.721524 2.325606 0.060675 -0.035468 489890.000000 0 0 1
26.327663 24.234510 -33.239423 48.839703 0.744024 2.319353 0.065785 -0.023028 1287410.000000 0 0 1
24.985063 23.950510 -33.609473 48.243932 0.764260 2.341523 0.070299 -0.022651 29487.100000 0 0 1
24.445763 22.521710 -33.737103 47.360478 0.744455 2.363633 0.071874 -0.027209 -497471.000000 0 0 1
24.453563 21.819910 -32.452053 46.121806 0.728545 2.351270 0.050046 -0.023777 361408.000000 0 0 1
23.993163 20.500510 -32.596283 45.370259 0.707061 2.372368 0.046783 -0.017304 -159417.000000 0 0 1
23.838163 19.713010 -31.273303 43.987274 0.690960 2.361662 0.041606 -0.016815 -485692.000000 0 0 1
22.736363 20.141510 -30.531743 43.067505 0.724955 2.358773 0.038809 -0.013727 -106524.000000 0 0 1
22.794863 19.393410 -29.266103 41.859466 0.704947 2.345006 0.038851 -0.007997 558162.000000 0 0 1
21.600363 19.705610 -28.282973 40.679397 0.739559 2.339585 0.049735 -0.015551 597078.000000 0 0 1
21.516363 18.993510 -27.051813 39.439927 0.723201 2.326635 0.048075 -0.016130 -27200.800000 0 0 1
22.405563 19.543110 -26.099743 39.561837 0.717267 2.291243 0.042205 -0.010718 -301828.000000 0 0 1
22.335863 18.891210 -24.722053 38.300764 0.702039 2.272437 0.050438 -0.006621 -240622.000000 0 0 1
23.172463 17.776410 -24.728253 38.268137 0.654378 2.273370 0.044384 -0.021563 9600.800000 0 0 1
23.098563 17.015410 -23.561753 37.124439 0.634898 2.258377 0.050307 -0.019974 -166537.000000 0 0 1
23.926063 15.699010 -23.549453 37.060655 0.580684 2.259362 0.051753 -0.025453 792383.000000 0 0 1
25.362363 15.797210 -23.607653 38.080475 0.557059 2.239464 0.057822 -0.023673 1060020.000000 0 0 1
26.035763 14.564310 -23.744853 38.128705 0.510029 2.243056 0.050563 -0.025438 -52978.200000 0 0 1
26.075363 13.670010 -22.441553 37.019144 0.482859 2.222089 0.049728 -0.025287 -383314.000000 0 0 1
24.848963 13.008210 -22.210753 35.777116 0.482263 2.240570 0.051404 -0.022146 85077.000000 0 0 1
24.786163 12.486410 -20.914953 34.751972 0.466655 2.216593 0.038164 -0.015582 177276.000000 0 0 1
23.305463 12.110610 -20.636053 33.401469 0.479241 2.236762 0.036873 -0.012423 324562.000000 0 0 1
22.430363 13.215010 -20.511253 33.143162 0.532409 2.238098 0.058217 -0.014218 -533841.000000 0 0 1
21.215963 12.854710 -21.105153 32.569743 0.544745 2.275750 0.052885 -0.019510 -39588.300000 0 0 1
20.192463 14.048410 -21.118953 32.420727 0.607851 2.280228 0.056116 -0.020111 -131019.000000 0 0 1
20.597563 15.088110 -21.981853 33.691431 0.632219 2.281604 0.052918 -0.016321 21950.000000 0 0 1
19.712163 16.163210 -21.997353 33.670495 0.686794 2.282748 0.045571 -0.013718 -208677.000000 0 0 1
18.463263 16.025110 -22.899253 33.497343 0.714821 2.323499 0.042301 -0.001208 275216.000000 0 0 1
17.416263 15.215510 -22.354153 32.164361 0.718058 2.339213 0.027373 -0.003185 227587.000000 0 0 1
16.288363 15.232610 -23.196053 32.177633 0.751917 2.375860 0.025795 -0.011350 444874.000000 0 0 1
15.135163 14.314210 -22.647253 30.771218 0.757529 2.397922 0.007098 -0.004081 1401560.000000 0 0 1
13.912863 14.334010 -23.398553 30.765628 0.800307 2.434944 0.016816 -0.007646 280343.000000 0 0 1
12.850463 13.558210 -22.910453 29.560925 0.812192 2.457551 0.026069 -0.002435 380955.000000 0 0 1
11.541663 13.858010 -23.704653 29.785315 0.876343 2.491207 0.024570 0.003502 47310.800000 0 0 1
11.111563 15.172110 -23.578153 30.159394 0.938676 2.468319 0.013536 0.009271 -229822.000000 0 0 1
10.591363 15.662210 -24.757553 31.151536 0.976197 2.489385 0.015826 -0.007374 -850245.000000 0 0 1
10.368463 17.182010 -24.688053 31.815507 1.027845 2.459056 0.011458 -0.006526 -9930.850000 0 0 1
11.500063 18.033810 -24.469553 32.499673 1.003120 2.423279 0.008881 -0.009763 1169830.000000 0 0 1
12.693263 17.966910 -25.305883 33.530829 0.955735 2.426001 0.014721 -0.018330 823680.000000 0 0 1
12.580463 17.731210 -26.895513 34.583702 0.953717 2.461784 0.022891 -0.029119 -852798.000000 0 0 1
13.715563 17.767710 -27.716643 35.665396 0.913402 2.460889 0.021938 -0.030796 -366276.000000 0 0 1
13.273663 17.679810 -29.022863 36.484139 0.926796 2.490616 0.020658 -0.027065 -291795.000000 0 0 1
14.339163 18.028510 -30.071883 37.880825 0.898891 2.487919 0.016341 -0.014092 -60019.700000 0 0 1
15.434463 17.150610 -30.211213 38.014253 0.838016 2.489365 0.010049 -0.012551 -49376.000000 0 0 1
16.331963 17.724710 -31.165213 39.397574 0.826270 2.483310 0.015455 -0.005515 421697.000000 0 0 1
17.574963 16.816210 -31.404463 39.722847 0.763339 2.482567 0.031835 -0.009741 -263089.000000 0 0 1
18.535863 16.712510 -30.362473 39.303511 0.733716 2.453586 0.044431 -0.013404 -129531.000000 0 0 1
19.458763 15.715410 -30.658223 39.566958 0.679374 2.457265 0.049009 -0.009736 -839989.000000 0 0 1
20.736863 16.247110 -31.265643 40.884306 0.664592 2.441426 0.046618 -0.013423 -1479820.000000 0 0 1
20.622463 16.665110 -32.604883 42.024877 0.679663 2.458853 0.057188 -0.013610 371738.000000 0 0 1
21.841763 17.035610 -33.251593 43.277512 0.662399 2.447031 0.061269 -0.013656 175911.000000 0 0 1
21.670263 17.665910 34.141839 44.128787 0.683949 0.686157 0.040085 -0.001292 -267894.000000 0 0 1
22.799863 18.397510 33.756747 44.696981 0.678942 0.714783 0.048953 -0.014333 -31929.700000 0 0 1
22.611463 18.964810 32.431640 43.849214 0.697912 0.738295 0.055360 -0.013493 90650.600000 0 0 1
23.493663 20.228310 32.104490 44.629979 0.710852 0.767933 0.068505 -0.017927 -136018.000000 0 0 1
24.860763 19.963710 32.005140 45.176722 0.676580 0.783506 0.062487 -0.023067 -511824.000000 0 0 1
25.516363 21.175810 31.703040 45.875728 0.692704 0.807837 0.070442 -0.033383 126944.000000 0 0 1
27.047363 21.117110 31.463560 46.555857 0.662890 0.828714 0.067469 -0.037728 26005.100000 0 0 1
27.739963 20.728910 32.606030 47.564130 0.641744 0.815482 0.046862 -0.036369 -553668.000000 0 0 1
29.091863 20.579810 32.282620 48.083600 0.615680 0.834720 0.028408 -0.022217 64582.600000 0 0 1
30.069363 20.009810 33.370756 49.174856 0.587163 0.824922 0.005714 -0.019974 460983.000000 0 0 1
30.253663 20.714510 -34.206788 50.144585 0.600380 2.321513 0.007715 -0.010062 372049.000000 0 0 1
29.144663 20.485610 -33.334563 48.787956 0.612666 2.323006 0.006275 -0.011946 233830.000000 0 0 1
29.280963 20.958710 -31.923313 48.122139 0.621238 2.296124 0.008892 -0.004372 290329.000000 0 0 1
30.262363 20.138510 -31.270943 47.950413 0.587169 2.281216 0.009684 -0.009464 332258.000000 0 0 1
30.473463 20.557810 -29.893753 47.380291 0.593484 2.253551 0.005075 -0.001649 2343.340000 0 0 1
31.860863 20.064910 -29.375343 47.755900 0.562020 2.233327 0.013516 0.008827 724616.000000 0 0 1
32.793163 20.794410 -30.211593 49.198977 0.565122 2.232003 -0.007279 0.005937 494784.000000 0 0 1
34.157663 20.493610 -29.923043 49.820904 0.540398 2.215063 -0.012929 0.018868 638399.000000 0 0 1
35.194263 21.314710 -30.701373 51.337387 0.544549 2.211839 -0.030620 0.010340 145840.000000 0 0 1
-35.302546 20.631210 -31.831723 51.818676 -0.528878 2.232283 -0.032890 0.004704 174690.000000 0 0 1
-34.303846 21.393710 -32.486403 51.863389 -0.557630 2.247702 -0.030742 0.005007 369110.000000 0 0 1
-33.336346 20.583410 -33.393803 51.479460 -0.553149 2.276648 -0.036828 0.005649 803214.000000 0 0 1
-32.356746 19.736810 -32.717033 50.069002 -0.547722 2.282915 -0.012581 -0.003434 899849.000000 0 0 1
-31.561746 19.045210 -33.657733 49.917000 -0.542936 2.310777 0.005002 -0.008142 -278617.000000 0 0 1
-30.965746 17.785710 -33.085043 48.680890 -0.521359 2.318056 0.003020 0.000632 166807.000000 0 0 1
-31.884646 16.681110 -33.106753 48.897313 -0.482012 2.314566 0.004111 0.002352 477958.000000 0 0 1
-31.185446 15.486110 -33.231723 48.132100 -0.460909 2.332876 -0.001219 0.011341 -198020.000000 0 0 1
-32.129146 14.323210 -33.567353 48.623077 -0.419357 2.332781 0.002573 0.007914 145108.000000 0 0 1
-31.508946 13.054710 -33.449113 47.771145 -0.392788 2.346467 0.018153 -0.000546 183964.000000 0 0 1
-32.559446 12.134810 -33.571903 48.316083 -0.356750 2.338992 0.022215 0.000348 -340206.000000 0 0 1
-32.151646 10.689410 -33.673093 47.768913 -0.320972 2.353102 0.023576 0.005407 -482768.000000 0 0 1
-31.887346 10.253510 33.828297 47.605577 -0.311112 0.780452 0.025692 0.005466 104744.000000 0 0 1
-31.885246 8.834010 33.768788 47.276206 -0.270277 0.775191 0.023141 0.000651 29759.000000 0 0 1
-31.068846 8.161410 32.587360 45.758255 -0.256884 0.778221 0.025577 -0.003053 -45943.300000 0 0 1
-29.685346 8.293910 32.727680 44.956755 -0.272447 0.755423 0.009869 0.009881 -835479.000000 0 0 1
-28.993446 7.726510 31.676900 43.631925 -0.260439 0.758305 0.012344 -0.005868 -335379.000000 0 0 1
20.668463 -4.357043 -31.237313 37.708605 -0.207764 2.547018 0.017766 -0.029403 -265240.000000 0 0 1
21.489563 -4.345943 -32.389223 39.112023 -0.199544 2.546532 0.013269 -0.025714 250891.000000 0 0 1
22.613163 -3.484443 -32.258653 39.548921 -0.152887 2.524673 0.012259 -0.021662 344914.000000 0 0 1
22.225963 -2.011443 -32.523473 39.443829 -0.090254 2.540206 0.020287 -0.020789 -1061900.000000 0 0 1
23.250463 -1.175043 -32.133403 39.680226 -0.050496 2.514623 0.020843 -0.014050 -476575.000000 0 0 1
23.059463 0.240457 -32.141803 39.558718 0.010427 2.519239 0.028185 -0.011313 -35026.400000 0 0 1
24.210163 1.066257 -31.479843 39.727187 0.044013 2.485531 0.025358 0.003019 221459.000000 0 0 1
25.425363 1.222957 -32.164893 41.018594 0.048063 2.472128 0.031101 -0.002137 -420715.000000 0 0 1
26.237263 2.141757 -31.476903 41.033846 0.081450 2.445099 0.028923 -0.001873 2263070.000000 0 0 1
27.813263 2.213057 -31.898033 42.378765 0.079401 2.422933 0.034138 -0.000877 2230470.000000 0 0 1
28.128963 2.708757 -33.171483 43.576636 0.096002 2.435991 0.047455 -0.002290 163986.000000 0 0 1
27.808463 1.766557 -34.192933 44.108820 0.063441 2.457820 0.047905 -0.004921 -543280.000000 0 0 1
28.483263 2.038457 33.245083 43.825645 0.071445 0.709671 0.043526 -0.023287 -428287.000000 0 0 1
27.979263 3.056957 32.469820 42.970610 0.108826 0.714183 0.054850 -0.018094 269719.000000 0 0 1
28.408563 4.328857 32.939913 43.712965 0.151215 0.717350 0.063251 -0.018641 258569.000000 0 0 1
27.642263 5.284257 31.974060 42.595288 0.188887 0.721754 0.063524 -0.008953 186943.000000 0 0 1
27.821663 6.641357 32.278930 43.128667 0.234326 0.725100 0.066522 -0.009028 92192.900000 0 0 1
26.938763 7.432257 31.528930 42.130854 0.269198 0.725214 0.044539 -0.006589 -186486.000000 0 0 1
27.121363 8.894757 31.931350 42.828684 0.316908 0.729422 0.029035 -0.003129 736616.000000 0 0 1
28.344163 9.414657 31.387610 43.326775 0.320690 0.760576 0.034217 -0.005738 576402.000000 0 0 1
28.550263 10.816657 31.674110 43.992804 0.362154 0.767017 0.026719 -0.003848 -67981.300000 0 0 1
29.886463 11.336757 31.100460 44.597773 0.362559 0.799096 0.028434 0.003038 335540.000000 0 0 1
30.991563 10.878257 31.931630 45.808759 0.337572 0.799502 0.036141 -0.011750 1574560.000000 0 0 1
32.289563 11.199357 31.387110 46.402501 0.333858 0.827919 0.031835 -0.011921 1002950.000000 0 0 1
32.743663 12.728657 31.423300 47.133745 0.370759 0.841046 0.040003 -0.009135 -655728.000000 0 0 1
33.044663 13.146457 32.738301 48.338136 0.378642 0.826741 0.048011 -0.002344 355867.000000 0 0 1
33.464263 14.535857 32.950899 49.162077 0.409780 0.836250 0.053778 0.004663 -411548.000000 0 0 1
32.422463 15.602857 32.724350 48.636903 0.448524 0.832769 0.027567 -0.008280 -1009680.000000 0 0 1
31.952963 15.635457 31.353340 47.418259 0.455073 0.848368 0.026501 -0.016460 320538.000000 0 0 1
30.897063 16.568657 31.183870 46.921025 0.492228 0.843833 0.016223 -0.018564 815640.000000 0 0 1
29.469063 15.924057 31.319980 45.857850 0.495416 0.818962 0.021434 -0.009302 226669.000000 0 0 1
29.043263 15.312757 30.117740 44.554123 0.485201 0.828501 0.012306 -0.010503 484635.000000 0 0 1
27.789063 14.663757 30.340420 43.678357 0.485546 0.802887 0.001028 -0.005904 820288.000000 0 0 1
27.041863 14.017657 29.105210 42.129210 0.478234 0.808124 0.012065 0.002998 268665.000000 0 0 1
27.544763 12.700157 28.844920 41.857345 0.432024 0.810516 0.015733 0.005244 302003.000000 0 0 1
26.848563 12.071857 27.787620 40.481192 0.422544 0.814224 0.018784 -0.007061 -272466.000000 0 0 1
26.855563 10.558357 27.957200 40.178417 0.374590 0.801227 0.027317 0.008952 231301.000000 0 0 1
28.048363 9.888657 27.570130 40.553770 0.338951 0.823250 0.032428 0.000795 305872.000000 0 0 1
27.877763 8.474657 27.737530 40.228846 0.295116 0.810007 0.054229 -0.004958 -142891.000000 0 0 1
29.099463 7.699057 27.236580 40.594156 0.258651 0.835309 0.036379 -0.014416 -365583.000000 0 0 1
29.202563 7.864257 25.845030 39.781928 0.263059 0.863649 0.048146 -0.010648 195539.000000 0 0 1
30.133263 6.944757 25.302040 39.955430 0.226513 0.885042 0.054804 -0.003643 132352.000000 0 0 1
30.609263 7.140757 23.818860 39.436727 0.229188 0.922315 0.047371 -0.002516 12685.300000 0 0 1
31.216563 8.410257 23.593130 40.023018 0.263168 0.940370 0.027134 -0.000997 269429.000000 0 0 1
30.334263 9.381557 23.071230 39.248729 0.299942 0.942434 0.027657 0.004321 -20656.500000 0 0 1
29.853963 9.324757 21.575330 37.996119 0.302744 0.966929 0.028839 0.006560 28053.500000 0 0 1
30.900863 9.569757 20.647330 38.376501 0.300325 1.002710 0.020915 0.010495 216001.000000 0 0 1
30.501163 9.597057 19.292530 37.344694 0.304838 1.027913 0.030217 -0.005647 -994063.000000 0 0 1
31.356163 10.494957 18.370330 37.826209 0.322981 1.063689 0.041337 -0.023296 -50485.400000 0 0 1
32.710063 10.228857 18.129530 38.771866 0.303079 1.084228 0.043599 -0.016610 -212096.000000 0 0 1
33.585763 10.259457 19.229530 40.037916 0.296468 1.069819 0.032235 -0.010808 -1264620.000000 0 0 1
35.002463 10.012557 18.691430 40.924238 0.278613 1.096478 0.021559 -0.008545 -696292.000000 0 0 1
35.138463 8.611557 18.571030 40.666370 0.240338 1.096550 0.020022 -0.004946 478508.000000 0 0 1
-34.966446 8.296757 17.556930 39.996679 -0.232969 1.116356 0.025564 -0.011449 -131854.000000 0 0 1
-34.794546 6.774157 17.337230 39.460477 -0.192285 1.115914 0.026341 -0.008830 -292804.000000 0 0 1
35.032363 6.155757 17.045330 39.442402 0.173941 1.123912 0.017422 -0.010337 239543.000000 0 0 1
35.261663 4.971857 16.340230 39.180446 0.140076 1.140598 0.023379 -0.003538 305615.000000 0 0 1
33.934863 4.153557 16.196830 37.830732 0.121792 1.128363 0.022693 0.000734 410768.000000 0 0 1
33.694463 3.366157 17.359030 38.052382 0.099572 1.097090 0.031214 -0.002245 271944.000000 0 0 1
32.566363 2.502157 17.273130 36.948475 0.076682 1.084344 0.017705 0.001954 247268.000000 0 0 1
32.369263 1.627657 18.581630 37.359007 0.050242 1.050220 0.026489 -0.010326 109654.000000 0 0 1
33.174063 0.463957 18.706230 38.087488 0.013985 1.057400 0.027620 -0.012878 -23324.300000 0 0 1
32.851163 -0.241043 19.873130 38.395290 -0.007337 1.026761 0.027723 -0.010989 202593.000000 0 0 1
33.431363 -1.669443 19.892130 38.937641 -0.049895 1.034598 0.028985 -0.007002 80609.100000 0 0 1
32.951763 -2.398543 21.023530 39.160701 -0.072661 1.004094 0.032096 -0.005580 -19219.200000 0 0 1
33.252763 -3.747843 21.040630 39.528479 -0.112234 1.009493 0.014773 -0.004445 -187473.000000 0 0 1
32.645863 -4.458443 22.274130 39.771434 -0.135730 0.976346 0.009769 -0.004609 81959.600000 0 0 1
33.292963 -4.095243 23.486930 40.949094 -0.122391 0.959946 0.015228 -0.009545 611149.000000 0 0 1
32.631963 -4.701043 24.607400 41.139627 -0.143078 0.929614 0.019144 -0.012384 442203.000000 0 0 1
33.223863 -4.091243 25.913380 42.332808 -0.122525 0.912039 0.016434 -0.007463 -23289.200000 0 0 1
32.529063 -4.537043 27.017500 42.528461 -0.138583 0.882425 0.023295 -0.007475 -356322.000000 0 0 1
33.044763 -3.911443 28.163140 43.593786 -0.117820 0.868417 0.023950 -0.003140 -311009.000000 0 0 1
32.164663 -4.031943 29.401970 43.764117 -0.124703 0.834122 0.040093 -0.006209 -260067.000000 0 0 1
32.081063 -5.361443 29.857070 44.151832 -0.165591 0.828155 0.030077 -0.009811 -5098.310000 0 0 1
31.072363 -5.535343 30.829110 44.119902 -0.176294 0.797137 0.028268 -0.012983 -56730.300000 0 0 1
30.880163 -7.000943 31.229770 44.473545 -0.222945 0.792299 0.038411 -0.008573 -38618.900000 0 0 1
31.898463 -7.441143 32.089230 45.854130 -0.229177 0.795663 0.034600 -0.008339 14023.200000 0 0 1
32.546463 -8.640743 31.570900 46.159034 -0.259503 0.817620 0.033748 -0.001435 764352.000000 0 0 1
33.903163 -9.048143 32.212590 47.633437 -0.260803 0.828122 0.016165 0.002107 504318.000000 0 0 1
33.704763 -9.475043 33.531934 48.478635 -0.274046 0.806977 0.019935 -0.007750 621581.000000 0 0 1
34.959263 -9.681643 34.189161 49.847598 -0.270170 0.814993 0.011974 -0.008106 422164.000000 0 0 1
34.813763 -10.010443 -33.061663 49.043660 -0.279989 2.310579 0.021715 -0.011169 -113775.000000 0 0 1
34.417863 -8.991843 -32.147783 47.947080 -0.255543 2.305658 0.015232 -0.011228 562042.000000 0 0 1
35.411163 -7.978043 -32.010753 48.397189 -0.221598 2.293504 0.014686 -0.001963 -10088.600000 0 0 1
34.973863 -6.709843 -31.311013 47.419117 -0.189550 2.292019 0.017086 0.000361 -344964.000000 0 0 1
34.790963 -6.783543 -29.919243 46.385220 -0.192564 2.271842 0.023539 -0.003653 -34114.900000 0 0 1
34.266763 -5.646343 -29.390023 45.495777 -0.163309 2.273122 0.027177 -0.005595 -414731.000000 0 0 1
34.646163 -5.502943 -27.903453 44.824566 -0.157517 2.242734 0.027145 -0.016211 286681.000000 0 0 1
-35.035446 -5.196943 -27.746043 44.992595 0.147260 2.235315 0.036633 -0.015255 -92312.400000 0 0 1
-34.708746 -4.838943 -26.447003 43.903945 0.138523 2.217280 0.036359 -0.009327 418592.000000 0 0 1
-33.193746 -4.593343 -26.193143 42.532392 0.137507 2.234248 0.039816 -0.003383 -731539.000000 0 0 1
-33.010146 -4.079943 -24.895053 41.546111 0.122973 2.213317 0.042510 -0.008285 420798.000000 0 0 1
-31.689046 -3.914843 -24.394453 40.182223 0.122917 2.223197 0.049172 -0.003366 575035.000000 0 0 1
-30.718246 -2.988143 -25.178473 39.830832 0.096971 2.255102 0.043666 0.002489 -397334.000000 0 0 1
-30.458646 -3.466343 -26.498763 40.520725 0.113317 2.283598 0.044610 0.001541 378881.000000 0 0 1
-29.285146 -2.880543 -27.105003 40.007481 0.098047 2.315152 0.038495 0.007709 732154.000000 0 0 1
-28.951846 -3.689143 -28.377413 40.707453 0.126740 2.342150 0.024006 0.011311 267539.000000 0 0 1
-29.842646 -3.568743 -29.497693 42.112152 0.119020 2.346832 0.038296 0.008439 295231.000000 0 0 1
-29.418646 -4.537443 -30.413743 42.556326 0.153031 2.366949 0.032061 0.003841 -363307.000000 0 0 1
-30.500346 -4.886043 -31.510103 44.125176 0.158847 2.366144 0.025812 0.002368 -127507.000000 0 0 1
-31.594446 -5.671243 -31.079373 44.679967 0.177610 2.340051 0.034277 -0.002555 346291.000000 0 0 1
-32.575146 -5.003743 -30.304553 44.772129 0.152415 2.314288 0.038354 -0.006139 -558657.000000 0 0 1
-33.454746 -3.878143 -31.004513 45.777067 0.115407 2.314874 0.046509 -0.003758 -835171.000000 0 0 1
-32.924746 -2.714743 -31.626693 45.734631 0.082267 2.334396 0.050222 0.000790 -236605.000000 0 0 1
-32.444246 -1.785043 -30.694243 44.698457 0.054963 2.327730 0.039949 0.001489 -121148.000000 0 0 1
-31.798346 -0.509443 -31.214093 44.561351 0.016020 2.346859 0.046734 0.001872 -215860.000000 0 0 1
-32.763046 0.402157 -31.672793 45.571315 -0.012274 2.339238 0.037698 0.003401 -150859.000000 0 0 1
-32.245446 1.487757 -32.400253 45.735748 -0.046106 2.358058 0.026201 0.009455 -37261.700000 0 0 1
-33.295746 2.556257 -32.802593 46.809735 -0.076624 2.347265 0.030748 0.006551 483369.000000 0 0 1
-34.143646 2.055857 -33.861423 48.131187 -0.060139 2.351140 0.035971 0.006679 393855.000000 0 0 1
-35.298346 2.877357 -33.996393 49.091824 -0.081336 2.335754 0.033027 0.002179 577909.000000 0 0 1
34.660863 2.249057 33.880456 48.521325 0.064797 0.797834 0.035531 0.001242 56733.400000 0 0 1
34.841263 2.527857 32.501860 47.714511 0.072427 0.821432 0.025957 0.002562 775023.000000 0 0 1
-35.350346 1.607457 31.793220 47.571418 -0.045441 0.838840 0.014356 0.005375 -91757.200000 0 0 1
-35.140246 1.869157 30.297430 46.435600 -0.053141 0.859969 0.015845 -0.002178 -557029.000000 0 0 1
-34.397146 3.018757 29.957900 45.713809 -0.087538 0.856169 0.016491 -0.007885 216589.000000 0 0 1
-34.219746 3.075057 28.561170 44.678714 -0.089621 0.877265 0.009111 -0.009262 95783.400000 0 0 1
-33.852446 4.512857 28.069890 44.207157 -0.132528 0.882836 0.003506 -0.008756 -310606.000000 0 0 1
-33.487646 4.626557 26.718190 43.089316 -0.137288 0.901970 0.005973 -0.009500 205276.000000 0 0 1
-32.857146 5.854057 26.480400 42.603681 -0.176317 0.900074 0.012920 -0.003765 -513646.000000 0 0 1
-31.946346 5.893857 25.229670 41.132017 -0.182441 0.910460 0.013640 -0.001735 871644.000000 0 0 1
-30.667546 5.214257 25.394110 40.156540 -0.168415 0.886177 0.011432 -0.001977 1706080.000000 0 0 1
-29.654646 5.501257 24.426890 38.811530 -0.183426 0.890051 0.016293 -0.008201 404990.000000 0 0 1
-29.951646 5.039057 22.986630 38.090398 -0.166679 0.922943 0.036275 -0.015800 -456880.000000 0 0 1
-29.992846 3.647457 22.756430 37.824990 -0.121017 0.925263 0.025706 -0.014343 11883.600000 0 0 1
-30.785046 3.361557 21.616630 37.766359 -0.108764 0.961393 0.035766 -0.014697 -167738.000000 0 0 1
-30.839946 1.811157 21.305130 37.527206 -0.058660 0.967057 0.033615 -0.011018 443056.000000 0 0 1
-29.654546 1.304757 20.678230 36.175734 -0.043970 0.962336 0.039121 -0.012809 574423.000000 0 0 1
-29.579146 1.690757 19.319130 35.369667 -0.057098 0.992968 0.036997 -0.013448 -60640.200000 0 0 1
-28.341646 1.014257 18.675030 33.956360 -0.035772 0.988466 0.045583 -0.010327 -49807.200000 0 0 1
-28.475546 -0.382243 18.495430 33.957088 0.013423 0.994800 0.058553 -0.013369 38709.600000 0 0 1
-27.541146 -1.009843 17.639630 32.721416 0.036650 1.001446 0.065918 -0.010347 -347728.000000 0 0 1
-27.642146 -0.703843 16.092830 31.993169 0.025457 1.043720 0.050632 0.002021 -87762.600000 0 0 1
-27.250746 0.614457 15.746930 31.479304 -0.022544 1.046931 0.058023 0.002724 310516.000000 0 0 1
-27.570946 1.010257 14.407830 31.124962 -0.036626 1.089529 0.068449 -0.002381 -44835.600000 0 0 1
-27.040846 2.424457 14.020330 30.555769 -0.089420 1.094103 0.069895 -0.009432 478302.000000 0 0 1
-25.636346 2.471457 13.754130 29.197713 -0.096107 1.080294 0.060249 -0.015560 723111.000000 0 0 1
-25.193746 3.759957 13.373330 28.769916 -0.148148 1.087345 0.068217 -0.020007 1098820.000000 0 0 1
-23.643146 3.913257 13.080230 27.302095 -0.164026 1.071176 0.067029 -0.017106 1206680.000000 0 0 1
-22.776246 4.065957 14.186830 27.139557 -0.176657 1.020739 0.060126 -0.009464 989568.000000 0 0 1
-21.447246 4.389657 13.727730 25.839970 -0.201884 1.010710 0.052335 -0.011994 737062.000000 0 0 1
-20.611446 4.939757 14.904930 25.911192 -0.235224 0.957909 0.033266 -0.010422 -231280.000000 0 0 1
-21.080746 6.209057 15.321130 26.789686 -0.286437 0.961971 0.040288 -0.005448 283438.000000 0 0 1
-20.306046 6.703857 16.364330 26.927096 -0.318875 0.917601 0.029652 -0.002293 -597593.000000 0 0 1
-20.439646 8.165357 16.821230 27.702093 -0.380063 0.918241 0.029823 -0.004982 -889635.000000 0 0 1
-19.629346 8.951357 15.971130 26.842411 -0.427848 0.933536 0.017783 -0.007964 497032.000000 0 0 1
-19.663146 10.369157 16.220930 27.518672 -0.485279 0.940416 0.015904 -0.003390 -383860.000000 0 0 1
-19.235546 10.895457 17.607830 28.262217 -0.515365 0.898203 0.026927 -0.000295 -475492.000000 0 0 1
-20.071546 10.575557 18.699630 29.400434 -0.484930 0.881451 0.034759 -0.008548 347685.000000 0 0 1
-19.657346 11.150057 19.933230 30.134178 -0.515968 0.848003 0.042408 -0.006323 -234222.000000 0 0 1
-12.133437 -33.531097 -21.315253 41.543890 1.223598 2.109563 0.045805 -0.015147 -392209.000000 0 0 1
-12.967437 -34.135397 -20.357553 41.806814 1.207752 2.079383 0.071691 -0.017360 -147309.000000 0 0 1
-13.967037 -33.279597 -19.860353 41.195186 1.173434 2.073851 0.066322 -0.031726 -15474.800000 0 0 1
-14.996637 -33.977997 -18.941353 41.691465 1.155148 2.042407 0.065506 -0.028207 -759773.000000 0 0 1
-15.679837 34.010657 -19.690253 42.311797 -1.138810 2.054839 0.064779 -0.039584 -350279.000000 0 0 1
-16.450037 33.070957 -18.993653 41.533730 -1.109218 2.045761 0.063063 -0.025838 889315.000000 0 0 1
-17.860637 33.575157 -18.507853 42.294611 -1.081909 2.023717 0.065074 -0.025070 100367.000000 0 0 1
-17.801237 34.392257 -17.330853 42.427230 -1.093173 1.991589 0.067081 -0.021422 47687.900000 0 0 1
-19.090237 -34.243997 -16.856753 42.675972 1.062231 1.976858 0.051559 -0.010963 54704.400000 0 0 1
-19.432237 34.063257 -15.465853 42.155782 -1.052369 1.946443 0.056965 -0.018050 -212237.000000 0 0 1
-19.433937 32.677657 -15.447753 41.038278 -1.034271 1.956729 0.053579 -0.025072 230406.000000 0 0 1
-19.846937 32.201657 -14.163253 40.391154 -1.018454 1.929064 0.059068 -0.020912 101260.000000 0 0 1
-19.849237 30.618557 -14.062653 39.105581 -0.995635 1.938643 0.051767 -0.027528 -173958.000000 0 0 1
-18.561737 30.058357 -14.006353 38.002906 -1.017592 1.948256 0.046402 -0.035666 -185815.000000 0 0 1
-18.625137 28.664257 -13.945853 36.919130 -0.994584 1.958151 0.041696 -0.036680 -646116.000000 0 0 1
-17.386537 27.955457 -13.431253 35.555559 -1.014403 1.958166 0.056139 -0.031394 132968.000000 0 0 1
-16.172237 28.416757 -14.018353 35.574816 -1.053400 1.975833 0.065890 -0.034517 662693.000000 0 0 1
-15.049537 27.558357 -13.751653 34.279142 -1.070955 1.983587 0.078561 -0.037649 1113630.000000 0 0 1
-13.717837 28.004557 -14.439753 34.364818 -1.115307 2.004451 0.088340 -0.035923 235112.000000 0 0 1
-13.831837 27.996657 -15.847253 35.018109 -1.111917 2.040413 0.074534 -0.037120 479761.000000 0 0 1
-12.906037 28.901557 -16.490953 35.690577 -1.150814 2.051106 0.075662 -0.032634 374004.000000 0 0 1
-13.055237 28.824957 -17.992153 36.401029 -1.145521 2.087798 0.083192 -0.037982 83938.400000 0 0 1
-12.706937 27.538657 -18.569653 35.562282 -1.138485 2.120193 0.064394 -0.035813 301008.000000 0 0 1
-13.025837 27.434257 -19.962053 36.342736 -1.127510 2.152289 0.046297 -0.032689 -217626.000000 0 0 1
-12.330837 26.183657 -20.495353 35.463967 -1.130669 2.186975 0.023407 -0.019839 1696780.000000 0 0 1
-10.929737 26.463257 -20.867253 35.428878 -1.179120 2.200605 0.018957 -0.020473 1565840.000000 0 0 1
-10.454737 25.424957 -21.673653 35.006816 -1.180672 2.238426 0.017981 -0.018758 129865.000000 0 0 1
-9.211937 25.701357 -22.515253 35.388644 -1.226638 2.260396 0.035654 -0.031223 176898.000000 0 0 1
-9.713237 26.096957 -23.758953 36.604453 -1.214484 2.277161 0.030094 -0.031394 25826.900000 0 0 1
-8.642737 26.280157 -24.633353 37.042484 -1.253069 2.298294 0.021095 -0.029949 -265907.000000 0 0 1
-9.059537 26.919357 -25.983633 38.495145 -1.246159 2.311740 0.022170 -0.020881 83131.000000 0 0 1
-9.980937 26.159557 -26.757173 38.728385 -1.206304 2.333520 0.009035 -0.015122 -251990.000000 0 0 1
-10.296337 26.890357 -27.878243 40.078701 -1.205117 2.340034 0.014626 -0.008674 -56667.200000 0 0 1
-11.564137 26.275757 -28.523773 40.469128 -1.156200 2.352977 0.010362 -0.015619 170874.000000 0 0 1
-11.945837 26.990757 -29.753673 41.910441 -1.154122 2.360202 0.016950 -0.011903 33164.600000 0 0 1
-13.099437 26.368857 -30.285013 42.238536 -1.109731 2.370285 0.010959 -0.017103 -198069.000000 0 0 1
-13.385337 26.708057 -31.758033 43.601149 -1.106211 2.386745 0.012334 -0.012723 -147333.000000 0 0 1
-12.456237 26.269657 -32.742023 43.786902 -1.128027 2.415476 0.020390 -0.015281 167181.000000 0 0 1
-12.140737 24.881757 -32.782633 42.909211 -1.116845 2.440286 0.026893 -0.018063 -96436.800000 0 0 1
-11.367437 24.505157 -34.052223 43.465794 -1.136460 2.470955 0.018528 -0.014577 -264504.000000 0 0 1
-12.125037 24.546957 33.591119 43.335123 -1.111998 0.683848 0.022724 -0.016251 -447237.000000 0 0 1
-11.402837 24.074457 32.511460 42.030932 -1.128451 0.686431 0.028655 -0.015176 -537152.000000 0 0 1
-12.176337 24.163257 31.220530 41.314013 -1.104018 0.714091 0.035793 -0.008893 -93978.700000 0 0 1
-13.342837 23.362457 31.142730 41.154652 -1.051881 0.712508 0.048283 -0.015645 151841.000000 0 0 1
-13.853537 23.178357 29.803040 40.216638 -1.032075 0.736145 0.050237 -0.012232 -571051.000000 0 0 1
-15.219337 22.527257 29.740370 40.293860 -0.976637 0.740566 0.037218 -0.010754 -550783.000000 0 0 1
-15.133937 21.168657 30.123160 39.806443 -0.950126 0.712483 0.045914 -0.018051 -136720.000000 0 0 1
-16.358837 20.577057 30.482430 40.251775 -0.899109 0.711637 0.035079 -0.018179 -27024.900000 0 0 1
-16.100537 19.057757 30.717990 39.572975 -0.869312 0.682122 0.040050 -0.024928 -103916.000000 0 0 1
-15.772437 18.408457 29.525730 38.202223 -0.862365 0.687429 0.042527 -0.013609 78819.100000 0 0 1
-15.042437 17.244057 29.820380 37.588396 -0.853483 0.654520 0.036976 -0.032051 -74951.500000 0 0 1
-14.690837 16.327557 28.577430 36.042743 -0.838115 0.655282 0.038262 -0.020065 -232216.000000 0 0 1
-13.777837 16.915357 27.714480 35.271100 -0.887266 0.666879 0.044550 -0.017447 -346260.000000 0 0 1
-13.346137 16.123957 26.614120 33.858718 -0.879379 0.666429 0.029327 -0.008275 183042.000000 0 0 1
-12.363437 16.768557 25.588920 32.997453 -0.935474 0.683319 0.026529 -0.006502 150032.000000 0 0 1
-12.782037 17.870757 24.736040 33.084983 -0.949909 0.726278 0.019294 -0.004553 -204287.000000 0 0 1
-13.079837 19.177057 25.277110 34.318711 -0.972215 0.742855 0.022225 -0.007143 -265637.000000 0 0 1
-11.905337 19.973757 25.886100 34.796238 -1.033287 0.731858 0.038627 -0.009562 -2125.690000 0 0 1
-11.524837 19.612557 27.191200 35.451878 -1.039525 0.696661 0.043965 -0.012073 345838.000000 0 0 1
-12.482637 20.072157 28.155170 36.761683 -1.014438 0.698382 0.053203 -0.011728 277108.000000 0 0 1
-12.068037 19.679457 29.574290 37.517425 -1.020705 0.662785 0.059952 -0.018917 185014.000000 0 0 1
-10.906337 20.390357 29.972770 37.856067 -1.079638 0.657118 0.043050 -0.025199 68706.700000 0 0 1
-10.713637 20.116157 31.344270 38.754420 -1.081419 0.628701 0.029012 -0.022811 -1214860.000000 0 0 1
-9.652137 20.918957 31.968020 39.404579 -1.138498 0.624464 0.021875 -0.022664 -913640.000000 0 0 1
-8.362337 20.359657 31.789210 38.665207 -1.181074 0.605591 0.021198 -0.022134 -362941.000000 0 0 1
-7.481537 21.111257 32.554860 39.515535 -1.230219 0.602627 0.015868 -0.018186 507702.000000 0 0 1
-6.138537 20.402457 33.022423 39.299139 -1.278539 0.572990 0.008247 -0.013451 664932.000000 0 0 1
-6.351137 19.452957 34.078351 39.750327 -1.255220 0.540775 0.009086 -0.014784 -361713.000000 0 0 1
-5.204537 18.982057 -34.092671 39.366431 -1.303191 2.618011 0.005639 -0.017695 -243494.000000 0 0 1
-4.306237 17.939157 33.992049 38.675786 -1.335207 0.497250 -0.000119 -0.016968 -18568.100000 0 0 1
-4.794437 16.621057 34.041050 38.184280 -1.289964 0.470164 0.005527 -0.013525 17233.300000 0 0 1
-4.762037 16.037157 32.796094 36.816453 -1.282151 0.471694 0.001203 -0.010666 -246320.000000 0 0 1
-5.446437 14.650757 32.796261 36.330471 -1.214877 0.444745 0.016517 -0.017057 99358.700000 0 0 1
-4.635937 13.659857 33.470034 36.446218 -1.243610 0.406930 0.014682 -0.009631 395778.000000 0 0 1
-5.280737 12.417057 33.361435 35.986871 -1.168688 0.384344 0.025134 -0.008426 131462.000000 0 0 1
-4.377437 11.234257 33.797653 35.883866 -1.199243 0.342666 0.021807 -0.010139 -176222.000000 0 0 1
-4.329937 11.040357 -33.632933 35.662474 -1.197039 2.802601 0.041979 -0.013262 -325521.000000 0 0 1
-3.458137 9.958557 -33.438703 35.061067 -1.236571 2.836195 0.045954 -0.018578 -112176.000000 0 0 1
-3.440537 9.576957 -31.937593 33.519625 -1.225903 2.833135 0.045403 -0.015516 595564.000000 0 0 1
-4.691437 9.182857 -31.347393 32.999902 -1.098474 2.823788 0.049668 -0.014462 427748.000000 0 0 1
-4.518637 8.513457 -30.135453 31.639257 -1.082841 2.832041 0.050308 -0.005370 58884.700000 0 0 1
-5.817437 7.987757 -29.478273 31.090440 -0.941332 2.818147 0.047693 -0.010657 80150.900000 0 0 1
-5.587837 7.008557 -28.482783 29.859885 -0.897711 2.836707 0.044781 -0.010195 398305.000000 0 0 1
-6.813337 6.396357 -28.082513 29.596664 -0.753842 2.820340 0.057136 -0.024080 -379637.000000 0 0 1
-6.683537 5.429257 -26.886273 28.231511 -0.682216 2.831646 0.044734 -0.021731 -257999.000000 0 0 1
-6.648037 5.967057 -25.581613 27.096515 -0.731469 2.805627 0.027413 -0.017962 -482732.000000 0 0 1
-5.584737 6.806657 -25.308543 26.796310 -0.883691 2.806801 0.023797 -0.013277 -885960.000000 0 0 1
-5.921637 7.916057 -24.325853 26.257892 -0.928542 2.755588 0.008525 -0.001844 45624.500000 0 0 1
-6.203637 7.505657 -23.006353 24.982240 -0.880088 2.741201 0.011113 -0.000916 921724.000000 0 1 0
-7.537137 7.871857 -22.557453 25.052211 -0.807117 2.691525 0.003547 0.000896 840093.000000 0 0 1
-7.543937 8.032157 -20.980553 23.698315 -0.816732 2.657975 0.002793 -0.000162 -160806.000000 0 1 0
-6.881937 9.164157 -20.508053 23.493043 -0.926680 2.631996 -0.015463 0.004816 -358737.000000 0 1 0
-6.852737 9.230157 -19.067853 22.265193 -0.932158 2.599048 -0.009037 0.003122 325348.000000 0 1 0
-8.186237 9.348857 -18.244653 22.074487 -0.851604 2.543665 -0.012217 0.005986 -246092.000000 0 1 0
-7.953537 9.287457 -16.890153 20.851688 -0.862613 2.514972 -0.015882 0.004215 325225.000000 0 1 0
-8.973037 9.820157 -16.005553 20.811742 -0.830444 2.448171 -0.009950 -0.001415 387297.000000 0 1 0
-9.432637 11.289257 -16.268653 21.933788 -0.874757 2.406422 -0.010541 -0.002121 -1077730.000000 0 1 0
-8.522837 12.315557 -16.017653 21.928906 -0.965434 2.389756 -0.021011 0.001285 -807790.000000 0 1 0
-9.027737 13.588457 -16.251953 23.027640 -0.984387 2.354290 -0.000988 -0.005632 -662270.000000 0 1 0
-7.984437 14.715857 -16.048553 23.191890 -1.073673 2.335038 0.017733 0.000952 121680.000000 0 1 0
-7.288437 14.762357 -14.779653 22.124345 -1.112187 2.302350 0.011852 0.005146 62572.900000 0 1 0
-8.077037 15.182757 -13.719953 21.999813 -1.081887 2.244186 0.004966 -0.013815 -1138480.000000 0 1 0
-7.280237 15.874157 -12.598353 21.533908 -1.140796 2.195735 0.004552 -0.011439 -82244.900000 0 1 0
-6.879137 17.232557 -12.778753 22.529538 -1.190985 2.173898 0.020384 -0.016310 193667.000000 0 1 0
-5.849237 17.326957 -13.764553 22.888860 -1.245228 2.216004 0.030852 -0.008488 -284378.000000 0 1 0
-5.741937 18.762557 -14.326353 24.295015 -1.273815 2.201462 0.047612 -0.000876 134051.000000 0 1 0
-5.240837 19.620957 -13.359453 24.308914 -1.309786 2.152646 0.044281 -0.007301 -324752.000000 0 1 0
-5.263137 20.979957 -13.775053 25.643933 -1.325004 2.137870 0.041426 -0.002126 -155119.000000 0 0 1
-4.612537 21.995857 -12.819953 25.873624 -1.364091 2.089188 0.040374 -0.006166 -452367.000000 0 0 1
-4.773837 23.370357 -13.177353 27.250793 -1.369299 2.075512 0.029199 -0.006627 91760.300000 0 0 1
-6.014337 24.059557 -13.081853 28.038713 -1.325839 2.056198 0.040399 -0.004167 217528.000000 0 0 1
-6.678437 24.187857 -11.688553 27.681695 -1.301401 2.006721 0.040497 -0.011245 -40262.500000 0 0 1
-7.294937 22.979757 -11.278553 26.617496 -1.263408 2.008352 0.042042 -0.007980 216351.000000 0 0 1
-8.090237 23.062557 -10.063053 26.431014 -1.233413 1.961381 0.048770 -0.012494 233329.000000 0 0 1
-7.409337 23.387357 -8.741853 26.043938 -1.263990 1.913100 0.038013 -0.013251 -410480.000000 0 0 1
-7.058737 24.747257 -8.755553 27.182939 -1.292942 1.898740 0.036413 -0.014654 -328860.000000 0 0 1
-6.405137 25.098057 -7.560653 26.983360 -1.320925 1.854796 0.032660 -0.013422 152342.000000 0 0 1
-6.459637 26.670857 -7.448753 28.434933 -1.333174 1.835847 0.023774 -0.017461 181446.000000 0 0 1
-5.577037 27.351057 -8.317353 29.126655 -1.369648 1.860385 0.021828 -0.015734 11253.900000 0 0 1
-5.983337 27.320557 -9.667753 29.591867 -1.355195 1.903609 0.025642 -0.014829 193556.000000 0 0 1
-5.431637 28.629457 -10.365053 30.928673 -1.383303 1.912537 0.021492 -0.007687 373629.000000 0 0 1
-6.205537 29.789157 -10.133053 32.071503 -1.365418 1.892256 0.022705 -0.009462 17415.800000 0 0 1
-7.154037 30.017857 -11.168753 32.817572 -1.336835 1.918063 0.031864 -0.014452 381487.000000 0 0 1
-8.193237 31.134357 -10.824753 33.965462 -1.313473 1.895153 0.029640 -0.011601 623128.000000 0 0 1
-9.316237 30.682057 -10.073453 33.610346 -1.276005 1.875188 0.036501 -0.008384 102288.000000 0 0 1
-10.402437 31.581057 -10.176153 34.772517 -1.252600 1.867793 0.031452 -0.010853 517621.000000 0 0 1
-11.606137 31.153557 -9.283753 34.517164 -1.214179 1.843110 0.040157 -0.006474 338958.000000 0 0 1
-12.179037 29.923057 -9.706853 33.733385 -1.184260 1.862675 0.055891 -0.015627 1022910.000000 0 0 1
-13.377637 29.633757 -8.916353 33.713826 -1.146752 1.838452 0.056649 -0.012322 1282420.000000 0 0 1
-14.368537 28.631357 -9.526553 33.421021 -1.105673 1.859852 0.061769 -0.010866 -220220.000000 0 0 1
-14.000537 27.305257 -9.407053 32.094933 -1.097008 1.868265 0.062962 -0.017616 356627.000000 0 0 1
-15.057237 26.466757 -9.886153 32.014772 -1.053550 1.884727 0.072372 -0.027566 259987.000000 0 0 1
-15.085737 25.114557 -9.142453 30.690469 -1.029879 1.873280 0.062383 -0.025017 -266758.000000 0 0 1
-14.045237 24.207457 -9.449553 29.539189 -1.045061 1.896419 0.072612 -0.022960 31297.000000 0 0 1
-14.233537 22.955857 -8.808953 28.410607 -1.015772 1.886051 0.072257 -0.021699 -261257.000000 0 0 1
-13.185537 21.886357 -9.131453 27.134009 -1.028574 1.914028 0.073087 -0.019471 -334158.000000 0 0 1
-13.278537 21.440457 -10.467953 27.305508 -1.016291 1.964232 0.071162 -0.013151 235639.000000 0 0 1
-12.557437 20.246057 -10.752953 26.138440 -1.015626 1.994769 0.067128 -0.010158 -197539.000000 0 0 1
-12.647937 19.767557 -12.217753 26.457515 -1.001602 2.050806 0.059239 -0.006615 -153414.000000 0 0 1
-13.974837 19.430057 -12.504853 27.003602 -0.947275 2.052264 0.054350 0.003829 -504443.000000 0 0 1
-14.214437 18.687157 -13.685553 27.176358 -0.920512 2.098537 0.053785 0.000414 -47228.200000 0 0 1
-15.678037 18.726157 -14.162253 28.231883 -0.873765 2.096290 0.048162 0.012609 79363.200000 0 0 1
-16.112237 20.014857 -14.544153 29.525092 -0.893006 2.085875 0.026684 0.007798 -286490.000000 0 0 1
-17.371737 20.001257 -15.165053 30.525504 -0.855641 2.090703 0.017344 0.012047 -194370.000000 0 0 1
-17.908437 21.393057 -15.683153 32.005254 -0.873831 2.082907 0.020826 0.002905 172079.000000 0 0 1
-18.373037 22.331157 -14.712553 32.445466 -0.882334 2.041434 0.022789 -0.014349 425168.000000 0 0 1
-18.776737 23.522557 -15.388253 33.803474 -0.897127 2.043423 0.032759 -0.016172 -43864.900000 0 0 1
-19.475637 24.648657 -14.582453 34.633866 -0.902103 2.005395 0.022882 -0.003621 194279.000000 0 0 1
-20.807437 24.306657 -14.215853 35.012191 -0.862807 1.988897 0.035631 -0.009657 454580.000000 0 0 1
-21.290637 25.455457 -13.516853 35.832623 -0.874258 1.957591 0.025825 -0.022696 -520669.000000 0 0 1
-25.390667 -1.022143 3.846647 25.700729 0.040235 1.420561 0.045655 -0.028860 -353898.000000 0 0 1
-25.843657 -0.188043 4.893847 26.303607 0.007276 1.383654 0.053169 -0.027889 1117960.000000 0 0 1
-27.155327 -0.592243 5.344147 27.682530 0.021806 1.376525 0.034664 -0.024701 795357.000000 0 0 1
-27.749517 0.260157 6.488247 28.499136 -0.009375 1.341118 0.033164 -0.019032 -171219.000000 0 0 1
-28.375177 1.531857 6.163547 29.077252 -0.053933 1.357205 0.061709 -0.026206 457054.000000 0 0 1
-28.741197 2.282357 7.306347 29.743038 -0.079244 1.322607 0.066674 -0.017449 -1003840.000000 0 0 1
-27.611287 2.945157 8.031147 28.905993 -0.106263 1.289255 0.088903 -0.023035 -920751.000000 0 0 1
-26.835847 2.110157 8.838747 28.332647 -0.078471 1.253538 0.070079 -0.027488 -421975.000000 0 0 1
-25.735857 2.767757 9.386147 27.533517 -0.107133 1.222923 0.079938 -0.028700 -691835.000000 0 0 1
-24.854637 1.724157 10.080547 26.876442 -0.069259 1.186324 0.067202 -0.024814 -708365.000000 0 0 1
-23.973437 0.959557 9.289847 25.728344 -0.040004 1.201377 0.068561 -0.027349 181068.000000 0 0 1
-24.496837 -0.127043 8.559447 25.949476 0.005186 1.234651 0.062047 -0.023032 -1071020.000000 0 0 1
-23.445637 -0.903743 7.796147 24.724372 0.038527 1.250000 0.062530 -0.028457 -635243.000000 0 1 0
-22.632637 -1.549043 8.736147 24.309588 0.068336 1.203203 0.059020 -0.038915 -148279.000000 0 1 0
-21.769737 -2.516443 8.171947 23.388772 0.115083 1.213870 0.066603 -0.023758 7701.320000 0 1 0
-20.652737 -2.941043 9.150147 22.779607 0.141453 1.157444 0.061418 -0.011654 567426.000000 0 1 0
-19.725737 -1.912143 9.606447 22.023733 0.096635 1.119440 0.039043 -0.016734 1151110.000000 0 1 0
-20.244337 -1.101643 10.653647 22.902991 0.054364 1.086976 0.044403 -0.019614 -360838.000000 0 1 0
-19.509837 0.254157 10.805347 22.303674 -0.013026 1.065045 0.022045 -0.018834 -487304.000000 0 1 0
-19.950537 1.218557 9.878147 22.295439 -0.061003 1.111791 0.033674 -0.022538 513484.000000 0 1 0
-20.534637 2.300957 10.601147 23.223911 -0.111587 1.096766 0.042114 -0.011788 -299113.000000 0 1 0
-21.341937 3.305857 9.776247 23.706159 -0.153678 1.145717 0.045194 -0.027095 -569417.000000 0 1 0
-21.593737 4.446457 10.500647 24.419747 -0.203076 1.126297 0.045754 -0.024857 681467.000000 0 1 0
-22.347937 5.440157 9.807347 25.004193 -0.238786 1.167744 0.044602 -0.024746 -145811.000000 0 0 1
-22.577937 6.817757 10.440447 25.792402 -0.293259 1.154050 0.054083 -0.020979 -338981.000000 0 0 1
-23.529537 6.707957 11.452647 27.014791 -0.277719 1.133005 0.063629 -0.020377 87429.800000 0 0 1
-23.579537 7.852857 12.228247 27.698230 -0.321484 1.113548 0.055948 -0.016920 -318929.000000 0 0 1
-24.192237 7.602757 13.594347 28.772774 -0.304491 1.078702 0.056101 -0.017683 -88390.800000 0 0 1
-25.583167 7.431157 13.502547 29.867027 -0.282691 1.101691 0.056279 -0.014266 87084.000000 0 0 1
-26.317667 7.065057 14.679147 30.951769 -0.262269 1.076674 0.052578 -0.014802 1054280.000000 0 0 1
-27.777527 6.617257 14.304347 31.937336 -0.233864 1.106395 0.035942 -0.003715 579212.000000 0 0 1
-27.780587 5.500357 13.417447 31.337563 -0.195465 1.128342 0.040938 0.001844 -291077.000000 0 0 1
-28.847427 5.546157 12.512547 31.929575 -0.189941 1.168123 0.047932 -0.011847 -569633.000000 0 0 1
-29.183997 4.200657 11.825647 31.767863 -0.142955 1.189362 0.061373 -0.012449 -37384.700000 0 0 1
-29.956597 3.305457 12.634447 32.679550 -0.109897 1.173837 0.037473 -0.008430 409729.000000 0 0 1
-30.431287 2.232357 11.833147 32.727206 -0.073226 1.200846 0.036443 -0.002909 121427.000000 0 0 1
-31.415807 1.214657 12.517647 33.839619 -0.038645 1.191883 0.022390 0.012524 401422.000000 0 0 1
-30.810457 0.268657 13.420547 33.607552 -0.008719 1.160009 0.023738 0.008062 520038.000000 0 0 1
-31.858047 -0.221643 14.271647 34.909371 0.006957 1.149636 0.017360 0.017467 579452.000000 0 0 1
-31.503047 -1.339643 15.222347 35.013661 0.042499 1.121031 0.025613 0.006115 -285006.000000 0 0 1
-31.173617 -2.614243 14.695147 34.562639 0.083665 1.131642 0.027624 -0.002331 152296.000000 0 0 1
-31.421617 -3.692143 15.590747 35.270687 0.116967 1.112934 0.027847 -0.004224 -104001.000000 0 0 1
-31.142037 -5.108143 14.997847 34.940736 0.162580 1.127149 0.034064 -0.002250 225930.000000 0 0 1
-32.132957 -5.487043 14.043647 35.494487 0.169129 1.164013 0.029363 -0.004794 338301.000000 0 0 1
-32.100317 -6.899843 13.731447 35.589196 0.211725 1.174687 0.028466 -0.002105 -177185.000000 0 0 1
-33.178297 -7.315143 12.647547 36.252878 0.217008 1.214431 0.027205 -0.004710 1436370.000000 0 0 1
-34.558275 -7.302443 13.038447 37.651045 0.208245 1.217175 0.024914 -0.004648 1017300.000000 0 0 1
-35.132809 -5.985543 13.272447 38.030236 0.168749 1.214295 0.034172 -0.006888 -471629.000000 0 0 1
34.462571 -5.878543 12.807247 37.232401 -0.168951 1.219643 0.056100 -0.011374 640813.000000 0 0 1
33.490051 -6.612843 13.594547 36.744046 -0.194949 1.191809 0.044499 -0.005795 1170390.000000 0 0 1
32.159271 -6.460443 13.071547 35.310358 -0.198250 1.191583 0.049875 -0.003299 676497.000000 0 0 1
31.133901 -7.500243 13.530647 34.765671 -0.236398 1.171038 0.032921 0.000471 -364291.000000 0 0 1
30.626111 -7.075743 14.782047 34.735195 -0.227052 1.131211 0.024855 0.000521 12552.800000 0 0 1
29.598471 -8.020743 15.052947 34.161280 -0.264630 1.114481 0.022757 -0.006860 172576.000000 0 0 1
29.056791 -8.041143 16.515047 34.375920 -0.269982 1.069657 0.010159 -0.003304 -281211.000000 0 0 1
29.903851 -8.705943 17.430147 35.690948 -0.283301 1.060583 -0.003950 0.001094 -132075.000000 0 0 1
29.284131 -8.875143 18.695747 35.858883 -0.294271 1.022341 -0.004780 -0.004348 -231755.000000 0 0 1
30.187851 -9.591043 19.758947 37.332432 -0.307626 1.013056 -0.005926 -0.000283 1195860.000000 0 0 1
31.242201 -8.749443 20.309347 38.276592 -0.273057 1.011495 -0.003500 -0.004626 43465.500000 0 0 1
32.415691 -8.862843 19.575847 38.891398 -0.266889 1.043329 -0.008307 -0.004531 -331242.000000 0 0 1
33.654901 -8.134543 20.218047 40.094795 -0.237156 1.042276 0.002397 -0.003115 515983.000000 0 0 1
34.139641 -8.714243 21.385647 41.216490 -0.249916 1.025278 0.009122 -0.009575 580474.000000 0 0 1
35.350428 -8.035643 21.783647 42.293636 -0.223516 1.029722 0.007546 -0.006262 602770.000000 0 0 1
-35.188819 -8.478843 23.198547 42.992050 0.236446 1.000833 0.017442 -0.007629 -59499.500000 0 0 1
35.102805 -8.058343 24.318847 43.457452 -0.225654 0.976892 0.012435 -0.011830 165478.000000 0 0 1
35.175416 -9.043343 25.322447 44.275482 -0.251643 0.961940 0.012568 -0.009848 -362162.000000 0 0 1
34.630881 -8.677343 26.730047 44.599211 -0.245512 0.928121 0.029640 -0.012716 -169356.000000 0 0 1
-35.454248 -7.953343 27.466347 45.548431 0.220674 0.923522 0.003525 -0.016014 -93535.100000 0 0 1
35.087428 -7.137143 28.505747 45.767281 -0.200673 0.898427 0.004097 -0.011807 -164371.000000 0 0 1
-34.881449 -6.523843 29.389347 46.076130 0.184893 0.879102 0.011141 -0.009348 83132.900000 0 0 1
-34.450380 -7.296743 30.482847 46.575478 0.208720 0.857298 0.009061 -0.005824 -31060.700000 0 0 1
-33.155257 -6.924743 30.906847 45.852550 0.205898 0.831120 0.005942 -0.013436 219035.000000 0 0 1
-32.655977 -7.802843 32.091147 46.445010 0.234543 0.807995 0.001189 -0.002794 -43491.700000 0 0 1
-32.680847 -9.206843 31.901547 46.588759 0.274603 0.816539 0.006054 -0.004529 361274.000000 0 0 1
-32.213957 -9.715543 33.132347 47.221639 0.292919 0.793107 0.004655 -0.001871 -66178.500000 0 0 1
-32.217567 -11.226843 33.173747 47.586880 0.335311 0.799424 0.019633 -0.002206 296707.000000 0 0 1
-33.547287 -11.630343 33.465547 48.791682 0.333719 0.814975 0.014491 -0.008335 242588.000000 0 0 1
-33.731907 -13.028443 33.326047 49.175271 0.368584 0.826167 0.022717 -0.015245 600625.000000 0 0 1
-35.216675 -13.426943 33.605547 50.495839 0.364253 0.842618 0.025500 -0.015576 552487.000000 0 0 1
-35.470798 -14.786043 33.850747 51.212085 0.394948 0.848657 0.024774 -0.025133 245785.000000 0 0 1
34.198891 -15.030843 34.043447 50.541534 -0.414098 0.831763 0.005651 -0.022479 116825.000000 0 0 1
33.804211 -16.530143 34.028547 50.733740 -0.454806 0.835606 -0.003713 -0.012673 -125415.000000 0 0 1
34.207871 -17.089243 -33.524437 50.853796 -0.463304 2.290593 0.004676 -0.021603 310649.000000 0 0 1
34.125421 -18.499443 -33.668137 51.384017 -0.496759 2.285278 0.004216 -0.031796 -446771.000000 0 0 1
34.781581 -19.113243 -32.424437 51.248596 -0.502476 2.255817 0.011358 -0.014235 -187839.000000 0 0 1
34.051311 -18.872743 -31.253237 49.924314 -0.506096 2.247225 0.008569 -0.013891 -129476.000000 0 0 1
34.397251 -19.722543 -30.147337 49.809754 -0.520613 2.220876 0.000898 -0.005860 -734094.000000 0 0 1
33.285021 -19.789243 -29.095137 48.435873 -0.536394 2.215165 0.013841 -0.007812 1042480.000000 0 0 1
32.003661 -20.346043 -29.457637 48.020290 -0.566286 2.231207 0.008145 -0.000505 558613.000000 0 0 1
31.147081 -19.512743 -30.131937 47.527060 -0.559656 2.257505 -0.003932 0.006148 -1487160.000000 0 0 1
29.814431 -20.210443 -30.378437 47.119123 -0.595722 2.271448 -0.007178 0.008396 -305945.000000 0 0 1
28.937291 -19.491943 -31.246237 46.836204 -0.592782 2.301157 -0.013166 0.012293 28533.000000 0 0 1
27.773291 -20.239843 -31.460537 46.591548 -0.629763 2.312088 -0.000369 0.003396 -330572.000000 0 0 1
26.783921 -19.776343 -32.551837 46.562907 -0.636014 2.344926 0.003932 0.011357 -79611.600000 0 0 1
27.139521 -19.865543 -33.898637 47.752602 -0.631867 2.360125 -0.010302 0.009171 -246621.000000 0 0 1
26.169611 -19.328843 34.035347 47.083517 -0.636164 0.762847 0.027292 -0.001430 -121229.000000 0 0 1
26.610071 -19.526543 32.549647 46.355812 -0.633054 0.792356 0.019196 0.006349 -475732.000000 0 0 1
27.645451 -18.717343 32.092947 46.309472 -0.595156 0.805140 -0.011966 -0.001950 -380675.000000 0 0 1
27.923571 -18.795243 30.728947 45.576915 -0.592440 0.830886 -0.004953 -0.006581 -634387.000000 0 0 1
26.965471 -18.005743 29.824847 44.055249 -0.588741 0.827135 -0.003506 0.003705 -118626.000000 0 0 1
27.070501 -16.591943 30.050647 43.716656 -0.549862 0.812899 -0.000115 -0.010218 615048.000000 0 0 1
25.987581 -15.915943 29.423347 42.360418 -0.549519 0.802939 0.020287 -0.003791 88990.300000 0 0 1
25.769871 -14.610943 30.162947 42.277291 -0.515784 0.776380 0.034389 -0.003572 -68525.100000 0 0 1
26.703381 -13.597743 29.865347 42.307306 -0.470992 0.787083 0.026713 -0.003523 364657.000000 0 0 1
26.420171 -12.620143 30.841247 42.526180 -0.445625 0.759428 0.036217 0.002778 242815.000000 0 0 1
27.716431 -11.812643 31.079647 43.286067 -0.402884 0.769863 0.028563 0.003955 182957.000000 0 0 1
28.104941 -11.031043 29.968147 42.540116 -0.374020 0.789123 0.030351 -0.011263 -232767.000000 0 0 1
29.497301 -10.878943 29.874247 43.369492 -0.353334 0.810921 0.028840 -0.005586 -124434.000000 0 0 1
29.878161 -10.067243 28.611447 42.575448 -0.324996 0.833867 0.041997 -0.018051 -54449.700000 0 0 1
29.600961 -8.728543 28.664247 42.119395 -0.286747 0.822287 0.036655 -0.006838 -27587.600000 0 0 1
30.298051 -8.168743 27.574247 41.773668 -0.263351 0.849862 0.039201 -0.004214 152295.000000 0 0 1
30.217471 -6.612243 27.453647 41.358434 -0.215426 0.844911 0.042911 -0.007912 232201.000000 0 0 1
28.968041 -6.123143 26.963047 40.045552 -0.208310 0.832121 0.041830 -0.004966 169111.000000 0 0 1
28.941701 -4.739943 26.831247 39.749276 -0.162334 0.829815 0.049455 -0.007611 14152.800000 0 0 1
27.484751 -4.288243 26.629447 38.508805 -0.154775 0.807211 0.048362 -0.008675 41388.400000 0 0 1
26.937771 -4.624543 25.351747 37.279230 -0.170018 0.822965 0.047109 -0.006993 1187670.000000 0 0 1
25.586071 -4.084943 25.278047 36.198252 -0.158319 0.797745 0.051133 -0.010667 937952.000000 0 0 1
24.918171 -4.454443 23.952847 34.849623 -0.176894 0.813003 0.040789 -0.004133 -545224.000000 0 0 1
25.383171 -3.729443 22.861047 34.363376 -0.145882 0.842936 0.048298 -0.001684 -89859.300000 0 0 1
24.883071 -4.070343 21.618347 33.212766 -0.162143 0.862021 0.044730 -0.007965 -97229.300000 0 0 1
25.188371 -2.890943 20.626047 32.684024 -0.114273 0.887859 0.048172 -0.010621 -131176.000000 0 0 1
24.213271 -1.890443 20.698047 31.910272 -0.077917 0.865010 0.053793 -0.008948 -257826.000000 0 0 1
24.471771 -0.879743 19.776247 31.476046 -0.035934 0.891436 0.059995 -0.012689 -350251.000000 0 0 1
23.219371 -0.187543 19.211947 30.137573 -0.008077 0.879580 0.019827 -0.014070 -435328.000000 0 0 1
22.461471 -1.050243 18.433947 29.076298 -0.046724 0.884101 0.036394 -0.017981 -488129.000000 0 0 1
21.483571 -0.343143 17.690347 27.831816 -0.015971 0.881990 0.038415 -0.016707 213236.000000 0 0 1
20.481371 -1.411043 17.100847 26.719217 -0.068785 0.876271 0.027196 -0.014735 -500434.000000 0 0 1
20.863671 -2.111643 15.955647 26.350227 -0.100868 0.920374 0.046660 -0.028959 161421.000000 0 0 1
19.821671 -2.937643 15.480247 25.321265 -0.147133 0.913026 0.047936 -0.032014 -360589.000000 0 0 1
20.130071 -3.453143 14.061447 24.796537 -0.169888 0.967848 0.052934 -0.035468 -135056.000000 0 1 0
19.124571 -4.328743 13.546747 23.832784 -0.222594 0.966227 0.049359 -0.033567 928410.000000 0 1 0
19.272671 -4.499243 12.192247 23.244998 -0.229344 1.018656 0.044451 -0.030689 -101349.000000 0 1 0
18.185871 -5.478243 11.709047 22.312303 -0.292591 1.018340 0.022925 -0.029976 161907.000000 0 1 0
18.517371 -6.769143 12.229447 23.200727 -0.350466 1.015595 0.057831 -0.040816 -257312.000000 0 1 0
17.364471 -7.506343 12.237547 22.530593 -0.408022 0.996609 0.041922 -0.020772 -1048000.000000 0 1 0
17.395971 -9.019443 12.720147 23.361770 -0.478321 0.995021 0.061952 -0.031916 -442637.000000 0 1 0
18.292471 -9.750043 11.913047 23.908127 -0.489704 1.049177 0.051972 -0.035655 246938.000000 0 1 0
17.817071 -10.988843 11.639747 23.951752 -0.552651 1.063328 0.053291 -0.038589 -229998.000000 0 1 0
18.459771 -11.633643 10.380747 24.163293 -0.562341 1.126738 0.050441 -0.037098 -228487.000000 0 1 0
18.068871 -11.103943 9.156147 23.100145 -0.551038 1.163239 0.057079 -0.034939 215937.000000 0 1 0
18.715371 -11.878443 8.203247 23.635901 -0.565536 1.216354 0.058640 -0.040321 -97190.900000 0 1 0
18.515771 -11.257843 6.801547 22.711976 -0.546291 1.266660 0.057965 -0.027298 -79592.900000 0 1 0
19.072271 -9.952643 6.867147 22.582390 -0.480965 1.261810 0.064138 -0.018577 671984.000000 0 1 0
19.435171 -9.509743 5.553647 22.338400 -0.455056 1.319547 0.044885 -0.025168 -242039.000000 0 1 0
20.133571 -8.146643 5.528047 22.411778 -0.384491 1.321566 0.076118 -0.015981 -341202.000000 0 1 0
20.349571 -7.755443 4.210047 22.180542 -0.364117 1.379830 0.042777 -0.020301 661665.000000 0 1 0
20.882671 -6.441543 4.152247 22.244563 -0.299203 1.383032 0.057657 -0.019589 -750124.000000 0 1 0
21.572371 -6.196443 2.809947 22.619879 -0.279709 1.446250 0.060911 -0.021030 -593268.000000 0 1 0
20.797771 -5.763743 1.735347 21.651316 -0.270348 1.490561 0.054040 -0.030906 -108529.000000 0 1 0
21.541371 -5.713943 0.573647 22.293697 -0.259283 1.545062 0.069075 -0.016480 -41864.600000 0 1 0
-25.479447 -16.394243 -0.265653 30.299241 0.571743 1.579564 0.031885 0.006086 805118.000000 0 0 1
-24.441637 -15.479043 -0.715053 28.939691 0.564550 1.595507 0.025561 0.008219 301510.000000 0 0 1
-23.142337 -15.889843 -0.419153 28.075445 0.601685 1.585726 0.039324 0.004108 -218723.000000 0 0 1
-22.547337 -15.242643 0.881147 27.230443 0.594456 1.538432 0.033900 0.000649 -539794.000000 0 0 1
-23.069737 -15.687443 2.098747 27.977016 0.597177 1.495709 0.036420 0.013006 112779.000000 0 0 1
-22.446137 -14.971743 3.166347 27.166301 0.588239 1.453977 0.054609 0.013318 331115.000000 0 0 1
-22.705337 -15.662243 4.500147 27.947979 0.603851 1.409074 0.050013 0.012610 -231533.000000 0 0 1
-22.247737 -17.022143 4.497047 28.371440 0.653107 1.411619 0.050087 0.004439 383485.000000 0 0 1
-22.686137 -17.666043 5.679347 29.308785 0.661627 1.375786 0.055686 -0.006390 -96289.500000 0 0 1
-22.636537 -19.225843 5.497647 30.203808 0.704104 1.387758 0.045338 -0.009955 -1064.980000 0 0 1
-23.280237 -19.997543 6.486447 31.367901 0.709691 1.362507 0.038855 -0.011109 -55427.900000 0 0 1
-23.360337 -21.352743 6.018147 32.215883 0.740529 1.382886 0.033424 -0.015069 -68175.400000 0 0 1
-24.079037 -22.173343 7.106847 33.495738 0.744219 1.357000 0.037922 -0.013809 -260204.000000 0 0 1
-23.362637 -22.410643 8.273947 33.414188 0.764603 1.320576 0.047405 -0.008564 -807661.000000 0 0 1
-24.161237 -23.099743 9.190547 34.667415 0.762942 1.302482 0.049282 -0.004807 -222389.000000 0 0 1
-23.481937 -23.644843 10.430847 34.918227 0.788855 1.267443 0.026258 -0.009809 -111070.000000 0 0 1
-23.343937 -22.689243 11.454547 34.510112 0.771177 1.232460 0.048766 -0.007330 -33958.900000 0 0 1
-22.300037 -23.053143 12.322347 34.359559 0.802002 1.203997 0.054272 -0.003907 -229583.000000 0 0 1
-22.394537 -22.330143 13.714047 34.470650 0.783958 1.161627 0.039495 0.000823 -446040.000000 0 0 1
-23.530137 -22.751543 14.398047 35.757570 0.768577 1.156378 0.035885 0.000934 -523427.000000 0 0 1
-23.808237 -21.990443 15.573747 35.957661 0.745728 1.122852 0.037079 0.000699 -183404.000000 0 0 1
-25.201197 -22.310643 16.226247 37.365174 0.724634 1.121578 0.023018 0.005652 -78912.900000 0 0 1
-26.180057 -21.965843 15.287347 37.437904 0.698091 1.150163 0.017904 0.004242 -338708.000000 0 0 1
-26.630077 -23.033743 14.462047 38.063961 0.713111 1.181064 0.013290 -0.000566 -539919.000000 0 0 1
-27.857147 -23.829343 14.994447 39.606713 0.707628 1.182531 0.014840 -0.002946 -381227.000000 0 0 1
-27.681887 -24.615943 16.154347 40.412801 0.726840 1.159570 0.022749 0.001146 -401163.000000 0 0 1
-28.544447 -25.691223 16.430847 41.770769 0.732839 1.166516 0.001092 0.005848 -416211.000000 0 0 1
-28.388317 -26.870133 15.413947 42.017739 0.757931 1.195182 0.009341 0.004158 -120665.000000 0 0 1
-29.027387 -26.720243 14.167047 41.919755 0.744036 1.226052 0.011331 -0.007365 1224750.000000 0 0 1
-30.282777 -27.471963 14.195047 43.281113 0.736768 1.236639 0.019161 -0.009158 933825.000000 0 0 1
-30.883517 -27.868483 12.811147 43.526653 0.734125 1.272043 0.026469 -0.016267 -182952.000000 0 0 1
-30.097917 -28.801553 12.120347 43.385676 0.763392 1.287666 0.036978 -0.025781 166932.000000 0 0 1
-30.806017 -29.402613 11.044047 43.994265 0.762093 1.317048 0.040856 -0.015934 -220330.000000 0 0 1
-30.141407 -30.610743 10.445547 44.211215 0.793123 1.332276 0.048203 -0.024183 -369719.000000 0 0 1
-30.297097 -31.776903 11.221647 45.316786 0.809233 1.320566 0.039037 -0.017245 -24655.600000 0 0 1
-29.616077 -32.901033 10.717147 45.546101 0.837895 1.333266 0.051113 -0.020204 -241264.000000 0 0 1
-29.816837 -34.186131 11.503247 46.798077 0.853559 1.322445 0.035953 -0.017568 305912.000000 0 0 1
-31.164777 34.319535 11.505647 47.764566 -0.833537 1.327521 0.026471 -0.015142 111423.000000 0 0 1
-31.284057 32.933250 11.647247 46.892958 -0.811074 1.319789 0.024408 -0.023059 -178939.000000 0 0 1
-32.673017 32.446580 12.183247 47.631272 -0.781921 1.312139 0.038895 -0.022210 358622.000000 0 0 1
-33.812057 32.427170 11.385947 48.212201 -0.764494 1.332381 0.019739 -0.019891 -119740.000000 0 0 1
-34.181242 33.707639 10.841447 49.214827 -0.778422 1.348686 0.031713 -0.016487 -753997.000000 0 0 1
35.455582 33.599047 10.219047 49.904140 0.758520 1.364564 0.014230 -0.006114 185059.000000 0 0 1
35.484469 32.726570 9.116847 49.125277 0.744988 1.384131 -0.005136 -0.002957 1062950.000000 0 0 1
34.123941 32.424250 8.748947 47.878173 0.759863 1.387030 -0.002405 0.000440 725402.000000 0 0 1
33.820951 31.875530 7.365347 47.054803 0.755795 1.413623 -0.001832 0.000295 -214249.000000 0 0 1
34.253711 30.582640 7.178447 46.477357 0.728838 1.415725 -0.001111 0.001067 52863.700000 0 0 1
34.005401 30.188950 5.818047 45.843099 0.726017 1.443541 0.013443 0.000372 -5526.290000 0 0 1
34.492631 28.763120 5.481547 45.244956 0.695068 1.449345 0.005040 0.003018 97032.900000 0 0 1
33.625161 27.741870 5.964647 43.998180 0.689820 1.434812 0.017029 0.000619 100217.000000 0 0 1
33.938441 27.294880 7.254147 44.152587 0.677325 1.405751 0.008500 -0.001337 -278133.000000 0 0 1
32.965071 26.236750 7.770547 42.842087 0.672233 1.388410 0.015595 -0.000418 -325685.000000 0 0 1
32.972731 25.035840 7.011547 41.989952 0.649420 1.403029 0.023394 -0.003977 -11381.600000 0 0 1
31.801971 24.288000 7.242547 40.666040 0.652228 1.391743 0.015179 0.003896 -191409.000000 0 0 1
31.972761 22.822510 6.675347 39.845761 0.619935 1.402473 0.006809 0.002759 344476.000000 0 0 1
32.960061 22.035310 7.332847 40.319861 0.589302 1.387912 0.019505 0.000321 1131890.000000 0 0 1
34.278861 22.089610 6.746847 41.334140 0.572435 1.406836 0.040597 -0.002838 979403.000000 0 0 1
35.175287 20.836010 6.803347 41.445454 0.534774 1.405898 0.040407 -0.005409 -243214.000000 0 0 1
34.839571 19.813010 5.880947 40.508476 0.517081 1.425103 0.048282 -0.012470 287813.000000 0 0 1
-35.483911 18.606310 6.123647 40.531491 -0.482944 1.419132 0.061530 -0.015495 -50813.200000 0 0 1
35.036923 17.421510 5.248447 39.479630 0.461431 1.437461 0.056866 -0.017896 254696.000000 0 0 1
-35.404983 17.371510 3.919147 39.631325 -0.456141 1.471744 0.056694 -0.013065 448648.000000 0 0 1
35.171370 16.218110 3.254347 38.866993 0.432060 1.486968 0.036052 -0.014072 -1319570.000000 0 0 1
-35.186844 15.898510 1.866847 38.656975 -0.424376 1.522485 0.050940 0.010210 255515.000000 0 0 1
-33.988717 15.150510 1.975247 37.264896 -0.419315 1.517766 0.059197 -0.012400 228788.000000 0 0 1
-32.932217 15.912110 2.515047 36.661310 -0.450099 1.502140 0.064514 -0.010352 -1744590.000000 0 0 1
-31.562587 15.266110 2.649147 35.160617 -0.450504 1.495381 0.064009 -0.022388 -518037.000000 0 0 1
-31.433257 14.294110 3.658047 34.723948 -0.426793 1.465254 0.080978 -0.023865 1178640.000000 0 0 1
-30.058587 14.027210 4.010147 33.412012 -0.436624 1.450485 0.059806 -0.027765 686573.000000 0 0 1
-29.913507 13.315210 5.345247 33.176564 -0.418791 1.408976 0.064060 -0.025553 -287139.000000 0 0 1
-30.149897 11.914910 5.311747 32.851119 -0.376352 1.408392 0.074947 -0.028034 316856.000000 0 0 1
-29.665187 11.224010 6.416047 32.359966 -0.361710 1.371203 0.065335 -0.014436 -371602.000000 0 0 1
-29.990967 9.689410 6.439647 32.168491 -0.312492 1.369250 0.058562 -0.021886 -637620.000000 0 0 1
-31.315887 9.494110 6.798247 33.422135 -0.294365 1.365961 0.058379 -0.014182 -758038.000000 0 0 1
-31.616737 8.123410 6.665647 33.317244 -0.251494 1.369371 0.049928 -0.017040 -494459.000000 0 0 1
-33.095917 7.772710 6.797247 34.669256 -0.230674 1.373458 0.050521 -0.009842 -543622.000000 0 0 1
-33.607867 7.670010 8.085747 35.407585 -0.224378 1.340401 0.038922 -0.006025 -196933.000000 0 0 1
-34.839713 6.995610 8.061547 36.438067 -0.198159 1.347711 0.021575 -0.011621 -43866.000000 0 0 1
-35.287704 6.301110 9.413447 37.061288 -0.176702 1.313986 0.007294 -0.003031 -301470.000000 0 0 1
35.180186 7.113210 10.361947 37.357907 0.199504 1.289741 0.008012 -0.006232 -266558.000000 0 0 1
-35.072006 8.048110 11.003347 37.628332 -0.225569 1.274038 0.027377 -0.009036 -496811.000000 0 0 1
35.110917 8.951010 11.938647 38.150077 0.249618 1.252510 0.031645 -0.017995 -307759.000000 0 0 1
34.734971 8.334410 13.127447 38.056675 0.235491 1.218617 0.016609 -0.014189 467894.000000 0 0 1
34.225081 9.285510 14.077847 38.154458 0.264930 1.192896 0.031217 -0.033080 26267.900000 0 0 1
33.334731 8.597210 15.207347 37.634821 0.252405 1.154827 0.028815 -0.027343 124444.000000 0 0 1
32.118471 8.030510 14.739847 36.240149 0.245005 1.151928 0.022092 -0.023580 169992.000000 0 0 1
31.658921 7.247410 15.808847 36.121073 0.225044 1.117799 0.025633 -0.017579 -332846.000000 0 0 1
30.137851 7.057910 15.717047 34.714979 0.230042 1.100954 0.017573 -0.011679 -331874.000000 0 0 1
29.370841 8.217010 16.021947 34.450956 0.272793 1.087088 0.013570 -0.015722 931044.000000 0 0 1
27.949781 8.089810 15.936047 33.175185 0.281742 1.069731 0.027816 -0.013962 773748.000000 0 0 1
27.205501 7.558110 17.172947 33.048062 0.270982 1.024372 0.034613 -0.010407 -451165.000000 0 0 1
27.381581 8.408310 18.295147 33.987690 0.297939 1.002393 0.035670 -0.013855 135875.000000 0 0 1
26.746371 7.982010 19.484447 34.040043 0.290019 0.961369 0.039786 -0.010833 -192890.000000 0 0 1
27.329571 6.784910 20.302147 34.714804 0.243343 0.946130 0.041368 -0.005204 -99492.800000 0 0 1
26.723951 6.739110 21.573647 35.000106 0.247025 0.906649 0.042589 -0.004604 153976.000000 0 0 1
27.283601 5.732510 22.426747 35.780100 0.207096 0.893365 0.056628 -0.007352 -334664.000000 0 0 1
26.562891 5.587210 23.810947 36.107690 0.207317 0.850719 0.061883 -0.003720 644052.000000 0 0 1
25.177871 5.274410 23.800447 35.045768 0.206500 0.824227 0.046653 -0.006510 -122207.000000 0 0 1
24.326671 6.372810 23.708347 34.561327 0.256211 0.814848 0.049655 -0.000210 -1871810.000000 0 0 1
22.898871 5.982510 23.845247 33.596793 0.255546 0.781656 0.034327 -0.001568 -1446830.000000 0 0 1
22.326471 5.536710 22.666647 32.294014 0.243085 0.792758 0.022928 0.013789 240155.000000 0 0 1
20.912871 5.430110 22.709047 31.345416 0.254044 0.760520 0.019649 0.003002 -841589.000000 0 0 1
20.378971 4.746010 21.424647 29.947330 0.228809 0.773584 0.023996 0.002179 866496.000000 0 0 1
18.997271 4.971810 21.089247 28.816168 0.255971 0.749757 0.028053 -0.000317 2078500.000000 0 0 1
18.025171 4.470910 22.076347 28.848933 0.243130 0.699383 0.035824 -0.003332 -87584.300000 0 0 1
16.633471 4.221110 21.478347 27.491990 0.248526 0.674117 0.055464 -0.008250 -516787.000000 0 0 1
16.670271 3.173910 20.533647 26.638361 0.188142 0.690653 0.042168 -0.002928 130175.000000 0 0 1
15.464071 2.936410 19.837647 25.323748 0.187652 0.670741 0.059426 -0.018908 -716.983000 0 0 1
14.427871 2.041410 20.556447 25.197189 0.140558 0.616645 0.069357 -0.028447 -149826.000000 0 0 1
14.805171 0.660610 20.705047 25.462295 0.044591 0.621227 0.032401 -0.017256 547667.000000 0 0 1
13.766771 0.037310 21.486147 25.518227 0.002710 0.569831 0.028931 -0.025195 559000.000000 0 0 1
14.105171 -1.410690 21.857847 26.052090 -0.099681 0.575343 0.004268 -0.021770 -16352.700000 0 0 1
13.725971 -2.223390 20.749647 24.977862 -0.160589 0.590394 0.022683 -0.018955 120835.000000 0 1 0
13.983871 -3.611690 20.964147 25.457581 -0.252752 0.603255 0.022012 -0.008416 -102248.000000 0 0 1
13.823071 -4.495190 19.744447 24.517896 -0.314408 0.634602 0.021897 -0.012732 -456818.000000 0 1 0
12.503071 -4.520190 19.292347 23.429758 -0.346906 0.603398 0.020777 -0.013727 -476081.000000 0 1 0
12.453871 -4.853890 17.900147 22.339974 -0.371639 0.641397 0.034710 -0.015212 267910.000000 0 1 0
10.961571 -4.904690 17.490747 21.216462 -0.420726 0.601664 0.031883 -0.011727 480764.000000 0 1 0
10.299671 -5.964690 18.188547 21.736697 -0.524921 0.579445 0.026390 -0.009982 793738.000000 0 1 0
8.873871 -5.894590 17.970347 20.890791 -0.586337 0.535126 0.023270 -0.020382 1186630.000000 0 1 0
7.932371 -6.758690 18.825447 21.517431 -0.705677 0.505582 0.024158 -0.018858 -148947.000000 0 1 0
7.868971 -8.128790 18.569747 21.744733 -0.801638 0.547193 0.012086 -0.016738 -268308.000000 0 1 0
8.799871 -8.821890 19.364847 23.027392 -0.786648 0.571763 0.015238 -0.013994 -25524.600000 0 1 0
9.029771 -10.305390 18.929147 23.367722 -0.851277 0.626550 0.033505 -0.017541 207230.000000 0 1 0
9.335871 -10.308690 17.540647 22.385305 -0.834879 0.670391 0.036000 -0.013251 -150288.000000 0 1 0
9.806071 -11.565490 17.155247 22.895897 -0.867538 0.723835 0.033250 -0.014788 -2290.610000 0 1 0
9.564071 -11.893590 15.658447 21.865862 -0.893538 0.772578 0.028007 -0.017002 -60200.100000 0 1 0
10.344271 -12.960490 15.202547 22.496570 -0.897191 0.828785 0.025135 -0.012268 -360318.000000 0 1 0
9.848771 -13.427090 13.993947 21.751221 -0.937939 0.871912 0.010468 0.005374 -708373.000000 0 1 0
10.663171 -14.556090 13.351547 22.446532 -0.938552 0.933760 0.032012 -0.001449 435302.000000 0 1 0
11.994271 -14.265290 12.931647 22.684544 -0.871667 0.964212 0.017097 -0.008319 255541.000000 0 1 0
12.104771 -13.360190 11.826347 21.561137 -0.834658 0.990224 -0.010143 -0.009417 -1579640.000000 0 1 0
13.472671 -13.066490 11.271647 21.892831 -0.770094 1.029957 0.011659 -0.017083 -679548.000000 0 1 0
14.083071 -14.021990 10.415547 22.437307 -0.783225 1.088058 0.024244 -0.016237 1179710.000000 0 1 0
15.426171 -13.696390 9.997047 22.923761 -0.726071 1.119536 0.034543 -0.027858 918740.000000 0 1 0
16.270271 -14.840290 9.418447 23.951265 -0.739466 1.166650 0.039947 -0.030032 -19958.000000 0 1 0
16.731371 -15.887790 10.251147 25.247706 -0.759542 1.152698 0.035029 -0.018964 173811.000000 0 0 1
15.786471 -16.900190 10.540847 25.415321 -0.819458 1.143135 0.063618 -0.015950 124473.000000 0 0 1
16.185471 -17.609490 11.871947 26.702186 -0.827510 1.110062 0.044719 -0.001499 236330.000000 0 0 1
17.356171 -18.384690 11.702147 27.859895 -0.814167 1.137312 0.064251 -0.013219 8973.260000 0 0 1
17.697471 -19.150090 12.846247 29.068067 -0.824800 1.113040 0.040685 -0.006446 -17005.900000 0 0 1
18.929271 -20.038390 12.599947 30.308630 -0.813853 1.142060 -0.000835 -0.008828 -159907.000000 0 0 1
20.074071 -19.286190 12.353547 30.455469 -0.765384 1.153132 0.008949 -0.013473 -1135870.000000 0 0 1
21.270471 -20.009790 12.191247 31.645713 -0.754868 1.175327 0.000706 -0.023004 -17246.200000 0 0 1
22.216871 -19.025990 11.527847 31.439926 -0.708184 1.195377 -0.002461 -0.013467 -1174080.000000 0 0 1
22.135671 -19.107890 10.096547 30.936058 -0.712117 1.238337 -0.008808 -0.017618 238178.000000 0 0 1
20.971171 -18.648490 9.391247 29.593103 -0.726841 1.247867 0.017610 -0.019181 527718.000000 0 0 1
20.523071 -17.152290 9.563047 28.405094 -0.696167 1.227422 0.059008 -0.028418 165498.000000 0 0 1
21.515571 -16.279690 9.051047 28.458208 -0.647742 1.247128 0.049059 -0.020808 92445.600000 0 0 1
21.101671 -14.923090 9.170147 27.423908 -0.615541 1.229844 0.068526 -0.033814 122917.000000 0 0 1
-34.270795 24.849757 8.277047 43.133599 -0.627374 1.377705 0.028725 0.004591 -70236.400000 0 0 1
-33.301407 24.244457 9.081347 42.181136 -0.629292 1.353803 0.043185 -0.007357 90788.100000 0 0 1
-32.193787 25.098157 9.337247 41.875310 -0.662175 1.345929 0.038478 -0.004300 46567.600000 0 0 1
-31.027467 24.434457 10.110547 40.767261 -0.667079 1.320174 0.055829 -0.015315 -130767.000000 0 0 1
-30.182307 23.690157 9.285447 39.476762 -0.665467 1.333359 0.063737 -0.013824 -315645.000000 0 0 1
-29.400777 22.763157 9.962947 38.494510 -0.658833 1.309001 0.071244 -0.017033 -206565.000000 0 0 1
-28.646957 21.795357 9.027947 37.110505 -0.650394 1.325059 0.067528 -0.017795 194812.000000 0 0 1
-29.459557 20.893257 8.210847 37.037976 -0.616886 1.347252 0.073766 -0.022692 499050.000000 0 0 1
-28.764367 20.002457 7.338047 35.795726 -0.607625 1.364335 0.059921 -0.020997 -284312.000000 0 0 1
-29.702917 19.191057 6.451047 35.946849 -0.573629 1.390358 0.064544 -0.018476 -416802.000000 0 0 1
-30.330347 18.057657 6.961447 35.978753 -0.537005 1.376081 0.066620 -0.027054 300684.000000 0 0 1
-31.347317 17.637657 6.079747 36.478823 -0.512506 1.403350 0.059812 -0.018024 62543.200000 0 0 1
-32.208767 16.429557 6.586247 36.752057 -0.471692 1.390615 0.074177 -0.022668 163762.000000 0 0 1
-33.083677 16.772457 7.665047 37.876087 -0.469209 1.367017 0.077557 -0.028321 387593.000000 0 0 1
-33.841367 15.660757 8.093747 38.157649 -0.433422 1.357059 0.076665 -0.033219 122816.000000 0 0 1
-34.807884 16.097757 9.276347 39.456016 -0.433179 1.333469 0.067702 -0.032137 271270.000000 0 0 1
35.203806 16.878257 8.737547 40.006603 0.447068 1.350619 0.064936 -0.025697 -464565.000000 0 0 1
34.471081 17.475357 9.747347 39.857927 0.469198 1.323738 0.071655 -0.019089 -328090.000000 0 0 1
33.606521 18.653057 9.242447 39.531729 0.506707 1.334814 0.048229 -0.009357 4524.550000 0 0 1
32.283101 18.284257 8.901747 38.154342 0.515326 1.335317 0.017375 -0.009471 126770.000000 0 0 1
31.497501 19.425357 8.615647 37.995611 0.552628 1.342053 0.006438 -0.000126 -322296.000000 0 0 1
29.996721 19.176057 8.437547 36.588477 0.568796 1.338095 -0.005696 0.007655 -346461.000000 0 0 1
29.468201 20.464457 8.109147 36.782158 0.606997 1.348506 -0.014724 0.005780 559233.000000 0 0 1
28.123991 20.526757 7.615347 35.641270 0.630491 1.355470 -0.011700 0.004083 624995.000000 0 0 1
28.027421 20.202857 6.017547 35.069968 0.624566 1.398356 -0.026891 0.015700 -295981.000000 0 0 1
28.246021 18.794957 5.752447 34.411899 0.587126 1.402843 -0.030624 0.009928 109256.000000 0 0 1
28.242761 18.366157 4.346847 33.968579 0.576583 1.442478 -0.038289 0.001650 277788.000000 0 0 1
26.903221 18.600257 3.569547 32.901285 0.604915 1.462090 -0.029532 0.013394 840984.000000 0 0 1
25.744771 17.904257 4.090547 31.624172 0.607667 1.441084 -0.035472 0.001083 1641910.000000 0 0 1
24.481871 18.372557 3.614247 30.821675 0.643793 1.453263 0.001967 -0.003120 506700.000000 0 0 1
23.895171 19.606657 4.375047 31.217643 0.687133 1.430187 0.001146 0.001431 -862887.000000 0 0 1
24.578571 20.787457 3.982847 32.435900 0.702025 1.447694 0.001762 0.000735 298946.000000 0 0 1
24.065271 21.982457 4.494247 32.902340 0.740197 1.433774 0.006578 0.011286 -734821.000000 0 0 1
24.939971 23.150457 4.127447 34.278005 0.748204 1.450093 0.000739 0.023202 -1050640.000000 0 0 1
26.143041 23.159757 4.807947 35.255486 0.724962 1.433996 -0.003324 0.009130 -567719.000000 0 0 1
26.802101 24.382157 4.481247 36.509229 0.738154 1.447743 0.005849 0.013771 -1048970.000000 0 0 1
28.140601 24.589757 5.204047 37.731044 0.718160 1.432430 0.004083 0.007686 -136611.000000 0 0 1
29.018061 23.429557 5.095247 37.642444 0.679245 1.435020 -0.004667 0.006780 714989.000000 0 0 1
29.564281 23.101357 3.824647 37.714020 0.663293 1.469210 0.000601 0.001531 -683901.000000 0 0 1
30.587081 24.104757 3.217247 39.076329 0.667424 1.488371 0.022462 -0.007341 -322759.000000 0 0 1
29.952781 25.313757 2.816347 39.317772 0.701655 1.499105 0.009382 -0.004201 157719.000000 0 0 1
30.912481 26.308657 2.438547 40.665384 0.705114 1.510794 0.028829 -0.003128 -777304.000000 0 0 1
30.678381 27.748257 2.871847 41.465363 0.735290 1.501482 0.030557 0.000223 846955.000000 0 0 1
29.505671 28.447557 2.421047 41.057394 0.767142 1.511795 0.023938 -0.005159 66903.300000 0 0 1
28.272611 27.906457 2.800447 39.824030 0.778881 1.500418 0.005752 0.004069 -427819.000000 0 0 1
27.077751 28.472957 1.959847 39.341516 0.810509 1.520959 -0.001505 0.021573 419505.000000 0 0 1
26.772021 29.823457 2.372747 40.147349 0.839263 1.511661 -0.009611 0.023624 -657722.000000 0 0 1
25.488271 30.174857 1.990947 39.549182 0.869396 1.520434 -0.010936 0.019880 -456118.000000 0 0 1
25.034271 31.597457 2.499247 40.390101 0.900776 1.508879 -0.002720 0.003602 7271.590000 0 0 1
24.653171 31.707557 3.860747 40.349143 0.909916 1.474966 -0.000079 -0.004791 68956.300000 0 0 1
25.740571 31.910757 4.742147 41.271799 0.892018 1.455642 0.000111 -0.004202 -83882.100000 0 0 1
25.412671 32.168157 6.241147 41.467410 0.902186 1.419715 0.007662 -0.021512 -443640.000000 0 0 1
24.935771 31.021057 6.940047 40.401274 0.893722 1.398162 0.006526 -0.019074 244544.000000 0 0 1
25.842471 29.916257 7.199547 40.182698 0.858330 1.390653 0.015792 -0.014129 202825.000000 0 0 1
25.155171 28.642857 7.718547 38.894368 0.850137 1.371021 0.025946 -0.009918 -272414.000000 0 0 1
24.218671 28.185557 6.776647 37.774232 0.860952 1.390421 0.013606 -0.016290 -68231.900000 0 0 1
23.646171 26.910557 7.093847 36.519066 0.849877 1.375303 0.015134 0.000283 134475.000000 0 0 1
22.361671 26.571257 6.280247 35.291890 0.871215 1.391892 0.033177 0.005200 107437.000000 0 0 1
22.497271 26.296757 4.860347 34.946668 0.863109 1.431265 0.024715 0.000119 42555.300000 0 0 1
23.086671 27.369057 4.160447 36.046761 0.870069 1.455120 0.017485 0.011584 -215801.000000 0 0 1
23.104971 27.249857 2.593047 35.820640 0.867527 1.498343 0.021694 0.017303 22632.700000 0 0 1
23.901271 26.175157 2.079447 35.506812 0.830775 1.512198 0.002402 0.025240 360479.000000 0 0 1
23.680271 26.047557 0.724047 35.210151 0.832967 1.550231 0.017953 0.019471 -506471.000000 0 0 1
24.903171 25.520357 0.026547 35.657499 0.797638 1.570052 0.017817 0.010100 -514954.000000 0 0 1
26.081091 26.313857 -0.146453 37.049478 0.789841 1.574749 0.011217 0.016676 1137860.000000 0 0 1
27.118711 25.630257 -0.887353 37.324549 0.757188 1.594573 0.013009 0.009907 949706.000000 0 0 1
28.028181 24.565557 -0.196453 37.270419 0.719656 1.576067 0.022989 0.005256 -498311.000000 0 0 1
27.301281 23.482157 0.227447 36.011434 0.710335 1.564480 0.026625 -0.004004 391938.000000 0 0 1
28.173011 22.399857 0.574147 35.997247 0.671735 1.554846 0.031469 -0.006665 -8214.560000 0 0 1
27.282501 21.279257 1.008947 34.614442 0.662401 1.541644 0.017938 -0.005548 -569580.000000 0 0 1
26.540901 20.772657 -0.032653 33.703468 0.664082 1.571765 0.022730 -0.022018 521599.000000 0 0 1
25.304271 20.290657 0.518047 32.438947 0.675878 1.554826 0.014245 -0.008583 208676.000000 0 0 1
24.811871 19.016057 -0.203853 31.261493 0.653921 1.577317 0.020780 -0.020085 -737926.000000 0 0 1
23.455271 18.758757 0.022947 30.034001 0.674599 1.570032 0.022986 -0.017133 -203480.000000 0 0 1
23.116471 17.607057 -0.691953 29.066450 0.650926 1.594604 0.036597 -0.029186 -787863.000000 0 0 1
21.712771 17.179257 -0.339553 27.689106 0.669355 1.583060 0.037240 -0.017702 -1303970.000000 0 0 1
21.112071 16.138957 -1.133053 26.598295 0.652680 1.613408 0.033606 -0.019874 87965.900000 0 0 1
19.857171 15.742057 -0.675553 25.349082 0.670313 1.597449 0.053956 -0.018051 -409148.000000 0 0 1
18.617671 16.570157 -1.041553 24.945393 0.727276 1.612562 0.050334 -0.024656 -607279.000000 0 1 0
18.699771 17.875757 -0.603353 25.876402 0.762873 1.594115 0.038791 -0.021012 74662.500000 0 0 1
17.529871 18.623757 -0.902453 25.592091 0.815646 1.606067 0.022312 -0.023378 256061.000000 0 0 1
17.632471 20.122957 -0.532753 26.760442 0.851266 1.590706 0.027921 -0.018606 -520869.000000 0 0 1
17.227971 20.325657 0.811647 26.656971 0.867699 1.540344 0.035040 -0.019687 -7071.040000 0 0 1
17.353371 21.672357 1.290947 27.793832 0.895620 1.524332 0.046009 -0.016798 -427109.000000 0 0 1
16.325371 22.741857 0.890347 28.008972 0.948187 1.539003 0.042899 -0.015979 861219.000000 0 0 1
15.033071 22.449857 1.482147 27.058937 0.980746 1.515994 0.031291 -0.017084 1036840.000000 0 0 1
14.015871 23.330057 0.954547 27.233203 1.029815 1.535738 0.021954 -0.017270 292160.000000 0 0 1
12.645971 23.061757 1.580647 26.348883 1.069219 1.510771 0.024197 -0.020735 -249352.000000 0 0 1
12.517371 23.471957 2.916847 26.760518 1.080872 1.461581 0.031012 -0.009679 -433056.000000 0 0 1
11.198271 23.373457 3.378247 26.136800 1.124006 1.441181 0.019027 -0.011538 -83134.000000 0 0 1
10.933471 23.838357 4.846647 26.670171 1.140772 1.388056 0.023566 -0.006757 -280923.000000 0 0 1
11.590671 22.949557 5.739947 26.343364 1.103117 1.351145 0.019075 -0.025948 63181.200000 0 0 1
11.025071 22.899557 7.011447 26.364792 1.122096 1.301618 0.015346 -0.017758 -334313.000000 0 0 1
11.888771 21.972257 7.895147 26.200311 1.074826 1.264701 0.026020 -0.012703 32455.900000 0 0 1
13.168971 22.303257 8.335747 27.209222 1.037428 1.259432 0.040386 -0.009184 -147557.000000 0 0 1
14.177171 21.878257 7.436547 27.110008 0.995826 1.292924 0.037854 -0.017973 260750.000000 0 0 1
15.609071 21.717957 8.029647 27.924684 0.947619 1.279132 0.050080 -0.015557 47921.400000 0 0 1
15.691571 20.608457 8.983547 27.416017 0.920030 1.236955 0.046794 -0.014106 55959.200000 0 0 1
16.991871 20.408357 9.479647 28.197312 0.876495 1.227928 0.047535 -0.014794 -20953.900000 0 0 1
17.247871 21.417857 10.674747 29.498540 0.892830 1.200519 0.029904 -0.005008 -451123.000000 0 0 1
16.296971 21.224357 11.698247 29.204684 0.915973 1.158668 0.033893 -0.012685 70586.000000 0 0 1
16.544071 22.020857 12.818047 30.379710 0.926469 1.135226 0.025577 -0.002212 -40366.200000 0 0 1
17.515471 21.537257 13.927947 31.058539 0.888020 1.105775 0.027511 0.007695 1244430.000000 0 0 1
18.880371 21.507457 13.459847 31.626043 0.850353 1.131178 0.029654 0.006589 532645.000000 0 0 1
19.820971 21.231157 14.467747 32.449170 0.819736 1.108663 0.018639 0.007026 209975.000000 0 0 1
21.253671 21.683657 14.116047 33.483762 0.795412 1.135611 0.021461 0.004403 164622.000000 0 0 1
21.797271 21.024857 12.961547 32.941878 0.767362 1.166396 0.023481 0.016715 168269.000000 0 0 1
23.181171 21.328557 12.888447 34.035072 0.743799 1.182425 0.015670 0.021348 277371.000000 0 0 1
23.853971 20.870657 11.579747 33.744434 0.718793 1.220517 0.016637 0.026429 -165706.000000 0 0 1
23.445471 21.649257 10.500747 33.595329 0.745587 1.252903 0.019607 0.023419 119070.000000 0 0 1
24.258071 21.540257 9.346047 33.760706 0.726125 1.290301 0.020661 0.020198 -511613.000000 0 0 1
23.976171 22.571157 8.217847 33.938870 0.755223 1.326229 0.006330 0.018601 -284094.000000 0 0 1
24.382271 23.896157 8.419047 35.162506 0.775330 1.329015 0.011958 0.018852 271588.000000 0 0 1
25.775771 24.139357 8.483347 36.318950 0.752626 1.335039 -0.003090 0.021234 -377065.000000 0 0 1
26.146431 25.337757 9.345047 37.589462 0.769692 1.319553 0.010220 0.018909 45835.000000 0 0 1
27.507991 25.679557 9.081447 38.711780 0.751035 1.333998 0.004794 0.016109 712525.000000 0 0 1
27.942321 26.690357 9.997347 39.913599 0.762486 1.317626 0.009774 0.005375 531767.000000 0 0 1
29.275831 27.362057 9.538947 41.191601 0.751621 1.337100 0.010921 0.000740 411257.000000 0 0 1
29.147731 28.021157 8.292247 41.273924 0.765695 1.368512 0.017048 -0.007088 60093.700000 0 0 1
30.371231 28.571957 7.877047 42.436026 0.754882 1.384092 0.013922 -0.001413 -447128.000000 0 0 1
30.230751 29.450957 6.604247 42.718535 0.772333 1.415575 0.021704 -0.001000 110223.000000 0 0 1
29.746561 30.785657 6.792647 43.344603 0.802562 1.413435 0.031424 -0.000733 218839.000000 0 0 1
29.841221 31.526757 5.629547 43.773584 0.812857 1.441833 0.023313 0.000085 -21432.500000 0 0 1
29.768311 33.049957 5.869047 44.865329 0.837591 1.439606 0.006626 -0.005814 423511.000000 0 0 1
28.488811 33.480557 6.302947 44.410440 0.865776 1.428391 0.008177 -0.014461 410393.000000 0 0 1
28.656621 -34.140897 6.792847 45.088197 -0.872510 1.419564 0.010818 -0.018091 837422.000000 0 0 1
27.279421 -33.729897 7.433147 44.012776 -0.890736 1.401097 0.030667 -0.021718 1082510.000000 0 0 1
26.262401 -33.571897 6.457147 43.110100 -0.906958 1.420448 0.030083 -0.024298 233461.000000 0 0 1
25.146471 -32.761297 6.842947 41.862555 -0.916147 1.406597 0.012778 -0.026697 885394.000000 0 0 1
23.980271 -32.920797 5.801747 41.139914 -0.941248 1.429300 0.014219 -0.010722 107531.000000 0 0 1
24.306271 -32.389497 4.512247 40.745978 -0.927016 1.459828 0.014554 0.001376 -490887.000000 0 0 1
23.308371 -32.588497 3.552847 40.223289 -0.949920 1.482353 0.013631 -0.004994 -532860.000000 0 0 1
23.644571 -32.192897 2.092347 39.997828 -0.937312 1.518461 0.019755 0.006090 -125622.000000 0 0 1
23.538271 -30.778997 1.921247 38.795464 -0.917921 1.521254 0.025128 0.006682 5956.900000 0 0 1
24.454971 -30.284997 0.954447 38.937612 -0.891502 1.546282 0.025230 0.002875 -241549.000000 0 0 1
24.723071 -28.779597 1.112647 37.956994 -0.861072 1.541479 0.034515 -0.005827 -168999.000000 0 0 1
23.635871 -27.880897 1.074447 36.567106 -0.867613 1.541409 0.032234 -0.007237 110130.000000 0 0 1
22.952871 -27.778897 -0.203753 36.035301 -0.880241 1.576451 0.040224 -0.007845 116766.000000 0 0 1
21.830571 -26.723597 -0.180553 34.507348 -0.885834 1.576029 0.041215 -0.007411 -46832.200000 0 0 1
22.322571 -25.375097 -0.154253 33.796694 -0.849308 1.575360 0.031456 -0.005587 -108213.000000 0 0 1
22.505871 -24.808097 1.135247 33.514843 -0.834018 1.536917 0.024817 -0.000905 184472.000000 0 0 1
21.204771 -24.372997 1.861747 32.359719 -0.854799 1.513232 0.018990 -0.003280 -108213.000000 0 0 1
21.350571 -23.773597 3.103847 32.103966 -0.839043 1.473964 0.015950 -0.007641 156746.000000 0 0 1
20.090071 -23.652297 3.769947 31.261072 -0.866655 1.449907 0.007191 -0.006247 532681.000000 0 0 1
20.230571 -22.953897 5.177347 31.031634 -0.848377 1.403172 0.002105 -0.012042 65026.100000 0 0 1
20.429071 -21.543397 5.215047 30.144015 -0.811941 1.396917 0.028241 -0.003142 134615.000000 0 0 1
19.314471 -20.829397 4.709647 28.793981 -0.823118 1.406495 0.029100 -0.006699 -418144.000000 0 0 1
19.418371 -19.297697 4.900147 27.811611 -0.782281 1.393681 0.032902 -0.010656 141275.000000 0 0 1
19.061471 -18.805597 6.210547 27.487471 -0.778641 1.342887 0.048871 -0.015438 -23899.000000 0 0 1
17.670471 -18.821497 6.453747 26.610997 -0.816930 1.325832 0.040114 -0.013804 48352.100000 0 0 1
18.254263 -26.279833 -11.955453 34.158170 -0.963696 1.928370 0.036266 -0.010766 -29002.900000 0 0 1
18.146063 -24.877243 -11.981453 33.041066 -0.940594 1.941877 0.062985 -0.017865 -423144.000000 0 0 1
17.079163 -24.488143 -12.795453 32.482158 -0.961786 1.975692 0.030374 -0.013309 -182416.000000 0 0 1
17.132563 -22.931843 -13.222153 31.531246 -0.929149 2.003509 0.028203 -0.021602 64683.500000 0 0 1
17.073963 -21.918043 -12.218753 30.351586 -0.908998 1.985123 0.031666 -0.024080 -464531.000000 0 0 1
18.301263 -21.715243 -11.569653 30.665043 -0.870506 1.957666 0.038721 -0.029287 -770520.000000 0 0 1
18.469163 -22.439643 -10.182153 30.794867 -0.882152 1.907783 0.046561 -0.017770 162277.000000 0 0 1
17.731963 -22.019643 -9.023653 29.676818 -0.892845 1.879752 0.048215 -0.023918 441748.000000 0 0 1
16.322663 -22.081643 -9.185253 28.955089 -0.934246 1.893597 0.042461 -0.001066 -142185.000000 0 0 1
15.508763 -21.337343 -8.148653 27.608051 -0.942285 1.870414 0.038711 -0.017231 -838640.000000 0 0 1
15.144263 -19.989343 -8.408953 26.450577 -0.922438 1.894323 0.026735 -0.030151 185529.000000 0 0 1
14.188263 -19.545143 -7.481453 25.284216 -0.942884 1.871188 0.017809 -0.029905 244112.000000 0 0 1
12.703163 -19.738243 -7.884853 24.761654 -0.998947 1.894869 0.011870 -0.011612 48019.300000 0 1 0
12.280663 -21.105343 -7.947553 25.679054 -1.043811 1.885459 0.014126 -0.011790 -690221.000000 0 0 1
10.906563 -21.258643 -8.109253 25.231786 -1.096770 1.897994 0.005245 -0.007679 -522948.000000 0 0 1
10.265863 -22.646543 -7.913053 26.093491 -1.145195 1.878906 -0.001010 -0.004691 -218837.000000 0 0 1
10.462863 -23.118143 -6.600853 26.220055 -1.145797 1.825283 0.008410 -0.008009 211796.000000 0 0 1
9.761663 -24.276243 -6.215153 26.893385 -1.188474 1.804008 0.006816 -0.009048 -55179.000000 0 0 1
10.314363 -24.752143 -4.870153 27.253863 -1.175972 1.750457 0.017512 -0.011430 34143.200000 0 0 1
9.545063 -25.732283 -4.228653 27.769410 -1.215592 1.723668 0.019177 -0.012511 -328013.000000 0 0 1
10.232563 -26.140023 -3.057153 28.237428 -1.197681 1.679275 0.016753 -0.014057 120586.000000 0 0 1
9.417063 -27.127103 -2.139853 28.794787 -1.236666 1.645179 0.030705 -0.012510 -647953.000000 0 0 1
8.395863 -26.462473 -1.533853 27.804779 -1.263568 1.625989 0.022874 -0.010782 -1378250.000000 0 0 1
7.694863 -27.405503 -0.777853 28.475912 -1.297066 1.598116 0.026359 -0.017393 -25690.700000 0 0 1
6.933863 -26.750653 0.440547 27.638198 -1.317174 1.554856 0.027440 -0.011113 823911.000000 0 0 1
5.765563 -26.013003 0.039447 26.644317 -1.352681 1.569316 0.035026 -0.019472 159143.000000 0 0 1
5.017963 -25.633593 1.152047 26.145521 -1.377484 1.526719 0.043516 -0.012851 428531.000000 0 0 1
3.565563 -25.113653 0.880447 25.380780 -1.429762 1.536100 0.018609 -0.013635 493566.000000 0 0 1
2.781663 -26.191963 0.474247 26.343529 -1.464990 1.552793 0.010940 -0.013309 -771253.000000 0 0 1
1.427463 -25.805953 0.389447 25.848337 -1.515537 1.555729 0.006707 -0.004935 416502.000000 0 0 1
0.494563 -26.912553 -0.223753 26.918027 -1.552422 1.579109 0.006081 -0.003128 194899.000000 0 0 1
0.098863 -27.954063 0.693247 27.962833 -1.567260 1.546002 0.004922 0.002947 -135327.000000 0 0 1
0.866263 -29.133163 0.659447 29.153499 -1.541070 1.548175 -0.008418 0.001546 -707201.000000 0 0 1
0.314263 -30.218583 1.570747 30.261011 -1.560397 1.518866 0.007183 -0.004022 -78536.400000 0 0 1
0.504363 -29.990023 2.911747 30.135264 -1.553980 1.474023 0.002979 -0.004462 -74118.400000 0 0 1
0.174163 -31.131013 3.662547 31.346205 -1.565202 1.453687 0.003511 -0.001948 -84724.700000 0 0 1
0.282763 -30.857013 5.169947 31.288394 -1.561633 1.404800 0.001301 0.006306 60462.600000 0 0 1
1.632263 -30.905423 5.597247 31.450575 -1.518031 1.391874 0.001433 0.017507 19042.200000 0 0 1
1.733463 -30.683383 6.970847 31.512975 -1.514361 1.347746 0.006182 0.017745 167114.000000 0 0 1
3.090763 -31.160643 7.528347 32.205815 -1.471932 1.334856 0.011328 0.012953 259568.000000 0 0 1
3.373263 -32.519673 7.172347 33.471639 -1.467436 1.354840 0.005863 0.010049 423256.000000 0 0 1
4.668063 -33.002443 7.567847 34.179298 -1.430282 1.347530 -0.000283 0.004419 698509.000000 0 0 1
4.800863 34.423856 7.399647 35.535966 1.432227 1.361032 0.003448 0.010647 -11814.100000 0 0 1
4.833363 33.987357 6.046947 34.857816 1.429533 1.396440 -0.004295 0.003780 -82875.400000 0 0 1
4.847463 32.559300 6.083847 33.475649 1.423001 1.388041 -0.002820 0.000790 -183424.000000 0 0 1
5.152063 32.028060 4.641847 32.770217 1.411302 1.428670 -0.003202 -0.004897 -397514.000000 0 0 1
6.478063 32.245070 4.271547 33.165584 1.372535 1.441643 -0.000080 -0.005497 -707507.000000 0 0 1
7.085263 30.997590 4.035247 32.052063 1.346082 1.444565 0.000775 -0.002892 -954716.000000 0 0 1
8.437663 31.136390 3.357647 32.433666 1.306162 1.467087 -0.005225 -0.003740 -707476.000000 0 0 1
9.389363 31.436580 4.383747 33.100392 1.280554 1.437968 0.002503 -0.007859 -142501.000000 0 0 1
10.634063 31.676200 3.740947 33.622308 1.246907 1.459302 0.012927 -0.014841 -184851.000000 0 0 1
11.766863 32.132180 4.648047 34.533178 1.219761 1.435790 0.024444 -0.030307 -376742.000000 0 0 1
12.191463 31.125240 5.506847 33.878277 1.197474 1.407524 0.028719 -0.022230 -174973.000000 0 0 1
13.421063 31.496800 6.098047 34.775846 1.167987 1.394532 0.042160 -0.020412 -116650.000000 0 0 1
14.037463 30.525220 7.093247 34.338805 1.139769 1.362732 0.036819 -0.022574 -389938.000000 0 0 1
13.461563 30.330390 8.384947 34.226504 1.153085 1.323293 0.025011 -0.012230 -180367.000000 0 0 1
14.013563 29.222670 9.008647 33.637778 1.123647 1.299674 0.021449 -0.011363 -99238.900000 0 0 1
13.811463 29.135410 10.549547 33.925235 1.128128 1.254589 0.012136 -0.002243 -202171.000000 0 0 1
14.450563 30.148700 11.286147 35.286541 1.123838 1.245233 0.006260 -0.002778 26614.700000 0 0 1
14.142663 30.226510 12.691147 35.703249 1.133166 1.207388 0.003831 -0.001835 -375844.000000 0 0 1
14.873363 31.369050 13.468847 37.237670 1.128049 1.200706 -0.006030 -0.003662 249666.000000 0 0 1
16.079563 30.868130 14.029447 37.526246 1.090560 1.187632 -0.022987 0.003181 141682.000000 0 0 1
16.729763 31.955720 14.660147 38.935497 1.088503 1.184755 -0.011898 0.008330 -410429.000000 0 0 1
17.905363 31.619200 15.599747 39.544000 1.055539 1.165283 -0.008652 0.008205 -209993.000000 0 0 1
19.080563 31.123590 15.026547 39.478384 1.020831 1.180322 0.007589 0.005504 -157413.000000 0 0 1
19.070563 29.737610 14.872347 38.330125 1.000565 1.172328 -0.002538 0.007852 599741.000000 0 0 1
20.497463 29.147970 14.490647 38.467245 0.957912 1.184564 0.015620 -0.003066 1602780.000000 0 0 1
21.498663 29.339990 15.511247 39.542715 0.938432 1.167703 0.014077 -0.003312 1147980.000000 0 0 1
22.797963 28.945430 15.050747 39.800879 0.903651 1.182998 0.027438 -0.009011 1106350.000000 0 0 1
24.006663 29.105950 16.032047 40.993935 0.881114 1.168988 0.052198 -0.016101 348912.000000 0 0 1
24.215363 27.941290 16.701847 40.571556 0.856714 1.146517 0.038507 -0.008311 -561973.000000 0 0 1
24.953363 28.237190 17.818747 41.683533 0.847057 1.129096 0.037993 -0.010914 -830895.000000 0 0 1
25.835963 26.995690 18.197647 41.562225 0.807346 1.117600 0.016673 -0.001932 29591.500000 0 0 1
25.258063 25.738410 18.646047 40.596928 0.794817 1.093593 0.009136 0.002838 -80732.300000 0 0 1
24.906963 25.697140 20.022647 41.007392 0.801012 1.060691 0.015840 0.008142 -10150.100000 0 0 1
24.358563 24.254710 20.251047 39.896559 0.783262 1.038412 0.016524 0.010521 448431.000000 0 0 1
25.415963 23.289010 20.461147 40.087500 0.741756 1.035132 0.017207 0.009524 601579.000000 0 0 1
25.018963 21.981110 20.145047 38.922238 0.720853 1.026786 0.018906 0.002340 -357661.000000 0 0 1
26.126363 20.984810 20.450547 39.257788 0.676692 1.022857 0.005776 0.001819 -642797.000000 0 0 1
25.531163 19.683410 20.502747 38.205229 0.656779 1.004337 0.010872 0.007714 541948.000000 0 0 1
26.342563 18.518410 20.814147 38.341763 0.612726 0.996959 0.013123 0.005684 -101063.000000 0 0 1
26.920663 18.394510 22.213547 39.452778 0.599420 0.972735 0.027198 0.006828 -450439.000000 0 0 1
25.956263 17.918310 23.112547 39.102215 0.604204 0.938399 0.021430 0.010208 385401.000000 0 0 1
26.506463 17.556710 24.380747 40.065589 0.585012 0.916601 0.037292 0.005861 -175437.000000 0 0 1
25.392663 16.976010 25.244947 39.626753 0.589298 0.880108 0.024084 0.010204 -3410.870000 0 0 1
24.988863 15.672510 24.789147 38.530152 0.560165 0.871904 0.029575 0.009153 960428.000000 0 0 1
23.807163 15.140610 25.421347 37.977150 0.566448 0.837415 0.028216 0.006744 380338.000000 0 0 1
23.253363 14.003110 24.591947 36.627446 0.542034 0.834690 0.034879 0.003189 35216.700000 0 0 1
21.987563 13.540510 25.046247 35.973779 0.551975 0.800656 0.027349 0.001120 423581.000000 0 0 1
21.555463 12.383010 24.383247 34.821252 0.521437 0.795062 0.029213 -0.001399 -30373.100000 0 0 1
20.228463 11.927810 25.025447 34.318163 0.532778 0.753617 0.027671 -0.001646 590660.000000 0 0 1
19.089863 12.819010 24.955347 33.934042 0.591347 0.744529 0.020206 -0.002297 614974.000000 0 0 1
17.935863 12.022910 25.122047 33.126466 0.590533 0.709991 0.018434 0.002045 58016.000000 0 0 1
16.676263 12.932110 25.271247 32.923747 0.659610 0.695757 0.020139 -0.001245 30977.400000 0 0 1
16.598863 13.462810 26.565047 34.095032 0.681454 0.677492 0.026355 0.003590 -153241.000000 0 0 1
15.375363 14.092110 26.812447 33.969054 0.741878 0.661096 0.035044 0.005170 -406771.000000 0 0 1
15.344263 14.631810 28.251147 35.322281 0.761635 0.643816 0.025441 0.014791 -82737.800000 0 0 1
14.649663 13.747410 29.117747 35.375798 0.753636 0.603952 0.023691 0.023533 116549.000000 0 0 1
14.842563 13.932910 30.519547 36.686106 0.753797 0.588255 0.018060 0.034339 921899.000000 0 0 1
16.280163 13.590410 31.100547 37.642887 0.695593 0.598468 0.021326 0.017274 1539640.000000 0 0 1
17.305063 14.561610 30.902147 38.294234 0.699518 0.631799 0.033614 0.007880 259661.000000 0 0 1
18.578463 14.063310 30.613447 38.472316 0.647946 0.650590 0.031599 0.011348 165159.000000 0 0 1
19.590363 15.121810 30.005747 38.894682 0.657371 0.689662 0.034818 0.005583 125399.000000 0 0 1
19.394263 15.665710 28.731247 38.039932 0.679449 0.714697 0.030789 0.002358 129651.000000 0 0 1
19.380663 14.805910 27.614447 36.842675 0.652371 0.723455 0.040167 -0.002215 -408292.000000 0 0 1
19.327463 15.559910 26.215547 36.095935 0.677823 0.757910 0.019110 0.000851 316855.000000 0 0 1
20.450963 16.396510 25.844347 36.810565 0.675806 0.792467 0.022085 0.017715 931844.000000 0 0 1
20.341263 16.839410 24.504247 36.024864 0.691490 0.822756 0.013479 0.010926 -589810.000000 0 0 1
21.543463 17.645310 24.027247 36.780244 0.686253 0.858907 0.018226 0.020954 -547775.000000 0 0 1
21.384963 18.183010 22.691247 36.094752 0.704651 0.890970 0.009753 0.007155 636469.000000 0 0 1
22.568363 18.844910 22.211447 36.848473 0.695730 0.923818 0.011903 0.008223 383228.000000 0 0 1
22.920463 20.209010 22.727847 38.082892 0.722613 0.931290 0.017764 0.006432 -231580.000000 0 0 1
22.049563 21.264510 22.340447 37.913825 0.767275 0.940675 0.009069 0.013766 182859.000000 0 0 1
22.334363 22.371810 23.100047 39.152698 0.786236 0.939739 0.019560 0.011440 -203199.000000 0 0 1
21.309763 23.499810 22.931847 39.143539 0.834234 0.944880 0.011124 0.006265 -177634.000000 0 0 1
21.550463 24.288880 21.826747 39.125171 0.845067 0.978980 0.022746 0.009668 -37393.500000 0 0 1
20.707863 25.409220 21.818547 39.376300 0.886991 0.983511 0.022088 0.002865 -213941.000000 0 0 1
21.102063 26.376370 20.646347 39.588907 0.896033 1.022167 0.022004 -0.001322 -105972.000000 0 0 1
21.109263 25.752720 19.375447 38.525465 0.884164 1.043816 0.017038 -0.001111 230532.000000 0 0 1
21.444463 26.648260 18.307347 38.796310 0.893182 1.079370 0.021693 -0.002754 -156100.000000 0 0 1
21.221763 25.982980 16.915147 37.571274 0.885921 1.103790 0.014945 0.006024 588573.000000 0 0 1
19.865963 25.766590 16.510247 36.485091 0.913992 1.101207 0.020871 0.007711 400893.000000 0 0 1
19.873163 25.436010 15.124247 35.646543 0.907562 1.132626 0.028231 0.006735 -155715.000000 0 0 1
18.486063 25.338810 14.454847 34.535958 0.940509 1.138954 0.013653 0.003028 -860003.000000 0 0 1
18.020563 26.654800 14.284047 35.203026 0.976311 1.152984 0.012406 0.004116 45600.200000 0 0 1
16.881163 26.997350 15.078147 35.230400 1.011989 1.128532 0.020605 0.017742 717162.000000 0 0 1
15.515563 26.466120 14.491247 33.929109 1.040554 1.129509 0.009012 0.003988 -314039.000000 0 0 1
15.165363 25.099390 14.464747 32.698570 1.027285 1.112561 0.003633 0.004699 -63174.300000 0 0 1
15.201863 24.298660 15.627447 32.645652 1.011747 1.071624 0.002305 0.007811 5021.560000 0 0 1
14.195963 24.615060 16.793647 33.006864 1.047671 1.037015 0.020942 -0.003279 178214.000000 0 0 1
14.496563 25.883700 17.297847 34.341400 1.060258 1.042917 0.005395 -0.005825 -399900.000000 0 0 1
13.421063 26.423320 17.985047 34.666679 1.100829 1.025351 0.000736 -0.007414 -484310.000000 0 0 1
13.729663 27.759910 18.654147 36.153747 1.111489 1.028660 0.011020 -0.017386 -473050.000000 0 0 1
13.864663 28.862700 17.751647 36.611546 1.122979 1.064588 0.004817 -0.011994 72028.600000 0 0 1
14.564663 29.991270 18.212847 37.990965 1.118711 1.070826 0.000595 -0.009315 -652750.000000 0 0 1
14.342163 31.355810 17.455247 38.646734 1.141805 1.102169 -0.003625 -0.008598 -824288.000000 0 0 1
13.150263 32.026370 17.673347 38.871133 1.181179 1.098800 0.006433 -0.005363 -584427.000000 0 0 1
13.266063 33.348185 17.207447 39.801835 1.192184 1.123723 0.005509 -0.000772 978945.000000 0 0 1
11.856363 34.079832 17.193347 39.970232 1.235994 1.126133 0.021943 -0.008863 936729.000000 0 0 1
11.750463 -33.612473 16.510147 39.248652 -1.234490 1.136629 0.023079 -0.010238 -202632.000000 0 0 1
12.341963 -32.439383 17.106747 38.694682 -1.207245 1.112863 0.027102 -0.006938 -239345.000000 0 0 1
12.143163 -32.100543 18.591647 39.032686 -1.209149 1.074343 0.031431 -0.014318 -337910.000000 0 0 1
12.975463 -32.864553 19.422047 40.319442 -1.194767 1.068198 0.042900 -0.009244 -31793.700000 0 0 1
12.758963 -32.789923 20.820547 40.883559 -1.199711 1.036466 0.043090 -0.009873 -1327690.000000 0 0 1
13.867963 -33.349403 21.633147 42.101023 -1.176711 1.031143 0.051230 -0.005505 134147.000000 0 0 1
15.097663 -32.577413 21.505747 41.853607 -1.136822 1.031150 0.052569 -0.004319 1021820.000000 0 0 1
16.015863 -32.962433 22.548847 43.028832 -1.118507 1.019208 0.049819 0.001152 249804.000000 0 0 1
17.338263 -32.191533 22.394847 42.877026 -1.076750 1.021246 0.053778 -0.009619 -216370.000000 0 0 1
17.328863 -30.792673 22.836847 42.071365 -1.058210 0.997014 0.075173 -0.014383 301593.000000 0 0 1
18.458463 -30.107213 22.313847 41.773998 -1.020807 1.007287 0.068030 -0.006162 -266301.000000 0 0 1
-4.774937 12.963657 18.374830 22.988928 -1.217884 0.644683 0.021662 -0.003011 -145397.000000 0 1 0
-4.665237 14.243757 17.699530 23.193155 -1.254279 0.702644 0.021610 -0.006374 -236529.000000 0 1 0
-5.911337 14.865857 17.594330 23.780203 -1.192322 0.737915 0.015587 -0.000419 -403907.000000 0 1 0
-5.718837 16.384657 17.308230 24.509935 -1.234980 0.786719 0.020412 -0.006988 263474.000000 0 1 0
-5.168537 17.057957 18.485730 25.678978 -1.276591 0.767170 0.028666 0.001717 452225.000000 0 0 1
-4.939737 18.415157 18.248530 26.391814 -1.308723 0.807307 0.036590 0.010228 -561864.000000 0 0 1
-4.159037 19.030957 19.375030 27.474838 -1.355638 0.788103 0.025459 0.010528 -398030.000000 0 0 1
-4.912437 19.271557 20.580730 28.619773 -1.321206 0.768277 0.011055 0.008937 632594.000000 0 0 1
-4.146837 19.896957 21.670630 29.710291 -1.365322 0.753355 0.005376 0.009288 450345.000000 0 0 1
-5.016437 20.260657 22.926730 31.004739 -1.328082 0.738530 0.014424 0.014172 154065.000000 0 0 1
-5.499437 19.056557 23.445330 30.709602 -1.289845 0.702154 0.019802 0.004459 61902.400000 0 0 1
-6.272137 19.116257 24.655380 31.822300 -1.253759 0.684424 0.018817 0.005111 539080.000000 0 0 1
-5.494537 19.668357 25.917880 32.996526 -1.298382 0.667336 0.011271 0.004111 97532.100000 0 0 1
-5.097837 21.046657 25.745010 33.641570 -1.333157 0.699330 0.016885 -0.004781 206954.000000 0 0 1
-4.328437 21.636857 26.795940 34.711833 -1.373353 0.688887 0.005021 0.003593 -800211.000000 0 0 1
-2.838937 21.501957 26.625950 34.341446 -1.439524 0.683559 0.009181 0.008058 -1385900.000000 0 0 1
-2.383437 20.360457 27.277710 34.121876 -1.454265 0.644467 0.013140 0.012349 -37238.300000 0 0 1
-1.077637 20.138957 26.765800 33.513385 -1.517337 0.645731 0.013852 0.019978 72292.000000 0 0 1
-0.431637 18.797157 27.169960 33.041280 -1.547837 0.605349 0.009061 0.023883 -168041.000000 0 0 1
-0.823337 17.577257 26.478980 31.792676 -1.523989 0.586534 0.014312 0.022752 -178716.000000 0 0 1
-0.174437 16.397057 26.973500 31.566812 -1.560158 0.546230 0.012227 0.020443 833090.000000 0 0 1
1.291163 16.220757 26.411810 31.021989 1.491364 0.552167 0.013071 0.022013 408042.000000 0 0 1
1.334863 15.986257 24.980980 29.688241 1.487489 0.570847 0.010790 0.016605 -133579.000000 0 0 1
0.920363 14.691057 24.593340 28.661937 1.508230 0.539338 0.021086 0.010303 -110776.000000 0 0 1
0.967163 14.486157 23.048330 27.239854 1.504131 0.562123 0.023936 -0.001654 150622.000000 0 0 1
2.316363 14.520857 22.606530 26.968056 1.412609 0.576692 0.021002 -0.004149 72200.800000 0 0 1
2.484063 14.089157 21.275230 25.638064 1.396280 0.591994 0.015898 -0.007948 167918.000000 0 0 1
3.986063 14.003757 20.891730 25.464844 1.293488 0.608661 0.009638 -0.010184 329779.000000 0 0 1
4.369863 15.239857 20.343430 25.791551 1.291549 0.662002 0.009342 -0.012349 -665515.000000 0 0 1
5.762563 15.262257 20.199030 25.964292 1.209775 0.679393 0.013838 -0.009012 -331793.000000 0 0 1
6.307963 16.227757 19.126330 25.864010 1.200057 0.738475 0.026081 -0.015570 -64329.500000 0 0 1
6.030663 15.889457 17.766130 24.586157 1.208053 0.763230 0.021779 -0.021260 191464.000000 0 1 0
6.698363 16.754557 16.850830 24.688737 1.190468 0.819576 0.027562 -0.013358 205560.000000 0 1 0
6.590663 16.124957 15.381130 23.238551 1.182792 0.847472 0.027944 -0.008429 329841.000000 0 1 0
7.547063 15.109557 15.057530 22.627109 1.107557 0.842681 0.021679 -0.008227 177148.000000 0 1 0
7.635463 13.859457 15.727630 22.310159 1.067246 0.788438 0.017628 -0.011263 -281765.000000 0 1 0
8.727463 13.008057 15.078230 21.742382 0.979850 0.804468 0.021237 -0.010351 196470.000000 0 1 0
10.063763 13.423057 15.330230 22.726058 0.927464 0.830419 0.021586 -0.005796 -345942.000000 0 1 0
10.875963 12.704157 14.475730 22.118520 0.862775 0.857326 0.021798 -0.001785 -158507.000000 0 1 0
12.319863 13.263957 14.430530 23.150632 0.822283 0.897800 0.014188 -0.001534 -541115.000000 0 1 0
13.140363 13.108557 15.565330 24.223602 0.784186 0.872950 0.005281 -0.001243 131628.000000 0 1 0
14.394863 13.730557 15.397630 25.156058 0.761783 0.912103 0.008433 -0.003099 710133.000000 0 0 1
15.473663 13.146357 14.391830 24.887461 0.704259 0.954182 0.012347 -0.003004 -245259.000000 0 1 0
16.734363 13.726057 14.618930 26.118129 0.686956 0.976744 0.012516 -0.008548 1058830.000000 0 0 1
17.761263 13.320057 13.629530 26.050920 0.643469 1.020209 0.016571 -0.005257 1867070.000000 0 0 1
19.187663 13.807557 14.081530 27.515532 0.623764 1.033557 0.020616 -0.009669 640527.000000 0 0 1
19.770763 13.151257 15.165530 28.175023 0.586978 1.002423 0.012904 -0.016248 1283870.000000 0 0 1
21.120863 13.647157 15.384830 29.479293 0.573661 1.021736 0.021884 -0.010794 1143740.000000 0 0 1
21.841363 13.189757 16.635830 30.459246 0.543274 0.993015 0.023339 -0.012549 -234309.000000 0 0 1
22.233963 11.834157 16.591630 30.160878 0.489118 0.988307 0.037754 -0.014929 165384.000000 0 0 1
23.182463 11.575557 17.587330 31.316677 0.463107 0.974483 0.033603 -0.013076 -375537.000000 0 0 1
23.488163 10.099057 17.769630 31.135904 0.406067 0.963424 0.044251 -0.015221 78156.100000 0 0 1
22.327363 9.457457 18.275030 30.363322 0.400669 0.924945 0.019763 -0.018844 743228.000000 0 0 1
22.355463 8.159557 17.801230 29.719167 0.349967 0.928568 0.020219 -0.006015 -178385.000000 0 0 1
21.065363 7.452457 18.233630 28.840144 0.340036 0.886367 0.033441 -0.005462 -229674.000000 0 0 1
20.941563 6.175357 17.611430 28.050785 0.286758 0.892020 0.043923 -0.011408 813462.000000 0 0 1
19.671263 5.633957 17.995130 27.249307 0.278939 0.849460 0.034840 -0.006063 240435.000000 0 0 1
19.445963 4.158057 17.646730 26.586500 0.210654 0.844978 0.047356 0.003825 -475492.000000 0 0 1
19.184663 3.963957 16.247330 25.450736 0.203754 0.878400 0.058488 -0.010169 437580.000000 0 0 1
19.277363 2.636057 15.774030 25.047665 0.135901 0.889551 0.048633 -0.020550 -132118.000000 0 0 1
18.226263 1.577357 16.235630 24.459771 0.086328 0.844950 0.057222 -0.019822 -150307.000000 0 1 0
18.329663 1.051857 17.555930 25.402630 0.057323 0.807777 0.045239 -0.022323 466393.000000 0 0 1
17.250463 0.132257 17.756730 24.756765 0.007667 0.770952 0.044063 -0.023867 -147862.000000 0 1 0
17.220063 -0.438043 19.205630 25.798812 -0.025432 0.731103 0.030787 -0.009258 -202735.000000 0 0 1
18.227263 -1.382743 19.546230 26.761917 -0.075716 0.751926 0.030947 -0.005246 167174.000000 0 0 1
17.671563 -2.449843 20.297330 27.023462 -0.137754 0.721069 0.016368 -0.018598 -19893.800000 0 0 1
17.786063 -3.795043 19.500530 26.664903 -0.210219 0.750544 0.010977 -0.014380 1400.160000 0 0 1
17.154763 -3.672243 18.247530 25.312914 -0.210883 0.765728 0.013887 -0.011878 217645.000000 0 0 1
17.116763 -4.929943 17.640230 25.069217 -0.280429 0.790259 0.030169 -0.018948 -163916.000000 0 0 1
16.824363 -4.977843 16.126330 23.830582 -0.287665 0.827515 0.030899 -0.025271 612241.000000 0 1 0
15.428863 -4.729743 15.844730 22.615830 -0.297457 0.794553 0.015856 -0.016466 1174360.000000 0 1 0
15.059763 -4.658643 14.450330 21.384842 -0.300007 0.828845 0.021213 -0.019968 235153.000000 0 1 0
15.641963 -3.487543 13.634030 21.040930 -0.219373 0.865871 0.025928 -0.015819 -147342.000000 0 1 0
14.865163 -2.324443 13.847730 20.448367 -0.155112 0.826839 0.027116 -0.008134 373860.000000 0 1 0
15.435163 -1.171743 13.206330 20.347589 -0.075769 0.864479 0.032822 -0.008277 583961.000000 0 1 0
14.466363 0.113157 13.035930 19.473673 0.007822 0.837378 0.029876 -0.003803 -46899.200000 0 1 0
15.040563 1.294557 12.505330 19.603002 0.085859 0.878990 0.040345 -0.003958 -32302.000000 0 1 0
15.743763 1.972457 13.510230 20.839457 0.124636 0.865446 0.046806 -0.012740 -451567.000000 0 1 0
16.141163 3.409857 13.134230 21.087254 0.208191 0.898414 0.049755 -0.010921 -645773.000000 0 1 0
15.059563 4.275757 13.127330 20.430353 0.276643 0.872987 0.044192 -0.011299 -246285.000000 0 1 0
15.310363 5.517857 12.549930 20.551270 0.345910 0.913897 0.052932 -0.009489 -469704.000000 0 1 0
14.130863 6.452957 12.719830 20.077749 0.428376 0.884691 0.038910 -0.011955 -408023.000000 0 1 0
14.405063 7.685257 12.135930 20.343299 0.490095 0.931592 0.022683 -0.012497 115491.000000 0 1 0
13.316563 8.560357 12.318730 20.058955 0.571322 0.909518 0.004815 -0.004674 -183050.000000 0 1 0
13.355963 9.438157 13.559730 21.244454 0.615183 0.878545 0.007756 -0.009680 -48087.700000 0 1 0
12.993063 8.846357 14.797230 21.587861 0.597759 0.815586 0.016895 -0.013026 526302.000000 0 1 0
13.498163 9.664357 15.864230 22.962447 0.621368 0.808095 0.028939 -0.020170 -178797.000000 0 1 0
13.092863 9.235657 17.314030 23.590169 0.614338 0.746675 0.033605 -0.022685 630509.000000 0 1 0
11.731863 9.583157 17.625630 23.240833 0.684930 0.709956 0.023144 -0.022370 633700.000000 0 1 0
11.233263 8.955457 18.808630 23.667509 0.673048 0.652279 0.041082 -0.015906 81962.300000 0 1 0
11.960763 9.265357 20.166630 25.211102 0.659089 0.643650 0.056427 -0.021440 20822.000000 0 0 1
13.188963 8.549257 20.252330 25.635823 0.575118 0.659985 0.054510 -0.026444 -99867.500000 0 0 1
13.758363 8.508857 21.530530 26.930595 0.553875 0.644364 0.045749 -0.019756 -706314.000000 0 0 1
15.217763 8.106857 21.423530 27.500347 0.489482 0.677683 0.040574 -0.014894 -322128.000000 0 0 1
16.010263 9.104857 20.763730 27.755349 0.517078 0.725605 0.045496 -0.019203 529809.000000 0 0 1
17.081363 8.613957 19.966430 27.651972 0.467074 0.764019 0.036823 -0.014951 -53752.300000 0 0 1
17.722363 9.657357 19.086230 27.778244 0.498938 0.813316 0.038632 -0.021975 125954.000000 0 0 1
18.534763 10.532857 19.912430 29.171619 0.516766 0.819487 0.032577 -0.021490 1018440.000000 0 0 1
19.329363 11.491157 19.175730 29.552996 0.536360 0.864712 0.030696 -0.018265 448617.000000 0 0 1
20.383663 12.292857 19.940530 31.052098 0.542677 0.873479 0.019459 -0.015273 -480483.000000 0 0 1
19.768863 13.408357 20.551830 31.511422 0.595983 0.860310 0.017612 -0.007438 654783.000000 0 0 1
20.598063 14.131857 21.463130 32.934109 0.601320 0.860974 0.014889 -0.003851 294409.000000 0 0 1
21.853663 14.896257 20.956630 33.744057 0.598295 0.900719 0.014534 -0.005225 411914.000000 0 0 1
23.010463 14.142157 20.664330 34.007301 0.551083 0.917706 0.012370 -0.005302 150502.000000 0 0 1
24.178263 14.805857 21.118630 35.352487 0.549460 0.930575 0.014869 -0.001193 236020.000000 0 0 1
25.409963 13.861757 21.051630 35.790860 0.499401 0.941984 0.018880 -0.001683 -34313.500000 0 0 1
25.867863 13.547257 19.759730 35.257927 0.482435 0.975887 0.020191 -0.007413 -77317.700000 0 0 1
27.045063 12.794057 19.760530 35.855291 0.441868 0.987092 0.021091 -0.006614 -224376.000000 0 0 1
27.278963 11.899157 18.525530 35.056055 0.411321 1.014017 0.021414 -0.007858 -248917.000000 0 0 1
27.661163 12.663357 17.395230 35.044180 0.429324 1.051373 0.021909 -0.014318 77845.200000 0 0 1
27.717963 11.855657 16.289130 34.266278 0.404176 1.075413 0.029542 -0.017914 -444225.000000 0 0 1
26.462663 11.429257 15.514030 32.735081 0.407702 1.077052 0.027963 -0.027901 -280835.000000 0 0 1
25.833663 12.504557 14.816830 32.299853 0.450799 1.094234 0.033915 -0.027832 14273.600000 0 0 1
24.756063 12.100257 14.020230 30.916754 0.454631 1.100127 0.045469 -0.026709 -171264.000000 0 0 1
24.320563 12.995857 12.869830 30.430488 0.490754 1.134125 0.038072 -0.022904 -24362.800000 0 0 1
23.802563 14.254857 13.280330 30.759228 0.539595 1.124363 0.020215 -0.013824 256453.000000 0 0 1
23.538563 15.099957 12.221530 30.519476 0.570376 1.158788 0.000068 -0.002718 -380584.000000 0 0 1
22.881663 16.362957 12.720030 30.872577 0.620797 1.146130 0.006316 0.006212 -525171.000000 0 0 1
21.507463 16.253057 13.011530 29.933806 0.647135 1.121117 0.027797 -0.007988 -132553.000000 0 0 1
20.971863 17.487057 13.331930 30.386782 0.695034 1.116599 0.024427 -0.001080 -691557.000000 0 0 1
20.345863 18.292457 12.122630 29.925345 0.732304 1.153713 0.029363 0.005846 668834.000000 0 0 1
19.152863 17.662557 11.617130 28.526405 0.744940 1.151365 0.029733 0.002893 449016.000000 0 0 1
17.959663 17.792157 12.328630 28.126597 0.780713 1.117060 0.025477 -0.001851 -1581700.000000 0 0 1
16.744063 17.377357 11.574830 26.764022 0.803956 1.123558 0.035437 0.002898 -966089.000000 0 0 1
16.733063 15.974457 11.491830 25.831005 0.762209 1.109750 0.028711 0.002908 1089730.000000 0 0 1
15.504263 15.590357 10.815030 24.503189 0.788167 1.113669 0.030758 -0.004193 989873.000000 0 1 0
15.613263 14.194257 10.101830 23.394398 0.737828 1.124303 0.035319 -0.011358 -678186.000000 0 1 0
15.725663 13.097257 10.942430 23.207141 0.694458 1.079793 0.025934 -0.002182 398920.000000 0 1 0
15.959463 11.964357 10.129930 22.371092 0.643291 1.100878 0.018669 -0.001316 -296663.000000 0 1 0
16.382563 10.756957 10.953830 22.451879 0.581008 1.061136 0.020834 -0.000615 -684941.000000 0 1 0
16.927063 9.750157 10.102330 21.992000 0.522593 1.093517 0.015890 -0.009260 582791.000000 0 1 0
17.354363 8.532757 10.760830 22.130913 0.456968 1.063020 0.013286 -0.007198 46353.800000 0 1 0
18.495163 8.617557 11.785830 23.563512 0.436027 1.046998 0.016224 -0.011389 -291802.000000 0 1 0
18.041463 9.183257 13.012430 24.065534 0.470828 0.999518 0.015605 -0.014758 371079.000000 0 1 0
19.163263 9.446457 13.826930 25.448972 0.457989 0.996410 0.022498 -0.015697 -473490.000000 0 0 1
18.750263 9.756557 15.317930 26.103673 0.479789 0.943681 0.015951 -0.009925 275970.000000 0 0 1
18.244463 8.622957 16.081430 25.803647 0.441516 0.897939 0.026177 -0.015901 498683.000000 0 0 1
16.959463 8.237157 15.648530 24.502053 0.452140 0.878038 0.032502 -0.021683 -840417.000000 0 1 0
16.405063 6.913657 16.193330 24.065508 0.398847 0.832694 0.035999 -0.015546 -840193.000000 0 1 0
16.074063 7.020257 17.584630 24.837043 0.411776 0.784134 0.055649 -0.014068 311853.000000 0 1 0
15.404463 5.874357 18.099530 24.482617 0.364318 0.738795 0.057453 0.003455 -801989.000000 0 1 0
13.983063 5.673757 17.640830 23.214574 0.385461 0.707632 0.047616 -0.017799 -1575430.000000 0 1 0
13.543163 4.302257 17.891130 22.847740 0.307588 0.671227 0.051052 -0.016966 104182.000000 0 1 0
12.984963 3.787257 16.679730 21.474775 0.283792 0.681367 0.034408 -0.018305 -189566.000000 0 1 0
12.769863 2.270157 16.713530 21.155734 0.175937 0.659949 0.029970 -0.017524 -65255.800000 0 1 0
13.937963 1.476457 16.853830 21.920272 0.105537 0.693725 0.031013 -0.011476 156037.000000 0 1 0
13.772063 0.059157 16.560730 21.539058 0.004295 0.693725 0.027783 -0.011580 -56591.600000 0 1 0
13.094063 -0.759143 17.760830 22.078901 -0.057911 0.636089 0.026364 -0.015585 229753.000000 0 1 0
11.772063 -0.473443 18.139730 21.629966 -0.040196 0.576017 0.027725 0.000361 -252511.000000 0 1 0
11.262863 -1.548743 18.884130 22.042256 -0.136652 0.541912 0.029909 -0.019099 -516565.000000 0 1 0
-25.197527 14.163857 28.651590 40.699433 -0.512095 0.789810 0.004487 0.011759 -184082.000000 0 0 1
-24.391737 14.093457 29.814040 41.017793 -0.523933 0.757063 0.006181 0.013260 435764.000000 0 0 1
-23.924137 12.788057 30.103710 40.523229 -0.490885 0.733441 0.009882 0.003930 -194324.000000 0 0 1
-22.763637 12.700957 31.116100 40.591984 -0.508926 0.697333 -0.003221 0.005791 -6854.790000 0 0 1
-23.150337 12.921857 32.453600 41.906428 -0.509095 0.684982 0.000989 0.005729 410878.000000 0 0 1
-21.952637 13.034357 33.197512 41.879441 -0.535811 0.655583 -0.005260 0.006779 103536.000000 0 0 1
-22.345937 13.321557 -34.097207 42.888511 -0.537585 2.489836 0.008121 0.010053 -146698.000000 0 0 1
-22.964137 12.323757 -33.358513 42.332222 -0.492538 2.478378 -0.005833 0.007132 164165.000000 0 0 1
-23.527137 12.800857 -32.141613 41.838636 -0.498294 2.446865 -0.010008 0.010675 130472.000000 0 0 1
-24.403137 11.795757 -31.353813 41.445321 -0.450256 2.428757 -0.010519 -0.000784 3917.080000 0 0 1
-23.678337 10.811257 -30.634803 40.199976 -0.428319 2.437285 -0.007231 -0.008797 357206.000000 0 0 1
-23.310137 9.672757 -31.461293 40.332837 -0.393335 2.465529 -0.008616 -0.008685 -38963.400000 0 0 1
-22.611337 8.570457 -30.629853 39.024521 -0.362302 2.473311 -0.003829 -0.002765 -457311.000000 0 0 1
-23.390337 7.713657 -29.851293 38.700234 -0.318549 2.451751 -0.001876 -0.003035 217179.000000 0 0 1
-22.568537 6.948257 -28.962513 37.369029 -0.298665 2.457576 -0.002566 0.000928 -51067.100000 0 0 1
-23.308837 6.079957 -27.946683 36.895594 -0.255158 2.430200 0.000210 0.000338 -323039.000000 0 0 1
-23.940037 4.916657 -28.445353 37.502494 -0.202557 2.431793 0.003365 0.002626 126296.000000 0 0 1
-24.415437 4.093457 -27.398863 36.926517 -0.166114 2.406820 0.013132 0.009255 -566245.000000 0 0 1
-25.288647 2.911757 -27.870143 37.745714 -0.114636 2.401440 0.015773 0.012131 584198.000000 0 0 1
-26.625837 3.168057 -28.288203 38.976842 -0.118428 2.382949 0.002558 0.011652 400378.000000 0 0 1
-26.780867 4.082457 -29.420443 39.993047 -0.151275 2.397406 -0.004464 0.016881 -1876940.000000 0 0 1
-28.087427 3.852757 -30.113613 41.359123 -0.136319 2.386344 0.010547 0.002909 -1662930.000000 0 0 1
-29.169197 4.281857 -29.341863 41.594727 -0.145753 2.353816 0.013692 0.007815 463867.000000 0 0 1
-30.391477 4.318457 -30.134373 43.015944 -0.141149 2.346950 0.017804 0.002381 1084650.000000 0 0 1
-30.577047 5.722157 -30.823653 43.792654 -0.184999 2.351605 0.013663 -0.010520 -714044.000000 0 0 1
-29.697247 5.908057 -31.924293 43.999911 -0.196379 2.382635 0.014136 -0.003980 261039.000000 0 0 1
-29.651477 7.262657 -32.407983 44.522283 -0.240205 2.386058 0.006060 -0.003737 -377271.000000 0 0 1
-29.210517 8.458657 -31.490213 43.777126 -0.281866 2.373634 -0.000804 -0.013949 -1248590.000000 0 0 1
-27.879937 8.807357 -31.388483 42.896356 -0.305982 2.391651 0.002029 -0.029416 -758116.000000 0 0 1
-27.172617 8.268157 -30.303003 41.532945 -0.295381 2.388553 0.007509 -0.032476 -486678.000000 0 0 1
-27.335797 9.120057 -28.946133 40.844827 -0.322018 2.358430 0.002404 -0.019210 814752.000000 0 0 1
-28.642537 9.214257 -28.306053 41.310170 -0.311243 2.325685 0.011149 -0.026313 1117650.000000 0 0 1
-29.057847 8.012557 -27.722193 40.952162 -0.269059 2.314395 -0.003479 -0.011405 -125415.000000 0 0 1
-30.519317 8.141857 -27.206553 41.688309 -0.260706 2.281831 -0.006738 -0.007445 175399.000000 0 0 1
-30.704567 8.993857 -26.067603 41.269600 -0.284945 2.254465 -0.015634 -0.010543 -110767.000000 0 0 1
-30.554367 8.313657 -24.798253 40.219891 -0.265662 2.235171 -0.007955 -0.010177 -252435.000000 0 0 1
-30.091787 9.139057 -23.574853 39.304093 -0.294853 2.214056 0.003413 -0.008150 -953935.000000 0 0 1
-30.902967 10.143257 -23.220853 39.963572 -0.317150 2.190815 0.001060 -0.008799 -1058270.000000 0 0 1
-30.248887 11.012057 -22.385553 39.209356 -0.349135 2.178427 0.011126 -0.012017 -342333.000000 0 0 1
-31.144407 11.933357 -21.515853 39.690188 -0.365907 2.143725 0.002071 -0.006591 21777.400000 0 0 1
-31.760917 11.284057 -20.405653 39.401478 -0.341372 2.115180 0.004318 -0.011824 -72339.300000 0 0 1
-32.278247 12.144357 -19.409353 39.573901 -0.359857 2.083412 -0.008284 -0.002191 37987.300000 0 0 1
-31.294797 13.107857 -18.621953 38.703455 -0.396651 2.072756 0.001144 -0.011167 191736.000000 0 0 1
-30.537337 12.617457 -17.524653 37.401105 -0.391818 2.058456 0.022557 -0.009740 103919.000000 0 0 1
-31.233477 12.186257 -16.374853 37.311805 -0.372001 2.025132 0.012015 0.006687 -301609.000000 0 0 1
-31.958357 13.278657 -15.552053 37.941082 -0.393796 1.993141 0.002671 0.014792 -102438.000000 0 0 1
-33.032817 13.911257 -16.208853 39.337222 -0.398592 1.995498 -0.003418 0.007955 2754.900000 0 0 1
-33.468617 15.070957 -15.465953 39.830614 -0.423104 1.969575 -0.009387 0.011493 142478.000000 0 0 1
-34.197773 16.133357 -16.320753 41.184219 -0.440807 1.978265 -0.011575 -0.002960 118843.000000 0 0 1
35.501527 15.876757 -16.632953 42.297577 0.420534 1.974945 -0.013615 -0.003055 426227.000000 0 0 1
34.967171 16.974157 -17.342653 42.562809 0.451925 1.990468 -0.014452 -0.004998 -811050.000000 0 0 1
34.568921 16.797257 -18.805953 42.788106 0.452309 2.025853 -0.027046 0.002218 -223452.000000 0 0 1
33.548871 15.858257 -19.029953 41.703120 0.441563 2.044651 -0.001227 0.002652 336311.000000 0 0 1
32.243771 16.394257 -18.868353 40.797637 0.470383 2.051594 0.029161 -0.010576 -44209.800000 0 0 1
31.160781 15.282857 -19.163053 39.645714 0.455980 2.075282 0.043153 -0.011781 138270.000000 0 0 1
31.026631 14.850357 -20.535353 40.061025 0.446408 2.109009 0.037965 -0.010835 609342.000000 0 0 1
30.252081 13.625057 -20.666053 39.088571 0.423173 2.127862 0.017565 -0.008060 296808.000000 0 0 1
30.856061 12.330757 -20.055553 38.811974 0.380180 2.113831 0.012805 0.009016 -265406.000000 0 0 1
30.939701 12.265957 -18.674953 38.163762 0.377440 2.082126 0.028263 0.005193 193867.000000 0 0 1
31.736551 11.147257 -18.348953 38.316499 0.337782 2.070173 0.016107 0.008550 -208437.000000 0 0 1
31.805641 10.985057 -16.837353 37.626676 0.332554 2.034747 0.011558 0.017082 493505.000000 0 0 1
30.617501 10.288857 -16.384653 36.218073 0.324189 2.040238 0.022966 0.015510 843918.000000 0 0 1
30.626701 9.940857 -15.010953 35.526669 0.313853 2.007027 0.018688 0.016760 -68793.400000 0 0 1
30.161431 11.020957 -14.022253 35.039935 0.350327 1.982509 0.034428 0.010011 -609760.000000 0 0 1
28.765791 11.166757 -13.988753 33.879971 0.370289 1.996423 0.035292 0.010811 -85273.400000 0 0 1
28.383121 12.389757 -13.366653 33.730922 0.411586 1.978250 0.045101 0.004046 -854670.000000 0 0 1
26.879201 12.571757 -13.408853 32.562830 0.437486 1.995207 0.053191 0.002561 -998827.000000 0 0 1
26.182741 11.557657 -12.686453 31.305934 0.415698 1.988039 0.041857 0.007566 584559.000000 0 0 1
24.876671 11.367457 -13.245153 30.389175 0.428621 2.021780 0.043193 0.012903 268894.000000 0 0 1
24.858471 10.281457 -14.434053 30.528574 0.392175 2.063267 0.035274 0.002986 -472404.000000 0 0 1
25.181771 8.938157 -14.065453 30.196841 0.341074 2.055326 0.028410 -0.000428 -130725.000000 0 0 1
26.549811 8.705857 -14.200653 31.342351 0.316859 2.041016 0.029241 -0.008388 -868743.000000 0 0 1
27.072061 7.569757 -13.334253 31.112699 0.272652 2.013716 0.030224 -0.008015 -401964.000000 0 0 1
26.528121 6.354557 -13.747553 30.546961 0.235110 2.037614 0.037878 -0.009927 289796.000000 0 0 1
26.169471 5.607657 -12.613153 29.586799 0.211090 2.011206 0.030618 -0.009303 -184595.000000 0 0 1
25.515571 4.253657 -12.984853 28.943815 0.165189 2.036020 0.035459 -0.012319 -97304.300000 0 0 1
24.896371 3.755257 -11.807953 27.809333 0.149707 2.009321 0.032304 -0.016111 189108.000000 0 0 1
24.427271 2.424457 -11.899253 27.279329 0.098928 2.022168 0.027760 -0.017621 -336283.000000 0 0 1
23.622771 2.027657 -10.642953 25.988828 0.085625 1.992725 0.026566 -0.017383 -548437.000000 0 0 1
24.316471 1.950957 -9.405753 26.145080 0.080060 1.938799 0.026951 -0.005644 -48983.900000 0 0 1
23.507071 1.948557 -8.241653 24.986079 0.082703 1.906941 0.034311 -0.000526 -713641.000000 0 1 0
24.284171 1.541757 -6.969953 25.311623 0.063403 1.849766 0.046179 -0.002315 -334603.000000 0 0 1
24.586871 0.160457 -6.749653 25.497016 0.006526 1.838713 0.029786 -0.006966 193123.000000 0 0 1
25.345571 -0.510843 -7.700853 26.494567 -0.020152 1.865711 0.031668 -0.001988 -765416.000000 0 0 1
25.358571 -2.023843 -7.381553 26.488496 -0.079640 1.853205 0.037372 -0.017024 -538969.000000 0 0 1
26.336151 -2.368743 -6.439353 27.215236 -0.089701 1.809670 0.046807 -0.020768 208078.000000 0 0 1
26.250921 -3.702343 -5.937553 27.167495 -0.140113 1.791128 0.059558 -0.028968 681116.000000 0 0 1
27.559801 -3.919343 -5.037753 28.289271 -0.141265 1.749831 0.047683 -0.028689 1335070.000000 0 0 1
28.654191 -4.198143 -5.894753 29.553937 -0.145476 1.771601 0.047815 -0.015820 911543.000000 0 0 1
29.838451 -4.734843 -5.282353 30.670102 -0.157370 1.743891 0.059091 -0.019897 679587.000000 0 0 1
31.037311 -5.001343 -6.205053 32.044201 -0.159766 1.765668 0.048228 -0.022677 -7746.060000 0 0 1
30.669081 -5.882043 -7.207653 32.049045 -0.189490 1.797631 0.034107 -0.016150 178156.000000 0 0 1
31.628561 -5.794143 -8.211953 33.186958 -0.181184 1.820839 0.034562 -0.024870 -625327.000000 0 0 1
31.200041 -6.681643 -9.402153 33.263906 -0.210968 1.857355 0.028657 -0.023300 205545.000000 0 0 1
29.999291 -6.468843 -10.108853 32.310870 -0.212381 1.889001 0.032699 -0.009516 821931.000000 0 0 1
28.819941 -7.032643 -9.503553 31.150676 -0.239343 1.880822 0.026344 -0.009615 798141.000000 0 0 1
27.611591 -6.070043 -9.259153 29.748569 -0.216395 1.887301 0.029264 -0.007960 -568726.000000 0 0 1
27.004041 -5.705543 -10.452053 29.512995 -0.208222 1.932802 0.020157 -0.003102 308103.000000 0 0 1
25.686071 -5.244343 -10.227053 28.140185 -0.201403 1.942746 0.033326 -0.000480 334944.000000 0 0 1
24.507871 -6.216743 -10.108753 27.229957 -0.248423 1.951137 0.037197 0.007480 -1005220.000000 0 0 1
24.602971 -6.983943 -8.909253 27.082401 -0.276590 1.906007 0.030937 -0.004236 1197640.000000 0 0 1
23.323671 -7.484143 -8.469053 25.917772 -0.310503 1.903676 0.025296 -0.003604 330648.000000 0 0 1
22.482471 -6.507643 -7.627653 24.616906 -0.281754 1.885836 0.045234 -0.005914 -382546.000000 0 1 0
21.832571 -5.592243 -8.504353 24.088553 -0.250751 1.931620 0.031413 -0.004305 368362.000000 0 1 0
21.438371 -4.348443 -7.910353 23.261264 -0.200120 1.917783 0.018972 -0.005543 -130362.000000 0 1 0
21.338871 -3.211643 -8.976353 23.371714 -0.149385 1.964996 0.018179 0.003941 -266019.000000 0 1 0
22.492271 -2.989643 -9.768753 24.703619 -0.132144 1.977341 0.014344 0.007889 282113.000000 0 1 0
22.376171 -2.171343 -10.890353 24.980144 -0.096735 2.021901 0.016333 0.007429 -138662.000000 0 1 0
23.641571 -2.063343 -11.790953 26.499205 -0.087055 2.031920 0.023852 0.005157 718676.000000 0 0 1
24.786271 -1.478343 -11.139153 27.214435 -0.059573 1.992495 0.028180 -0.002076 917997.000000 0 0 1
25.893171 -1.563243 -12.013253 28.587031 -0.060300 2.004500 0.039864 -0.000265 49055.600000 0 0 1
27.124151 -0.754343 -11.531753 29.483385 -0.027804 1.972652 0.036620 -0.004288 -639544.000000 0 0 1
28.260991 -0.852543 -12.312253 30.838321 -0.030158 1.981497 0.043087 -0.006900 -265177.000000 0 0 1
29.284861 0.060057 -11.985753 31.642772 0.002051 1.959278 0.043633 -0.010874 -107768.000000 0 0 1
29.234371 1.432557 -12.706353 31.908496 0.048963 1.980363 0.044183 -0.012316 -454452.000000 0 0 1
29.559601 1.318357 -14.039653 32.750877 0.044570 2.013828 0.052627 -0.012955 353911.000000 0 0 1
29.345251 2.514757 -14.787953 32.956810 0.085487 2.036114 0.037839 -0.012484 -93890.600000 0 0 1
29.573671 2.367757 -16.322053 33.861744 0.079893 2.073756 0.033760 -0.012083 -402265.000000 0 0 1
28.585031 1.607057 -16.968053 33.280647 0.056161 2.105804 0.041371 -0.008054 -206562.000000 0 0 1
28.716891 1.745757 -18.427953 34.165728 0.060717 2.140485 0.017224 -0.001559 -396719.000000 0 0 1
27.679641 1.033857 -19.291153 33.754703 0.037333 2.179141 0.010209 -0.002708 -763326.000000 0 0 1
27.604511 -0.408443 -19.207353 33.631805 -0.014795 2.178650 0.017193 -0.000719 130702.000000 0 0 1
27.285021 -0.927343 -20.468453 34.121693 -0.033974 2.214130 0.006909 -0.005218 -196933.000000 0 0 1
27.035641 -2.436143 -20.407153 33.960457 -0.089866 2.215435 0.022815 -0.009966 46075.200000 0 0 1
25.765871 -2.794143 -19.882553 32.665016 -0.108021 2.225193 0.026192 -0.007442 349570.000000 0 0 1
25.448671 -4.167243 -20.014953 32.643516 -0.162310 2.230822 0.028198 -0.014901 -155453.000000 0 0 1
26.146521 -5.088143 -18.946653 32.688002 -0.192199 2.189060 0.018458 -0.009278 163805.000000 0 0 1
27.538811 -5.151643 -19.185453 33.955960 -0.184931 2.171242 0.016740 -0.017729 -94447.800000 0 0 1
28.199001 -5.426943 -17.961153 33.870908 -0.190127 2.129730 0.018956 -0.012564 23091.700000 0 0 1
29.731791 -5.253643 -18.097853 35.201030 -0.174896 2.110788 0.042916 -0.013925 19075.200000 0 0 1
30.344721 -6.240243 -18.906153 36.293049 -0.202818 2.118737 0.029033 -0.014731 1166770.000000 0 0 1
31.715591 -5.825543 -19.178353 37.518328 -0.181656 2.107345 0.044275 -0.013375 1310490.000000 0 0 1
32.566151 -6.986143 -19.781153 38.738281 -0.211319 2.106720 0.038571 -0.005423 -19792.200000 0 0 1
32.813471 -8.032543 -18.814353 38.668147 -0.240073 2.078944 0.041121 -0.003390 37376.400000 0 0 1
33.591981 -9.050043 -19.403853 39.835085 -0.263163 2.079568 0.046029 -0.002109 -235701.000000 0 0 1
34.311411 -9.825843 -18.300553 40.108982 -0.278908 2.044596 0.051049 -0.003373 -704992.000000 0 0 1
33.396751 -10.436043 -17.424153 39.087787 -0.302873 2.032830 0.031068 -0.006055 -134523.000000 0 0 1
33.867661 -11.349443 -16.470453 39.333245 -0.323350 2.002855 0.026981 0.003208 -302640.000000 0 0 1
34.992119 -10.901543 -15.474553 39.783839 -0.302013 1.970305 0.045719 -0.004112 -69918.300000 0 0 1
35.491412 -11.832843 -14.494853 40.121781 -0.321811 1.940427 0.039442 -0.002512 384145.000000 0 0 1
-34.959611 -13.022943 -14.952053 40.191235 0.356589 1.951984 0.031574 0.000066 -323418.000000 0 0 1
-33.535987 -12.824343 -15.522353 39.116105 0.365247 1.978854 0.056293 -0.006229 -563977.000000 0 0 1
-33.353237 -12.082443 -16.740953 39.226055 0.347552 2.011727 0.052329 -0.005153 308673.000000 0 0 1
-31.964137 -12.192643 -17.030553 38.215264 0.364411 2.032694 0.063421 -0.006073 415591.000000 0 0 1
-31.361087 -11.475443 -18.274553 38.067872 0.350781 2.071510 0.073466 -0.010279 216671.000000 0 0 1
-31.388497 -10.025443 -18.153653 37.620505 0.309157 2.074356 0.074851 -0.005561 -193981.000000 0 0 1
-32.451827 -9.547743 -18.928653 38.763055 0.286139 2.080956 0.070295 -0.005955 -164734.000000 0 0 1
-33.045117 -8.244843 -18.258853 38.643796 0.244510 2.062912 0.056521 -0.007345 -61559.100000 0 0 1
-34.088167 -7.755143 -19.071253 39.822834 0.223695 2.070200 0.061659 -0.010879 -170093.000000 0 0 1
-34.680469 -6.644643 -18.487853 39.858336 0.189302 2.053120 0.046888 -0.016337 -311720.000000 0 0 1
23.893263 26.947757 -27.553783 45.346230 0.845405 2.223871 0.030080 0.023213 82548.500000 0 0 1
24.538063 26.468357 -26.420193 44.729375 0.823224 2.202682 0.031775 0.015762 -40299.000000 0 0 1
25.840863 25.976657 -26.626803 45.293747 0.788019 2.199219 0.020435 0.013307 -438316.000000 0 0 1
26.506463 25.179757 -25.511283 44.580694 0.759735 2.180043 0.018548 -0.005981 -434165.000000 0 0 1
26.870563 26.044957 -24.452353 44.702175 0.769797 2.149580 0.027960 0.005001 270359.000000 0 0 1
27.320263 25.289657 -23.323153 43.931002 0.746820 2.130464 0.027931 0.000189 -126312.000000 0 0 1
27.894363 26.228057 -22.229553 44.273688 0.754620 2.096815 0.019645 0.005022 -66575.900000 0 0 1
27.029063 27.173457 -21.602653 43.995927 0.788062 2.084051 0.028458 0.001046 -34926.500000 0 0 1
27.606563 27.733957 -20.470753 44.162726 0.787700 2.052771 0.019368 -0.006543 79591.300000 0 0 1
26.644963 28.748357 -19.755153 43.894056 0.823352 2.037634 0.025385 0.006779 257751.000000 0 0 1
25.678963 28.091457 -18.939753 42.511802 0.830235 2.032549 0.029376 0.002651 200311.000000 0 0 1
24.732963 29.060057 -18.507353 42.411419 0.865665 2.022364 0.025111 0.003303 -247377.000000 0 0 1
23.721263 28.513357 -17.500553 41.011939 0.876884 2.011658 0.021657 0.006157 -524031.000000 0 0 1
22.786263 27.677457 -18.107653 40.163945 0.882021 2.038506 0.038249 0.008868 -560280.000000 0 0 1
21.779263 27.373457 -17.165253 38.965219 0.898723 2.026983 0.024709 0.011773 -423150.000000 0 0 1
20.843163 26.316857 -17.734653 37.967516 0.900948 2.056805 0.026482 0.006463 -447858.000000 0 0 1
20.143063 26.847357 -18.848453 38.493996 0.927115 2.082481 0.022524 0.008476 -123267.000000 0 0 1
19.432063 25.911757 -19.619453 37.867494 0.927339 2.115434 0.027835 0.008420 139193.000000 0 0 1
18.661563 26.398757 -20.880253 38.485494 0.955447 2.144265 0.020233 0.018122 1396070.000000 0 0 1
17.452963 27.129657 -20.537853 38.241700 0.999134 2.137737 0.007864 0.012761 1240490.000000 0 0 1
16.509563 27.370657 -21.603953 38.580426 1.028038 2.165148 0.004830 0.005150 765879.000000 0 0 1
15.552163 28.530057 -21.284353 38.844016 1.071711 2.150701 0.016345 0.005234 91195.300000 0 0 1
14.947963 28.352157 -20.023553 37.791918 1.085607 2.129205 0.017556 0.010186 -611815.000000 0 0 1
13.899063 29.206857 -19.734153 37.890120 1.126627 2.118614 0.013424 0.001467 -234833.000000 0 0 1
13.399063 28.971257 -18.242053 36.764672 1.137600 2.089995 0.011070 0.001594 -203569.000000 0 0 1
12.644663 27.805357 -18.040053 35.474905 1.143994 2.104273 0.006685 0.004919 -167981.000000 0 0 1
12.133263 27.743657 -16.716353 34.588481 1.158525 2.075208 0.016378 0.002312 313277.000000 0 0 1
11.357663 26.473157 -16.268153 33.082886 1.165521 2.084882 0.034947 0.000206 400081.000000 0 0 1
12.270463 25.413457 -16.059353 32.470153 1.120976 2.088157 0.002912 0.002850 -63358.100000 0 0 1
11.569063 24.229157 -15.773153 31.139807 1.125322 2.101948 0.045348 -0.000577 438539.000000 0 0 1
12.316063 22.910957 -16.196453 30.641841 1.077552 2.127715 0.011901 0.003984 211116.000000 0 0 1
12.371763 22.779857 -17.593853 31.329316 1.073265 2.167088 0.015091 0.010301 -377841.000000 0 0 1
13.382963 21.832157 -17.846053 31.212632 1.020878 2.179443 0.013233 0.014951 -112742.000000 0 0 1
12.994763 20.314957 -18.021953 30.105682 1.001721 2.212577 0.026227 0.009923 -171590.000000 0 0 1
12.365363 19.837857 -16.859753 28.821763 1.013405 2.195635 0.022282 0.005335 -46001.900000 0 0 1
11.783863 18.569957 -17.015953 27.807290 1.005348 2.229287 0.017062 0.005016 65843.800000 0 0 1
12.815463 17.406457 -17.100953 27.561992 0.936155 2.240118 0.012385 0.007244 -9581.740000 0 0 1
13.373763 17.074357 -15.874453 26.877304 0.906343 2.202632 0.010950 0.001483 -329161.000000 0 0 1
14.435163 16.176357 -16.079253 26.992422 0.842217 2.208927 0.011614 0.004547 -721249.000000 0 0 1
14.971763 15.635457 -14.685953 26.159098 0.807079 2.166884 0.029161 0.001321 -1943550.000000 0 0 1
15.708463 16.450757 -13.828953 26.619976 0.808476 2.117057 0.016632 0.006343 1290350.000000 0 0 1
17.086663 16.727057 -14.195553 27.807592 0.774764 2.106553 0.014173 0.002486 731428.000000 0 0 1
17.929563 15.473657 -14.605753 27.825012 0.712007 2.123411 0.009273 0.004183 -2147360.000000 0 0 1
18.259263 14.532657 -13.587153 27.003880 0.672240 2.098043 0.014401 0.002646 759134.000000 0 0 1
19.172363 15.067857 -12.600153 27.447835 0.666094 2.047731 0.016668 0.006258 -205743.000000 0 0 1
19.834663 13.912257 -11.852553 26.971239 0.611673 2.025784 0.016620 0.002109 175221.000000 0 0 1
18.860263 13.145957 -11.103353 25.530573 0.608722 2.020728 0.033044 -0.001533 1105220.000000 0 0 1
19.461663 12.027657 -10.450253 25.152110 0.553563 1.999269 0.036352 0.003213 85295.500000 0 0 1
19.829463 10.739757 -11.270853 25.210754 0.496376 2.034278 0.029607 0.000258 -284192.000000 0 0 1
20.946863 10.867157 -12.146053 26.540399 0.478571 2.046140 0.031283 0.004643 662753.000000 0 0 1
21.187363 9.699857 -12.898153 26.633699 0.429332 2.076336 0.029063 -0.002183 -248143.000000 0 0 1
21.911463 8.528057 -12.175953 26.478176 0.371166 2.048621 0.029043 0.006866 -395764.000000 0 0 1
21.158963 7.844257 -11.171253 25.179971 0.355022 2.030471 0.026350 -0.001569 483704.000000 0 0 1
21.871163 6.738157 -10.612853 25.226636 0.298857 2.005013 0.026884 0.002872 -721550.000000 0 0 1
22.143963 5.435457 -11.505953 25.539895 0.240701 2.038132 0.032476 -0.001834 234842.000000 0 0 1
21.004263 4.669457 -11.906153 24.591449 0.218753 2.076197 0.031204 -0.002399 989237.000000 0 1 0
19.984463 5.299557 -12.683353 24.255546 0.259218 2.121052 -0.006431 -0.011164 -125521.000000 0 1 0
18.926263 4.331757 -13.202953 23.479470 0.225000 2.167984 -0.006276 -0.015958 -378402.000000 0 1 0
19.409763 3.602857 -14.283053 24.366474 0.183532 2.197128 -0.002981 -0.005039 674589.000000 0 1 0
18.629863 2.432957 -14.576653 23.779611 0.129860 2.230635 -0.000191 0.011117 435927.000000 0 1 0
19.685063 1.376957 -15.046953 24.815489 0.069836 2.222263 0.020924 0.003083 328590.000000 0 1 0
20.487463 0.775257 -14.037853 24.847504 0.037822 2.171181 0.017700 0.004539 1134920.000000 0 1 0
21.765563 0.485957 -14.663553 26.248727 0.022323 2.163540 0.022030 -0.003970 775215.000000 0 0 1
21.948063 -0.909443 -15.321553 26.782355 -0.041412 2.179832 0.026094 0.003916 -947829.000000 0 0 1
21.084063 -1.168143 -16.374253 26.721123 -0.055348 2.230374 0.008079 0.008356 -176563.000000 0 0 1
21.556363 -2.316743 -17.090153 27.606474 -0.107063 2.238346 0.016116 0.001101 -371338.000000 0 0 1
20.527263 -2.910543 -18.074053 27.504748 -0.140850 2.287794 -0.001751 -0.000403 -66296.500000 0 0 1
19.530763 -3.541643 -17.273353 26.312785 -0.179387 2.286916 -0.003864 0.006148 248424.000000 0 0 1
18.822263 -4.516043 -18.055253 26.470066 -0.235480 2.321428 -0.004079 0.005619 -53976.600000 0 0 1
18.029763 -5.572243 -17.258853 25.573233 -0.299746 2.311598 -0.000012 0.001349 -347813.000000 0 0 1
18.818763 -6.535643 -16.614853 25.940582 -0.334262 2.265941 -0.003688 0.005082 511368.000000 0 0 1
18.023963 -7.655943 -16.150253 25.383211 -0.401671 2.260433 0.006010 0.006020 -29961.900000 0 0 1
18.760063 -8.768443 -15.353653 25.779065 -0.437229 2.208791 -0.000413 -0.000780 -550459.000000 0 0 1
19.458663 -9.531043 -16.241053 27.078629 -0.455462 2.214015 0.019105 0.001321 -137560.000000 0 0 1
20.170963 -10.520643 -15.552053 27.557540 -0.480757 2.170440 0.018287 -0.001412 -96437.800000 0 0 1
20.893463 -11.604143 -16.433053 29.004106 -0.506976 2.173142 0.012347 0.000171 -288155.000000 0 0 1
21.916963 -11.064043 -17.231353 29.994764 -0.467493 2.182763 0.013437 0.001794 -26607.600000 0 0 1
22.446363 -12.086343 -18.064053 31.244662 -0.493936 2.187254 0.014072 0.008697 89456.500000 0 0 1
21.711163 -12.347043 -19.459253 31.662069 -0.517083 2.232665 0.015861 0.013553 225226.000000 0 0 1
20.363463 -12.733043 -19.409153 30.879058 -0.558807 2.250489 0.010731 0.016254 -201246.000000 0 0 1
20.085363 -14.103943 -19.681053 31.459289 -0.612201 2.246702 0.003279 0.019393 -713677.000000 0 0 1
18.591963 -14.376743 -19.741053 30.693012 -0.658233 2.269437 0.009039 0.013719 -522755.000000 0 0 1
17.983763 -13.674743 -20.822853 30.724673 -0.650120 2.315459 0.010586 0.028313 638092.000000 0 0 1
16.652963 -14.180943 -21.059653 30.363289 -0.705397 2.337256 0.007280 0.017072 491817.000000 0 0 1
16.112963 -13.465243 -22.289053 30.622577 -0.696120 2.385997 0.000754 0.027303 -903156.000000 0 0 1
16.572263 -13.995243 -23.491653 31.974435 -0.701291 2.396022 0.009265 0.033099 146527.000000 0 0 1
15.969463 -13.336243 -24.590753 32.211555 -0.695785 2.439379 0.005814 0.025766 -69141.400000 0 0 1
15.852063 -14.149943 -25.914793 33.512465 -0.728725 2.454807 0.004625 0.018991 177792.000000 0 0 1
14.694763 -14.987643 -25.960953 33.384676 -0.795265 2.461685 0.008343 0.019649 191748.000000 0 0 1
14.832263 -15.908543 -27.015283 34.682896 -0.820395 2.463742 0.005550 0.011158 -160115.000000 0 0 1
15.697963 -17.193843 -26.939913 35.606365 -0.830846 2.428900 0.007117 0.013462 -789246.000000 0 0 1
17.040063 -16.862643 -27.044833 36.140496 -0.780165 2.416330 0.027683 0.016856 -836570.000000 0 0 1
17.850863 -18.010443 -26.983003 37.028527 -0.789848 2.387231 0.041969 0.014012 -648582.000000 0 0 1
19.350163 -17.815443 -26.956673 37.662728 -0.744128 2.368478 0.045314 0.014996 -820024.000000 0 0 1
19.870163 -17.209043 -25.799923 36.832195 -0.713752 2.346855 0.040893 0.024070 -485169.000000 0 0 1
21.243763 -17.013643 -25.960353 37.612517 -0.675276 2.332569 0.040011 0.025218 -625388.000000 0 0 1
21.912263 -16.227143 -24.795353 36.854809 -0.637426 2.308763 0.030763 0.027227 -169727.000000 0 0 1
21.545263 -14.887243 -24.616053 35.941319 -0.604643 2.325257 0.026638 0.025481 191922.000000 0 0 1
20.175263 -14.708943 -24.258553 34.811947 -0.629963 2.341786 0.036502 0.029280 431677.000000 0 0 1
19.886663 -13.373343 -23.604253 33.637575 -0.592015 2.348609 0.026160 0.035312 -187864.000000 0 0 1
20.145563 -12.271443 -24.391653 33.932061 -0.547112 2.372926 0.027013 0.023528 108068.000000 0 0 1
19.912163 -11.135543 -23.630553 32.846577 -0.509904 2.373766 0.020135 0.025930 -29900.500000 0 0 1
20.182663 -9.855143 -24.417653 33.176581 -0.454242 2.397925 0.031062 0.012242 -86387.700000 0 0 1
19.958263 -8.576243 -23.834253 32.248346 -0.405852 2.402507 0.027784 0.013597 69419.100000 0 0 1
19.841963 -7.542243 -24.814453 32.654954 -0.363248 2.433953 0.017352 0.006397 -186870.000000 0 0 1
19.310863 -6.214843 -24.241353 31.609760 -0.311363 2.444785 0.006357 -0.001044 -38238.700000 0 0 1
17.994463 -6.346343 -23.733253 30.452325 -0.339063 2.464436 -0.001734 0.010018 -14425.400000 0 0 1
17.657763 -5.297743 -22.850753 29.360170 -0.291478 2.462736 -0.008394 0.006549 -240492.000000 0 0 1
18.225563 -5.477443 -21.431453 28.661485 -0.291949 2.415454 -0.005134 0.007050 -374694.000000 0 0 1
17.770863 -6.521543 -20.548053 27.938443 -0.351721 2.397165 -0.003103 0.013681 202734.000000 0 0 1
17.930763 -7.891143 -20.955953 28.686833 -0.414582 2.389861 0.005152 0.015448 -247360.000000 0 0 1
17.624963 -9.023243 -19.952853 28.110044 -0.473168 2.360028 -0.002269 0.019061 238758.000000 0 0 1
16.245763 -9.100343 -19.611553 27.043559 -0.510616 2.382098 -0.019583 0.014324 132083.000000 0 0 1
16.027763 -10.378943 -18.979153 26.922479 -0.574658 2.353157 -0.004014 0.015609 201940.000000 0 0 1
14.520363 -10.598043 -18.627253 25.886947 -0.630496 2.373967 0.003652 0.002810 456497.000000 0 0 1
13.924563 -9.917043 -17.538153 24.491387 -0.618866 2.368988 0.013681 0.000711 175763.000000 0 1 0
14.156663 -8.525043 -17.496153 24.066633 -0.542030 2.384721 0.013390 -0.011995 -1033000.000000 0 1 0
12.916463 -7.731043 -17.079553 22.766536 -0.539347 2.419167 0.026050 -0.004884 357.303000 0 1 0
11.822063 -7.763043 -17.995353 22.887961 -0.581041 2.475491 0.021292 -0.010880 109914.000000 0 1 0
10.978063 -6.682543 -17.602853 21.795290 -0.546805 2.510943 0.018268 -0.007035 109745.000000 0 1 0
9.511263 -6.771543 -18.078353 21.520799 -0.618701 2.568155 0.024060 -0.002801 200465.000000 0 1 0
9.346763 -6.502643 -19.466053 22.551576 -0.607841 2.612329 0.029298 -0.005959 -1047390.000000 0 1 0
8.054663 -6.113943 -19.751653 22.189766 -0.649272 2.668415 0.036031 -0.006788 -744440.000000 0 1 0
7.585963 -5.932443 -21.201753 23.286371 -0.663687 2.715237 0.045468 -0.012457 49540.400000 0 1 0
7.380663 -7.159743 -21.860153 24.157864 -0.770206 2.701912 0.037608 -0.014477 -79958.800000 0 1 0
6.984463 -6.860243 -23.190353 25.172170 -0.776426 2.742129 0.059866 -0.014675 -101894.000000 0 0 1
6.961563 -8.064443 -24.132753 26.379696 -0.858665 2.725866 0.051376 -0.015733 83526.500000 0 0 1
5.987163 -9.104543 -24.007353 26.364594 -0.989096 2.715507 0.048835 -0.015636 268668.000000 0 0 1
6.049163 -9.998743 -25.079363 27.668424 -1.026714 2.705539 0.052495 -0.003163 -11545.700000 0 0 1
5.171863 -11.273643 -24.916753 27.833214 -1.140684 2.679713 0.042896 -0.010020 151026.000000 0 0 1
5.569863 -12.134143 -23.887453 27.365512 -1.140463 2.631919 0.042794 -0.014140 -27104.900000 0 0 1
4.664463 -13.219343 -23.703953 27.538803 -1.231584 2.607532 0.037338 -0.020799 -628111.000000 0 0 1
5.210663 -14.279143 -22.673453 27.297077 -1.220897 2.551014 0.044861 -0.018243 -57640.800000 0 0 1
6.371563 -15.022043 -23.086753 28.271130 -1.169648 2.526326 0.046959 -0.011008 -89998.400000 0 0 1
7.560263 -14.312043 -23.195153 28.284400 -1.084809 2.532328 0.044926 -0.009831 -1066120.000000 0 0 1
8.163363 -13.659043 -21.961253 27.120225 -1.032105 2.514563 0.039858 -0.004522 -1127040.000000 0 0 1
8.713563 -14.448343 -20.932653 26.885996 -1.028112 2.463182 0.038406 -0.005067 386611.000000 0 0 1
7.788663 -15.193943 -20.120153 26.388250 -1.097107 2.437913 0.046231 -0.005463 220675.000000 0 0 1
8.503163 -15.646643 -18.855853 25.935775 -1.072996 2.384770 0.040298 -0.005622 137646.000000 0 0 1
9.426363 -16.693643 -19.048753 27.025711 -1.056762 2.352991 0.047748 -0.010627 -410816.000000 0 0 1
9.986663 -17.159043 -17.774553 26.647719 -1.043713 2.300998 0.045876 -0.011193 -91195.100000 0 0 1
9.107663 -17.904643 -16.705653 26.126703 -1.100232 2.264526 0.036898 -0.014126 -234692.000000 0 0 1
8.827563 -19.274343 -16.940953 27.137098 -1.141313 2.244997 0.034071 -0.016989 325912.000000 0 0 1
7.995963 -19.596543 -18.065053 27.826356 -1.183387 2.277337 0.042825 -0.014754 1199190.000000 0 0 1
6.437563 -19.490043 -17.793353 27.164451 -1.251778 2.285010 0.031956 -0.003127 701716.000000 0 0 1
5.851963 -18.257343 -17.891753 26.223861 -1.260616 2.321659 0.036003 -0.002044 -43169.100000 0 0 1
4.462863 -18.315943 -17.605253 25.794105 -1.331794 2.322015 0.022375 -0.000575 436884.000000 0 0 1
3.855763 -16.907743 -17.467153 24.613820 -1.346583 2.359795 0.017315 0.009227 25534.700000 0 1 0
4.266763 -16.424643 -16.198853 23.460116 -1.316636 2.332955 0.012389 0.008466 171290.000000 0 1 0
4.157963 -14.984143 -16.110253 22.390924 -1.300116 2.373877 0.013644 0.015658 56588.300000 0 1 0
10.093163 30.256357 -18.070953 36.658947 1.248816 2.086271 0.042936 -0.016522 -843513.000000 0 0 1
9.175663 29.676257 -18.915553 36.368546 1.270928 2.117773 0.069130 -0.017792 -448747.000000 0 0 1
8.239563 28.805357 -18.291653 35.103042 1.292193 2.118918 0.053824 -0.019488 572226.000000 0 0 1
7.089963 28.360057 -19.234653 34.993317 1.325819 2.152761 0.050050 -0.010438 7516.630000 0 0 1
6.303363 29.390357 -19.749353 35.966128 1.359526 2.152095 0.054286 -0.018561 33281.200000 0 0 1
5.408063 28.764957 -20.715853 35.858283 1.384957 2.186722 0.047475 -0.019975 256714.000000 0 0 1
4.516963 29.775857 -21.435853 36.966206 1.420245 2.189374 0.035292 -0.013334 170770.000000 0 0 1
3.593463 30.332957 -20.477853 36.774226 1.452879 2.161389 0.032463 -0.017205 -206644.000000 0 0 1
2.676563 31.191657 -21.096353 37.751021 1.485196 2.163769 0.014282 -0.017377 95449.600000 0 0 1
1.179963 30.908757 -20.717353 37.228380 1.532639 2.160956 0.002843 -0.011384 570951.000000 0 0 1
0.786663 29.647457 -21.178553 36.443403 1.544269 2.190920 0.000447 -0.013475 -37494.000000 0 0 1
0.486763 29.577557 -22.592053 37.221898 1.554341 2.223021 0.014207 -0.023979 -958472.000000 0 0 1
-0.125937 28.241257 -22.957653 36.395581 -1.566337 2.253356 0.014804 -0.013216 -79864.600000 0 0 1
-1.298137 27.954457 -22.219753 35.733097 -1.524392 2.241868 0.012495 -0.014614 76032.400000 0 0 1
-1.698937 26.611757 -22.444153 34.854153 -1.507041 2.270440 0.027401 -0.033736 -211510.000000 0 0 1
-2.755137 26.210557 -21.401953 33.950371 -1.466065 2.252851 0.015610 -0.025666 -452369.000000 0 0 1
-3.922537 26.984157 -21.480453 34.712258 -1.426443 2.238029 0.007462 -0.023782 -610975.000000 0 0 1
-4.869537 26.366257 -20.655153 33.845638 -1.388166 2.227204 0.017456 -0.025156 -680180.000000 0 0 1
-6.103837 27.234957 -20.440853 34.595205 -1.350322 2.202918 0.031666 -0.038670 -204599.000000 0 0 1
-7.061637 26.648557 -19.575253 33.811283 -1.311759 2.188244 0.038614 -0.030165 31272.600000 0 0 1
-8.022737 27.596957 -19.084053 34.498658 -1.287883 2.156976 0.038360 -0.034369 1256390.000000 0 0 1
-9.299337 26.985357 -18.390953 33.954592 -1.238934 2.143176 0.051969 -0.023632 505262.000000 0 0 1
-9.041037 26.258457 -17.206653 32.669800 -1.239200 2.125491 0.047073 -0.028798 314040.000000 0 0 1
-10.247237 25.578057 -16.793453 32.268606 -1.189750 2.118147 0.041201 -0.019372 591827.000000 0 0 1
-10.210837 24.753857 -15.523853 30.951650 -1.179565 2.096188 0.052334 -0.012198 -193827.000000 0 0 1
-9.419537 23.606757 -15.650053 29.848464 -1.191136 2.122709 0.044736 -0.007416 -385382.000000 0 0 1
-9.348237 22.971457 -14.390353 28.673326 -1.184313 2.096559 0.064017 -0.006983 -123294.000000 0 0 1
-8.928237 21.484657 -14.298953 27.308679 -1.176946 2.121873 0.067762 0.007249 400393.000000 0 0 1
-9.787737 20.410757 -14.809153 27.050135 -1.123652 2.150135 0.045773 0.008502 1888.780000 0 0 1
-10.063937 20.395657 -16.205753 27.926548 -1.112414 2.189892 0.043811 0.008158 228911.000000 0 0 1
-8.870937 20.235157 -17.194653 27.996628 -1.157637 2.232129 0.036778 0.004599 345938.000000 0 0 1
-8.307137 18.928457 -17.258653 26.928723 -1.157236 2.266468 0.032117 0.004511 -665402.000000 0 0 1
-7.481037 18.807057 -18.331353 27.307688 -1.192207 2.306743 0.036464 -0.002197 -713744.000000 0 0 1
-6.850037 17.494957 -18.700853 26.508837 -1.197601 2.353865 0.038307 -0.007644 177054.000000 0 0 1
-7.758337 16.481257 -19.182053 26.453257 -1.130832 2.382020 0.022454 -0.009382 -227522.000000 0 0 1
-7.358837 15.654657 -20.200853 26.595023 -1.131375 2.433452 0.028602 -0.008256 391211.000000 0 0 1
-6.133037 14.704357 -19.981053 25.555327 -1.175645 2.468463 0.024249 -0.005950 373338.000000 0 0 1
-6.501537 13.657957 -19.049553 24.324787 -1.126512 2.470485 0.011099 -0.002178 717126.000000 0 1 0
-5.409537 12.975957 -18.383453 23.142815 -1.175816 2.488730 0.017987 -0.004326 931334.000000 0 1 0
-4.712637 13.719557 -17.193753 22.495785 -1.239926 2.440767 0.036844 0.005231 135096.000000 0 1 0
-3.901337 14.836157 -17.488353 23.263157 -1.313656 2.421526 0.033118 -0.004503 -76183.900000 0 1 0
-3.148737 15.238557 -16.348353 22.569821 -1.367034 2.380881 0.026079 -0.000559 302944.000000 0 1 0
-2.263237 16.468557 -16.496953 23.419758 -1.434224 2.352378 0.037401 -0.002445 -219524.000000 0 1 0
-2.984937 17.646557 -16.535653 24.366753 -1.403231 2.316672 0.042626 -0.004595 -577379.000000 0 1 0
-2.185337 18.713457 -16.929553 25.329408 -1.454544 2.302819 0.048669 -0.000045 -297279.000000 0 0 1
-3.043137 19.932057 -17.341053 26.594355 -1.419291 2.281092 0.045112 -0.004613 397030.000000 0 0 1
-3.562537 19.652657 -18.682253 27.348586 -1.391469 2.322817 0.054269 -0.018435 -5694.890000 0 0 1
-4.163337 20.810357 -19.324053 28.702323 -1.373342 2.309402 0.053430 -0.012559 356517.000000 0 0 1
-3.244937 22.045857 -19.645553 29.706854 -1.424655 2.293365 0.033556 -0.010960 510764.000000 0 0 1
-2.089437 21.791157 -20.472953 29.972689 -1.475204 2.322732 0.041841 -0.017953 672590.000000 0 0 1
-1.065337 22.743457 -20.199753 30.437309 -1.523989 2.296485 0.031408 -0.014146 688282.000000 0 0 1
0.009463 22.298157 -19.165153 29.402568 1.570372 2.280777 0.037165 -0.010309 -120263.000000 0 0 1
-0.438337 22.293557 -17.846753 28.560487 -1.551137 2.245769 0.030277 -0.004799 9652.320000 0 0 1
0.619363 21.745057 -17.044653 27.636051 1.542321 2.235409 0.036167 -0.005537 233731.000000 0 0 1
0.387863 21.810957 -15.527453 26.776297 1.553015 2.189397 0.038816 -0.014215 -224263.000000 0 0 1
-0.635637 20.955757 -15.091153 25.831970 -1.540473 2.194696 0.044128 -0.009136 -313282.000000 0 0 1
-0.591037 20.918057 -13.726353 25.026530 -1.542549 2.151332 0.055735 -0.013934 280039.000000 0 0 1
-1.610337 19.896757 -13.192753 23.927450 -1.490038 2.154796 0.041097 -0.010032 -170886.000000 0 1 0
-1.148137 18.610757 -13.438453 22.984136 -1.509182 2.195287 0.043498 -0.010046 -365323.000000 0 1 0
-1.875937 17.682157 -12.705753 21.854381 -1.465100 2.191223 0.040176 -0.009623 -294851.000000 0 1 0
-1.394937 16.242457 -12.792053 20.721966 -1.485124 2.236126 0.029472 -0.009279 -1161410.000000 0 1 0
-0.197337 16.049157 -12.127253 20.116775 -1.558501 2.217856 0.022977 -0.003854 -603271.000000 0 1 0
0.296063 14.700957 -12.052553 19.012360 1.550660 2.257424 0.028127 -0.002088 56732.200000 0 1 0
0.977663 14.125757 -13.271153 19.406605 1.501695 2.323819 0.014848 -0.003130 -509809.000000 0 1 0
0.135063 13.776157 -14.370253 19.907408 1.560993 2.377275 0.016748 -0.013808 -29831.300000 0 1 0
0.640363 12.723857 -15.127653 19.777575 1.520511 2.441666 0.016252 -0.020528 -426029.000000 0 1 0
0.031763 12.583157 -16.579153 20.813581 1.568272 2.492371 0.023414 -0.014405 133541.000000 0 1 0
0.424163 13.651257 -17.364953 22.092495 1.539735 2.475127 0.026591 -0.019932 -36038.600000 0 1 0
0.156563 13.492657 -18.749853 23.100504 1.559193 2.517792 0.038576 -0.017923 -571380.000000 0 1 0
-0.602837 14.681857 -19.352553 24.299005 -1.529759 2.492172 0.046723 -0.015042 46314.400000 0 1 0
0.167163 15.856857 -19.272553 24.957948 1.560255 2.453094 0.032854 -0.024335 -210301.000000 0 1 0
-0.615437 16.975657 -19.701053 26.013135 -1.534558 2.430042 0.057283 -0.020821 -119341.000000 0 0 1
0.138663 18.254657 -19.973453 27.059020 1.563200 2.401111 0.054615 -0.022556 -226056.000000 0 0 1
0.530963 18.251557 -21.325653 28.074628 1.541713 2.433503 0.045428 -0.027381 -280499.000000 0 0 1
1.301263 19.415857 -21.570153 29.050650 1.503876 2.407594 0.044782 -0.020887 191001.000000 0 0 1
1.888763 19.409257 -23.011553 30.163194 1.473789 2.438586 0.052166 -0.028534 1229670.000000 0 0 1
2.968663 18.412057 -23.166753 29.740801 1.410937 2.463794 0.034978 -0.023663 1007570.000000 0 0 1
3.398363 18.325157 -24.509853 30.791121 1.387431 2.491461 0.040160 -0.034194 510081.000000 0 0 1
4.359563 17.129357 -24.815253 30.466661 1.321579 2.522672 0.016299 -0.018360 -693054.000000 0 0 1
5.666263 17.169057 -24.334653 30.315976 1.252024 2.502606 0.010453 -0.010596 -610433.000000 0 0 1
6.417163 16.059957 -24.767553 30.208176 1.190656 2.532025 0.015723 -0.009680 88389.200000 0 0 1
6.914563 16.173457 -26.250553 31.598788 1.166789 2.551242 0.009198 -0.015613 -2049350.000000 0 0 1
7.940563 17.059257 -26.483283 32.487460 1.135153 2.523844 0.003766 -0.008691 -685856.000000 0 0 1
8.277363 17.187457 -27.849903 33.757081 1.121982 2.541015 0.008084 -0.017937 29996.700000 0 0 1
8.825163 15.924657 -28.649753 33.945346 1.064748 2.575488 0.014022 -0.017241 177606.000000 0 0 1
10.188763 15.736757 -28.243973 33.899534 0.996216 2.555606 0.014303 -0.017663 603779.000000 0 0 1
10.695963 14.479657 -28.699923 33.878454 0.934574 2.581383 0.022630 -0.014679 -176664.000000 0 0 1
10.269663 13.244657 -27.855723 32.508894 0.911248 2.599953 0.020077 -0.012529 873419.000000 0 0 1
8.830463 13.083557 -27.856773 32.018063 0.977096 2.626066 0.016420 -0.011037 915616.000000 0 0 1
8.392063 12.358157 -26.733183 30.623746 0.974255 2.632026 0.022333 -0.013545 -470431.000000 0 0 1
6.927863 11.939957 -26.770123 30.119717 1.045044 2.665496 0.017318 -0.017500 -711380.000000 0 0 1
6.061863 13.014857 -26.711773 30.325756 1.134910 2.648404 0.015938 -0.011467 -1073570.000000 0 0 1
4.747663 12.551257 -26.613013 29.804812 1.209169 2.674564 0.021454 -0.009414 65517.300000 0 0 1
3.652563 13.672357 -26.638283 30.164096 1.309743 2.653251 0.035951 -0.011142 55630.900000 0 0 1
3.114263 14.041557 -27.916913 31.404108 1.352540 2.665860 0.033829 -0.013333 506849.000000 0 0 1
3.882863 15.014957 -28.649733 32.578102 1.317740 2.645432 0.033173 -0.020938 137336.000000 0 0 1
3.774763 14.693657 -30.170563 33.770035 1.319337 2.675681 0.044349 -0.023142 -350425.000000 0 0 1
4.649163 13.683357 -30.541303 33.787870 1.243266 2.699628 0.039709 -0.022454 -428891.000000 0 0 1
4.562063 13.411957 -31.961593 34.960498 1.242924 2.724376 0.042764 -0.020739 240022.000000 0 0 1
5.701363 12.389357 -32.419593 35.171462 1.139507 2.743388 0.035302 -0.008736 1656200.000000 0 0 1
7.074763 12.773257 -32.210423 35.365516 1.064984 2.715981 0.038521 -0.005577 803609.000000 0 0 1
7.513463 12.708957 -30.893083 34.239630 1.036877 2.695781 0.030099 -0.006856 -775606.000000 0 0 1
7.571463 11.339457 -30.183153 33.119980 0.982072 2.717294 0.035853 -0.006819 -369902.000000 0 0 1
8.507463 10.400757 -30.682143 33.495471 0.885196 2.728812 0.038496 -0.004483 29387.000000 0 0 1
8.449263 9.165957 -29.964333 32.454061 0.826062 2.747342 0.041069 -0.013022 446070.000000 0 0 1
9.640563 8.196057 -30.333663 32.867110 0.704589 2.746390 0.032003 -0.010771 1582420.000000 0 0 1
10.878963 8.524057 -29.662683 32.724397 0.664621 2.705572 0.031864 -0.012569 160278.000000 0 0 1
11.775863 7.494457 -29.691753 32.809115 0.566773 2.702141 0.005833 -0.004853 -1099130.000000 0 0 1
13.007963 7.739457 -28.795213 32.531071 0.536719 2.657635 0.012422 0.002267 190651.000000 0 0 1
13.782063 6.584557 -28.515703 32.348833 0.445700 2.649839 0.012525 0.001216 553992.000000 0 0 1
14.625863 6.084457 -29.580293 33.554884 0.394229 2.649931 0.006829 0.005308 -699310.000000 0 0 1
15.450563 4.911157 -29.144293 33.350100 0.307763 2.633942 0.018071 -0.000063 -402044.000000 0 0 1
16.397763 5.217657 -28.149273 32.992304 0.308063 2.592900 0.017711 -0.003125 379857.000000 0 0 1
17.100463 4.045957 -27.712383 32.814201 0.232327 2.576472 0.014818 0.003518 68115.200000 0 0 1
17.870963 4.285557 -26.398263 32.165286 0.235361 2.533443 0.022952 -0.001141 -126368.000000 0 0 1
18.861063 5.284557 -26.491653 32.946531 0.273179 2.504923 0.036264 -0.008998 -65846.000000 0 0 1
19.485063 5.518857 -25.273033 32.385979 0.276006 2.466053 0.042209 -0.017221 -366429.000000 0 0 1
20.496163 6.669957 -25.460873 33.359213 0.314616 2.439099 0.043324 -0.018703 -394578.000000 0 0 1
19.944663 7.990357 -25.609403 33.428684 0.381046 2.443533 0.053201 -0.016802 -129776.000000 0 0 1
20.624263 8.839357 -26.466023 34.697908 0.404908 2.438360 0.051798 -0.025166 -907675.000000 0 0 1
20.631663 8.466757 -27.963413 35.767359 0.389420 2.468366 0.052899 -0.023381 324182.000000 0 0 1
19.458163 8.874657 -28.643683 35.746891 0.427906 2.500247 0.047698 -0.012590 -265934.000000 0 0 1
18.341363 8.074557 -28.518763 34.855759 0.414706 2.529059 0.044862 -0.009748 199500.000000 0 0 1
17.043963 8.743857 -29.189693 34.914036 0.474008 2.560830 0.022496 -0.004818 787028.000000 0 0 1
16.948763 8.493057 -30.576103 35.976251 0.464529 2.586586 0.020665 0.000957 363519.000000 0 0 1
16.014163 9.351457 -31.195003 36.290927 0.528534 2.605246 0.012332 0.001241 -187439.000000 0 0 1
15.468563 8.952457 -32.570413 37.151780 0.524649 2.639724 -0.002624 0.017892 69682.500000 0 0 1
14.831163 7.691657 -32.460613 36.507758 0.478428 2.666265 -0.003583 0.018645 492405.000000 0 0 1
13.710863 7.588357 -33.326403 36.826893 0.505493 2.702053 -0.009332 0.022042 528403.000000 0 0 1
13.023763 6.211657 -33.585693 36.554095 0.445036 2.735811 -0.003993 0.015431 323377.000000 0 0 1
12.524963 5.553857 -32.444563 35.218883 0.417371 2.742018 0.007502 0.004616 106160.000000 0 0 1
11.912363 4.329757 -32.735303 35.103437 0.348622 2.772177 0.014109 -0.005441 40338.200000 0 0 1
11.659063 3.388657 -31.500923 33.759812 0.282853 2.773706 0.027241 -0.010321 -406684.000000 0 0 1
12.752263 2.551557 -31.290203 33.885210 0.197479 2.747689 0.020230 -0.016112 -211029.000000 0 0 1
12.547463 1.453457 -30.396473 32.916515 0.115323 2.747750 0.032394 -0.019929 266572.000000 0 0 1
11.748663 0.139257 -30.836643 32.999228 0.011852 2.777552 0.037461 -0.018319 464878.000000 0 0 1
12.437763 -0.737643 -31.711153 34.071092 -0.059237 2.767214 0.030766 -0.019925 564042.000000 0 0 1
13.592263 -1.382843 -31.160173 34.023790 -0.101389 2.728378 0.039391 -0.019570 515978.000000 0 0 1
14.128163 -2.626043 -31.833443 34.926626 -0.183776 2.717561 0.040735 -0.021598 244797.000000 0 0 1
13.195663 -3.712243 -31.834833 34.660682 -0.274235 2.734993 0.053272 -0.019457 547437.000000 0 0 1
13.697163 -4.690743 -32.702303 35.763892 -0.329943 2.724806 0.053218 -0.020724 254527.000000 0 0 1
12.844763 -6.003843 -32.629063 35.576535 -0.437242 2.731669 0.067994 -0.015456 143711.000000 0 0 1
12.954763 -6.685543 -31.464363 34.677493 -0.476420 2.707715 0.056696 -0.009658 92664.800000 0 0 1
12.514763 -8.030743 -31.630503 34.951407 -0.570519 2.702141 0.058482 -0.011057 16913.500000 0 0 1
12.712663 -8.889543 -30.369693 34.102112 -0.610234 2.669353 0.042720 -0.007596 1346910.000000 0 0 1
14.110163 -8.888743 -29.939573 34.270753 -0.562153 2.633386 0.042845 -0.004138 1595340.000000 0 0 1
14.492563 -9.610143 -28.760463 33.608830 -0.585535 2.597778 0.042808 -0.000755 81429.900000 0 0 1
14.461963 -11.150943 -28.830243 34.127333 -0.656840 2.576959 0.026593 0.004111 -439256.000000 0 0 1
13.153463 -11.643943 -28.872333 33.796548 -0.724599 2.594996 0.022396 -0.000942 -274654.000000 0 0 1
13.172663 -13.055643 -28.988223 34.413456 -0.780937 2.572428 0.020428 -0.003299 125684.000000 0 0 1
-9.749837 -2.830843 -17.793153 20.485832 0.282578 2.623083 -0.001600 0.005009 -541086.000000 0 1 0
-10.420237 -2.615543 -18.970653 21.801562 0.245925 2.626305 -0.001270 0.001863 -743717.000000 0 1 0
-11.422437 -3.554643 -19.223253 22.641578 0.301699 2.584933 0.004292 0.001867 -620422.000000 0 1 0
-12.300337 -3.170843 -20.400453 24.031876 0.252292 2.584681 0.018530 -0.005525 -322585.000000 0 1 0
-13.218837 -2.130543 -20.080253 24.134901 0.159801 2.553501 0.021521 -0.007042 -240609.000000 0 1 0
-14.170937 -1.994743 -21.096153 25.492002 0.139844 2.545543 0.016309 -0.001870 61169.800000 0 0 1
-15.068837 -0.766143 -20.879153 25.760355 0.050799 2.515827 0.019213 -0.001621 196737.000000 0 0 1
-14.380137 0.439857 -21.149053 25.578590 -0.030578 2.544238 0.024245 -0.008224 279935.000000 0 0 1
-15.233937 1.559857 -20.823653 25.848221 -0.102038 2.507505 0.025450 -0.008233 261140.000000 0 0 1
-14.880337 2.896957 -21.448853 26.265378 -0.192278 2.526328 0.042417 -0.013616 -708183.000000 0 0 1
-13.690237 3.364257 -20.911653 25.219795 -0.240966 2.548429 0.047771 -0.016093 -433919.000000 0 0 1
-13.305537 4.623257 -21.481153 25.687580 -0.334418 2.561199 0.048038 -0.019349 337968.000000 0 0 1
-12.054337 5.298657 -20.830053 24.642929 -0.414142 2.577876 0.026204 -0.019672 359636.000000 0 1 0
-12.303337 6.031557 -19.629653 23.938987 -0.455807 2.532184 0.033977 -0.025673 59409.100000 0 1 0
-11.060837 6.494457 -19.161853 23.058550 -0.530923 2.551715 0.012288 -0.014508 1791.560000 0 1 0
-11.113437 7.161557 -17.731553 22.117965 -0.572432 2.500899 0.015628 -0.013363 -190912.000000 0 1 0
-11.732337 8.413257 -17.710153 22.849073 -0.622110 2.457658 0.012168 -0.015909 -666632.000000 0 1 0
-12.671237 8.483057 -16.716653 22.626732 -0.589943 2.402086 0.022522 -0.012924 -654780.000000 0 1 0
-13.358037 9.891957 -16.561753 23.464434 -0.637409 2.354382 0.023207 -0.011752 -771262.000000 0 1 0
-12.601937 10.877157 -15.995653 23.086409 -0.712070 2.336244 -0.000360 -0.004371 -601730.000000 0 1 0
-13.169237 12.193557 -16.053553 24.079622 -0.746948 2.300550 0.001317 -0.009434 -261312.000000 0 1 0
-12.386237 13.346257 -15.367953 23.826780 -0.822689 2.271802 0.010068 0.001079 -682356.000000 0 1 0
-12.625437 13.462057 -13.960853 23.141609 -0.817457 2.218403 0.034426 -0.001070 77433.800000 0 1 0
-12.244237 14.692257 -13.353653 23.326033 -0.876030 2.180322 0.025039 0.000557 -938513.000000 0 1 0
-12.819637 14.816857 -11.915753 22.931802 -0.857540 2.117199 0.031730 -0.008300 1263920.000000 0 1 0
-14.203237 15.207157 -11.738753 23.891168 -0.819520 2.084427 0.029074 -0.003012 689273.000000 0 1 0
-15.103937 14.244057 -12.188453 24.074478 -0.756107 2.101663 0.022866 0.001470 -2152400.000000 0 1 0
-16.490637 14.622857 -11.746753 24.975093 -0.725439 2.060471 0.004746 0.010819 -1150720.000000 0 1 0
-17.507637 13.773457 -12.225453 25.410376 -0.666585 2.072729 0.005593 0.003594 -563018.000000 0 0 1
-18.714137 14.271157 -11.755253 26.307239 -0.651508 2.034032 0.039517 0.000891 681436.000000 0 0 1
-20.041437 13.766957 -12.525353 27.350919 -0.601897 2.046484 0.034485 -0.006605 1297050.000000 0 0 1
-20.440137 12.447257 -12.318053 26.915940 -0.546983 2.046146 0.040107 -0.004190 298161.000000 0 0 1
-21.546937 11.960857 -13.041253 27.882017 -0.506756 2.057517 0.054105 -0.007390 -369317.000000 0 0 1
-22.197237 10.735357 -12.375553 27.588395 -0.450470 2.035970 0.040530 -0.009516 -483812.000000 0 0 1
-21.414937 9.574457 -12.439453 26.552020 -0.420433 2.058381 0.042070 -0.010984 410299.000000 0 0 1
-21.889537 8.500157 -11.605653 26.193429 -0.370397 2.029822 0.041319 -0.010692 -318153.000000 0 0 1
-20.797937 7.448257 -11.552653 24.929792 -0.343895 2.052633 0.042401 -0.004247 -479913.000000 0 1 0
-20.633337 6.585057 -12.651053 25.082798 -0.308928 2.099451 0.054909 -0.008619 231401.000000 0 0 1
-19.488637 5.772957 -12.517953 23.871179 -0.287987 2.122802 0.050059 -0.010577 -209245.000000 0 1 0
-19.484437 4.608457 -13.466053 24.129148 -0.232252 2.162869 0.055125 -0.020561 -29390.400000 0 1 0
-20.468137 3.589757 -13.349253 24.698858 -0.173617 2.141805 0.060933 -0.022938 304598.000000 0 1 0
-20.348337 2.628157 -14.341353 25.032708 -0.128447 2.180842 0.053968 -0.025629 -253436.000000 0 0 1
-21.137037 1.329357 -14.196553 25.496738 -0.062810 2.161323 0.066219 -0.015531 44316.300000 0 0 1
-22.484637 1.283457 -14.625053 26.853275 -0.057020 2.146742 0.050131 -0.018937 373575.000000 0 0 1
-22.935137 -0.059443 -14.694053 27.238562 0.002592 2.140589 0.050105 -0.022605 83353.800000 0 0 1
-24.360037 -0.194643 -15.258253 28.744801 0.007990 2.130362 0.055735 -0.024311 641401.000000 0 0 1
-25.476817 0.415757 -14.620053 29.376641 -0.016318 2.091714 0.064103 -0.030387 703359.000000 0 0 1
-26.729837 0.120657 -15.213553 30.756316 -0.004514 2.088226 0.034449 -0.022492 531138.000000 0 0 1
-27.923607 0.447257 -14.275053 31.364072 -0.016016 2.043326 0.039586 -0.014848 -405176.000000 0 0 1
-28.137477 -0.421443 -13.163753 31.067341 0.014977 2.008341 0.035924 -0.014854 619564.000000 0 0 1
-29.415537 -0.070843 -12.617953 32.007680 0.002408 1.976011 0.032686 -0.015801 503743.000000 0 0 1
-29.617407 -0.708343 -11.236553 31.685213 0.023912 1.933316 0.032997 -0.018267 -368279.000000 0 0 1
-29.768097 -2.099543 -10.994853 31.803058 0.070413 1.923799 0.033545 -0.013335 874409.000000 0 0 1
-28.702607 -2.986043 -11.417153 31.033974 0.103661 1.947537 0.036880 -0.017762 260784.000000 0 0 1
-28.792277 -4.457543 -10.909853 31.110928 0.153598 1.929089 0.036998 -0.021747 90525.200000 0 0 1
-29.965927 -5.102043 -11.448153 32.481500 0.168644 1.930986 0.026739 -0.015742 845733.000000 0 0 1
-30.159017 -6.429243 -10.952753 32.724063 0.210034 1.912083 0.050566 -0.020839 -94301.400000 0 0 1
-29.403237 -7.481343 -11.795853 32.552466 0.249153 1.941600 0.058976 -0.021004 1057840.000000 0 0 1
-28.018027 -7.623643 -11.420853 31.202014 0.265666 1.945535 0.033541 -0.012242 391017.000000 0 0 1
-27.390437 -8.621743 -12.133553 31.173605 0.304953 1.970587 0.043146 -0.011202 195788.000000 0 0 1
-25.899937 -8.740543 -11.672653 29.722966 0.325472 1.974378 0.049434 -0.016383 38092.900000 0 0 1
-25.202197 -7.589943 -12.092653 28.965329 0.292522 2.001475 0.046440 -0.005666 1374790.000000 0 0 1
-23.785737 -7.527143 -11.750853 27.577196 0.306485 2.010982 0.051123 -0.013251 1552350.000000 0 0 1
-23.423837 -7.334543 -10.203853 26.581766 0.303452 1.964776 0.034708 -0.015329 -505801.000000 0 0 1
-23.768637 -6.065343 -9.671353 26.368003 0.249850 1.946346 0.033086 -0.013740 183173.000000 0 0 1
-25.133237 -5.827143 -9.424853 27.467491 0.227825 1.921041 0.032991 -0.020376 -579765.000000 0 0 1
-25.477067 -4.483043 -8.813353 27.328627 0.174181 1.899161 0.034704 -0.023017 -508951.000000 0 0 1
-25.307177 -4.406843 -7.450053 26.746529 0.172405 1.853073 0.025057 -0.023054 365671.000000 0 0 1
-25.557227 -3.078843 -6.981353 26.671904 0.119891 1.835631 0.048529 -0.027840 -154819.000000 0 0 1
-25.411097 -2.840943 -5.452053 26.144210 0.111337 1.780876 0.043910 -0.026410 -79396.400000 0 0 1
-24.074037 -2.964643 -5.027553 24.771449 0.122530 1.775174 0.015625 -0.022153 -47895.600000 0 1 0
-23.931937 -2.885943 -3.602653 24.373047 0.120010 1.719153 0.002743 -0.015287 -410199.000000 0 1 0
-22.524437 -3.301643 -3.197353 22.988567 0.145544 1.710333 -0.011187 -0.015475 -563104.000000 0 1 0
-22.403437 -4.690443 -3.234453 23.116573 0.206382 1.711176 0.005048 -0.009822 405620.000000 0 1 0
-21.146337 -5.143043 -2.775453 21.939043 0.238580 1.697644 -0.008003 -0.006222 -346298.000000 0 1 0
-21.098537 -6.700743 -2.668553 22.297296 0.307518 1.690764 0.007866 -0.004789 -376123.000000 0 1 0
-21.803237 -7.265043 -1.588453 23.036606 0.321639 1.639805 0.017382 0.000850 406026.000000 0 1 0
-22.626137 -8.327243 -2.040553 24.196052 0.352652 1.655231 0.032170 -0.002990 -73389.900000 0 1 0
-23.091237 -9.210943 -0.865053 24.875591 0.379552 1.605579 0.029323 -0.002817 -271978.000000 0 1 0
-22.044537 -9.800843 -0.127053 24.125387 0.418348 1.576063 0.022132 0.001839 109544.000000 0 1 0
-22.480537 -10.688743 0.911847 24.908939 0.443829 1.534181 0.019449 0.007843 -294038.000000 0 1 0
-21.340237 -11.344043 1.680747 24.226390 0.488591 1.501364 0.025203 0.006196 -36997.200000 0 1 0
-20.626137 -12.351743 0.975047 24.061459 0.539566 1.530262 0.028018 0.005459 895802.000000 0 1 0
-19.429737 -12.722043 1.685947 23.285349 0.579722 1.498329 0.008676 0.001281 792642.000000 0 1 0
-18.613837 -13.834043 0.964847 23.211778 0.639143 1.529217 0.012428 0.006756 -214667.000000 0 1 0
-19.375837 -15.005543 0.845847 24.521518 0.658964 1.536295 0.020182 0.009213 202551.000000 0 1 0
-18.674337 -16.121443 0.274647 24.671993 0.712161 1.559664 0.004912 0.006331 329935.000000 0 1 0
-17.586337 -16.765543 1.198847 24.326939 0.761509 1.521496 0.016843 0.005394 72258.400000 0 1 0
-16.332437 -16.114343 1.134447 22.971886 0.778677 1.521392 0.023550 0.003743 988225.000000 0 1 0
-15.220637 -16.814343 1.753547 22.747854 0.835106 1.493634 0.031156 0.002465 1113970.000000 0 1 0
-15.119637 -16.619043 3.274347 22.705008 0.832605 1.426079 0.036070 -0.003027 -391012.000000 0 1 0
-14.904437 -15.256443 3.692347 21.645663 0.797069 1.399377 0.027443 -0.009955 257287.000000 0 1 0
-13.970137 -15.191443 4.782647 21.185335 0.827254 1.343081 0.005569 -0.004433 60610.900000 0 1 0
-14.448537 -15.633943 6.194947 22.171102 0.824783 1.287611 0.024079 -0.002175 -753923.000000 0 1 0
-15.193237 -14.654443 6.946547 22.222549 0.767349 1.252878 0.014980 -0.003079 392652.000000 0 1 0
-15.480937 -15.005443 8.312647 23.106771 0.769802 1.202797 0.017502 0.004148 69843.700000 0 1 0
-16.503037 -16.159443 8.570247 24.635888 0.774879 1.215491 0.020670 -0.002917 117586.000000 0 1 0
-15.863137 -17.408743 8.253347 24.956386 0.831819 1.233740 0.019812 0.003031 422710.000000 0 1 0
-16.444537 -18.611043 8.847247 26.364133 0.847122 1.228577 0.027766 0.000380 50063.600000 0 0 1
-16.112637 -18.778843 10.402247 26.841549 0.861664 1.172832 0.037137 -0.000144 961712.000000 0 0 1
-14.724537 -19.016443 10.686847 26.318165 0.911920 1.152654 0.023755 0.000577 633100.000000 0 0 1
-14.655637 -19.716343 11.932647 27.311352 0.931581 1.118634 0.032264 -0.006989 1365250.000000 0 0 1
-13.205537 -20.349443 12.062547 27.092270 0.995168 1.109355 0.024363 -0.000438 1972410.000000 0 0 1
-12.082737 -19.451343 12.222047 25.956227 1.014950 1.080518 0.016221 -0.004444 440314.000000 0 0 1
-10.870837 -20.192443 12.239647 25.994592 1.076932 1.080538 0.017087 -0.003373 47346.900000 0 0 1
-9.695737 -19.339843 12.679947 25.076242 1.106081 1.040654 0.008362 -0.006689 -246496.000000 0 0 1
-9.171037 -18.492843 11.676847 23.715858 1.110415 1.055992 0.002096 -0.013731 -395016.000000 0 1 0
-8.022737 -17.831943 12.186447 23.040226 1.148019 1.013468 -0.002468 -0.008807 54921.800000 0 1 0
-7.214837 -17.219443 11.022647 21.680910 1.174024 1.037467 -0.006357 -0.010984 -341634.000000 0 1 0
-6.453137 -18.142243 10.352347 21.862183 1.229055 1.077505 -0.008815 -0.007303 -534961.000000 0 1 0
-5.849637 -17.630843 9.200647 20.729612 1.250441 1.110916 -0.005478 -0.001185 -68597.800000 0 1 0
-4.757437 -18.423343 8.427247 20.810365 1.318088 1.153867 -0.007746 0.002713 -112493.000000 0 1 0
-3.601437 -18.614343 9.162647 21.057498 1.379681 1.120619 0.004766 0.004264 -970814.000000 0 1 0
-2.507737 -19.046343 8.392647 20.963980 1.439884 1.158912 0.013626 -0.001042 290924.000000 0 1 0
-1.190237 -19.156943 9.204447 21.286780 1.508745 1.123641 0.010882 -0.011099 -12624.200000 0 1 0
-0.199237 -19.730043 8.394347 21.442466 1.560698 1.168554 0.024093 -0.002142 -180336.000000 0 1 0
0.964363 -20.036743 9.165347 22.054584 -1.522704 1.142221 0.034592 -0.005362 1094550.000000 0 1 0
2.226963 -20.526043 8.354847 22.272882 -1.462725 1.186278 0.040089 -0.023001 625554.000000 0 1 0
2.095963 -21.772743 7.677447 23.181644 -1.474827 1.233236 0.035819 -0.012078 -266787.000000 0 1 0
2.096863 -22.855543 8.624647 24.518508 -1.479308 1.211345 0.035421 -0.014768 2645.780000 0 1 0
1.603063 -24.222843 8.078947 25.584865 -1.504713 1.249528 0.020794 -0.009496 198035.000000 0 0 1
1.749263 -25.193193 9.055347 26.828273 -1.501474 1.226505 0.023653 -0.007190 -154885.000000 0 0 1
1.228163 -26.437453 8.677947 27.852362 -1.524374 1.253952 0.026018 -0.000900 -732687.000000 0 0 1
1.543663 -27.540883 9.800847 29.273533 -1.514805 1.229401 0.024528 0.000480 244104.000000 0 0 1
1.005663 -27.332293 11.108747 29.520669 -1.534019 1.184992 0.019850 -0.003611 -412423.000000 0 0 1
-0.396137 -27.375963 11.007847 29.508863 1.556327 1.188518 0.012679 0.008048 -342952.000000 0 0 1
-1.117537 -27.433553 12.387447 30.121381 1.530083 1.146970 0.010241 0.001441 102588.000000 0 0 1
-0.845637 -28.657353 13.044647 31.497965 1.541296 1.143796 0.006217 0.002776 -113291.000000 0 0 1
-1.318137 -28.605303 14.360047 32.034541 1.524749 1.105970 0.001466 -0.001457 -371394.000000 0 0 1
-0.904537 -29.806713 15.098447 33.424863 1.540459 1.102112 -0.006729 0.000702 -32886.400000 0 0 1
-0.976837 -29.658363 16.520847 33.963379 1.537872 1.062796 -0.003228 0.002827 151948.000000 0 0 1
-0.301937 -30.725133 17.193647 35.210034 1.560970 1.060637 -0.009144 0.002089 6409.920000 0 0 1
-0.587437 -30.634713 18.688647 35.890058 1.551623 1.023103 -0.010926 0.003358 -37015.700000 0 0 1
-1.978137 -30.668463 18.888747 36.072877 1.506385 1.019693 -0.015503 0.007808 -190479.000000 0 0 1
-2.363937 -30.562573 20.266547 36.747680 1.493603 0.986628 0.005439 0.002597 1012260.000000 0 0 1
-3.908737 -30.375723 20.539347 36.875840 1.442820 0.980043 0.035517 0.000004 828496.000000 0 0 1
-4.410337 -29.121643 20.108047 35.663072 1.420493 0.971776 0.036653 -0.004583 205319.000000 0 0 1
-5.658137 -28.853133 20.741447 35.982293 1.377152 0.956437 0.029106 -0.007467 455602.000000 0 0 1
-5.488337 -27.849813 21.914247 35.860398 1.376221 0.913348 0.041053 -0.015058 -182220.000000 0 0 1
-4.817437 -28.303483 23.095247 36.846781 1.402205 0.893368 0.043305 -0.015979 136007.000000 0 0 1
-4.911137 -27.360513 24.160247 36.829804 1.393190 0.855293 0.040014 -0.019332 -297352.000000 0 0 1
-3.886937 -27.727693 25.270247 37.716291 1.431521 0.836576 0.040930 -0.021306 -11857.100000 0 0 1
-4.044237 -28.928553 26.047247 39.136634 1.431896 0.842571 0.040086 -0.018030 -37736.700000 0 0 1
-3.416537 -30.075933 25.543847 39.607103 1.457684 0.869863 0.029884 -0.018682 -100951.000000 0 0 1
-3.757137 -31.324063 26.415947 41.147482 1.451422 0.873716 0.032490 -0.010596 -120493.000000 0 0 1
-3.111737 -31.369543 27.659547 41.937831 1.471924 0.850594 0.033672 -0.021487 238331.000000 0 0 1
-3.787537 -32.220633 28.580247 43.235924 1.453783 0.848606 0.021022 -0.011133 -33363.500000 0 0 1
-3.167437 -32.127283 30.016747 44.081743 1.472524 0.821759 0.044874 -0.018319 543846.000000 0 0 1
-1.795237 -32.486933 30.176047 44.375866 1.515592 0.823020 0.043825 -0.018984 647911.000000 0 0 1
-1.300337 -32.250673 31.458147 45.071186 1.530498 0.798243 0.047694 -0.033068 -170841.000000 0 0 1
-27.819427 3.154657 -10.485453 29.896775 -0.112915 1.929138 0.046050 -0.010779 -127782.000000 0 0 1
-28.504117 2.745657 -11.622853 30.904920 -0.096029 1.956363 0.044190 -0.028108 -91295.500000 0 0 1
-29.213317 3.806157 -12.207053 31.889134 -0.129559 1.963618 0.038886 -0.022399 -396137.000000 0 0 1
-30.100227 3.475557 -13.405353 33.133166 -0.114957 1.987327 0.037946 -0.014893 634681.000000 0 0 1
-31.201277 2.638557 -12.945053 33.882977 -0.084365 1.962812 0.035882 -0.014983 835390.000000 0 0 1
-32.277827 2.573757 -13.869553 35.225656 -0.079569 1.975487 0.027048 -0.009154 183286.000000 0 0 1
-33.286357 1.568157 -13.232153 35.854297 -0.047076 1.948787 0.017157 -0.019823 374576.000000 0 0 1
-32.686497 0.276457 -13.228353 35.262911 -0.008458 1.955339 0.020591 -0.018775 -96111.200000 0 0 1
-33.639127 -0.578043 -12.724253 35.969871 0.017182 1.932371 0.022522 -0.015370 -592821.000000 0 0 1
-33.144517 -2.000443 -12.394253 35.442606 0.060282 1.928046 0.010179 -0.019117 -169723.000000 0 0 1
-32.943837 -2.778743 -13.567053 35.736295 0.084149 1.960207 0.013956 -0.015489 186882.000000 0 0 1
-32.616587 -4.096343 -13.166153 35.411430 0.124937 1.951749 0.020654 -0.016174 -59930.600000 0 0 1
-32.856017 -5.196843 -14.204153 36.170195 0.156871 1.974365 0.032172 -0.018634 62333.500000 0 0 1
-32.736107 -6.473643 -13.584153 36.029016 0.195233 1.957388 0.036255 -0.022718 20983.800000 0 0 1
-33.388087 -7.498843 -14.250253 37.068406 0.220930 1.965388 0.040334 -0.015179 -827559.000000 0 0 1
-33.272897 -8.820243 -13.530053 36.985737 0.259128 1.945308 0.046006 -0.014904 -568034.000000 0 0 1
-31.977297 -9.300043 -13.346353 35.877061 0.283025 1.951962 0.047083 -0.012537 -178234.000000 0 0 1
-31.352467 -9.778843 -14.512853 35.905792 0.302338 1.986892 0.052671 -0.012726 -203407.000000 0 0 1
-30.162527 -10.764743 -14.288153 35.068634 0.342801 1.990439 0.057421 -0.017316 -75375.500000 0 0 1
-30.520867 -12.113043 -14.112953 35.741077 0.377812 1.976719 0.062047 -0.017910 460650.000000 0 0 1
-29.447837 -13.035243 -13.869353 35.063537 0.416729 1.977462 0.058652 -0.016509 244388.000000 0 0 1
-29.890957 -14.477243 -14.299753 36.159962 0.451037 1.977363 0.068545 -0.015046 -3295.760000 0 0 1
-29.826087 -14.501843 -15.678953 36.684173 0.452558 2.012415 0.064056 -0.016209 -4370.450000 0 0 1
-29.984517 -15.686043 -16.410853 37.609033 0.481986 2.022339 0.069807 -0.021245 85377.900000 0 0 1
-28.876877 -16.767443 -16.220153 37.122966 0.526072 2.022980 0.059606 -0.019740 1749530.000000 0 0 1
-27.579747 -16.359143 -16.793853 36.198032 0.535373 2.053238 0.054663 -0.025190 1572390.000000 0 0 1
-26.604247 -17.411243 -16.648753 35.890366 0.579500 2.053164 0.066441 -0.027971 136401.000000 0 0 1
-25.207227 -16.966043 -17.054053 34.843818 0.592418 2.082247 0.071183 -0.040429 -275730.000000 0 0 1
-25.240597 -16.434143 -18.380353 35.284646 0.577148 2.118721 0.050561 -0.030712 1093240.000000 0 0 1
-23.877337 -16.091843 -18.737553 34.353611 0.593020 2.147701 0.031744 -0.020312 958105.000000 0 0 1
-23.809437 -15.608043 -20.246053 34.934267 0.580260 2.188969 0.029613 -0.010696 89175.300000 0 0 1
-24.258537 -16.548043 -21.241853 36.242664 0.598648 2.197034 0.028301 -0.018674 385145.000000 0 0 1
-25.657527 -16.634443 -21.415453 37.331422 0.575198 2.181761 0.034127 -0.020390 -265034.000000 0 0 1
-26.175507 -17.774643 -22.282853 38.699104 0.596531 2.184376 0.040904 -0.019726 -180518.000000 0 0 1
-25.741597 -17.817343 -23.583053 39.194999 0.605446 2.216406 0.032977 -0.008572 -68460.200000 0 0 1
-26.111607 -19.111143 -24.019353 40.298650 0.631818 2.209349 0.032518 -0.013438 -387480.000000 0 0 1
-25.707297 -19.434943 -25.465103 41.073759 0.647336 2.239520 0.028121 -0.014190 146670.000000 0 0 1
-24.359537 -19.810743 -25.634223 40.533517 0.682777 2.255470 0.023205 -0.014402 -88120.500000 0 0 1
-23.951237 -21.102743 -25.168803 40.650415 0.722258 2.238459 0.028091 -0.008971 -831506.000000 0 0 1
-22.434337 -21.274043 -25.134193 39.844850 0.758858 2.253382 0.027395 0.001841 -387659.000000 0 0 1
-21.987237 -21.288443 -26.481933 40.471338 0.769252 2.284103 0.030119 -0.004972 86742.000000 0 0 1
-20.591637 -21.564143 -26.486853 39.882091 0.808463 2.297125 0.026909 -0.000688 115556.000000 0 0 1
-20.038637 -21.367643 -27.897613 40.452441 0.817484 2.331788 0.028401 0.002585 -438016.000000 0 0 1
-20.360437 -22.460143 -28.745803 41.777107 0.834394 2.329630 0.058706 -0.003918 -11728.200000 0 0 1
-20.553437 -22.045143 -30.075003 42.578609 0.820402 2.355112 0.057402 -0.016139 -111701.000000 0 0 1
-19.410037 -22.534243 -30.955903 42.927959 0.859746 2.376204 0.062430 -0.028101 -170913.000000 0 0 1
-19.791237 -23.554043 -31.864263 44.292407 0.871991 2.373744 0.070842 -0.034761 470974.000000 0 0 1
-18.684737 -23.997543 -32.663793 44.630986 0.909235 2.391849 0.077212 -0.043050 324545.000000 0 0 1
-19.127337 -24.556743 -34.063283 46.143211 0.909052 2.401206 0.079412 -0.028778 235944.000000 0 0 1
-18.061437 -24.800843 33.816497 45.660189 0.941355 0.736815 0.076458 -0.034558 186325.000000 0 0 1
-18.500637 -25.088433 32.485080 45.022034 0.935397 0.764776 0.071717 -0.036002 -790441.000000 0 0 1
-17.304237 -24.908443 31.554270 43.766873 0.963627 0.765606 0.074142 -0.034021 -392052.000000 0 0 1
-16.719237 -23.668943 31.630220 42.897816 0.955802 0.741674 0.052003 -0.025766 -305708.000000 0 0 1
-15.760137 -23.571243 30.577650 41.701057 0.981445 0.747695 0.051916 -0.027053 -104931.000000 0 0 1
-15.141837 -22.181943 30.533600 40.664660 0.971830 0.721428 0.020099 -0.016788 -47836.300000 0 0 1
-15.977237 -21.171843 29.944420 40.002342 0.924329 0.724899 0.017840 -0.014189 292110.000000 0 0 1
-15.388637 -19.881343 29.989460 39.133690 0.912096 0.697682 0.022853 -0.015486 74909.400000 0 0 1
-15.053837 -19.094043 31.315340 39.646577 0.903166 0.660212 0.029095 -0.016569 159092.000000 0 0 1
-14.612937 -17.794043 30.932230 38.561234 0.883246 0.639895 0.024200 -0.010516 -39999.900000 0 0 1
-14.208537 -17.063643 32.084750 39.018991 0.876444 0.605381 0.031401 -0.015493 -78150.100000 0 0 1
-13.702937 -15.650343 31.914790 38.095375 0.851645 0.577628 0.036516 -0.015021 859857.000000 0 0 1
-12.393037 -15.594343 31.301340 37.101817 0.899287 0.566731 0.036342 -0.016327 883803.000000 0 0 1
-11.910137 -14.334343 30.861170 36.051860 0.877507 0.543272 0.033379 -0.018434 297164.000000 0 0 1
-10.400237 -14.382343 30.509170 35.296264 0.944718 0.526892 0.051308 -0.015427 299435.000000 0 0 1
-9.974237 -13.112143 30.155060 34.361918 0.920491 0.500022 0.059492 -0.011679 -55823.200000 0 0 1
-8.697037 -12.809043 30.703910 34.386628 0.974320 0.467045 0.041907 -0.010137 309579.000000 0 0 1
-8.520737 -11.272243 30.738600 33.830873 0.923527 0.430886 0.028271 -0.008960 427014.000000 0 0 1
-9.360937 -10.658443 31.759090 34.783177 0.850120 0.420074 0.022738 -0.007722 559938.000000 0 0 1
-9.089737 -9.251843 31.826390 34.367704 0.794236 0.386974 0.010632 -0.002183 -290084.000000 0 0 1
-9.922337 -8.364443 32.759292 35.236174 0.700411 0.377182 0.004100 -0.002594 489530.000000 0 0 1
-11.271337 -8.110443 32.317480 35.174449 0.623736 0.405825 0.010728 -0.006134 829554.000000 0 0 1
-12.045837 -7.436643 33.307008 36.190643 0.553088 0.401896 0.013415 -0.009702 46180.100000 0 0 1
-11.759737 -5.930343 33.570463 36.061564 0.467075 0.373870 0.011604 -0.012859 -720949.000000 0 0 1
-12.122937 -5.131443 32.501320 35.066125 0.400416 0.384841 -0.000609 -0.008670 218520.000000 0 0 1
-12.292537 -3.802443 33.008603 35.427856 0.299994 0.371694 0.005105 -0.011352 -346407.000000 0 0 1
-11.862537 -2.606443 32.064810 34.287978 0.216284 0.362080 0.001795 -0.006349 25085.700000 0 0 1
-10.456337 -2.536943 32.042800 33.801067 0.238023 0.323961 0.009763 -0.012360 -164243.000000 0 0 1
-9.928837 -1.534943 31.200620 32.778294 0.153380 0.311521 0.004347 -0.007458 -296401.000000 0 0 1
-8.408737 -1.518543 31.422680 32.563748 0.178665 0.265509 0.029835 -0.014812 -266949.000000 0 0 1
-8.103437 -0.979143 32.675680 33.679734 0.120248 0.244790 0.037847 -0.018794 -795359.000000 0 0 1
-6.772237 -0.629243 32.823598 33.520856 0.092649 0.204319 0.051642 -0.027071 -798995.000000 0 0 1
-6.486137 -0.110943 34.254326 34.863178 0.017103 0.187164 0.069152 -0.036043 -219512.000000 0 0 1
-7.138037 1.082157 -34.157971 34.912600 -0.150459 2.933299 0.051691 -0.022962 252757.000000 0 0 1
-6.447137 2.244057 34.113013 34.789353 -0.334955 0.197506 0.061530 -0.018462 253084.000000 0 0 1
-7.279737 3.579957 34.064743 35.017387 -0.457042 0.233791 0.061564 -0.012731 -318344.000000 0 0 1
-8.424437 3.499057 33.284450 34.511870 -0.393665 0.267499 0.039917 -0.005227 -489483.000000 0 0 1
-9.108737 4.732957 33.264508 34.812318 -0.479209 0.299316 0.024532 0.016691 208781.000000 0 0 1
-10.593337 4.649057 32.835944 34.814247 -0.413556 0.338736 0.010478 0.018397 87732.600000 0 0 1
-11.286237 5.854457 32.695030 35.080177 -0.478515 0.370880 0.014642 0.026158 21701.500000 0 0 1
-12.604337 5.648857 32.225200 35.060554 -0.421329 0.404930 -0.004129 0.020206 -58591.500000 0 0 1
-13.365637 6.980257 32.049790 35.419674 -0.481292 0.439749 0.000631 0.017336 31067.700000 0 0 1
-13.951537 7.387857 33.333835 36.883199 -0.486997 0.442305 0.003335 0.023838 373687.000000 0 0 1
-14.342437 8.754857 33.375178 37.366503 -0.548043 0.466419 0.008971 0.024281 -191020.000000 0 0 1
-15.337837 9.189157 -34.323584 38.701399 -0.539770 2.661349 0.013064 0.024570 -48979.800000 0 0 1
-14.859937 9.306957 -33.012023 37.379551 -0.559542 2.653347 0.030510 0.016480 437979.000000 0 0 1
-15.756837 10.165257 -32.263533 37.316832 -0.572946 2.615118 0.036841 0.011436 -572405.000000 0 0 1
-15.133537 10.547657 -30.840853 35.936545 -0.608691 2.602555 0.062002 0.006068 920972.000000 0 0 1
-14.131937 11.581357 -30.880463 35.880949 -0.686529 2.607315 0.049389 0.002227 346042.000000 0 0 1
-12.931637 11.223157 -31.529293 35.878724 -0.714785 2.644084 0.053697 0.002210 -214849.000000 0 0 1
-11.867537 12.397357 -31.574053 35.936802 -0.807229 2.643718 0.051793 0.001617 641596.000000 0 0 1
-12.308637 13.481157 -32.401573 37.190134 -0.830831 2.628521 0.050493 -0.005293 195683.000000 0 0 1
-11.437737 14.596457 -32.453973 37.378319 -0.906138 2.622474 0.051000 -0.015701 -26195.500000 0 0 1
-11.817637 15.654257 -31.385903 37.010637 -0.924157 2.583042 0.055975 -0.019260 589154.000000 0 0 1
-13.106637 16.258357 -31.531403 37.819935 -0.892318 2.556615 0.064598 -0.023566 707868.000000 0 0 1
-13.225037 17.333057 -30.626293 37.593966 -0.919030 2.522939 0.038678 -0.014475 -116193.000000 0 0 1
-14.556737 18.055957 -30.921393 38.652927 -0.892285 2.498051 0.026655 -0.024269 -237115.000000 0 0 1
-14.641637 19.023757 -31.931913 39.949067 -0.914837 2.496952 0.036806 -0.031828 512471.000000 0 0 1
-15.972337 19.522557 -32.143163 40.858643 -0.885087 2.476228 0.032006 -0.027058 746892.000000 0 0 1
-16.381537 20.695357 -31.205173 40.870716 -0.901225 2.439526 0.005541 -0.037512 -733353.000000 0 0 1
-15.733037 21.925257 -31.535613 41.505906 -0.948372 2.433780 0.014496 -0.033324 80220.300000 0 0 1
-16.058937 23.085157 -30.795033 41.703093 -0.963003 2.401543 0.001177 -0.025957 657402.000000 0 0 1
-17.496337 23.742957 -30.955253 42.756023 -0.935728 2.380376 -0.001897 -0.026482 1137760.000000 0 0 1
-18.478537 22.857957 -30.453623 42.324528 -0.890950 2.373917 0.001545 -0.027530 -292569.000000 0 0 1
-19.434137 22.357857 -31.332503 43.119430 -0.855243 2.384222 0.030041 -0.028901 -1430300.000000 0 0 1
-20.691937 21.761757 -30.655693 42.912724 -0.810593 2.366524 0.027664 -0.030941 243391.000000 0 0 1
-21.620137 22.777957 -30.209433 43.576089 -0.811470 2.336795 0.075904 -0.028869 747275.000000 0 0 1
-22.352737 23.514657 -31.177363 44.995688 -0.810725 2.336295 0.073025 -0.026310 -570376.000000 0 0 1
-23.709537 22.950657 -31.639753 45.715958 -0.769136 2.335183 0.080098 -0.038336 -229235.000000 0 0 1
-23.574737 21.890957 -32.531653 45.752494 -0.748381 2.361766 0.073654 -0.033247 778952.000000 0 0 1
-24.836237 21.632757 -33.164603 46.740836 -0.716569 2.359645 0.080516 -0.028462 514598.000000 0 0 1
-24.724937 20.849657 34.314713 47.154324 -0.700571 0.755818 0.066737 -0.013024 -57728.400000 0 0 1
-24.183437 19.566357 -34.333992 46.330379 -0.680254 2.405457 0.074173 -0.011678 189037.000000 0 0 1
-24.311437 18.928557 33.205795 45.298577 -0.661547 0.748012 0.047666 -0.013249 -115464.000000 0 0 1
-23.849737 17.498857 33.112919 44.401412 -0.632996 0.729117 0.028207 0.004658 348770.000000 0 0 1
-24.740337 16.564657 33.783460 45.031037 -0.589990 0.722392 0.024807 0.003262 806734.000000 0 0 1
-24.976037 15.519357 32.877188 44.108530 -0.555985 0.729706 0.021292 0.001902 -74737.300000 0 0 1
-25.818697 14.315757 33.491031 44.645215 -0.506270 0.722493 0.012678 0.004642 1471830.000000 0 0 1
-27.218187 14.677757 33.739335 45.766898 -0.494562 0.741880 0.012256 0.007670 1635280.000000 0 0 1
-28.145947 13.584857 33.613907 45.898120 -0.449678 0.749016 0.012349 0.011067 351860.000000 0 0 1
-28.074487 12.286257 -34.289761 45.988223 -0.412520 2.412262 0.011211 0.004725 -481099.000000 0 0 1
-27.031687 11.373957 34.251464 45.091483 -0.398277 0.708099 0.014676 -0.010590 -332812.000000 0 0 1
-27.492517 10.043157 34.198410 45.013718 -0.350244 0.707894 0.013045 -0.002523 -872734.000000 0 0 1
-26.346637 9.022557 -34.331946 44.206723 -0.329938 2.460083 0.011214 -0.009054 750823.000000 0 0 1
-25.348797 8.821057 33.446128 42.883751 -0.334881 0.676250 0.008363 -0.009821 365302.000000 0 0 1
-24.517537 9.946657 33.362172 42.580279 -0.385407 0.670498 0.006613 -0.012630 -1643390.000000 0 0 1
-23.169837 9.559157 32.710680 41.209313 -0.391295 0.653815 0.000801 -0.004179 -328565.000000 0 0 1
-23.247237 9.173457 31.355310 40.096656 -0.375846 0.672939 0.000756 -0.004885 -209259.000000 0 0 1
-22.003737 9.072057 30.713440 38.855915 -0.391061 0.659262 -0.002128 -0.004253 -117777.000000 0 0 1
-22.170137 8.929757 29.173210 37.713814 -0.382903 0.686385 0.006335 -0.007822 -58427.200000 0 0 1
-22.575837 10.132857 28.533030 37.768731 -0.421886 0.714430 -0.000754 0.000272 227171.000000 0 0 1
-22.452237 10.159857 27.114730 36.640609 -0.424939 0.737698 -0.003363 0.001381 -1020350.000000 0 0 1
-22.666637 11.592957 26.535460 36.773683 -0.472769 0.764703 -0.006387 0.003970 -339116.000000 0 0 1
-23.990237 12.040757 26.556980 37.759562 -0.465168 0.790742 0.001987 0.011515 -554517.000000 0 0 1
-24.782037 11.501057 25.523060 37.387836 -0.434508 0.819404 0.006064 0.015818 -914460.000000 0 0 1
-26.237197 11.927557 25.667520 38.593766 -0.426677 0.843210 0.011777 0.011151 -691291.000000 0 0 1
-26.385997 13.286157 25.206150 38.834171 -0.466468 0.864433 0.010300 0.009687 1030900.000000 0 0 1
-27.672547 13.860557 25.563460 40.141941 -0.464349 0.880421 0.009220 0.005504 1183170.000000 0 0 1
-27.884097 15.218657 24.876810 40.348310 -0.499600 0.906441 0.012104 0.001717 148191.000000 0 0 1
-27.187287 16.275557 25.535840 40.695473 -0.539423 0.892476 0.014400 -0.002742 185901.000000 0 0 1
-27.298607 17.483057 24.853180 40.847911 -0.569624 0.916713 0.015915 -0.000674 -95364.700000 0 0 1
-22.351837 -9.290843 32.017560 40.137870 0.393936 0.647342 0.014116 0.003435 158770.000000 0 0 1
-21.427437 -8.898843 30.996520 38.718326 0.393627 0.642560 0.018390 0.001571 406009.000000 0 0 1
-21.921637 -9.244843 29.756830 38.098481 0.399091 0.674450 0.019139 0.003894 -139256.000000 0 0 1
-20.816337 -9.092043 28.701330 36.602616 0.411801 0.669498 0.021194 0.003317 -310766.000000 0 0 1
-20.385737 -7.751243 28.485610 35.876037 0.363347 0.653434 0.024624 0.006106 102932.000000 0 0 1
-19.210737 -7.209043 29.076690 35.587591 0.359000 0.614528 0.022100 0.006379 596341.000000 0 0 1
-17.866837 -7.776543 28.527060 34.546949 0.410520 0.599270 0.028122 0.007786 -593620.000000 0 0 1
-17.532337 -9.132043 28.706190 34.854303 0.480203 0.603058 0.030811 0.011474 387387.000000 0 0 1
-16.898637 -9.557843 29.954720 35.695960 0.514740 0.575054 0.025340 0.004288 439072.000000 0 0 1
-15.517137 -8.937743 30.315070 35.208924 0.522579 0.533553 0.026169 -0.001602 -218422.000000 0 0 1
-14.450037 -9.411743 29.533650 34.199722 0.577310 0.528501 0.036537 -0.000138 -487263.000000 0 0 1
-13.219837 -9.004443 30.090180 34.077310 0.597950 0.488586 0.023417 -0.002919 250574.000000 0 0 1
-11.987737 -9.732143 29.489570 33.287463 0.681920 0.482352 0.018647 -0.002043 -9537.700000 0 0 1
-11.686337 -9.383843 28.124880 31.869043 0.676553 0.489615 0.045834 -0.007499 861270.000000 0 0 1
-10.515337 -10.119443 27.671890 31.284325 0.766215 0.485313 0.036382 -0.004717 902627.000000 0 0 1
-10.066137 -9.952443 26.233620 29.809077 0.779719 0.494819 0.024960 -0.005700 267390.000000 0 0 1
-10.990937 -10.519443 25.284990 29.509153 0.763482 0.541663 0.030472 -0.005723 478448.000000 0 0 1
-10.563037 -10.272143 23.920050 28.093834 0.771437 0.552082 0.008137 -0.013233 -486173.000000 0 0 1
-11.556037 -10.761843 22.901330 27.817804 0.749828 0.603663 0.011942 -0.012623 -1076240.000000 0 0 1
-11.619937 -12.200843 22.812630 28.360177 0.809780 0.636149 0.022409 -0.012034 585291.000000 0 0 1
-12.890337 -12.615643 22.308530 28.687729 0.774629 0.679904 0.019329 -0.006734 254093.000000 0 0 1
-14.080837 -12.523343 23.266030 29.940145 0.726922 0.680776 0.028526 -0.004741 -1245080.000000 0 0 1
-15.235337 -13.165543 22.807730 30.424326 0.712649 0.723257 0.023895 0.000878 -472601.000000 0 0 1
-16.212037 -13.044543 23.826200 31.633496 0.677552 0.717890 0.026774 0.003029 146069.000000 0 0 1
-17.506337 -13.842443 23.468330 32.385917 0.669051 0.760276 0.025470 -0.002065 -435573.000000 0 0 1
-17.364637 -15.249843 23.406030 32.892714 0.720647 0.779042 0.024031 -0.003813 102213.000000 0 0 1
-18.553437 -16.007543 23.206330 33.749152 0.711867 0.812601 0.028246 0.000599 475973.000000 0 0 1
-19.490137 -15.993343 24.481070 35.142215 0.687168 0.800109 0.020592 -0.000678 -99286.800000 0 0 1
-18.894237 -16.841043 25.454410 35.896239 0.728006 0.782560 0.019875 0.001599 668151.000000 0 0 1
-19.680937 -16.859143 26.661370 37.180622 0.708327 0.771197 0.014814 -0.005560 77648.200000 0 0 1
-19.126237 -17.843243 27.731800 38.121477 0.750708 0.756185 0.017280 -0.006135 -119161.000000 0 0 1
-19.222937 -19.223643 27.339780 38.555588 0.785417 0.782575 0.031114 -0.007257 31745.900000 0 0 1
-18.903337 -20.020343 28.442080 39.586642 0.814088 0.769187 0.033631 -0.013342 -357431.000000 0 0 1
-18.965937 -21.491643 28.094610 40.136077 0.847746 0.795421 0.042718 -0.013060 750720.000000 0 0 1
-20.274737 -22.093443 27.960060 40.999393 0.828298 0.820353 0.049870 -0.014881 784529.000000 0 0 1
-20.184637 -23.424643 27.600500 41.447812 0.859558 0.842084 0.069902 -0.006748 -88108.100000 0 0 1
-21.557837 -23.976043 27.200130 42.183387 0.838456 0.870026 0.081587 -0.009822 -905544.000000 0 0 1
-22.459137 -24.154143 28.208900 43.400202 0.821745 0.863249 0.073207 -0.002373 -1366950.000000 0 0 1
-23.623437 -24.585643 27.607710 43.871475 0.805355 0.890162 0.060470 -0.003882 -750272.000000 0 0 1
-24.592437 -25.354043 28.544210 45.413516 0.800645 0.891122 0.038132 -0.003821 100480.000000 0 0 1
-25.355477 -24.667843 29.542980 46.088940 0.771653 0.874997 0.026059 0.003014 504841.000000 0 0 1
-25.883527 -25.614013 30.479270 47.487057 0.780165 0.873896 0.020128 0.000802 313094.000000 0 0 1
-26.984197 -25.018433 31.425010 48.390084 0.747615 0.863988 0.016348 0.007108 65729.400000 0 0 1
-28.174727 -24.791843 30.744910 48.514949 0.721617 0.884443 0.019141 0.003273 -476459.000000 0 0 1
-29.239607 -24.277443 31.484840 49.352245 0.692941 0.878948 0.019860 -0.003289 324784.000000 0 0 1
-30.566237 -24.000543 30.709080 49.531491 0.665650 0.902065 0.021857 -0.007855 168900.000000 0 0 1
-31.331307 -25.134903 30.499610 50.434516 0.676099 0.921361 0.027839 -0.012464 78164.000000 0 0 1
-32.521577 -24.949343 29.744490 50.644422 0.654395 0.943053 0.024732 -0.016441 273104.000000 0 0 1
-33.659577 -25.908233 30.168070 52.099100 0.655999 0.953231 0.020411 -0.017382 -16929.800000 0 0 1
-33.382257 -27.260543 29.859230 52.431727 0.684792 0.964914 0.026561 -0.015368 86501.500000 0 0 1
-34.291602 -28.097803 30.528680 53.827510 0.686446 0.967746 0.030025 -0.025244 -212318.000000 0 0 1
-33.716217 -29.494513 30.734740 54.326181 0.718709 0.969460 0.037018 -0.021943 -676955.000000 0 0 1
-32.776987 -29.456813 31.729430 54.302776 0.732099 0.946772 0.045142 -0.022816 -634062.000000 0 0 1
-32.320567 -30.729423 32.055630 54.922491 0.760167 0.947577 0.045416 -0.026896 -367434.000000 0 0 1
-31.450467 -30.755253 33.305758 55.175095 0.774223 0.922740 0.037199 -0.014847 -145084.000000 0 0 1
-32.150067 -30.668923 -34.294858 56.127952 0.761825 2.228135 0.027917 -0.002369 -44957.400000 0 0 1
-31.159117 -30.644993 -33.290193 54.938540 0.777080 2.221760 0.024586 -0.013135 303031.000000 0 0 1
-31.687037 -30.373773 -31.831563 54.220687 0.764240 2.198236 0.016895 -0.007718 -46440.800000 0 0 1
-31.988197 -29.013263 -31.490233 53.447629 0.736669 2.200839 0.014189 -0.002928 97310.200000 0 0 1
-30.806097 -28.273643 -31.252973 52.203093 0.742559 2.212649 0.020373 -0.000968 67719.400000 0 0 1
-31.036617 -26.792153 -31.237573 51.544904 0.712132 2.221852 -0.000066 0.005734 -18616.100000 0 0 1
-31.823917 -26.295323 -30.152573 51.121262 0.690559 2.201638 -0.003520 -0.005378 13443.000000 0 0 1
-31.763227 -24.872343 -29.976633 50.260667 0.664323 2.209834 0.007998 -0.000974 52086.700000 0 0 1
-30.565067 -24.378443 -29.124933 48.752370 0.673271 2.211058 0.004253 -0.012847 38594.100000 0 0 1
-30.303457 -22.984243 -29.267263 47.991121 0.648899 2.226664 0.004384 -0.006554 375953.000000 0 0 1
-29.099767 -22.612643 -28.601913 46.649733 0.660604 2.230801 0.017668 -0.011836 138578.000000 0 0 1
-28.916557 -21.082243 -28.495223 45.745011 0.629972 2.243259 0.027056 -0.015809 -146647.000000 0 0 1
-28.476087 -20.519243 -29.715733 45.988604 0.624404 2.273331 0.042020 -0.016386 235400.000000 0 0 1
-28.143077 -19.190343 -29.575663 45.111217 0.598465 2.285795 0.030191 -0.022083 -446023.000000 0 0 1
-27.377137 -18.679743 -30.782663 45.232873 0.598756 2.319292 0.041813 -0.016707 -60738.300000 0 0 1
-28.090007 -18.441243 -32.008513 46.407681 0.580935 2.331905 0.044036 -0.020723 155482.000000 0 0 1
-28.976447 -17.332143 -32.001893 46.520521 0.539055 2.329401 0.048510 -0.018834 -194832.000000 0 0 1
-29.678047 -17.077943 -33.352483 47.799904 0.522165 2.343051 0.058630 -0.030175 801873.000000 0 0 1
-30.746147 -17.955643 -33.820333 49.107491 0.528569 2.330491 0.059815 -0.026970 1152570.000000 0 0 1
-32.036837 -17.459043 -33.469493 49.511455 0.498971 2.313110 0.053892 -0.029134 15960.300000 0 0 1
-32.954227 -17.605143 34.109574 50.590367 0.490655 0.830874 0.049326 -0.030497 -449784.000000 0 0 1
-33.493207 -18.891843 34.067763 51.374207 0.513566 0.845804 0.039004 -0.023104 167331.000000 0 0 1
-34.312136 -19.281243 32.975764 51.346763 0.511961 0.873409 0.039669 -0.016379 -775954.000000 0 0 1
-34.818920 -20.747243 33.121581 52.343524 0.537371 0.885667 0.018737 -0.017807 605720.000000 0 0 1
-33.824747 -21.795743 32.897097 51.974869 0.572409 0.885448 0.029708 -0.017085 597052.000000 0 0 1
-34.342254 -23.031043 33.313819 53.100188 0.590743 0.892616 0.020908 -0.014740 -979636.000000 0 0 1
-33.266567 -24.090143 33.519889 53.014927 0.626754 0.886313 0.026921 -0.009146 428392.000000 0 0 1
-32.321687 -23.790043 -34.236868 52.752448 0.634506 2.277079 0.011187 -0.009517 1022080.000000 0 0 1
-31.389447 -22.697943 -34.396574 51.803652 0.626067 2.296925 0.014988 -0.009941 -302811.000000 0 0 1
-30.144047 -22.733343 -33.468373 50.453944 0.646156 2.296076 0.012092 -0.008693 -149776.000000 0 0 1
-29.228507 -23.760043 -33.820843 50.623065 0.682561 2.302437 0.010528 -0.003505 210719.000000 0 0 1
-27.944467 -23.629043 -33.249583 49.444512 0.701917 2.308327 0.020715 -0.008628 92838.700000 0 0 1
-27.845667 -24.035443 -31.777283 48.609459 0.712088 2.283295 0.025125 -0.000916 -743562.000000 0 0 1
-27.790967 -25.406653 -31.585653 49.147629 0.740608 2.268773 0.019726 -0.005156 -151472.000000 0 0 1
-27.320427 -25.657433 -30.307163 48.199936 0.754018 2.250780 0.022305 -0.011301 -468982.000000 0 0 1
-26.707737 -27.034743 -30.103743 48.481089 0.791483 2.240735 0.020254 -0.012141 -723469.000000 0 0 1
-27.580517 -28.114633 -30.132593 49.589220 0.794988 2.223887 0.008274 -0.001497 -448924.000000 0 0 1
-27.111467 -29.319183 -29.605023 49.710196 0.824501 2.208749 0.002144 -0.005590 -252893.000000 0 0 1
-27.871917 -30.601473 -30.056153 51.153361 0.832045 2.198848 0.007297 0.004399 1615.540000 0 0 1
-27.465187 -30.948483 -31.369933 51.925118 0.844959 2.219480 0.019458 -0.007505 335149.000000 0 0 1
-27.898517 -32.217823 -31.766483 53.154726 0.857124 2.211329 0.029800 0.000909 -262618.000000 0 0 1
-27.382167 -32.661123 -33.159103 54.000539 0.873092 2.231980 0.027655 -0.013065 325548.000000 0 0 1
-25.970407 -32.824093 -33.218193 53.435302 0.901445 2.241647 0.008536 -0.014160 -5265.250000 0 0 1
-25.508677 -33.166313 34.296762 54.101431 0.915174 0.884166 0.024557 -0.017526 389027.000000 0 0 1
-23.999037 -33.550423 34.334674 53.669867 0.949867 0.876638 0.022012 -0.020181 289085.000000 0 0 1
-23.684337 -34.023226 33.071145 53.030448 0.962677 0.897424 0.031702 -0.013886 88490.900000 0 0 1
-22.938237 33.737876 33.073594 52.519231 -0.973691 0.889575 0.022918 -0.005840 -544388.000000 0 0 1
-23.064437 33.049697 31.691650 51.269986 -0.961500 0.904431 0.029446 -0.014160 25096.800000 0 0 1
-24.296737 32.374020 31.481910 51.278839 -0.926975 0.909759 0.032619 -0.029134 279403.000000 0 0 1
-24.245837 31.604610 30.308820 50.053337 -0.916402 0.920364 0.025409 -0.023363 -159225.000000 0 0 1
-25.602827 30.929560 30.028130 50.138120 -0.879345 0.928659 0.029566 -0.026337 -177338.000000 0 0 1
-25.913357 29.875130 30.905270 50.191246 -0.856293 0.907459 0.034083 -0.026305 -76827.700000 0 0 1
-27.149367 29.289490 30.598800 50.311519 -0.823299 0.917022 0.038856 -0.025848 -241071.000000 0 0 1
-27.564857 28.201760 31.619420 50.546497 -0.796819 0.894959 0.026414 -0.037591 -417362.000000 0 0 1
-26.738727 27.050940 31.681210 49.501636 -0.791202 0.876294 0.035160 -0.035226 -195773.000000 0 0 1
-27.239897 25.851850 32.224160 49.484610 -0.759260 0.861638 0.028477 -0.022227 88457.100000 0 0 1
-28.376647 25.192520 31.389440 49.246260 -0.726028 0.879680 0.012179 -0.017162 202575.000000 0 0 1
-27.982227 24.955740 30.053290 48.051995 -0.728290 0.895110 0.015709 -0.015152 286936.000000 0 0 1
-28.983567 24.274770 29.237210 47.792532 -0.697213 0.912522 0.010467 -0.010751 733883.000000 0 0 1
-28.535247 23.964240 27.755580 46.464152 -0.698550 0.930598 0.016354 -0.020403 173879.000000 0 0 1
-27.412487 23.096410 27.718260 45.312146 -0.700153 0.912566 0.015605 -0.002103 155073.000000 0 0 1
-26.789997 23.030910 26.410930 44.109682 -0.710089 0.928849 0.016815 -0.003269 -17873.400000 0 0 1
-25.477907 22.233610 26.345110 42.866327 -0.717504 0.908933 0.020684 -0.001263 6515.850000 0 0 1
-25.655727 20.867310 26.725230 42.519395 -0.682834 0.891119 0.021635 -0.002626 812683.000000 0 0 1
-24.356137 20.457510 27.133150 41.808360 -0.698620 0.864542 0.021611 0.002436 270834.000000 0 0 1
-24.446137 19.133110 27.902290 41.739997 -0.664080 0.838635 0.025923 0.000019 -306340.000000 0 0 1
-23.264337 18.503310 28.330670 41.063716 -0.671900 0.809418 0.014009 0.009791 -263464.000000 0 0 1
-23.481237 17.474310 29.222890 41.360577 -0.639767 0.786200 0.007811 0.011672 -232468.000000 0 0 1
-22.246237 16.648510 29.633220 40.622601 -0.642460 0.753240 0.004450 0.004281 -414023.000000 0 0 1
-21.317937 17.271710 30.474580 41.005688 -0.680927 0.732987 0.028836 -0.005477 58850.700000 0 0 1
-20.202937 16.404910 30.577500 40.152998 -0.682019 0.705134 0.015963 -0.002142 574541.000000 0 0 1
-18.952237 16.867110 31.391290 40.362109 -0.727251 0.679731 0.012591 -0.013232 319012.000000 0 0 1
-19.199437 16.834010 32.796131 41.564270 -0.719847 0.661541 0.015171 -0.018295 513490.000000 0 0 1
-18.013537 17.164910 33.500546 41.730184 -0.761279 0.638838 0.020537 -0.015460 -478084.000000 0 0 1
-18.151737 16.874610 -33.791053 41.905528 -0.748952 2.508772 0.015013 -0.018182 259504.000000 0 0 1
-19.101237 17.651310 -33.080553 42.080269 -0.745968 2.475318 0.020283 -0.019768 120793.000000 0 0 1
-20.455137 17.340610 -33.325423 42.774914 -0.703180 2.464006 0.028249 -0.015895 -662537.000000 0 0 1
-21.407837 18.217410 -32.507373 42.975561 -0.705056 2.428612 0.049209 -0.015440 -187211.000000 0 0 1
-21.530637 17.674110 -31.223983 41.843514 -0.687345 2.413145 0.039622 -0.014878 166973.000000 0 0 1
-22.361337 18.442910 -30.381953 41.990873 -0.689662 2.379709 0.043247 -0.015501 -393182.000000 0 0 1
-22.491437 17.925210 -28.944223 40.803749 -0.672896 2.359375 0.048519 -0.018540 -79960.100000 0 0 1
-23.107037 16.696310 -28.647813 40.415333 -0.625710 2.358642 0.041034 -0.021001 -301862.000000 0 0 1
-24.358037 16.340010 -29.163763 41.362241 -0.590877 2.353335 0.050433 -0.023576 -482833.000000 0 0 1
-25.180907 15.363210 -28.342223 40.907065 -0.547823 2.336222 0.047137 -0.016770 -319010.000000 0 0 1
-24.981637 13.984610 -28.608613 40.473501 -0.510333 2.355829 0.021485 -0.008611 -133665.000000 0 0 1
-25.762377 13.090110 -27.878773 40.153170 -0.470114 2.338258 0.002131 -0.004058 -361130.000000 0 0 1
-25.119997 11.706010 -27.911193 39.332933 -0.436083 2.359746 0.010981 -0.001125 434932.000000 0 0 1
-24.074937 11.474210 -26.958923 37.921546 -0.444756 2.361592 0.012831 -0.004281 573588.000000 0 0 1
-23.182937 10.452710 -27.379453 37.367662 -0.423585 2.393084 0.002847 0.000074 599889.000000 0 0 1
-22.185137 9.869910 -26.330843 35.817716 -0.418595 2.396662 0.031162 -0.006675 212142.000000 0 0 1
-22.783737 8.897110 -25.519563 35.348343 -0.372292 2.377406 0.015291 -0.005306 -87975.000000 0 0 1
-21.849037 8.209710 -24.714053 33.993591 -0.359425 2.384770 0.045917 -0.002168 -283514.000000 0 0 1
-22.474237 7.248710 -23.731353 33.478534 -0.312000 2.358667 0.046962 -0.001761 -67998.900000 0 0 1
-22.911537 6.002810 -24.280053 33.918922 -0.256240 2.368603 0.038184 -0.013258 160330.000000 0 0 1
-23.567837 5.231810 -23.332453 33.574070 -0.218447 2.339153 0.046834 -0.017340 -476277.000000 0 0 1
33.757101 25.127357 -10.604053 43.397833 0.639880 1.817641 0.000001 -0.002126 -407326.000000 0 0 1
34.640661 24.372257 -9.829253 43.480991 0.613120 1.798826 0.000816 -0.002566 -659417.000000 0 0 1
-35.517434 23.628857 -10.554853 43.945602 -0.587038 1.813348 0.000545 0.001645 -821900.000000 0 0 1
-34.379297 23.044957 -9.734753 42.517897 -0.590524 1.801802 0.013373 -0.002728 -593484.000000 0 0 1
-34.753522 22.054957 -8.720153 42.074571 -0.565481 1.779564 0.003353 -0.000604 -767969.000000 0 0 1
-33.638647 21.705557 -7.991753 40.823497 -0.573033 1.767832 0.013124 0.015127 -910529.000000 0 0 1
-33.955417 20.767457 -6.849653 40.387812 -0.548912 1.741217 0.016915 0.030986 -175471.000000 0 0 1
-34.245773 19.461357 -7.251053 40.051157 -0.516773 1.752845 0.017020 0.014137 319011.000000 0 0 1
-34.658734 18.613757 -6.209653 39.827875 -0.492853 1.727347 0.017690 -0.003248 20286.700000 0 0 1
-35.469113 17.359457 -6.710553 40.055465 -0.455152 1.739122 0.020382 0.010970 1399.400000 0 0 1
34.351161 17.715257 -7.276453 39.329116 0.476137 1.756883 0.025883 0.000451 -261613.000000 0 0 1
33.665281 16.567557 -7.735953 38.310313 0.457329 1.774123 0.036065 0.009285 374893.000000 0 0 1
32.402521 16.941257 -8.575753 37.556266 0.481750 1.801173 0.020576 -0.004041 275517.000000 0 0 1
31.799361 15.802157 -9.196953 36.680942 0.461191 1.824229 0.043092 -0.013517 105956.000000 0 0 1
31.037051 16.373257 -10.270353 36.563127 0.485435 1.855522 0.056146 -0.017710 -246201.000000 0 0 1
30.351601 15.362457 -11.185453 35.809763 0.468555 1.888470 0.038742 -0.004146 281566.000000 0 0 1
29.224261 14.616157 -10.692653 34.380552 0.463758 1.887051 0.036773 -0.002207 642551.000000 0 0 1
29.347031 13.845657 -9.485753 33.807247 0.440827 1.855198 0.037791 -0.005154 -1573180.000000 0 0 1
28.257101 12.829257 -9.344153 32.409363 0.426191 1.863265 0.031374 0.002611 -685766.000000 0 0 1
28.444641 11.657157 -10.169153 32.378984 0.388942 1.890270 0.035307 -0.000079 814288.000000 0 0 1
27.538141 10.635057 -9.697953 31.072560 0.368548 1.888206 0.037759 -0.001085 -18393.400000 0 0 1
27.900171 9.221057 -10.218953 31.110681 0.319200 1.905481 0.042381 -0.002855 -22656.700000 0 0 1
29.011771 8.672157 -9.533353 31.745457 0.290464 1.875810 0.042094 -0.004909 454121.000000 0 0 1
28.978701 7.296757 -9.594353 31.385656 0.246669 1.881462 0.037141 -0.007256 -74276.700000 0 0 1
30.043971 6.508557 -8.737853 31.958592 0.213338 1.847734 0.051473 -0.006304 1032440.000000 0 0 1
31.385011 6.787057 -9.147853 33.388116 0.212972 1.848331 0.054200 -0.005565 947018.000000 0 0 1
32.391661 6.384357 -8.222153 34.023280 0.194604 1.814875 0.050118 -0.010560 -94187.800000 0 0 1
33.791971 6.884057 -8.542053 35.528218 0.200969 1.813605 0.047965 -0.007948 -16018.800000 0 0 1
34.409121 6.171457 -9.656053 36.267256 0.177468 1.840294 0.050709 -0.002790 168427.000000 0 0 1
-35.257807 6.354357 -9.774153 37.135225 -0.178311 1.837139 0.052707 -0.002155 -848960.000000 0 0 1
-34.684800 5.390957 -10.888253 36.751216 -0.154193 1.871580 0.051330 -0.005168 975100.000000 0 0 1
-33.249317 5.257557 -10.993153 35.411981 -0.156827 1.886448 0.053585 -0.007073 1303290.000000 0 0 1
-32.654407 6.336457 -11.670553 35.251423 -0.191664 1.908230 0.036857 -0.004307 -650093.000000 0 0 1
-31.973637 7.425057 -10.850953 34.571493 -0.228180 1.890063 0.044789 0.003124 -947711.000000 0 0 1
-32.823937 8.273257 -10.118953 35.330594 -0.246907 1.861272 0.045005 0.003991 -146935.000000 0 0 1
-33.072687 9.543957 -10.704653 36.048292 -0.280943 1.872297 0.051880 0.007275 299021.000000 0 0 1
-34.203971 10.281757 -9.930253 37.070691 -0.292008 1.841981 0.055539 0.003444 365994.000000 0 0 1
-33.683457 10.933057 -8.779153 36.485347 -0.313854 1.813802 0.035898 0.007188 212004.000000 0 0 1
-34.624941 11.781757 -8.111953 37.463317 -0.327979 1.789056 0.043141 0.005335 -38320.100000 0 0 1
-34.005087 12.839457 -7.234853 37.061310 -0.361026 1.767271 0.035649 0.001748 279125.000000 0 0 1
-33.114187 13.735657 -7.936353 36.717889 -0.393197 1.788660 0.031970 -0.001483 434130.000000 0 0 1
-32.621267 14.750657 -7.048653 36.488525 -0.424665 1.765193 0.027235 -0.001606 -147291.000000 0 0 1
-31.577527 15.714657 -7.619753 36.085334 -0.461768 1.783557 0.010203 0.001247 -259930.000000 0 0 1
-32.092817 16.601057 -8.582353 37.137593 -0.477378 1.804000 0.005640 0.002845 28605.900000 0 0 1
-31.204737 17.677057 -8.782753 36.923580 -0.515412 1.810961 0.006900 0.006262 296565.000000 0 0 1
-31.807517 18.746057 -9.771053 38.191704 -0.532559 1.829515 -0.009858 -0.002118 405122.000000 0 0 1
-31.547137 18.482457 -11.160053 38.227868 -0.529963 1.867046 -0.009783 -0.005893 507412.000000 0 0 1
-32.638347 19.027257 -11.922453 39.616198 -0.527805 1.876484 -0.010738 -0.018702 -16196.400000 0 0 1
-32.317817 19.024357 -13.458053 39.843276 -0.532043 1.915348 -0.017256 -0.002716 -48342.500000 0 0 1
-31.315197 19.974357 -13.711753 39.593291 -0.567785 1.924437 -0.016195 -0.006066 -8591.070000 0 0 1
-31.316877 20.354757 -15.064453 40.274070 -0.576348 1.954167 -0.026620 -0.004295 -105557.000000 0 0 1
-30.492047 21.643257 -15.245453 40.380928 -0.617273 1.957936 -0.008986 -0.007017 451014.000000 0 0 1
-29.077747 21.511857 -15.104253 39.197115 -0.636944 1.966374 -0.010322 -0.003903 458111.000000 0 0 1
-28.373887 22.674957 -14.907253 39.261398 -0.674222 1.960260 -0.006478 -0.005496 -131674.000000 0 0 1
-27.725777 23.365457 -16.166653 39.699168 -0.700261 1.990214 -0.013106 -0.001593 -368932.000000 0 0 1
-28.666317 23.865957 -17.106653 41.036316 -0.694272 2.000791 -0.002829 0.003887 278018.000000 0 0 1
-28.054577 24.530957 -18.203653 41.475296 -0.718491 2.025174 -0.008746 0.001989 -98162.900000 0 0 1
-27.205557 25.808857 -17.960753 41.579179 -0.759059 2.017467 0.002990 0.005882 282491.000000 0 0 1
-27.967307 26.912257 -17.474753 42.565324 -0.766176 1.993842 0.008447 0.005349 373074.000000 0 0 1
-27.088897 28.023757 -17.389553 42.679455 -0.802359 1.990451 0.001352 0.007891 855656.000000 0 0 1
-27.844847 29.400157 -17.019453 43.924555 -0.812561 1.968682 -0.003697 0.012089 370580.000000 0 0 1
-28.299167 29.609357 -15.680653 43.857038 -0.808019 1.936429 -0.004974 0.008339 470207.000000 0 0 1
-27.294817 29.674857 -14.666853 42.903622 -0.827151 1.919687 -0.005157 0.013678 69685.300000 0 0 1
-27.846417 30.441057 -13.442753 43.391111 -0.829883 1.885784 0.000613 -0.000026 -109338.000000 0 0 1
-27.693577 31.792857 -13.667053 44.322774 -0.854201 1.884257 0.009176 -0.001061 234434.000000 0 0 1
-28.053537 32.586857 -12.566853 44.797656 -0.860017 1.855137 0.001397 -0.008793 -75138.800000 0 0 1
-27.293497 33.921457 -12.639953 45.336174 -0.893252 1.853346 -0.007821 -0.009618 -235924.000000 0 0 1
-27.718497 -34.206897 -13.702653 46.110623 0.889795 1.872523 -0.013997 -0.012394 -243028.000000 0 0 1
-26.883427 -33.099197 -13.835753 44.829717 0.888656 1.884548 0.012221 -0.012262 -450763.000000 0 0 1
-27.222007 -32.241897 -15.094753 44.815501 0.869618 1.914334 0.011061 -0.010912 -232188.000000 0 0 1
-26.757727 -32.799697 -16.305253 45.361408 0.886500 1.938477 0.010179 -0.010127 -89525.600000 0 0 1
-26.956767 -31.961797 -17.424353 45.297150 0.870143 1.965644 0.023228 -0.003935 476600.000000 0 0 1
-26.004897 -32.321097 -18.664953 45.489432 0.893269 1.993595 0.016078 0.001890 414082.000000 0 0 1
-26.226307 -33.539297 -19.319353 46.754048 0.907154 1.996775 0.012926 0.006382 55588.400000 0 0 1
-25.535887 34.276257 -18.773653 46.683973 -0.930501 1.984653 0.002341 0.014089 -417422.000000 0 0 1
-25.789707 32.868557 -19.471753 46.093386 -0.905497 2.006933 0.005791 0.013734 1300610.000000 0 0 1
-27.108297 32.240957 -19.414853 46.381846 -0.871666 2.002686 0.007355 0.015799 1609750.000000 0 0 1
-28.106577 32.845357 -20.250753 47.737723 -0.862988 2.008884 0.000980 0.013147 -298908.000000 0 0 1
-29.493547 32.252357 -20.141953 48.122574 -0.830049 2.002650 -0.000658 0.014406 -576500.000000 0 0 1
-29.631447 30.960157 -20.763153 47.619980 -0.807324 2.021965 -0.001487 0.008791 379097.000000 0 0 1
-30.955987 30.453357 -20.692853 48.102747 -0.777213 2.015489 0.006775 0.006519 108515.000000 0 0 1
-31.135997 29.039157 -21.254653 47.586587 -0.750567 2.033816 0.008308 0.000846 -182671.000000 0 0 1
-32.458587 28.532557 -21.259853 48.162725 -0.721116 2.027974 0.015020 -0.008809 290811.000000 0 0 1
-32.508997 27.198757 -21.830053 47.677652 -0.696694 2.046391 0.013293 -0.002964 386335.000000 0 0 1
-33.969937 26.768457 -22.170253 48.600690 -0.667384 2.044485 0.021454 -0.000525 843535.000000 0 0 1
-34.601928 27.493457 -23.245253 49.935212 -0.671418 2.055005 0.008357 -0.007112 -285042.000000 0 0 1
35.219756 26.939957 -23.623253 50.241921 0.652976 2.060302 0.019595 -0.007020 255675.000000 0 0 1
34.391741 27.780157 -24.678053 50.631367 0.679453 2.079913 0.027156 -0.009569 254848.000000 0 0 1
35.011571 27.850257 -25.952973 51.720438 0.671966 2.096467 0.027983 -0.000667 -810351.000000 0 0 1
34.159901 28.277657 -26.939253 51.886878 0.691465 2.116702 0.043889 -0.003384 -852952.000000 0 0 1
34.790561 28.463057 -28.299433 53.116727 0.685696 2.132676 0.029141 -0.000240 -54423.700000 0 0 1
35.222649 27.266157 -28.855483 53.072754 0.658753 2.145632 0.012914 0.010560 -315176.000000 0 0 1
-35.187545 27.513457 -30.068453 53.844828 -0.663612 2.163286 -0.016072 0.010993 -853890.000000 0 0 1
-34.716837 26.197957 -30.825713 53.308689 -0.646450 2.187378 -0.027774 0.009009 782645.000000 0 0 1
-33.663107 25.540757 -30.094953 51.877175 -0.649056 2.189672 -0.027566 0.009896 -86690.400000 0 0 1
-32.395607 26.124257 -30.223033 51.433296 -0.678639 2.198906 -0.036884 0.019731 -840864.000000 0 0 1
-31.352077 25.263557 -29.461483 49.891673 -0.678269 2.202486 -0.027633 0.013248 -414986.000000 0 0 1
-31.208737 23.927857 -29.896203 49.399500 -0.654106 2.220804 -0.014668 0.005816 -48813.500000 0 0 1
-32.024837 23.037457 -29.153263 49.053312 -0.623603 2.207214 -0.028104 0.012582 -144354.000000 0 0 1
-31.882297 21.552257 -29.539323 48.513424 -0.594433 2.225456 -0.038479 0.000380 365504.000000 0 0 1
-30.571517 20.972757 -29.509383 47.384363 -0.601284 2.243070 0.037301 -0.009970 510389.000000 0 0 1
-30.500117 19.623957 -29.943773 47.031759 -0.571726 2.260970 0.021314 -0.016028 107391.000000 0 0 1
-29.038907 19.108457 -30.063623 45.958815 -0.581999 2.283845 0.047866 -0.025232 -260624.000000 0 0 1
-28.289287 19.786857 -31.032723 46.420183 -0.610355 2.303010 0.060091 -0.025398 370001.000000 0 0 1
-26.923127 19.400557 -31.166153 45.525438 -0.624412 2.324834 0.061170 -0.029247 634746.000000 0 0 1
-26.754227 18.084957 -32.006413 45.467184 -0.594413 2.351734 0.051932 -0.020212 -408750.000000 0 0 1
-27.155577 16.963957 -31.252393 44.742746 -0.558380 2.344083 0.030498 -0.012884 -51464.300000 0 0 1
-27.066497 15.736357 -31.992363 44.763149 -0.526628 2.366996 0.005527 -0.003032 -97280.200000 0 0 1
-27.616737 14.505257 -31.265203 44.165593 -0.483631 2.357329 0.002159 -0.002047 -131892.000000 0 0 1
-28.988927 14.560857 -30.939763 44.829069 -0.465478 2.332523 0.006883 -0.005522 28200.600000 0 0 1
-29.649657 13.338757 -30.715713 44.726722 -0.422753 2.327794 -0.001958 -0.006124 -160565.000000 0 0 1
-29.262317 12.545557 -29.426823 43.354494 -0.405024 2.316854 0.000552 -0.016735 -523518.000000 0 0 1
-29.797637 13.018957 -28.200773 43.042723 -0.411917 2.285218 -0.002583 -0.016146 184932.000000 0 0 1
-29.512267 12.098957 -27.245483 41.948481 -0.389066 2.277721 0.001007 -0.010915 -101005.000000 0 0 1
-29.436467 12.707657 -25.778383 41.140190 -0.407530 2.247977 -0.005813 -0.017960 -605827.000000 0 0 1
-28.134077 13.122657 -25.528673 40.192581 -0.436435 2.259010 0.002598 -0.023226 -633355.000000 0 0 1
-28.016417 13.816057 -24.299953 39.576392 -0.458146 2.231916 0.014256 -0.011393 -153035.000000 0 0 1
-26.534187 14.129757 -23.999253 38.466574 -0.489317 2.244518 0.032681 -0.008217 -1275110.000000 0 0 1
-25.935787 15.039257 -24.879553 38.959421 -0.525483 2.263476 0.037246 -0.015790 266915.000000 0 0 1
-24.548537 15.164357 -24.586853 37.909125 -0.553354 2.276505 0.043075 -0.016667 320572.000000 0 0 1
-24.152937 15.714057 -23.182253 36.982602 -0.576801 2.248290 0.042570 -0.012671 -1492650.000000 0 0 1
-24.557837 17.047957 -22.904853 37.661021 -0.606820 2.224568 0.056603 -0.016660 261312.000000 0 0 1
-24.620137 17.247857 -21.504053 36.960303 -0.611101 2.191755 0.052245 -0.011378 -531066.000000 0 0 1
-26.057107 17.247957 -21.016453 37.658414 -0.584716 2.162868 0.047966 -0.012703 -447025.000000 0 0 1
-26.896957 16.130157 -21.354053 37.942376 -0.540200 2.168568 0.049500 -0.009795 84860.600000 0 0 1
-28.129587 16.315457 -20.718153 38.557875 -0.525592 2.138060 0.047374 -0.006278 -2090270.000000 0 0 1
-28.983217 15.064857 -20.823053 38.737273 -0.479345 2.138320 0.005988 -0.009452 -680823.000000 0 0 1
-29.609707 14.910357 -22.063053 39.822504 -0.466494 2.157999 0.000770 -0.006548 592158.000000 0 0 1
-30.691517 15.869457 -22.212853 41.075781 -0.477205 2.142157 -0.010126 -0.002099 -557985.000000 0 0 1
-31.321597 15.793157 -23.619153 42.288659 -0.467023 2.163399 -0.020134 0.003106 -129001.000000 0 0 1
-32.210937 14.745257 -23.997453 42.788373 -0.429298 2.166197 -0.007257 0.001305 367975.000000 0 0 1
-32.569567 14.899057 -25.363263 43.886829 -0.429035 2.186979 -0.008994 0.003088 223535.000000 0 0 1
-33.854377 14.085257 -25.736403 44.798167 -0.394269 2.182786 -0.008945 -0.004866 -25622.300000 0 0 1
-33.851057 12.713957 -26.111163 44.601924 -0.359284 2.196203 -0.009394 -0.004674 -52089.500000 0 0 1
-33.372237 11.824957 -25.118643 43.410622 -0.340532 2.187843 -0.010310 -0.013862 -202393.000000 0 0 1
-33.514637 10.445757 -25.629233 43.464955 -0.302135 2.201425 -0.012858 -0.015086 -821969.000000 0 0 1
-34.823963 10.031257 -25.821433 44.498101 -0.280463 2.189871 -0.018441 -0.004022 -745568.000000 0 0 1
-34.846501 9.028357 -26.793753 44.874214 -0.253515 2.210660 -0.015411 0.003191 424943.000000 0 0 1
34.788831 8.429257 -27.020383 44.848816 0.237716 2.217397 -0.008142 0.004242 612350.000000 0 0 1
34.193281 7.723057 -25.912273 43.592109 0.222137 2.207348 -0.019393 0.012776 -130791.000000 0 0 1
32.995641 7.065757 -26.226423 42.737133 0.210956 2.231495 -0.004588 0.006300 -423149.000000 0 0 1
32.468071 6.258057 -25.058753 41.488312 0.190410 2.219301 -0.007035 0.004972 54872.300000 0 0 1
33.353371 5.220657 -24.586053 41.763341 0.155266 2.200245 -0.015403 0.000559 557817.000000 0 0 1
32.710761 4.407857 -23.614853 40.584288 0.133946 2.191825 -0.013660 -0.000335 -109625.000000 0 0 1
33.715581 3.461557 -22.983253 40.950613 0.102311 2.166683 -0.022449 0.002031 -160170.000000 0 0 1
34.207131 2.474157 -23.894653 41.799566 0.072203 2.179310 -0.019726 -0.000277 115840.000000 0 0 1
35.225220 1.781257 -23.189953 42.210934 0.050525 2.152422 -0.004390 0.002522 -231196.000000 0 0 1
-35.318008 0.578557 -23.981353 42.694282 -0.016380 2.167235 0.014386 0.000836 61980.500000 0 0 1
34.841501 -0.530443 -24.127253 42.383204 -0.015223 2.176407 0.005146 -0.002368 248851.000000 0 0 1
-35.503143 -1.743943 -24.370853 43.098179 0.049081 2.171803 0.017332 -0.005316 379731.000000 0 0 1
-22.672437 29.627857 27.881980 46.575252 -0.917612 0.928990 0.014115 -0.006732 -177537.000000 0 0 1
-23.757837 30.079057 27.040650 46.908222 -0.902277 0.956408 0.004077 -0.007584 1081790.000000 0 0 1
-23.798237 29.224457 25.911010 45.736259 -0.887381 0.968506 0.003512 -0.000045 -505106.000000 0 0 1
-24.102737 27.753657 25.958720 45.000695 -0.855687 0.955927 0.010259 -0.007134 -142894.000000 0 0 1
-25.440447 27.581557 26.413600 45.887220 -0.825758 0.957434 0.005406 -0.002388 434037.000000 0 0 1
-25.639937 27.480457 27.836270 46.770074 -0.820032 0.933316 0.013803 -0.007704 -736679.000000 0 0 1
-25.003937 26.187257 28.538980 46.102524 -0.808510 0.903286 0.017580 -0.005441 244019.000000 0 0 1
-23.633437 26.269757 28.843620 45.613528 -0.838178 0.886216 0.023841 -0.001424 -236460.000000 0 0 1
-23.454237 26.898457 30.131200 46.706718 -0.853694 0.869623 0.021400 -0.005870 -585655.000000 0 0 1
-22.045137 26.669757 30.651760 46.225474 -0.880047 0.845854 0.028105 0.001032 88637.300000 0 0 1
-20.963037 27.222357 29.856590 45.518366 -0.914576 0.855390 0.028260 -0.003900 2049950.000000 0 0 1
-19.654537 26.868857 30.409520 45.088527 -0.939241 0.830590 0.030247 -0.006793 1431990.000000 0 0 1
-19.018937 25.488857 29.971010 43.699694 -0.929753 0.815039 0.037514 -0.003853 -203279.000000 0 0 1
-18.697137 25.384557 28.585420 42.556843 -0.935955 0.834296 0.034670 -0.002444 95830.100000 0 0 1
-19.513137 24.514457 27.812090 41.895507 -0.898508 0.844849 0.040670 -0.006261 -125099.000000 0 0 1
-19.328537 22.962557 27.988810 41.039553 -0.871116 0.820308 0.039212 0.001708 -12437.600000 0 0 1
-19.958637 22.535257 29.183010 41.926520 -0.845959 0.800913 0.034628 -0.002714 133375.000000 0 0 1
-20.053737 21.123157 29.267440 41.290716 -0.811364 0.782981 0.030268 0.001521 93927.000000 0 0 1
-20.613737 20.631357 30.622450 42.288456 -0.785825 0.761020 0.032616 -0.001779 -209231.000000 0 0 1
-19.626437 20.654957 31.595000 42.544898 -0.810926 0.733811 0.033267 -0.014223 -131722.000000 0 0 1
-20.169337 20.294157 32.870961 43.579296 -0.788483 0.716241 0.037046 -0.012468 370477.000000 0 0 1
-19.254037 20.728057 34.097117 44.305572 -0.822248 0.692598 0.039518 -0.019140 151797.000000 0 0 1
-19.190437 22.162057 34.269236 45.097785 -0.857136 0.707657 0.034510 -0.019566 -105824.000000 0 0 1
-18.333637 22.876157 33.426075 44.460582 -0.895184 0.719988 0.041387 -0.018224 441918.000000 0 0 1
-16.824537 22.880157 33.852520 44.187778 -0.936748 0.698036 0.032168 -0.013892 1140790.000000 0 0 1
-16.059037 21.627957 33.714690 43.154855 -0.932104 0.674132 0.047439 -0.026791 -230461.000000 0 0 1
-14.735437 21.868057 34.071030 43.083409 -0.977848 0.658656 0.041761 -0.024075 -665355.000000 0 0 1
-13.804837 20.654457 33.740453 41.899860 -0.981615 0.634676 0.045317 -0.033733 1540880.000000 0 0 1
-12.391137 20.631457 34.084965 41.725078 -1.029940 0.614791 0.031654 -0.025680 1517240.000000 0 0 1
-12.186337 20.627957 -33.270593 40.999412 -1.037193 2.517493 0.037677 -0.030120 -342850.000000 0 0 1
-10.706637 20.381757 -32.911423 40.164784 -1.087110 2.531177 0.020899 -0.023018 573555.000000 0 0 1
-9.870337 21.525957 -33.106593 40.704261 -1.140870 2.520675 0.012170 -0.020897 427929.000000 0 0 1
-8.513537 21.360757 -32.714253 39.987306 -1.191532 2.528923 0.006735 -0.019315 531220.000000 0 0 1
-7.659837 22.647957 -32.649483 40.467170 -1.244660 2.509536 0.001530 -0.015609 -100652.000000 0 0 1
-8.011137 23.612057 -31.658353 40.298373 -1.243702 2.474460 0.006913 -0.014643 75178.500000 0 0 1
-7.791537 23.305657 -30.295533 39.008730 -1.248158 2.460102 0.015767 -0.014529 -64063.100000 0 0 1
-7.697037 24.607657 -29.437073 39.132115 -1.267647 2.422264 0.008718 -0.017838 -165094.000000 0 0 1
-6.495337 25.280057 -29.703983 39.542348 -1.319301 2.420666 0.008877 -0.010978 -138716.000000 0 0 1
-6.268937 26.519757 -29.060943 39.838869 -1.338670 2.388332 0.016487 -0.013967 -354285.000000 0 0 1
-4.977037 27.185357 -29.548703 40.459120 -1.389724 2.389608 0.037869 -0.019630 -836243.000000 0 0 1
-3.850837 26.616757 -28.943033 39.509238 -1.427116 2.392877 0.042413 -0.018212 155335.000000 0 0 1
-2.644237 26.799657 -29.696663 40.088719 -1.472448 2.405018 0.040144 -0.018837 790792.000000 0 0 1
-1.831637 28.094057 -29.426383 40.725213 -1.505692 2.378294 0.053715 -0.025884 -323852.000000 0 0 1
-1.264737 28.161257 -28.143943 39.833874 -1.525916 2.355383 0.054893 -0.031737 -367838.000000 0 0 1
-0.479037 29.233957 -27.886703 40.404479 -1.554411 2.332546 0.057036 -0.028586 -1516600.000000 0 0 1
0.068263 29.197757 -26.442823 39.392087 1.568458 2.306721 0.049078 -0.030281 945465.000000 0 0 1
1.106663 28.184057 -26.204983 38.500219 1.531551 2.319439 0.059847 -0.030263 582067.000000 0 0 1
2.322263 28.419257 -26.860953 39.173433 1.489263 2.326352 0.053764 -0.025909 -1301100.000000 0 0 1
3.456863 28.469157 -25.838213 38.601244 1.449963 2.304146 0.050850 -0.024051 -623182.000000 0 0 1
3.979563 27.242057 -25.398203 37.457113 1.425741 2.315918 0.056752 -0.023896 -39836.000000 0 0 1
4.762863 27.421057 -24.245853 36.911524 1.398819 2.287448 0.047748 -0.016188 -111510.000000 0 0 1
5.618563 26.179557 -23.920453 35.904394 1.359387 2.299933 0.044979 -0.021649 260819.000000 0 0 1
6.692863 26.513457 -23.047653 35.762440 1.323529 2.271120 0.036770 -0.025194 -274758.000000 0 0 1
7.649063 25.502457 -22.977453 35.168833 1.279400 2.282794 0.037391 -0.020294 -94556.000000 0 0 1
9.044063 26.012457 -22.577153 35.611386 1.236188 2.257494 0.029518 -0.006343 -544309.000000 0 0 1
9.147563 26.287957 -21.166253 34.967769 1.235926 2.220948 0.043677 -0.002901 -173725.000000 0 0 1
10.418363 26.688957 -20.703153 35.347747 1.198626 2.196539 0.056971 -0.006202 -272965.000000 0 0 1
11.301563 25.538357 -20.289553 34.519544 1.154169 2.199096 0.034208 0.004355 -538510.000000 0 0 1
11.643563 24.690557 -21.345953 34.653223 1.130142 2.234435 0.028011 0.001669 -198959.000000 0 0 1
11.629563 23.378657 -20.858953 33.420117 1.109196 2.244831 0.011789 0.006915 -347142.000000 0 0 1
11.739363 22.324057 -21.966153 33.446794 1.086674 2.287296 0.009623 0.001934 155951.000000 0 0 1
10.703463 22.296757 -22.945753 33.737473 1.123239 2.318732 0.017665 -0.009978 142302.000000 0 0 1
11.089263 21.593157 -24.101153 34.206750 1.096364 2.352618 0.004871 -0.021623 -224938.000000 0 0 1
10.072463 21.632557 -25.228533 34.726084 1.135032 2.384012 0.013065 -0.023384 672047.000000 0 0 1
8.793263 21.006057 -25.007153 33.822087 1.174354 2.402936 0.010924 -0.021471 626599.000000 0 0 1
8.110763 20.818957 -26.236633 34.461201 1.199300 2.436171 0.007686 -0.015597 380603.000000 0 0 1
6.583163 20.499857 -26.138833 33.864742 1.260067 2.452557 0.009681 -0.020760 422449.000000 0 0 1
5.742163 21.460357 -25.565463 33.869046 1.309350 2.426195 0.031344 -0.022408 -160713.000000 0 0 1
5.922163 21.818757 -24.199053 33.116829 1.305757 2.390169 0.034804 -0.019319 195035.000000 0 0 1
4.483063 22.079457 -23.614753 32.638272 1.370477 2.379698 0.047710 -0.023889 905607.000000 0 0 1
3.861263 23.219157 -24.095353 33.684190 1.406008 2.367894 0.044387 -0.023550 2126180.000000 0 0 1
2.385463 23.294057 -23.961253 33.502913 1.468746 2.367705 0.049477 -0.024903 2665590.000000 0 0 1
1.822863 24.573157 -24.706453 34.893720 1.496751 2.357527 0.037917 -0.013955 -686078.000000 0 0 1
0.436863 24.618457 -24.751953 34.913013 1.553053 2.358820 0.051147 -0.034560 -776514.000000 0 0 1
0.044463 25.308557 -25.923473 36.229152 1.569040 2.368196 0.045010 -0.029889 -144568.000000 0 0 1
-1.435037 25.140357 -26.307303 36.416632 -1.513777 2.378060 0.067092 -0.029026 -221744.000000 0 0 1
-1.688937 23.883657 -26.822603 35.954605 -1.500199 2.412851 0.088766 -0.033774 -1231690.000000 0 0 1
-2.847537 23.799857 -27.541173 36.511065 -1.451717 2.425420 0.084086 -0.027637 -900079.000000 0 0 1
-3.269037 22.373757 -27.901543 35.913336 -1.425713 2.460544 0.061692 -0.024980 145729.000000 0 0 1
-2.455337 21.921457 -29.017013 36.449499 -1.459255 2.491600 0.069599 -0.027983 454967.000000 0 0 1
-2.774937 20.553057 -29.252023 35.858183 -1.436594 2.524855 0.053045 -0.019490 317108.000000 0 0 1
-4.123937 20.319957 -30.004683 36.471750 -1.370566 2.536911 0.038433 -0.015228 165237.000000 0 0 1
-4.067337 20.648757 -31.412513 37.810850 -1.376309 2.551305 0.035788 -0.016059 -44792.500000 0 0 1
-3.891737 22.048057 -31.714973 38.821411 -1.396084 2.526891 0.046372 -0.019134 -238847.000000 0 0 1
-3.457837 22.339457 -33.179423 40.148251 -1.417229 2.543520 0.032052 -0.014798 -66010.000000 0 0 1
-2.197337 21.808257 -33.507433 40.039686 -1.470378 2.562310 0.043002 -0.013971 -217825.000000 0 0 1
-1.860337 22.178557 34.034666 40.665806 -1.487112 0.579136 0.042678 -0.006621 -710010.000000 0 0 1
-0.540137 21.573757 33.615871 39.946784 -1.545765 0.570712 0.041907 -0.005107 -697700.000000 0 0 1
-0.694837 20.195357 33.495317 39.118685 -1.536404 0.542833 0.028267 -0.001243 -265843.000000 0 0 1
0.373363 19.560657 32.867308 38.249427 1.551711 0.536919 0.029646 -0.000703 -485392.000000 0 0 1
-0.040337 18.107557 32.494810 37.199435 -1.568569 0.508389 0.022699 0.016660 110789.000000 0 0 1
-0.937837 18.057557 31.420860 36.252246 -1.518907 0.522191 0.008078 0.013391 -135975.000000 0 0 1
-1.409337 16.752757 31.229250 35.466987 -1.486868 0.493847 0.008666 0.010979 -212442.000000 0 0 1
-2.369937 16.553657 30.034940 34.376413 -1.428596 0.508023 0.011421 0.013582 126923.000000 0 0 1
-3.709937 16.949457 30.250230 34.872972 -1.355312 0.520761 0.005458 0.000719 -31881.700000 0 0 1
-3.903837 18.157757 29.531610 34.886388 -1.359024 0.561405 0.011259 0.003427 -974815.000000 0 0 1
-5.337137 18.625057 29.721480 35.478785 -1.291718 0.577692 0.007255 -0.004790 -444056.000000 0 0 1
-6.179737 17.910957 28.834150 34.502170 -1.238560 0.581354 0.011467 -0.002587 -521712.000000 0 0 1
-7.533337 18.176857 29.100440 35.128122 -1.177898 0.594536 0.017309 -0.007898 -1033730.000000 0 0 1
-8.481737 17.644657 28.036210 34.195071 -1.122710 0.609577 0.024788 -0.010801 -162541.000000 0 0 1
-8.918937 16.313457 28.249530 33.818815 -1.070473 0.582082 0.036584 -0.015104 170790.000000 0 0 1
-9.863537 16.184057 29.304960 34.899767 -1.023450 0.574086 0.041491 -0.013187 -995442.000000 0 0 1
-10.253237 14.671457 29.401550 34.421384 -0.960838 0.546853 0.038621 -0.010425 -621292.000000 0 0 1
-9.303037 13.671757 29.607190 33.912375 -0.973307 0.509374 0.030715 0.000386 -67827.600000 0 0 1
-8.420537 13.724757 30.742900 34.704471 -1.020488 0.482477 0.024619 -0.007626 -1931.400000 0 0 1
-9.022537 13.540857 32.147600 36.030948 -0.983034 0.468555 0.042457 -0.014740 -526976.000000 0 0 1
-9.180937 12.175357 32.462330 35.865468 -0.924703 0.439149 0.037927 0.001246 337707.000000 0 0 1
-9.614537 12.055957 33.820186 37.169751 -0.897586 0.427790 0.026665 0.015964 58522.600000 0 0 1
-10.275237 10.699857 34.110454 37.196647 -0.805639 0.410227 0.041200 0.004384 -358861.000000 0 0 1
-9.306237 9.685557 33.972748 36.531681 -0.805368 0.376511 0.037457 0.002723 179465.000000 0 0 1
-9.220537 8.752757 -33.765153 36.079283 -0.759378 2.781488 0.058041 -0.004155 42506.100000 0 0 1
-8.268837 9.218857 -32.620923 34.892487 -0.839670 2.778768 0.053909 -0.003875 -54070.700000 0 0 1
-8.727837 10.366357 -31.911723 34.669793 -0.871001 2.740020 0.057560 -0.003613 549792.000000 0 0 1
-7.699237 10.966557 -31.122253 33.884189 -0.958686 2.735039 0.057281 -0.005170 350467.000000 0 0 1
-6.802337 12.023757 -31.749893 34.625110 -1.055948 2.731193 0.043203 -0.011446 -384252.000000 0 0 1
-7.565437 13.181557 -31.993363 35.419833 -1.049758 2.698106 0.049819 -0.011908 746756.000000 0 0 1
-6.744537 14.226857 -32.583913 36.188446 -1.128106 2.691474 0.025288 -0.015276 426934.000000 0 0 1
-7.530337 15.515257 -32.864473 37.114725 -1.118937 2.658330 0.019074 -0.015860 -135539.000000 0 0 1
-8.082737 15.672557 -34.135069 38.420862 -1.094648 2.664756 0.024469 -0.023035 57067.500000 0 0 1
-8.533137 17.039657 -34.376359 39.305196 -1.106524 2.635408 0.036318 -0.023989 -1274860.000000 0 0 1
-9.070837 17.298657 32.977395 38.327956 -1.087846 0.534741 0.045214 -0.028711 898087.000000 0 0 1
-10.279537 16.625957 32.560090 37.976977 -1.017042 0.540670 0.048030 -0.030585 1377900.000000 0 0 1
-11.393937 16.960657 33.407729 39.160721 -0.979258 0.548912 0.054024 -0.037127 -1423250.000000 0 0 1
-12.723937 16.402157 32.970884 38.961629 -0.911019 0.561908 0.053694 -0.032502 -840161.000000 0 0 1
-12.797537 14.983357 33.062962 38.489446 -0.863917 0.537456 0.047299 -0.027130 1052960.000000 0 0 1
-14.119337 14.517457 33.402857 39.062298 -0.799300 0.545019 0.048650 -0.012372 681513.000000 0 0 1
-14.245637 12.983557 33.148669 38.345081 -0.739081 0.526675 0.038367 0.001540 -119876.000000 0 0 1
-14.311437 12.589457 31.806910 37.080874 -0.721473 0.539878 0.017359 0.004264 1511760.000000 0 0 1
-13.048937 11.933557 31.442690 36.073915 -0.740781 0.512302 0.025267 0.001385 1344880.000000 0 0 1
-13.012937 11.416357 30.037550 34.668778 -0.720136 0.522819 0.022127 0.003796 -31266.600000 0 0 1
-13.818637 10.261157 29.889500 34.490989 -0.638722 0.522471 0.009977 0.008058 149286.000000 0 0 1
-13.907837 9.990357 28.494950 33.244509 -0.622919 0.541120 0.001906 0.008151 3821.840000 0 0 1
-14.696737 8.707957 28.113760 32.896901 -0.534894 0.546012 -0.002582 0.008067 83378.700000 0 0 1
-14.251837 7.490357 28.617480 32.835659 -0.483895 0.512469 -0.012854 0.011848 125704.000000 0 0 1
-15.114237 6.453657 28.156580 32.601885 -0.403557 0.528332 -0.009105 0.014500 144445.000000 0 0 1
-14.364737 5.120257 28.217150 32.074449 -0.342406 0.495483 -0.008134 0.012535 -17115.600000 0 0 1
-13.350837 4.886157 27.282480 30.764478 -0.350841 0.480384 -0.006463 0.000421 -243495.000000 0 0 1
-13.813637 4.622157 25.961160 29.768486 -0.322898 0.511314 -0.013935 -0.001291 -4303.990000 0 0 1
-12.692137 4.315257 24.906480 28.285059 -0.327734 0.493770 -0.004752 0.005993 -149818.000000 0 0 1
-12.132937 3.042957 25.016120 27.969162 -0.245733 0.463668 -0.007201 -0.000947 -187531.000000 0 0 1
-11.279037 2.731457 23.930360 26.595859 -0.237597 0.451537 -0.008248 -0.003727 -572727.000000 0 0 1
-10.413037 1.551357 24.334280 26.514058 -0.147894 0.408323 -0.011478 0.000909 -162009.000000 0 0 1
-9.032237 1.853857 24.300050 25.990586 -0.202437 0.362662 -0.005723 -0.011093 315310.000000 0 0 1
-8.133837 0.813557 24.581830 25.905358 -0.099690 0.321036 0.000611 -0.009110 803409.000000 0 0 1
-6.597637 1.054457 24.476930 25.372442 -0.158483 0.266474 0.002342 -0.011543 357552.000000 0 0 1
-6.181037 1.184157 23.105830 23.947585 -0.189285 0.265924 -0.000498 -0.009225 412292.000000 0 1 0
-4.844437 1.612457 22.837930 23.401702 -0.321313 0.219947 -0.005007 -0.012423 433230.000000 0 1 0
-4.382437 3.017457 23.284230 23.884434 -0.602989 0.224657 0.000289 -0.017048 -1179400.000000 0 1 0
-4.208237 3.100657 24.669140 25.216856 -0.635004 0.208803 0.005951 -0.018749 12023.300000 0 0 1
-4.256737 4.434957 25.097780 25.839645 -0.805900 0.240203 0.004826 -0.020735 -301286.000000 0 0 1
4.150563 -23.399143 12.888647 27.034502 -1.395241 1.073845 0.035503 -0.007726 149725.000000 0 0 1
3.823063 -24.502243 13.665947 28.314905 -1.416015 1.067128 0.032935 -0.010232 1049870.000000 0 0 1
2.507463 -25.073613 13.380147 28.530716 -1.471124 1.082668 0.021610 -0.003954 1239640.000000 0 0 1
2.299663 -26.451373 14.079647 30.053287 -1.484075 1.083216 0.013889 -0.001258 -47053.400000 0 0 1
2.040663 -26.394223 15.458247 30.655778 -1.493635 1.042280 0.010705 -0.007619 120148.000000 0 0 1
2.225463 -27.691513 16.042547 32.080148 -1.490602 1.047109 0.006220 -0.004405 -236433.000000 0 0 1
2.095163 -27.723433 17.553547 32.880168 -1.495366 1.007632 -0.013140 -0.004487 -279823.000000 0 0 1
3.075063 -27.067643 18.303947 32.819930 -1.457675 0.979174 -0.004686 -0.014386 -146690.000000 0 0 1
3.039063 -27.512493 19.652047 33.946666 -1.460781 0.953406 -0.009179 -0.013173 118880.000000 0 0 1
3.516563 -26.395073 20.686747 33.719543 -1.438348 0.910318 -0.005585 -0.007789 581004.000000 0 0 1
2.603563 -25.287113 20.860747 32.884455 -1.468198 0.883610 -0.017983 -0.011360 394642.000000 0 0 1
3.086063 -24.493443 21.914447 33.010537 -1.445461 0.844825 0.003243 -0.018586 180679.000000 0 0 1
2.197663 -23.295943 22.402147 32.394241 -1.476738 0.807168 0.007783 -0.014024 -323459.000000 0 0 1
1.846863 -22.372443 21.380447 31.000978 -1.488432 0.809763 -0.004502 -0.013737 688469.000000 0 0 1
2.927163 -21.667043 20.690447 30.101888 -1.436512 0.812966 -0.003363 -0.006596 918953.000000 0 0 1
2.255763 -20.497943 19.933047 28.680664 -1.461189 0.802377 -0.022173 -0.015746 343732.000000 0 0 1
1.882663 -19.414043 20.749647 28.478015 -1.474124 0.754492 -0.020704 -0.014040 -383000.000000 0 0 1
1.297863 -18.442743 19.979647 27.221416 -1.500540 0.746650 -0.022767 -0.021438 -271397.000000 0 0 1
1.025463 -17.142643 20.795347 26.969765 -1.511048 0.690290 -0.015085 -0.010861 -80816.300000 0 0 1
2.140663 -16.283243 20.774247 26.481990 -1.440082 0.668960 -0.024969 0.003527 -322035.000000 0 0 1
1.826963 -14.899743 21.058447 25.861135 -1.448788 0.619293 -0.013888 0.001173 386070.000000 0 0 1
2.846663 -13.751243 20.682747 24.999524 -1.366668 0.596466 -0.025497 0.006572 -163640.000000 0 1 0
3.059663 -13.428643 19.319947 23.726575 -1.346775 0.619318 -0.028203 -0.000096 108696.000000 0 1 0
1.932763 -13.021243 18.540947 22.738845 -1.423441 0.617400 -0.013377 0.002020 200125.000000 0 1 0
1.131563 -11.782243 18.964247 22.354962 -1.475050 0.557985 -0.004093 -0.002916 -809571.000000 0 1 0
1.797263 -10.527243 18.893547 21.702975 -1.401702 0.514475 0.001337 -0.002332 -252053.000000 0 1 0
1.377763 -9.653243 19.953047 22.208273 -1.429028 0.454567 0.003854 -0.005890 163022.000000 0 1 0
-0.089237 -9.179443 19.923647 21.936769 1.561075 0.431760 0.008841 -0.012934 -107269.000000 0 1 0
-0.414037 -8.498943 21.114347 22.764426 1.522118 0.383087 0.012246 -0.012277 583493.000000 0 1 0
-1.735437 -7.917943 21.132947 22.634200 1.355030 0.366260 0.024777 -0.014538 879220.000000 0 1 0
-1.945637 -7.155843 22.424947 23.619268 1.305319 0.319367 0.026878 -0.008426 -155518.000000 0 1 0
-2.123937 -7.899443 23.591247 24.969166 1.308136 0.333766 0.022221 0.002187 -19744.800000 0 1 0
-2.170937 -7.169743 24.791247 25.898342 1.276780 0.293448 0.023275 0.006107 -182141.000000 0 0 1
-2.133837 -8.172543 25.966747 27.305964 1.315400 0.314487 0.019020 0.009227 595026.000000 0 0 1
-0.923837 -8.926943 26.092947 27.593218 1.467675 0.331273 0.020014 0.009502 325159.000000 0 0 1
-1.075737 -9.998343 26.974047 28.787554 1.463617 0.356844 0.020843 0.005160 -73124.300000 0 0 1
0.243163 -10.773143 27.181147 29.239263 -1.548229 0.377440 0.026873 0.008912 -109083.000000 0 0 1
1.059363 -10.173643 28.132647 29.934446 -1.467042 0.348727 0.019666 0.008276 -83389.400000 0 0 1
2.110463 -11.032443 28.572547 30.701128 -1.381784 0.374563 0.012835 0.011262 56293.700000 0 0 1
2.890663 -10.481543 29.754747 31.679072 -1.301700 0.350341 0.016994 0.006917 -240932.000000 0 0 1
2.165263 -10.444743 30.915647 32.704101 -1.366385 0.332240 0.011853 0.005670 -30902.300000 0 0 1
3.063363 -9.916643 31.860647 33.508578 -1.271184 0.314922 0.022562 0.005515 327042.000000 0 0 1
2.362963 -9.930743 33.237147 34.769400 -1.337196 0.297982 0.029154 0.005920 -127180.000000 0 0 1
2.489263 -11.134143 33.967847 35.832669 -1.350843 0.324038 0.021705 0.006116 -34024.800000 0 0 1
2.203063 -11.037943 -33.437137 35.280757 -1.373795 2.816886 0.023608 0.004033 -265860.000000 0 0 1
3.027463 -10.192743 -32.447837 34.145566 -1.282074 2.824929 0.017304 0.005750 -223975.000000 0 0 1
2.735063 -8.858343 -32.725537 34.013403 -1.271326 2.865532 0.025885 -0.003910 201052.000000 0 0 1
3.423863 -8.028943 -31.818637 32.994127 -1.167707 2.873858 0.023475 -0.003089 -325888.000000 0 0 1
2.787363 -6.687743 -31.626537 32.445849 -1.175903 2.916387 0.009712 -0.012953 -221541.000000 0 0 1
3.110263 -5.646943 -32.574637 33.206455 -1.067349 2.946208 0.018936 -0.006134 64860.800000 0 0 1
3.708163 -4.516343 -31.980637 32.510136 -0.883349 2.960863 0.016251 -0.007689 22077.600000 0 0 1
3.585163 -3.359243 -33.047737 33.410939 -0.752877 2.994009 0.014710 -0.008262 -690481.000000 0 0 1
2.286163 -3.048143 -33.443637 33.659985 -0.927284 3.028152 0.020450 -0.003026 -578109.000000 0 0 1
2.426863 -2.323843 34.173447 34.338235 -0.763717 0.098008 0.029509 -0.005060 130716.000000 0 0 1
1.976863 -3.063843 32.875647 33.077232 -0.997787 0.110459 0.031321 -0.006905 -11650.500000 0 0 1
0.576463 -3.053443 32.759847 32.906890 -1.384202 0.094570 0.036409 -0.010637 -496080.000000 0 0 1
0.155163 -3.450343 31.494247 31.683064 -1.525856 0.109229 0.040912 -0.003308 700610.000000 0 0 1
-1.378537 -3.572143 31.211047 31.445032 1.202492 0.122068 0.038817 -0.012397 912852.000000 0 0 1
-2.083637 -2.341443 30.997247 31.155308 0.843593 0.100773 0.042925 -0.014240 -995637.000000 0 0 1
-3.433237 -2.621943 30.933347 31.233534 0.652208 0.138755 0.023926 -0.011849 -1065930.000000 0 0 1
-4.265937 -1.571143 30.223447 30.563433 0.352884 0.149296 0.030243 -0.005429 -575708.000000 0 0 1
-4.293237 -1.540843 28.799247 29.158235 0.344582 0.157080 0.028332 -0.003653 600296.000000 0 0 1
-5.422337 -0.893643 28.160447 28.691656 0.163339 0.192727 0.015700 -0.008435 830247.000000 0 0 1
-5.781037 0.594957 28.355847 28.945266 -0.102554 0.202152 0.016018 -0.006619 -100858.000000 0 0 1
-6.736537 0.753257 29.375047 30.147002 -0.111354 0.226788 0.022103 -0.003209 -447184.000000 0 0 1
-6.964837 2.124157 29.522147 30.406877 -0.296022 0.241821 0.024400 -0.006057 -251357.000000 0 0 1
-8.417537 2.379857 29.910347 31.163239 -0.275535 0.284522 0.026324 -0.002432 -738488.000000 0 0 1
-9.430837 1.982857 29.060747 30.616979 -0.207234 0.320205 0.009923 0.004290 708874.000000 0 0 1
-10.699837 2.585657 29.454847 31.444557 -0.237108 0.357647 -0.007520 0.006383 1067940.000000 0 0 1
-11.930537 2.018657 28.745547 31.188446 -0.167613 0.398426 -0.009841 0.005819 -237399.000000 0 0 1
-12.045237 0.626057 28.981347 31.391052 -0.051929 0.394378 -0.010958 0.005379 -10614.700000 0 0 1
-12.156237 0.012557 27.692947 30.243571 -0.001033 0.413640 -0.015144 0.005989 -1120980.000000 0 0 1
-12.142237 -1.534243 27.759747 30.337953 0.125690 0.415246 -0.017289 0.004334 371763.000000 0 0 1
-10.861737 -2.101243 28.065347 30.167139 0.191093 0.375489 -0.012603 0.002692 825585.000000 0 0 1
-9.798737 -1.918743 27.156847 28.934256 0.193369 0.352331 -0.007853 -0.000956 -515837.000000 0 0 1
-9.862637 -2.793743 25.906647 27.860922 0.276034 0.376775 -0.007758 0.000380 -224460.000000 0 0 1
-10.900837 -2.372043 25.015547 27.390371 0.214262 0.419489 -0.009080 0.003131 380266.000000 0 0 1
-10.757537 -3.007343 23.781547 26.274145 0.272598 0.439108 -0.004058 0.002293 -445395.000000 0 0 1
-9.759237 -2.423043 22.769847 24.891359 0.243361 0.415860 0.009208 -0.001235 1068510.000000 0 1 0
-8.394537 -2.646543 23.185547 24.800041 0.305406 0.362820 0.011846 -0.003205 192278.000000 0 1 0
-7.527037 -2.347843 22.135347 23.497707 0.302358 0.342192 0.006182 -0.007378 -120049.000000 0 1 0
-6.024237 -2.360543 22.544947 23.455026 0.373453 0.279480 0.017486 -0.007036 277464.000000 0 1 0
-5.399137 -3.605143 22.493347 23.411501 0.588735 0.280988 0.020538 -0.007487 -187699.000000 0 1 0
-5.824537 -4.523943 23.462247 24.594071 0.660374 0.304557 0.021783 -0.003502 -398154.000000 0 1 0
-5.431137 -6.011043 23.133747 24.511225 0.836036 0.336845 0.013823 -0.004242 -66502.300000 0 1 0
-6.274437 -6.644443 22.187947 23.996295 0.814031 0.390706 0.014978 -0.010005 11545.100000 0 1 0
-5.978037 -6.242443 20.871247 22.590130 0.807031 0.392619 0.022513 -0.013446 -598854.000000 0 1 0
-7.136237 -6.332843 19.876147 22.047494 0.725821 0.447539 0.024372 -0.012860 -109992.000000 0 1 0
-8.124737 -5.350343 20.179347 22.401865 0.582345 0.449214 0.019413 -0.011731 281653.000000 0 1 0
-8.995837 -5.101443 19.061347 21.686050 0.515869 0.497102 0.017548 -0.012533 723235.000000 0 1 0
-9.789037 -3.773643 19.128847 21.816930 0.367942 0.501652 0.014901 -0.013926 -68247.300000 0 1 0
-8.876337 -2.736843 19.064647 21.207084 0.299082 0.453372 0.017425 -0.005103 -259315.000000 0 1 0
-9.468837 -1.482343 18.967447 21.251359 0.155289 0.467875 0.010714 -0.008070 251939.000000 0 1 0
-8.358137 -0.498143 18.429347 20.242219 0.059529 0.426447 0.000332 -0.005357 710972.000000 0 1 0
-7.386337 -0.138143 19.426047 20.783367 0.018700 0.363405 0.008642 0.005007 336932.000000 0 1 0
-7.778637 0.666757 20.541547 21.975143 -0.085507 0.363205 0.014612 0.005911 -529268.000000 0 1 0
-7.713337 2.186757 20.308647 21.833887 -0.276254 0.375993 0.002709 -0.001328 -119966.000000 0 1 0
-8.529137 2.567257 19.244247 21.205613 -0.292372 0.433486 -0.005256 -0.011326 -40388.600000 0 1 0
-8.216337 3.897057 18.951147 21.020019 -0.442882 0.447397 -0.007849 -0.009939 -18860.500000 0 1 0
-9.173737 4.497557 17.900847 20.611302 -0.455829 0.518635 -0.002922 0.000583 -613398.000000 0 1 0
-10.441937 4.717157 18.451447 21.719611 -0.424309 0.555704 -0.003117 0.012284 -202628.000000 0 1 0
-11.372337 5.152057 17.444447 21.451864 -0.425374 0.621183 0.006621 0.027125 212365.000000 0 1 0
-11.474837 6.690057 17.230247 21.755692 -0.527840 0.656738 0.001917 0.022390 -1333710.000000 0 1 0
-10.289737 7.319057 16.903647 21.099302 -0.618267 0.641587 0.000146 0.013277 -574685.000000 0 1 0
-10.452337 8.696157 16.621547 21.474411 -0.693940 0.685636 -0.003612 0.001340 -52001.000000 0 1 0
-9.104637 9.425757 16.754147 21.270654 -0.802726 0.663787 -0.007978 0.004042 136175.000000 0 1 0
-8.683837 9.740357 18.110947 22.322410 -0.842680 0.624365 0.005693 0.015949 -81362.800000 0 1 0
-7.938837 10.917357 18.278247 22.722414 -0.942063 0.636107 0.021002 0.009248 -222335.000000 0 1 0
-8.615337 12.227457 17.894547 23.322726 -0.956997 0.696242 0.025920 0.009162 -82418.200000 0 1 0
-8.354637 12.483357 16.566747 22.362720 -0.980999 0.736506 0.007204 -0.001623 -153002.000000 0 1 0
-9.212737 13.505757 16.150647 22.980935 -0.972162 0.791492 0.020031 -0.011847 -386147.000000 0 1 0
-8.905137 13.990357 14.732547 22.182865 -1.003956 0.844452 0.012252 -0.011720 112411.000000 0 1 0
-7.697437 14.708557 14.680447 22.160950 -1.088659 0.846716 0.015436 -0.005301 -317372.000000 0 1 0
-7.568837 15.215657 13.406447 21.645700 -1.109201 0.902871 0.006619 -0.011025 -42330.700000 0 1 0
-6.626237 16.422957 13.359847 22.183463 -1.187299 0.924488 -0.005595 -0.003748 1334960.000000 0 1 0
-5.265337 16.189857 13.806947 21.919558 -1.256361 0.889383 0.002813 -0.002987 1029870.000000 0 1 0
-4.404737 17.321257 13.626847 22.474844 -1.321778 0.919377 0.002469 -0.002608 186607.000000 0 1 0
-2.976837 16.845157 13.324347 21.683152 -1.395884 0.909041 0.012537 -0.019042 -221235.000000 0 1 0
-2.148337 16.429457 14.420447 21.965693 -1.440773 0.854629 0.018978 -0.016251 -81265.600000 0 1 0
-2.440337 15.198857 15.028647 21.513268 -1.411595 0.797391 0.023442 -0.005728 -326100.000000 0 1 0
-1.418437 14.670457 16.064947 21.801761 -1.474409 0.742376 0.015519 -0.002833 377606.000000 0 1 0
-0.153737 14.319157 15.505647 21.106562 -1.560060 0.745666 -0.001948 -0.017060 259150.000000 0 1 0
0.744663 13.811057 16.497547 21.528327 1.516931 0.697706 0.003851 -0.004506 789164.000000 0 1 0
1.746463 14.830857 17.150147 22.740536 1.453577 0.716413 0.011004 -0.005019 461084.000000 0 1 0
1.004363 15.683557 17.986247 23.884886 1.506844 0.718128 0.004754 -0.008704 430469.000000 0 1 0
1.916163 16.539857 18.697647 25.036784 1.455459 0.727548 0.023314 -0.010553 368833.000000 0 0 1
1.139063 17.777457 19.258947 26.234375 1.506810 0.746440 0.024098 -0.005507 414342.000000 0 0 1
0.610263 18.656057 18.272447 26.120934 1.538097 0.796053 0.012666 -0.004222 -573515.000000 0 0 1
-0.647537 18.271457 17.814847 25.527127 -1.535371 0.798364 0.016606 -0.002147 -1077310.000000 0 0 1
-1.194237 19.277057 16.806947 25.602824 -1.508924 0.854695 0.014592 0.000660 -202318.000000 0 0 1
-1.722437 20.447657 17.431647 26.924631 -1.486758 0.866597 0.014368 0.010961 315113.000000 0 0 1
-2.545937 21.214657 16.534147 27.017059 -1.451359 0.912223 0.012521 0.007742 -40912.100000 0 0 1
-3.058137 22.423957 17.313747 28.494769 -1.435254 0.917747 0.006112 0.017603 -231072.000000 0 0 1
-4.139237 22.108957 18.171047 28.915847 -1.385719 0.891287 0.004931 0.016043 -49257.100000 0 0 1
-4.434737 23.202757 18.973647 30.299077 -1.381944 0.894111 0.000186 0.021985 23719.000000 0 0 1
-5.584437 22.874057 19.989347 30.886605 -1.331342 0.866910 -0.001775 0.017985 349678.000000 0 0 1
-6.847237 22.800057 19.368747 30.689992 -1.279049 0.887814 0.001008 0.010233 56639.100000 0 0 1
-7.845237 22.346957 20.296747 31.191219 -1.233173 0.862264 0.006682 0.004593 665863.000000 0 0 1
-9.306837 22.693357 19.933247 31.606012 -1.181602 0.888369 0.012639 -0.002294 184864.000000 0 0 1
-9.560737 24.091857 19.978447 32.725580 -1.193013 0.914125 0.018797 -0.001821 -1027990.000000 0 0 1
-10.708437 24.312257 19.264847 32.816014 -1.155909 0.943379 0.019798 -0.005963 -803065.000000 0 0 1
-11.336637 25.712357 19.500747 34.204148 -1.155534 0.964135 0.026651 -0.007660 -193982.000000 0 0 1
-12.121137 25.787357 20.643047 35.185865 -1.131401 0.943836 0.031690 -0.008965 -147386.000000 0 0 1
-12.565437 27.136557 20.739247 36.392297 -1.137148 0.964436 0.044349 -0.012594 -221991.000000 0 0 1
-13.312737 27.339957 22.077747 37.578306 -1.117657 0.942814 0.044948 -0.018800 -715919.000000 0 0 1
-14.549637 26.744157 22.262047 37.716582 -1.072548 0.939433 0.044375 -0.016128 -532101.000000 0 0 1
-15.066037 26.838957 23.590647 38.779295 -1.059281 0.916840 0.034768 -0.004142 822788.000000 0 0 1
-16.623437 26.666657 23.576147 39.284653 -1.013363 0.927125 0.037754 -0.005074 810022.000000 0 0 1
-17.127037 25.426957 23.113247 38.393850 -0.978024 0.924788 0.035164 -0.004171 -1109280.000000 0 0 1
-18.496537 25.262757 23.148147 38.937969 -0.938807 0.934168 0.039779 0.003662 -849960.000000 0 0 1
26.154663 23.550857 23.649330 42.402831 0.733061 0.979148 0.025132 -0.002530 -132281.000000 0 0 1
25.881463 23.131457 24.956300 42.751974 0.729349 0.947461 0.039377 -0.023596 284867.000000 0 0 1
25.780263 21.703057 25.020490 41.972247 0.699742 0.932137 0.046919 -0.010138 -172270.000000 0 0 1
25.432163 21.279057 26.441640 42.411714 0.696721 0.897647 0.049737 -0.014991 -281640.000000 0 0 1
24.209363 21.649457 27.001590 42.235981 0.729635 0.877205 0.044471 -0.004079 -421784.000000 0 0 1
23.994063 21.161857 28.307570 42.718354 0.722760 0.846437 0.044002 -0.010171 510247.000000 0 0 1
22.611063 21.669657 28.843920 42.577059 0.764141 0.826503 0.047464 -0.007807 165089.000000 0 0 1
22.551963 23.091557 28.984340 43.380906 0.797220 0.839096 0.058066 -0.023626 -208257.000000 0 0 1
21.477263 23.466557 29.803380 43.591210 0.829631 0.817973 0.078386 -0.023590 -192762.000000 0 0 1
21.323763 24.977857 30.062800 44.523793 0.864154 0.829550 0.069011 -0.021412 -672960.000000 0 0 1
20.684663 25.705657 29.041630 43.955117 0.893212 0.849031 0.048574 -0.028800 -29844.100000 0 0 1
20.208363 26.933657 29.532030 44.787728 0.927102 0.850806 0.046359 -0.027202 -653276.000000 0 0 1
18.905163 26.928257 30.315670 44.738977 0.958691 0.826286 0.054314 -0.027251 -2854320.000000 0 0 1
17.827163 26.812057 29.478500 43.654050 0.984022 0.829458 0.056082 -0.021878 -301358.000000 0 0 1
16.608163 27.018257 30.225690 43.811067 1.019637 0.809432 0.048941 -0.019444 904033.000000 0 0 1
16.050263 25.817257 31.092860 43.484568 1.014583 0.774126 0.011567 -0.008163 -696095.000000 0 0 1
16.770363 25.544757 32.245250 44.424496 0.989859 0.758536 0.024644 -0.012437 -361602.000000 0 0 1
15.877163 24.934657 33.118225 44.391871 1.003792 0.728697 -0.012102 -0.005083 -429284.000000 0 0 1
16.416463 24.479357 -34.348559 45.261050 0.980059 2.432417 0.009979 -0.008542 -411354.000000 0 0 1
16.730363 25.488657 -33.485993 45.286735 0.989946 2.403007 0.019184 -0.001955 -95347.600000 0 0 1
17.049463 25.026657 -32.198293 44.201220 0.972764 2.386850 0.011411 0.007490 -94782.700000 0 0 1
17.361263 26.232057 -31.316763 44.387767 0.986147 2.353963 0.022736 0.011325 -142150.000000 0 0 1
16.229863 27.092557 -31.214003 44.404156 1.031074 2.350336 0.020241 -0.003646 325397.000000 0 0 1
16.457563 28.272557 -30.492573 44.721201 1.043640 2.321067 0.026367 -0.007965 -261028.000000 0 0 1
15.880163 28.410457 -29.031903 43.614046 1.061104 2.299167 0.038993 -0.005847 -165428.000000 0 0 1
16.554263 27.672057 -28.014763 42.715492 1.031679 2.286098 0.037354 0.006335 275694.000000 0 0 1
16.195163 28.147057 -26.735513 42.063378 1.048679 2.259583 0.025636 0.013002 -562344.000000 0 0 1
16.895363 27.359557 -25.665443 41.142601 1.017586 2.244413 0.023144 0.011110 254323.000000 0 0 1
18.288963 27.671657 -25.778993 42.009085 0.986777 2.231475 0.030064 0.014922 36595.500000 0 0 1
18.951063 27.016357 -24.726953 41.236495 0.959087 2.213845 0.035057 0.009113 343302.000000 0 0 1
20.503663 27.026257 -24.794053 42.018613 0.921778 2.201946 0.033733 0.015484 674661.000000 0 0 1
21.085863 26.508457 -23.594953 41.279943 0.898843 2.179231 0.023605 0.021283 600045.000000 0 0 1
22.504563 26.670957 -23.502253 42.073165 0.869921 2.163499 0.035859 0.020180 835255.000000 0 0 1
23.091163 26.516057 -22.104953 41.532301 0.854329 2.132035 0.039772 0.016697 75035.400000 0 0 1
22.901563 25.167157 -21.667053 40.340160 0.832496 2.137802 0.043046 0.015466 85467.900000 0 0 1
23.322163 25.099657 -20.378253 39.864636 0.822090 2.107361 0.039207 0.005176 -468940.000000 0 0 1
22.783663 23.871057 -19.585453 38.373332 0.808701 2.106437 0.038219 -0.002312 -170282.000000 0 0 1
23.415563 22.625757 -19.968253 38.196133 0.768246 2.120908 0.046428 -0.000827 462323.000000 0 0 1
23.414763 21.732457 -18.893653 37.114969 0.748153 2.104886 0.057338 -0.000735 -1079790.000000 0 0 1
23.447663 20.222757 -19.317753 36.495594 0.711685 2.128592 0.070866 -0.008417 401585.000000 0 0 1
22.346163 19.696157 -20.047153 35.905124 0.722450 2.163176 0.047162 -0.010692 -502777.000000 0 0 1
21.084363 19.866657 -19.500653 34.921482 0.755671 2.163269 0.044247 -0.018937 -1643070.000000 0 0 1
19.997963 19.656257 -20.568553 34.775743 0.776781 2.203668 0.047353 -0.013000 -320867.000000 0 0 1
19.967363 20.436057 -21.752653 35.909691 0.796998 2.221517 0.046838 -0.013215 -102771.000000 0 0 1
19.822363 21.835657 -21.489353 36.489920 0.833690 2.200508 0.042931 -0.008120 -136323.000000 0 0 1
19.555463 22.625057 -22.803953 37.607574 0.858043 2.222279 0.046525 0.007232 -69903.700000 0 0 1
18.246663 22.525257 -23.291053 37.186033 0.889955 2.247644 0.048674 -0.009187 -595768.000000 0 0 1
18.165663 23.162957 -24.555253 38.333723 0.905730 2.266031 0.040443 -0.004464 1222100.000000 0 0 1
16.648963 23.334457 -24.976553 38.019903 0.951072 2.287541 0.035386 -0.008275 862848.000000 0 0 1
15.937263 24.238657 -24.165753 37.755694 0.989157 2.265367 0.025738 -0.003510 95695.800000 0 0 1
14.577863 24.108557 -24.589653 37.395021 1.026946 2.288378 0.018277 -0.006340 88013.500000 0 0 1
13.680863 25.023957 -23.788553 37.138385 1.070482 2.265995 0.010782 -0.002648 -508578.000000 0 0 1
13.903663 26.359757 -24.126953 38.343950 1.085424 2.251351 0.006291 -0.001812 501678.000000 0 0 1
12.767763 27.181057 -23.832053 38.337871 1.131656 2.241621 0.020553 -0.000645 396853.000000 0 0 1
12.930863 28.573057 -24.485253 39.788873 1.145820 2.233664 0.022175 -0.008025 69843.500000 0 0 1
12.842063 28.620957 -25.893073 40.675902 1.149029 2.260839 0.015207 -0.010905 -160767.000000 0 0 1
12.358963 29.845657 -26.474463 41.766067 1.178198 2.257349 0.026924 -0.007878 22434.400000 0 0 1
13.150663 31.193757 -26.313143 42.876239 1.171826 2.231535 0.044776 -0.011365 -753416.000000 0 0 1
14.390463 31.192557 -26.905683 43.634583 1.138550 2.235230 0.034553 -0.008037 -910295.000000 0 0 1
14.984663 32.505557 -27.020063 44.846796 1.138843 2.217422 0.034605 -0.008585 156637.000000 0 0 1
16.375963 32.381657 -27.673373 45.635068 1.102585 2.222329 0.032339 0.006820 -298378.000000 0 0 1
17.386563 32.053057 -26.741963 45.219726 1.073783 2.203563 0.021713 0.013215 -84895.100000 0 0 1
18.599763 31.764957 -27.421443 45.900972 1.041074 2.211057 0.021101 0.014809 -181861.000000 0 0 1
19.639563 31.091957 -26.493313 45.324583 1.007422 2.195090 0.013590 0.020686 -690672.000000 0 0 1
20.160963 31.823257 -25.420173 45.446334 1.006087 2.164392 0.020381 0.018635 184315.000000 0 0 1
21.022863 32.907957 -25.739303 46.769713 1.002308 2.153569 0.020441 0.008787 -335577.000000 0 0 1
22.425463 32.659657 -26.304793 47.555196 0.969092 2.156928 0.024362 0.015763 -621785.000000 0 0 1
22.372363 32.017557 -27.592633 47.822588 0.960908 2.185822 0.017011 0.022107 382646.000000 0 0 1
23.681263 31.858257 -28.139703 48.657924 0.931576 2.187460 0.013467 0.020267 88014.100000 0 0 1
23.515163 31.237057 -29.533403 48.999372 0.925508 2.217715 0.000885 0.022512 591683.000000 0 0 1
22.687163 31.946557 -30.495753 49.651594 0.953284 2.232162 0.011156 0.012132 870625.000000 0 0 1
21.327763 31.542957 -30.493533 48.782037 0.976257 2.246053 0.010857 0.010539 -520308.000000 0 0 1
20.369063 32.330357 -31.308023 49.399828 1.008589 2.257211 0.011517 0.009876 -1180820.000000 0 0 1
19.822963 33.486857 -30.697553 49.564697 1.036308 2.238702 0.021345 0.005409 -69626.900000 0 0 1
18.898363 34.201757 -31.462643 50.167780 1.065993 2.248683 0.021075 -0.001761 333155.000000 0 0 1
17.408863 33.725057 -31.363833 49.235536 1.094273 2.261418 0.025815 -0.004955 96626.500000 0 0 1
17.150063 32.383057 -31.837903 48.543167 1.083750 2.286128 0.028536 -0.006377 51900.700000 0 0 1
17.237263 32.059157 -33.190863 49.259985 1.077468 2.310122 0.032496 -0.011490 -569299.000000 0 0 1
16.590263 32.972357 -34.264538 50.363396 1.104627 2.319031 0.033829 -0.011213 -491009.000000 0 0 1
17.245563 34.194657 34.301454 51.412778 1.103687 0.840383 0.030541 -0.006647 29614.800000 0 0 1
16.820163 -34.210797 33.074404 50.469919 -1.113841 0.856178 0.027976 -0.009717 -144460.000000 0 0 1
15.388363 -33.661897 32.914318 49.530570 -1.142017 0.843938 0.033429 -0.008062 -231287.000000 0 0 1
14.423863 34.234957 32.816682 49.568283 1.172047 0.847246 0.029165 -0.007907 767932.000000 0 0 1
13.083763 -34.245197 32.568740 49.037141 -1.205849 0.844420 0.021803 -0.007833 801280.000000 0 0 1
12.769363 -33.777297 31.097390 47.655116 -1.209358 0.859850 0.017164 -0.002851 -805467.000000 0 0 1
13.364263 -32.490497 30.801630 46.722332 -1.180562 0.850977 0.030597 -0.004193 209779.000000 0 0 1
12.777363 -31.856697 29.703470 45.391698 -1.189352 0.857432 0.030643 -0.004600 -263132.000000 0 0 1
13.240663 -30.435597 29.430290 44.359697 -1.160454 0.845381 0.027025 -0.011195 -390818.000000 0 0 1
12.570263 -29.531697 30.234790 44.093936 -1.168373 0.815244 0.032268 -0.011506 67146.300000 0 0 1
13.127863 -28.213797 30.155960 43.332909 -1.135293 0.801105 0.038580 -0.017385 -265377.000000 0 0 1
12.657563 -27.328897 31.312820 43.446233 -1.137055 0.765948 0.021912 -0.008212 223987.000000 0 0 1
11.370463 -26.792597 31.035340 42.547891 -1.169444 0.753321 0.007687 -0.008178 125241.000000 0 0 1
11.317763 -25.506197 30.326700 41.211243 -1.153172 0.743825 0.007832 -0.000207 -222808.000000 0 0 1
11.695163 -24.260797 31.181740 41.202719 -1.121603 0.712411 0.018864 -0.009944 -341014.000000 0 0 1
10.729863 -24.039597 32.171020 41.569300 -1.150989 0.685800 0.008482 -0.009170 -126123.000000 0 0 1
10.998863 -22.868397 32.909920 41.557206 -1.122494 0.656852 0.007419 -0.007443 -326410.000000 0 0 1
9.943663 -22.393297 33.919746 41.843582 -1.152904 0.625566 0.003411 -0.005022 -705790.000000 0 0 1
9.768163 -23.107297 -33.637973 41.962810 -1.170849 2.500786 -0.005165 0.004991 356883.000000 0 0 1
10.897663 -23.210497 -32.763073 41.604149 -1.131833 2.477531 0.009118 -0.001428 335326.000000 0 0 1
11.470263 -21.880297 -32.156443 40.550600 -1.087955 2.486507 0.012961 -0.014006 50707.800000 0 0 1
12.020463 -20.942697 -33.122163 40.989825 -1.049737 2.511645 0.005819 -0.008082 -148774.000000 0 0 1
12.967063 -20.105097 -32.553893 40.399450 -0.997970 2.507822 0.015797 -0.020738 -549192.000000 0 0 1
13.303163 -18.999997 -33.529943 40.770469 -0.959959 2.536427 0.007990 -0.012705 -630816.000000 0 0 1
14.015263 -19.387497 34.126554 41.676424 -0.944865 0.611399 0.026896 -0.005981 253159.000000 0 0 1
13.899463 -18.428397 33.054714 40.316436 -0.924586 0.609592 0.007103 -0.002318 -72046.600000 0 0 1
14.928363 -17.286997 33.044969 40.170465 -0.858482 0.604795 0.023157 -0.004188 -880874.000000 0 0 1
14.554763 -16.294697 34.005175 40.419181 -0.841739 0.571089 0.020834 -0.006395 478784.000000 0 0 1
15.302663 -15.091697 33.882950 40.124620 -0.778457 0.565272 0.037527 -0.007712 -754112.000000 0 0 1
16.798663 -15.155197 34.209610 41.014296 -0.734011 0.584315 0.045938 0.000896 -734258.000000 0 0 1
17.561263 -15.599697 33.118008 40.602352 -0.726314 0.616915 0.062187 -0.007988 1000930.000000 0 0 1
18.942263 -15.846497 33.486839 41.608763 -0.696644 0.635454 0.079057 -0.002028 1133160.000000 0 0 1
19.807063 -16.460197 32.349850 41.349373 -0.693375 0.672360 0.102110 -0.009481 -214777.000000 0 0 1
20.120463 -15.616297 31.243160 40.309265 -0.660022 0.683945 0.082079 -0.005613 890552.000000 0 0 1
20.837563 -16.430997 30.244440 40.235654 -0.667706 0.720187 0.073282 -0.008020 125782.000000 0 0 1
21.081863 -15.791497 28.878820 39.087115 -0.642897 0.739460 0.058821 0.002438 -261492.000000 0 0 1
22.061163 -14.788397 28.994270 39.319960 -0.590539 0.741593 0.034521 0.006750 269196.000000 0 0 1
22.267663 -13.966097 27.856510 38.299945 -0.560174 0.756380 0.032556 -0.001516 -234704.000000 0 0 1
23.092263 -12.721697 28.033480 38.483375 -0.503540 0.754729 0.020040 0.000590 -106314.000000 0 0 1
22.252263 -11.620397 28.340300 37.859866 -0.481259 0.724912 0.027147 -0.003493 285168.000000 0 0 1
23.017463 -10.484097 28.678250 38.238226 -0.427405 0.722751 0.014837 0.003978 -61744.000000 0 0 1
22.275263 -9.133897 28.643960 37.417801 -0.389137 0.698952 0.029018 -0.003717 16277.400000 0 0 1
21.288063 -9.049097 29.651600 37.606983 -0.401937 0.662495 0.039660 -0.011067 109856.000000 0 0 1
20.456163 -7.902497 29.510250 36.766274 -0.368652 0.639080 0.049945 -0.016189 937440.000000 0 0 1
19.238963 -7.792497 30.511800 36.902990 -0.384841 0.597382 0.032484 -0.004121 699814.000000 0 0 1
19.617563 -7.487697 31.874990 38.169744 -0.364617 0.582509 0.028372 -0.008634 112328.000000 0 0 1
19.733463 -8.630997 32.707330 39.162139 -0.412309 0.582341 0.041717 -0.015494 -269574.000000 0 0 1
19.810963 -8.179497 34.206955 40.366994 -0.391558 0.559729 0.039731 -0.023641 -552364.000000 0 0 1
18.649263 -7.650297 -34.027233 39.549648 -0.389285 2.606787 0.027579 -0.024983 -312338.000000 0 0 1
18.854363 -7.070397 -32.752573 38.447478 -0.358771 2.590358 0.020157 -0.030974 98341.100000 0 0 1
17.526163 -6.540397 -32.152903 37.198822 -0.357173 2.614658 0.024566 -0.028055 103015.000000 0 0 1
17.703063 -5.860597 -30.954293 36.137422 -0.319694 2.599385 0.012733 -0.026278 266681.000000 0 0 1
16.499863 -5.576697 -30.251373 34.906885 -0.325931 2.619205 0.014065 -0.016625 222745.000000 0 0 1
16.706863 -4.478397 -29.117433 33.867392 -0.261900 2.605573 0.000520 -0.012352 -254836.000000 0 0 1
17.440063 -4.831497 -27.962063 33.307298 -0.270257 2.567191 -0.003107 -0.010122 222347.000000 0 0 1
16.864863 -5.838397 -27.062423 32.417360 -0.333274 2.558589 -0.004711 -0.007434 644449.000000 0 0 1
15.470163 -5.607397 -26.389933 31.099798 -0.347736 2.584047 0.008183 -0.004186 444621.000000 0 0 1
15.482863 -4.594897 -25.437523 30.131374 -0.288494 2.575906 -0.014015 0.002516 -393445.000000 0 0 1
14.312063 -4.584297 -24.659253 28.877841 -0.309984 2.594261 0.012147 0.000351 -308635.000000 0 0 1
14.247963 -3.400697 -23.650353 27.819209 -0.234296 2.587056 0.010095 0.000023 11901.200000 0 0 1
14.304963 -2.163697 -24.350053 28.323817 -0.150117 2.605483 0.007664 -0.009691 62699.900000 0 0 1
14.012263 -1.061697 -23.552153 27.425802 -0.075625 2.603639 0.013755 -0.009315 -168460.000000 0 0 1
14.269563 0.308303 -24.258153 28.145576 0.021602 2.609765 0.007836 -0.014174 -645431.000000 0 0 1
13.437063 0.692303 -25.312863 28.666618 0.051476 2.653030 0.033439 -0.018773 -36946.400000 0 0 1
13.870363 2.010303 -25.671773 29.248388 0.143933 2.641871 0.026756 -0.007136 -66436.300000 0 0 1
13.059463 2.610303 -26.829503 29.953055 0.197279 2.680841 0.028054 -0.002367 -1044160.000000 0 0 1
11.800463 2.991303 -26.421403 29.091053 0.248261 2.709834 0.036008 -0.019459 -716680.000000 0 0 1
11.186363 3.715303 -27.495023 29.915121 0.320665 2.736590 0.038857 -0.017358 28018.300000 0 0 1
9.734763 4.224303 -27.415773 29.397874 0.409419 2.772283 0.042415 -0.022715 5032.130000 0 0 1
9.558263 5.345303 -26.613493 28.778650 0.509905 2.751214 0.046099 -0.028106 1132170.000000 0 0 1
8.172463 5.755303 -26.608363 28.423892 0.613560 2.782246 0.066809 -0.026636 618050.000000 0 0 1
8.026463 4.772057 -31.409673 32.768341 0.536395 2.852620 0.042870 -0.017190 28184.200000 0 0 1
7.604163 3.840757 -30.388433 31.559968 0.467708 2.868269 0.042733 -0.009817 547146.000000 0 0 1
7.652363 2.513257 -30.888303 31.921190 0.317330 2.886511 0.029302 -0.007181 -185421.000000 0 0 1
7.537163 1.470457 -29.778973 30.753184 0.192674 2.889216 0.034394 -0.006702 -734201.000000 0 0 1
8.709763 1.341057 -29.057363 30.364268 0.152772 2.847133 0.050722 -0.013833 -423667.000000 0 0 1
8.543863 0.409057 -28.036303 29.312100 0.047841 2.845471 0.055968 -0.017354 -869988.000000 0 0 1
9.734463 0.239657 -27.119663 28.814811 0.024614 2.796875 0.053201 -0.024437 -586516.000000 0 0 1
10.766263 -0.359043 -27.889353 29.897447 -0.033337 2.772996 0.035613 -0.012619 -269277.000000 0 0 1
11.660263 -1.037043 -27.035343 29.460940 -0.088705 2.732966 0.034791 -0.011446 -483669.000000 0 0 1
12.406663 -2.096643 -27.795233 30.510591 -0.167412 2.716505 0.031339 -0.011550 52791.500000 0 0 1
11.594363 -3.266743 -28.085133 30.559378 -0.274633 2.736421 0.046590 -0.017207 871726.000000 0 0 1
12.339263 -4.371143 -28.692063 31.537260 -0.340453 2.713557 0.048271 -0.016087 224838.000000 0 0 1
11.875363 -5.709443 -28.096443 31.032759 -0.448154 2.703070 0.045163 -0.000219 -27584.700000 0 0 1
12.055263 -5.785843 -26.673153 29.837266 -0.447474 2.676889 0.045903 -0.002517 -1762.320000 0 0 1
11.730663 -7.066843 -26.137433 29.507866 -0.542201 2.658965 0.052768 -0.001767 -46966.100000 0 0 1
11.174063 -6.941143 -24.666953 27.955281 -0.555850 2.651676 0.054238 0.000189 506646.000000 0 0 1
12.145363 -6.735443 -23.617253 27.398005 -0.506344 2.610011 0.014609 0.008027 253265.000000 0 0 1
11.544963 -6.628243 -22.363953 26.026259 -0.521176 2.604665 0.019138 0.002886 557186.000000 0 0 1
12.624263 -6.547043 -21.215053 25.540444 -0.478423 2.551062 0.012275 -0.003680 877697.000000 0 0 1
13.394063 -5.366143 -21.126453 25.583656 -0.381055 2.542379 -0.001682 -0.001931 251134.000000 0 0 1
14.417163 -5.495943 -20.129053 25.362152 -0.364203 2.487606 -0.011736 -0.001451 283793.000000 0 0 1
14.891563 -4.175943 -19.640853 24.999205 -0.273401 2.474557 -0.010724 0.002704 40956.500000 0 1 0
15.747363 -3.476643 -20.567353 26.135847 -0.217291 2.476631 -0.011758 0.003353 639429.000000 0 0 1
16.227063 -2.234143 -19.972953 25.830753 -0.136820 2.454706 -0.005626 0.003708 -62198.900000 0 0 1
17.041263 -1.421643 -20.990853 27.074741 -0.083231 2.457975 -0.012472 0.001274 -146190.000000 0 0 1
18.304563 -2.023643 -21.173653 28.061998 -0.110107 2.425736 -0.000732 -0.007159 -374589.000000 0 0 1
19.055863 -1.302143 -22.096053 29.207140 -0.068227 2.428786 0.002366 -0.003621 45470.700000 0 0 1
20.504063 -1.857143 -22.217753 30.290165 -0.090328 2.394249 -0.000463 -0.007411 -508905.000000 0 0 1
21.354063 -1.511143 -21.119653 30.071902 -0.070648 2.349427 0.004739 -0.009575 632605.000000 0 0 1
22.607163 -2.197943 -21.188553 31.062349 -0.096919 2.321468 -0.007473 -0.007626 577145.000000 0 0 1
23.651563 -1.551743 -22.142553 32.436045 -0.065515 2.322183 0.008460 -0.013960 -1220460.000000 0 0 1
23.277463 -1.587843 -23.547053 33.148533 -0.068108 2.360791 0.013589 -0.016056 -17999.900000 0 0 1
24.183863 -0.986543 -24.452753 34.405953 -0.040771 2.361307 0.009349 -0.008219 -741336.000000 0 0 1
25.341763 -1.842743 -24.848353 35.539292 -0.072588 2.345046 0.008028 -0.017204 -1995290.000000 0 0 1
26.270363 -2.098643 -23.846153 35.541177 -0.079717 2.306278 0.011464 -0.010387 596318.000000 0 0 1
27.449463 -2.799843 -24.342553 36.795000 -0.101648 2.293710 -0.003776 0.002803 1271910.000000 0 0 1
28.528663 -1.909643 -25.004853 37.983865 -0.066838 2.289357 -0.005828 -0.003666 -1003290.000000 0 0 1
28.066563 -1.439543 -26.223163 38.437723 -0.051245 2.321597 -0.000015 -0.006960 190293.000000 0 0 1
28.855163 -0.391643 -26.775143 39.366002 -0.013572 2.318776 0.002374 -0.009730 -762815.000000 0 0 1
28.283063 -0.012043 -28.156783 39.909099 -0.000426 2.353957 0.008828 -0.007254 1015130.000000 0 0 1
26.911963 0.423757 -28.209903 38.990152 0.015745 2.379675 0.014241 -0.000864 855920.000000 0 0 1
26.577463 1.613957 -27.523303 38.294890 0.060652 2.372756 0.011453 0.006845 -451964.000000 0 0 1
25.084763 1.895857 -27.790913 37.485657 0.075435 2.405913 0.011767 -0.004075 207404.000000 0 0 1
24.114363 1.286857 -26.953913 36.189390 0.053314 2.411034 0.013365 -0.010250 325247.000000 0 0 1
22.801863 1.622057 -27.378163 35.666789 0.071017 2.445899 0.022085 -0.006904 137544.000000 0 0 1
21.763263 1.268357 -26.302673 34.162537 0.058214 2.449524 0.030793 -0.010754 -237380.000000 0 0 1
21.964163 2.105357 -25.175043 33.475958 0.095562 2.421938 0.034486 -0.011541 382305.000000 0 0 1
21.112863 1.695857 -24.141153 32.115793 0.080151 2.421419 0.026224 -0.004709 -31448.800000 0 0 1
21.572563 2.442057 -22.830653 31.505203 0.112722 2.381341 0.019079 -0.006626 -499916.000000 0 0 1
21.277863 3.793657 -22.884253 31.477425 0.176437 2.384747 0.040602 -0.015192 259470.000000 0 0 1
21.378963 4.321157 -21.539153 30.653997 0.199435 2.349917 0.037638 -0.018200 -325929.000000 0 0 1
20.730863 5.693557 -21.212153 30.201667 0.268033 2.349490 0.042269 -0.012088 -162859.000000 0 0 1
21.428263 6.787557 -21.784453 31.301817 0.306759 2.340536 0.033089 -0.007881 304068.000000 0 0 1
21.092463 8.081457 -21.242953 31.007499 0.365892 2.325525 0.030586 -0.006697 -326823.000000 0 0 1
21.560063 8.394657 -19.811053 30.459553 0.371302 2.278914 0.023031 -0.002027 -1012090.000000 0 0 1
22.928163 8.627257 -19.679553 31.423160 0.359887 2.247563 0.017756 0.005391 -324726.000000 0 0 1
23.275963 8.941657 -18.340153 30.952946 0.366776 2.204976 0.025248 -0.003762 -169023.000000 0 0 1
22.896263 10.306457 -17.659153 30.697029 0.422968 2.183733 0.030482 -0.009819 441602.000000 0 0 1
21.520363 10.468857 -17.297053 29.528139 0.452759 2.196641 0.035571 -0.018618 943623.000000 0 0 1
21.114363 11.846557 -17.110853 29.646897 0.511300 2.186037 0.015009 -0.012606 -111850.000000 0 0 1
19.582163 12.115257 -17.049153 28.651600 0.554048 2.208125 0.020683 -0.013442 204685.000000 0 0 1
18.905363 12.016257 -18.245153 28.890981 0.566186 2.254305 0.014953 -0.012245 -176249.000000 0 0 1
18.419363 10.753957 -18.486153 28.225137 0.528452 2.284917 0.020588 -0.011427 -413410.000000 0 0 1
17.736463 10.599957 -19.901053 28.687856 0.538680 2.337424 0.037790 -0.019662 1220270.000000 0 0 1
18.716063 10.606057 -20.982753 30.050880 0.515561 2.343734 0.047906 -0.023743 1090820.000000 0 0 1
17.947663 10.411957 -22.137353 30.341224 0.525680 2.388552 0.039747 -0.024988 153267.000000 0 0 1
18.760863 10.539557 -23.443353 31.822053 0.511846 2.398976 0.048860 -0.023888 -198751.000000 0 0 1
19.159963 11.863757 -23.652253 32.669282 0.554414 2.380366 0.040076 -0.020022 133334.000000 0 0 1
19.785763 12.030757 -24.912253 34.012290 0.546318 2.392708 0.048881 -0.021524 18898.500000 0 0 1
20.017763 13.562257 -25.053653 34.818546 0.595473 2.373949 0.055876 -0.032021 296394.000000 0 0 1
20.758763 14.053657 -26.202333 36.262843 0.595122 2.378305 0.048883 -0.035747 560804.000000 0 0 1
20.696963 15.496057 -26.206553 36.814066 0.642676 2.362943 0.049021 -0.023774 -474685.000000 0 0 1
19.477463 16.099457 -26.874393 36.888983 0.690733 2.386957 0.049329 -0.019699 395521.000000 0 0 1
18.221263 15.834257 -26.243743 35.657708 0.715421 2.397925 0.051586 -0.025487 77034.400000 0 0 1
17.129763 15.915657 -27.097503 35.791222 0.748674 2.429658 0.047421 -0.024637 662358.000000 0 0 1
15.778563 15.316357 -26.548163 34.472580 0.770535 2.449832 0.036522 -0.026428 850244.000000 0 0 1
15.642163 13.893857 -26.622333 33.859491 0.726275 2.475528 0.037184 -0.024731 1460590.000000 0 0 1
14.254163 13.515557 -26.375183 32.886193 0.758807 2.501456 0.020653 -0.023646 1275510.000000 0 0 1
14.133963 11.984057 -26.193443 32.085557 0.703268 2.525881 0.016830 -0.022918 -153644.000000 0 0 1
12.817263 11.562257 -25.940013 31.158503 0.733966 2.554434 0.029692 -0.020070 -112279.000000 0 0 1
12.796963 10.186457 -25.866043 30.603568 0.672301 2.577730 0.038302 -0.028618 1198820.000000 0 0 1
11.350963 9.572157 -25.651243 29.638772 0.700586 2.616869 0.031992 -0.031377 1137410.000000 0 0 1
10.741263 9.768257 -24.413053 28.404062 0.737992 2.605071 0.039302 -0.025718 403461.000000 0 0 1
9.392163 9.333657 -24.295953 27.669897 0.782274 2.642599 0.028307 -0.028905 800734.000000 0 0 1
8.539263 9.886957 -23.086153 26.526240 0.858408 2.626636 0.018058 -0.018098 236291.000000 0 0 1
8.148463 11.219457 -23.347653 27.154863 0.942650 2.605667 0.018679 -0.018866 473279.000000 0 0 1
7.385163 11.969857 -22.356253 26.412500 1.017985 2.580036 0.015973 -0.001040 1085220.000000 0 0 1
8.324663 12.955857 -21.553353 26.489645 0.999683 2.521203 0.014296 -0.006029 624574.000000 0 0 1
9.129663 12.276257 -20.624753 25.679518 0.931349 2.503376 0.020279 -0.013997 -803331.000000 0 0 1
10.055863 13.040557 -19.937853 25.859128 0.913913 2.451235 0.024432 -0.007930 -1001560.000000 0 0 1
11.068563 12.188257 -19.187353 25.282824 0.833506 2.432432 0.027218 -0.014894 -219050.000000 0 0 1
12.069263 11.622757 -20.044953 26.125767 0.766554 2.445336 0.028224 -0.016109 409205.000000 0 0 1
11.585763 10.582957 -20.889853 26.126899 0.740194 2.497348 0.035196 -0.016976 -687633.000000 0 0 1
12.716763 9.951457 -21.750553 27.089373 0.664008 2.502971 0.040198 -0.020962 -199859.000000 0 0 1
13.485363 9.137857 -20.963153 26.548243 0.595543 2.480994 0.054291 -0.029701 -598054.000000 0 0 1
14.309863 8.294357 -21.720553 27.301116 0.525303 2.490781 0.060275 -0.036861 -364674.000000 0 0 1
14.849163 7.186457 -20.858953 26.593960 0.450737 2.472443 0.062465 -0.034013 315419.000000 0 0 1
15.953663 7.596157 -20.031753 26.711273 0.444377 2.418762 0.049912 -0.028373 488945.000000 0 0 1
16.249963 6.414857 -19.299053 26.032002 0.375982 2.405889 0.040436 -0.031525 46362.900000 0 0 1
17.267563 6.708257 -18.159553 25.941064 0.370544 2.346237 0.047304 -0.025495 -543510.000000 0 0 1
18.630063 6.659757 -18.469253 27.065567 0.343317 2.321823 0.051395 -0.040207 -28685.100000 0 0 1
19.383263 7.231457 -17.390853 27.026776 0.357084 2.269816 0.042104 -0.031495 -227694.000000 0 0 1
20.056263 6.280057 -16.385653 26.649248 0.303451 2.233009 0.037435 -0.025078 -332104.000000 0 0 1
21.336363 5.869557 -16.841653 27.808872 0.268456 2.221343 0.036111 -0.027081 541200.000000 0 0 1
21.810863 4.756657 -16.062753 27.501846 0.214724 2.194519 0.048153 -0.030510 -915874.000000 0 0 1
23.083563 4.174357 -16.609853 28.743057 0.178903 2.186917 0.019075 0.005010 -687236.000000 0 0 1
23.670563 3.175857 -15.728253 28.596495 0.133373 2.153168 0.013585 0.006122 376550.000000 0 0 1
24.798063 2.658357 -16.402853 29.850701 0.106792 2.152558 0.019163 -0.005454 140414.000000 0 0 1
25.590463 1.490457 -15.758753 30.090390 0.058177 2.122001 0.036298 -0.015091 -111746.000000 0 0 1
25.025563 0.210557 -16.014453 29.711712 0.008413 2.140039 0.040951 -0.003409 -168393.000000 0 0 1
25.964763 -0.820443 -16.203753 30.617048 -0.031588 2.128500 0.043179 0.000004 -396476.000000 0 0 1
25.301263 -2.176843 -16.361453 30.209099 -0.085826 2.143144 0.022419 -0.006395 -395068.000000 0 0 1
24.859863 -2.759643 -15.157053 29.246618 -0.110555 2.115600 0.028185 -0.001383 322414.000000 0 0 1
24.650863 -4.140343 -15.331153 29.323229 -0.166406 2.120967 0.025803 -0.004301 -1028200.000000 0 0 1
24.223463 -5.015743 -14.115353 28.481170 -0.204176 2.089325 0.019860 -0.001761 136042.000000 0 0 1
22.880463 -4.823743 -13.709653 27.106063 -0.207781 2.101080 0.015162 0.010701 80624.400000 0 0 1
21.970863 -5.484243 -14.532953 26.907294 -0.244616 2.141367 0.012258 0.006864 -718368.000000 0 0 1
20.507763 -5.530643 -14.026753 25.454001 -0.263419 2.154434 0.013021 0.001871 -39413.100000 0 0 1
20.238963 -6.481343 -12.995853 24.910151 -0.309921 2.119649 0.013516 -0.000424 420004.000000 0 1 0
20.418163 -6.097643 -11.669053 24.295049 -0.290207 2.071800 0.019596 -0.000860 -495211.000000 0 1 0
20.250563 -7.266543 -10.691853 24.025063 -0.344521 2.032003 0.028672 -0.005834 -848323.000000 0 1 0
19.035263 -7.953443 -10.608753 23.197934 -0.395779 2.045769 0.040883 -0.010270 185631.000000 0 1 0
18.957963 -9.004243 -11.542653 23.952319 -0.443414 2.073620 0.033835 -0.010984 93910.100000 0 1 0
17.503063 -9.551143 -11.674753 23.105874 -0.499524 2.100494 0.055512 -0.020023 403791.000000 0 1 0
16.549763 -8.576143 -12.026953 22.183158 -0.478104 2.143809 0.047528 -0.011687 -808971.000000 0 1 0
15.354363 -9.139143 -12.433253 21.768468 -0.536894 2.178713 0.043225 -0.010908 214752.000000 0 1 0
14.189763 -8.040043 -12.490953 20.543018 -0.515505 2.224384 0.023517 -0.012499 532027.000000 0 1 0
14.253063 -7.055143 -13.501153 20.861591 -0.459633 2.274673 0.021042 -0.017085 -10207.200000 0 1 0
15.301163 -6.117343 -13.340653 21.201898 -0.380330 2.251345 0.019781 -0.014699 -44351.700000 0 1 0
15.269863 -5.115743 -14.483953 21.659281 -0.323270 2.303280 0.007395 -0.009295 -188449.000000 0 1 0
14.249763 -4.202043 -14.166353 20.527992 -0.286758 2.332423 0.019135 -0.014879 -50941.300000 0 1 0
13.883363 -3.398943 -15.245153 20.897734 -0.240099 2.388405 0.012766 -0.013251 -186419.000000 0 1 0
14.814463 -2.209643 -15.566253 21.602293 -0.148063 2.375440 0.004325 -0.010721 -398965.000000 0 1 0
15.998163 -2.580543 -16.243753 22.944715 -0.159925 2.357390 -0.002519 -0.006529 393072.000000 0 1 0
16.989163 -1.520743 -16.131653 23.477107 -0.089275 2.328318 0.006247 -0.000447 922483.000000 0 1 0
18.114063 -1.934643 -15.134153 23.683427 -0.106400 2.264018 0.011683 -0.000162 -307833.000000 0 1 0
17.590563 -2.076343 -13.795853 22.451384 -0.117494 2.232519 0.010511 0.001859 525865.000000 0 1 0
18.660063 -2.501343 -12.976353 22.865704 -0.133254 2.174266 0.011209 0.008763 -10465.900000 0 1 0
18.272263 -2.728443 -11.514853 21.769516 -0.148226 2.128152 0.017798 0.004038 -432869.000000 0 1 0
18.037663 -1.546343 -10.762553 21.061363 -0.085519 2.107155 0.023252 0.002260 680544.000000 0 1 0
17.572063 -1.888743 -9.486953 20.058590 -0.107074 2.063446 0.024737 0.002224 -1130330.000000 0 1 0
17.636763 -0.723743 -8.474953 19.580706 -0.041013 2.018417 0.026221 0.002466 941876.000000 0 1 0
18.978263 -0.411743 -7.995853 20.598001 -0.021692 1.969459 0.031397 0.006933 2281130.000000 0 1 0
19.919863 0.196457 -8.908253 21.821927 0.009862 1.991305 0.022561 0.011567 -116911.000000 0 1 0
19.616863 1.546157 -9.562153 21.877995 0.078655 2.023132 0.021209 0.003293 -708454.000000 0 1 0
19.369063 2.657357 -8.729853 21.411036 0.136345 1.990759 0.016016 0.004270 663713.000000 0 1 0
18.947263 3.621957 -9.634453 21.562468 0.188881 2.033999 0.018500 -0.000303 -352717.000000 0 1 0
18.731763 5.011157 -8.993053 21.374415 0.261401 2.005056 0.025276 0.003046 -267417.000000 0 1 0
18.254363 5.941057 -9.959753 21.626710 0.314647 2.049389 0.037888 0.006739 484390.000000 0 1 0
18.378263 7.224457 -9.508953 21.917425 0.374542 2.019562 0.032463 0.002042 -356276.000000 0 1 0
-25.401067 -29.335603 5.559647 39.200785 0.857156 1.428492 0.029572 -0.013880 -693442.000000 0 0 1
-25.551857 -28.496443 6.702647 38.857048 0.839825 1.397434 0.042203 -0.015253 170684.000000 0 0 1
-24.543437 -27.485113 6.728647 37.457796 0.841878 1.390183 0.026093 -0.012071 -17577.400000 0 0 1
-25.053237 -26.403033 7.760547 37.215735 0.811624 1.360726 0.024300 -0.008321 -446479.000000 0 0 1
-26.183657 -25.623873 7.426147 37.380670 0.774594 1.370803 0.019442 -0.011032 949124.000000 0 0 1
-27.462517 -26.296993 7.530847 38.761261 0.763721 1.375265 0.024880 -0.010656 774149.000000 0 0 1
-27.961867 -26.426883 8.998047 39.512163 0.757183 1.341052 0.017592 -0.006244 -252044.000000 0 0 1
-27.012957 -27.191953 9.760647 39.552148 0.788700 1.321441 0.020156 -0.007217 26086.100000 0 0 1
-27.399017 -27.350523 11.088747 40.270555 0.784512 1.291836 0.016670 -0.003043 -282833.000000 0 0 1
-26.372327 -28.113293 11.976747 40.364581 0.817340 1.269546 0.009160 -0.005458 1618700.000000 0 0 1
-25.121637 -27.458083 12.354047 39.213078 0.829805 1.250288 0.014349 -0.004561 1175060.000000 0 0 1
-25.253337 -26.362113 13.227047 38.828428 0.806876 1.223184 0.022718 0.000630 -124334.000000 0 0 1
-23.892637 -25.881083 13.809147 37.833598 0.825327 1.197167 0.038461 -0.003928 208116.000000 0 0 1
-23.348537 -26.734263 14.769247 38.444840 0.852898 1.176491 0.045848 -0.006113 -18305.100000 0 0 1
-22.121937 -26.275693 15.309647 37.605551 0.871014 1.151507 0.051816 -0.009173 372305.000000 0 0 1
-21.328137 -27.408593 16.035247 38.252445 0.909518 1.138237 0.045146 -0.016622 -169762.000000 0 0 1
-22.047237 -27.946033 17.126747 39.501733 0.902847 1.122346 0.044507 -0.020566 176143.000000 0 0 1
-21.400937 -29.083623 17.678147 40.204156 0.936418 1.115521 0.049626 -0.018496 -102122.000000 0 0 1
-22.327137 -30.009473 18.529447 41.742184 0.931144 1.110848 0.052563 -0.022083 -254525.000000 0 0 1
-23.281937 -30.641283 17.725347 42.368913 0.921038 1.139160 0.017540 -0.010425 -221361.000000 0 0 1
-23.917337 -31.614393 18.522747 43.756154 0.923127 1.133692 0.014496 -0.004570 -356689.000000 0 0 1
-25.039937 -32.423843 17.856547 44.689600 0.913195 1.159750 0.008080 -0.005537 213343.000000 0 0 1
-24.487037 -33.374113 16.971347 44.737826 0.937800 1.181701 0.007797 -0.008281 236105.000000 0 0 1
-25.515847 -34.272675 16.640947 45.854071 0.930828 1.199406 0.010018 -0.004212 -440623.000000 0 0 1
-25.282657 34.001103 15.234347 45.026360 -0.931414 1.225641 0.007977 -0.013527 229418.000000 0 0 1
-24.148337 33.168545 15.049947 43.701207 -0.941492 1.219215 -0.004199 -0.012984 880800.000000 0 0 1
-22.919637 33.921606 14.905047 43.567712 -0.976590 1.221632 0.005622 -0.014701 860334.000000 0 0 1
-21.622437 33.061758 15.073647 42.282673 -0.991613 1.206280 0.030408 -0.025020 544685.000000 0 0 1
-21.326837 32.235290 13.947447 41.091108 -0.986310 1.224488 0.024470 -0.020330 880539.000000 0 0 1
-20.141837 31.424150 14.154847 39.919049 -1.000798 1.208322 0.033643 -0.021465 930740.000000 0 0 1
-19.807037 30.403140 13.050347 38.561395 -0.993381 1.225548 0.026146 -0.016639 137226.000000 0 0 1
-19.490537 30.936670 11.797747 38.420638 -1.008600 1.258686 0.014842 -0.005419 -66430.000000 0 0 1
-19.423737 29.914100 10.825047 37.273537 -0.994901 1.276129 0.022782 -0.010100 123711.000000 0 0 1
-19.061037 30.417350 9.396047 37.105579 -1.011011 1.314784 0.017736 -0.004697 -369640.000000 0 0 1
-17.790537 31.016610 9.343247 36.957131 -1.050029 1.315210 0.017611 -0.009908 -423780.000000 0 0 1
-17.459437 31.408220 7.992847 36.812957 -1.063444 1.351933 0.022458 -0.012313 267999.000000 0 0 1
-16.908037 30.287640 6.999147 35.386592 -1.061642 1.371693 0.022006 -0.007784 -119664.000000 0 0 1
-17.836537 29.262670 6.687447 34.916584 -1.023397 1.378079 0.020535 0.000399 106512.000000 0 0 1
-17.306737 27.976940 6.993047 33.632351 -1.016807 1.361342 0.023278 0.002313 -140116.000000 0 0 1
-18.224037 26.826640 6.542447 33.084555 -0.974081 1.371735 0.029447 0.008384 -78763.400000 0 0 1
-18.230737 26.553270 5.158847 32.619774 -0.969139 1.411979 0.031798 -0.000908 379524.000000 0 0 1
-19.385837 25.848100 4.770847 32.660311 -0.927301 1.424197 0.025075 -0.000552 -346537.000000 0 0 1
-19.039037 25.119770 3.453947 31.708320 -0.922239 1.461651 0.033294 -0.008999 -947967.000000 0 0 1
-18.661637 25.888620 2.261547 31.993623 -0.946218 1.500050 0.036680 -0.003798 345190.000000 0 0 1
-17.457737 26.633040 2.225047 31.922441 -0.990570 1.501038 0.029779 -0.004128 164089.000000 0 0 1
-16.205537 25.690290 2.334547 30.464086 -1.008034 1.494088 0.032760 -0.009089 -620729.000000 0 0 1
-15.969237 24.626610 1.353847 29.382297 -0.995508 1.524703 0.047718 -0.011010 97477.100000 0 0 1
-15.948337 24.993360 0.006747 29.648230 -1.002830 1.570569 0.040849 -0.011208 -169017.000000 0 0 1
-15.602437 23.768910 -0.816953 28.444060 -0.989920 1.599522 0.047420 -0.018824 -94807.500000 0 0 1
-16.665437 22.845310 -0.843053 28.290559 -0.940551 1.600601 0.049278 -0.028760 14476.600000 0 0 1
-16.494337 21.697110 -1.680253 27.306611 -0.920793 1.632368 0.046646 -0.031228 350167.000000 0 0 1
-15.374737 20.661410 -1.311153 25.787507 -0.931064 1.621663 0.046316 -0.033676 278260.000000 0 0 1
-15.881937 19.849810 -0.238953 25.422588 -0.895991 1.580196 0.054855 -0.040091 17800.300000 0 0 1
-15.020637 18.916810 0.401847 24.158368 -0.899702 1.554162 0.079075 -0.047747 -255554.000000 0 1 0
-15.690137 17.814610 1.298647 23.774508 -0.848721 1.516146 0.064838 -0.043158 121547.000000 0 1 0
-16.373737 16.853410 0.539447 23.503781 -0.799833 1.547843 0.052643 -0.040487 208736.000000 0 1 0
-17.180237 15.971010 1.274847 23.491678 -0.748938 1.516502 0.067905 -0.051103 44984.800000 0 1 0
-17.690337 14.748510 0.455047 23.036355 -0.694957 1.551042 0.072425 -0.045584 -597488.000000 0 1 0
-18.547737 15.086710 -0.587153 23.915939 -0.682858 1.595350 0.073921 -0.046043 4098.500000 0 1 0
-19.170437 13.987010 -1.198353 23.760854 -0.630326 1.621252 0.053769 -0.036281 -739115.000000 0 1 0
-20.284337 14.429910 -2.121053 24.983505 -0.618324 1.655797 0.047437 -0.019947 86342.700000 0 1 0
-21.329637 13.539210 -2.577053 25.394977 -0.565587 1.672450 0.050947 -0.016730 1734520.000000 0 0 1
-22.231837 12.965210 -1.621953 25.787245 -0.527962 1.633735 0.046912 -0.021991 538734.000000 0 0 1
-23.544837 13.753110 -1.275253 27.297137 -0.528664 1.617531 0.049300 -0.027093 349621.000000 0 0 1
-23.185037 14.849110 -0.482553 27.536791 -0.569640 1.588321 0.050047 -0.040952 824370.000000 0 0 1
-24.339037 15.565110 -0.053753 28.890557 -0.568967 1.572657 0.039173 -0.033531 99410.200000 0 0 1
-23.885137 16.875510 0.697247 29.253526 -0.615094 1.546959 0.030725 -0.033556 30259.700000 0 0 1
-23.329337 16.588110 1.975147 28.693633 -0.618098 1.501906 0.030048 -0.035942 212523.000000 0 0 1
-23.238837 17.748410 2.814147 29.376335 -0.652236 1.474853 0.027090 -0.036927 -8101.860000 0 0 1
-24.568737 18.417910 3.253847 30.877658 -0.643276 1.465222 0.030220 -0.032151 -1414880.000000 0 0 1
-25.315707 17.605010 4.082547 31.104479 -0.607644 1.439164 0.036449 -0.030080 -202753.000000 0 0 1
-26.633317 18.078810 4.278247 32.472763 -0.596359 1.438663 0.037136 -0.025521 98232.300000 0 0 1
-27.573087 17.893410 3.082347 33.014393 -0.575633 1.477296 0.028575 -0.012987 -1425930.000000 0 0 1
-28.824897 18.523610 3.153747 34.408501 -0.571173 1.479011 0.029836 -0.005777 70181.600000 0 0 1
-29.638727 18.333910 2.047747 34.911025 -0.553969 1.512106 0.015280 -0.001107 388166.000000 0 0 1
-30.914427 19.265710 1.986047 36.480320 -0.557300 1.516328 0.020319 -0.005793 812840.000000 0 0 1
-31.873347 18.937610 2.984447 37.194761 -0.536108 1.490472 0.025840 -0.002886 158929.000000 0 0 1
-32.972917 19.818710 2.973747 38.585460 -0.541199 1.493651 0.034310 -0.003806 -7861.770000 0 0 1
-33.242077 20.586810 4.299147 39.336181 -0.554490 1.461285 0.044208 -0.012088 -476057.000000 0 0 1
-32.327037 21.639610 4.547947 39.166234 -0.589890 1.454415 0.028538 -0.003273 355952.000000 0 0 1
-32.405047 22.164810 5.877947 39.697810 -0.599902 1.422183 0.032855 -0.006879 392199.000000 0 0 1
-31.290767 23.236010 6.249747 39.472568 -0.638738 1.411796 0.035828 -0.004606 463930.000000 0 0 1
-31.425667 24.461700 5.591647 40.214597 -0.661430 1.431299 0.025802 0.005637 605645.000000 0 0 1
-30.338947 25.343430 5.885947 39.967306 -0.695923 1.422990 0.022374 -0.000905 146006.000000 0 0 1
-30.585637 26.805250 5.470347 41.035684 -0.719622 1.437091 0.014502 0.001190 -380541.000000 0 0 1
-31.487927 27.366360 6.395147 42.205511 -0.715482 1.418686 0.018638 -0.001766 -137308.000000 0 0 1
-31.908737 28.665540 6.034247 43.316196 -0.731908 1.431035 0.008063 -0.001964 -838832.000000 0 0 1
-32.965967 29.039350 7.053747 44.494878 -0.722156 1.411595 0.007995 -0.000216 -1144360.000000 0 0 1
-32.532817 29.374690 8.334147 44.617425 -0.734429 1.382901 0.018486 -0.005129 381478.000000 0 0 1
-33.490327 30.058580 9.188747 45.929874 -0.731449 1.369377 0.019134 -0.006646 801006.000000 0 0 1
-34.746922 29.280280 9.728347 46.468528 -0.700225 1.359883 0.009771 0.001952 375206.000000 0 0 1
-34.428144 28.106580 10.523147 45.672898 -0.684652 1.338305 0.018373 -0.005039 1048480.000000 0 0 1
35.457734 27.490780 11.109247 46.221308 0.659504 1.328071 0.007846 -0.005615 797053.000000 0 0 1
-35.080385 26.206130 11.700647 45.324384 -0.641598 1.309686 0.030960 -0.004676 -588675.000000 0 0 1
-34.031247 26.452190 12.591747 44.904301 -0.660740 1.286572 0.037511 -0.009630 -193002.000000 0 0 1
-33.614657 25.251940 13.223247 44.073347 -0.644280 1.266074 0.048126 -0.013259 -99357.900000 0 0 1
-32.392097 25.432190 14.142747 43.543789 -0.665611 1.240003 0.050231 -0.018647 -41394.100000 0 0 1
-32.630667 26.336580 15.223747 44.610967 -0.679062 1.222544 0.032558 -0.013187 -553643.000000 0 0 1
-31.445797 26.694500 15.838047 44.184593 -0.703858 1.204187 0.045820 -0.010256 -498515.000000 0 0 1
-31.744117 27.808440 16.863847 45.446536 -0.719407 1.190635 0.026581 -0.006742 -204411.000000 0 0 1
-32.013387 29.078440 16.203947 46.184202 -0.737393 1.212313 0.034259 -0.013376 64312.400000 0 0 1
-32.288797 30.099810 17.145947 47.355554 -0.750326 1.200311 0.026488 -0.017289 -244128.000000 0 0 1
-32.044787 31.495730 16.531447 47.876279 -0.776757 1.218243 0.025103 -0.018702 108210.000000 0 0 1
-30.686607 31.746240 16.241247 47.045401 -0.802369 1.218318 0.016129 -0.011345 -134132.000000 0 0 1
-30.495577 32.990704 15.582247 47.551795 -0.824680 1.236939 0.010639 -0.001061 -1210210.000000 0 0 1
-29.093607 33.206985 15.102947 46.660913 -0.851327 1.241186 0.025930 -0.004785 -863067.000000 0 0 1
-28.597477 32.578290 13.875847 45.515929 -0.850378 1.261008 0.023434 -0.010996 413873.000000 0 0 1
-27.966677 31.291530 13.934747 44.220720 -0.841447 1.250215 0.025542 -0.014227 -78199.700000 0 0 1
-28.906607 30.058020 13.961947 43.977409 -0.804923 1.247726 0.043062 -0.018767 35729.000000 0 0 1
-29.457137 29.891500 12.698047 43.845925 -0.792717 1.276981 0.048154 -0.026123 -705111.000000 0 0 1
-30.465677 28.958260 12.581947 43.875320 -0.760036 1.279947 0.055913 -0.024377 -77236.700000 0 0 1
-30.799857 28.654080 11.061047 43.497520 -0.749322 1.313681 0.051924 -0.023336 414680.000000 0 0 1
-29.753347 27.832010 10.528847 42.080151 -0.752045 1.317900 0.061866 -0.019594 308226.000000 0 0 1
-29.534717 28.110300 9.155847 41.788970 -0.760693 1.349907 0.053634 -0.019523 84282.400000 0 0 1
-28.337447 27.332750 8.551347 40.289151 -0.767353 1.356920 0.041188 -0.016875 290931.000000 0 0 1
-27.911177 27.616030 7.197647 39.918480 -0.780083 1.389496 0.027238 -0.007377 -93357.200000 0 0 1
-26.824997 26.778320 6.818047 38.511617 -0.784527 1.392820 0.030148 -0.000206 110871.000000 0 0 1
-26.387197 27.032610 5.346047 38.152672 -0.797479 1.430211 0.029494 -0.008542 -502301.000000 0 0 1
-25.691277 28.222820 5.141347 38.509775 -0.832319 1.436889 0.031396 0.001424 -8232.790000 0 0 1
-25.444257 28.476310 3.761647 38.372652 -0.841571 1.472609 0.028943 0.001981 -385496.000000 0 0 1
-24.368137 29.530500 3.525447 38.448476 -0.880886 1.478975 0.029195 -0.001043 -351404.000000 0 0 1
-23.050337 29.055090 3.666047 37.268703 -0.900134 1.472269 0.024805 0.004548 -11686.900000 0 0 1
-22.115337 30.056450 3.221147 37.454694 -0.936450 1.484689 0.027056 0.005507 -532564.000000 0 0 1
-20.709337 29.695690 3.597547 36.382042 -0.961827 1.471752 0.018605 0.004358 -689010.000000 0 0 1
-19.705037 30.590690 3.141347 36.523237 -0.998544 1.484680 0.015144 0.001928 -660658.000000 0 0 1
-18.466637 30.292720 3.697147 35.669798 -1.023343 1.466961 0.013677 -0.003409 -145867.000000 0 0 1
-17.381937 31.349920 3.300447 35.997808 -1.064544 1.478983 0.019031 -0.006299 289472.000000 0 0 1
-17.473637 32.556640 3.986647 37.163909 -1.078210 1.463318 0.014577 -0.004463 -23205.800000 0 0 1
-16.430537 33.343433 3.471847 37.333642 -1.112952 1.477667 0.013283 0.000694 -286584.000000 0 0 1
-16.185737 -34.300635 4.223747 38.162177 1.129898 1.459890 0.019712 -0.003703 -242991.000000 0 0 1
-17.177837 -33.305063 4.153047 37.703490 1.094610 1.460422 0.019566 -0.008652 149023.000000 0 0 1
-16.747637 -32.176573 4.970447 36.613120 1.090890 1.434620 0.020459 -0.007697 385720.000000 0 0 1
-17.848337 -31.097833 5.017447 36.205154 1.049758 1.431765 0.016734 -0.008271 124391.000000 0 0 1
-18.009437 -30.400613 3.802147 35.538619 1.035981 1.463605 0.019381 -0.008825 99427.300000 0 0 1
-19.215737 -29.662103 3.841547 35.550561 0.995954 1.462526 0.026515 -0.017788 -114253.000000 0 0 1
-19.508237 -28.704053 2.619047 34.804503 0.973870 1.495475 0.018194 -0.014016 95549.400000 0 0 1
-18.727737 -27.504663 2.637047 33.379465 0.973009 1.491712 0.017269 -0.013673 108219.000000 0 0 1
-19.019737 -26.679343 1.547247 32.801399 0.951464 1.523609 0.006544 -0.010363 -100179.000000 0 0 1
-18.047937 -25.483893 1.383347 31.258127 0.954582 1.526526 0.006423 -0.000079 -232738.000000 0 0 1
-16.777237 -25.905763 0.977647 30.879444 0.996092 1.539131 0.010192 -0.001693 -905525.000000 0 0 1
-15.888437 -24.808343 1.067647 29.479420 1.001166 1.534572 0.016981 0.005545 669230.000000 0 0 1
-14.491437 -25.146923 0.433747 29.026844 1.048008 1.555853 0.029003 0.001835 163516.000000 0 0 1
-14.457837 -25.259823 -0.979753 29.121258 1.050945 1.604447 0.021245 -0.000053 -136745.000000 0 0 1
-14.507837 -24.076343 -1.754253 28.164251 1.028485 1.633123 0.021589 0.000826 -204342.000000 0 0 1
-14.689437 -24.243743 -3.271553 28.534921 1.026045 1.685700 0.016860 0.001007 23130.100000 0 0 1
-13.640637 -24.888843 -3.965053 28.657340 1.069442 1.709602 0.021910 -0.004350 -81334.600000 0 0 1
-13.971237 -24.844743 -5.356653 29.002594 1.058527 1.756559 0.023681 -0.001663 240584.000000 0 0 1
-12.812937 -25.265103 -6.283353 29.016846 1.101453 1.789067 0.041930 -0.006266 123824.000000 0 0 1
-12.555437 -26.652033 -6.209053 30.108508 1.130545 1.778509 0.032233 -0.009002 44009.800000 0 0 1
-11.229137 -26.798033 -6.706153 29.819467 1.173995 1.797628 0.032307 -0.002977 266929.000000 0 0 1
23.279963 13.296957 28.261030 38.954481 0.518956 0.759052 0.033536 0.003827 -271286.000000 0 0 1
23.709663 11.962557 28.545290 38.988261 0.467276 0.749322 0.031189 0.000266 320071.000000 0 0 1
22.881463 11.168657 29.403680 38.895715 0.454090 0.713674 0.035143 -0.002470 -233136.000000 0 0 1
22.805363 11.577657 30.926110 40.131671 0.469767 0.690989 0.039955 0.003214 -142658.000000 0 0 1
22.011663 12.678757 31.242630 40.266191 0.522587 0.682652 0.033667 -0.000869 29099.300000 0 0 1
22.238663 12.903457 32.652660 41.560240 0.525753 0.667017 0.038468 -0.000801 -389985.000000 0 0 1
21.345063 13.948257 33.289437 41.932710 0.578807 0.653637 0.029694 0.001789 -1247690.000000 0 0 1
20.107063 13.459457 33.610316 41.413818 0.589885 0.623958 0.029239 0.007496 -1098010.000000 0 0 1
19.250063 14.380957 34.218208 41.812230 0.641617 0.612213 0.033467 0.005967 -694452.000000 0 0 1
18.161363 13.733157 -33.760033 40.720689 0.647441 2.548227 0.025233 0.018140 -15673.400000 0 0 1
17.016963 13.394757 34.239454 40.513415 0.666851 0.563972 0.014582 0.021727 791587.000000 0 0 1
16.176763 12.478857 -33.827793 39.518718 0.657061 2.598267 0.003690 0.013892 318621.000000 0 0 1
14.854763 12.087657 34.300600 39.284941 0.683053 0.509223 0.000932 0.022406 184220.000000 0 0 1
15.082763 11.225157 33.211407 38.164007 0.639803 0.515130 -0.012190 0.040250 -143443.000000 0 0 1
13.826163 10.755957 32.806116 37.189980 0.661146 0.490447 -0.001705 0.035270 -41555.300000 0 0 1
13.977563 9.650057 31.731410 35.991364 0.604251 0.491471 0.000002 0.038180 -62803.100000 0 0 1
14.311163 8.406657 32.345220 36.355117 0.531118 0.474104 -0.012173 0.030694 67171.800000 0 0 1
14.775563 7.444257 31.413300 35.503939 0.466701 0.484767 -0.013571 0.011783 331342.000000 0 0 1
15.256163 6.053257 31.877100 35.854455 0.377723 0.475488 0.009322 0.002922 331632.000000 0 0 1
14.130663 5.281357 32.270100 35.622012 0.357676 0.437288 0.001885 0.003128 45905.900000 0 0 1
14.517963 3.980457 32.653480 35.956433 0.267599 0.431976 0.011642 -0.001003 245812.000000 0 0 1
13.392163 2.898757 32.699370 35.454219 0.213163 0.396810 -0.002845 -0.002091 -344299.000000 0 0 1
13.789763 1.666557 33.276621 36.059236 0.120271 0.395427 0.008335 -0.011987 -406806.000000 0 0 1
12.719763 0.782857 33.462915 35.807428 0.061469 0.363876 0.006811 -0.015367 -478230.000000 0 0 1
13.230163 -0.557943 33.930538 36.422932 -0.042147 0.372087 -0.004746 -0.022061 -61121.500000 0 0 1
13.588163 -1.363543 32.778468 35.509511 -0.100013 0.394758 -0.009829 -0.013776 -74890.700000 0 0 1
14.152063 -2.589943 33.161156 36.147628 -0.181005 0.409346 0.034396 -0.022808 -172646.000000 0 0 1
14.299763 -3.674143 31.997190 35.239222 -0.251497 0.432312 0.041219 -0.020256 -1290210.000000 0 0 1
14.661463 -5.048843 32.269840 35.802122 -0.331643 0.447946 0.057530 -0.020364 469867.000000 0 0 1
16.014363 -5.282043 32.635620 36.734773 -0.318596 0.476922 0.049316 -0.025979 193009.000000 0 0 1
17.185163 -4.714143 31.845440 36.492260 -0.267729 0.510167 0.043751 -0.031609 -1316590.000000 0 0 1
17.356563 -3.353443 32.157530 36.696084 -0.190857 0.502626 0.038912 -0.026652 -426298.000000 0 0 1
18.211663 -2.802043 31.223940 36.255352 -0.152663 0.533125 0.053865 -0.033495 -433845.000000 0 0 1
18.012063 -1.272343 31.207840 36.055271 -0.070521 0.524538 0.061359 -0.034384 -431995.000000 0 0 1
18.533563 -0.729443 32.389980 37.324735 -0.039338 0.520062 0.046034 -0.025590 200965.000000 0 0 1
18.450463 0.722257 32.460250 37.344465 0.039126 0.517190 0.037311 -0.009711 -289714.000000 0 0 1
19.524763 1.509657 31.696790 37.258314 0.077167 0.553422 0.048864 -0.012131 -556031.000000 0 0 1
19.483863 1.461157 30.293250 36.047703 0.074853 0.572839 0.040146 -0.009224 615899.000000 0 0 1
20.491663 2.404757 29.836110 36.275123 0.116819 0.605012 0.042244 -0.003670 511290.000000 0 0 1
20.138363 3.913557 29.807130 36.184729 0.191941 0.602804 0.041769 0.001157 -318646.000000 0 0 1
19.885163 4.383357 31.139270 37.206017 0.216964 0.579125 0.047166 0.006511 487376.000000 0 0 1
19.471763 5.735457 31.334190 37.334655 0.286452 0.574841 0.034105 0.004985 -201494.000000 0 0 1
19.230463 6.086557 32.813888 38.517634 0.306530 0.551158 0.035390 0.011357 -310452.000000 0 0 1
18.198263 5.333357 33.395249 38.403960 0.285087 0.516449 0.024747 0.010818 135277.000000 0 0 1
18.218063 5.616757 -34.048693 39.022548 0.299060 2.631172 0.018163 0.021664 117258.000000 0 0 1
17.062463 4.882457 -33.305753 37.739094 0.278704 2.652004 0.017611 0.011001 28871.700000 0 0 1
17.126963 3.471257 -33.424333 37.716953 0.199969 2.659849 0.015124 0.009840 600999.000000 0 0 1
15.961963 2.778257 -32.951843 36.719572 0.172328 2.684619 0.009127 0.007610 493747.000000 0 0 1
16.031063 1.293357 -33.285663 36.967596 0.080504 2.691487 0.011890 -0.005315 -139644.000000 0 0 1
17.069663 0.642957 -32.576603 36.783445 0.037649 2.658650 0.012009 -0.008593 52035.800000 0 0 1
17.233863 -0.731943 -32.992773 37.229892 -0.042446 2.659853 0.018832 -0.013814 -127996.000000 0 0 1
18.321463 -1.451143 -32.147483 37.030292 -0.079040 2.622239 0.023993 -0.016907 -85087.400000 0 0 1
18.031463 -1.449143 -30.756473 35.681848 -0.080195 2.609928 0.012315 -0.014798 355803.000000 0 0 1
18.303263 -0.191443 -30.125553 35.250461 -0.010459 2.595604 0.015664 -0.010910 -591558.000000 0 0 1
17.940263 -0.086943 -28.654063 33.807040 -0.004846 2.582199 0.010029 -0.011231 -706249.000000 0 0 1
16.608463 -0.421443 -28.419703 32.919571 -0.025370 2.612583 0.013162 -0.016271 -412191.000000 0 0 1
16.366963 -0.684343 -27.013283 31.592139 -0.041788 2.596470 0.007449 -0.009952 4813.690000 0 0 1
17.086863 -1.974943 -26.457013 31.556851 -0.115072 2.565123 0.005812 -0.006844 -484712.000000 0 0 1
18.340163 -1.603843 -25.916973 31.790303 -0.087228 2.523953 0.009857 -0.005085 -187661.000000 0 0 1
19.155063 -2.759943 -25.723853 32.190842 -0.143099 2.496601 0.004068 -0.005793 362383.000000 0 0 1
19.997963 -3.184843 -26.955233 33.714186 -0.157932 2.497295 0.010630 -0.016536 -263368.000000 0 0 1
21.125763 -2.323243 -27.146983 34.476862 -0.109532 2.477372 0.018080 -0.010677 108715.000000 0 0 1
21.559263 -2.307343 -28.502543 35.812297 -0.106617 2.491268 0.018175 -0.014474 372564.000000 0 0 1
23.034463 -1.811543 -28.625323 36.786917 -0.078483 2.462493 0.014608 -0.015704 232156.000000 0 0 1
23.920063 -2.907243 -28.458453 37.289476 -0.120947 2.439011 0.011620 -0.018964 -963731.000000 0 0 1
25.172863 -2.426443 -28.853293 38.367606 -0.096094 2.421921 0.002714 -0.014346 -982243.000000 0 0 1
26.248563 -3.457143 -28.574763 38.954537 -0.130954 2.394314 -0.001961 -0.018583 -627608.000000 0 0 1
26.158863 -4.579243 -29.444573 39.651462 -0.173299 2.407718 0.006550 -0.022144 611505.000000 0 0 1
27.227763 -5.509643 -29.216293 40.314997 -0.199658 2.381396 0.004210 -0.019630 332086.000000 0 0 1
27.031363 -6.399943 -27.938933 39.398450 -0.232479 2.359071 0.003007 -0.010976 -77255.500000 0 0 1
26.988763 -5.853843 -26.652843 38.380136 -0.213591 2.338443 -0.003663 -0.002511 231518.000000 0 0 1
26.609263 -6.861143 -25.736813 37.649857 -0.252351 2.323457 -0.015552 -0.003491 -279658.000000 0 0 1
26.641563 -6.388543 -24.295453 36.617692 -0.235352 2.296269 -0.022653 -0.001179 -279012.000000 0 0 1
27.974063 -6.409243 -23.845453 37.312628 -0.225227 2.264087 -0.020313 -0.000689 119561.000000 0 0 1
28.028663 -6.045843 -22.447553 36.414980 -0.212447 2.235006 -0.005006 -0.002255 -325149.000000 0 0 1
29.455263 -5.655143 -22.045453 37.223583 -0.189683 2.204638 0.001775 -0.002005 -352056.000000 0 0 1
29.849863 -4.372943 -22.633353 37.714793 -0.145463 2.214446 0.003726 -0.009345 -516256.000000 0 0 1
31.077163 -3.940843 -22.168953 38.376852 -0.126135 2.186661 0.015818 -0.008119 -472219.000000 0 0 1
31.755063 -2.713343 -22.821753 39.199218 -0.085239 2.192227 0.012975 -0.011385 45034.500000 0 0 1
31.092763 -1.520143 -22.422853 38.364763 -0.048852 2.195017 -0.008441 -0.006503 240706.000000 0 0 1
31.780963 -0.321643 -22.710753 39.062915 -0.010120 2.191231 -0.007383 -0.004929 23612.900000 0 0 1
30.829563 0.881557 -22.550053 38.206596 0.028587 2.202120 -0.009643 0.001279 202264.000000 0 0 1
29.738363 0.962057 -23.457653 37.888748 0.032339 2.238417 -0.006089 0.003584 -280967.000000 0 0 1
28.788963 1.789457 -22.889053 36.822755 0.062078 2.241581 -0.010592 0.002242 -690789.000000 0 0 1
27.459163 1.733957 -23.662853 36.289707 0.063063 2.281087 -0.011792 -0.000540 -787090.000000 0 0 1
26.507863 2.616757 -23.215253 35.333584 0.098397 2.287670 -0.006089 -0.004527 148673.000000 0 0 1
25.511563 2.860557 -24.245753 35.311176 0.111661 2.327641 0.006638 -0.008772 642103.000000 0 0 1
24.502763 3.971357 -23.874053 34.440201 0.160681 2.336720 0.018165 -0.007517 -604073.000000 0 0 1
25.113463 5.212857 -23.722053 34.937025 0.204666 2.317189 0.001012 -0.002540 -376517.000000 0 0 1
24.161663 6.160457 -23.416453 34.206249 0.249649 2.324805 0.023778 -0.009691 -662091.000000 0 0 1
24.779863 7.421957 -22.812753 34.489835 0.291012 2.293526 0.031983 -0.003704 -45653.700000 0 0 1
25.309063 8.221957 -23.843853 35.730639 0.314107 2.301404 0.015206 -0.002373 -13356.900000 0 0 1
25.518363 9.546857 -23.385353 35.905488 0.357996 2.280097 0.025190 -0.004483 -219892.000000 0 0 1
26.258263 10.445857 -24.439953 37.362061 0.378619 2.283839 0.043083 -0.009278 -178897.000000 0 0 1
25.687363 10.721757 -25.687103 37.876430 0.395411 2.316082 0.046171 -0.022322 341381.000000 0 0 1
24.463363 11.457757 -25.725123 37.303060 0.438020 2.331767 0.050997 -0.029351 485643.000000 0 0 1
23.988363 11.807057 -27.175933 38.123214 0.457388 2.364342 0.045936 -0.026875 -185368.000000 0 0 1
23.564363 10.741957 -28.045693 38.173678 0.427713 2.396001 0.043661 -0.017797 -202147.000000 0 0 1
24.533463 9.870157 -28.524383 38.896674 0.382500 2.394014 0.042624 -0.024680 -722961.000000 0 0 1
25.362163 10.374857 -29.703783 40.412766 0.388299 2.396478 0.044666 -0.013382 -964121.000000 0 0 1
26.359463 11.317057 -29.269153 40.982684 0.405537 2.366253 0.037893 -0.009685 823763.000000 0 0 1
27.357363 11.705857 -30.204323 42.399923 0.404313 2.363662 0.035332 -0.003116 752749.000000 0 0 1
28.320963 10.568057 -30.697283 43.082293 0.357151 2.363889 0.026910 0.001387 -653498.000000 0 0 1
27.635763 9.643657 -31.513293 43.009570 0.335744 2.393083 0.035659 -0.007017 389794.000000 0 0 1
28.509463 8.598157 -31.856633 43.606913 0.292914 2.389910 0.025395 -0.002183 -365968.000000 0 0 1
27.788163 7.667757 -32.771743 43.645889 0.269236 2.420152 0.037754 -0.007352 557915.000000 0 0 1
26.634563 7.031457 -32.177353 42.358274 0.258109 2.433567 0.034261 -0.007112 617356.000000 0 0 1
25.993563 6.161757 -33.067593 42.509978 0.232753 2.462079 0.038932 -0.000543 238372.000000 0 0 1
24.674863 5.531457 -32.484413 41.166527 0.220528 2.480135 0.048037 0.002475 593553.000000 0 0 1
23.496463 6.288957 -32.623883 40.693396 0.261525 2.500930 0.042010 0.005009 43925.800000 0 0 1
23.286263 7.222957 -31.563483 39.883262 0.300771 2.483887 0.047355 -0.004641 -1092130.000000 0 0 1
21.857363 7.705557 -31.428483 39.049577 0.338934 2.506194 0.041692 0.000161 -902642.000000 0 0 1
21.494663 8.509257 -32.497873 39.881571 0.376948 2.523283 0.038579 0.004596 -218209.000000 0 0 1
20.121663 8.796057 -32.323843 39.077906 0.412111 2.544839 0.025481 0.010332 8544.340000 0 0 1
19.433563 9.698557 -33.369603 39.815271 0.462897 2.564607 0.023509 0.009556 -224718.000000 0 0 1
19.332363 9.088457 34.151933 40.282687 0.439456 0.558961 0.030403 0.010445 94334.100000 0 0 1
19.080263 10.158557 33.294239 39.695832 0.489240 0.575842 0.022306 0.016886 -665249.000000 0 0 1
18.096363 9.905857 32.195750 38.238340 0.500841 0.569862 0.017340 0.018729 -636870.000000 0 0 1
18.519663 9.114757 31.086900 37.315574 0.457361 0.586142 0.018475 0.010150 -204137.000000 0 0 1
19.489863 9.642357 30.236520 37.243482 0.459428 0.623464 0.032837 0.010214 -884494.000000 0 0 1
18.943563 10.561657 29.142180 36.327315 0.508608 0.639807 0.021505 0.005877 -257795.000000 0 0 1
18.082163 9.849457 28.272620 34.975956 0.498769 0.629462 0.016387 0.007145 -64927.400000 0 0 1
16.797463 10.393157 28.276100 34.492177 0.554081 0.609764 0.014231 0.004220 47911.400000 0 0 1
15.640963 9.618757 27.536880 33.097432 0.551356 0.588103 0.018969 0.005365 418427.000000 0 0 1
15.737763 9.614957 26.097710 31.956456 0.548431 0.615188 0.022967 0.003197 618297.000000 0 0 1
14.484863 9.247257 25.507640 30.756507 0.568183 0.592869 0.030666 0.003456 511825.000000 0 0 1
14.332363 7.730957 25.250290 30.045989 0.494673 0.572798 0.033998 0.007140 -46671.800000 0 0 1
14.311663 6.992657 26.480820 30.902343 0.454485 0.541533 0.018156 0.009189 190756.000000 0 0 1
13.774363 5.681957 26.267760 30.199552 0.391238 0.515987 0.026990 0.002991 53468.900000 0 0 1
13.877563 4.810957 27.605870 31.270052 0.333707 0.488961 0.030781 0.004862 372484.000000 0 0 1
15.118163 4.107557 27.729030 31.848548 0.265293 0.514268 0.015261 0.007182 673290.000000 0 0 1
15.400263 3.838557 29.074690 33.124617 0.244275 0.499678 0.001303 0.006729 -129722.000000 0 0 1
16.440063 2.735357 29.294090 33.703139 0.164873 0.517255 0.022206 0.002704 -269602.000000 0 0 1
16.004663 1.407257 29.054240 33.200580 0.087702 0.505128 0.016378 -0.010030 725910.000000 0 0 1
14.936663 0.950657 29.932140 33.465515 0.063560 0.463669 0.003142 -0.013740 560104.000000 0 0 1
14.514963 -0.514943 29.774430 33.128025 -0.035462 0.453844 0.003845 -0.019046 -177753.000000 0 0 1
13.954663 -0.931943 28.518400 31.763191 -0.066685 0.455947 0.005564 -0.019664 -283426.000000 0 0 1
14.806863 -1.000043 27.452270 31.206897 -0.067437 0.495595 0.010206 -0.009320 -1986530.000000 0 0 1
15.831863 -2.168843 27.267610 31.604973 -0.136145 0.530087 0.013539 -0.011728 1167930.000000 0 0 1
17.163563 -1.987343 27.780660 32.715478 -0.115275 0.556404 0.015412 -0.021833 924694.000000 0 0 1
17.799663 -0.787743 27.378150 32.665144 -0.044227 0.576922 0.017747 -0.011657 -1010900.000000 0 0 1
19.330463 -0.674143 27.668950 33.759326 -0.034861 0.610094 0.043748 -0.005293 529082.000000 0 0 1
20.197663 -1.307743 26.761790 33.553676 -0.064657 0.647521 0.036882 -0.016271 92635.900000 0 0 1
21.528963 -0.958443 27.132080 34.649165 -0.044489 0.671239 0.049363 -0.022091 189988.000000 0 0 1
22.575563 -1.312743 26.080230 34.518948 -0.058083 0.714328 0.048642 -0.011726 -466750.000000 0 0 1
22.301463 -0.615643 24.910400 33.440429 -0.027599 0.730383 0.054360 -0.008224 341233.000000 0 0 1
21.721963 -1.524043 23.987880 32.397296 -0.070047 0.737089 0.045434 0.006379 -287374.000000 0 0 1
21.514363 -0.831143 22.577730 31.197957 -0.038613 0.761658 0.033220 -0.011498 -539759.000000 0 0 1
20.606863 0.188957 22.760330 30.703601 0.009169 0.735803 0.011146 -0.000244 -596303.000000 0 0 1
20.129463 0.622957 21.559030 29.502121 0.030938 0.751359 0.030200 0.001904 -234308.000000 0 0 1
-29.638537 -27.495397 -10.606753 41.796447 0.747905 1.827374 0.005786 0.017412 50955.300000 0 0 1
-29.702247 -26.381897 -9.821653 40.923011 0.726264 1.813165 0.008162 0.014917 -186837.000000 0 0 1
-30.336537 -26.769397 -8.613253 41.365375 0.723014 1.780555 0.020933 0.004621 -630615.000000 0 0 1
-30.818007 -25.520497 -7.744953 40.755731 0.691644 1.761993 0.036367 0.000323 -143918.000000 0 0 1
-29.814167 -24.636297 -7.287553 39.356577 0.690590 1.757038 0.024090 -0.000194 390363.000000 0 0 1
-28.984487 -25.277197 -6.226453 38.959028 0.717182 1.731305 0.014631 -0.000140 1037280.000000 0 0 1
-27.829977 -24.404997 -5.645553 37.443074 0.719923 1.722151 0.021911 0.004384 -21781.100000 0 0 1
-28.059307 -23.340997 -4.702753 36.800037 0.693859 1.698939 0.032827 0.003194 -261864.000000 0 0 1
-28.781877 -22.261197 -5.221453 36.758957 0.658338 1.713324 0.032681 -0.003841 -89289.300000 0 0 1
-28.851917 -21.085797 -4.220953 35.984169 0.631118 1.688367 0.037825 -0.002961 -17921.800000 0 0 1
-27.695317 -20.280897 -4.317153 34.597445 0.632068 1.695905 0.046085 -0.012730 320237.000000 0 0 1
-27.763987 -19.302997 -3.275953 33.973174 0.607533 1.667374 0.044822 -0.007409 292468.000000 0 0 1
-26.575787 -18.297997 -3.440653 32.448841 0.602981 1.677029 0.046689 -0.004735 344535.000000 0 0 1
-26.679737 -17.399597 -4.558453 32.176604 0.577896 1.712944 0.046408 -0.019273 -143313.000000 0 0 1
-25.782977 -16.334597 -4.413753 30.839296 0.564718 1.714411 0.045827 -0.023335 -308252.000000 0 0 1
-25.911937 -15.259497 -5.480353 30.566567 0.532217 1.751063 0.046062 -0.033828 -399764.000000 0 0 1
-27.155557 -14.615897 -5.386453 31.305952 0.493761 1.743715 0.035392 -0.029507 -226161.000000 0 0 1
-27.271677 -13.566597 -6.289853 31.102398 0.461614 1.774431 0.060032 -0.040950 1080500.000000 0 0 1
-28.716837 -12.895197 -6.375053 32.118284 0.422061 1.770610 0.065167 -0.032172 628986.000000 0 0 1
-29.727757 -13.690597 -6.885053 33.445119 0.431578 1.778140 0.075160 -0.032019 154487.000000 0 0 1
-30.940167 -12.981097 -6.592653 34.194530 0.397250 1.764810 0.058205 -0.034197 580312.000000 0 0 1
-32.297957 -13.503597 -7.126153 35.725162 0.396007 1.771615 0.040758 -0.028512 226151.000000 0 0 1
-32.718017 -14.686597 -6.493253 36.446222 0.421926 1.749912 0.037589 -0.028684 65430.600000 0 0 1
-32.935257 -15.708797 -7.446553 37.241759 0.445046 1.772105 0.049031 -0.032351 -485051.000000 0 0 1
-33.829607 -16.883997 -7.038053 38.458365 0.462919 1.754838 0.031086 -0.023612 489848.000000 0 0 1
-35.208989 -16.621497 -6.794753 39.523610 0.441064 1.743571 0.009223 -0.026643 571067.000000 0 0 1
35.521952 -16.028297 -5.525053 39.360407 -0.423870 1.711632 0.024656 -0.028173 701287.000000 0 0 1
33.965711 -16.025697 -5.264753 37.923741 -0.440850 1.710071 0.017029 -0.024401 619577.000000 0 0 1
33.189331 -15.294197 -6.198853 37.065752 -0.431813 1.738825 0.025332 -0.026414 1706120.000000 0 0 1
31.741101 -15.403697 -6.098753 35.804555 -0.451812 1.741966 0.029510 -0.033080 1699920.000000 0 0 1
31.139491 -14.565597 -4.888053 34.723445 -0.437519 1.712036 0.036824 -0.032733 -796904.000000 0 0 1
31.416681 -15.178897 -3.645753 35.081310 -0.450075 1.674907 0.026981 -0.026477 262649.000000 0 0 1
30.969611 -14.447197 -2.521753 34.266566 -0.436487 1.644455 0.025699 -0.029970 -1113970.000000 0 0 1
31.273301 -15.145597 -1.174453 34.767626 -0.451007 1.604583 0.031380 -0.029546 200122.000000 0 0 1
32.628161 -15.350197 -0.794353 36.067388 -0.439736 1.592822 0.042724 -0.025180 629162.000000 0 0 1
33.431621 -16.244297 -1.598253 37.203560 -0.452301 1.613769 0.032924 -0.024321 -971759.000000 0 0 1
32.988241 -17.705997 -1.867653 37.486191 -0.492603 1.620639 0.012342 -0.018804 -1013970.000000 0 0 1
33.195821 -18.657097 -0.806953 38.088069 -0.512033 1.591984 0.024307 -0.021231 271823.000000 0 0 1
32.944351 -20.044097 -1.151453 38.580072 -0.546590 1.600647 0.013875 -0.016399 118628.000000 0 0 1
33.915521 -20.716897 -2.177453 39.801931 -0.548351 1.625531 0.022113 -0.024153 58840.100000 0 0 1
33.803831 -20.173397 -3.490153 39.520199 -0.538047 1.659225 0.010417 -0.027917 303922.000000 0 0 1
34.750941 -20.785497 -4.371553 40.728065 -0.539042 1.678339 0.026218 -0.024910 22168.200000 0 0 1
34.823351 -20.146897 -5.748453 40.639980 -0.524495 1.712721 0.041844 -0.028494 -702483.000000 0 0 1
33.625101 -20.329897 -6.436153 39.816783 -0.543798 1.733153 0.028204 -0.034332 -108358.000000 0 0 1
33.627731 -19.331897 -7.464553 39.500204 -0.521744 1.760915 0.028227 -0.033024 -31299.500000 0 0 1
32.467891 -19.598997 -8.432953 38.850989 -0.543093 1.789597 0.031098 -0.039197 48462.600000 0 0 1
32.710681 -20.751897 -9.242153 39.825209 -0.565336 1.804999 0.040234 -0.039948 412301.000000 0 0 1
31.590991 -20.840897 -10.100553 39.170842 -0.583171 1.831602 0.042829 -0.044316 -180240.000000 0 0 1
31.462301 -22.184997 -10.860253 39.999945 -0.614160 1.845755 0.050904 -0.034853 -304255.000000 0 0 1
31.224971 -23.296397 -9.976253 40.215004 -0.640989 1.821487 0.045512 -0.034737 104261.000000 0 0 1
31.122721 -24.542997 -10.646153 41.040505 -0.667743 1.833203 0.036627 -0.021190 -329934.000000 0 0 1
30.321861 -25.624397 -9.836353 40.899619 -0.701631 1.813677 0.036070 -0.018825 549955.000000 0 0 1
29.009291 -25.155297 -9.554353 39.567835 -0.714364 1.814674 0.033723 -0.021076 39387.400000 0 0 1
28.141401 -26.180897 -9.139853 39.508414 -0.749324 1.804251 0.020036 -0.015047 -722840.000000 0 0 1
26.761041 -25.685897 -8.767353 38.115418 -0.764901 1.802896 0.020654 -0.021172 -641021.000000 0 0 1
26.108101 -25.200097 -9.960653 37.628346 -0.767703 1.838701 0.024911 -0.016048 -384843.000000 0 0 1
24.948671 -24.530697 -9.563653 36.271955 -0.776951 1.837616 0.033492 -0.023366 -536628.000000 0 0 1
24.085471 -24.096997 -10.772053 35.732511 -0.785637 1.877024 0.065859 -0.035680 -211077.000000 0 0 1
23.557171 -25.203397 -11.466053 36.354118 -0.819147 1.891673 0.055087 -0.028110 85769.100000 0 0 1
22.642471 -24.821897 -12.457453 35.832893 -0.831283 1.925864 0.054276 -0.008890 -473759.000000 0 0 1
21.973271 -26.041297 -13.056453 36.488968 -0.869921 1.936728 0.059007 -0.016649 -666637.000000 0 0 1
22.628071 -26.859397 -13.984253 37.802330 -0.870694 1.949731 0.054221 -0.003766 6028.110000 0 0 1
22.106371 -28.198497 -13.947153 38.449577 -0.905915 1.942002 0.041474 0.012145 4480.070000 0 0 1
23.037171 -29.238697 -14.625553 39.993993 -0.903477 1.945174 0.023242 0.010781 -73872.900000 0 0 1
22.929971 -29.190097 -16.015053 40.426814 -0.904935 1.978116 0.026088 0.014305 219104.000000 0 0 1
23.506771 -30.317297 -16.615453 41.806460 -0.911262 1.979519 0.010839 0.014764 -444794.000000 0 0 1
23.443571 -30.514797 -18.150453 42.546361 -0.915705 2.011531 0.009843 0.016699 -581555.000000 0 0 1
22.128671 -30.462197 -18.616353 42.002287 -0.942551 2.029987 0.011941 0.018638 -699874.000000 0 0 1
22.107271 -30.343397 -20.016553 42.545453 -0.941152 2.060625 0.009213 0.025712 -337713.000000 0 0 1
20.703771 -30.106097 -20.574053 41.932265 -0.968377 2.083632 0.010772 0.028491 -459228.000000 0 0 1
20.642971 -30.136797 -21.956353 42.619716 -0.970225 2.112001 0.000702 0.033386 322917.000000 0 0 1
19.317071 -30.034197 -22.457753 42.184747 -0.999238 2.132190 0.018919 0.021729 -81943.000000 0 0 1
19.210171 -30.342397 -23.953553 43.167863 -1.006384 2.159031 0.023345 0.015951 -516017.000000 0 0 1
19.809771 -29.321897 -24.681153 43.143481 -0.976637 2.179825 0.032168 0.013208 332387.000000 0 0 1
19.675971 -29.498097 -26.075243 44.013633 -0.982546 2.204875 0.035878 0.000892 -491741.000000 0 0 1
20.197471 -28.260097 -26.871183 43.916186 -0.950273 2.229224 0.042116 -0.007029 -61685.900000 0 0 1
19.402171 -27.096597 -27.091363 42.948944 -0.949388 2.253355 0.071851 -0.016127 334457.000000 0 0 1
18.289571 -27.382297 -27.949433 43.191080 -0.981917 2.274586 0.069632 -0.024561 -15681.600000 0 0 1
17.357471 -26.250197 -28.364473 42.366236 -0.986566 2.304341 0.066932 -0.029044 2757.130000 0 0 1
16.524871 -25.805297 -27.262343 41.014876 -1.001223 2.297881 0.050923 -0.006125 248634.000000 0 0 1
15.946671 -24.567497 -27.571803 40.225148 -0.995057 2.326000 0.038995 0.007049 -247620.000000 0 0 1
14.864571 -24.068997 -26.589793 38.823822 -1.017549 2.325240 0.029228 0.007055 -481767.000000 0 0 1
13.738571 -24.913297 -26.621153 38.962886 -1.066836 2.322992 0.030202 -0.007076 -667149.000000 0 0 1
12.672171 -24.510497 -25.797483 37.773781 -1.093634 2.322586 0.000341 0.004887 -170251.000000 0 0 1
12.767671 -24.562497 -24.235853 36.792747 -1.091432 2.289903 0.001841 0.002394 -531856.000000 0 0 1
13.710771 -23.748197 -23.564353 36.155786 -1.047206 2.280679 0.005700 -0.000565 -110361.000000 0 0 1
13.791971 -24.205297 -22.218653 35.634020 -1.052885 2.244038 0.016503 -0.000070 119435.000000 0 0 1
15.034571 -23.808997 -21.370853 35.349965 -1.007561 2.219998 0.011365 -0.005990 251290.000000 0 0 1
14.997671 -22.504697 -20.972053 34.223070 -0.982962 2.230401 0.004739 -0.012317 137312.000000 0 0 1
16.218271 -22.108297 -20.378553 34.162765 -0.937885 2.209946 0.008726 -0.004632 -94765.100000 0 0 1
16.118271 -20.735697 -19.698253 32.829696 -0.910038 2.214314 0.008354 0.007837 23427.900000 0 0 1
15.323271 -20.680897 -18.527553 31.713914 -0.933120 2.194701 0.003322 -0.008969 -183121.000000 0 0 1
14.060371 -20.129997 -18.789153 30.918329 -0.961092 2.223961 0.006137 -0.006473 -628747.000000 0 0 1
13.230771 -20.052097 -17.496853 29.720023 -0.987549 2.200274 0.017601 -0.013403 -165501.000000 0 0 1
13.749071 -19.252497 -16.475153 28.829261 -0.950640 2.179096 0.018902 -0.015881 309134.000000 0 0 1
12.697871 -19.081697 -15.547353 27.695979 -0.983638 2.166822 0.019471 -0.014806 151484.000000 0 0 1
12.793271 -17.739397 -14.752153 26.381433 -0.945998 2.164201 0.015416 -0.014081 -613220.000000 0 0 1
12.512471 -16.664197 -15.547853 25.999868 -0.926745 2.211797 0.063154 -0.023049 106243.000000 0 0 1
12.635771 -15.476297 -14.839553 24.887564 -0.886099 2.209635 0.058339 -0.023316 67041.800000 0 1 0
11.313771 -14.972897 -14.172053 23.516721 -0.923710 2.217598 0.049716 -0.017691 464102.000000 0 1 0
10.317171 -14.690397 -15.149353 23.489459 -0.958524 2.271745 0.039986 -0.007763 -653561.000000 0 1 0
9.225071 -13.974997 -14.742053 22.309877 -0.987345 2.292662 0.038705 -0.009623 -557179.000000 0 1 0
8.432071 -13.285997 -15.887753 22.361535 -1.005282 2.360997 0.035818 -0.009551 158565.000000 0 1 0
8.977371 -12.138697 -16.581053 22.424818 -0.934006 2.402985 0.038692 -0.006008 537480.000000 0 1 0
10.058471 -12.468897 -17.482653 23.712642 -0.891992 2.399819 0.043804 0.001352 605690.000000 0 1 0
10.512871 -11.308097 -18.387853 24.010553 -0.821825 2.443118 0.049842 -0.000496 -356229.000000 0 1 0
9.583071 -11.022597 -19.372453 24.261592 -0.855145 2.495566 0.039713 -0.005441 -253616.000000 0 1 0
9.872471 -9.797497 -20.029653 24.385316 -0.781587 2.534626 0.039126 -0.006879 259480.000000 0 1 0
9.327271 -9.729797 -21.514553 25.387850 -0.806517 2.581931 0.029219 -0.009712 140403.000000 0 0 1
10.157871 -10.421497 -22.429753 26.737311 -0.798208 2.566043 0.007541 0.009856 -558816.000000 0 0 1
9.592271 -10.520397 -23.686553 27.635905 -0.831512 2.600397 0.028885 0.002865 -224138.000000 0 0 1
10.575671 -11.226797 -24.626353 29.057582 -0.815254 2.582057 0.040119 0.005194 53584.500000 0 0 1
10.641071 -12.591597 -24.376553 29.427828 -0.869158 2.546953 0.027631 0.002476 -462146.000000 0 0 1
11.765771 -13.179397 -24.963653 30.582901 -0.842007 2.525706 0.014078 0.011324 -202148.000000 0 0 1
11.806971 -14.697397 -24.647153 31.030633 -0.894024 2.488625 0.008080 0.005225 -135133.000000 0 0 1
10.849571 -15.426197 -25.379323 31.619469 -0.957845 2.502519 0.021942 -0.003301 -284418.000000 0 0 1
10.766171 -16.705997 -24.779153 31.764874 -0.998333 2.465591 0.024802 -0.004666 81073.200000 0 0 1
9.578871 -17.526597 -25.322153 32.251323 -1.070618 2.473736 0.028379 -0.005071 118899.000000 0 0 1
9.808871 -18.326497 -26.448593 33.639300 -1.079364 2.475498 0.017351 -0.007442 663630.000000 0 0 1
8.569371 -18.975997 -26.807863 33.943838 -1.146621 2.481232 0.018030 -0.007176 836080.000000 0 0 1
8.720271 -19.944997 -28.041653 35.499019 -1.158624 2.481487 0.005308 -0.011503 -228900.000000 0 0 1
9.482271 -21.131697 -27.786343 36.173788 -1.149005 2.446719 -0.009044 -0.011610 95481.200000 0 0 1
9.084571 -22.221997 -28.598773 37.339475 -1.182718 2.443256 -0.008972 -0.006419 348297.000000 0 0 1
10.098071 -23.445497 -28.653873 38.375862 -1.164104 2.413829 -0.008420 -0.011774 352318.000000 0 0 1
9.732771 -24.478297 -29.585293 39.613172 -1.192354 2.414116 0.004131 -0.012443 -193520.000000 0 0 1
9.899371 -25.840097 -29.191293 40.222379 -1.204942 2.382917 0.025211 -0.015644 177535.000000 0 0 1
9.218971 -26.444097 -27.933353 39.554417 -1.235350 2.354914 0.027143 -0.020849 896782.000000 0 0 1
10.111571 -26.277297 -26.795803 38.868435 -1.203459 2.331453 0.010499 -0.011670 384853.000000 0 0 1
9.425271 -26.569597 -25.580163 38.067361 -1.229906 2.307663 0.002070 -0.008066 406986.000000 0 0 1
8.570771 -25.328497 -25.118903 36.687193 -1.244507 2.324958 0.004101 -0.007120 -574550.000000 0 0 1
9.346571 -24.218997 -24.751653 35.868685 -1.202487 2.332372 -0.014624 -0.002525 -418606.000000 0 0 1
8.628771 -23.032297 -24.640653 34.815287 -1.212343 2.357110 -0.008921 -0.008826 -7246.480000 0 0 1
9.658971 -21.839897 -24.515153 34.223816 -1.154395 2.369308 -0.000473 -0.009881 844336.000000 0 0 1
10.281471 -21.687297 -23.238753 33.407890 -1.128100 2.340060 0.011171 -0.008005 -429901.000000 0 0 1
11.336471 -20.794297 -23.261753 33.196800 -1.071667 2.347206 0.006787 -0.002092 -873094.000000 0 0 1
11.857371 -20.573897 -21.837153 32.260560 -1.047962 2.314338 0.006404 -0.000780 -306541.000000 0 0 1
11.006971 -19.970097 -20.874353 30.914346 -1.067053 2.312075 0.016956 0.000673 -87755.000000 0 0 1
10.626971 -18.614997 -21.129653 30.098386 -1.052062 2.349026 0.035511 -0.001297 -547669.000000 0 0 1
11.706771 -17.551497 -21.030353 29.788912 -0.982566 2.354601 0.019926 -0.001707 -628260.000000 0 0 1
12.654371 -17.577997 -22.053753 30.910955 -0.946840 2.365221 0.012084 0.011198 -393938.000000 0 0 1
13.922071 -17.301097 -21.492853 30.904607 -0.893200 2.339853 0.015228 -0.001105 -11932.300000 0 0 1
15.117671 -17.590297 -22.417453 32.256856 -0.860852 2.339170 0.005590 0.029105 -629794.000000 0 0 1
16.389771 -17.496897 -21.854553 32.440522 -0.818058 2.309974 0.015410 0.024317 -374156.000000 0 0 1
17.332571 -17.504697 -22.899853 33.633848 -0.790339 2.319729 0.011197 0.033071 -1715680.000000 0 0 1
18.719271 -17.690997 -22.427653 34.152337 -0.757164 2.287224 0.009938 0.028733 -1622590.000000 0 0 1
18.936171 -19.044997 -21.947353 34.683956 -0.788263 2.255936 0.018592 0.018943 1408970.000000 0 0 1
20.352571 -19.343397 -21.835353 35.569324 -0.759981 2.231765 0.024444 0.008667 1326240.000000 0 0 1
20.534571 -20.813297 -21.391153 36.227660 -0.792139 2.202431 0.029998 0.000956 -209136.000000 0 0 1
20.310971 -20.894897 -19.969553 35.325845 -0.799568 2.171588 0.037334 -0.002640 331853.000000 0 0 1
20.458371 -22.227997 -19.509053 35.961534 -0.826831 2.144204 0.034271 0.010607 -187698.000000 0 0 1
-16.137737 13.115957 28.519630 35.296235 -0.682468 0.630034 0.021648 -0.014979 -114155.000000 0 0 1
-17.314337 13.893657 28.418740 36.061680 -0.676225 0.663146 0.015696 -0.012782 146446.000000 0 0 1
-17.885937 13.667657 27.117160 35.242758 -0.652500 0.692834 0.010861 -0.013414 1367230.000000 0 0 1
-19.241137 14.429357 26.743740 35.967421 -0.643451 0.732426 0.018931 -0.009513 1302950.000000 0 0 1
-19.009737 15.822657 26.875640 36.524329 -0.694155 0.743907 0.010003 -0.001835 552943.000000 0 0 1
-20.123737 16.621157 26.424710 37.141526 -0.690364 0.779223 0.007624 -0.002302 -323215.000000 0 0 1
-20.144037 18.140057 26.844970 38.150968 -0.733101 0.790273 0.011684 0.005865 2430.980000 0 0 1
-19.023937 18.893357 26.427650 37.646910 -0.781954 0.792612 0.006691 0.006160 -1028260.000000 0 0 1
-17.913237 18.738757 27.200500 37.575155 -0.807918 0.761364 0.006443 0.012561 -807546.000000 0 0 1
-16.672537 19.525357 26.620330 36.984524 -0.864047 0.767326 0.015651 0.007953 381667.000000 0 0 1
-16.887137 20.906857 26.483650 37.731364 -0.891358 0.792735 0.014551 0.003724 -83137.500000 0 0 1
-15.873937 21.534457 25.733650 37.120553 -0.935576 0.804814 0.020988 0.001525 -152208.000000 0 0 1
-15.855137 23.054257 25.713950 38.001202 -0.968352 0.827577 0.023885 -0.001560 -112547.000000 0 0 1
-15.362737 23.747857 26.802650 38.966094 -0.996596 0.812280 0.027185 -0.001028 -45571.000000 0 0 1
-15.848137 25.066457 26.795040 39.968299 -1.007004 0.836039 0.022760 -0.008757 -15312.300000 0 0 1
-15.155937 25.934957 27.919860 41.010279 -1.041939 0.821940 0.014573 -0.004330 86059.400000 0 0 1
-13.853037 26.383557 27.618090 40.629517 -1.087300 0.823369 0.035765 -0.006454 -262806.000000 0 0 1
-13.528137 27.254957 28.669950 41.806808 -1.110069 0.815132 0.033577 -0.002986 503398.000000 0 0 1
-11.969437 27.395957 28.668990 41.421213 -1.158885 0.806356 0.045876 -0.010426 859625.000000 0 0 1
-11.268137 28.132157 27.686850 41.048153 -1.189822 0.830513 0.049310 -0.013839 167806.000000 0 0 1
-9.875637 27.972357 27.912240 40.731734 -1.231407 0.815822 0.038416 -0.006591 385223.000000 0 0 1
-8.926837 28.611157 26.878120 40.258168 -1.268362 0.839757 0.043854 -0.013036 404908.000000 0 0 1
-7.555537 28.231757 26.936370 39.745267 -1.309299 0.826132 0.033637 -0.005736 501918.000000 0 0 1
-6.919237 28.725657 25.757790 39.198252 -1.334426 0.853810 0.036946 -0.009714 117372.000000 0 0 1
-5.414737 28.354757 25.649200 38.615969 -1.382104 0.844357 0.017740 -0.005015 -267509.000000 0 0 1
-4.710337 28.958857 26.708890 39.675780 -1.409552 0.832297 0.014527 -0.005253 56827.900000 0 0 1
-3.303637 28.848957 26.571680 39.360266 -1.456778 0.829711 -0.000696 0.003356 668315.000000 0 0 1
-2.555937 29.843557 25.578930 39.388480 -1.485360 0.863999 -0.010621 0.011963 -423159.000000 0 0 1
-2.741537 29.563657 24.218880 38.315532 -1.478327 0.886548 -0.015584 0.025852 -128992.000000 0 0 1
-2.390737 30.631757 23.369330 38.602406 -1.492907 0.920546 -0.018650 0.020303 -311052.000000 0 0 1
-2.629637 30.397857 21.801230 37.499844 -1.484504 0.950387 -0.020368 0.026724 193045.000000 0 0 1
-3.983837 30.241557 21.450830 37.290224 -1.439817 0.957899 -0.012310 0.024150 -476822.000000 0 0 1
-4.425837 28.945857 21.601230 36.387688 -1.419071 0.935220 -0.016128 0.020845 -1127850.000000 0 0 1
-5.870637 28.649457 21.270330 36.161896 -1.368682 0.941968 0.007710 0.013674 -1166110.000000 0 0 1
-6.206337 28.938257 19.904530 35.666955 -1.359528 0.978743 -0.005305 0.015702 -71780.300000 0 0 1
-7.102637 28.104357 19.196930 34.768153 -1.323256 0.985866 -0.005405 0.006428 -883762.000000 0 0 1
-6.662037 26.640157 18.894730 33.333040 -1.325747 0.968123 -0.011282 0.008991 85872.500000 0 0 1
-5.761137 26.503357 17.812330 32.448386 -1.356752 0.989697 -0.015088 0.008858 200579.000000 0 0 1
-4.416837 26.868557 18.099730 32.695994 -1.407867 0.984144 -0.014532 0.022101 -301295.000000 0 0 1
-3.659137 27.000357 16.767630 31.993155 -1.436095 1.019138 -0.012215 0.014113 -175679.000000 0 0 1
-3.356337 25.780957 16.132330 30.596974 -1.441338 1.015433 -0.005500 0.014001 -133118.000000 0 0 1
-2.575637 26.005057 14.983930 30.123331 -1.472075 1.050175 0.003312 0.000137 -189082.000000 0 0 1
-1.965837 24.736657 14.363830 28.672048 -1.491492 1.046077 0.001189 0.003028 629045.000000 0 0 1
-0.776537 24.392757 15.099630 28.698579 -1.538972 1.016735 0.015951 0.006714 508304.000000 0 0 1
-0.125937 23.254257 14.585530 27.450210 -1.565381 1.010609 0.015700 -0.010885 -191165.000000 0 0 1
1.138463 22.798057 15.345730 27.505253 1.520901 0.978919 0.019643 -0.004987 -46616.800000 0 0 1
2.152063 23.742657 15.187430 28.266644 1.480402 1.003574 0.024218 -0.014439 -59607.900000 0 0 1
3.384863 23.387357 15.797830 28.425291 1.427064 0.981511 0.034772 -0.013322 423406.000000 0 0 1
4.539963 24.399457 15.642730 29.336662 1.386832 1.008401 0.038624 -0.015038 -74162.700000 0 0 1
5.750063 23.837457 16.071030 29.318349 1.334098 0.990638 0.045151 -0.013436 -193372.000000 0 0 1
6.797763 24.807257 16.027130 30.306410 1.303339 1.013567 0.046204 -0.014123 268276.000000 0 0 1
8.235163 24.248357 16.003530 30.197909 1.243401 1.012249 0.040154 -0.016906 -162827.000000 0 0 1
8.680663 23.685557 14.766230 29.230140 1.219502 1.041216 0.037302 -0.008596 -134833.000000 0 0 1
9.346563 24.594257 13.918730 29.765194 1.207623 1.084203 0.032683 -0.013879 -481134.000000 0 0 1
9.673363 23.905657 12.568430 28.688322 1.186290 1.117309 0.031327 -0.007569 512776.000000 0 0 1
10.819363 23.049457 12.730330 28.467479 1.131929 1.107177 0.029012 -0.009655 503411.000000 0 0 1
11.149263 22.355057 11.522230 27.510296 1.108161 1.138636 0.037938 -0.011450 -340784.000000 0 0 1
12.448163 21.577457 11.637330 27.494924 1.047531 1.133763 0.026545 -0.007899 -357884.000000 0 0 1
12.295863 20.543257 12.524430 27.019900 1.031455 1.088826 0.023502 0.007038 -318564.000000 0 0 1
13.427563 19.715357 12.529730 26.944181 0.972888 1.087133 0.022636 0.005099 -317529.000000 0 0 1
13.802363 19.320857 13.993930 27.561401 0.950487 1.038241 0.023046 0.000556 -696760.000000 0 0 1
14.926363 18.498257 14.003530 27.587690 0.891858 1.038399 0.021028 -0.001037 -275378.000000 0 0 1
15.230363 18.150857 15.338430 28.225609 0.872665 0.996288 0.013380 -0.004806 -749990.000000 0 0 1
16.285663 17.103257 15.341030 28.161879 0.809880 0.994712 -0.000534 -0.006386 -858503.000000 0 0 1
16.467763 16.695157 16.705030 28.791900 0.792255 0.951823 0.013161 -0.012574 244668.000000 0 0 1
17.549563 15.785257 16.809730 28.978069 0.732521 0.951964 0.001689 -0.009602 135401.000000 0 0 1
18.046663 15.391957 18.242730 29.923094 0.706174 0.915172 0.017194 -0.013261 -88795.800000 0 0 1
18.767363 16.383257 18.934530 31.291236 0.717676 0.920897 0.020991 -0.008120 539812.000000 0 0 1
17.957963 17.456957 19.497930 31.739613 0.771252 0.909286 0.015936 -0.005298 143158.000000 0 0 1
18.704563 18.508457 20.362130 33.272210 0.780128 0.912227 0.016876 0.005238 82325.400000 0 0 1
17.832563 19.416557 20.987730 33.697000 0.827897 0.898433 0.019225 0.012893 321864.000000 0 0 1
18.660463 20.331257 21.651030 35.076202 0.828222 0.905545 0.015274 0.023978 276004.000000 0 0 1
17.818563 21.435157 22.315130 35.706192 0.877273 0.895709 0.018908 0.018185 275264.000000 0 0 1
16.912063 21.007557 23.308930 35.646059 0.892986 0.858070 0.023663 0.012797 -91576.800000 0 0 1
15.987363 22.021457 23.610630 36.027797 0.942839 0.856157 0.029765 0.000803 335895.000000 0 0 1
15.263563 21.704057 24.992940 36.451193 0.957887 0.815293 0.036219 0.001035 709394.000000 0 0 1
14.194563 20.770357 24.865410 35.372050 0.971295 0.791235 0.034039 -0.003464 157843.000000 0 0 1
13.342763 20.649957 25.972410 35.763335 0.997139 0.757974 0.026912 0.000965 -38360.300000 0 0 1
12.356363 19.458757 25.925330 34.690714 1.005036 0.726765 0.032982 -0.006975 -183160.000000 0 0 1
12.900363 18.147057 26.026070 34.250421 0.952806 0.707674 0.035368 -0.006892 40543.500000 0 0 1
13.670063 17.712257 24.889540 33.467654 0.913498 0.732224 0.034507 -0.003788 405192.000000 0 0 1
12.904363 17.491157 23.487430 32.001914 0.935172 0.746694 0.043846 -0.009580 -313534.000000 0 0 1
12.729563 18.616857 22.611730 31.936178 0.971049 0.784094 0.038309 -0.002399 -144846.000000 0 0 1
13.867363 18.984757 21.862130 32.104166 0.939927 0.821703 0.028496 -0.000780 -35450.400000 0 0 1
14.325063 18.018257 20.789530 31.017246 0.899093 0.836241 0.030850 0.004450 -886305.000000 0 0 1
13.369763 17.773757 19.823230 29.792909 0.925876 0.842810 0.026403 -0.004148 -455211.000000 0 0 1
13.884863 16.837457 18.911830 28.878135 0.881210 0.856767 0.023462 -0.006435 -260649.000000 0 0 1
12.829063 16.215057 18.006030 27.417696 0.901455 0.854322 0.020337 -0.002422 -309749.000000 0 0 1
12.190163 17.169457 17.193730 27.184824 0.953396 0.886052 0.028392 -0.002247 205202.000000 0 0 1
11.281263 16.512957 16.292530 25.795177 0.971451 0.887166 0.023608 -0.002386 412830.000000 0 0 1
10.938663 17.300457 15.004230 25.378871 1.006982 0.938239 0.027867 0.000160 48294.300000 0 0 1
10.072663 18.370157 15.359030 25.977317 1.069246 0.938191 0.033544 0.000982 186975.000000 0 0 1
9.795063 19.199857 14.240730 25.833624 1.099051 0.986937 0.034935 0.005821 -53913.300000 0 0 1
8.635263 20.192657 14.536630 26.336757 1.166689 0.986093 0.040030 0.007477 550168.000000 0 0 1
7.400663 19.535957 14.827130 25.617713 1.208679 0.953559 0.018245 0.000132 -367456.000000 0 0 1
6.424863 20.492957 15.056230 26.228424 1.266986 0.959362 0.030608 -0.007446 -137072.000000 0 0 1
5.196863 19.931457 15.832630 25.979656 1.315738 0.915462 0.023405 -0.013663 511456.000000 0 0 1
4.227163 19.349857 14.950330 24.815282 1.355716 0.924211 0.020498 -0.018744 403529.000000 0 1 0
3.013263 19.130857 15.680630 24.918900 1.414572 0.890187 0.016633 -0.011975 590933.000000 0 1 0
1.885863 18.525957 14.819030 23.798555 1.469350 0.898625 0.015739 -0.012595 136907.000000 0 1 0
1.101463 19.451557 14.107930 24.054313 1.514231 0.944062 0.016358 -0.014201 -295265.000000 0 1 0
-0.003437 18.951957 13.419130 23.221751 -1.570615 0.954681 0.015233 -0.016586 -149431.000000 0 1 0
-0.740537 19.945657 12.467230 23.533156 -1.533686 1.012463 0.017927 -0.019941 475270.000000 0 1 0
-1.852037 20.570557 13.100330 24.458056 -1.481005 1.005549 0.019313 -0.013136 -4976.620000 0 1 0
-2.788737 21.072557 12.180630 24.498928 -1.439221 1.050439 0.018930 -0.012112 356878.000000 0 1 0
-3.940337 21.887957 12.849530 25.685002 -1.392681 1.046882 0.013057 -0.012526 85591.900000 0 0 1
-4.719137 21.009657 13.615130 25.476415 -1.349846 1.006974 0.018185 -0.011742 -408355.000000 0 0 1
-5.642737 21.796757 14.321430 26.684124 -1.317478 1.004272 0.002284 0.000059 -422003.000000 0 0 1
-6.367937 21.154457 15.504530 26.989852 -1.278403 0.958855 0.005192 0.002199 -561190.000000 0 0 1
-7.385837 20.241357 15.194630 26.365506 -1.220920 0.956594 0.004644 0.002653 464091.000000 0 0 1
-8.124837 19.578257 16.287630 26.732153 -1.177432 0.915632 -0.000475 0.014513 22120.200000 0 0 1
-9.106437 20.466857 17.058630 28.156994 -1.152162 0.919975 0.001306 0.016666 100914.000000 0 0 1
-10.352737 20.877257 16.485730 28.545023 -1.110445 0.955091 -0.006322 0.011185 270097.000000 0 0 1
-11.278737 19.833657 16.718430 28.285858 -1.053735 0.938433 -0.008970 0.010777 -364635.000000 0 0 1
-12.398137 19.829557 15.615030 28.120354 -1.012028 0.982081 0.005773 0.000905 -34467.700000 0 0 1
-13.233537 20.931957 15.581330 29.258352 -1.007024 1.009194 -0.002280 -0.000442 -372407.000000 0 0 1
-14.114337 20.777057 14.496730 29.000962 -0.974083 1.047347 -0.000721 -0.009199 -508523.000000 0 0 1
-15.120737 21.949157 14.329130 30.260968 -0.967560 1.077515 0.003326 -0.011064 921936.000000 0 0 1
-16.341437 21.689857 15.074030 31.059924 -0.925114 1.064066 0.015654 -0.009507 708556.000000 0 0 1
-17.085937 22.885457 15.185730 32.346248 -0.929484 1.082101 0.020473 -0.016283 47515.800000 0 0 1
-18.471137 22.775457 15.861630 33.339101 -0.889378 1.074961 0.030000 -0.013874 -638776.000000 0 0 1
-19.310537 21.916857 15.086930 32.876449 -0.848532 1.094042 0.020689 -0.016783 -195254.000000 0 0 1
-20.473437 21.455557 15.717430 33.563971 -0.808817 1.083450 0.023615 -0.012082 -105377.000000 0 0 1
-21.564637 22.510257 15.896330 34.991979 -0.806850 1.099227 0.031591 -0.016618 -1318480.000000 0 0 1
-22.406937 22.830657 14.820230 35.255481 -0.794764 1.136947 0.032434 -0.013088 69043.500000 0 0 1
-23.054837 24.070857 14.903030 36.510711 -0.806955 1.150334 0.050213 -0.021685 -262210.000000 0 0 1
-22.356237 25.282457 14.174930 36.605090 -0.846746 1.173161 0.043212 -0.016898 387259.000000 0 0 1
-21.128437 25.576957 14.844930 36.345062 -0.880358 1.150047 0.021628 -0.023198 183976.000000 0 0 1
-20.631437 26.784657 14.325130 36.718979 -0.914448 1.170025 0.016703 -0.011787 -731480.000000 0 0 1
-19.153637 26.979857 14.641230 36.182041 -0.953441 1.154195 0.020506 -0.015728 -229511.000000 0 0 1
-18.324937 26.413857 13.630530 34.918283 -0.964269 1.169779 0.018467 -0.010423 240860.000000 0 0 1
-16.943137 26.688757 13.758630 34.476942 -1.005151 1.160297 0.018580 -0.012201 -189831.000000 0 0 1
-16.000937 26.089457 12.734230 33.148912 -1.020647 1.176507 0.022566 -0.013335 -450184.000000 0 0 1
-14.727537 26.662157 12.883930 33.072143 -1.066131 1.170631 0.018232 -0.011583 -375015.000000 0 0 1
-13.830937 26.107157 11.938530 31.865451 -1.083613 1.186772 0.012783 -0.008514 193854.000000 0 0 1
-12.406137 26.689557 12.047730 31.802398 -1.135677 1.182264 0.004055 -0.002444 -347094.000000 0 0 1
-11.320437 25.869957 11.609830 30.531871 -1.158310 1.180727 -0.002504 -0.001818 1300650.000000 0 0 1
-10.024437 26.336657 12.019530 30.636219 -1.207102 1.167632 0.008700 -0.007679 800366.000000 0 0 1
-9.519937 27.642057 11.374930 31.370393 -1.239119 1.199739 0.009068 -0.011881 -381361.000000 0 0 1
-8.246737 28.083457 11.861230 31.581292 -1.285174 1.185776 0.022870 -0.021888 507621.000000 0 0 1
-7.998337 29.308957 11.304930 32.415888 -1.304386 1.214563 0.027658 -0.019276 -130773.000000 0 0 1
-6.706237 29.916357 11.894730 32.885356 -1.350276 1.200702 0.022867 -0.024509 851498.000000 0 0 1
-5.504337 29.292857 11.416030 31.917001 -1.385055 1.205015 0.030671 -0.022224 327896.000000 0 0 1
-4.349037 29.679857 12.147030 32.362916 -1.425300 1.186035 0.025914 -0.028433 255698.000000 0 0 1
-3.117237 29.059957 11.449530 31.389329 -1.463936 1.197423 0.037309 -0.035244 -223596.000000 0 0 1
-3.004037 29.653557 10.136930 31.481979 -1.469836 1.242964 0.043873 -0.033644 259339.000000 0 0 1
-1.821637 29.297157 9.432230 30.831943 -1.508698 1.259888 0.035441 -0.031525 280761.000000 0 0 1
-1.535337 30.121857 8.198230 31.255311 -1.519870 1.305393 0.031713 -0.028644 60046.600000 0 0 1
-2.411237 29.939857 7.095830 30.863569 -1.490434 1.338812 0.039302 -0.029750 102435.000000 0 0 1
-2.243737 30.916757 6.093930 31.591394 -1.498350 1.376681 0.039110 -0.020012 97881.500000 0 0 1
10.361263 -34.129797 -26.797933 44.613092 -1.276055 2.215140 0.057654 -0.009185 252989.000000 0 0 1
11.347463 -34.228597 -25.783863 44.330231 -1.250679 2.191529 0.048688 -0.010834 375610.000000 0 0 1
12.281763 -33.154497 -25.854933 43.801141 -1.216029 2.202202 0.050730 -0.006860 154443.000000 0 0 1
13.126663 -33.042397 -24.573353 43.219890 -1.192648 2.175558 0.051213 0.004005 -791953.000000 0 0 1
12.512263 -32.382497 -23.529253 41.938152 -1.202078 2.166446 0.051116 0.002635 219988.000000 0 0 1
13.154363 -32.498397 -22.224153 41.510192 -1.186185 2.135766 0.038840 0.003637 1765580.000000 0 0 1
14.684963 -32.047097 -22.044753 41.576865 -1.141119 2.129653 0.026049 0.012600 1790180.000000 0 0 1
15.603863 -33.065397 -22.455153 42.907282 -1.129873 2.121564 0.033706 0.006167 -81125.200000 0 0 1
16.905163 -32.769497 -22.011153 42.943164 -1.094525 2.108965 0.023052 0.005420 -531431.000000 0 0 1
17.845963 -33.947397 -22.237053 44.332727 -1.086805 2.096237 0.013110 0.011883 -38515.100000 0 0 1
19.181163 -33.705297 -21.803753 44.490085 -1.053419 2.082979 0.010713 0.024501 386900.000000 0 0 1
19.955963 34.094857 -21.973853 45.205640 1.041250 2.078402 0.008521 0.021301 587641.000000 0 0 1
21.513963 34.210357 -21.891253 45.961136 1.009417 2.067237 0.010691 0.027447 765165.000000 0 0 1
22.134963 -34.168397 -23.036253 46.777183 -0.995955 2.085719 0.012112 0.026306 -258046.000000 0 0 1
23.523063 -34.186797 -22.851253 47.373530 -0.968119 2.074147 0.021499 0.024802 -173306.000000 0 0 1
24.386163 -33.298097 -23.774353 47.630537 -0.938681 2.093403 0.035188 0.015277 -37504.400000 0 0 1
24.311963 -31.882097 -23.604953 46.526696 -0.919306 2.102894 0.033576 0.015458 35233.400000 0 0 1
23.112163 -31.175097 -23.932853 45.594300 -0.932844 2.123404 0.014602 0.019523 156448.000000 0 0 1
23.116463 -29.615597 -23.779553 44.462586 -0.908028 2.135093 0.011149 0.005363 -452983.000000 0 0 1
23.873763 -28.954997 -24.770853 44.966027 -0.881286 2.154214 0.012611 0.005781 -122694.000000 0 0 1
23.668763 -27.550997 -24.706853 43.928309 -0.861049 2.168125 0.020853 0.009259 228297.000000 0 0 1
24.269363 -26.702497 -25.900593 44.416956 -0.833097 2.193365 0.021062 0.011291 480330.000000 0 0 1
23.444163 -26.644297 -27.058283 44.628444 -0.849201 2.222198 0.022146 0.006436 -62556.500000 0 0 1
24.158363 -25.993797 -28.110873 45.271681 -0.821979 2.240734 0.016655 0.007328 -516515.000000 0 0 1
23.253863 -25.623897 -29.305493 45.344659 -0.833849 2.273500 0.019259 -0.002513 -163828.000000 0 0 1
22.453063 -24.515097 -29.088673 44.173305 -0.829273 2.289637 0.038393 -0.011522 -112046.000000 0 0 1
21.243663 -24.849797 -28.399623 43.305244 -0.863474 2.286040 0.054468 -0.011260 -622747.000000 0 0 1
20.379863 -23.600897 -28.192303 42.037449 -0.858505 2.305877 0.060922 -0.010128 -135667.000000 0 0 1
19.958763 -22.979597 -29.422713 42.333322 -0.855635 2.339251 0.075494 -0.020502 144120.000000 0 0 1
19.373663 -21.731097 -29.123783 41.179778 -0.842687 2.356376 0.068890 -0.006410 170398.000000 0 0 1
18.224963 -21.279097 -30.081273 41.107569 -0.862557 2.391711 0.075752 -0.015545 523417.000000 0 0 1
17.056963 -22.080897 -29.925013 40.914696 -0.913065 2.391169 0.060349 -0.018316 405958.000000 0 0 1
15.928363 -21.382797 -30.442793 40.468511 -0.930558 2.422280 0.049243 -0.019925 -43508.500000 0 0 1
14.641863 -22.182997 -30.157343 40.198692 -0.987389 2.419172 0.028345 -0.021578 -580715.000000 0 0 1
14.602863 -23.297697 -31.061293 41.482890 -1.010908 2.417006 0.036178 -0.018632 67272.200000 0 0 1
13.689563 -24.271597 -30.618803 41.400793 -1.057256 2.403228 0.041595 -0.027032 -333648.000000 0 0 1
13.837363 -25.566597 -31.421143 42.806678 -1.074713 2.395025 0.060660 -0.028348 6443.290000 0 0 1
13.079563 -26.631297 -30.942213 42.868654 -1.114266 2.377183 0.064911 -0.022429 32428.800000 0 0 1
13.734063 -27.867197 -31.267253 44.077730 -1.112893 2.359395 0.111218 -0.026460 410539.000000 0 0 1
13.308263 -29.026297 -30.368503 44.066787 -1.140905 2.331108 0.085964 -0.032099 -129371.000000 0 0 1
13.989463 -29.103097 -29.107863 43.473705 -1.122719 2.304400 0.088057 -0.037473 93468.700000 0 0 1
13.634363 -28.138397 -28.132713 42.060846 -1.119588 2.303467 0.070822 -0.033383 -385263.000000 0 0 1
14.543763 -28.238997 -26.919523 41.636795 -1.095202 2.273826 0.047421 -0.008394 -456909.000000 0 0 1
14.387463 -29.326797 -26.070643 41.794001 -1.114704 2.244378 0.057617 -0.010903 858066.000000 0 0 1
15.345163 -29.287997 -24.950053 41.421805 -1.088180 2.217227 0.061124 -0.010822 63515.600000 0 0 1
15.104163 -28.187997 -23.873053 39.907663 -1.078892 2.212058 0.051158 -0.004520 536505.000000 0 0 1
14.011963 -28.366297 -22.966753 39.095443 -1.111988 2.198705 0.032702 -0.001605 697732.000000 0 0 1
12.730663 -28.260497 -23.566853 38.937411 -1.147547 2.220876 0.031966 0.003013 15552.200000 0 0 1
11.504663 -28.024197 -22.638053 37.817910 -1.181249 2.212557 0.017043 0.002708 350771.000000 0 0 1
11.468663 -26.616997 -22.227853 36.524953 -1.163958 2.225049 0.009701 0.004028 604259.000000 0 0 1
10.245563 -26.414197 -21.509953 35.571891 -1.200781 2.220172 0.013006 0.001637 38264.800000 0 0 1
9.915563 -24.963697 -21.086853 34.149084 -1.192707 2.236349 0.004611 0.000287 -99416.900000 0 0 1
10.533363 -24.508197 -19.908153 33.285703 -1.164876 2.211924 -0.003821 -0.004671 114955.000000 0 0 1
10.191463 -23.163897 -19.831853 32.151741 -1.156313 2.235493 -0.005172 -0.005252 -148207.000000 0 0 1
10.406863 -22.522997 -18.450453 30.919369 -1.137963 2.210214 0.002175 -0.010585 205333.000000 0 0 1
9.604063 -23.097097 -17.396853 30.469073 -1.176733 2.178480 0.014558 -0.011042 426964.000000 0 0 1
9.568563 -22.322097 -16.199353 29.193363 -1.165831 2.159037 0.016474 -0.006864 -1147.150000 0 0 1
8.645363 -22.909897 -15.115253 28.776319 -1.209955 2.123825 0.037329 -0.007789 465076.000000 0 0 1
9.220163 -24.182297 -14.777753 29.802296 -1.206534 2.089621 0.019566 -0.008521 184500.000000 0 0 1
8.630963 -24.604697 -13.621353 29.418122 -1.233422 2.052202 0.015279 -0.012331 -244637.000000 0 0 1
9.030963 -26.023097 -13.254153 30.568487 -1.236764 2.019268 0.033688 -0.013115 772948.000000 0 0 1
10.376463 -26.297797 -12.840353 31.050278 -1.194975 1.997129 0.031665 -0.016244 392847.000000 0 0 1
10.581063 -27.670197 -13.168253 32.419154 -1.205554 1.989074 0.043838 -0.019008 314675.000000 0 0 1
11.965363 -28.239997 -12.655353 33.178687 -1.170025 1.962139 0.036509 -0.014487 1756070.000000 0 0 1
13.190863 -27.728997 -13.236353 33.437960 -1.126772 1.977788 0.030317 -0.011104 953228.000000 0 0 1
13.339963 -28.064797 -14.597153 34.331681 -1.127081 2.009957 0.028341 -0.007717 -1513610.000000 0 0 1
14.682563 -27.787897 -15.219253 34.919486 -1.084704 2.021766 0.013323 0.001069 -23818.300000 0 0 1
15.812563 -28.586397 -14.827653 35.875876 -1.065538 1.996876 0.008296 0.002257 1257210.000000 0 0 1
17.022463 -28.079097 -15.428553 36.280024 -1.025807 2.010049 0.019580 0.006613 441338.000000 0 0 1
18.212963 -28.999197 -15.251453 37.486961 -1.010006 1.989796 0.024824 0.005674 -259694.000000 0 0 1
18.201963 -30.166197 -16.020353 38.703522 -1.027888 1.997558 0.006745 0.017739 303550.000000 0 0 1
19.560763 -30.595997 -16.086753 39.718032 -1.001963 1.987801 0.009226 0.022358 486114.000000 0 0 1
19.810863 -31.686597 -17.170553 41.125887 -1.012044 2.001502 0.005023 0.018550 -340843.000000 0 0 1
19.297463 -32.996197 -16.883153 41.787342 -1.041599 1.986710 0.002539 0.026805 200609.000000 0 0 1
19.824363 -33.972397 -17.799653 43.173565 -1.042565 1.995753 0.005463 0.021506 145590.000000 0 0 1
19.704563 33.512757 -17.328953 42.563685 1.039268 1.990106 0.000664 0.013530 -77714.400000 0 0 1
20.634363 33.089157 -16.334353 42.278603 1.013205 1.967468 -0.001133 0.013385 252307.000000 0 0 1
20.354163 31.742157 -15.892553 40.919796 1.000608 1.969673 0.007617 0.005892 -334266.000000 0 0 1
21.377063 31.247957 -14.876153 40.678170 0.970814 1.945185 0.002945 -0.002279 -519359.000000 0 0 1
22.720963 31.068757 -15.301553 41.420373 0.939363 1.949182 0.006925 0.001947 432587.000000 0 0 1
23.561763 30.782757 -14.183953 41.278557 0.917499 1.921560 0.017704 -0.004840 35482.400000 0 0 1
23.248663 29.538457 -13.342853 39.887999 0.903993 1.911879 0.013691 0.000749 -1260730.000000 0 0 1
23.271363 28.315557 -14.159253 39.291367 0.882869 1.939456 0.021558 0.007197 167456.000000 0 0 1
23.040063 27.134757 -13.394053 38.033409 0.866826 1.930680 0.020259 0.005789 650957.000000 0 0 1
21.512963 26.918457 -13.101953 36.865594 0.896549 1.934136 0.019219 -0.001317 271620.000000 0 0 1
20.710163 26.627557 -14.205153 36.602240 0.909757 1.969360 0.028574 -0.007181 205257.000000 0 0 1
19.307963 26.563857 -13.997153 35.698126 0.942276 1.973707 0.038111 -0.013834 456912.000000 0 0 1
18.523063 27.892457 -14.094453 36.328317 0.984581 1.969229 0.035445 -0.015329 -440624.000000 0 0 1
18.485363 28.684257 -15.327353 37.408862 0.998338 1.992949 0.027672 -0.012125 236076.000000 0 0 1
17.788663 28.143257 -16.456553 37.138895 1.007125 2.029859 0.017545 -0.002886 -295444.000000 0 0 1
18.071063 29.014657 -17.674653 38.481255 1.013762 2.048010 0.014861 0.004386 45355.600000 0 0 1
17.397363 30.279257 -17.710553 39.155655 1.049290 2.040152 0.014832 0.001573 -8852.450000 0 0 1
17.493063 30.900757 -18.974253 40.260232 1.055673 2.061549 0.014302 0.004439 -534709.000000 0 0 1
16.479363 31.980257 -19.313653 40.832872 1.094985 2.063481 0.015110 0.002765 -325039.000000 0 0 1
16.679663 33.219757 -18.678353 41.601013 1.105470 2.036429 -0.001555 0.009679 530855.000000 0 0 1
15.496963 34.019957 -18.797153 41.843115 1.143357 2.036699 0.006528 0.004558 505462.000000 0 0 1
15.521663 -33.635597 -17.968753 41.172217 -1.138449 2.022422 0.006088 0.008714 128318.000000 0 0 1
14.389563 -32.838097 -18.257453 40.233502 -1.157801 2.041807 0.011144 0.013561 -53366.800000 0 0 1
14.196463 -31.736897 -17.378653 38.868853 -1.150176 2.034328 0.019067 0.007948 227378.000000 0 0 1
13.049163 -30.754297 -17.749153 37.830409 -1.169516 2.059155 0.020627 0.004393 -418820.000000 0 0 1
11.798263 -31.338897 -17.621653 37.839769 -1.210734 2.055212 0.030383 0.004236 -444267.000000 0 0 1
10.718963 -30.385297 -17.714253 36.768970 -1.231658 2.073472 0.028970 0.007012 1170100.000000 0 0 1
9.445163 -31.109197 -18.272353 37.294398 -1.276028 2.082828 0.043746 -0.001189 -488283.000000 0 0 1
8.834463 -32.033197 -17.352053 37.486893 -1.301695 2.052041 0.048198 0.002441 1169770.000000 0 0 1
7.593463 -32.658897 -17.776953 37.951077 -1.342347 2.058295 0.062226 0.004931 968421.000000 0 0 1
6.390663 -31.770297 -18.138653 37.137623 -1.372293 2.081071 0.055123 0.006316 -1014950.000000 0 0 1
6.427563 -31.262597 -19.437253 37.369377 -1.368023 2.117809 0.048412 0.006626 51171.100000 0 0 1
6.181963 -32.236497 -20.451953 38.674161 -1.381328 2.128015 0.038860 0.002753 -1252480.000000 0 0 1
6.384763 -31.724197 -21.886553 39.066751 -1.372191 2.165466 0.021159 0.009459 27784.500000 0 0 1
7.712863 -31.344097 -22.218053 39.186510 -1.329519 2.173634 0.032873 0.006007 1266550.000000 0 0 1
8.821763 -32.278997 -22.147953 40.128406 -1.304014 2.155470 0.033975 -0.000400 460827.000000 0 0 1
8.739963 -33.506197 -23.055153 41.600388 -1.315636 2.158204 0.034244 0.000849 -1026300.000000 0 0 1
7.660063 -34.359497 -22.883653 41.987059 -1.351445 2.147205 0.034240 -0.000678 -707203.000000 0 0 1
7.624463 33.636257 -23.913253 41.968725 1.347889 2.177044 0.035319 -0.007239 -562575.000000 0 0 1
6.379863 32.782757 -23.757553 40.985767 1.378588 2.189100 0.035695 -0.015208 -173398.000000 0 0 1
5.115763 33.396357 -23.821053 41.339210 1.418795 2.184909 0.028857 -0.009692 292543.000000 0 0 1
4.636863 33.992057 -22.575253 41.068266 1.435223 2.152802 0.020289 -0.007837 162684.000000 0 0 1
3.285463 -34.152397 -22.656053 41.115413 -1.474891 2.154401 0.013374 -0.001626 367916.000000 0 0 1
2.167463 33.957457 -22.586953 40.840877 1.507054 2.156814 0.005925 -0.012004 -363193.000000 0 0 1
1.030063 -34.246797 -22.950653 41.238775 -1.540728 2.161001 0.003145 -0.007421 -540502.000000 0 0 1
-0.310237 34.152457 -22.487353 40.892146 -1.561713 2.153063 0.000627 -0.015724 -523109.000000 0 0 1
-0.453737 33.953657 -21.078053 39.966749 -1.557434 2.126322 -0.008363 -0.007687 -72152.700000 0 0 1
-1.778737 33.809957 -20.604053 39.633371 -1.518235 2.117491 -0.003878 -0.017367 234197.000000 0 0 1
-1.937737 34.012957 -19.012553 39.014270 -1.513887 2.079818 -0.005172 -0.006904 39140.300000 0 0 1
-1.221137 33.063957 -18.252453 37.787147 -1.533881 2.074912 -0.006465 -0.015869 -148488.000000 0 0 1
-1.688037 32.987257 -16.909953 37.107346 -1.519669 2.043959 -0.009874 -0.012763 -46538.600000 0 0 1
-0.844737 32.097757 -15.965953 35.859326 -1.544485 2.032237 -0.012434 -0.014655 -314693.000000 0 0 1
0.395463 32.693657 -15.672853 36.258377 1.558701 2.017788 -0.002184 -0.010262 -394258.000000 0 0 1
1.058563 31.715957 -14.843553 35.033606 1.537432 2.008317 -0.001126 0.005241 458451.000000 0 0 1
2.242463 32.217857 -13.971953 35.188555 1.501305 1.979107 0.019271 -0.008237 885414.000000 0 0 1
3.424263 32.557657 -14.732153 35.899344 1.466006 1.993660 0.029451 -0.008832 118193.000000 0 0 1
4.389363 33.050057 -13.868053 36.109495 1.438759 1.964981 0.039707 -0.010014 425284.000000 0 0 1
5.755263 33.445257 -14.538653 36.919923 1.400385 1.975546 0.066756 -0.021738 1031470.000000 0 0 1
6.642263 32.367457 -14.790853 36.201398 1.368392 1.991685 0.056451 -0.010844 -242957.000000 0 0 1
7.921663 32.773657 -15.248553 37.005185 1.333637 1.995516 0.055989 -0.003337 647154.000000 0 0 1
8.834463 31.491157 -15.221753 36.075510 1.297289 2.006382 0.047666 -0.013094 67217.200000 0 0 1
9.233563 31.162257 -13.924453 35.358667 1.282732 1.975565 0.053884 -0.016613 -413327.000000 0 0 1
10.082863 30.026957 -13.905753 34.592661 1.246833 1.984481 0.051856 -0.013685 117398.000000 0 0 1
9.409763 28.609657 -13.794853 33.126335 1.253040 2.000313 0.039012 -0.013443 -52294.900000 0 0 1
8.533563 28.249257 -14.852453 33.036912 1.277431 2.037082 0.047386 -0.009499 99626.500000 0 0 1
8.040263 26.936757 -14.529553 31.643998 1.280728 2.047842 0.040659 -0.005281 -62608.700000 0 0 1
7.266563 26.148657 -15.597653 31.302427 1.299741 2.092420 0.044656 -0.004455 -63709.400000 0 0 1
8.092163 25.745057 -16.627953 31.698263 1.266255 2.123006 0.050164 -0.001719 -116864.000000 0 0 1
7.295363 24.966657 -17.528853 31.365857 1.286507 2.163796 0.038802 0.004394 510883.000000 0 0 1
8.121963 24.170357 -18.554953 31.535039 1.246621 2.199865 0.042387 0.003535 51108.200000 0 0 1
7.449263 22.996857 -19.050653 30.777822 1.257537 2.238231 0.043667 0.002238 -33753.700000 0 0 1
8.282363 22.249157 -19.924653 30.993779 1.214434 2.269022 0.037364 0.003423 3255.740000 0 0 1
7.483263 21.407157 -20.974053 30.889747 1.234506 2.317192 0.034460 -0.006233 602650.000000 0 0 1
6.739663 20.286857 -20.376353 29.532615 1.250050 2.332232 0.025157 -0.000174 152612.000000 0 0 1
6.189663 19.479157 -21.337853 29.547478 1.263128 2.377709 0.015321 0.002526 -158756.000000 0 0 1
24.256863 -12.419043 -9.315853 28.799534 -0.473186 1.900193 0.010200 -0.000872 255357.000000 0 0 1
25.021663 -11.823243 -8.257753 28.880152 -0.441423 1.860775 0.003959 0.000017 753747.000000 0 0 1
24.271963 -11.949643 -7.083853 27.966107 -0.457487 1.826888 0.004321 0.005966 -564677.000000 0 0 1
25.053363 -11.371143 -5.907453 28.140218 -0.426073 1.782299 -0.002447 0.002104 -547478.000000 0 0 1
25.034163 -9.973443 -5.673053 27.538381 -0.379121 1.778287 0.003788 -0.006690 334419.000000 0 0 1
25.944363 -9.182443 -6.423953 28.261182 -0.340170 1.800107 -0.003113 -0.005704 -977521.000000 0 0 1
25.999263 -7.704243 -5.866653 27.744092 -0.288082 1.783861 0.026503 -0.012665 -190916.000000 0 0 1
26.679463 -7.576943 -4.645853 28.120949 -0.276713 1.736767 0.043218 -0.021090 312372.000000 0 0 1
28.070563 -7.829143 -4.667853 29.513401 -0.271997 1.729624 0.045068 -0.025658 -483232.000000 0 0 1
28.694563 -7.669543 -3.259553 29.880169 -0.261177 1.680101 0.047512 -0.025406 -275592.000000 0 0 1
28.867863 -6.344043 -2.861253 29.694901 -0.216323 1.667301 0.061129 -0.023261 287567.000000 0 0 1
29.721163 -6.381643 -1.729553 30.447730 -0.211506 1.627631 0.063807 -0.024762 77909.500000 0 0 1
29.947763 -5.032043 -1.051353 30.385774 -0.166472 1.605403 0.070502 -0.034253 -174248.000000 0 0 1
28.807363 -4.602543 -0.356653 29.174899 -0.158431 1.583021 0.076451 -0.038191 -985955.000000 0 0 1
28.879963 -3.258343 0.019947 29.063197 -0.112349 1.570110 0.066253 -0.027483 -69581.400000 0 0 1
29.612563 -2.927143 1.346947 29.787351 -0.098528 1.525562 0.071381 -0.026244 -108917.000000 0 0 1
28.890163 -3.460443 2.421147 29.197228 -0.119211 1.487777 0.076879 -0.032412 211875.000000 0 0 1
29.443563 -3.097043 3.646247 29.829686 -0.104800 1.448254 0.062611 -0.025115 -233927.000000 0 0 1
28.984463 -4.075543 4.720747 29.647843 -0.139695 1.410888 0.062614 -0.030156 -438379.000000 0 0 1
29.689163 -5.304643 4.718847 30.526270 -0.176807 1.415591 0.055066 -0.034297 93849.700000 0 0 1
29.250363 -6.298743 5.600547 30.440499 -0.212100 1.385759 0.058580 -0.032522 97367.100000 0 0 1
30.186863 -7.559643 5.503347 31.601926 -0.245382 1.395758 0.037537 -0.024669 164653.000000 0 0 1
31.548463 -7.263743 5.637847 32.861113 -0.226297 1.398377 0.048952 -0.028382 -237834.000000 0 0 1
32.342663 -8.476743 5.645347 33.908302 -0.256326 1.403529 0.041801 -0.019751 4320.110000 0 0 1
33.830663 -8.137043 5.580647 35.240159 -0.236039 1.411766 0.042405 -0.016397 -533176.000000 0 0 1
34.369463 -7.723643 4.363547 35.495847 -0.221052 1.447553 0.048085 -0.017309 -250654.000000 0 0 1
-35.331746 -7.390643 4.567147 36.384237 0.206205 1.444939 0.044358 -0.011684 -163893.000000 0 0 1
-34.562646 -7.223743 3.261447 35.459780 0.206038 1.478690 0.041682 -0.008871 -376791.000000 0 0 1
-34.356546 -8.396143 2.478547 35.454347 0.239685 1.500831 0.042677 -0.011442 -235984.000000 0 0 1
-33.371746 -8.210343 1.531847 34.401014 0.241236 1.526252 0.054441 -0.009192 -794536.000000 0 0 1
-33.183546 -9.366943 0.583747 34.485187 0.275119 1.553868 0.051483 -0.010884 -12630.000000 0 0 1
-32.624346 -10.473643 1.292647 34.288717 0.310644 1.533088 0.045245 -0.001950 421089.000000 0 0 1
-32.557546 -11.654743 0.514147 34.584552 0.343761 1.555929 0.039559 -0.010023 -524614.000000 0 0 1
-32.448346 -12.911643 1.372947 34.949831 0.378707 1.531503 0.018288 -0.007540 753525.000000 0 0 1
-31.241546 -13.268743 2.064347 34.005225 0.401629 1.510052 0.024940 -0.001230 1060030.000000 0 0 1
-30.139246 -13.695043 1.261747 33.128845 0.426501 1.532701 0.030667 0.002445 -193537.000000 0 0 1
-28.909546 -14.062343 2.087747 32.215991 0.452729 1.505946 0.026564 0.005496 -245720.000000 0 0 1
-28.263946 -12.949143 2.675347 31.203981 0.429611 1.484954 0.024845 0.005032 737955.000000 0 0 1
-26.893246 -13.206243 2.982147 30.108882 0.456471 1.471588 0.033951 0.006607 510045.000000 0 0 1
-26.265146 -12.293743 4.030147 29.278595 0.437773 1.432710 0.033018 0.004309 -1532590.000000 0 0 1
-24.931946 -12.561943 4.202347 28.232323 0.466722 1.421392 0.031419 0.009776 -1008490.000000 0 0 1
-24.398646 -11.700543 5.209747 27.556090 0.447160 1.380592 0.028968 0.015355 -247604.000000 0 0 1
-22.974146 -12.006643 5.664147 26.534005 0.481576 1.355673 0.030731 0.021818 -464809.000000 0 0 1
-22.888046 -13.094943 6.590947 27.180522 0.519675 1.325867 0.036157 0.005482 905389.000000 0 0 1
-21.545346 -13.295543 7.078247 26.288305 0.552895 1.298177 0.028552 0.010973 762566.000000 0 0 1
-21.044446 -12.571843 8.346047 25.895491 0.538502 1.242641 0.036270 0.002379 -683127.000000 0 0 1
-20.898146 -11.139743 8.381947 25.121374 0.489736 1.230615 0.036965 0.002106 856847.000000 0 0 1
-22.071146 -10.395443 8.740147 25.915071 0.440177 1.226790 0.051551 -0.002221 166392.000000 0 0 1
-22.600946 -10.509443 10.259247 26.953725 0.435258 1.180325 0.049295 0.004890 -534933.000000 0 0 1
-23.025546 -11.781643 10.670347 27.979264 0.472946 1.179523 0.044630 -0.007164 -21239.800000 0 0 1
-24.335546 -12.135643 10.304347 29.080444 0.462591 1.208589 0.038833 -0.006976 -111929.000000 0 0 1
-25.433346 -11.570443 11.258147 30.124345 0.426948 1.187777 0.051279 -0.011831 -685341.000000 0 0 1
-25.418446 -12.291643 12.473747 30.867074 0.450419 1.154789 0.041782 -0.011368 37955.500000 0 0 1
-26.485446 -11.868343 13.276047 31.915355 0.421280 1.141780 0.031338 -0.014587 -118200.000000 0 0 1
-26.582446 -12.635143 14.628347 32.867337 0.443709 1.109541 0.032115 -0.010487 -102636.000000 0 0 1
-26.657746 -14.021643 14.518047 33.436740 0.484221 1.121652 0.022587 -0.013417 235798.000000 0 0 1
-26.341946 -14.600843 15.729247 33.977816 0.506124 1.089502 0.009717 -0.009413 -707606.000000 0 0 1
-26.082946 -16.146043 15.596347 34.413091 0.554292 1.100434 0.019203 -0.002932 -469671.000000 0 0 1
-27.229546 -16.946943 15.483547 35.614425 0.556708 1.121030 0.012920 -0.005136 -85322.600000 0 0 1
-26.878746 -18.317843 15.554447 36.054836 0.598201 1.124740 0.008355 0.002049 -661203.000000 0 0 1
-27.881046 -19.162143 16.292947 37.549975 0.602139 1.121979 -0.004715 0.003519 -451760.000000 0 0 1
-28.181646 -18.766843 17.657847 38.186374 0.587488 1.090082 0.011212 -0.000246 73594.800000 0 0 1
-28.722246 -19.758943 18.541047 39.486120 0.602580 1.082006 0.014456 0.002842 -316841.000000 0 0 1
-27.932546 -21.090643 18.728247 39.696217 0.646729 1.079477 0.012123 0.010663 -347083.000000 0 0 1
-26.818046 -20.857943 19.538847 39.192192 0.661031 1.048883 0.029702 0.006117 -455754.000000 0 0 1
-26.044346 -21.976943 19.794847 39.409770 0.700900 1.044560 0.035296 0.003978 389714.000000 0 0 1
-24.659546 -21.710343 20.488347 38.719563 0.721882 1.013201 0.050212 0.004686 506032.000000 0 0 1
-23.605746 -21.432743 19.617347 37.435732 0.737188 1.019224 0.050231 0.001602 370489.000000 0 0 1
-22.333646 -21.816643 20.149547 37.158605 0.773689 0.997674 0.048495 0.000775 1356740.000000 0 0 1
-21.074546 -21.524043 19.244847 35.746120 0.795950 1.002288 0.040517 0.002768 601566.000000 0 0 1
-20.951546 -22.491043 18.197647 35.720704 0.820821 1.036259 0.037993 0.002951 -44873.800000 0 0 1
-19.768246 -22.245143 17.493347 34.520243 0.844285 1.039378 0.040878 0.000555 -439065.000000 0 0 1
-19.581046 -23.140543 16.230847 34.385208 0.868525 1.079204 0.035572 0.008785 -625602.000000 0 0 1
-19.486946 -24.528543 16.411247 35.365513 0.899443 1.088238 0.040603 -0.000631 380019.000000 0 0 1
-18.419646 -25.156793 17.149247 35.584326 0.938789 1.067937 0.042312 -0.006401 1066470.000000 0 0 1
-17.008346 -25.041583 16.458047 34.456234 0.974164 1.072818 0.046331 -0.010637 515447.000000 0 0 1
-16.462846 -23.743943 16.301547 33.174396 0.964548 1.057112 0.043645 -0.009885 -1233510.000000 0 0 1
-15.250746 -23.761643 15.673947 32.293553 1.000192 1.064023 0.039109 -0.010483 -1205470.000000 0 0 1
-14.499946 -22.430043 15.726347 30.994730 0.996919 1.038646 0.039275 0.001549 -218490.000000 0 0 1
-15.053846 -21.349343 14.934747 30.090853 0.956642 1.051440 0.043871 0.004850 -459432.000000 0 0 1
-15.962746 -20.535243 15.585247 30.321699 0.910030 1.030959 0.045562 0.004076 -516704.000000 0 0 1
-15.366146 -19.439743 16.489147 29.764308 0.901906 0.983646 0.039182 -0.007934 -569994.000000 0 0 1
-14.776846 -18.402343 15.720547 28.357310 0.894237 0.983186 0.036674 -0.006980 -125821.000000 0 0 1
-14.616546 -17.314043 16.610847 28.095191 0.869678 0.938208 0.018856 -0.008930 -455735.000000 0 0 1
-14.113646 -16.068443 15.918847 26.660825 0.850075 0.930931 0.026321 -0.007602 137060.000000 0 0 1
-14.987646 -15.411643 14.986247 26.205646 0.799345 0.962012 0.023627 -0.009999 244155.000000 0 0 1
-15.157646 -16.109743 13.742547 26.041038 0.815839 1.014875 0.034261 -0.013151 -192244.000000 0 0 1
-15.966346 -15.330643 12.701547 25.520230 0.765089 1.049846 0.026393 -0.007617 343593.000000 0 0 1
-17.360146 -15.266343 12.994447 26.519645 0.721311 1.058714 0.019711 -0.011578 652822.000000 0 0 1
-18.073446 -14.666943 11.873747 26.129572 0.681725 1.099078 0.029737 -0.009792 -363669.000000 0 0 1
-19.597846 -14.757743 12.013247 27.316381 0.645437 1.115441 0.031195 -0.010102 -159499.000000 0 0 1
-20.170246 -16.018343 11.649147 28.268866 0.671168 1.146056 0.043138 -0.017765 8416.450000 0 0 1
-20.247846 -16.157143 10.208747 27.843259 0.673501 1.195390 0.043482 -0.011224 -437141.000000 0 0 1
-21.072946 -17.383643 9.724447 28.996982 0.689757 1.228808 0.044100 -0.004798 547758.000000 0 0 1
-20.360746 -18.614643 9.831447 29.286896 0.740628 1.228454 0.050122 0.004241 611249.000000 0 0 1
-21.273246 -19.651443 9.444447 30.461908 0.745790 1.255560 0.060411 -0.002538 418624.000000 0 0 1
-20.580746 -21.038443 9.391647 30.893142 0.796395 1.261903 0.051982 0.007096 182751.000000 0 0 1
-19.439846 -20.950643 8.551847 29.832384 0.822786 1.280054 0.056415 -0.000849 -171551.000000 0 0 1
-19.059546 -22.317243 8.361447 30.516216 0.863969 1.293246 0.047765 -0.002456 191025.000000 0 0 1
-17.744446 -22.498543 7.544447 29.630533 0.902988 1.313344 0.047675 -0.009638 138038.000000 0 0 1
-16.656346 -21.840243 8.166747 28.655294 0.919252 1.281790 0.039639 -0.006390 -60440.800000 0 0 1
-15.480946 -22.201243 7.447747 28.071762 0.961884 1.302270 0.056058 -0.004461 -10374.200000 0 0 1
-14.211546 -21.819643 8.250947 27.315618 0.993494 1.263944 0.009419 0.002857 223376.000000 0 0 1
-13.037046 -22.229743 7.543647 26.852052 1.040386 1.286029 0.020589 0.005147 -705670.000000 0 0 1
-11.927546 -21.961443 8.297847 26.332976 1.073256 1.250221 0.020392 0.004775 -180877.000000 0 0 1
-10.591446 -22.508443 7.685647 26.036089 1.130981 1.271140 0.015023 0.013971 661642.000000 0 0 1
-10.396146 -23.938243 7.869947 27.259043 1.161083 1.277918 0.014215 0.013914 310553.000000 0 0 1
-9.097446 -24.336343 7.410847 27.017435 1.213059 1.292936 0.025632 0.010009 750139.000000 0 0 1
-8.882346 -25.829363 7.663647 28.368708 1.239579 1.297253 0.030839 0.006505 121900.000000 0 0 1
-9.758046 -26.564383 6.788347 29.102707 1.218762 1.335373 0.020024 0.002512 206307.000000 0 0 1
-9.641446 -27.953333 6.969747 30.379659 1.238661 1.339313 0.032240 -0.007652 375707.000000 0 0 1
-8.683946 -28.598303 5.909447 30.466300 1.275992 1.375592 0.026871 -0.010502 268868.000000 0 0 1
-7.288846 -28.422063 5.986347 29.946240 1.319756 1.369537 0.033332 -0.011747 -158433.000000 0 0 1
-6.463946 -29.493263 5.543347 30.697946 1.355041 1.389223 0.029839 -0.004774 406040.000000 0 0 1
-6.626246 -30.922223 6.153647 32.217362 1.359701 1.378611 0.035508 -0.015133 -405782.000000 0 0 1
-6.434746 -30.829133 7.533247 32.381958 1.365028 1.336008 0.036930 -0.013292 5488.580000 0 0 1
-6.448646 -32.137063 8.185247 33.784229 1.372766 1.326081 0.064733 -0.026517 -203419.000000 0 0 1
-6.642046 -32.186323 9.720147 34.271817 1.367291 1.283230 0.062179 -0.024851 -750497.000000 0 0 1
-5.640046 -31.592243 10.490047 33.762717 1.394131 1.254868 0.041007 -0.012626 -34700.300000 0 0 1
-5.924046 -31.711173 11.891147 34.381568 1.386113 1.217643 0.031420 -0.010030 -380032.000000 0 0 1
-5.085046 -30.764443 12.708747 33.672257 1.406988 1.183782 0.034736 -0.005715 -166126.000000 0 0 1
-5.567046 -29.414983 12.691347 32.516204 1.383750 1.169830 0.022804 -0.003770 -250717.000000 0 0 1
-4.880046 -28.583933 13.542347 32.003926 1.401700 1.133881 0.011868 -0.003303 -601775.000000 0 0 1
-5.516046 -28.330153 14.945647 32.502257 1.378496 1.092988 0.015803 -0.002627 71883.200000 0 0 1
-5.896046 -29.435223 15.690547 33.873131 1.373107 1.089177 0.025735 -0.009079 -187258.000000 0 0 1
-4.831046 -29.980273 16.387847 34.506772 1.411029 1.075927 0.015594 -0.002980 -159930.000000 0 0 1
-5.371046 -31.269063 16.999247 35.994122 1.400688 1.078922 0.015435 0.004649 272608.000000 0 0 1
-5.301046 -32.382373 16.146847 36.571025 1.408534 1.113504 0.016075 0.002107 381578.000000 0 0 1
-6.260846 -33.354743 16.546747 37.756217 1.385251 1.117143 0.014921 -0.003224 347131.000000 0 0 1
-5.936046 34.229831 15.799747 38.164774 -1.399087 1.143966 0.007916 -0.009991 101097.000000 0 0 1
-6.250446 34.325706 14.424147 37.754181 -1.390678 1.178778 0.016562 -0.020559 -42016.300000 0 0 1
-5.610046 33.271557 13.792147 36.451234 -1.403754 1.182759 0.011249 -0.020183 329770.000000 0 0 1
-4.273046 33.595669 13.056647 36.296059 -1.444285 1.202822 0.030095 -0.023662 299920.000000 0 0 1
-4.534046 34.109067 11.772547 36.367278 -1.438643 1.241146 0.035039 -0.027679 -330196.000000 0 0 1
-3.387046 34.435413 11.075947 36.331066 -1.472752 1.261003 0.041751 -0.027723 -1270150.000000 0 0 1
-3.779046 -34.227223 9.612447 35.751687 1.460831 1.298580 0.041543 -0.025336 -766980.000000 0 0 1
-3.954046 33.676343 8.675647 34.999963 -1.453918 1.320309 0.052171 -0.035133 401264.000000 0 0 1
-4.800046 32.561050 8.958947 34.110484 -1.424434 1.305034 0.059925 -0.035890 322483.000000 0 0 1
-6.260946 32.732800 9.450847 34.640354 -1.381805 1.294465 0.074872 -0.036947 -206901.000000 0 0 1
-7.035346 33.379014 8.473747 35.149097 -1.363065 1.327318 0.079864 -0.025183 -1008520.000000 0 0 1
-8.252046 33.793526 9.028447 35.938997 -1.331293 1.316860 0.062478 -0.024070 -493210.000000 0 0 1
-9.360546 33.965015 7.983347 36.124450 -1.301878 1.347961 0.067294 -0.030104 -276964.000000 0 0 1
-9.328646 -33.766173 7.286847 35.780948 1.301248 1.365710 0.086470 -0.030330 -206428.000000 0 0 1
-10.167446 -33.846593 6.173947 35.875987 1.278975 1.397844 0.073489 -0.015846 -232416.000000 0 0 1
-10.411946 -32.485783 5.421347 34.541652 1.260633 1.413194 0.056627 -0.016026 325438.000000 0 0 1
-11.088246 -31.601443 6.325647 34.082462 1.233340 1.384116 0.063042 -0.010159 -154451.000000 0 0 1
-11.959946 -30.739763 5.620947 33.459952 1.199747 1.402006 0.058185 -0.009883 -258890.000000 0 0 1
-12.798946 -29.960693 6.647947 33.251336 1.167071 1.369510 0.056149 -0.006779 335356.000000 0 0 1
-13.846746 -30.859123 7.102747 34.561060 1.149017 1.363808 0.067582 -0.008405 656135.000000 0 0 1
-14.632646 -30.251133 8.141047 34.576322 1.120269 1.333113 0.054684 -0.014637 292486.000000 0 0 1
32.168551 -13.294243 -12.651053 37.035142 -0.391892 1.919411 -0.004565 0.005723 559276.000000 0 0 1
31.249121 -12.982043 -11.558153 35.757963 -0.393743 1.899940 -0.007655 0.008132 832035.000000 0 0 1
30.679131 -14.104843 -10.897853 35.481247 -0.430935 1.882987 -0.010860 0.011750 -394700.000000 0 0 1
31.556801 -14.782843 -9.846153 36.212027 -0.438092 1.846166 0.007046 0.002373 519918.000000 0 0 1
32.781961 -15.220143 -10.460953 37.626338 -0.434669 1.852531 0.005721 -0.001430 598052.000000 0 0 1
33.814581 -15.605443 -9.562053 38.449820 -0.432376 1.822123 0.027632 -0.011863 809665.000000 0 0 1
35.210622 -15.808243 -10.215353 39.925455 -0.421991 1.829534 0.029158 -0.019577 297879.000000 0 0 1
-35.246474 -14.623843 -10.677053 39.625373 0.393287 1.843618 0.030817 -0.012197 1002200.000000 0 0 1
-33.831457 -14.815043 -10.876553 38.501330 0.412752 1.857194 0.044819 -0.020226 1089170.000000 0 0 1
-33.028777 -13.593943 -11.365353 37.481551 0.390448 1.878872 0.068664 -0.025236 53591.600000 0 0 1
-33.020627 -12.483043 -10.447953 36.815050 0.361431 1.858547 0.077867 -0.026913 559366.000000 0 0 1
-32.197717 -11.404143 -10.964853 35.874441 0.340404 1.881412 0.070935 -0.028335 395965.000000 0 0 1
-32.361787 -10.056543 -10.222053 35.396465 0.301293 1.863756 0.063922 -0.028583 -303261.000000 0 0 1
-31.769967 -10.012943 -8.971553 34.497516 0.305316 1.833885 0.062672 -0.025918 -107788.000000 0 0 1
-32.404517 -9.178243 -8.012153 34.619178 0.276010 1.804351 0.072060 -0.033409 -420120.000000 0 0 1
-31.867077 -9.158943 -6.572553 33.802298 0.279867 1.766484 0.057866 -0.027946 -328632.000000 0 0 1
-30.553807 -8.594343 -6.494153 32.397097 0.274200 1.772618 0.056374 -0.033061 208924.000000 0 0 1
-30.071047 -8.378543 -5.192753 31.645419 0.271733 1.735634 0.051778 -0.024419 -860944.000000 0 0 1
-29.358047 -9.553943 -4.645353 31.221020 0.314619 1.720140 0.052654 -0.019797 -924248.000000 0 0 1
-30.186377 -10.699643 -4.419353 32.330024 0.340636 1.707921 0.058736 -0.015919 483508.000000 0 0 1
-30.433347 -10.964543 -3.060653 32.492729 0.345804 1.665131 0.044686 -0.013538 -254126.000000 0 0 1
-31.080487 -12.343343 -2.836553 33.561896 0.378040 1.655414 0.051687 -0.020438 -399234.000000 0 0 1
-32.419477 -12.390343 -3.282753 34.861434 0.365058 1.665102 0.052936 -0.026197 29181.100000 0 0 1
-33.043677 -13.593543 -2.921553 35.849749 0.390279 1.652381 0.054520 -0.027323 -976285.000000 0 0 1
-34.540486 -13.356143 -2.952753 37.150377 0.368972 1.650361 0.036403 -0.026314 -915728.000000 0 0 1
-35.016801 -12.647943 -1.827253 37.275806 0.346614 1.619836 0.035885 -0.034403 46164.200000 0 0 1
34.637731 -12.699743 -1.674153 36.930458 -0.351425 1.616144 0.053998 -0.029024 -88779.500000 0 0 1
34.175101 -11.827743 -0.480753 36.167170 -0.333189 1.584089 0.058695 -0.030630 -240146.000000 0 0 1
34.420411 -12.284343 0.788147 36.555314 -0.342801 1.549234 0.065071 -0.020694 47160.000000 0 0 1
34.407121 -11.187443 1.682547 36.219330 -0.314367 1.524325 0.049265 -0.019126 -167172.000000 0 0 1
34.707841 -11.612343 3.158147 36.734924 -0.322867 1.484719 0.046770 -0.016949 543238.000000 0 0 1
33.571091 -11.712743 4.021847 35.782423 -0.335689 1.458161 0.048087 -0.022905 410217.000000 0 0 1
34.007461 -12.377643 5.209447 36.562984 -0.349064 1.427831 0.049567 -0.020144 -26771.800000 0 0 1
32.968801 -12.515743 6.357747 35.833038 -0.362818 1.392425 0.049938 -0.020049 -120552.000000 0 0 1
32.644721 -11.242943 6.899847 35.209225 -0.331680 1.373553 0.034326 -0.023381 -61127.700000 0 0 1
32.228681 -11.335443 8.218147 35.138556 -0.338206 1.334732 0.020633 -0.007749 -537670.000000 0 0 1
31.518051 -10.074543 8.786647 34.235788 -0.309380 1.311241 0.026164 -0.021454 411398.000000 0 0 1
30.126001 -10.133343 8.459747 32.891153 -0.324477 1.310668 0.036585 -0.016042 351619.000000 0 0 1
29.407861 -9.207743 9.261347 32.177281 -0.303436 1.278844 0.049995 -0.006118 -124996.000000 0 0 1
27.891631 -9.494543 9.202447 30.867045 -0.328104 1.268062 0.042258 -0.010906 -3595.180000 0 0 1
27.424721 -9.004343 7.941447 29.937604 -0.317240 1.302316 0.065062 -0.017058 931.636000 0 0 1
26.648641 -9.842843 7.130747 29.289575 -0.353814 1.324868 0.068166 -0.025522 -224100.000000 0 0 1
25.948771 -9.143643 5.940347 28.146628 -0.338787 1.358147 0.071558 -0.030537 -300548.000000 0 0 1
24.999871 -8.267843 6.470847 27.114990 -0.319393 1.329826 0.064703 -0.027316 247996.000000 0 0 1
24.143071 -7.552243 5.574947 25.903751 -0.303169 1.353882 0.075130 -0.035198 256746.000000 0 0 1
24.871071 -6.417943 4.768047 26.124595 -0.252539 1.387256 0.075643 -0.030827 -80283.700000 0 0 1
25.575471 -6.849643 3.606947 26.721385 -0.261680 1.435399 0.070188 -0.029238 269112.000000 0 0 1
26.310071 -5.749943 3.119347 27.111105 -0.215162 1.455483 0.079852 -0.028337 -394977.000000 0 0 1
26.701651 -5.952043 1.651147 27.406775 -0.219323 1.510514 0.070914 -0.033996 599079.000000 0 0 1
25.599871 -5.955843 0.724047 26.293530 -0.228585 1.543256 0.072831 -0.039608 365426.000000 0 0 1
26.175331 -5.686843 -0.463553 26.789980 -0.213935 1.588100 0.068513 -0.038784 -1058380.000000 0 0 1
25.287071 -5.955143 -1.731953 26.036501 -0.231287 1.637366 0.071635 -0.028635 95422.100000 0 0 1
24.376671 -4.911543 -1.941653 24.942241 -0.198823 1.648721 0.080173 -0.022906 -527688.000000 0 1 0
23.623571 -5.099543 -3.085453 24.363877 -0.212604 1.697778 0.057413 -0.019472 727786.000000 0 1 0
22.281371 -4.245643 -3.156153 22.900793 -0.188290 1.709055 0.030815 -0.017429 529198.000000 0 1 0
22.424171 -2.855643 -3.146453 22.823197 -0.126665 1.709099 0.019954 -0.017494 287372.000000 0 1 0
23.069371 -2.271243 -4.293453 23.575160 -0.098137 1.753936 0.028055 -0.015885 -118373.000000 0 1 0
22.184471 -1.249543 -5.030953 22.782068 -0.056266 1.793461 0.021359 -0.008438 -80404.600000 0 1 0
21.815171 -0.186643 -4.180653 22.212933 -0.008555 1.760134 0.004251 -0.007063 187496.000000 0 1 0
21.153571 0.802957 -4.929153 21.735107 0.037940 1.799570 0.027192 -0.001844 -609321.000000 0 1 0
21.037671 2.241857 -4.288453 21.587042 0.106163 1.770785 0.037556 -0.001643 -323561.000000 0 1 0
22.208771 3.022957 -4.274553 22.817528 0.135284 1.759246 0.056632 -0.006491 122849.000000 0 1 0
22.984971 2.839157 -3.111653 23.367758 0.122900 1.704353 0.053854 -0.007672 -62822.900000 0 1 0
24.078471 3.939857 -2.998053 24.582180 0.162188 1.693061 0.047468 -0.015143 136007.000000 0 1 0
23.613771 5.267657 -2.976353 24.376568 0.219482 1.693201 0.039460 -0.008441 -245971.000000 0 1 0
24.739971 5.999757 -2.704253 25.600317 0.237919 1.676627 0.038608 -0.011178 -634443.000000 0 0 1
24.461871 7.507757 -2.829353 25.744025 0.297790 1.680922 0.032161 -0.016159 -147760.000000 0 0 1
23.427971 7.837557 -1.948653 24.780928 0.322835 1.649513 0.037979 -0.014714 616066.000000 0 1 0
22.456171 8.745557 -2.492453 24.227602 0.371379 1.673855 0.032007 -0.009856 -61678.900000 0 1 0
21.356171 9.087357 -1.511453 23.258345 0.402306 1.635828 0.018092 -0.006630 -553039.000000 0 1 0
21.904371 9.842957 -0.435453 24.018220 0.422322 1.588927 0.011371 0.001540 1038060.000000 0 1 0
20.906671 10.064957 0.538347 23.209526 0.448676 1.547599 0.007714 -0.003169 77373.900000 0 1 0
21.546371 10.688457 1.817247 24.120357 0.460497 1.495384 0.028863 -0.004569 -635232.000000 0 1 0
22.258771 11.851757 1.650447 25.271348 0.489272 1.505441 0.028861 -0.003479 214204.000000 0 0 1
21.527571 13.032357 1.384847 25.203104 0.544366 1.515821 0.027825 -0.008719 -609006.000000 0 0 1
20.653871 13.614257 2.542347 24.867527 0.582789 1.468382 0.026344 -0.006903 572028.000000 0 1 0
19.393671 12.968057 2.785847 23.495658 0.589391 1.451948 0.062782 -0.010717 1380640.000000 0 1 0
18.468271 13.854857 3.458247 23.345097 0.643628 1.422113 0.061099 -0.008223 312404.000000 0 1 0
18.430871 13.770357 5.010347 23.546195 0.641665 1.356369 0.047351 -0.011663 -381941.000000 0 1 0
17.918071 12.503957 5.407747 22.508886 0.609275 1.328174 0.029598 -0.006047 375034.000000 0 1 0
17.988371 12.397857 6.770047 22.871858 0.603451 1.270295 0.019106 -0.014089 -251280.000000 0 1 0
18.184671 10.946457 7.259247 22.432206 0.541860 1.241256 0.011116 -0.013629 -436623.000000 0 1 0
19.279971 10.228957 6.761147 22.848675 0.487787 1.270389 0.007211 -0.019470 133044.000000 0 1 0
19.275671 8.887857 7.143847 22.395983 0.432040 1.246144 0.016092 -0.019939 -173903.000000 0 1 0
20.417671 8.037057 6.558747 22.901807 0.375005 1.280344 0.025337 -0.015940 60277.900000 0 1 0
20.055871 7.767257 5.191647 22.125132 0.369494 1.333939 0.019697 -0.013378 969735.000000 0 1 0
20.991871 6.940057 4.525747 22.567796 0.319295 1.368887 0.018004 -0.010459 -137251.000000 0 1 0
20.617071 6.681957 3.006347 21.880363 0.313416 1.432961 0.009642 -0.007866 -248892.000000 0 1 0
21.573671 5.912957 2.332847 22.490632 0.267513 1.466884 0.010696 -0.008036 404890.000000 0 1 0
21.184571 5.643257 1.011247 21.946641 0.260340 1.524702 0.005098 0.000052 -338343.000000 0 1 0
22.184171 4.693457 0.342447 22.677814 0.208493 1.555695 0.022596 -0.005398 -116819.000000 0 1 0
22.131071 3.342157 0.789447 22.395927 0.149884 1.535539 0.018210 -0.004492 246119.000000 0 1 0
23.303671 2.661857 0.458747 23.459690 0.113732 1.551240 0.032965 -0.003847 -309686.000000 0 1 0
23.090771 1.089257 0.388647 23.119716 0.047138 1.553985 0.044942 -0.010761 332721.000000 0 1 0
22.136771 0.638657 -0.597953 22.154053 0.028842 1.597790 0.026428 -0.013481 1033440.000000 0 1 0
22.361871 -0.745643 -0.991753 22.396269 -0.033332 1.615093 0.041441 -0.019221 -1071380.000000 0 1 0
21.960271 -1.937443 -0.079753 22.045715 -0.087997 1.574414 0.045128 -0.009048 334241.000000 0 1 0
22.831871 -2.169243 1.042547 22.958373 -0.094725 1.525370 0.046068 -0.011674 605263.000000 0 1 0
24.154071 -2.517343 0.704947 24.295126 -0.103845 1.541776 0.051826 -0.024910 -90868.700000 0 1 0
25.293171 -2.129043 1.696647 25.439260 -0.083977 1.504053 0.061281 -0.026606 173163.000000 0 0 1
25.363471 -0.752343 1.847247 25.441777 -0.029654 1.498126 0.051427 -0.023504 264579.000000 0 0 1
26.242801 -0.411543 2.892747 26.404961 -0.015681 1.461023 0.052746 -0.023601 -52644.800000 0 0 1
25.854971 0.967657 3.531647 26.112994 0.037409 1.435136 0.042563 -0.019600 -195437.000000 0 0 1
25.865571 2.159057 2.709947 26.096611 0.083279 1.466766 0.036447 -0.020484 28360.400000 0 0 1
27.160081 2.667457 2.469247 27.402236 0.097898 1.480563 0.044563 -0.024313 -14365.200000 0 0 1
27.233051 3.718157 1.382547 27.520451 0.135692 1.520538 0.040832 -0.024941 -315118.000000 0 0 1
27.122281 3.106757 0.084447 27.299766 0.114049 1.567703 0.061240 -0.019173 198913.000000 0 0 1
27.408821 4.047657 -0.888953 27.720340 0.146617 1.602870 0.054109 -0.010936 -524438.000000 0 0 1
28.867511 4.083557 -1.367453 29.186959 0.140526 1.617665 0.056736 -0.012650 -203518.000000 0 0 1
29.750251 4.620657 -0.370353 30.109219 0.154084 1.583097 0.058480 -0.015093 -73004.600000 0 0 1
31.080371 4.438257 -0.788953 31.405574 0.141840 1.595920 0.049528 -0.009320 -127772.000000 0 0 1
32.106321 4.558857 0.362547 32.430395 0.141050 1.559617 0.032643 -0.011777 -63557.700000 0 0 1
32.004071 3.558157 1.323547 32.228448 0.110724 1.529717 0.034493 -0.014932 547819.000000 0 0 1
31.207871 3.906257 2.483347 31.549280 0.124521 1.492002 0.028523 -0.007367 294960.000000 0 0 1
31.234281 2.798157 3.561247 31.560933 0.089348 1.457718 0.043793 -0.011150 -267595.000000 0 0 1
30.611951 1.601157 3.185947 30.818915 0.052257 1.467235 0.044671 -0.019794 54181.100000 0 0 1
30.914211 0.554057 4.031847 31.180944 0.017920 1.441128 0.045963 -0.021463 248447.000000 0 0 1
32.245781 -0.251443 3.822447 32.472523 -0.007798 1.452810 0.055377 -0.016216 985235.000000 0 0 1
33.408341 0.454257 4.247347 33.680314 0.013596 1.444352 0.043738 -0.014379 747912.000000 0 0 1
34.621931 -0.272143 4.183747 34.874861 -0.007860 1.450542 0.037806 -0.014111 1212620.000000 0 0 1
-35.121515 0.541757 4.608147 35.426676 -0.015424 1.440351 0.035875 -0.011692 1247440.000000 0 0 1
-34.745866 1.693857 3.802947 34.994382 -0.048711 1.461908 0.036408 -0.012713 309459.000000 0 0 1
-34.646132 1.524357 2.380947 34.761287 -0.043970 1.502248 0.047621 -0.008573 -997931.000000 0 0 1
-34.381217 2.856257 1.651047 34.539141 -0.082886 1.522976 0.054936 -0.015550 378146.000000 0 0 1
-33.135447 3.527457 1.767247 33.369507 -0.106056 1.517812 0.057902 -0.023260 1230020.000000 0 0 1
-31.982367 2.795257 1.247147 32.128502 -0.087178 1.531969 0.059726 -0.029639 -483181.000000 0 0 1
-30.741677 3.576757 1.616347 30.991233 -0.115828 1.518618 0.063825 -0.028897 -1037240.000000 0 0 1
-30.508477 3.548857 2.984047 30.858809 -0.115803 1.473945 0.054351 -0.024945 158058.000000 0 0 1
-30.076997 4.837957 3.531047 30.667571 -0.159486 1.455401 0.054333 -0.028960 -404116.000000 0 0 1
-30.450177 4.956257 5.005547 31.254332 -0.161351 1.409948 0.044172 -0.013626 -722514.000000 0 0 1
-31.820737 5.098757 5.204647 32.644218 -0.158883 1.410678 0.047356 -0.004698 -229326.000000 0 0 1
-32.632117 3.931357 5.228147 33.281289 -0.119897 1.413053 0.055941 -0.006411 -559114.000000 0 0 1
-32.386777 2.985357 6.409547 33.149630 -0.091919 1.376219 0.032062 0.004127 -720470.000000 0 0 1
-32.654247 3.555157 7.698247 33.737250 -0.108446 1.340586 0.022117 0.004630 461262.000000 0 0 1
-32.376157 2.683057 8.815847 33.662049 -0.082682 1.305813 0.017387 0.002176 -215246.000000 0 0 1
-33.478337 1.641857 9.141447 34.742781 -0.049003 1.304544 0.019228 0.010460 -244920.000000 0 0 1
-33.464037 0.473557 8.325247 34.487328 -0.014150 1.326988 0.022889 0.008240 -36731.900000 0 0 1
-34.385956 -0.541043 8.625947 35.455517 0.015733 1.325041 0.029188 0.005206 -289359.000000 0 0 1
-34.333237 -1.257343 10.035147 35.791846 0.036605 1.286611 0.040428 0.003672 477885.000000 0 0 1
-33.120367 -2.033543 10.077147 34.679142 0.061322 1.275961 0.029205 -0.002817 706937.000000 0 0 1
-32.948087 -2.702143 11.343747 34.950803 0.081829 1.240246 0.023698 -0.002189 94120.200000 0 0 1
-31.719237 -3.640843 11.289547 33.864725 0.114283 1.230919 0.033516 -0.002087 -130908.000000 0 0 1
-31.823397 -4.613243 10.276047 33.758077 0.143961 1.261485 0.028280 -0.000641 675561.000000 0 0 1
-30.730157 -5.564243 10.232347 32.863419 0.179127 1.254173 0.018330 -0.001162 519157.000000 0 0 1
-30.804237 -6.529143 9.037847 32.759936 0.208865 1.291290 0.012520 0.003288 -115608.000000 0 0 1
-31.886337 -7.400643 9.168547 33.993680 0.228057 1.297701 0.025584 -0.001939 -238893.000000 0 0 1
-31.874817 -8.302343 8.054847 33.908899 0.254806 1.330960 0.024753 -0.004979 485985.000000 0 0 1
-32.866947 -9.533043 8.095247 35.166009 0.282303 1.338512 0.026218 -0.008010 105003.000000 0 0 1
-34.202105 -9.166143 8.297847 36.368344 0.261846 1.340608 0.028980 -0.006789 -211306.000000 0 0 1
-34.933270 -10.370843 8.592547 37.439546 0.288588 1.339228 0.035834 -0.007648 81354.100000 0 0 1
7.997663 -24.168143 10.514647 27.543049 -1.251222 1.179104 0.058321 -0.009866 34020.500000 0 0 1
7.293263 -24.600643 9.349247 27.309188 -1.282585 1.221382 0.059576 -0.015898 -20644.900000 0 0 1
6.006763 -25.089593 9.678747 27.554438 -1.335807 1.211881 0.060380 -0.019519 410626.000000 0 0 1
5.437263 -26.049313 8.593747 27.963960 -1.365021 1.258426 0.048090 -0.009115 124238.000000 0 0 1
5.018963 -25.443283 7.375647 26.962025 -1.376036 1.293707 0.054912 -0.008667 -221920.000000 0 0 1
4.765463 -26.473363 6.428247 27.656300 -1.392694 1.336218 0.039404 -0.000243 -322048.000000 0 0 1
3.919363 -25.979993 5.229647 26.789376 -1.421065 1.374321 0.035913 -0.005200 561673.000000 0 0 1
2.516863 -25.850043 5.443147 26.536525 -1.473738 1.364211 0.018144 -0.008439 -44340.100000 0 0 1
1.877163 -27.005123 4.938947 27.517151 -1.501397 1.390332 0.005826 -0.000048 436940.000000 0 0 1
0.314563 -26.850603 4.961447 27.306955 -1.559082 1.388090 0.007705 0.001693 323511.000000 0 0 1
-0.207037 -26.735543 6.236147 27.453992 1.563053 1.341647 0.011319 0.000595 757285.000000 0 0 1
-1.661037 -26.859353 6.269447 27.631320 1.509033 1.341907 -0.008413 0.000525 1494880.000000 0 0 1
-2.190737 -28.302393 6.306647 29.079178 1.493546 1.352181 -0.008323 0.005490 -628970.000000 0 0 1
-1.867237 -28.849873 7.520047 29.872276 1.506164 1.316319 0.002525 0.000523 -66774.100000 0 0 1
-2.369137 -30.130223 7.633347 31.172282 1.492328 1.323404 0.009050 -0.002882 -180085.000000 0 0 1
-2.163137 -30.681703 9.053847 32.062723 1.500410 1.284523 0.013873 -0.004077 183332.000000 0 0 1
-0.878737 -31.206283 9.318147 32.579628 1.542645 1.280735 0.010652 0.002713 -138674.000000 0 0 1
-0.768137 -31.631793 10.694247 33.399510 1.546517 1.244864 0.011234 0.009766 245903.000000 0 0 1
0.671763 -31.733143 11.259447 33.678165 -1.549630 1.229908 0.015969 0.010179 406110.000000 0 0 1
1.405563 -32.851283 10.723247 34.585697 -1.528037 1.255552 0.017533 0.005657 1262330.000000 0 0 1
2.831263 -32.875623 10.958047 34.769260 -1.484888 1.250166 0.016396 0.009389 1289500.000000 0 0 1
3.316263 -33.466393 12.298047 35.808365 -1.472026 1.220218 0.022413 0.005431 -479377.000000 0 0 1
2.973163 -32.710623 13.419347 35.481029 -1.480153 1.182932 0.016337 0.008787 31207.300000 0 0 1
3.410163 -33.195503 14.687947 36.459655 -1.468426 1.156163 0.019343 0.004903 -511146.000000 0 0 1
2.793563 -32.365423 15.862747 36.151782 -1.484697 1.116554 0.011900 0.004016 -25553.300000 0 0 1
3.329463 -31.072583 16.042447 35.127637 -1.464052 1.096525 0.011191 0.001247 528552.000000 0 0 1
4.738263 -30.973313 16.226847 35.286085 -1.418994 1.092953 0.014870 0.008581 174204.000000 0 0 1
5.427363 -29.818203 15.506747 34.044687 -1.390752 1.097883 0.025261 0.005862 -104398.000000 0 0 1
5.719263 -29.934683 14.070447 33.567435 -1.382013 1.138266 0.024292 0.005895 -323196.000000 0 0 1
4.607163 -29.771983 13.235747 32.905652 -1.417266 1.156842 0.005754 0.019947 -654477.000000 0 0 1
4.970463 -29.667003 11.733947 32.288111 -1.404796 1.198867 0.011824 0.016938 67168.100000 0 0 1
5.350263 -30.899653 11.062047 33.253312 -1.399347 1.231674 0.016883 0.010618 724997.000000 0 0 1
6.746563 -31.146283 11.316347 33.818143 -1.357483 1.229591 0.023958 0.008087 207876.000000 0 0 1
7.223663 -32.451983 10.711847 34.929303 -1.351772 1.259102 0.013083 0.003221 -550010.000000 0 0 1
6.792963 -33.593813 11.391147 36.117127 -1.371278 1.249924 0.012658 0.001464 108430.000000 0 0 1
7.042563 34.192631 10.646647 36.497737 1.367670 1.274785 0.019954 -0.000553 -104941.000000 0 0 1
6.810763 32.945070 11.587347 35.581325 1.366937 1.239089 0.029694 -0.001421 548279.000000 0 0 1
5.473663 32.824780 12.064247 35.397362 1.405563 1.223004 0.024976 -0.004457 356078.000000 0 0 1
5.309763 31.448640 12.404847 34.221203 1.403535 1.199858 0.035818 -0.004829 145972.000000 0 0 1
4.139263 31.285110 13.404447 34.286598 1.439253 1.169130 0.030643 -0.005902 126972.000000 0 0 1
4.324863 31.709940 14.726547 35.229191 1.435244 1.139530 0.038513 -0.006377 -657771.000000 0 0 1
3.160663 31.492590 15.448247 35.219616 1.470769 1.116727 0.034835 -0.005838 -524812.000000 0 0 1
3.182863 31.788090 16.933847 36.157550 1.471001 1.083391 0.029534 -0.005336 -133571.000000 0 0 1
3.394063 33.126609 17.336447 37.542566 1.468695 1.090794 0.021291 -0.006154 200754.000000 0 0 1
3.933863 33.110134 18.639247 38.199185 1.452539 1.061058 0.020902 -0.008227 162475.000000 0 0 1
4.521563 34.475157 19.207347 39.722829 1.440386 1.066109 0.017219 -0.008828 -261976.000000 0 0 1
3.540263 -33.565173 19.521147 38.990120 -1.465711 1.046425 0.001494 -0.005140 -535431.000000 0 0 1
4.004563 -32.661083 20.489647 38.763495 -1.448796 1.013868 0.005117 -0.010333 -213101.000000 0 0 1
2.838063 -31.858043 21.015647 38.270706 -1.481946 0.989472 -0.009699 -0.005049 -602675.000000 0 0 1
1.799163 -32.571663 21.577947 39.112121 -1.515615 0.986402 -0.008210 -0.002708 -525608.000000 0 0 1
0.818463 -31.781193 22.217447 38.785681 -1.545049 0.960847 -0.008622 -0.000556 -393415.000000 0 0 1
-0.269637 -32.589293 22.880847 39.820446 1.562523 0.958680 -0.005726 0.007434 -421269.000000 0 0 1
-1.315137 -33.053483 22.025747 39.741614 1.531029 0.983366 -0.011714 0.002928 199579.000000 0 0 1
-1.985837 -34.187964 22.506847 40.979490 1.512776 0.989363 -0.005173 0.007778 173982.000000 0 0 1
-3.381337 -33.858903 23.129447 41.144016 1.471261 0.973803 0.012530 0.011111 -22266.100000 0 0 1
-4.315837 -33.425863 22.202447 40.359180 1.442390 0.988287 0.008441 0.006410 -666988.000000 0 0 1
-5.444737 -32.916583 22.885547 40.458557 1.406870 0.969570 0.012572 0.012752 -394294.000000 0 0 1
-6.632737 -32.508603 22.048647 39.836482 1.369529 0.984261 0.015333 0.009131 -556909.000000 0 0 1
-7.295237 -33.616003 21.538547 40.585283 1.357093 1.011372 0.009744 0.017914 209525.000000 0 0 1
-8.587137 -33.308213 21.007847 40.305156 1.318482 1.022517 0.024268 -0.001941 378796.000000 0 0 1
-9.426437 34.424752 20.721047 41.270850 -1.303521 1.044800 0.039048 -0.011106 -326259.000000 0 0 1
-9.930437 33.723567 21.810347 41.371292 -1.284424 1.015511 0.055243 -0.012241 -818392.000000 0 0 1
-11.296237 33.493635 21.622447 41.436201 -1.245511 1.021807 0.055191 -0.017562 -303862.000000 0 0 1
-12.071937 33.423583 22.971647 42.315058 -1.224196 0.996944 0.052373 -0.012610 -347253.000000 0 0 1
-12.092537 -34.354346 23.751247 43.480712 1.232346 0.992918 0.050960 -0.014112 531926.000000 0 0 1
-10.869737 -34.004469 24.401647 43.242288 1.261405 0.971211 0.037735 -0.010378 300647.000000 0 0 1
-10.963337 -32.571203 24.864947 42.418671 1.246112 0.944461 0.032426 -0.013671 -112657.000000 0 0 1
-11.889937 -32.398593 25.900147 43.149242 1.219067 0.926988 0.032535 -0.008713 73543.900000 0 0 1
-12.168437 -31.029333 26.141447 42.358773 1.197068 0.905689 0.036549 -0.010012 -134000.000000 0 0 1
-13.099737 -30.723223 27.300747 43.137575 1.167758 0.885534 0.026167 -0.001024 -126533.000000 0 0 1
-12.431437 -30.670373 28.554047 43.709793 1.185709 0.858908 0.007640 0.004056 633046.000000 0 0 1
-13.392937 -30.422333 29.576747 44.493517 1.156094 0.843647 0.023404 -0.001798 -106803.000000 0 0 1
-12.712537 -29.949313 30.915047 44.881066 1.169376 0.810934 0.006443 0.000912 -338287.000000 0 0 1
-13.564237 -29.330283 31.875647 45.390648 1.137625 0.792241 0.017705 -0.003883 199169.000000 0 0 1
-13.034437 -28.931783 33.155147 45.893446 1.147507 0.763475 0.002460 0.004271 -225615.000000 0 0 1
-12.433437 -30.003353 34.146047 47.124771 1.177937 0.760360 0.010099 0.010349 -346823.000000 0 0 1
-11.084637 -30.351853 33.997747 46.903635 1.220641 0.759991 0.000433 0.014433 -369270.000000 0 0 1
-10.838037 -31.421543 -33.893837 47.471767 1.238651 2.365961 -0.002415 0.021696 -265009.000000 0 0 1
-9.363637 -31.819503 -33.907237 47.432681 1.284601 2.367205 -0.003233 0.013095 -442627.000000 0 0 1
-8.464837 -30.897993 -33.337337 46.235457 1.303397 2.376090 0.022306 0.006299 -814377.000000 0 0 1
-7.211337 -31.497253 -33.289137 46.392316 1.345724 2.371085 0.028926 -0.006383 -492118.000000 0 0 1
-6.306737 -30.795933 -32.229037 45.020832 1.368798 2.368665 0.050049 0.000002 -201094.000000 0 0 1
-6.729737 -30.913683 -30.909837 44.230795 1.356446 2.344558 0.042724 -0.004588 -405254.000000 0 0 1
-5.858837 -30.318563 -29.984337 43.041860 1.379907 2.341489 0.039417 0.004381 -140598.000000 0 0 1
-6.378037 -30.351153 -28.499637 42.120080 1.363669 2.313970 0.045492 -0.005137 -217266.000000 0 0 1
-6.123537 -31.590883 -27.926737 42.607326 1.379332 2.285567 0.037987 -0.000280 -456219.000000 0 0 1
-6.968037 -31.876163 -26.867237 42.266911 1.355585 2.259655 0.042551 -0.002862 -196171.000000 0 0 1
-6.589437 -33.191113 -26.108137 42.739976 1.374814 2.227943 0.041293 -0.006357 122327.000000 0 0 1
-5.443437 -33.034213 -25.309337 41.969665 1.407482 2.218101 0.013892 -0.010299 -325453.000000 0 0 1
-5.190237 -34.174420 -24.520537 42.380258 1.420073 2.187788 0.017534 -0.010815 -65971.600000 0 0 1
-4.409637 -33.864493 -23.226437 41.300317 1.441311 2.168057 0.018698 -0.022686 234538.000000 0 0 1
-5.178137 -33.129303 -22.250137 40.242172 1.415750 2.156644 0.018649 -0.015234 361025.000000 0 0 1
-5.178737 -31.754043 -22.503437 39.262492 1.409131 2.181145 0.010516 -0.003697 -77767.200000 0 0 1
-5.610337 -30.690283 -21.425837 37.847535 1.389988 2.172575 0.008867 -0.006457 1021090.000000 0 0 1
-7.029837 -30.634913 -21.136637 37.877090 1.345230 2.162809 0.016085 -0.008188 1095690.000000 0 0 1
-7.550037 -29.505993 -20.477737 36.700741 1.320290 2.162728 0.014103 -0.008890 46259.600000 0 0 1
-7.793837 -28.302103 -21.446137 36.355051 1.302077 2.201741 0.033593 -0.024640 -84121.900000 0 0 1
-6.520037 -27.840903 -21.873337 36.000967 1.340753 2.223802 0.025302 -0.012068 85714.400000 0 0 1
-6.563037 -27.340403 -23.161037 36.428076 1.335205 2.259843 0.057613 -0.027670 43460.000000 0 0 1
-5.398437 -27.823043 -24.113337 37.211798 1.379150 2.275755 0.060320 -0.021058 1910020.000000 0 0 1
-4.052837 -27.316823 -23.909837 36.528272 1.423507 2.284393 0.054982 -0.016659 1498670.000000 0 0 1
-3.404437 -27.545723 -22.629837 35.811543 1.447828 2.254817 0.025656 -0.017792 -332869.000000 0 0 1
-1.893137 -27.185213 -22.757237 35.503685 1.501270 2.266574 0.034785 -0.017669 218583.000000 0 0 1
-1.541237 -25.823763 -22.952637 34.584183 1.511184 2.296517 0.039307 -0.025793 27770.200000 0 0 1
-1.941537 -24.912643 -21.930937 33.247186 1.493020 2.291127 0.044386 -0.025720 -859570.000000 0 0 1
-2.114637 -23.400443 -22.347537 32.426299 1.480674 2.331152 0.043602 -0.024030 720949.000000 0 0 1
-3.027337 -23.092243 -23.429237 33.035521 1.440442 2.359178 0.035213 -0.033071 1079320.000000 0 0 1
-4.382237 -23.546443 -23.301937 33.415854 1.386791 2.342464 0.044184 -0.035108 -94679.500000 0 0 1
-4.985137 -23.772243 -24.682937 34.629735 1.364088 2.364232 0.048322 -0.027317 -282544.000000 0 0 1
-5.202037 -22.582243 -25.326237 34.328373 1.344386 2.400548 0.053084 -0.027955 -66359.000000 0 0 1
-5.630237 -22.755543 -26.632337 35.479511 1.328245 2.419826 0.053707 -0.021365 149792.000000 0 0 1
-5.924037 -21.454143 -27.447537 35.337541 1.301384 2.460245 0.055623 -0.011888 24667.000000 0 0 1
-6.353037 -21.592443 -28.762237 36.522061 1.284646 2.477588 0.056572 -0.006764 -71044.100000 0 0 1
-5.278437 -21.638843 -29.685437 37.112351 1.331535 2.497892 0.033686 -0.013044 -436659.000000 0 0 1
-5.632537 -22.015343 -31.083437 38.504297 1.320323 2.510311 0.038464 -0.015799 -486991.000000 0 0 1
-6.257337 -20.948943 -31.778337 38.572985 1.280538 2.538966 0.027406 -0.020231 75057.400000 0 0 1
-6.735337 -21.483543 -33.039637 39.981558 1.266990 2.543430 0.038812 -0.017775 -364555.000000 0 0 1
-6.631737 -20.418643 -34.114437 40.307515 1.256756 2.579899 0.029386 -0.013689 172389.000000 0 0 1
-5.393137 -20.527743 34.020647 40.098361 1.313878 0.557785 0.041472 -0.010151 -226989.000000 0 0 1
-5.399637 -19.970843 32.745447 38.733125 1.306734 0.563460 0.036226 -0.003371 94839.500000 0 0 1
-4.138737 -20.350043 31.957147 38.111844 1.370155 0.576254 0.018131 -0.001365 -1625580.000000 0 0 1
-4.209737 -21.766243 31.679347 38.666164 1.379748 0.610600 0.032184 -0.007324 267473.000000 0 0 1
-3.112737 -22.295643 30.956347 38.276367 1.432081 0.628758 0.023615 0.001346 904472.000000 0 0 1
-1.637537 -21.959343 31.369247 38.326543 1.496363 0.612048 0.000322 -0.005526 -398562.000000 0 0 1
-1.255637 -20.563743 31.189147 37.379233 1.509811 0.583757 -0.002244 -0.002504 273984.000000 0 0 1
-0.150537 -20.074343 31.971947 37.751918 1.563297 0.560676 0.009423 -0.002442 234941.000000 0 0 1
-0.558237 -19.743143 33.385747 38.790610 1.542529 0.534221 0.001747 -0.006677 -295216.000000 0 0 1
-1.475837 -18.678843 33.406547 38.302410 1.491949 0.511158 0.007054 -0.007757 -284808.000000 0 0 1
-1.817137 -18.401943 -34.026437 38.726372 1.472368 2.643797 0.016790 -0.010718 -349191.000000 0 0 1
-2.931537 -17.370343 -33.944337 38.243179 1.403605 2.662887 0.017969 -0.010228 -224970.000000 0 0 1
-2.589437 -16.002743 -34.246037 37.889102 1.410375 2.699479 0.031331 -0.006779 179852.000000 0 0 1
-3.660837 -15.164343 -33.829237 37.252870 1.333918 2.709515 0.031590 -0.006863 352634.000000 0 0 1
-3.390237 -13.652643 -34.062937 36.853386 1.327399 2.749948 0.027000 -0.011389 40643.800000 0 0 1
-2.342637 -13.071943 -33.262637 35.815732 1.393468 2.761731 0.022137 -0.005312 449428.000000 0 0 1
-2.020937 -11.730143 -33.508637 35.559938 1.400185 2.800275 0.013904 0.000269 -70880.200000 0 0 1
-1.380637 -11.419043 33.931347 35.827880 1.450474 0.326828 0.014940 -0.005653 -1111310.000000 0 0 1
-2.241037 -11.500943 32.858647 34.885307 1.378351 0.342539 0.015801 -0.003816 -466965.000000 0 0 1
-1.751837 -10.940343 31.661747 33.544392 1.412018 0.336621 0.011607 0.004092 -100663.000000 0 0 1
-0.740137 -11.729343 30.793047 32.959627 1.507779 0.364602 0.014247 -0.000452 -105082.000000 0 0 1
-1.249637 -12.884543 30.153447 32.814683 1.474111 0.405511 0.018385 -0.002155 77694.200000 0 0 1
-0.198737 -13.816543 29.976047 33.007571 1.556413 0.431937 0.016795 0.002094 121142.000000 0 0 1
-0.552837 -15.270243 30.434947 34.055425 1.534609 0.465296 0.010578 0.007202 153743.000000 0 0 1
-1.348137 -16.009643 29.526947 33.614978 1.486787 0.498320 0.017297 -0.002446 162272.000000 0 0 1
-1.799937 -17.206443 30.152647 34.763250 1.466567 0.520901 0.024412 0.002446 -61156.900000 0 0 1
-2.416837 -18.292443 29.196047 34.537859 1.439435 0.563605 0.025115 -0.007005 668987.000000 0 0 1
-3.824337 -18.039443 29.029947 34.391640 1.361891 0.565914 0.036131 -0.005880 595246.000000 0 0 1
-4.548337 -18.951043 28.206947 34.285001 1.335247 0.604617 0.039027 -0.010225 -250669.000000 0 0 1
-4.181337 -19.200243 26.791147 33.224968 1.356369 0.632832 0.029185 -0.011448 -860809.000000 0 0 1
-4.953137 -20.020243 25.946447 33.144559 1.328260 0.671601 0.037147 -0.008790 -630533.000000 0 0 1
-4.560637 -21.361443 25.934147 33.907088 1.360456 0.699974 0.026280 -0.006684 5715.560000 0 0 1
-28.599697 34.219657 -0.153853 44.597660 -0.874623 1.574246 0.026075 -0.006945 -430078.000000 0 0 1
-28.215107 -33.400997 0.020247 43.723212 0.869365 1.570333 0.031224 -0.005089 102304.000000 0 0 1
-28.717797 -32.889097 1.263247 43.680663 0.853003 1.541872 0.024000 -0.010363 -243128.000000 0 0 1
-28.124257 -31.530297 1.520047 42.278174 0.842432 1.534835 0.025663 -0.009200 270166.000000 0 0 1
-26.717557 -31.545197 1.663247 41.372620 0.868069 1.530584 0.024392 -0.014215 -368850.000000 0 0 1
-26.148817 -30.274697 1.889347 40.048565 0.858392 1.523602 0.031550 -0.015412 384393.000000 0 0 1
-24.607537 -30.388697 2.003847 39.153789 0.890133 1.519595 0.033905 -0.009560 45136.100000 0 0 1
-24.150737 -31.224397 3.026347 39.590148 0.912451 1.494280 0.028366 -0.010072 -525241.000000 0 0 1
-22.822137 -30.853597 3.297847 38.518439 0.933925 1.485074 0.027095 -0.009366 -404866.000000 0 0 1
-22.422137 -31.491497 4.642047 38.936040 0.952058 1.451290 0.034770 -0.018064 -346824.000000 0 0 1
-22.728837 -30.715097 5.701347 38.633180 0.933733 1.422679 0.028209 -0.017787 -586360.000000 0 0 1
-22.341437 -31.332997 6.899547 39.096039 0.951377 1.393390 0.021928 -0.007601 -250119.000000 0 0 1
-22.817937 -30.765197 8.233347 39.178356 0.932641 1.359068 0.021261 -0.001005 -211410.000000 0 0 1
-22.127037 -29.600397 8.668247 37.959554 0.928881 1.340409 0.035758 -0.007904 -137411.000000 0 0 1
-22.629937 -29.105297 9.889947 38.171238 0.909914 1.308712 0.022948 -0.004871 -93274.200000 0 0 1
-21.995537 -27.790697 10.419847 36.941842 0.901278 1.284855 0.032871 -0.005929 -371580.000000 0 0 1
-20.704737 -28.061097 10.867947 36.527025 0.935120 1.268690 0.031180 -0.011388 -922980.000000 0 0 1
-20.269337 -27.005197 11.679847 35.728777 0.926929 1.237772 0.043715 -0.010937 416665.000000 0 0 1
-18.900037 -27.367597 12.334347 35.472988 0.966408 1.215668 0.043451 -0.007515 235733.000000 0 0 1
-18.992237 -28.335497 13.322547 36.620973 0.980308 1.198457 0.043643 -0.005496 102272.000000 0 0 1
-17.917737 -28.281497 14.265747 36.392305 1.006072 1.167993 0.045061 -0.013546 341313.000000 0 0 1
-17.942637 -29.377697 15.352747 37.692096 1.022505 1.151279 0.063915 -0.021622 146132.000000 0 0 1
-17.769637 -30.678097 14.792447 38.415129 1.045790 1.175515 0.073173 -0.025866 -225705.000000 0 0 1
-18.030737 -31.663697 15.765247 39.701891 1.053147 1.162452 0.075562 -0.031580 317586.000000 0 0 1
-17.420637 -33.044597 15.366247 40.392394 1.085637 1.180541 0.075664 -0.032309 303960.000000 0 0 1
-17.642437 -33.992697 16.418447 41.669226 1.092059 1.165797 0.080119 -0.034600 132856.000000 0 0 1
-17.052937 33.749357 15.986347 41.053441 -1.102932 1.170813 0.071031 -0.033299 -7397.130000 0 0 1
-17.315537 32.534757 16.936947 40.561045 -1.081709 1.140030 0.070860 -0.034637 -208089.000000 0 0 1
-18.658537 32.126857 17.059147 40.881419 -1.044631 1.140342 0.068013 -0.032235 -139570.000000 0 0 1
-18.831537 30.958657 17.799847 40.372017 -1.024311 1.114200 0.069369 -0.022443 -256586.000000 0 0 1
-19.236737 31.225157 19.296647 41.441803 -1.018648 1.086447 0.060097 -0.026205 421779.000000 0 0 1
-18.336837 32.074257 20.065947 42.043308 -1.051446 1.073253 0.060724 -0.023234 1021030.000000 0 0 1
-19.038637 32.436557 21.281847 43.214777 -1.040028 1.055874 0.054423 -0.021439 439056.000000 0 0 1
-18.542637 33.820257 21.801947 44.305350 -1.069282 1.056314 0.043428 -0.004871 974278.000000 0 0 1
-17.242437 33.628557 22.411347 43.936886 -1.097015 1.035518 0.037767 -0.018861 704308.000000 0 0 1
-17.077437 34.077657 23.763147 44.917844 -1.106243 1.013332 0.036962 -0.019467 -494393.000000 0 0 1
-17.724537 33.277457 24.892647 45.179555 -1.081388 0.987268 0.027321 -0.022979 556621.000000 0 0 1
-19.153837 33.260257 24.743947 45.665929 -1.048303 0.998163 0.013339 -0.017938 549998.000000 0 0 1
-19.717737 32.626757 25.890147 46.082471 -1.027190 0.974210 0.004706 -0.013876 401429.000000 0 0 1
-21.267437 32.809557 25.814947 46.852773 -0.995681 0.987258 0.035282 -0.015663 191505.000000 0 0 1
-21.816737 32.155457 24.708747 46.048513 -0.974662 1.004416 0.021121 -0.009576 -35857.200000 0 0 1
-23.135537 32.595157 24.474247 46.868818 -0.953534 1.021384 -0.002885 -0.006695 -95653.400000 0 0 1
-23.603037 32.142657 23.052847 46.061779 -0.937405 1.046647 -0.012641 -0.000018 -99123.200000 0 0 1
-23.047237 32.900257 21.996747 45.798023 -0.959722 1.069801 -0.010701 0.000940 177840.000000 0 0 1
-23.263137 32.283957 20.748347 44.876735 -0.946392 1.090163 -0.015224 0.007920 21543.600000 0 0 1
-22.868137 33.212757 19.575947 44.824732 -0.967807 1.118845 0.003344 -0.004317 -88628.800000 0 0 1
-21.509437 33.558557 19.493047 44.371291 -1.000808 1.115958 0.039159 -0.012235 -352557.000000 0 0 1
-21.466737 -34.365897 18.511247 44.547749 1.012447 1.142263 0.052416 -0.017694 487689.000000 0 0 1
-20.116837 -33.582097 18.501247 43.298274 1.031087 1.129295 0.068892 -0.022190 257643.000000 0 0 1
-20.088637 -32.751997 19.682847 43.170141 1.020614 1.097372 0.059716 -0.032203 -349757.000000 0 0 1
-18.857237 -32.124297 19.786147 42.178874 1.039984 1.082524 0.067172 -0.035546 -538160.000000 0 0 1
-18.832137 -31.221797 21.023347 42.088372 1.028047 1.047769 0.054586 -0.032015 -5515.820000 0 0 1
-19.543937 -30.043697 20.675647 41.377186 0.994058 1.047559 0.067477 -0.038440 391687.000000 0 0 1
-19.543337 -29.101497 21.720647 41.238642 0.979415 1.016075 0.076014 -0.029399 -156480.000000 0 0 1
-20.268137 -27.786397 21.355047 40.483568 0.940593 1.015142 0.062700 -0.029000 50699.600000 0 0 1
-19.509737 -26.821297 20.555647 39.019821 0.941919 1.015965 0.058824 -0.024668 696364.000000 0 0 1
-20.201937 -25.597597 20.350747 38.438368 0.902668 1.012858 0.054665 -0.011497 -530430.000000 0 0 1
-21.444237 -25.535497 19.444447 38.600562 0.872265 1.042880 0.054555 -0.010881 -504950.000000 0 0 1
-22.574537 -26.166797 20.014047 39.935862 0.858966 1.045864 0.047200 -0.015366 -127609.000000 0 0 1
-23.634537 -25.850497 19.131847 39.910739 0.830149 1.070864 0.041034 -0.009145 -629836.000000 0 0 1
-25.023637 -26.241997 19.663847 41.249142 0.809159 1.073889 0.031700 -0.012305 25244.900000 0 0 1
-25.547207 -27.579797 19.428947 42.317714 0.823639 1.093791 0.017738 -0.008224 44226.700000 0 0 1
-25.826887 -27.938197 18.117647 42.140480 0.824647 1.126376 0.014811 -0.013574 -578486.000000 0 0 1
-26.864587 -29.072897 18.168247 43.554845 0.824856 1.140506 0.014496 -0.009738 -509497.000000 0 0 1
-28.068797 -28.611197 18.703647 44.229903 0.794967 1.134183 -0.002936 -0.005545 -1231130.000000 0 0 1
-29.108597 -29.484697 18.346747 45.312922 0.791817 1.153938 -0.001333 0.003242 -53001.600000 0 0 1
-30.459797 -28.788497 18.650847 45.874076 0.757197 1.152104 -0.003139 0.004780 19431.900000 0 0 1
-30.720157 -27.604897 17.920047 45.020956 0.732037 1.161419 0.005826 0.017386 517726.000000 0 0 1
-32.068727 -27.193697 18.158947 45.800085 0.703321 1.163114 -0.014060 0.030151 406252.000000 0 0 1
-32.547107 -25.964497 17.366647 45.111747 0.673368 1.175622 -0.016644 0.018852 -375788.000000 0 0 1
-32.683107 -26.268997 15.974747 44.871352 0.677022 1.206799 0.007544 -0.006478 -34223.500000 0 0 1
-33.146797 -25.164497 15.244947 44.321219 0.649353 1.219660 0.005327 -0.007985 -263229.000000 0 0 1
-32.253347 -23.922397 14.924947 42.840559 0.638170 1.214950 -0.014201 0.001050 -53704.000000 0 0 1
-31.845557 -23.242997 16.102147 42.587035 0.630490 1.183054 -0.023977 0.003821 230896.000000 0 0 1
-31.316927 -21.943097 15.849247 41.393817 0.611181 1.177874 -0.008894 -0.002357 -204803.000000 0 0 1
-32.253337 -20.796297 16.226047 41.665913 0.572697 1.170781 -0.011105 -0.011000 -195768.000000 0 0 1
-32.433527 -20.577197 17.576847 42.240978 0.565360 1.141634 -0.006321 -0.003873 574542.000000 0 0 1
-33.349007 -19.490097 17.808347 42.534191 0.528891 1.138802 0.011347 -0.009241 -12481.800000 0 0 1
-33.598967 -19.310297 19.312447 43.298369 0.521630 1.108470 0.005013 -0.005651 85234.000000 0 0 1
-34.720160 -20.053297 19.813147 44.723428 0.523763 1.111837 0.004975 0.002337 569955.000000 0 0 1
-34.984806 -19.510697 21.130547 45.289115 0.508729 1.085387 0.009679 0.006882 -1292310.000000 0 0 1
34.705401 -19.752097 21.718947 45.456824 -0.517416 1.072656 0.015068 0.006430 -1036010.000000 0 0 1
34.387371 -21.133897 21.955347 45.947472 -0.551073 1.072607 0.010008 0.007887 218064.000000 0 0 1
35.277090 -21.889197 22.773047 47.352103 -0.555352 1.069081 -0.002693 0.017685 -344053.000000 0 0 1
34.758361 -23.299497 23.066247 47.781398 -0.590533 1.067010 0.005421 0.017687 -766284.000000 0 0 1
33.637071 -23.220797 23.855247 47.325794 -0.604209 1.042498 0.035151 0.001318 -634630.000000 0 0 1
33.227041 -24.500797 24.297247 47.902834 -0.635372 1.038841 0.030906 -0.011086 -137962.000000 0 0 1
32.249891 -24.437497 25.501947 47.828820 -0.648445 1.008427 0.033085 -0.015464 760235.000000 0 0 1
30.857481 -24.399297 25.176647 46.705175 -0.669050 1.001482 0.043110 -0.012742 584797.000000 0 0 1
30.064291 -24.301697 26.355347 46.787160 -0.679796 0.972418 0.028381 -0.011413 -722766.000000 0 0 1
28.632091 -24.721297 26.126747 45.973319 -0.712229 0.966355 0.012969 -0.001492 -636352.000000 0 0 1
27.841171 -23.843497 25.311647 44.545736 -0.708204 0.966459 0.025484 -0.003879 459919.000000 0 0 1
26.576721 -24.434397 25.011247 43.919521 -0.743426 0.964924 0.016896 0.005991 757198.000000 0 0 1
25.507171 -23.361297 24.607247 42.448587 -0.741515 0.952442 0.010088 0.006647 -32986.100000 0 0 1
25.584571 -22.860997 23.276147 41.460517 -0.729238 0.974714 0.016915 0.003599 131647.000000 0 0 1
26.654301 -21.941497 23.110647 41.544952 -0.688721 0.980893 0.028268 0.010999 106347.000000 0 0 1
26.539701 -21.162897 21.760147 40.320317 -0.673157 1.000737 0.036133 -0.003751 -416459.000000 0 0 1
25.545071 -20.215397 21.725247 39.156089 -0.669452 0.982629 0.023711 -0.004973 -614746.000000 0 0 1
25.579771 -19.628897 20.463947 38.188891 -0.654519 1.005269 0.011677 -0.005426 623541.000000 0 0 1
24.574471 -18.403397 20.371847 36.845648 -0.642786 0.984959 0.028104 0.005210 610701.000000 0 0 1
24.982871 -17.213997 21.112047 36.961927 -0.603327 0.962849 0.038036 -0.016169 160549.000000 0 0 1
24.936271 -17.312397 22.499447 37.785736 -0.606867 0.932973 0.032094 -0.012084 -24677.700000 0 0 1
25.032571 -15.875697 23.150147 37.611124 -0.565189 0.907759 0.040876 -0.008939 37928.700000 0 0 1
23.836171 -15.160097 22.937147 36.388244 -0.566479 0.888799 0.018456 -0.009271 170133.000000 0 0 1
24.007371 -13.986397 23.706947 36.523862 -0.527518 0.864421 0.017433 -0.003373 1574100.000000 0 0 1
22.627271 -13.174297 23.735747 35.340362 -0.527252 0.834386 0.007817 -0.000817 1995500.000000 0 0 1
21.557271 -13.838897 24.421147 35.392420 -0.570702 0.809293 0.032725 -0.001642 924402.000000 0 0 1
20.306071 -13.158797 24.291647 34.286653 -0.574984 0.783444 0.045220 -0.006125 201112.000000 0 0 1
19.125471 -13.915797 24.869047 34.320585 -0.629014 0.760328 0.043978 0.002385 -541491.000000 0 0 1
18.711571 -14.977297 24.015747 33.929315 -0.675003 0.784393 0.047902 -0.001143 -371806.000000 0 0 1
17.525171 -15.548297 24.481347 33.885358 -0.725697 0.763420 0.039524 0.003513 -270638.000000 0 0 1
16.928371 -16.684897 23.591247 33.488841 -0.778155 0.789147 0.030015 0.001224 -59551.700000 0 0 1
17.420971 -17.970297 23.861047 34.579927 -0.800918 0.809271 0.032496 0.003948 79733.700000 0 0 1
17.004871 -18.851197 22.832447 34.144603 -0.836845 0.838339 0.024530 -0.001111 42708.000000 0 0 1
17.616871 -20.268497 23.017647 35.369170 -0.855275 0.862181 0.017090 0.009388 -79060.800000 0 0 1
17.200871 -20.826897 24.225447 36.283631 -0.880463 0.839723 0.028869 0.001978 79616.000000 0 0 1
17.575571 -22.187497 24.390147 37.363953 -0.900867 0.859558 0.029594 0.002006 -290936.000000 0 0 1
17.055071 -23.363697 23.482147 37.257872 -0.940230 0.888908 0.020888 0.007588 97649.600000 0 0 1
17.766471 -23.469297 22.272947 36.912593 -0.922824 0.923042 0.022066 0.014946 445785.000000 0 0 1
19.048271 -24.113197 22.390647 38.021362 -0.902212 0.941104 0.014276 0.015822 737685.000000 0 0 1
19.802171 -24.089797 21.012347 37.602699 -0.882775 0.977860 0.012344 0.018857 42226.700000 0 0 1
19.185971 -24.999297 20.070747 37.361761 -0.916214 1.003682 0.023139 0.003692 279586.000000 0 0 1
20.031771 -25.337997 18.998547 37.473067 -0.901824 1.039105 0.018024 0.009185 13068.900000 0 0 1
19.333671 -26.233997 17.954947 37.207439 -0.935687 1.067217 0.010107 0.004118 252142.000000 0 0 1
18.924771 -27.527097 18.435947 38.154582 -0.968512 1.066501 0.025984 -0.009102 -52785.500000 0 0 1
18.267871 -28.334197 17.490147 37.979561 -0.998136 1.092221 0.024938 -0.015664 -238322.000000 0 0 1
17.486171 -29.452397 18.217247 38.795334 -1.035015 1.081989 0.032757 -0.007756 176858.000000 0 0 1
16.447071 -28.860997 18.998647 38.267635 -1.052824 1.051271 0.044085 -0.013728 149358.000000 0 0 1
15.638571 -29.846097 19.626047 38.994052 -1.088154 1.043373 0.058749 -0.018970 408568.000000 0 0 1
14.337171 -29.268297 20.254547 38.372312 -1.115299 1.014738 0.061448 -0.011552 967207.000000 0 0 1
13.386971 -28.811297 19.269547 37.156658 -1.135832 1.025580 0.066985 -0.010777 864786.000000 0 0 1
12.096871 -28.403197 19.741547 36.644298 -1.168165 1.001862 0.054227 -0.014500 767712.000000 0 0 1
11.170771 -27.982297 18.607947 35.412579 -1.190972 1.017539 0.060466 -0.017163 -236217.000000 0 0 1
10.900571 -29.069397 17.723747 35.748895 -1.212039 1.052058 0.049305 -0.017264 -43089.100000 0 0 1
10.481171 -28.622997 16.475247 34.649165 -1.219781 1.075278 0.039013 -0.014918 -191512.000000 0 0 1
10.420471 -29.718997 15.434447 35.071743 -1.233557 1.115106 0.035056 -0.013774 -231085.000000 0 0 1
9.278171 -30.533197 15.467247 35.462604 -1.275791 1.119473 0.029641 -0.005940 -247985.000000 0 0 1
9.291771 -31.453297 14.377647 35.810105 -1.283551 1.157646 0.022354 -0.004032 302052.000000 0 0 1
8.024571 -32.383097 14.277147 36.289056 -1.327888 1.166439 0.017756 -0.004251 447263.000000 0 0 1
7.982671 -33.362297 15.275447 37.551367 -1.335940 1.151861 0.022258 -0.009364 -196006.000000 0 0 1
7.090371 -34.401697 14.988047 38.188894 -1.367537 1.167479 0.020747 -0.005581 -169101.000000 0 0 1
7.075371 33.435257 16.030947 37.748755 1.362259 1.132194 0.036198 -0.007641 400532.000000 0 0 1
8.328371 32.761257 16.060247 37.424500 1.321855 1.127259 0.044189 -0.011679 125102.000000 0 0 1
8.381071 31.814957 17.103347 37.080430 1.313216 1.091393 0.052622 -0.015472 -59536.000000 0 0 1
9.633571 30.919057 17.125347 36.634291 1.268755 1.084372 0.037371 -0.017782 -178413.000000 0 0 1
9.822971 30.051057 16.053447 35.458002 1.254869 1.100954 0.045729 -0.016219 -540738.000000 0 0 1
10.882271 29.214057 16.420447 35.235153 1.214218 1.086004 0.029294 -0.019063 -390213.000000 0 0 1
11.682371 28.566657 15.218047 34.411054 1.182597 1.112698 0.019923 -0.017582 -134870.000000 0 0 1
11.121771 27.656957 14.287147 33.056370 1.188453 1.123859 0.028044 -0.016996 -422305.000000 0 0 1
12.029171 27.315357 13.282347 32.668799 1.155970 1.152093 0.028918 -0.010945 -462811.000000 0 0 1
-9.212937 -9.329543 18.841030 22.954368 0.791687 0.607980 0.016275 -0.021277 -284991.000000 0 1 0
-9.353237 -9.517443 17.440130 21.959575 0.794100 0.653119 0.012429 -0.023171 -344696.000000 0 1 0
-9.151737 -10.821543 17.033430 22.158471 0.868806 0.693975 0.012833 -0.024215 4197.350000 0 1 0
-9.659337 -11.125643 15.583230 21.445741 0.855828 0.757385 0.019826 -0.019974 -113116.000000 0 1 0
-11.051037 -11.109043 15.380330 21.956567 0.788016 0.794714 0.021689 -0.011873 102847.000000 0 1 0
-11.550937 -11.901243 14.263930 21.875179 0.800334 0.860498 0.029619 -0.010828 199651.000000 0 1 0
-11.377537 -13.450743 14.409930 22.759986 0.868707 0.885212 0.016376 -0.009280 -643426.000000 0 1 0
-10.182237 -13.993743 13.906530 22.201225 0.941768 0.893888 0.015929 -0.006753 -110689.000000 0 1 0
-10.044337 -15.419443 14.142130 23.208787 0.993432 0.915564 0.017741 -0.008797 75360.200000 0 1 0
-9.777437 -15.888443 15.604530 24.321642 1.019144 0.874227 0.026804 -0.014482 125109.000000 0 1 0
-10.868437 -15.692943 16.489330 25.224778 0.965075 0.858338 0.032954 -0.008495 -238504.000000 0 0 1
-10.372537 -15.408943 17.781530 25.713963 0.978318 0.807215 0.037425 -0.009226 115161.000000 0 0 1
-11.432337 -14.892843 18.809230 26.575972 0.916101 0.784483 0.012438 -0.008619 -134601.000000 0 0 1
-11.771237 -13.488343 18.642330 25.846352 0.853272 0.765155 0.018953 -0.010741 180699.000000 0 0 1
-12.971537 -13.183643 17.954030 25.776277 0.793508 0.800242 0.023087 -0.012826 57037.000000 0 0 1
-14.274037 -13.264243 18.761430 27.049576 0.748746 0.804330 0.012963 -0.002933 -439946.000000 0 0 1
-14.533437 -14.598743 19.131630 28.113402 0.787640 0.822329 0.019687 0.001279 -628618.000000 0 0 1
-15.386537 -14.601543 20.221530 29.306329 0.759227 0.809300 0.021487 -0.003876 -544200.000000 0 0 1
-15.982937 -15.932343 20.616330 30.566762 0.783813 0.830551 0.020857 -0.001474 -351320.000000 0 0 1
-17.072237 -16.405343 19.863930 30.905862 0.765480 0.872748 0.022997 0.000922 -41626.000000 0 0 1
-17.002137 -17.825443 19.941130 31.693340 0.809033 0.890286 0.002605 0.000666 203368.000000 0 0 1
-18.152637 -18.473443 19.132330 32.199882 0.794157 0.934558 0.020294 0.003095 2699.590000 0 0 1
-18.004637 -18.482843 17.725930 31.304809 0.798503 0.968863 0.029586 0.001664 -268754.000000 0 0 1
-18.737337 -17.485043 17.071130 30.793474 0.750840 0.983185 0.030378 0.001163 -509122.000000 0 0 1
-18.522437 -17.512343 15.571430 29.870258 0.757374 1.022420 0.036771 -0.003961 -402754.000000 0 0 1
-18.947637 -18.710643 14.986530 30.556460 0.779105 1.058186 0.039275 -0.007132 -45759.700000 0 0 1
-18.949437 -18.608343 13.571130 29.824943 0.776317 1.098395 0.048096 -0.008060 -2321.520000 0 0 1
-19.217837 -19.919043 12.784230 30.488196 0.803313 1.138103 0.045526 -0.003652 639257.000000 0 0 1
-18.183637 -20.917743 12.962530 30.597775 0.855208 1.133333 0.052284 -0.000380 831910.000000 0 0 1
-18.526837 -22.064543 12.236730 31.302162 0.872333 1.169162 0.043984 -0.000271 8071.390000 0 0 1
-17.239137 -22.912843 12.118930 31.129644 0.925775 1.170919 0.048882 -0.002773 15692.200000 0 0 1
-17.405537 -24.188643 11.505030 31.943840 0.947053 1.202352 0.055547 -0.008910 -170017.000000 0 0 1
-16.325737 -24.623643 10.727630 31.431442 0.985329 1.222494 0.044549 -0.005973 -462879.000000 0 0 1
-16.655937 -25.811663 9.844130 32.257854 0.997741 1.260679 0.054795 -0.009381 -360459.000000 0 0 1
-17.804437 -25.571063 9.075230 32.453614 0.962576 1.287380 0.043120 -0.010509 -401827.000000 0 0 1
-18.144537 -26.658123 8.305130 33.299474 0.973183 1.318728 0.043351 -0.009061 -49240.400000 0 0 1
-19.428337 -26.422033 7.488930 33.640277 0.936764 1.346297 0.032926 -0.012785 55881.900000 0 0 1
-19.239037 -25.392733 6.526130 32.519561 0.922411 1.368741 0.035888 -0.017844 -11014.700000 0 0 1
-20.239537 -25.506943 5.548230 33.030681 0.900037 1.402024 0.033123 -0.015153 -139536.000000 0 0 1
-20.077537 -24.310443 4.563630 31.857996 0.880472 1.427053 0.034453 -0.013411 -122096.000000 0 0 1
-20.948137 -24.229343 3.462630 32.216073 0.857900 1.463107 0.024563 -0.009144 -228740.000000 0 0 1
-20.861137 -22.956743 2.826230 31.147820 0.833187 1.479935 0.024600 0.003460 -17359.500000 0 0 1
-21.670137 -22.933443 1.548630 31.590124 0.813714 1.521754 0.010025 0.008371 25634.200000 0 0 1
-21.043337 -23.821643 0.622330 31.791194 0.847245 1.551220 -0.006244 0.001862 312727.000000 0 0 1
-21.326337 -23.376143 -0.689170 31.650145 0.831220 1.592573 0.006927 0.009920 -26785.400000 0 0 1
-20.597637 -24.186943 -1.816770 31.820929 0.865373 1.627921 0.005444 0.008658 1094840.000000 0 0 1
-19.149437 -24.200043 -1.738370 30.908979 0.901384 1.627068 0.002271 0.005314 1147150.000000 0 0 1
-18.547637 -24.671243 -2.935470 31.004872 0.926149 1.665616 0.005597 0.014856 -139875.000000 0 0 1
-18.578437 -26.195113 -3.214870 32.275032 0.953901 1.670570 0.006936 0.006024 -982511.000000 0 0 1
-19.832037 -26.795193 -3.303570 33.499338 0.933639 1.669573 0.024984 -0.004036 -580557.000000 0 0 1
-19.586537 -28.056773 -3.963870 34.446005 0.961344 1.686127 0.024733 -0.006757 420350.000000 0 0 1
-20.895937 -28.744173 -4.466570 35.816448 0.942203 1.695829 0.024789 -0.009777 392530.000000 0 0 1
-21.281937 -28.167063 -5.690070 35.758652 0.923746 1.730600 0.020758 -0.001157 -81907.900000 0 0 1
-21.998237 -29.099393 -6.475070 37.048936 0.923486 1.746469 0.020465 -0.011243 -421690.000000 0 0 1
-22.438237 -28.540043 -7.843370 37.141985 0.904526 1.783571 0.016171 0.004146 -57825.100000 0 0 1
-21.433737 -28.208093 -8.804870 36.505169 0.921025 1.814393 0.025523 0.001627 124778.000000 0 0 1
-21.896937 -28.334823 -10.108470 37.209128 0.912867 1.845920 0.024976 0.008291 -53201.300000 0 0 1
-22.719437 -27.093873 -10.611870 36.916969 0.872990 1.862362 0.012462 0.013523 -127095.000000 0 0 1
-22.070137 -25.858993 -10.762770 35.659721 0.864285 1.877396 0.010826 0.015911 -23270.700000 0 0 1
-21.616337 -25.105023 -9.666070 34.510305 0.859930 1.854687 0.000137 0.016955 -106889.000000 0 0 1
-21.239937 -23.664443 -10.009570 33.336651 0.839338 1.875759 -0.004105 0.008588 423188.000000 0 0 1
-22.346537 -22.777043 -10.296070 33.528652 0.794938 1.882922 -0.003691 0.012277 304310.000000 0 0 1
-22.059637 -21.421543 -10.508070 32.495071 0.770724 1.900090 0.006719 0.010597 -115312.000000 0 0 1
-23.308337 -20.542143 -10.673470 32.850893 0.722399 1.901709 0.019233 0.008574 453244.000000 0 0 1
-24.146137 -20.807543 -11.864370 34.011073 0.711267 1.927128 0.019280 0.008858 1194480.000000 0 0 1
-25.466007 -20.295343 -11.786770 34.631581 0.672883 1.918083 0.025311 0.009043 372295.000000 0 0 1
-25.739477 -18.748143 -11.871770 33.984592 0.629521 1.927650 0.034920 -0.000532 -1336230.000000 0 0 1
-25.228717 -18.267143 -13.098770 33.789858 0.626693 1.968881 0.042368 -0.002862 426141.000000 0 0 1
-24.888437 -16.887843 -13.053670 32.787678 0.596179 1.980271 0.055395 -0.014984 282775.000000 0 0 1
-23.620837 -16.603043 -12.196270 31.342527 0.612668 1.970482 0.039394 -0.011513 -624463.000000 0 0 1
-23.915037 -16.574743 -10.833970 31.048769 0.606058 1.927230 0.053152 -0.017617 880673.000000 0 0 1
-22.716337 -16.715343 -10.045270 29.938973 0.634370 1.912959 0.039994 -0.017743 737294.000000 0 0 1
-23.092737 -17.017043 -8.529470 29.926679 0.635064 1.859816 0.025975 -0.023941 148535.000000 0 0 1
-23.616937 -18.291543 -8.347270 31.016402 0.659004 1.843280 0.030842 -0.015543 -159939.000000 0 0 1
-24.639337 -18.404643 -7.411470 31.634755 0.641554 1.807277 0.035483 -0.015052 -107285.000000 0 0 1
-24.910137 -19.815243 -6.814670 32.551475 0.671972 1.781707 0.031323 0.004680 9958.000000 0 0 1
-25.017637 -20.757843 -7.814170 33.433987 0.692607 1.806698 0.016930 -0.012050 73993.300000 0 0 1
-25.392437 -22.021243 -7.371770 34.410086 0.714416 1.786703 0.020051 0.002550 84085.700000 0 0 1
-25.281507 -23.074843 -8.545070 35.279190 0.739796 1.815442 0.007651 0.009877 -56959.200000 0 0 1
-25.894937 -24.236943 -8.152470 36.392856 0.752338 1.796726 0.001348 0.014954 -428329.000000 0 0 1
-25.674647 -25.249663 -9.116970 37.146361 0.777053 1.818763 -0.001504 0.021708 31528.500000 0 0 1
-26.225837 -26.633733 -8.722370 38.382679 0.793115 1.800047 -0.009077 0.014879 -29041.200000 0 0 1
-25.582347 -27.300363 -7.670370 38.191634 0.817874 1.773011 0.006013 0.001427 93442.100000 0 0 1
-26.382057 -28.409513 -7.284370 39.448390 0.822384 1.756518 0.010610 -0.006239 208210.000000 0 0 1
-25.905497 -29.123273 -6.023370 39.440345 0.843806 1.724117 0.017442 -0.002881 -232506.000000 0 0 1
-26.353057 -28.421853 -4.862970 39.063203 0.823149 1.695610 0.010397 -0.004326 182550.000000 0 0 1
-25.602957 -28.608233 -3.647170 38.564806 0.840778 1.665510 0.017871 -0.004307 11237.700000 0 0 1
-25.812387 -29.924143 -2.865770 39.622548 0.859036 1.643186 0.021825 -0.003443 -308881.000000 0 0 1
-25.290907 -31.055123 -3.533470 40.206170 0.887344 1.658794 0.038057 -0.010889 -81746.400000 0 0 1
-25.540227 -32.345633 -2.987470 41.321522 0.902427 1.643158 0.039976 -0.015730 -421460.000000 0 0 1
-25.018337 -32.596143 -1.556170 41.119915 0.916174 1.608650 0.032809 -0.018439 -38249.000000 0 0 1
-23.626037 -32.382953 -1.639070 40.118971 0.940491 1.611663 0.033124 -0.023610 -387426.000000 0 0 1
-23.004637 -32.668723 -0.391470 39.957629 0.957271 1.580594 0.068286 -0.019585 576541.000000 0 0 1
-21.619237 -31.996393 -0.133270 38.615779 0.976581 1.574248 0.042994 -0.024074 472709.000000 0 0 1
-21.661737 -30.549603 -0.003170 37.450089 0.954011 1.570881 0.026213 -0.016643 -194151.000000 0 0 1
-21.924937 -29.757003 -1.133570 36.979279 0.935797 1.601455 0.024244 -0.012362 -233244.000000 0 0 1
-22.466437 -28.338433 -0.923770 36.175419 0.900467 1.596335 0.024463 -0.009123 282238.000000 0 0 1
-23.797137 -28.388323 -0.403670 37.045426 0.873150 1.581693 0.023626 -0.011222 151896.000000 0 0 1
-24.300237 -27.087123 -0.256170 36.390650 0.839578 1.577836 0.033176 -0.006456 58937.700000 0 0 1
-23.777537 -26.233173 0.937430 35.417925 0.834461 1.544326 0.033191 -0.005440 -182471.000000 0 0 1
-24.091937 -26.733793 2.232330 36.056906 0.837330 1.508845 0.027434 -0.009782 -183852.000000 0 0 1
-23.503337 -26.028493 3.291330 35.223887 0.836335 1.477220 0.035715 -0.009063 -134828.000000 0 0 1
-24.430737 -24.959543 3.941630 35.147919 0.796104 1.458416 0.042320 -0.011396 98049.800000 0 0 1
-24.834637 -23.985043 2.984630 34.654719 0.767997 1.484565 0.034022 -0.009688 -227790.000000 0 0 1
-25.619917 -22.983543 3.563930 34.602385 0.731209 1.467617 0.031844 -0.004194 -248448.000000 0 0 1
-25.807787 -21.770343 2.654330 33.867908 0.700742 1.492343 0.035709 -0.000720 883602.000000 0 0 1
-24.612537 -20.964743 2.725730 32.445756 0.705533 1.486688 0.026599 0.004104 762787.000000 0 0 1
-24.732537 -19.890843 1.872630 31.793880 0.677320 1.511863 0.020540 0.005120 -184508.000000 0 0 1
-23.524737 -18.960743 1.978530 30.279327 0.678384 1.505407 0.029119 0.005372 438612.000000 0 0 1
-22.305937 -19.646643 1.647030 29.770088 0.722095 1.515443 0.026914 0.003334 373847.000000 0 0 1
-21.178737 -18.814443 1.733830 28.381832 0.726349 1.509669 0.027051 0.008923 218016.000000 0 0 1
-19.814837 -19.535543 1.542430 27.868339 0.778301 1.515421 0.012034 0.005267 -244.890000 0 0 1
-19.625937 -19.850543 0.197830 27.915240 0.791088 1.563709 0.008363 0.012382 -202691.000000 0 0 1
-18.441737 -20.572543 0.021230 27.628385 0.839960 1.570028 0.023685 0.014555 -258867.000000 0 0 1
-18.150337 -21.118343 -1.425870 27.882831 0.860837 1.621957 0.022496 0.012988 13071.800000 0 0 1
-17.669437 -20.058343 -2.249270 26.825461 0.848633 1.654743 0.018644 0.011738 18788.000000 0 0 1
-17.543237 -20.444643 -3.606370 27.180039 0.861627 1.703873 0.023205 0.013601 56926.800000 0 0 1
-16.913137 -19.393143 -4.536670 26.129095 0.853600 1.745306 0.028734 0.011455 297351.000000 0 0 1
-15.501537 -19.311243 -4.418070 25.154346 0.894399 1.747351 0.052314 0.003513 60559.200000 0 0 1
-15.010237 -18.302843 -5.284270 24.253346 0.883916 1.790436 0.058742 -0.002700 -559896.000000 0 1 0
-13.496337 -18.144443 -5.189670 23.201393 0.931257 1.796384 0.069224 -0.010596 -544890.000000 0 1 0
-12.812437 -19.294843 -5.606970 23.830393 0.984618 1.808310 0.055931 -0.012944 -1014890.000000 0 1 0
-11.481537 -19.104143 -5.922870 23.062402 1.029644 1.830526 0.050429 -0.017622 -437384.000000 0 1 0
-10.548337 -20.331543 -5.827470 23.634688 1.092209 1.819930 0.042659 -0.020150 437367.000000 0 1 0
-10.802137 -21.332843 -6.838870 24.870595 1.102072 1.849363 0.043477 -0.013369 -834190.000000 0 1 0
-9.733137 -22.206543 -6.853370 25.195897 1.157714 1.846271 0.042472 -0.014384 -251464.000000 0 0 1
-9.990037 -23.443143 -7.723870 26.627805 1.167961 1.865094 0.044706 -0.007729 -428728.000000 0 0 1
-10.350537 -22.977843 -9.019670 26.766945 1.147562 1.914494 0.041995 -0.002212 -89601.000000 0 0 1
-10.774237 -24.004543 -9.904670 28.114138 1.148906 1.930826 0.037599 -0.001439 413365.000000 0 0 1
-11.646037 -23.473343 -11.122070 28.466269 1.110242 1.972200 0.044807 -0.001795 264769.000000 0 0 1
-10.955137 -22.639743 -12.062270 27.893931 1.120120 2.017986 0.040606 -0.003065 -799112.000000 0 0 1
-11.704237 -22.194643 -13.122170 28.315768 1.085513 2.052650 0.043907 -0.007925 -868908.000000 0 0 1
-11.194537 -21.000143 -13.936570 27.578101 1.081044 2.100583 0.043000 0.001316 -436715.000000 0 0 1
-11.086037 -19.787743 -13.280170 26.283415 1.060119 2.100489 0.049611 -0.008328 -464161.000000 0 0 1
-10.901037 -18.751643 -14.204770 25.927442 1.044212 2.150608 0.035339 0.011415 -355568.000000 0 0 1
-10.623037 -17.406943 -13.559870 24.489195 1.022855 2.157607 0.055642 0.004579 -876338.000000 0 1 0
-11.625037 -16.853043 -12.803670 24.147474 0.966957 2.129666 0.066322 -0.005137 -821751.000000 0 1 0
-11.178437 -15.935143 -11.821770 22.773680 0.959067 2.116592 0.054331 -0.006962 241934.000000 0 1 0
-10.670137 -14.553043 -12.430570 21.912598 0.938141 2.173995 0.046974 -0.002781 -46419.600000 0 1 0
-11.713737 -13.779043 -12.931770 22.232956 0.866237 2.191550 0.037193 0.001450 -514786.000000 0 1 0
-11.738637 -13.632443 -14.342570 23.007573 0.859904 2.243860 0.038213 -0.000801 -940452.000000 0 1 0
-12.977237 -12.957443 -14.872670 23.611445 0.784635 2.252211 0.042822 0.004975 -995317.000000 0 1 0
-13.149937 -11.631443 -14.459270 22.743830 0.724199 2.259769 0.033480 0.002763 -136898.000000 0 1 0
-14.008437 -10.952643 -15.336170 23.481797 0.663582 2.282479 0.014085 0.003932 -570814.000000 0 1 0
-14.251637 -9.636243 -14.662270 22.604170 0.594539 2.276610 0.018272 -0.001000 -693667.000000 0 1 0
-13.167137 -8.785343 -14.607770 21.539329 0.588384 2.316094 0.020655 -0.002633 -581542.000000 0 1 0
-13.061037 -8.004243 -15.765870 21.982294 0.549803 2.370583 0.021020 -0.005340 271367.000000 0 1 0
-11.910237 -6.937443 -15.677270 20.874833 0.527436 2.420391 0.007167 -0.001531 942183.000000 0 1 0
-10.622137 -7.502243 -15.928970 20.563208 0.614931 2.456933 0.003098 0.000729 424181.000000 0 1 0
-9.623637 -6.492843 -15.829670 19.630330 0.593527 2.508816 -0.001965 0.009458 256745.000000 0 1 0
11.264363 22.461857 15.949830 29.762694 1.105959 1.005223 0.042578 -0.004234 -583304.000000 0 0 1
12.134963 22.181457 17.043930 30.492128 1.070200 0.977663 0.039094 -0.004603 1013.940000 0 0 1
12.507063 20.856457 16.989230 29.665676 1.030617 0.961013 0.033968 0.002359 32314.400000 0 0 1
13.634763 20.481357 18.014630 30.494584 0.983452 0.938810 0.029324 0.001278 312437.000000 0 0 1
14.807463 21.208257 17.686330 31.334604 0.961284 0.971048 0.012253 0.003075 -32292.300000 0 0 1
15.876863 20.731557 18.537730 32.023736 0.917240 0.953448 0.020791 0.003906 566283.000000 0 0 1
17.182363 21.378957 17.998330 32.805994 0.893801 0.990072 0.019333 0.003504 -499793.000000 0 0 1
17.451563 22.593357 18.675130 34.114180 0.913100 0.991506 0.025381 0.003354 59361.400000 0 0 1
18.540763 23.341757 18.168330 34.909679 0.899530 1.023432 0.031735 0.006673 1459290.000000 0 0 1
20.022563 22.901757 18.531230 35.620219 0.852374 1.023659 0.020004 0.003208 703479.000000 0 0 1
20.372463 21.681357 18.012630 34.778921 0.816512 1.026381 0.026571 0.004389 713489.000000 0 0 1
21.720763 21.289157 18.323930 35.507551 0.775363 1.028555 0.024634 0.001133 396330.000000 0 0 1
21.952963 19.739757 18.283430 34.725702 0.732364 1.016306 0.017261 -0.006654 -29111.200000 0 0 1
21.799663 19.242357 16.932930 33.648443 0.723169 1.043463 0.008835 -0.001656 196492.000000 0 0 1
21.342463 17.911157 16.796330 32.533474 0.698206 1.028297 0.012859 0.000839 -276336.000000 0 0 1
22.221963 16.835057 17.425730 32.876904 0.648339 1.012161 0.005327 0.000460 -678320.000000 0 0 1
23.458463 16.707257 16.790430 33.336923 0.618871 1.042968 0.002635 -0.002864 -371928.000000 0 0 1
24.311263 16.044457 17.727630 34.098841 0.583345 1.024075 -0.002994 -0.011348 -652444.000000 0 0 1
25.727063 15.782257 17.211530 34.744757 0.550250 1.052535 0.043752 -0.004017 -2373270.000000 0 0 1
26.395863 17.023957 17.255830 35.837415 0.572815 1.068427 0.028317 -0.000941 479929.000000 0 0 1
27.755063 16.887157 17.663330 36.979897 0.546599 1.072822 0.018223 -0.003773 445625.000000 0 0 1
28.701763 15.901157 16.966730 36.939246 0.505919 1.093573 0.016756 -0.008142 -1767500.000000 0 0 1
28.922363 16.091157 15.582830 36.582140 0.507711 1.130765 0.039646 -0.003163 -132174.000000 0 0 1
29.396563 14.908857 14.998030 36.212882 0.469362 1.143773 0.071376 -0.014501 57600.600000 0 0 1
29.009663 14.642357 13.502730 35.189244 0.467433 1.176978 0.032167 -0.000999 -65473.000000 0 0 1
29.535763 15.621457 12.576430 35.700949 0.486499 1.210799 0.028597 0.010015 -21069.500000 0 0 1
28.815063 15.630157 11.378130 34.699733 0.497013 1.236714 0.009409 0.005269 1013080.000000 0 0 1
27.417163 16.383057 11.463330 33.933955 0.538614 1.226204 -0.000652 0.013272 549298.000000 0 0 1
27.376563 17.837057 11.424530 34.614400 0.577460 1.234438 -0.017114 0.035503 -150093.000000 0 0 1
27.845463 18.493157 12.579930 35.715841 0.586248 1.210851 0.001308 0.026213 -503517.000000 0 0 1
27.079563 18.449057 13.902430 35.594213 0.598059 1.169533 -0.001913 0.022939 157629.000000 0 0 1
25.895563 19.245057 13.977530 35.161395 0.639122 1.161978 -0.003769 0.032065 703855.000000 0 0 1
25.223463 19.262857 15.243630 35.208649 0.652204 1.123032 0.001425 0.021185 249738.000000 0 0 1
25.967663 20.045357 16.362030 36.658585 0.657393 1.108130 0.019217 0.004485 -232112.000000 0 0 1
25.900363 21.470657 16.187530 37.334354 0.692158 1.122331 0.013020 0.008603 525229.000000 0 0 1
24.674463 22.091757 16.583430 37.038966 0.730228 1.106572 0.008324 0.005773 -27176.600000 0 0 1
24.671363 23.595957 16.355230 37.854179 0.763122 1.124022 0.017881 0.007863 -124847.000000 0 0 1
24.581763 23.909657 14.981330 37.421585 0.771539 1.158909 0.045174 0.003754 24093.400000 0 0 1
24.541763 25.352757 14.870430 38.290862 0.801651 1.171951 0.042136 0.000329 -123325.000000 0 0 1
24.439163 25.981157 13.480130 38.131445 0.815971 1.209468 0.035120 -0.001695 762530.000000 0 0 1
23.146563 25.758957 12.887330 36.950920 0.838765 1.214539 0.048014 0.001764 685816.000000 0 0 1
23.071363 26.125057 11.520130 36.708579 0.847390 1.251576 0.046973 -0.009638 -228133.000000 0 0 1
22.455963 25.024257 10.623430 35.261040 0.839437 1.264762 0.037871 -0.004165 -421360.000000 0 0 1
21.085663 24.876757 10.951930 34.400625 0.867694 1.246793 0.037497 -0.002725 133800.000000 0 0 1
20.574163 23.539057 10.717230 33.049090 0.852508 1.240544 0.035656 0.006019 168977.000000 0 0 1
20.314263 23.133457 9.216030 32.136604 0.850194 1.279936 0.045857 0.011869 -361171.000000 0 0 1
19.256463 23.839757 8.588830 31.826300 0.891350 1.297543 0.049424 0.008205 37865.300000 0 0 1
19.491263 23.989957 7.257430 31.750553 0.888494 1.340181 0.040805 -0.002045 621096.000000 0 0 1
18.205663 24.280757 6.382830 31.011962 0.927425 1.363496 0.040564 -0.006638 336876.000000 0 0 1
17.545863 23.126457 5.912330 29.625090 0.921755 1.369875 0.051685 0.002627 355669.000000 0 0 1
16.792963 23.225757 4.704030 29.044229 0.944779 1.408119 0.064953 -0.013139 1871410.000000 0 0 1
15.361763 23.976557 4.761130 28.870874 1.000987 1.405128 0.055630 -0.008504 1320840.000000 0 0 1
15.426663 25.343257 4.991130 30.086109 1.023998 1.404131 0.074537 -0.014252 1219360.000000 0 0 1
14.162063 25.879257 5.489830 30.007302 1.070078 1.386810 0.063173 -0.016599 1188660.000000 0 0 1
14.018463 27.343657 4.924230 31.119783 1.097059 1.411894 0.058235 -0.020769 -333028.000000 0 0 1
13.820763 27.385957 3.524030 30.877547 1.103423 1.456418 0.052019 -0.015544 205137.000000 0 0 1
13.582363 28.680957 3.104630 31.885993 1.128518 1.473275 0.054319 -0.018787 -247436.000000 0 0 1
13.067663 28.744457 1.571930 31.614531 1.144111 1.521054 0.061082 -0.021909 -424137.000000 0 0 1
13.937863 28.410357 0.518930 31.649355 1.114704 1.554399 0.087566 -0.021487 -405397.000000 0 0 1
14.194863 27.026957 0.348630 30.529855 1.087184 1.559377 0.065037 -0.015413 -208743.000000 0 0 1
15.216363 26.802557 -0.741970 30.829616 1.054450 1.594865 0.067822 -0.016392 -1739.410000 0 0 1
14.698863 27.317957 -1.926470 31.081162 1.077162 1.632818 0.059237 -0.013444 469431.000000 0 0 1
15.820563 27.426957 -2.817270 31.787815 1.047591 1.659540 0.049887 -0.004387 763053.000000 0 0 1
15.505263 27.911057 -4.229670 32.207613 1.063722 1.702502 0.058210 -0.005350 -719769.000000 0 0 1
14.599163 27.143657 -4.926170 31.211869 1.077331 1.729289 0.055704 -0.010059 -698549.000000 0 0 1
14.347263 27.626257 -6.236170 31.748131 1.091801 1.768508 0.046707 -0.013790 554449.000000 0 0 1
13.003963 27.076657 -6.797870 30.797068 1.123061 1.793360 0.039577 -0.018653 387177.000000 0 0 1
13.052263 25.711057 -7.113970 29.698966 1.101046 1.812684 0.039490 -0.015886 421170.000000 0 0 1
11.773063 25.304757 -7.621770 28.931420 1.135332 1.837385 0.032619 -0.014271 474614.000000 0 0 1
11.686763 23.804857 -8.107470 27.730537 1.114423 1.867496 0.017426 -0.008484 -67143.400000 0 0 1
12.308263 23.526557 -9.355670 28.151745 1.088789 1.909569 0.018680 -0.007299 150833.000000 0 0 1
12.270863 22.138657 -9.703370 27.108109 1.064678 1.936869 0.015875 -0.004828 -392792.000000 0 0 1
12.350063 21.870357 -11.232570 27.513763 1.056742 1.991336 0.018771 -0.002912 85408.700000 0 0 1
12.147163 20.479257 -11.414070 26.405198 1.035433 2.017801 0.031462 -0.007490 -200725.000000 0 0 1
12.025763 20.172457 -12.812570 26.752737 1.033214 2.070227 0.027027 -0.006753 -202720.000000 0 0 1
13.275763 19.713257 -13.569970 27.367909 0.978117 2.089593 0.013619 -0.003420 -318267.000000 0 0 1
14.267863 20.704157 -13.655570 28.613084 0.967403 2.068318 0.012153 0.000308 -336021.000000 0 0 1
15.466363 20.166057 -14.197470 29.110932 0.916535 2.080252 0.013296 0.003624 423251.000000 0 0 1
16.695963 21.029057 -13.800570 30.189934 0.899757 2.045556 0.021946 0.005813 -169351.000000 0 0 1
16.841463 22.319457 -14.400870 31.451201 0.924381 2.046405 0.021580 0.005643 108325.000000 0 0 1
15.722763 23.201357 -14.319270 31.472999 0.975218 2.043135 0.021246 0.007040 164096.000000 0 0 1
16.149563 24.617157 -14.780170 32.943378 0.990195 2.036055 0.026841 0.004477 137586.000000 0 0 1
16.528863 24.791557 -16.158970 33.895971 0.982761 2.067719 0.015093 0.002442 -233616.000000 0 0 1
15.469563 25.150257 -17.019170 34.080712 1.019358 2.093677 0.020687 0.003162 -9074.860000 0 0 1
15.766363 25.047757 -18.572770 34.941609 1.009002 2.131211 0.009941 0.004601 60610.500000 0 0 1
15.946863 23.768257 -19.132170 34.427785 0.979847 2.160024 0.013035 0.007797 14097.100000 0 0 1
15.629163 23.862757 -20.528870 35.144507 0.990942 2.194601 0.021476 0.009365 -54397.100000 0 0 1
15.922463 22.548257 -21.210170 34.811205 0.955954 2.225963 0.026849 0.006201 -191392.000000 0 0 1
15.029263 21.489257 -20.934070 33.554465 0.960483 2.244498 0.022488 0.007016 211364.000000 0 0 1
15.502963 20.379957 -21.712670 33.572675 0.920485 2.274094 0.028635 0.003832 326974.000000 0 0 1
14.427763 19.271157 -21.834470 32.500490 0.928146 2.307459 0.019845 -0.001247 -261072.000000 0 0 1
14.168263 18.421357 -20.689570 31.115018 0.915169 2.298208 0.014547 0.002915 190340.000000 0 0 1
13.408763 17.219857 -20.957670 30.257929 0.909191 2.335931 0.014446 0.004695 1165090.000000 0 0 1
11.875863 17.454957 -21.225570 29.937208 0.973365 2.358880 0.018261 0.005973 344711.000000 0 0 1
11.158563 17.746857 -20.063970 29.017707 1.009496 2.334275 0.012382 0.006987 533205.000000 0 0 1
9.801263 18.153357 -20.311870 28.951358 1.075729 2.348417 0.010987 0.003316 1124460.000000 0 0 1
8.755363 17.638957 -19.304270 27.576149 1.110061 2.346243 0.016097 0.001452 -356390.000000 0 0 1
8.799563 16.227457 -19.240670 26.663946 1.073912 2.376905 0.004384 -0.001708 -6087.320000 0 0 1
7.708763 15.540757 -18.644870 25.467063 1.110326 2.392221 0.016794 -0.007588 264281.000000 0 0 1
7.422763 15.873557 -17.169170 24.532582 1.133388 2.345986 0.010334 -0.005092 -68433.400000 0 1 0
6.902263 17.142557 -16.850670 25.009069 1.188017 2.310112 0.022594 -0.004106 -385142.000000 0 0 1
6.422463 17.248357 -15.538070 24.087039 1.214349 2.271924 0.015544 -0.014324 -623345.000000 0 1 0
6.093663 18.742557 -15.103470 24.830041 1.256452 2.224681 0.026766 -0.019171 -620488.000000 0 1 0
7.155863 19.584957 -14.770970 25.553051 1.220490 2.187135 0.020709 -0.016174 -338298.000000 0 0 1
7.796663 20.208057 -15.910370 26.875516 1.202574 2.204337 0.032816 -0.007710 1231920.000000 0 0 1
9.084063 21.082557 -15.567870 27.737212 1.163955 2.166707 0.025398 0.006652 879381.000000 0 0 1
8.823063 22.343457 -14.874470 28.254669 1.194708 2.125208 0.037853 0.000411 54357.700000 0 0 1
8.434963 22.186457 -13.507070 27.309859 1.207487 2.088155 0.016415 -0.002485 -67346.500000 0 0 1
8.157363 23.486957 -12.678270 27.909106 1.236516 2.042349 0.032960 -0.007090 358101.000000 0 0 1
6.845063 24.059857 -12.819070 28.108008 1.293618 2.044365 0.034832 -0.003101 474656.000000 0 0 1
6.548363 25.006157 -11.848570 28.435498 1.314677 2.000589 0.028429 -0.002258 184148.000000 0 0 1
5.936963 24.377357 -10.559870 27.221570 1.331903 1.969173 0.019232 -0.013810 -496220.000000 0 0 1
6.913563 23.837257 -9.717870 26.654252 1.288510 1.943989 0.019114 -0.008873 -266724.000000 0 0 1
6.339863 23.188757 -8.645670 25.547209 1.303916 1.916033 0.025924 -0.018059 -174829.000000 0 0 1
7.299563 23.161057 -7.460570 25.404296 1.265485 1.868864 0.013089 -0.022485 -73313.000000 0 0 1
7.375163 24.442057 -6.883170 26.442110 1.277743 1.834141 0.014011 -0.015960 170577.000000 0 0 1
8.438063 24.608057 -5.960070 26.688570 1.240462 1.796015 0.015533 -0.012860 9588.450000 0 0 1
8.613163 26.062757 -5.420370 27.979175 1.251618 1.765758 0.006978 -0.009976 -76744.800000 0 0 1
9.111963 26.989757 -6.314070 29.177771 1.245203 1.788922 0.015987 -0.012681 -131044.000000 0 0 1
9.415963 28.173957 -5.636270 30.235736 1.248259 1.758304 0.017529 -0.014811 58269.200000 0 0 1
9.560563 29.393157 -6.570470 31.599574 1.256325 1.780254 0.027557 -0.006331 -897607.000000 0 0 1
10.761663 29.348457 -7.223870 32.083167 1.219335 1.797904 0.030209 -0.012217 -1195020.000000 0 0 1
10.921163 30.418957 -8.103470 33.320428 1.226104 1.816458 0.032462 -0.005882 447174.000000 0 0 1
12.378863 30.537557 -8.652270 34.068172 1.185673 1.827578 0.039780 -0.017026 971792.000000 0 0 1
13.351763 30.950057 -7.688170 34.572873 1.163520 1.795047 0.033160 -0.012862 141052.000000 0 0 1
14.546263 31.301757 -8.366870 35.516169 1.135777 1.808611 0.029159 -0.011105 336291.000000 0 0 1
15.828363 31.541257 -7.549770 36.088599 1.105685 1.781554 0.034605 -0.015315 4383.010000 0 0 1
16.382563 30.368057 -7.005470 35.209144 1.076076 1.771100 0.040258 -0.011068 248033.000000 0 0 1
17.654463 30.703857 -6.439970 35.998334 1.048968 1.750661 0.034342 -0.001506 607575.000000 0 0 1
18.657363 29.525657 -6.366670 35.502057 1.007248 1.751104 0.037442 -0.000645 -274135.000000 0 0 1
18.428663 28.617157 -5.261770 34.441886 0.998670 1.724169 0.061898 -0.011708 -566386.000000 0 0 1
19.387263 27.641257 -5.041770 34.136849 0.959139 1.719031 0.052430 -0.006999 -830086.000000 0 0 1
19.415563 26.499057 -6.102870 33.412709 0.938467 1.754479 0.041329 0.005431 -264832.000000 0 0 1
19.990663 26.923757 -7.282870 34.315528 0.932118 1.784655 0.035551 0.010289 101431.000000 0 0 1
19.677463 26.038557 -8.412670 33.704332 0.923654 1.823066 0.023818 0.007675 -1012380.000000 0 0 1
20.408063 26.408157 -9.690970 34.753340 0.912866 1.853393 0.028664 0.001933 965614.000000 0 0 1
21.849463 26.397457 -9.678370 35.607521 0.879385 1.846066 0.028163 -0.000422 1098520.000000 0 0 1
22.456863 25.116257 -9.500070 35.005547 0.841241 1.845631 0.039721 0.000282 -399036.000000 0 0 1
23.996263 25.274857 -9.410570 36.099831 0.811343 1.834525 0.018932 0.005787 557791.000000 0 0 1
24.685463 25.540857 -10.647070 37.081903 0.802427 1.862018 0.015371 0.007014 -381091.000000 0 0 1
26.062363 25.654957 -10.485770 38.044381 0.777521 1.850030 0.004727 0.014136 -657333.000000 0 0 1
26.902663 25.650157 -11.746770 38.982950 0.761569 1.876885 -0.003957 0.014012 -359181.000000 0 0 1
26.876863 26.994957 -12.270770 40.020810 0.787590 1.882425 -0.014685 0.016960 -176964.000000 0 0 1
27.505663 27.072657 -13.543670 40.901359 0.777465 1.908297 -0.008437 0.013157 33916.600000 0 0 1
26.999763 28.167257 -14.551170 41.642743 0.806558 1.927758 0.000307 0.002369 -35469.800000 0 0 1
27.385163 29.496057 -14.232170 42.690973 0.822492 1.910679 -0.005734 -0.005978 89011.300000 0 0 1
27.188863 30.306257 -15.404270 43.531540 0.839565 1.932496 0.012288 -0.003653 -261035.000000 0 0 1
27.547463 31.791357 -15.135970 44.706271 0.856796 1.916188 0.008350 -0.007173 761043.000000 0 0 1
28.948163 32.054657 -14.973370 45.713225 0.836278 1.904506 0.004228 -0.007174 802903.000000 0 0 1
29.154863 33.469457 -15.190070 46.914270 0.854186 1.900522 0.000886 -0.012098 -149551.000000 0 0 1
14.630163 -32.711197 -29.033963 46.119790 -1.150230 2.251749 0.053722 -0.024121 -389027.000000 0 0 1
15.481163 -33.390497 -28.161453 46.342843 -1.136658 2.223928 0.043414 -0.018128 -283262.000000 0 0 1
16.063263 -32.424997 -27.365713 45.368393 -1.110837 2.218290 0.056390 -0.026970 -477902.000000 0 0 1
17.203163 -32.928697 -26.426563 45.591788 -1.089361 2.189076 0.032978 -0.011582 1976940.000000 0 0 1
18.578363 -32.696497 -26.869773 46.219056 -1.054083 2.191192 0.032846 -0.015019 1814150.000000 0 0 1
19.103563 -33.519897 -27.943743 47.638035 -1.052790 2.197632 0.028065 -0.011836 56557.700000 0 0 1
20.617463 -33.272997 -28.187803 48.236131 -1.016057 2.194901 0.034157 -0.006912 254564.000000 0 0 1
20.909363 -31.940697 -28.617473 47.711312 -0.991173 2.214053 0.028894 -0.012527 1171720.000000 0 0 1
22.273063 -31.618197 -28.240033 47.888403 -0.957098 2.201490 0.010385 -0.003962 985105.000000 0 0 1
22.780363 -30.221797 -28.702923 47.499050 -0.924885 2.219663 0.000581 0.004230 -90685.500000 0 0 1
23.086663 -30.326397 -30.087223 48.558473 -0.920120 2.239040 -0.002360 -0.004694 33320.300000 0 0 1
23.676063 -29.109197 -30.525993 48.370833 -0.887966 2.253744 0.001316 -0.007199 -24200.600000 0 0 1
24.095663 -29.143597 -31.997033 49.535445 -0.879932 2.273053 0.009233 -0.012872 106540.000000 0 0 1
25.169363 -30.011797 -32.294423 50.765486 -0.872929 2.260293 0.015147 -0.018567 -200016.000000 0 0 1
25.181463 -30.575397 -33.578803 51.927805 -0.881838 2.273973 0.018728 -0.020303 -242244.000000 0 0 1
26.522463 -31.273397 -33.876703 53.189260 -0.867416 2.261278 0.014201 -0.021859 -228746.000000 0 0 1
27.494763 -30.341497 -34.278039 53.399928 -0.834579 2.267785 0.018741 -0.025806 -114503.000000 0 0 1
28.733663 -31.055097 34.375864 54.513690 -0.824206 0.888481 0.017460 -0.022875 1057770.000000 0 0 1
29.911463 -30.006597 34.241894 54.475671 -0.786986 0.891080 0.024940 -0.032201 396744.000000 0 0 1
29.913863 -29.349197 32.998569 53.339667 -0.775870 0.903773 0.030053 -0.026665 348394.000000 0 0 1
31.050863 -28.493297 32.931689 53.483831 -0.742472 0.907482 0.033486 -0.028390 320411.000000 0 0 1
31.093963 -27.722397 31.665190 52.326380 -0.728137 0.920845 0.022941 -0.027310 -566740.000000 0 0 1
32.290763 -27.015197 31.474740 52.565897 -0.696677 0.928835 0.028868 -0.032019 16725.400000 0 0 1
32.327863 -26.244297 30.296560 51.495003 -0.681905 0.941792 0.027047 -0.024199 -301397.000000 0 0 1
33.070563 -26.931997 29.104780 51.634124 -0.683448 0.971970 0.033610 -0.023219 -48049.500000 0 0 1
32.400463 -28.037797 28.465100 51.440937 -0.713339 0.984410 0.029986 -0.028378 636276.000000 0 0 1
31.298763 -27.575097 27.692590 50.068733 -0.722234 0.984726 0.031674 -0.024520 18893.200000 0 0 1
30.671963 -28.608797 26.716600 49.729360 -0.750609 1.003635 0.020543 -0.011162 387780.000000 0 0 1
29.383063 -28.155697 26.311830 48.460500 -0.764070 0.996845 0.020981 0.001735 254771.000000 0 0 1
28.852863 -28.979797 25.311610 48.093595 -0.787593 1.016554 0.001231 0.004147 -545945.000000 0 0 1
27.421763 -28.602897 24.961320 46.831040 -0.806477 1.008645 0.006341 0.018185 -579260.000000 0 0 1
26.528863 -28.604697 26.028640 46.898820 -0.823031 0.982439 0.000834 0.015899 -348590.000000 0 0 1
25.190663 -28.460697 25.609350 45.830334 -0.846273 0.977875 -0.014000 0.034485 50069.900000 0 0 1
24.168763 -28.226697 26.729870 45.775118 -0.862692 0.947224 -0.004248 0.032506 -92549.100000 0 0 1
24.394863 -27.058797 27.528760 45.663119 -0.837125 0.923707 -0.008481 0.018894 77232.800000 0 0 1
23.373363 -26.948597 28.489840 45.653170 -0.856326 0.896882 0.005125 0.002536 -131135.000000 0 0 1
23.087063 -25.512797 29.027070 45.016509 -0.835269 0.870022 0.002725 0.009906 -581913.000000 0 0 1
21.912563 -25.467597 29.791400 44.903078 -0.860290 0.845363 0.020088 0.007370 -87535.000000 0 0 1
21.859763 -24.284097 30.591030 44.759108 -0.837889 0.818305 0.025458 0.002530 -368081.000000 0 0 1
21.585163 -22.922297 29.893230 43.416082 -0.815432 0.811338 0.032862 0.001453 -816676.000000 0 0 1
22.662963 -22.435797 29.143350 43.200807 -0.780361 0.830371 0.038672 0.001709 -293125.000000 0 0 1
22.602063 -21.113797 28.718920 42.206896 -0.751367 0.822444 0.069316 0.001096 -323809.000000 0 0 1
23.083463 -20.038097 29.721100 42.634673 -0.714892 0.799436 0.057871 0.002995 -39027.800000 0 0 1
22.365163 -19.968197 30.948470 43.089873 -0.728837 0.769540 0.064741 0.000177 197666.000000 0 0 1
22.964463 -19.040397 31.755170 43.569417 -0.692249 0.754169 0.065720 -0.013048 -575024.000000 0 0 1
22.247463 -19.072197 33.092293 44.201789 -0.708703 0.724752 0.080655 -0.004929 -265293.000000 0 0 1
22.577263 -20.117997 33.966827 45.477598 -0.727861 0.727422 0.074976 -0.009185 -81968.200000 0 0 1
21.797163 -20.009197 -33.697393 44.844159 -0.742656 2.421028 0.080217 -0.012317 -233980.000000 0 0 1
21.965563 -21.240397 -32.764913 44.801562 -0.768616 2.391072 0.067903 -0.008105 109171.000000 0 0 1
23.242063 -21.250597 -32.144713 45.000710 -0.740669 2.366442 0.050612 -0.007727 75397.900000 0 0 1
23.316363 -22.200397 -31.116593 44.774465 -0.760885 2.339165 0.043054 -0.010512 911017.000000 0 0 1
24.719463 -22.334197 -30.397523 45.098532 -0.734749 2.310440 0.047892 -0.003488 623362.000000 0 0 1
25.750463 -22.825297 -31.197793 46.447635 -0.725252 2.307266 0.017824 -0.003802 -305116.000000 0 0 1
26.594363 -23.648997 -30.389433 46.798000 -0.726843 2.277558 0.026674 -0.007025 384245.000000 0 0 1
27.572363 -24.594197 -31.160353 48.332984 -0.728371 2.271429 0.003614 -0.009972 660887.000000 0 0 1
28.603863 -23.947097 -31.950103 49.116733 -0.697015 2.279030 0.004614 -0.008907 710457.000000 0 0 1
28.165263 -23.620497 -33.265733 49.576394 -0.697862 2.306352 0.008155 -0.004509 -36448.900000 0 0 1
28.086963 -24.850997 -34.254628 50.792018 -0.724347 2.310961 0.007572 -0.002785 52792.500000 0 0 1
27.010063 -25.707197 -33.889603 50.387584 -0.760689 2.308484 0.015926 -0.017451 24454.900000 0 0 1
27.033363 -27.028697 34.328041 51.378668 -0.785312 0.839093 0.015960 -0.016457 295561.000000 0 0 1
26.428463 -27.077097 32.836425 50.098539 -0.797520 0.856036 0.016409 -0.020884 -319950.000000 0 0 1
27.305063 -26.389697 32.005300 49.662076 -0.768352 0.870477 0.016486 -0.020801 -186118.000000 0 0 1
27.047063 -26.524197 30.615050 48.706857 -0.775638 0.891099 0.002362 -0.012823 -94784.000000 0 0 1
28.296163 -26.114697 29.763840 48.667611 -0.745327 0.912748 -0.001993 -0.006717 307548.000000 0 0 1
28.696963 -24.746597 29.720540 48.158283 -0.711616 0.905690 -0.007280 -0.011783 351161.000000 0 0 1
29.278863 -24.256697 30.933890 49.015760 -0.691862 0.887825 -0.004943 -0.011771 -1312350.000000 0 0 1
29.585363 -22.730397 31.017340 48.518450 -0.655110 0.877222 -0.019749 -0.000873 888534.000000 0 0 1
30.834463 -22.261697 30.483850 48.740254 -0.625322 0.895108 -0.000447 -0.011062 983124.000000 0 0 1
31.968663 -22.682097 31.235230 50.120979 -0.617080 0.897973 0.000557 -0.007373 -937521.000000 0 0 1
33.320463 -22.155597 30.821200 50.508119 -0.586796 0.914455 -0.003434 -0.005507 -716417.000000 0 0 1
33.730863 -22.527397 29.540170 50.178445 -0.588826 0.941344 0.014504 -0.010647 -815096.000000 0 0 1
34.936763 -21.948797 29.226910 50.562232 -0.560928 0.954474 -0.004106 -0.002597 -830317.000000 0 0 1
35.486663 -22.374897 27.850030 50.354378 -0.562556 0.984739 0.011194 -0.002515 -68145.100000 0 0 1
-35.253046 -23.736297 27.810540 50.789912 0.592589 0.991350 0.014445 -0.006472 104719.000000 0 0 1
-34.863646 -24.150497 26.512880 50.016529 0.605819 1.012099 0.006598 0.006834 -682991.000000 0 0 1
-34.780746 -25.672097 26.366860 50.635641 0.635849 1.023105 0.003905 -0.000105 -480096.000000 0 0 1
35.079563 -26.422897 26.389490 51.236221 -0.645564 1.029724 0.022842 -0.005723 -220878.000000 0 0 1
35.203763 -27.776997 26.080620 51.875478 -0.668019 1.044014 0.031269 -0.013597 -441752.000000 0 0 1
-34.904846 -28.665497 26.850810 52.545457 0.687563 1.034447 0.028218 -0.023743 -943695.000000 0 0 1
-34.702046 -29.955197 26.215070 52.808860 0.712114 1.051333 0.043153 -0.025655 503557.000000 0 0 1
-33.795646 -30.878597 26.861390 53.076998 0.740325 1.040159 0.050788 -0.025341 382750.000000 0 0 1
-32.325046 -30.431197 26.821180 51.868507 0.755229 1.027338 0.048880 -0.025209 -958161.000000 0 0 1
-31.755046 -30.259497 25.557520 50.766199 0.761287 1.043226 0.035980 -0.019852 -305482.000000 0 0 1
-30.485946 -29.679397 25.677800 49.695160 0.771993 1.027797 0.012046 -0.010723 -464751.000000 0 0 1
-29.839546 -29.475497 24.297880 48.472574 0.779261 1.045730 0.007733 0.001498 -370142.000000 0 0 1
-29.628546 -30.719597 23.614030 48.776703 0.803475 1.065433 0.008584 0.000055 375402.000000 0 0 1
-29.062346 -30.435997 22.360630 47.654671 0.808481 1.082387 0.003402 0.004492 -605317.000000 0 0 1
-29.229146 -31.601097 21.366230 48.057134 0.824371 1.110068 0.006180 0.006836 217821.000000 0 0 1
-28.530446 -32.844397 21.560330 48.555006 0.855571 1.110695 -0.004547 0.002922 -228772.000000 0 0 1
-27.141446 -32.796697 21.424330 47.657983 0.879471 1.104542 0.004336 0.004089 -521732.000000 0 0 1
-26.486246 -34.202097 21.341030 48.236337 0.911859 1.112494 -0.011824 0.014322 -209946.000000 0 0 1
-26.753046 34.001157 20.165730 47.733226 -0.904139 1.134630 -0.021338 0.013836 -375353.000000 0 0 1
-27.866646 33.154457 20.196530 47.787737 -0.871838 1.134451 -0.013354 0.015521 -368273.000000 0 0 1
-27.899446 31.943757 21.178930 47.406010 -0.852877 1.107660 -0.003578 0.015470 249436.000000 0 0 1
-26.842246 30.987457 20.982630 46.054310 -0.856955 1.097743 -0.008604 0.017573 419431.000000 0 0 1
-26.874346 30.019257 21.974230 45.893933 -0.840619 1.071504 0.003126 0.011793 -218514.000000 0 0 1
-25.943046 28.819457 21.755030 44.462165 -0.837875 1.059517 0.006811 0.009453 -530255.000000 0 0 1
-24.607546 29.192657 21.902130 44.016427 -0.870417 1.049978 0.002568 0.011910 -831047.000000 0 0 1
-23.781646 28.171057 21.400930 42.628335 -0.869687 1.044846 0.004938 0.007791 489077.000000 0 0 1
-22.261746 28.531857 21.499330 42.093627 -0.908220 1.034739 0.012367 0.011905 577738.000000 0 0 1
-21.736646 28.463857 22.839530 42.477254 -0.918611 1.003103 0.017047 0.009500 -672826.000000 0 0 1
-20.473446 28.998657 22.915030 42.251423 -0.956046 0.997565 0.033815 0.000699 -929603.000000 0 0 1
-19.951546 29.106957 24.388220 42.895972 -0.969898 0.966062 0.027873 0.001708 -467380.000000 0 0 1
-19.534146 27.853457 24.812320 42.107590 -0.959186 0.940654 0.018126 -0.004399 122166.000000 0 0 1
-19.557946 27.798757 26.272350 42.959522 -0.957689 0.912765 0.030239 -0.007184 -224990.000000 0 0 1
-18.265346 28.281257 26.947510 43.123319 -0.997347 0.895800 0.022223 -0.001335 -427817.000000 0 0 1
-17.781646 29.603057 26.599800 43.589876 -1.029885 0.914447 0.006086 -0.007125 310058.000000 0 0 1
-16.476046 29.912657 27.060170 43.571550 -1.067335 0.900713 0.012081 -0.007180 195516.000000 0 0 1
-16.141846 30.126157 28.570610 44.546878 -1.078914 0.874526 0.002141 0.003134 -484782.000000 0 0 1
-16.214846 28.912257 29.303420 44.243986 -1.059677 0.846893 0.008530 0.003075 153633.000000 0 0 1
-16.349446 29.199457 30.673570 45.395821 -1.060367 0.828894 0.011221 0.007309 -267739.000000 0 0 1
-16.400646 27.891157 31.506000 45.161110 -1.039230 0.798704 0.015345 0.004551 -551896.000000 0 0 1
-15.138946 27.281357 31.689000 44.470809 -1.064184 0.777628 0.022262 0.008381 82705.300000 0 0 1
-14.972746 26.098457 32.398530 44.215126 -1.049938 0.748445 0.033348 0.001159 -383731.000000 0 0 1
-15.234346 26.231857 33.891676 45.484518 -1.044646 0.730073 0.032666 -0.000664 -313675.000000 0 0 1
-16.609546 26.277657 34.158468 46.186505 -1.007123 0.738355 0.026385 -0.000968 -508698.000000 0 0 1
-16.996346 27.111457 -33.526253 46.345620 -1.010827 2.379505 0.019865 0.000741 873142.000000 0 0 1
-18.359146 26.646657 -32.874723 46.128624 -0.967501 2.364101 0.006507 0.002921 1046480.000000 0 0 1
-19.448046 26.709657 -33.769233 47.243977 -0.941441 2.367111 0.011509 0.002948 -917861.000000 0 0 1
-20.638246 26.250157 -33.254573 47.126156 -0.904518 2.354136 0.025385 -0.006568 -885908.000000 0 0 1
-21.786646 26.442057 -34.276866 48.463841 -0.881628 2.356421 0.038755 -0.019040 -537443.000000 0 0 1
-21.873746 25.558457 33.454240 47.443458 -0.862926 0.788177 0.041147 -0.014424 15202.800000 0 0 1
-22.168646 24.203457 33.778305 47.098090 -0.829250 0.771034 0.042796 -0.019234 -291449.000000 0 0 1
-22.593746 23.362557 32.551440 45.998725 -0.802126 0.784616 0.036311 -0.010159 568215.000000 0 0 1
-23.975546 23.212757 32.214810 46.383757 -0.769235 0.803033 0.048113 -0.014951 392456.000000 0 0 1
-24.139146 22.962557 30.822180 45.387049 -0.760424 0.824265 0.047963 -0.010218 797698.000000 0 0 1
-25.639246 22.640457 30.499880 45.827982 -0.723365 0.842593 0.037967 -0.010880 509540.000000 0 0 1
-25.990546 21.395957 31.046620 45.795066 -0.688740 0.825830 0.040069 -0.009209 -271014.000000 0 0 1
-27.212546 20.943957 30.522830 45.943609 -0.655955 0.844167 0.023856 -0.010857 -270682.000000 0 0 1
-27.726246 19.576157 31.018470 45.979519 -0.614776 0.830353 0.026262 -0.016681 -73737.200000 0 0 1
-28.155646 19.486457 32.388810 47.132764 -0.605403 0.813193 0.026788 -0.019255 100008.000000 0 0 1
-28.171746 18.211757 33.035687 47.081546 -0.573879 0.793058 0.021719 -0.005096 -336321.000000 0 0 1
-28.846946 17.001157 32.379070 46.578856 -0.532557 0.802174 0.010517 -0.000415 596789.000000 0 0 1
-30.247546 17.249057 32.188820 47.419028 -0.518267 0.824647 0.004934 -0.008078 193870.000000 0 0 1
-30.915046 16.199657 31.574190 47.064833 -0.482667 0.835421 0.020814 0.000807 -169809.000000 0 0 1
-32.409946 16.578357 31.478210 48.126129 -0.472822 0.857834 0.019621 -0.001192 -233636.000000 0 0 1
-32.964546 16.815857 32.754523 49.419562 -0.471710 0.846265 0.019233 -0.002584 -993730.000000 0 0 1
-34.314846 17.050057 32.706810 50.378056 -0.461141 0.864228 0.025961 -0.008934 -1396880.000000 0 0 1
-34.802546 17.341257 34.097246 51.716135 -0.462267 0.850888 0.020408 0.004543 -1128380.000000 0 0 1
34.891963 17.610257 34.164923 51.911580 0.467407 0.852455 0.004542 0.003538 -886659.000000 0 0 1
34.527263 17.940257 -33.369273 51.259078 0.479202 2.279687 -0.008240 0.007368 1049780.000000 0 0 1
32.980663 18.143857 -33.112553 50.133470 0.502948 2.292265 -0.001530 0.010739 1150130.000000 0 0 1
32.275763 16.925657 -32.998913 49.164326 0.482983 2.306618 0.005878 0.016882 -959901.000000 0 0 1
30.989763 17.140157 -32.546173 48.097856 0.505213 2.314021 -0.000392 0.018940 -988583.000000 0 0 1
30.154263 15.843357 -32.616163 47.160424 0.483769 2.334499 0.001414 0.021156 -267315.000000 0 0 1
29.626163 15.625857 -33.947693 47.689860 0.485353 2.362915 0.009230 0.002895 -158017.000000 0 0 1
29.019663 14.397157 -34.167020 47.082950 0.460537 2.382814 0.011394 0.002666 -428342.000000 0 0 1
29.935263 13.160457 -34.082394 47.232692 0.414197 2.376885 0.015700 0.006881 -61466.200000 0 0 1
30.328363 12.800857 -32.763533 46.444813 0.399391 2.353825 0.015281 0.011909 33119.100000 0 0 1
31.180863 11.678557 -32.862853 46.782497 0.358369 2.349645 0.025070 0.009436 -175491.000000 0 0 1
17.473363 -21.364943 9.558047 29.208483 -0.885264 1.237420 0.004082 -0.012473 -43387.000000 0 0 1
17.275363 -22.426843 10.480447 30.186772 -0.914430 1.216227 0.000217 -0.016370 603291.000000 0 0 1
18.392863 -23.323643 10.585947 31.533347 -0.903050 1.228441 -0.006070 -0.015248 47412.200000 0 0 1
18.008063 -24.555043 11.426847 32.524042 -0.938020 1.211799 0.008047 -0.005297 -69419.600000 0 0 1
17.291463 -25.551953 10.730147 32.665472 -0.975867 1.236096 0.008935 -0.008146 1967.520000 0 0 1
15.931763 -25.555093 11.125647 32.103954 -1.013328 1.216905 0.011157 -0.002801 214042.000000 0 0 1
14.983763 -26.447983 10.256047 32.081076 -1.055345 1.245392 0.016429 0.003066 137804.000000 0 0 1
14.936963 -25.996883 8.916247 31.280189 -1.049287 1.281743 0.018465 -0.001899 75739.800000 0 0 1
14.219663 -26.875753 8.055847 31.454755 -1.084149 1.311802 0.025782 -0.000413 -108385.000000 0 0 1
13.979163 -26.238893 6.689347 30.473659 -1.081282 1.349482 0.030869 -0.003252 138432.000000 0 0 1
13.113963 -25.106803 6.865347 29.145507 -1.089447 1.333008 0.032363 -0.020284 216851.000000 0 0 1
12.741263 -24.582343 5.627747 28.254255 -1.092609 1.370273 0.036810 -0.008714 22721.600000 0 0 1
11.990063 -23.225143 5.770147 26.766835 -1.094231 1.353520 0.039110 -0.019424 20116.200000 0 0 1
11.708763 -22.725243 4.481047 25.954028 -1.095038 1.397274 0.048036 -0.013818 66523.700000 0 0 1
10.912563 -21.560543 4.684347 24.614714 -1.102252 1.379322 0.048624 -0.012767 676078.000000 0 1 0
10.125563 -20.999843 3.426447 23.563976 -1.121512 1.424869 0.037462 -0.011089 -39485.500000 0 1 0
11.015863 -20.326043 2.612647 23.266353 -1.074148 1.458266 0.029799 -0.009925 136484.000000 0 1 0
10.149763 -19.546643 1.789547 22.097317 -1.091861 1.489723 0.022513 -0.003873 689066.000000 0 1 0
10.825863 -19.029843 0.491147 21.899212 -1.053567 1.548367 0.015784 -0.004383 109797.000000 0 1 0
11.738063 -17.997443 0.784947 21.501307 -0.992871 1.534281 0.018382 -0.002799 -107858.000000 0 1 0
12.430563 -17.554943 -0.385253 21.513794 -0.954658 1.588705 0.028354 -0.006852 -143647.000000 0 1 0
13.717663 -16.775043 -0.099453 21.669939 -0.885330 1.575386 0.038276 -0.003372 -558873.000000 0 1 0
14.688863 -17.578843 0.490547 22.913294 -0.874722 1.549386 0.042099 -0.004217 -692101.000000 0 1 0
15.952863 -16.966843 0.313647 23.290899 -0.816190 1.557329 0.042098 -0.006725 -118579.000000 0 1 0
17.002463 -17.698743 1.162547 24.569916 -0.805461 1.523463 0.038480 -0.005482 -340557.000000 0 1 0
17.515063 -18.831343 0.513747 25.722769 -0.821597 1.550823 0.044717 -0.010608 -815878.000000 0 0 1
18.590863 -19.239343 1.275447 26.784310 -0.802538 1.523159 0.045438 -0.007288 -421285.000000 0 0 1
18.993363 -20.722443 0.908247 28.124587 -0.828907 1.538497 0.038467 -0.012283 -17283.900000 0 0 1
17.998163 -21.676643 1.165647 28.198749 -0.877850 1.529448 0.034835 -0.005685 -216580.000000 0 0 1
18.268263 -22.906543 0.472847 29.302947 -0.897574 1.554659 0.037698 -0.006293 -519519.000000 0 0 1
17.153463 -23.930843 0.590047 29.449528 -0.948889 1.550759 0.023976 -0.000083 -377573.000000 0 0 1
16.972463 -24.452443 1.883847 29.825079 -0.964040 1.507591 0.011745 -0.003219 -156552.000000 0 0 1
15.853263 -25.305123 2.038247 29.930414 -1.011130 1.502644 0.011217 -0.000235 -394839.000000 0 0 1
15.717663 -26.103333 3.372147 30.656163 -1.028810 1.460574 0.000065 -0.002844 477530.000000 0 0 1
16.708363 -27.133593 3.565547 32.064223 -1.018854 1.459366 0.001690 0.000002 -12056.700000 0 0 1
17.931563 -26.611353 4.031147 32.341231 -0.977850 1.445827 -0.005275 0.004956 -679387.000000 0 0 1
18.992963 -27.717703 3.890847 33.825174 -0.970053 1.455513 0.002985 0.003884 -468933.000000 0 0 1
19.467463 -27.881793 2.563147 34.101997 -0.961270 1.495564 0.015263 0.002714 316939.000000 0 0 1
20.443763 -28.924073 2.364647 35.498465 -0.955516 1.504134 0.042971 0.001749 400134.000000 0 0 1
20.028863 -30.424143 2.720547 36.526500 -0.988594 1.496246 0.035115 0.003589 -37413.700000 0 0 1
19.965663 -30.660903 4.086747 36.816032 -0.993594 1.459563 0.040985 0.000211 -69951.100000 0 0 1
19.420963 -31.957953 4.254847 37.637591 -1.024732 1.457506 0.040519 -0.013978 -577226.000000 0 0 1
19.111563 -32.392653 5.664747 38.034526 -1.037765 1.421303 0.048550 -0.018828 -923169.000000 0 0 1
20.080663 -33.039013 6.424047 39.192828 -1.024671 1.406145 0.038080 -0.018591 -429258.000000 0 0 1
19.689363 -33.467503 7.723847 39.590436 -1.039015 1.374443 0.033423 -0.019689 -301592.000000 0 0 1
20.726363 -34.417819 8.353547 41.035962 -1.028762 1.365797 0.025884 -0.020730 -372688.000000 0 0 1
21.679763 -33.641563 9.025347 41.027110 -0.998344 1.348997 0.032406 -0.020268 -33025.800000 0 0 1
22.633763 34.412810 9.597647 42.292358 0.989018 1.341866 0.037340 -0.024905 -164945.000000 0 0 1
23.656663 -33.941703 10.538447 42.693510 -0.962101 1.321379 0.034271 -0.017776 -156204.000000 0 0 1
24.553363 -33.039183 9.873147 42.331245 -0.931688 1.335393 0.021426 -0.015707 679048.000000 0 0 1
25.327563 -32.191123 10.727847 42.341948 -0.904164 1.314642 0.013227 -0.005330 360441.000000 0 0 1
26.063263 -31.043233 9.935347 41.733525 -0.872383 1.330422 0.019668 -0.013822 -46244.700000 0 0 1
25.256563 -29.935073 9.585747 40.322315 -0.869964 1.330770 0.014378 -0.017583 433784.000000 0 0 1
25.783863 -29.395943 8.365447 39.986370 -0.850765 1.360032 0.029153 -0.021581 355620.000000 0 0 1
25.161563 -27.935313 8.223347 38.485184 -0.837590 1.355460 0.024442 -0.017551 149132.000000 0 0 1
25.895863 -27.006623 8.975847 38.477516 -0.806391 1.335352 0.015275 -0.019257 2992.920000 0 0 1
25.294163 -25.745643 9.122047 37.226933 -0.794244 1.323237 0.012568 -0.022933 -316147.000000 0 0 1
26.257663 -24.900143 10.016747 37.547533 -0.758868 1.300751 0.031051 -0.031077 113949.000000 0 0 1
27.485463 -24.532243 9.466247 38.038026 -0.728686 1.319290 0.040822 -0.028719 -695167.000000 0 0 1
28.247763 -23.742643 10.354347 38.325732 -0.698961 1.297230 0.028174 -0.030467 367824.000000 0 0 1
29.663463 -23.449043 9.768247 39.053774 -0.668923 1.317989 0.047152 -0.028791 483173.000000 0 0 1
29.668763 -22.506843 8.722847 38.247634 -0.648985 1.340709 0.052526 -0.021189 57508.600000 0 0 1
30.990663 -22.524343 8.208647 39.180979 -0.628494 1.359727 0.051461 -0.019494 38623.000000 0 0 1
31.068063 -21.659943 6.911747 38.498700 -0.608829 1.390286 0.048247 -0.009044 -26269.100000 0 0 1
30.631563 -20.344643 7.172447 37.465199 -0.586274 1.378164 0.040468 -0.003487 126977.000000 0 0 1
31.040763 -19.552743 6.057447 37.182407 -0.562119 1.407155 0.028802 0.006301 152874.000000 0 0 1
30.640463 -18.093243 6.266547 36.131330 -0.533406 1.396477 0.032396 0.011504 71213.900000 0 0 1
31.259763 -17.566243 7.441947 36.621418 -0.511967 1.366158 0.040005 0.002466 152557.000000 0 0 1
30.935163 -16.163143 7.651347 35.731983 -0.481473 1.354994 0.039009 0.000101 88295.400000 0 0 1
31.507063 -15.479243 8.948847 36.226838 -0.456659 1.321190 0.039235 -0.013967 450755.000000 0 0 1
32.921363 -15.566043 9.078347 37.530444 -0.441672 1.326480 0.033120 -0.014735 104899.000000 0 0 1
33.288763 -14.902343 10.290247 37.896052 -0.420914 1.295805 0.028790 -0.023972 356263.000000 0 0 1
34.815963 -14.722243 10.517647 39.236674 -0.400056 1.299421 0.023933 -0.024126 485415.000000 0 0 1
35.457163 -13.815843 9.584747 39.242264 -0.371551 1.324055 0.024168 -0.018525 -165516.000000 0 0 1
-34.513646 -14.547843 9.091047 38.541908 0.398911 1.332678 0.022764 -0.025479 -168810.000000 0 0 1
-33.605046 -13.768343 8.092747 37.206975 0.388849 1.351538 0.020173 -0.016620 -68229.000000 0 0 1
-34.273946 -13.524143 6.852347 37.477467 0.375834 1.386923 0.027496 -0.015864 376558.000000 0 0 1
-33.475046 -13.006943 5.760447 36.372270 0.370602 1.411752 0.031444 -0.006477 84247.700000 0 0 1
-32.475346 -14.024443 5.150447 35.747171 0.407657 1.426213 0.016017 0.004112 -192222.000000 0 0 1
-31.469446 -14.353343 6.054547 35.114129 0.427918 1.397506 0.018187 0.001014 -898511.000000 0 0 1
-30.622646 -15.318543 5.556747 34.688351 0.463836 1.409913 0.021004 0.003048 -399386.000000 0 0 1
-29.792546 -15.931843 6.722647 34.447256 0.491067 1.374378 0.019516 -0.005146 -579703.000000 0 0 1
-30.492346 -16.795843 7.519547 35.614985 0.503474 1.358061 0.021254 -0.011579 -601578.000000 0 0 1
-30.038246 -16.760343 8.806147 35.507092 0.508939 1.320170 0.011228 -0.020712 -381420.000000 0 0 1
-30.944846 -17.490543 9.806947 36.873823 0.514451 1.301597 -0.009535 -0.019278 96561.200000 0 0 1
-32.250446 -16.890243 9.911447 37.730735 0.482444 1.304988 0.000334 -0.013961 685290.000000 0 0 1
-33.154846 -17.615543 10.711647 39.042164 0.488382 1.292871 0.017975 -0.023217 -18940.600000 0 0 1
-33.717146 -18.979943 10.222147 40.019701 0.512706 1.312506 0.033929 -0.019303 -996412.000000 0 0 1
-32.861646 -20.087543 10.225247 39.849126 0.548670 1.311295 0.024937 -0.015468 -680117.000000 0 0 1
-32.460746 -20.528343 11.541047 40.103724 0.563907 1.278888 0.011390 -0.025667 -1347400.000000 0 0 1
-33.452546 -20.928543 12.630947 41.432084 0.559044 1.261006 0.035346 -0.025147 -544705.000000 0 0 1
-33.970846 -22.204043 12.495847 42.463916 0.578916 1.272105 0.012245 -0.019125 314272.000000 0 0 1
-35.199046 -22.204543 11.747947 43.243830 0.562779 1.295671 0.035795 -0.025519 253288.000000 0 0 1
35.376963 -23.658543 11.424547 44.065592 -0.589447 1.308538 0.031589 -0.019614 -94360.100000 0 0 1
35.245863 -24.415743 12.579747 44.683883 -0.605828 1.285411 0.045704 -0.015138 133392.000000 0 0 1
34.635463 -25.649513 12.302447 44.820341 -0.637430 1.292744 0.023839 0.003942 -159357.000000 0 0 1
34.086363 -26.280103 13.633047 45.148465 -0.656797 1.264048 0.031112 -0.018885 156523.000000 0 0 1
32.820463 -25.716833 13.942847 43.965228 -0.664636 1.248091 0.033670 -0.013070 164522.000000 0 0 1
32.599863 -25.443763 15.324747 44.101973 -0.662729 1.215909 0.046347 -0.010831 -316335.000000 0 0 1
32.095163 -24.015643 15.645947 43.030759 -0.642389 1.198668 0.038380 -0.015709 6203.470000 0 0 1
33.072263 -23.052343 16.065947 43.397001 -0.608730 1.191563 0.043036 -0.018967 174224.000000 0 0 1
33.900663 -22.601943 15.007147 43.420240 -0.588033 1.217891 0.046219 -0.019902 -349853.000000 0 0 1
35.080963 -21.743043 15.449447 44.069482 -0.554848 1.212616 0.038795 -0.021430 -506466.000000 0 0 1
34.804763 -20.435243 16.041647 43.431614 -0.530909 1.192482 0.034554 -0.016507 91424.500000 0 0 1
34.037263 -20.442443 17.233747 43.283146 -0.540853 1.161283 0.025206 -0.015923 -67636.700000 0 0 1
33.952163 -19.022043 17.873347 42.825740 -0.510686 1.140268 0.016536 -0.009268 -309881.000000 0 0 1
33.488663 -17.896343 17.069947 41.631151 -0.490787 1.148311 0.024493 -0.018710 236518.000000 0 0 1
33.414363 -16.658243 17.738047 41.335880 -0.462475 1.127278 0.016308 -0.011521 -799369.000000 0 0 1
34.672263 -15.930743 18.167647 42.261303 -0.430698 1.126427 0.010722 -0.012122 -789337.000000 0 0 1
35.207363 -16.449143 19.364647 43.417994 -0.437071 1.108499 0.013983 -0.002826 151738.000000 0 0 1
-34.876146 -15.556043 19.865747 43.046300 0.419553 1.091114 0.008580 -0.011073 -189182.000000 0 0 1
-34.498446 -15.688843 21.297147 43.472417 0.426813 1.058821 -0.000653 0.001411 102487.000000 0 0 1
-33.640846 -16.783743 21.650547 43.383715 0.462775 1.048297 0.001916 0.005810 291027.000000 0 0 1
-33.382146 -16.639543 23.029847 43.836240 0.462412 1.017657 -0.000301 0.010928 195134.000000 0 0 1
-32.486346 -17.750543 23.644847 43.926339 0.500075 1.002397 -0.001166 0.013688 -384243.000000 0 0 1
-33.161546 -19.000243 23.565047 44.899987 0.520300 1.018276 -0.008753 0.010648 272694.000000 0 0 1
-32.419346 -20.046343 24.089047 45.090488 0.553799 1.007190 -0.022387 0.016726 188425.000000 0 0 1
-31.314146 -20.731543 23.186247 44.135866 0.584800 1.017684 -0.011638 0.011969 1136340.000000 0 0 1
-30.144546 -19.927043 22.995247 42.831788 0.584104 1.004070 -0.004437 0.013916 586911.000000 0 0 1
-29.063346 -20.685043 22.478547 42.164371 0.618550 1.008516 0.012405 0.009537 -55421.800000 0 0 1
-27.764546 -19.875443 22.327947 40.797555 0.621289 0.991678 0.032771 0.002236 -642027.000000 0 0 1
-27.209746 -19.653743 23.558947 41.008095 0.625540 0.958809 0.030668 0.004213 291902.000000 0 0 1
-26.179346 -18.657943 23.514847 39.829952 0.619197 0.939266 0.045617 -0.000383 266545.000000 0 0 1
-25.640546 -18.166643 24.856547 40.066351 0.616416 0.901563 0.035656 -0.003822 -498924.000000 0 0 1
-24.747346 -17.059843 24.809147 38.973878 0.603550 0.880769 0.029579 -0.006593 369605.000000 0 0 1
-24.435446 -16.535043 26.114947 39.401639 0.594905 0.846260 0.019756 -0.006865 293231.000000 0 0 1
-23.369146 -17.346543 26.940547 39.658702 0.638545 0.823975 0.014097 -0.005000 -200111.000000 0 0 1
-23.678846 -18.694243 27.383347 40.743222 0.668300 0.833761 0.024936 -0.005129 -10873.100000 0 0 1
-22.621346 -19.150643 28.200347 40.911270 0.702502 0.810267 0.033809 -0.008010 -214689.000000 0 0 1
-22.990046 -20.506843 28.830047 42.192943 0.728371 0.818536 0.031275 -0.002698 269982.000000 0 0 1
-23.995446 -20.228843 29.813847 43.288024 0.700433 0.811058 0.035699 -0.008863 438092.000000 0 0 1
-24.567546 -21.432443 30.322747 44.523959 0.717349 0.821610 0.042557 -0.012754 717651.000000 0 0 1
-25.810146 -21.177143 31.294147 45.759793 0.687115 0.817731 0.032852 -0.009327 306102.000000 0 0 1
-25.433846 -20.791243 32.574547 46.262916 0.685299 0.789616 0.049173 -0.015046 757934.000000 0 0 1
-26.456246 -20.888043 33.608347 47.600045 0.668325 0.786882 0.051560 -0.022280 841656.000000 0 0 1
-27.694946 -19.971343 33.497747 47.832663 0.624759 0.794963 0.025672 -0.026052 52434.100000 0 0 1
-28.630546 -20.238143 32.453047 47.775421 0.615323 0.824011 0.041960 -0.019777 1003070.000000 0 0 1
-29.805046 -19.431943 32.586547 48.247531 0.577758 0.829285 0.062448 -0.031268 853844.000000 0 0 1
-31.095646 -19.837943 31.811347 48.707751 0.567868 0.859117 0.049098 0.005046 -184418.000000 0 0 1
-31.180146 -19.312943 30.510147 47.708074 0.554561 0.876926 0.035442 -0.010900 873710.000000 0 0 1
-32.410346 -19.718643 29.890047 48.297726 0.546577 0.903492 0.025971 -0.009584 544855.000000 0 0 1
-32.890546 -18.860843 28.669047 47.533501 0.520663 0.923373 0.010591 0.000209 488.699000 0 0 1
-34.056346 -19.338043 28.034447 48.163522 0.516425 0.949527 -0.001696 0.005105 148277.000000 0 0 1
-34.513746 -18.410443 27.092247 47.582906 0.490028 0.965058 -0.004735 0.006576 -177071.000000 0 0 1
35.470763 -18.951343 26.125347 47.956878 -0.490695 0.994685 -0.007928 0.005557 -232455.000000 0 0 1
34.213763 -19.148943 26.725447 47.450112 -0.510249 0.972504 0.005662 -0.001380 -810718.000000 0 0 1
33.316363 -19.506143 25.781547 46.423677 -0.529676 0.982008 0.033251 0.003254 -1551330.000000 0 0 1
32.065063 -20.180143 26.291947 46.115864 -0.561721 0.964135 0.021654 -0.006878 -761336.000000 0 0 1
31.217863 -19.247043 26.955347 45.514771 -0.552492 0.936969 0.010284 -0.017205 472094.000000 0 0 1
30.164763 -19.979943 27.586847 45.498848 -0.585015 0.919372 0.008002 -0.011426 91090.200000 0 0 1
-29.669587 -5.669943 33.926719 45.425268 0.188826 0.727455 0.012506 0.000987 71807.100000 0 0 1
-30.563497 -5.182543 32.949430 45.239928 0.167969 0.754920 0.010732 0.000598 319786.000000 0 0 1
-29.931217 -4.188543 32.181510 44.148287 0.139036 0.754022 0.016190 -0.000467 128382.000000 0 0 1
-30.493267 -4.152743 30.704110 43.472141 0.135353 0.786547 0.008347 0.001353 180650.000000 0 0 1
-30.271177 -5.309643 29.906290 42.882662 0.173636 0.799036 0.005993 0.001046 -1001710.000000 0 0 1
-28.971207 -5.295443 29.445050 41.645931 0.180787 0.785502 0.016337 0.002730 -777245.000000 0 0 1
-28.654357 -6.390743 28.409330 40.853444 0.219437 0.801825 0.018650 -0.002187 -187653.000000 0 0 1
-29.355087 -6.084243 27.240840 40.506821 0.204370 0.833215 0.015450 -0.013845 -344397.000000 0 0 1
-28.900117 -6.856643 26.157700 39.578474 0.232946 0.848769 0.025990 -0.010715 -255011.000000 0 0 1
-29.547137 -6.587743 24.808260 39.139257 0.219369 0.884281 0.030697 -0.017917 -341486.000000 0 0 1
-29.150147 -5.365943 24.186640 38.255954 0.182042 0.886366 0.044591 -0.018050 -29541.800000 0 0 1
-29.932647 -4.990343 23.076730 38.123515 0.165200 0.920635 0.053356 -0.020652 -37579.300000 0 0 1
-29.459847 -3.650843 22.518730 37.259958 0.123297 0.921824 0.053873 -0.023030 57532.000000 0 0 1
-28.133207 -3.674243 22.051430 35.933870 0.129867 0.910100 0.065188 -0.019034 -141039.000000 0 0 1
-27.672627 -2.461343 21.560630 35.166650 0.088712 0.910819 0.065898 -0.020195 461190.000000 0 0 1
-26.261717 -2.478443 20.902030 33.655837 0.094096 0.900712 0.062497 -0.012363 411670.000000 0 0 1
-26.189497 -3.132443 19.608430 32.866282 0.119041 0.931523 0.065539 -0.011057 870745.000000 0 0 1
-24.878137 -3.052843 18.985030 31.443170 0.122101 0.922551 0.058124 -0.009100 759182.000000 0 0 1
-24.708337 -3.915243 17.712730 30.652437 0.157152 0.954696 0.056156 -0.009033 -264508.000000 0 0 1
-25.590037 -3.561143 16.671530 30.748523 0.138273 0.997755 0.053607 -0.001639 27540.400000 0 0 1
-25.358397 -4.354643 15.581130 30.079609 0.170065 1.026289 0.055973 -0.003808 395096.000000 0 0 1
-26.554557 -4.424243 14.566130 30.608669 0.165093 1.074829 0.047522 -0.006922 501738.000000 0 0 1
-26.771357 -3.227143 13.862030 30.319563 0.119966 1.095955 0.047657 -0.004734 231447.000000 0 0 1
-28.078587 -3.182043 13.307530 31.234962 0.112845 1.130679 0.029343 -0.003055 231602.000000 0 0 1
-28.422827 -1.904243 12.497130 31.107258 0.066897 1.157377 0.031173 -0.002172 -177439.000000 0 0 1
-27.751307 -1.784443 11.261830 30.002469 0.064213 1.186007 0.035021 -0.002863 206920.000000 0 0 1
-28.162127 -0.590843 10.580230 30.089795 0.020977 1.211493 0.034198 -0.000946 456539.000000 0 0 1
-29.443957 -0.811043 9.698930 31.010864 0.027538 1.252700 0.018338 0.004416 528716.000000 0 0 1
-29.320487 -1.666843 8.558030 30.589365 0.056788 1.287240 0.010529 -0.002298 501379.000000 0 0 1
-30.627877 -2.129643 8.206130 31.779598 0.069421 1.309617 0.011851 0.001720 368269.000000 0 0 1
-30.568407 -2.971943 6.864430 31.470310 0.096918 1.350905 0.022365 -0.001527 -459976.000000 0 0 1
-30.346437 -2.189943 5.668830 30.948954 0.072040 1.386589 0.029386 -0.011601 769382.000000 0 0 1
-31.297487 -1.152143 5.432630 31.786375 0.036796 1.399042 0.018294 -0.012068 -213172.000000 0 0 1
-30.886437 -0.393143 4.151830 31.166717 0.012728 1.437186 0.027473 -0.015132 -89582.800000 0 0 1
-30.999007 -1.091443 2.945430 31.157748 0.035194 1.476122 0.030448 -0.018887 39653.200000 0 0 1
-30.431427 -0.359743 1.910030 30.493432 0.011821 1.508118 0.033344 -0.024746 -273844.000000 0 0 1
-30.934397 -0.805943 0.515430 30.949187 0.026047 1.554141 0.039513 -0.021830 564844.000000 0 0 1
-32.276687 -0.367343 0.280830 32.279999 0.011381 1.562096 0.043125 -0.016310 755086.000000 0 0 1
-32.811897 -0.946843 -0.914670 32.838297 0.028849 1.598654 0.043121 -0.014690 -905304.000000 0 0 1
-34.302628 -0.757243 -1.034370 34.326574 0.022072 1.600934 0.053497 -0.015828 -843852.000000 0 0 1
-35.050992 -1.602243 -0.146070 35.087898 0.045680 1.574959 0.045337 -0.010828 119978.000000 0 0 1
34.645241 -1.281343 -0.008870 34.668930 -0.036968 1.571052 0.042817 -0.008235 -28415.600000 0 0 1
33.786411 -2.506243 0.493530 33.882834 -0.074043 1.556230 0.050120 -0.017644 21274.300000 0 0 1
34.033371 -2.911943 1.854930 34.208048 -0.085354 1.516545 0.042975 -0.016188 1023690.000000 0 0 1
33.209251 -4.097943 2.223930 33.534958 -0.122777 1.504431 0.041077 -0.011695 746759.000000 0 0 1
33.305351 -4.424543 3.719230 33.803191 -0.132074 1.460547 0.043004 -0.011984 85976.600000 0 0 1
32.799371 -3.426443 4.587030 33.295347 -0.104089 1.432589 0.052860 -0.016157 128304.000000 0 0 1
32.913161 -3.893643 5.941230 33.670980 -0.117753 1.393418 0.054033 -0.016718 -259891.000000 0 0 1
32.359311 -2.840443 6.891730 33.206763 -0.087554 1.361737 0.062926 -0.015473 -693652.000000 0 0 1
30.978021 -2.713943 6.885130 31.849777 -0.087386 1.352901 0.057297 -0.016495 -801144.000000 0 0 1
30.401401 -1.552143 7.371330 31.320774 -0.051011 1.333218 0.061801 -0.019263 1351950.000000 0 0 1
28.841061 -1.635443 7.673830 29.889282 -0.056645 1.311147 0.040984 -0.009782 1443130.000000 0 0 1
27.926951 -1.556443 6.597930 28.737951 -0.055675 1.339140 0.036521 -0.014481 186667.000000 0 0 1
26.564341 -1.614443 6.935930 27.502323 -0.060700 1.315849 0.042652 -0.003659 49259.900000 0 0 1
25.927171 -3.031643 6.981630 27.021329 -0.116401 1.309457 0.048433 -0.014025 -928601.000000 0 0 1
26.240521 -3.797443 8.123130 27.730323 -0.143719 1.273503 0.048738 -0.014432 502013.000000 0 0 1
25.763971 -5.120943 7.958730 27.447180 -0.196207 1.276606 0.048916 -0.021094 -337983.000000 0 0 1
26.019191 -6.089343 9.099330 28.228996 -0.229895 1.242596 0.051953 -0.016386 -183539.000000 0 0 1
25.394971 -5.688443 10.314230 27.993683 -0.220361 1.193457 0.059185 -0.004886 609297.000000 0 0 1
25.802371 -6.531643 11.382630 28.948040 -0.247933 1.166677 0.050563 -0.005448 -275690.000000 0 0 1
24.831671 -6.459143 12.562830 28.568464 -0.254478 1.115482 0.037569 -0.011567 -68407.000000 0 0 1
23.649471 -7.174943 12.316530 27.612936 -0.294561 1.108458 0.047264 -0.019341 -1324390.000000 0 0 1
22.582371 -6.730443 13.030230 26.926739 -0.289657 1.065674 0.051832 -0.023127 -391113.000000 0 0 1
21.488771 -7.848243 13.118630 26.371589 -0.350174 1.050136 0.053142 -0.031094 119614.000000 0 0 1
21.948771 -8.920643 13.874630 27.455998 -0.386037 1.041020 0.051859 -0.033340 20747.500000 0 0 1
21.059971 -10.006843 13.841530 27.115444 -0.443578 1.035069 0.083699 -0.049799 -192467.000000 0 0 1
21.495071 -11.088743 14.851130 28.382290 -0.476266 1.020132 0.069508 -0.036228 -238521.000000 0 0 1
21.443071 -10.703343 16.189230 28.921585 -0.462969 0.976697 0.069164 -0.034548 146872.000000 0 0 1
21.719571 -11.784743 17.055230 30.025004 -0.497134 0.966681 0.051462 -0.032462 -33258.600000 0 0 1
21.495371 -11.438343 18.534930 30.601149 -0.489020 0.920159 0.059577 -0.026751 -405850.000000 0 0 1
20.158071 -11.405543 18.935730 29.916486 -0.514897 0.885435 0.061682 -0.035124 -587221.000000 0 0 1
20.061171 -11.535843 20.344130 30.812496 -0.521859 0.849637 0.073072 -0.021038 186070.000000 0 0 1
20.641471 -10.358143 21.210830 31.356990 -0.465096 0.827891 0.063229 -0.022602 -253639.000000 0 0 1
19.889571 -9.174843 21.385030 30.611964 -0.432202 0.797380 0.063149 -0.020505 -87383.200000 0 0 1
20.113071 -8.209543 20.376330 29.784679 -0.387529 0.817398 0.061597 -0.021391 349263.000000 0 0 1
21.356171 -7.268543 20.648430 30.582274 -0.328051 0.829592 0.039448 -0.014778 2232290.000000 0 0 1
22.714771 -7.767043 20.661830 31.673318 -0.329475 0.860126 0.052663 -0.010436 1335720.000000 0 0 1
23.242471 -8.261543 19.436430 31.404465 -0.341522 0.903446 0.041642 -0.022013 -1025250.000000 0 0 1
24.517371 -9.061143 19.582530 32.660088 -0.354011 0.927813 0.021635 -0.020188 -674431.000000 0 0 1
24.362871 -10.288343 20.264930 33.317667 -0.399578 0.916963 0.020895 -0.024679 -143232.000000 0 0 1
25.584571 -10.958043 20.308830 34.454283 -0.404668 0.940427 0.018567 -0.023975 -202034.000000 0 0 1
25.243071 -12.462643 20.471030 34.807948 -0.458599 0.942072 0.006824 -0.023337 48055.700000 0 0 1
24.637871 -13.055943 19.359130 33.944930 -0.487291 0.963913 0.036202 -0.028340 44186.500000 0 0 1
24.427771 -14.429743 19.632230 34.501565 -0.533561 0.965477 0.034424 -0.013909 -246542.000000 0 0 1
23.327471 -15.017843 18.756130 33.488789 -0.571993 0.976324 0.055561 -0.017669 -348142.000000 0 0 1
23.796771 -15.062843 17.407230 33.108719 -0.564316 1.017188 0.039766 -0.015749 798408.000000 0 0 1
22.833071 -15.558643 16.456330 32.159467 -0.598139 1.033622 0.006243 -0.010860 99206.900000 0 0 1
22.453871 -17.095643 16.464530 32.672896 -0.650737 1.042665 -0.005727 -0.003945 -881192.000000 0 0 1
23.544871 -17.918543 16.233630 33.748569 -0.650528 1.068982 0.013108 -0.007776 -651794.000000 0 0 1
23.379571 -19.259443 16.531430 34.508241 -0.689069 1.071216 0.005825 -0.001228 -504987.000000 0 0 1
24.524171 -20.228243 16.204430 35.681934 -0.689698 1.099395 0.010395 0.001525 -213489.000000 0 0 1
24.816671 -20.242443 14.816330 35.286645 -0.684229 1.137478 0.004359 -0.012415 -113321.000000 0 0 1
25.437971 -21.415543 14.406730 36.239064 -0.699757 1.161954 0.012266 -0.025016 -365778.000000 0 0 1
25.896671 -21.428143 12.907930 36.005799 -0.691255 1.204140 0.013436 -0.037652 -40006.500000 0 0 1
24.850671 -21.365443 11.948930 34.882875 -0.710129 1.221173 -0.004300 -0.029846 341391.000000 0 0 1
25.398871 -21.349243 10.599630 34.831667 -0.698987 1.261582 0.007837 -0.028124 -451196.000000 0 0 1
24.394871 -21.423143 9.425830 33.806909 -0.720630 1.288238 -0.012399 -0.028710 -22362.800000 0 0 1
23.765371 -22.688443 9.243730 34.132168 -0.762220 1.296550 -0.010953 -0.030495 -432676.000000 0 0 1
22.584271 -22.924543 9.946530 33.682599 -0.792875 1.271025 -0.024799 -0.011744 -1079190.000000 0 0 1
21.765871 -23.934643 9.158530 33.622894 -0.832819 1.294921 -0.011860 -0.015739 -1125730.000000 0 0 1
22.221671 -25.255523 9.129230 34.856664 -0.849213 1.305798 -0.015021 -0.012980 -298560.000000 0 0 1
21.904471 -25.910803 7.873130 34.830472 -0.868991 1.342784 -0.005521 -0.002688 537360.000000 0 0 1
20.391971 -26.224363 7.591830 34.076174 -0.909866 1.346121 -0.009408 0.016858 1084520.000000 0 0 1
19.492271 -25.112013 7.423930 32.644703 -0.910729 1.341373 -0.011987 0.010688 303849.000000 0 0 1
18.154171 -25.599593 7.543130 32.277112 -0.953950 1.334916 -0.001437 -0.003002 580076.000000 0 0 1
17.129371 -24.433143 7.416730 30.747386 -0.959352 1.327179 -0.000922 -0.010799 -329355.000000 0 0 1
17.113871 -23.833843 6.143730 29.978027 -0.948059 1.364393 0.013408 -0.009183 -71021.200000 0 0 1
16.267371 -22.700243 6.145830 28.595448 -0.949005 1.354183 0.026416 -0.015696 -203277.000000 0 0 1
15.908571 -22.172143 4.783630 27.705048 -0.948420 1.397264 0.028257 -0.008426 -414633.000000 0 0 1
15.365771 -20.892243 4.923230 26.397556 -0.936655 1.383195 0.057573 -0.012061 -249414.000000 0 0 1
15.010271 -20.486143 3.634730 25.655440 -0.938457 1.428643 0.052594 -0.010955 -48357.300000 0 0 1
14.112271 -19.233143 3.747230 24.147707 -0.937778 1.414987 0.051032 -0.004429 -559620.000000 0 1 0
14.778371 -18.057443 4.065830 23.685491 -0.884931 1.398283 0.038570 -0.005249 -289383.000000 0 1 0
14.012371 -16.865243 4.155230 22.317010 -0.877529 1.383512 0.012223 0.000259 57974.500000 0 1 0
14.962671 -15.652643 4.288130 22.074303 -0.807931 1.375294 0.007461 -0.003630 -191051.000000 0 1 0
15.376771 -15.485843 5.615730 22.534260 -0.788932 1.318933 0.021084 -0.013161 562534.000000 0 1 0
16.450971 -14.531643 5.737730 22.687544 -0.723529 1.315118 0.034726 -0.017245 1728520.000000 0 1 0
17.909771 -15.145943 5.647430 24.125774 -0.701981 1.334521 0.038565 -0.024879 1266670.000000 0 1 0
18.967571 -14.183243 5.684730 24.356710 -0.642068 1.335229 0.057206 -0.023984 -359240.000000 0 1 0
20.190771 -14.763743 5.427730 25.594836 -0.631368 1.357110 0.063810 -0.020100 -672674.000000 0 0 1
21.373371 -13.775643 5.398130 25.994791 -0.572516 1.361612 0.057666 -0.025262 -108495.000000 0 0 1
21.629471 -12.999643 6.527330 26.065894 -0.541166 1.317686 0.073104 -0.035281 105345.000000 0 0 1
22.611771 -12.007543 6.362530 26.380961 -0.488163 1.327216 0.071125 -0.035308 -212248.000000 0 0 1
22.730871 -11.099443 7.537930 26.395275 -0.454242 1.281186 0.078424 -0.039220 -248.845000 0 0 1
23.420571 -11.791243 8.587730 27.591769 -0.466409 1.254296 0.073050 -0.020346 477692.000000 0 0 1
23.373371 -11.007743 9.793730 27.629732 -0.440141 1.208456 0.080949 -0.034102 71904.300000 0 0 1
23.899071 -11.790443 11.022230 28.838685 -0.458308 1.178617 0.058170 -0.026826 -125191.000000 0 0 1
22.932771 -12.744443 11.393030 28.603042 -0.507232 1.161117 0.069789 -0.034328 66646.700000 0 0 1
23.243671 -13.524943 12.462430 29.639577 -0.526987 1.136838 0.058704 -0.029679 -605752.000000 0 0 1
22.278971 -14.675743 12.723130 29.556861 -0.582485 1.125791 0.043140 -0.030894 -234130.000000 0 0 1
21.050171 -14.283443 13.287030 28.699680 -0.596180 1.089456 0.044724 -0.027259 58337.300000 0 0 1
20.201571 -15.446943 13.454530 28.770400 -0.652805 1.084164 0.017341 -0.017246 1472480.000000 0 0 1
18.700871 -15.030543 13.742330 27.649439 -0.677014 1.050635 0.027469 -0.012968 1020830.000000 0 0 1
18.598971 -14.542243 15.075830 28.012127 -0.663597 1.002509 0.026253 -0.022540 110805.000000 0 0 1
18.455971 -13.101643 15.189530 27.257986 -0.617330 0.979725 0.039003 -0.036754 -70342.600000 0 0 1
17.046771 -12.500743 15.446130 26.180984 -0.632740 0.939768 0.050250 -0.043372 656726.000000 0 0 1
16.130271 -12.759243 14.321130 25.061499 -0.669237 0.962537 0.055361 -0.047884 535793.000000 0 0 1
14.774171 -12.616743 14.652530 24.334235 -0.706796 0.924622 0.066379 -0.041258 -1419.210000 0 1 0
14.213571 -11.172343 14.496530 23.173180 -0.666167 0.894930 0.042478 -0.040485 -505210.000000 0 1 0
14.799271 -10.308743 15.390730 23.709981 -0.608421 0.864363 0.029791 -0.032089 -90693.400000 0 1 0
14.455671 -8.973843 15.113630 22.757815 -0.555562 0.844497 0.020758 -0.029364 -573325.000000 0 1 0
15.083071 -8.002043 16.145230 23.498941 -0.487773 0.813358 0.032360 -0.024338 1491240.000000 0 1 0
16.528771 -8.141943 15.997630 24.401142 -0.457704 0.855806 0.046470 -0.039010 1579220.000000 0 1 0
17.216971 -8.565043 17.183130 25.788448 -0.461627 0.841546 0.062234 -0.036053 -265348.000000 0 0 1
18.733971 -8.663743 16.996930 26.737946 -0.433169 0.881900 0.060036 -0.031290 -424335.000000 0 0 1
19.236671 -7.333843 17.123530 26.777791 -0.364233 0.876991 0.049414 -0.032462 774763.000000 0 0 1
20.604971 -7.332643 16.687130 27.509868 -0.341893 0.919036 0.047643 -0.024143 466054.000000 0 0 1
21.348871 -6.016743 16.785730 27.816115 -0.274704 0.922971 0.044473 -0.023179 -318241.000000 0 0 1
21.527871 -5.475943 18.074630 28.637868 -0.249083 0.887769 0.041595 -0.023004 129639.000000 0 0 1
22.176971 -4.256643 18.190330 28.996986 -0.189633 0.892692 0.037082 -0.021405 -324507.000000 0 0 1
-5.576337 -33.631297 -6.188753 34.647660 1.406483 1.750380 0.009958 -0.004237 -344013.000000 0 0 1
-6.249237 -32.383197 -6.471953 33.609680 1.380162 1.764569 0.006700 -0.005740 356533.000000 0 0 1
-5.689437 -31.332197 -5.680153 32.347185 1.391169 1.747311 0.003370 -0.005817 -578860.000000 0 0 1
-6.423237 -29.942997 -5.854353 31.178750 1.359483 1.759685 0.014104 -0.008976 1563990.000000 0 0 1
-7.770337 -29.921897 -5.315253 31.367977 1.316721 1.741066 0.016787 -0.011490 1422920.000000 0 0 1
-8.739437 -30.556297 -6.179853 32.376776 1.292222 1.762848 0.020400 -0.008242 -40710.400000 0 0 1
-10.198537 -30.174597 -5.818353 32.378537 1.244866 1.751476 0.034360 -0.004356 474862.000000 0 0 1
-11.159237 -30.705997 -6.715153 33.353862 1.222215 1.773512 0.025431 -0.008292 732341.000000 0 0 1
-12.490437 -30.240997 -6.397353 33.338492 1.179108 1.763885 0.024517 -0.005269 561679.000000 0 0 1
-13.526337 -30.642797 -7.412853 34.305877 1.155101 1.788595 0.032429 -0.012410 -504278.000000 0 0 1
-13.551237 -29.810897 -8.560253 33.846765 1.144146 1.826485 0.041052 -0.019763 188884.000000 0 0 1
-14.592437 -30.111097 -9.474753 34.776261 1.119528 1.846734 0.056695 -0.019438 -52420.600000 0 0 1
-14.544037 -29.212297 -10.734053 34.352688 1.108851 1.888584 0.064995 -0.023998 -208951.000000 0 0 1
-15.114337 -27.908797 -10.666853 33.483218 1.074455 1.895020 0.064088 -0.026641 262209.000000 0 0 1
-14.219437 -27.046097 -10.010953 32.154361 1.086763 1.887400 0.051294 -0.015837 70867.200000 0 0 1
-14.879937 -25.704497 -9.682253 31.239073 1.046048 1.885927 0.054181 -0.004030 -218900.000000 0 0 1
-15.135937 -24.971097 -10.826253 31.142576 1.025876 1.925844 0.047676 -0.020740 152879.000000 0 0 1
-15.588537 -23.663297 -10.480653 30.212550 0.988284 1.925057 0.030843 -0.003468 -417395.000000 0 0 1
-16.248637 -22.912597 -11.629753 30.401587 0.953951 1.963338 0.045913 0.002277 -1362080.000000 0 0 1
-17.547237 -23.316097 -11.778653 31.468756 0.925646 1.954435 0.052172 -0.004623 -1518680.000000 0 0 1
-18.047637 -22.859197 -12.992053 31.891277 0.902483 1.990386 0.046885 -0.016198 -272976.000000 0 0 1
-19.391037 -23.487197 -13.408853 33.278493 0.880639 1.985511 0.044506 -0.002957 -324311.000000 0 0 1
-19.396837 -24.881597 -13.778153 34.426279 0.908640 1.982555 0.062140 -0.008471 -75078.300000 0 0 1
-19.041437 -25.753597 -12.727253 34.464577 0.934133 1.949036 0.064739 -0.009243 -749003.000000 0 0 1
-19.003637 -27.228797 -13.141753 35.710661 0.961465 1.947660 0.072055 -0.011767 549321.000000 0 0 1
-18.193237 -27.651297 -14.302153 36.057450 0.988851 1.978660 0.077455 -0.018520 2061950.000000 0 0 1
-16.764837 -27.469997 -14.064953 35.120982 1.022840 1.982828 0.070685 -0.023781 881571.000000 0 0 1
-15.945637 -28.740797 -14.227253 35.814962 1.064269 1.979307 0.068603 -0.020440 -421963.000000 0 0 1
-16.029137 -29.223897 -15.569853 36.788445 1.069110 2.007800 0.063881 -0.021255 21447.600000 0 0 1
-15.283937 -30.382697 -15.962853 37.570197 1.104714 2.009626 0.063924 -0.017458 163051.000000 0 0 1
-15.899537 -31.766097 -15.521553 38.765949 1.106734 1.982740 0.072100 -0.021172 -104241.000000 0 0 1
-16.088937 -32.070797 -14.127953 38.561496 1.105814 1.945906 0.073987 -0.019848 10348.000000 0 0 1
-16.398537 -33.437397 -14.000453 39.786734 1.114838 1.930383 0.064675 -0.016327 -1026000.000000 0 0 1
-17.114037 -33.669097 -12.619953 39.821622 1.100530 1.893268 0.065254 -0.019493 1787180.000000 0 0 1
-18.537437 -33.313697 -12.544253 40.134739 1.063014 1.888676 0.069634 -0.013089 1904180.000000 0 0 1
-18.936737 -31.951597 -12.643253 39.234633 1.035784 1.898899 0.078246 -0.019124 -307988.000000 0 0 1
-18.230437 -30.954697 -11.644753 37.764300 1.038549 1.884258 0.077304 -0.022058 -149491.000000 0 0 1
-18.603237 -31.156497 -10.326253 37.728494 1.032519 1.848033 0.058850 -0.020252 39933.600000 0 0 1
-18.293037 -30.071997 -9.488153 36.455250 1.024290 1.834097 0.061233 -0.017929 -233776.000000 0 0 1
-18.630337 -30.417997 -8.004353 36.556992 1.021253 1.791540 0.042298 -0.012880 -72115.500000 0 0 1
-17.706137 -31.300997 -7.418353 36.719091 1.056000 1.774226 0.046921 -0.013341 48789.500000 0 0 1
-18.024837 -31.429097 -6.015453 36.726946 1.050084 1.735326 0.047283 -0.020139 -327265.000000 0 0 1
-17.246937 -32.436297 -5.190353 37.101347 1.082098 1.711153 0.044806 -0.017425 -532026.000000 0 0 1
-16.026237 -31.941597 -4.720153 36.046993 1.105761 1.702118 0.030365 -0.019455 -179338.000000 0 0 1
-15.975137 -32.307197 -3.323353 36.193986 1.111578 1.662746 0.024513 -0.013476 -57535.000000 0 0 1
-14.827137 -31.640297 -2.535553 35.034004 1.132570 1.643234 0.021053 -0.009493 723351.000000 0 0 1
-13.538537 -32.186597 -2.877553 35.036400 1.172636 1.653019 0.021657 -0.005998 45436.700000 0 0 1
-12.553237 -31.422197 -2.256853 33.912116 1.190719 1.637396 0.021296 -0.001054 -481024.000000 0 0 1
-11.167937 -32.066197 -2.238753 34.029044 1.235657 1.636633 0.022205 -0.002878 -590804.000000 0 0 1
-11.168537 -33.240297 -1.413753 35.094903 1.246653 1.611091 0.021881 0.001364 573991.000000 0 0 1
-9.862037 -33.827997 -1.290653 35.259877 1.287124 1.607409 0.049306 -0.002675 1541270.000000 0 0 1
-8.792837 -33.091397 -0.355853 34.241512 1.311084 1.581189 0.055423 -0.006024 377625.000000 0 0 1
-9.027337 -33.176797 0.994347 34.397404 1.305130 1.541885 0.059628 -0.004176 -567297.000000 0 0 1
-8.083237 -32.544197 1.811747 33.581928 1.327346 1.516820 0.049678 -0.003280 -92036.800000 0 0 1
-7.231137 -33.571197 2.596647 34.439181 1.358641 1.495327 0.054333 -0.017021 -319085.000000 0 0 1
-7.966037 -34.325197 3.527847 35.413593 1.342758 1.471012 0.058881 -0.023013 109428.000000 0 0 1
-7.218137 33.578157 4.165947 34.596954 -1.359053 1.450090 0.064898 -0.015977 656282.000000 0 0 1
-6.120637 33.962157 5.232447 34.903707 -1.392491 1.420318 0.068692 -0.017166 655556.000000 0 0 1
-4.888037 34.378157 4.698747 35.040388 -1.429559 1.436296 0.061961 -0.023100 -296425.000000 0 0 1
-4.028537 -34.082597 5.697547 34.789575 1.453143 1.406284 0.037973 -0.024304 775704.000000 0 0 1
-2.816037 -33.232097 5.151847 33.746760 1.486260 1.417535 0.054085 -0.020987 619672.000000 0 0 1
-3.207237 -31.974297 4.558447 32.456455 1.470824 1.429882 0.039166 -0.013446 196644.000000 0 0 1
-3.571337 -32.042797 3.180747 32.397722 1.459799 1.472460 0.035569 -0.010517 -288425.000000 0 0 1
-4.009637 -30.620697 2.741447 31.003545 1.440592 1.482257 0.021354 -0.012946 -39063.500000 0 0 1
-3.063937 -29.579797 2.807647 29.870302 1.467582 1.476663 0.008562 -0.005987 -216291.000000 0 0 1
-3.555737 -28.522997 2.016447 28.814418 1.446774 1.500759 0.009395 -0.006012 582091.000000 0 0 1
-2.854537 -27.167297 2.391847 27.421366 1.466108 1.483460 0.001723 -0.003098 134492.000000 0 0 1
-3.256637 -26.045797 1.650947 26.300472 1.446407 1.507983 0.006968 -0.004184 -366206.000000 0 0 1
-3.054437 -24.763397 2.222147 25.049817 1.448071 1.481970 -0.000080 0.000583 -63607.000000 0 0 1
-4.006337 -24.326897 3.371547 24.884050 1.407574 1.434888 -0.012074 0.004575 78111.200000 0 1 0
-3.767637 -25.056897 4.546747 25.743272 1.421551 1.393246 -0.012396 0.002835 -330652.000000 0 0 1
-4.683837 -24.556497 5.452847 25.586977 1.382323 1.356039 -0.014919 0.005404 -161924.000000 0 0 1
-5.398437 -25.591697 6.374247 26.920421 1.362899 1.331745 0.004609 0.000533 194204.000000 0 0 1
-4.570937 -26.140997 7.411347 27.553098 1.397689 1.298458 -0.008053 -0.001595 343343.000000 0 0 1
-5.399237 -26.971397 8.190647 28.700082 1.373224 1.281386 0.004637 -0.001882 389809.000000 0 0 1
-4.576237 -27.440997 9.422547 29.372345 1.405551 1.244226 -0.006035 -0.000178 555689.000000 0 0 1
-4.143137 -26.481697 10.385747 28.745601 1.415602 1.201136 -0.008340 -0.002172 -215441.000000 0 0 1
-5.205637 -25.999297 11.145347 28.762490 1.373187 1.172883 -0.003471 -0.003370 -193753.000000 0 0 1
-4.734137 -24.988697 12.185347 28.201590 1.383564 1.123998 -0.013936 0.001123 503547.000000 0 0 1
-3.909537 -25.556097 13.225147 29.039681 1.418995 1.097956 -0.013637 0.000835 132560.000000 0 0 1
-3.442037 -24.519397 14.096247 28.491272 1.431328 1.053242 -0.004537 -0.002726 -32867.400000 0 0 1
-2.379937 -24.993397 15.122047 29.308877 1.475860 1.028675 0.002275 -0.005463 555754.000000 0 0 1
-2.965237 -25.556097 16.281147 30.446386 1.455284 1.006587 -0.005790 -0.005763 -386099.000000 0 0 1
-1.908437 -26.146197 16.940347 31.212835 1.497935 0.997104 -0.018104 -0.009860 -273396.000000 0 0 1
-2.306037 -26.808297 18.275347 32.526772 1.484988 0.974169 -0.003836 -0.008817 113.149000 0 0 1
-2.618937 -25.807497 19.178047 32.259622 1.469663 0.934164 0.001012 -0.005636 -141298.000000 0 0 1
-2.487737 -26.300997 20.484547 33.429746 1.476490 0.911243 0.010218 -0.010983 -38863.500000 0 0 1
-2.752337 -25.127097 21.437647 33.143914 1.461695 0.867409 0.019802 -0.015626 -140216.000000 0 0 1
-2.340637 -25.393297 22.770847 34.187857 1.478881 0.841895 -0.000959 -0.019104 30444.400000 0 0 1
-2.447937 -24.310897 23.696847 34.037518 1.470442 0.800709 -0.000652 -0.015841 614301.000000 0 0 1
-1.375537 -23.195697 23.407947 32.982790 1.511564 0.781721 -0.003551 -0.013515 139231.000000 0 0 1
-1.946937 -22.230297 22.622347 31.776520 1.483439 0.778568 0.014657 -0.011424 -373521.000000 0 0 1
-0.963637 -21.359697 22.103147 30.752469 1.525712 0.768802 0.016037 -0.011909 -301331.000000 0 0 1
-1.571337 -20.095397 21.326147 29.344482 1.492761 0.757215 0.011615 0.005075 -88619.700000 0 0 1
-2.171737 -19.025097 22.106247 29.246485 1.457137 0.713830 0.016976 -0.012810 154561.000000 0 0 1
-3.449337 -19.311697 22.638847 29.955917 1.394046 0.714015 0.034111 -0.017173 79939.700000 0 0 1
-4.682737 -19.116197 21.705247 29.299740 1.330565 0.736536 0.030792 -0.012624 -118945.000000 0 0 1
-4.877537 -19.846597 20.502547 28.948786 1.329810 0.783801 0.032182 -0.013477 -375494.000000 0 0 1
-5.164337 -21.234797 20.651247 30.067606 1.332226 0.813682 0.018761 -0.010499 -13357.100000 0 0 1
-5.403437 -21.934797 19.256847 29.684315 1.329264 0.864893 0.007947 -0.012600 -233272.000000 0 0 1
-5.875937 -23.281997 19.382047 30.858414 1.323578 0.891692 0.010380 -0.012161 -197051.000000 0 0 1
-5.578637 -23.980597 18.150747 30.588230 1.342230 0.935532 0.016844 -0.011359 186142.000000 0 0 1
-6.177237 -25.417497 17.989347 31.746244 1.332387 0.968349 0.016967 -0.015910 349629.000000 0 0 1
-7.576137 -25.479897 18.155947 32.191014 1.281784 0.971566 0.031407 -0.017176 -541689.000000 0 0 1
-8.073037 -26.686597 17.623947 32.984115 1.277036 1.007098 0.045799 -0.019856 933877.000000 0 0 1
-9.626737 -26.869497 17.733947 33.602631 1.226766 1.014841 0.043700 -0.020342 56015.500000 0 0 1
-10.402937 -26.199697 16.778747 32.805054 1.192824 1.033904 0.058121 -0.021312 -249353.000000 0 0 1
-11.792437 -26.266597 16.980047 33.426302 1.148814 1.037953 0.055946 -0.022281 103127.000000 0 0 1
-12.274437 -25.331397 18.129847 33.481828 1.119581 0.998596 0.049301 -0.026003 -1063790.000000 0 0 1
-12.379637 -24.025097 17.687347 32.300200 1.095000 0.991312 0.035681 -0.020723 22548.200000 0 0 1
-12.727737 -23.103897 18.715347 32.342689 1.067269 0.953714 0.031071 -0.012369 -186950.000000 0 0 1
-11.507437 -22.448697 19.400947 31.823919 1.097111 0.915197 0.020083 -0.015943 -6338.990000 0 0 1
-10.762037 -23.416697 20.066447 32.662293 1.139998 0.909220 0.029942 -0.018361 -690258.000000 0 0 1
-9.409537 -23.079597 20.145047 32.047310 1.183670 0.891040 0.040671 -0.025416 -358167.000000 0 0 1
-8.522137 -23.967097 21.012947 32.993825 1.229162 0.880358 0.033348 -0.023081 -93316.900000 0 0 1
-8.737137 -23.867497 22.390947 33.872547 1.219879 0.848599 0.026309 -0.019920 54009.800000 0 0 1
-7.698337 -24.587797 23.003447 34.539582 1.267369 0.841959 0.027224 -0.015018 7063.350000 0 0 1
-7.545737 -24.273997 24.530347 35.325670 1.269409 0.803203 0.028175 -0.017261 -830614.000000 0 0 1
-6.566637 -24.904197 25.254047 36.070855 1.312988 0.795226 0.028818 -0.016547 -784652.000000 0 0 1
-6.495037 -24.453697 26.587847 36.702621 1.311185 0.760614 0.031509 -0.013652 -234270.000000 0 0 1
-5.305237 -24.902097 27.458847 37.446605 1.360891 0.747663 0.027237 -0.013255 -213064.000000 0 0 1
-4.051137 -24.504697 26.984347 36.674880 1.406957 0.743991 0.028816 -0.007578 -775240.000000 0 0 1
-3.000737 -24.688997 27.882047 37.362541 1.449848 0.728376 0.016264 -0.005033 -21301.700000 0 0 1
-1.720637 -24.010497 27.333947 36.422647 1.499257 0.722030 0.002527 -0.003602 -666707.000000 0 0 1
-1.767537 -22.618497 27.235547 35.447081 1.492809 0.694547 0.007926 -0.004184 -830595.000000 0 0 1
-0.616337 -21.898397 26.920047 34.707471 1.542658 0.683089 0.007755 -0.008699 -595049.000000 0 0 1
0.191263 -21.552497 28.159947 35.461659 -1.561922 0.653278 0.013485 -0.004712 -451559.000000 0 0 1
0.748863 -22.748797 28.700347 36.630294 -1.537889 0.670495 0.015458 -0.005821 -294726.000000 0 0 1
1.586463 -22.548297 29.801747 37.404367 -1.500554 0.648906 0.004359 -0.010239 -550387.000000 0 0 1
2.156363 -23.897497 30.207247 38.577429 -1.480806 0.671275 0.015989 -0.019114 -357415.000000 0 0 1
3.170563 -24.384197 29.322147 38.267869 -1.441496 0.697837 0.009483 -0.024228 528710.000000 0 0 1
3.866363 -25.537297 29.844047 39.468588 -1.420537 0.713392 0.004496 -0.009954 -355732.000000 0 0 1
5.170563 -25.087897 30.540147 39.860229 -1.367544 0.697919 -0.007645 -0.007585 -431660.000000 0 0 1
6.220063 -24.646897 29.711847 39.101823 -1.323591 0.707701 0.014538 -0.016343 -86334.800000 0 0 1
6.957863 -25.658497 29.054447 39.381863 -1.305993 0.741047 0.015627 -0.012876 -623314.000000 0 0 1
8.145863 -25.144997 28.240847 38.680374 -1.257509 0.752316 0.020311 -0.017508 -353627.000000 0 0 1
7.704563 -24.364997 27.181347 37.307358 -1.264531 0.754552 0.033246 -0.018231 -120976.000000 0 0 1
8.748963 -23.946897 26.334047 36.653516 -1.220514 0.769212 0.023242 -0.012337 -162212.000000 0 0 1
8.429163 -22.693997 25.470247 35.139746 -1.215162 0.760013 0.038211 -0.009647 -12829.700000 0 0 1
7.582063 -23.020897 24.389747 34.384722 -1.252630 0.782264 0.030918 -0.004009 -178516.000000 0 0 1
7.233263 -21.875397 23.746047 33.086671 -1.251456 0.770314 0.035265 0.004246 -29310.000000 0 0 1
6.390363 -22.298697 22.534047 32.339633 -1.291696 0.799879 0.025640 0.003473 240233.000000 0 0 1
7.257263 -22.852897 21.532147 32.226636 -1.263304 0.839080 0.022256 0.007830 997653.000000 0 0 1
6.632163 -22.864397 20.197747 31.220429 -1.288479 0.867232 0.022175 0.007210 471828.000000 0 0 1
7.359463 -23.976997 19.411947 31.715639 -1.272986 0.912131 0.046333 -0.015913 448219.000000 0 0 1
8.577063 -23.545397 18.840847 31.351702 -1.221459 0.926106 0.071414 -0.016473 -333435.000000 0 0 1
9.218263 -24.564997 18.107147 31.879212 -1.211798 0.966732 0.060605 -0.015461 986188.000000 0 0 1
10.653563 -24.175897 17.577247 31.732191 -1.155729 0.983725 0.077072 -0.011686 798193.000000 0 0 1
10.597463 -23.081797 16.672147 30.381508 -1.140379 0.989916 0.098061 -0.004650 -22055.000000 0 0 1
11.844163 -22.952197 15.999447 30.382064 -1.094402 1.016190 0.077881 -0.010094 473207.000000 0 0 1
-12.193237 22.312657 11.841447 28.049056 -1.070666 1.134959 0.002022 -0.011166 -206490.000000 0 0 1
-13.227137 21.471157 11.382147 27.668050 -1.018665 1.146826 -0.005481 -0.013915 285795.000000 0 0 1
-12.649537 20.238357 10.954547 26.260312 -1.012177 1.140487 0.007783 -0.016544 -251317.000000 0 0 1
-13.508937 19.614157 9.861047 25.776865 -0.967671 1.178237 0.013970 -0.013301 -534974.000000 0 0 1
-13.553237 20.374757 8.687847 25.967280 -0.983812 1.229648 0.015227 -0.022775 -126515.000000 0 0 1
-14.246537 19.848657 7.580047 25.581050 -0.948251 1.269964 0.017992 -0.022987 -671123.000000 0 0 1
-15.766037 19.860157 7.591647 26.469357 -0.899815 1.279902 0.017437 -0.020883 -802497.000000 0 0 1
-16.342337 19.110457 8.642147 26.588874 -0.863319 1.239754 0.008011 -0.020010 -1158260.000000 0 0 1
-17.713637 19.197257 8.620647 27.506784 -0.825571 1.252024 0.016060 -0.016404 -1011010.000000 0 0 1
-18.499337 18.195657 9.539347 27.646094 -0.777123 1.218502 0.012672 -0.017860 5429.390000 0 0 1
-18.386937 16.935057 8.895247 26.533018 -0.744317 1.228924 0.012923 -0.023216 192028.000000 0 0 1
-18.919137 15.898957 9.695347 26.546381 -0.698873 1.196924 0.019186 -0.025963 -713274.000000 0 0 1
-18.020937 15.190457 10.755747 25.907340 -0.700377 1.142675 0.023055 -0.020119 -290665.000000 0 0 1
-17.078537 14.375857 10.127547 24.513443 -0.699685 1.144894 0.013748 -0.005819 110357.000000 0 1 0
-16.337437 13.440857 10.952747 23.822912 -0.688432 1.093075 0.002668 -0.006240 42933.000000 0 1 0
-17.132037 12.444157 11.768447 24.225195 -0.628204 1.063525 0.012918 -0.001509 -402197.000000 0 1 0
-17.871737 11.504557 10.983947 23.924901 -0.571954 1.093813 0.002811 -0.000803 -230472.000000 0 1 0
-18.844337 10.891657 11.765247 24.741832 -0.524071 1.075241 0.017455 -0.001726 -562125.000000 0 1 0
-19.937437 10.227657 10.913547 24.924122 -0.473984 1.117567 0.028375 0.000512 -481586.000000 0 1 0
-19.570637 9.053257 10.135547 23.826469 -0.433277 1.131403 0.027385 -0.003304 285010.000000 0 1 0
-18.887237 9.346857 8.938047 22.890613 -0.459541 1.169657 0.026958 0.004191 -40273.800000 0 1 0
-19.808537 9.530157 7.668847 23.281178 -0.448425 1.235127 0.034712 -0.000912 298966.000000 0 1 0
-20.258137 8.273957 7.170547 23.027532 -0.387749 1.254141 0.014784 -0.000153 656919.000000 0 1 0
-21.070337 8.409857 6.019747 23.471731 -0.379758 1.311430 0.022252 0.002808 33339.600000 0 1 0
-21.420637 7.071657 5.256147 23.162019 -0.318867 1.341872 0.041130 0.002288 297522.000000 0 1 0
-22.378237 6.320757 6.021347 24.020701 -0.275280 1.317421 0.058015 -0.005309 688261.000000 0 1 0
-22.266737 4.950557 5.765847 23.527868 -0.218771 1.323210 0.069228 -0.016163 -254666.000000 0 1 0
-23.489537 4.094157 6.161547 24.626919 -0.172564 1.317914 0.111101 -0.014129 -254595.000000 0 1 0
-24.630837 4.304357 5.370747 25.574412 -0.173008 1.359217 0.112026 -0.020370 236128.000000 0 0 1
-25.305417 3.043657 5.185247 26.009898 -0.119702 1.370095 0.089324 -0.028222 -328717.000000 0 0 1
-26.310347 3.159457 4.042047 26.805870 -0.119512 1.419429 0.071160 -0.028455 -438609.000000 0 0 1
-25.778417 2.814757 2.799847 26.082347 -0.108760 1.463243 0.063465 -0.027215 -105350.000000 0 0 1
-26.752637 2.751757 1.803947 26.954220 -0.102499 1.503820 0.051837 -0.020861 -360796.000000 0 0 1
-26.216537 2.766057 0.316647 26.363956 -0.105119 1.558785 0.058999 -0.020491 183663.000000 0 0 1
-25.499437 3.982757 -0.051253 25.808648 -0.154938 1.572782 0.059364 -0.026136 791306.000000 0 0 1
-25.300647 4.268057 -1.416953 25.697214 -0.167120 1.625965 0.064036 -0.017726 -181389.000000 0 0 1
-26.566917 4.798857 -2.148653 27.082224 -0.178706 1.650218 0.059590 -0.025255 18785.600000 0 0 1
-27.573307 3.848557 -2.229353 27.929710 -0.138680 1.650701 0.053007 -0.025638 -245309.000000 0 0 1
-28.878717 4.393357 -2.204653 29.294068 -0.150974 1.646127 0.046253 -0.013576 57299.800000 0 0 1
-29.985287 3.331157 -2.261653 30.254407 -0.110639 1.645621 0.047287 -0.014214 -365603.000000 0 0 1
-30.082197 2.743657 -3.507453 30.410006 -0.090954 1.686392 0.048593 -0.013958 9686.730000 0 0 1
-31.010027 1.706057 -3.544753 31.258562 -0.054961 1.684442 0.056253 -0.016669 -252828.000000 0 0 1
-31.205627 1.233057 -4.999753 31.627664 -0.039493 1.729544 0.050771 -0.017849 -198604.000000 0 0 1
-29.968487 0.781057 -5.511953 30.481173 -0.026057 1.752628 0.061512 -0.020782 497880.000000 0 0 1
-30.105457 -0.000843 -6.677453 30.837103 0.000028 1.789065 0.062277 -0.020169 -267019.000000 0 0 1
-30.539297 0.619557 -8.014553 31.579512 -0.020284 1.827393 0.051200 -0.016581 -562749.000000 0 0 1
-31.898787 0.941857 -8.045753 32.911303 -0.029518 1.817767 0.043262 -0.018397 -174611.000000 0 0 1
-32.301017 1.737957 -9.142153 33.614806 -0.053753 1.846234 0.045869 -0.018225 -638973.000000 0 0 1
-33.788317 2.052457 -9.055953 35.041023 -0.060670 1.832202 0.054719 -0.017192 -705289.000000 0 0 1
-34.128801 2.866857 -7.968353 35.163740 -0.083804 1.799389 0.053786 -0.007786 197349.000000 0 0 1
-35.485704 2.611157 -7.665653 36.398016 -0.073451 1.782992 0.054790 -0.000871 -220161.000000 0 0 1
34.937831 3.603757 -6.742253 35.764467 0.102784 1.760449 0.063812 -0.006790 -273235.000000 0 0 1
33.541191 3.451557 -6.590553 34.356370 0.102544 1.763822 0.056135 -0.011688 295003.000000 0 0 1
33.138961 4.186857 -5.425453 33.840155 0.125677 1.731817 0.051549 -0.015265 -692181.000000 0 0 1
31.882281 3.611957 -4.826753 32.447244 0.112809 1.720107 0.045338 -0.014563 -627587.000000 0 0 1
32.084091 2.449557 -4.058953 32.432458 0.076200 1.696276 0.050337 -0.020572 21578.800000 0 0 1
30.876941 1.711557 -4.077153 31.191956 0.055375 1.701883 0.054835 -0.022091 100173.000000 0 0 1
30.904981 0.375457 -3.330853 31.086226 0.012148 1.678151 0.076257 -0.026088 -527288.000000 0 0 1
31.911231 -0.442543 -3.849953 32.145679 -0.013867 1.690850 0.057331 -0.023123 -5724.190000 0 0 1
31.672891 -1.780843 -3.411953 31.905875 -0.056167 1.677939 0.065561 -0.022630 531923.000000 0 0 1
33.003281 -2.570543 -3.573653 33.295574 -0.077731 1.678335 0.047984 -0.014389 443242.000000 0 0 1
32.809091 -3.937043 -3.335353 33.212368 -0.119427 1.671391 0.043209 -0.023962 553014.000000 0 0 1
34.066391 -4.618243 -3.267653 34.532952 -0.134745 1.665562 0.057869 -0.024013 179679.000000 0 0 1
33.909181 -6.068643 -2.845053 34.565233 -0.177093 1.653199 0.055226 -0.019984 -179330.000000 0 0 1
33.456701 -6.127643 -1.533453 34.047766 -0.181144 1.615850 0.053828 -0.020756 -100382.000000 0 0 1
33.874281 -7.329243 -0.993953 34.672362 -0.213081 1.599467 0.057128 -0.022301 -191969.000000 0 0 1
33.342501 -7.598843 0.423347 34.200059 -0.224075 1.558417 0.044966 -0.016552 -1520080.000000 0 0 1
31.985491 -7.681243 0.456747 32.898051 -0.235685 1.556912 0.042683 -0.014810 -1480670.000000 0 0 1
31.427501 -7.942143 1.757047 32.463098 -0.247531 1.516645 0.042772 -0.025203 -820564.000000 0 0 1
31.218101 -9.389943 2.262347 32.678114 -0.292177 1.501510 0.052848 -0.024708 -112118.000000 0 0 1
30.079811 -10.097143 1.778347 31.779079 -0.323860 1.514807 0.051669 -0.032489 124002.000000 0 0 1
28.883751 -9.580343 2.339347 30.520921 -0.320267 1.494074 0.043018 -0.038336 -844279.000000 0 0 1
27.729421 -10.619843 2.083947 29.766503 -0.365749 1.500729 0.046113 -0.032894 -1537810.000000 0 0 1
26.499111 -10.413543 2.652047 28.595072 -0.374438 1.477918 0.062769 -0.032866 -479270.000000 0 0 1
25.667871 -9.417443 2.053547 27.417967 -0.351647 1.495828 0.066838 -0.030078 -449764.000000 0 0 1
25.131671 -9.783243 0.632847 26.976161 -0.371231 1.547335 0.056793 -0.024621 -724976.000000 0 0 1
26.097921 -9.733943 -0.441653 27.857606 -0.356997 1.586651 0.047110 -0.030257 930240.000000 0 0 1
25.487271 -9.714543 -1.752953 27.332146 -0.364154 1.634976 0.032034 -0.020743 192715.000000 0 0 1
24.774871 -11.045543 -2.243153 27.218193 -0.419386 1.653304 0.024758 -0.011736 41843.400000 0 0 1
23.514871 -11.293743 -1.635253 26.137557 -0.447748 1.633401 0.045919 -0.004352 196128.000000 0 0 1
23.241871 -12.672043 -1.872953 26.538147 -0.499170 1.641431 0.043351 0.002775 -153955.000000 0 0 1
21.814971 -13.126343 -1.516953 25.504804 -0.541678 1.630309 0.055111 0.003149 78275.600000 0 0 1
20.784671 -12.566043 -2.305253 24.397176 -0.543782 1.665426 0.045590 0.002882 -359054.000000 0 1 0
19.523171 -12.989943 -1.919853 23.528253 -0.587098 1.652485 0.050553 0.003473 -361397.000000 0 1 0
18.408971 -12.486043 -2.888053 22.430612 -0.595985 1.699910 0.044530 0.003953 145230.000000 0 1 0
18.456971 -13.139143 -4.140853 23.031360 -0.618655 1.751571 0.039319 -0.006247 291633.000000 0 1 0
17.577571 -12.545143 -5.063753 22.180921 -0.619863 1.801121 0.041452 -0.009084 -225003.000000 0 1 0
17.656171 -13.119143 -6.476153 22.930174 -0.639028 1.857122 0.033477 -0.011447 -592803.000000 0 1 0
16.963671 -14.300443 -6.605653 23.149589 -0.700418 1.860164 0.041476 -0.013431 24615.900000 0 1 0
16.983971 -14.659543 -7.961953 23.806516 -0.712073 1.911812 0.041405 -0.020108 -805377.000000 0 1 0
15.929371 -15.675143 -8.368353 23.863871 -0.777354 1.929083 0.030762 -0.024962 -663339.000000 0 1 0
14.654271 -15.028843 -8.314053 22.577362 -0.798017 1.947919 0.034098 -0.022849 322145.000000 0 1 0
13.638071 -15.805643 -8.901853 22.694897 -0.858883 1.973862 0.027854 -0.026294 -566009.000000 0 1 0
13.622571 -15.957343 -10.478453 23.452276 -0.864166 2.033980 0.025791 -0.031337 -1057360.000000 0 1 0
13.079171 -14.853643 -11.240753 22.760711 -0.848839 2.087327 0.024388 -0.025831 342239.000000 0 1 0
13.543671 -13.537943 -10.918853 22.043782 -0.785187 2.089006 0.029233 -0.017560 -177499.000000 0 1 0
13.406671 -12.583543 -12.081953 22.001318 -0.753738 2.152139 0.040676 -0.016625 260463.000000 0 1 0
14.492571 -12.742843 -12.996653 23.266450 -0.721242 2.163494 0.028921 -0.015509 569034.000000 0 1 0
14.147371 -12.280143 -14.295053 23.564774 -0.714861 2.222609 0.039331 -0.009351 -497774.000000 0 1 0
15.408271 -12.023443 -15.132253 24.717668 -0.662628 2.229641 0.030240 -0.014103 419376.000000 0 1 0
16.119771 -13.271743 -15.389753 25.938981 -0.688800 2.205956 0.020533 -0.016380 769535.000000 0 0 1
17.214871 -13.175943 -16.316453 27.132710 -0.653273 2.215995 0.022703 -0.008587 -168107.000000 0 0 1
18.249171 -14.252743 -16.069753 28.185279 -0.663053 2.177481 0.022545 -0.014777 -934804.000000 0 0 1
19.133971 -13.844343 -15.041353 28.000304 -0.626356 2.137893 0.023627 -0.021515 -456363.000000 0 0 1
19.912371 -14.960343 -14.747853 28.945010 -0.644338 2.105415 0.015232 -0.012833 -521674.000000 0 0 1
21.043571 -14.618943 -13.748253 29.078512 -0.607159 2.063259 0.015378 -0.021288 230760.000000 0 0 1
21.949671 -13.592243 -14.147353 29.439510 -0.554451 2.072086 0.024011 -0.014554 336958.000000 0 0 1
22.983371 -13.347943 -13.217853 29.683575 -0.526156 2.032296 0.009557 -0.012442 -157975.000000 0 0 1
23.590371 -11.952043 -13.427953 29.659179 -0.468953 2.040634 0.013840 -0.013215 -251488.000000 0 0 1
22.757671 -10.787243 -13.139953 28.406594 -0.442636 2.051685 0.019779 -0.011495 659397.000000 0 0 1
23.429471 -9.509843 -13.178753 28.514151 -0.385576 2.051252 0.029165 -0.012418 -166971.000000 0 0 1
24.351371 -9.211243 -11.992253 28.664446 -0.361629 2.002443 0.031001 -0.010503 -302875.000000 0 0 1
25.554571 -9.927743 -12.115353 29.972954 -0.370546 1.986911 0.012398 -0.003892 -87852.700000 0 0 1
26.499791 -9.496243 -11.129853 30.270303 -0.344096 1.947312 0.005769 0.002481 330048.000000 0 0 1
27.898041 -10.117843 -11.407853 31.793248 -0.347919 1.937793 -0.013113 0.008869 264959.000000 0 0 1
28.518391 -9.663743 -12.591153 32.637765 -0.326716 1.966855 -0.012965 0.004339 -657619.000000 0 0 1
29.691191 -10.315043 -12.904953 33.978005 -0.334366 1.960380 -0.014525 0.006167 -603005.000000 0 0 1
30.307261 -9.711443 -14.233053 34.862903 -0.310096 1.991341 -0.007821 0.010380 -224379.000000 0 0 1
29.621221 -10.116943 -15.374753 34.873376 -0.329122 2.027368 -0.012889 0.003104 603413.000000 0 0 1
30.257711 -9.592543 -16.566753 35.805074 -0.307005 2.051827 -0.004975 0.003906 -178178.000000 0 0 1
29.758431 -10.526643 -17.714153 36.196211 -0.340000 2.082189 -0.012081 0.004885 638152.000000 0 0 1
28.433981 -10.352543 -18.204853 35.314064 -0.349172 2.112402 -0.011229 0.001520 437469.000000 0 0 1
28.115431 -9.101443 -18.747953 34.997136 -0.313071 2.136132 -0.012517 0.001775 -1034610.000000 0 0 1
26.677431 -8.922143 -19.219453 34.068716 -0.322751 2.170185 -0.017461 0.002387 -659330.000000 0 0 1
26.396301 -9.610143 -20.388153 34.710177 -0.349155 2.198617 -0.017708 0.013626 1185310.000000 0 0 1
25.121771 -9.167043 -20.938553 33.964115 -0.349890 2.235074 -0.007817 0.019345 1112520.000000 0 0 1
24.732771 -9.536043 -22.381053 34.692328 -0.367999 2.271989 0.000112 0.015866 21231.700000 0 0 1
24.626271 -10.920443 -22.491753 35.093992 -0.417391 2.266467 -0.001105 0.017220 -86036.500000 0 0 1
23.891871 -11.297443 -23.611353 35.439381 -0.441699 2.299960 0.006452 0.012062 -1033840.000000 0 0 1
24.032871 -12.789543 -23.925453 36.243326 -0.489050 2.291794 0.001277 0.023661 1059500.000000 0 0 1
25.288571 -13.134943 -24.554553 37.616016 -0.479049 2.282030 0.004026 0.020482 532427.000000 0 0 1
26.407661 -13.084943 -23.693153 37.814625 -0.460040 2.247929 -0.016561 0.019095 -1071780.000000 0 0 1
27.558761 -13.828943 -24.366153 39.299293 -0.465085 2.239558 -0.026956 0.015043 -385469.000000 0 0 1
28.111981 -13.114643 -25.468413 40.136236 -0.436502 2.258221 -0.018756 -0.003968 515519.000000 0 0 1
29.470481 -13.474243 -25.720463 41.371569 -0.428835 2.241700 -0.025390 -0.008805 151591.000000 0 0 1
29.972201 -12.851043 -26.987703 42.329875 -0.405056 2.262119 -0.018489 -0.005587 -318267.000000 0 0 1
29.573561 -13.512843 -28.167153 43.018380 -0.428596 2.284675 -0.010360 -0.005657 36763.300000 0 0 1
30.431101 -13.144343 -29.199553 44.175102 -0.407732 2.292941 -0.007342 -0.004610 -181090.000000 0 0 1
30.543631 -14.017843 -30.502883 45.385452 -0.430268 2.307817 -0.003717 -0.011803 84943.000000 0 0 1
31.294171 -15.223743 -30.403643 46.211136 -0.452767 2.288862 0.003071 -0.014919 38998.800000 0 0 1
31.553201 -15.906643 -31.620623 47.418242 -0.466939 2.300763 -0.014780 -0.014092 480352.000000 0 0 1
30.346561 -16.648243 -32.313153 47.352061 -0.501771 2.321840 -0.028748 -0.004025 523444.000000 0 0 1
29.476951 -15.848743 -33.058343 47.041762 -0.493324 2.350044 -0.032996 -0.003778 360643.000000 0 0 1
28.503441 -16.622443 -33.791273 47.229249 -0.527955 2.368098 -0.013127 -0.000569 574029.000000 0 0 1
27.849831 -15.769243 33.853507 46.586931 -0.515214 0.757328 0.006994 -0.002983 -374876.000000 0 0 1
27.083351 -14.636543 34.186875 46.005204 -0.495463 0.733092 0.011965 -0.000052 -27530.000000 0 0 1
27.705761 -13.493043 -34.024903 45.906051 -0.453203 2.405631 0.001032 -0.004213 -702102.000000 0 0 1
26.786381 -12.326543 -33.604493 44.707000 -0.431287 2.421373 0.010855 -0.001261 -203304.000000 0 0 1
26.055561 -11.776043 34.169853 44.554981 -0.424482 0.696777 0.013559 -0.000379 -514010.000000 0 0 1
25.026271 -10.961643 -34.140948 43.727294 -0.412835 2.466693 -0.018964 -0.008994 -148847.000000 0 0 1
19.625363 -29.736797 9.129747 36.780215 -0.987445 1.319949 0.000365 -0.004711 -451951.000000 0 0 1
20.201763 -29.487897 7.893147 36.605314 -0.970150 1.353461 -0.009112 -0.009319 -216666.000000 0 0 1
21.421863 -30.173297 7.792247 37.815911 -0.953416 1.363252 0.017674 -0.008371 -340864.000000 0 0 1
22.091863 -30.050997 6.412947 37.844929 -0.936870 1.400521 0.016183 -0.007930 -196414.000000 0 0 1
22.653163 -28.764197 6.135447 37.123961 -0.903695 1.404765 0.024828 -0.002837 326904.000000 0 0 1
23.361563 -28.680797 4.894047 37.313568 -0.887254 1.439257 0.031647 -0.005658 261367.000000 0 0 1
23.448963 -27.222697 4.328647 36.189311 -0.859735 1.450898 0.031388 -0.010592 -88339.200000 0 0 1
24.187863 -26.412997 5.187547 36.188530 -0.829344 1.426953 0.037506 -0.012869 -117833.000000 0 0 1
24.140663 -25.061497 4.775647 35.123454 -0.804111 1.434406 0.029541 -0.010653 -196971.000000 0 0 1
24.880663 -24.128397 5.707747 35.125564 -0.770050 1.407577 0.013257 -0.007094 536740.000000 0 0 1
26.270063 -23.960097 5.386747 35.961361 -0.739443 1.420438 0.004721 -0.001211 662809.000000 0 0 1
27.068563 -23.271797 6.312947 36.251026 -0.710119 1.395759 0.014733 -0.001421 -71657.700000 0 0 1
26.760063 -21.754297 6.503847 35.094877 -0.682581 1.384397 0.000147 0.006505 -399129.000000 0 0 1
26.981563 -21.009097 5.318047 34.607347 -0.661584 1.416517 0.009442 0.012556 85936.100000 0 0 1
26.969263 -19.659197 5.742147 33.864397 -0.629891 1.400410 0.011596 -0.001201 -73131.900000 0 0 1
26.810763 -18.711097 4.519347 33.005251 -0.609312 1.433437 0.010926 0.011986 -749912.000000 0 0 1
27.951863 -18.546397 3.766447 33.755912 -0.585815 1.458985 0.025282 0.014387 -427434.000000 0 0 1
27.700463 -17.608497 2.680647 32.932668 -0.566239 1.489308 0.015715 0.018499 -38783.900000 0 0 1
28.938263 -16.735397 2.471747 33.520234 -0.524321 1.496990 0.012785 0.000166 -127074.000000 0 0 1
28.959963 -15.706397 3.475847 33.127811 -0.496950 1.465681 0.026297 -0.010958 85456.500000 0 0 1
30.192963 -15.055697 3.655447 33.935988 -0.462566 1.462871 0.033250 -0.013501 34044.700000 0 0 1
29.862863 -13.739897 4.436847 33.170181 -0.431221 1.436634 0.048422 -0.019893 211146.000000 0 0 1
29.565663 -14.034297 5.780547 33.234088 -0.443189 1.395973 0.042757 -0.015452 64512.400000 0 0 1
29.294963 -12.841297 6.511447 32.641885 -0.413119 1.369968 0.036375 -0.019510 -428261.000000 0 0 1
28.887663 -13.042997 7.985847 32.686244 -0.424107 1.323980 0.042240 -0.014849 -572950.000000 0 0 1
27.519963 -13.329397 8.132347 31.641053 -0.451052 1.310860 0.029948 -0.008662 -356540.000000 0 0 1
26.943263 -13.337197 9.414847 31.503326 -0.459648 1.267306 0.034437 -0.002308 89815.300000 0 0 1
27.253363 -14.528297 10.412347 32.591934 -0.489762 1.245620 0.030652 -0.005560 692601.000000 0 0 1
28.602663 -14.628097 10.927547 33.933830 -0.472745 1.242929 0.017922 -0.005006 978385.000000 0 0 1
28.745063 -15.889697 11.611247 34.836506 -0.504975 1.230987 0.023021 -0.011205 -216905.000000 0 0 1
29.526963 -15.865397 12.954047 35.935493 -0.493055 1.202013 0.026161 -0.007730 -876144.000000 0 0 1
30.856463 -15.514497 12.850947 36.850614 -0.465882 1.214580 0.024822 -0.005826 -961211.000000 0 0 1
31.362263 -15.334197 14.169447 37.676283 -0.454759 1.185230 0.032499 -0.009858 -88045.800000 0 0 1
32.893463 -15.346097 14.334047 39.024959 -0.436523 1.194687 0.023887 -0.014933 -158442.000000 0 0 1
33.480763 -14.157297 13.873347 38.908357 -0.400047 1.206208 0.019687 -0.017656 161886.000000 0 0 1
34.800263 -13.970997 14.350447 40.151991 -0.381766 1.205310 0.011635 -0.023613 203809.000000 0 0 1
35.504263 -12.591097 14.054147 40.207057 -0.340799 1.213712 0.013768 -0.024768 57856.100000 0 0 1
-34.590546 -12.675397 13.019747 39.072821 0.351246 1.231082 0.023727 -0.025520 345630.000000 0 0 1
-33.929846 -11.421397 12.741647 38.000425 0.324704 1.228870 0.030840 -0.025362 178402.000000 0 0 1
-32.785746 -11.528997 11.693547 36.668269 0.338141 1.246227 0.030938 -0.023982 490914.000000 0 0 1
-31.661746 -12.306597 12.066947 36.048990 0.370718 1.229470 0.014470 -0.019343 337297.000000 0 0 1
-31.856846 -13.657097 11.701147 36.582670 0.405002 1.245220 0.010602 -0.019166 62951.400000 0 0 1
-30.669146 -14.602897 12.079047 36.051969 0.444380 1.229143 0.005189 -0.018829 1260320.000000 0 0 1
-29.431546 -14.353197 11.387847 34.668620 0.453744 1.236106 0.019113 -0.016416 609397.000000 0 0 1
-28.433146 -15.286997 11.790347 34.367839 0.493310 1.220620 0.017126 -0.010862 279079.000000 0 0 1
-27.076046 -15.038097 11.097047 32.899864 0.506981 1.226751 0.027676 -0.009495 -110093.000000 0 0 1
-27.150346 -15.295997 9.673847 32.629620 0.513059 1.269797 0.021095 -0.010351 -843403.000000 0 0 1
-25.922846 -15.468197 9.074547 31.521524 0.537990 1.278780 0.024250 -0.012056 -865773.000000 0 0 1
-25.857346 -15.254697 7.532847 30.952414 0.533001 1.324959 0.037857 -0.003066 61493.300000 0 0 1
-26.437546 -16.314597 6.778547 31.797148 0.552898 1.355967 0.051342 0.000697 199358.000000 0 0 1
-26.116246 -16.171397 5.385047 31.186072 0.554424 1.397252 0.045669 0.007167 -412698.000000 0 0 1
-26.577746 -17.404897 4.518247 32.089275 0.579789 1.429524 0.033126 0.010822 -954010.000000 0 0 1
-27.947046 -17.479997 4.417147 33.258065 0.558936 1.437588 0.011194 -0.001453 -1210280.000000 0 0 1
-28.267346 -18.485597 3.525947 33.958687 0.579151 1.466778 0.014264 0.005339 30928.700000 0 0 1
-29.784346 -18.789997 3.604947 35.400097 0.562808 1.468785 0.022775 -0.000913 -291657.000000 0 0 1
-30.578146 -17.804397 3.077647 35.517481 0.527272 1.484036 0.033891 -0.003369 140012.000000 0 0 1
-31.961846 -18.141997 3.236247 36.893969 0.516266 1.482966 0.045350 -0.003084 588489.000000 0 0 1
-32.926946 -17.162097 2.521147 37.216630 0.480477 1.503002 0.035211 -0.006850 34540.600000 0 0 1
-32.951946 -17.371797 1.163347 37.268800 0.485159 1.539576 0.029337 -0.003962 272429.000000 0 0 1
-33.888846 -16.478397 0.569247 37.687073 0.452586 1.555691 0.048873 -0.016312 -140810.000000 0 0 1
-34.367146 -17.022397 -0.783953 38.359840 0.459889 1.591235 0.047146 -0.019506 -1066930.000000 0 0 1
-33.350246 -17.150697 -1.725953 37.541500 0.474990 1.616787 0.045537 -0.019710 23584.800000 0 0 1
-33.789146 -18.017197 -2.785953 38.393845 0.489872 1.643423 0.031242 -0.012640 13144.600000 0 0 1
-32.670146 -18.662697 -3.604953 37.797227 0.519009 1.666318 0.033180 -0.007934 -400481.000000 0 0 1
-33.272846 -19.427697 -4.542553 38.796295 0.528490 1.688153 0.034290 -0.023143 -147464.000000 0 0 1
-32.310146 -20.040597 -5.381953 38.399694 0.555181 1.711415 0.025239 -0.017460 -470150.000000 0 0 1
-32.706846 -21.224097 -6.228853 39.484157 0.575615 1.729214 0.041722 -0.015935 -500610.000000 0 0 1
-33.172646 -22.327697 -5.472853 40.359666 0.592426 1.706817 0.060294 -0.016661 5945.660000 0 0 1
-33.547346 -23.343497 -6.319553 41.355532 0.607927 1.724208 0.054937 -0.020429 -118240.000000 0 0 1
-34.033746 -24.648897 -5.656553 42.401186 0.626816 1.704601 0.047977 -0.018696 535545.000000 0 0 1
-32.976846 -25.450597 -5.096053 41.966356 0.657290 1.692529 0.052345 -0.017452 195384.000000 0 0 1
-33.449346 -26.712697 -4.682753 43.062224 0.673888 1.679756 0.038992 -0.012598 99266.200000 0 0 1
-32.348146 -27.615997 -4.088053 42.728890 0.706645 1.666617 0.035122 -0.012487 -727864.000000 0 0 1
-31.379746 -27.960697 -5.031153 42.329677 0.727844 1.689934 0.034194 -0.012093 74488.100000 0 0 1
-30.582346 -29.105397 -4.744053 42.484233 0.760659 1.682696 0.030730 -0.007163 831395.000000 0 0 1
-29.430146 -29.009997 -3.689253 41.488842 0.778209 1.659836 0.041867 -0.011630 -96686.700000 0 0 1
-30.074746 -28.901997 -2.455153 41.783293 0.765516 1.629589 0.047060 -0.012049 42919.300000 0 0 1
-29.171646 -28.951897 -1.392053 41.123413 0.781617 1.604653 0.039679 -0.008820 96794.600000 0 0 1
-29.906446 -28.580997 -0.025953 41.367494 0.762740 1.571424 0.037743 -0.008666 900982.000000 0 0 1
-30.819946 -29.586897 0.473747 42.725613 0.764989 1.559708 0.026353 -0.011923 -21678.000000 0 0 1
-31.439446 -29.159697 1.629247 42.911317 0.747796 1.532819 0.037515 -0.013923 -217146.000000 0 0 1
-32.198646 -30.400997 2.197347 44.337363 0.756689 1.521216 0.010457 -0.008517 -656377.000000 0 0 1
-32.956546 -30.154797 3.366047 44.797053 0.741034 1.495586 0.015103 -0.007802 222993.000000 0 0 1
-33.395146 -31.324797 4.099847 45.970506 0.753420 1.481493 0.006588 -0.002226 265902.000000 0 0 1
-34.606246 -32.089197 3.473547 47.322028 0.747677 1.497328 0.006391 -0.005397 -183049.000000 0 0 1
-34.988746 -33.326697 4.079247 48.492487 0.761074 1.486576 0.001027 -0.006261 302115.000000 0 0 1
35.096863 -33.820997 3.121647 48.840498 -0.766887 1.506838 0.007960 -0.008872 -233583.000000 0 0 1
33.931463 34.350757 3.786647 48.431987 0.791539 1.492532 -0.000086 -0.004822 -117745.000000 0 0 1
33.050363 -33.875897 4.624447 47.553006 -0.797733 1.473394 -0.009462 -0.008121 365897.000000 0 0 1
32.356163 -32.717097 4.101147 46.196851 -0.790945 1.481904 -0.004759 -0.011271 -315205.000000 0 0 1
31.280363 -32.926397 3.007747 45.515439 -0.811029 1.504666 0.009784 -0.004579 -803063.000000 0 0 1
31.759463 -33.378097 1.792347 46.108278 -0.810243 1.531914 0.007369 -0.002047 -552995.000000 0 0 1
30.961663 -32.935697 0.732747 45.209751 -0.816282 1.554588 0.014265 0.000904 -550154.000000 0 0 1
31.401063 -33.593597 -0.635353 45.988696 -0.819119 1.584612 0.010005 -0.004038 1447020.000000 0 0 1
32.570863 -33.082797 -1.325253 46.444470 -0.793195 1.599334 0.007195 -0.007410 1183840.000000 0 0 1
33.835563 -33.248097 -0.675653 47.441941 -0.776641 1.585038 0.007931 -0.002365 -157501.000000 0 0 1
35.061063 -33.092797 -1.549553 48.237044 -0.756526 1.602926 0.001553 -0.001354 -768984.000000 0 0 1
35.250563 -34.218797 -2.386353 49.185596 -0.770547 1.619333 -0.003328 -0.001761 -122945.000000 0 0 1
-34.927846 -33.879497 -3.402653 48.778610 0.770163 1.640610 0.003715 -0.005025 -1036150.000000 0 0 1
-34.453946 33.985757 -4.386453 48.593693 -0.778557 1.661187 0.001756 -0.007075 -410078.000000 0 0 1
-33.335746 33.355657 -3.838153 47.313880 -0.785697 1.652007 -0.003880 0.000426 -384799.000000 0 0 1
-32.843746 32.247857 -4.575753 46.255523 -0.776244 1.669882 0.012113 -0.013052 434192.000000 0 0 1
-31.554946 31.580657 -3.996653 44.822157 -0.785805 1.660082 0.020155 -0.016669 247075.000000 0 0 1
-30.358846 32.359357 -4.160353 44.565638 -0.817284 1.664286 0.026141 -0.014131 -61383.500000 0 0 1
-29.193446 31.614957 -4.036253 43.220992 -0.825199 1.664319 0.052640 -0.016722 -242540.000000 0 0 1
-28.810846 31.289157 -2.541553 42.609103 -0.826611 1.630480 0.038966 -0.017342 -950753.000000 0 0 1
-29.658246 30.378757 -1.906953 42.498434 -0.797399 1.615683 0.033467 -0.011363 -453212.000000 0 0 1
-29.554946 30.351557 -0.494853 42.366930 -0.798695 1.582477 0.016290 0.003921 235259.000000 0 0 1
-30.880346 29.853257 0.151547 42.951550 -0.768488 1.567268 0.007470 0.008091 344070.000000 0 0 1
-31.176546 28.426157 -0.026453 42.190332 -0.739285 1.571423 0.012084 0.002601 443031.000000 0 0 1
-32.397046 28.320157 -0.771253 43.037132 -0.718353 1.588718 0.005355 0.002981 388187.000000 0 0 1
-32.609546 26.880757 -1.257653 42.279301 -0.689396 1.600547 0.015966 0.004964 7929.230000 0 0 1
-32.979946 26.005257 -0.133653 41.999620 -0.667700 1.573979 -0.000005 0.009327 146915.000000 0 0 1
-33.268046 24.702857 -0.710353 41.442715 -0.638710 1.587938 0.030380 0.011573 -21225.200000 0 0 1
-33.174046 23.569857 0.323447 40.695947 -0.617732 1.562848 0.023983 0.013581 1118330.000000 0 0 1
-31.822446 23.215857 0.709047 39.397295 -0.630280 1.552798 0.025885 0.006095 971383.000000 0 0 1
-31.550346 23.720657 1.989047 39.522781 -0.644675 1.520448 0.015244 0.004810 1807360.000000 0 0 1
-29.962946 23.696557 2.342047 38.272577 -0.669144 1.509564 0.012345 -0.006606 2429940.000000 0 0 1
-29.167446 24.620757 1.612547 38.203689 -0.701069 1.528575 0.021307 -0.005501 -19594.000000 0 0 1
-29.218946 25.967457 1.961147 39.139516 -0.726548 1.520669 0.004775 -0.001234 -276773.000000 0 0 1
-28.499646 26.892757 0.962447 39.196639 -0.756397 1.546240 0.011909 -0.002664 1095380.000000 0 0 1
-27.102446 26.639157 0.722447 38.009330 -0.776778 1.551788 0.013386 -0.004373 423964.000000 0 0 1
-26.609846 27.389857 -0.299153 38.188711 -0.799842 1.578630 0.014593 -0.007805 149207.000000 0 0 1
-25.278146 26.818957 -0.839453 36.863882 -0.814965 1.593570 0.019640 -0.005388 -288751.000000 0 0 1
-25.546046 25.739657 -1.728553 36.305899 -0.789173 1.618425 0.026159 -0.008510 65914.300000 0 0 1
-24.408846 25.095957 -2.288453 35.083270 -0.799277 1.636072 0.012270 -0.004708 213825.000000 0 0 1
-23.598546 24.128457 -1.387953 33.778695 -0.796501 1.611898 0.000565 0.001344 -209704.000000 0 0 1
-24.195146 22.927057 -1.140253 33.351990 -0.758494 1.604991 0.004198 -0.001245 -384360.000000 0 0 1
-23.177546 22.002257 -0.906453 31.970605 -0.759390 1.599153 0.002144 -0.012693 -449473.000000 0 0 1
-23.808846 20.612457 -0.680653 31.499172 -0.713566 1.592407 0.012797 -0.016317 -263038.000000 0 0 1
-24.598746 20.408157 0.493447 31.966149 -0.692556 1.555359 -0.001741 -0.009713 800566.000000 0 0 1
-25.917846 20.952057 0.589247 33.332726 -0.679844 1.553118 0.001190 -0.002203 146587.000000 0 0 1
-26.915146 20.458957 -0.437153 33.811021 -0.649952 1.583726 0.005523 -0.008077 -1369940.000000 0 0 1
-27.249746 19.089357 -0.322453 33.272454 -0.611084 1.580488 0.015552 -0.016807 179628.000000 0 0 1
-28.052146 18.720057 -1.422953 33.754825 -0.588462 1.612964 0.023767 -0.013519 -174033.000000 0 0 1
-28.289846 17.174657 -1.459753 33.127256 -0.545621 1.614876 0.014639 -0.015490 313988.000000 0 0 1
-29.226646 16.687857 -0.474453 33.658677 -0.518809 1.584893 0.031743 -0.012316 727823.000000 0 0 1
-29.375846 15.304657 -0.483253 33.127125 -0.480302 1.585385 0.035751 -0.021767 -174662.000000 0 0 1
-28.224746 14.478557 0.127347 31.721934 -0.473973 1.566782 0.047261 -0.024681 -419586.000000 0 0 1
-28.132646 14.490757 1.540747 31.682830 -0.475644 1.522147 0.060166 -0.028283 962262.000000 0 0 1
-26.807946 14.216857 2.041147 30.413012 -0.487610 1.503632 0.057357 -0.027090 746910.000000 0 0 1
-26.263246 12.751857 1.982847 29.262598 -0.452013 1.502984 0.056504 -0.021835 -192706.000000 0 0 1
-26.063346 12.274257 0.670047 28.816737 -0.440130 1.547542 0.043415 -0.023580 222434.000000 0 0 1
-25.460946 11.016557 0.732147 27.751763 -0.408361 1.544411 0.048741 -0.012930 -252254.000000 0 0 1
-25.368946 10.288057 -0.610353 27.382478 -0.385271 1.593088 0.046648 -0.011569 -984773.000000 0 0 1
-26.628946 9.914957 -1.047753 28.434221 -0.356434 1.607653 0.049773 -0.015495 -381803.000000 0 0 1
-26.619446 9.171757 -2.240653 28.244231 -0.331812 1.650211 0.054480 -0.015269 -703420.000000 0 0 1
-27.979546 8.777057 -2.776053 29.455020 -0.303974 1.665184 0.055221 -0.019890 -599996.000000 0 0 1
-27.801546 8.101457 -4.023853 29.236124 -0.283551 1.708868 0.049573 -0.010721 990495.000000 0 0 1
-29.044546 7.464857 -4.373153 30.305680 -0.251569 1.715603 0.055338 -0.010292 702442.000000 0 0 1
-11.401437 18.299757 -19.895353 29.337671 -1.013609 2.316039 0.025008 0.001583 92710.100000 0 0 1
-11.568537 17.203657 -20.766653 29.343666 -0.978803 2.357041 0.000589 -0.002067 -885387.000000 0 0 1
-10.593237 17.223157 -21.732553 29.684300 -1.019378 2.392229 -0.003014 -0.004040 -796956.000000 0 0 1
-10.725537 16.118257 -22.761553 29.881828 -0.983652 2.436758 -0.006423 0.001320 45639.400000 0 0 1
-10.223737 14.805757 -22.409353 28.738726 -0.966458 2.465081 -0.000129 -0.007405 110163.000000 0 0 1
-10.404537 13.896357 -23.482253 29.202386 -0.928112 2.504992 0.004862 -0.008998 -283550.000000 0 0 1
-9.616037 12.629257 -23.148453 28.068081 -0.920033 2.540512 -0.013372 0.001222 -855062.000000 0 0 1
-8.250537 12.882757 -23.247553 27.829580 -1.001176 2.559573 -0.002900 -0.001345 -838880.000000 0 0 1
-7.610937 11.777357 -22.582053 26.581603 -0.997073 2.585903 0.000784 0.001946 311770.000000 0 0 1
-6.071837 11.925857 -22.505553 26.183835 -1.099870 2.605128 0.015709 0.001437 344885.000000 0 0 1
-5.442237 11.608257 -23.739853 26.980552 -1.132399 2.646422 0.009530 -0.005356 -377646.000000 0 0 1
-4.044237 11.581957 -23.610253 26.607173 -1.234848 2.662393 0.023996 -0.005043 342075.000000 0 0 1
-3.186037 11.149157 -24.862453 27.433485 -1.292450 2.705198 0.036291 -0.013798 89838.100000 0 0 1
-3.194237 9.786657 -25.183433 27.206380 -1.255310 2.753531 0.029829 -0.010820 -64147.500000 0 0 1
-2.676337 9.552557 -26.476353 28.273864 -1.297630 2.783095 0.029187 -0.011705 -277367.000000 0 0 1
-2.250037 8.149957 -26.838653 28.138901 -1.301427 2.836409 0.028269 -0.003983 -771932.000000 0 0 1
-1.127937 7.847857 -26.092603 27.270589 -1.428048 2.846598 0.030371 -0.004244 -812939.000000 0 0 1
-1.166437 6.561857 -25.536523 26.391903 -1.394874 2.886299 0.031945 -0.008655 525341.000000 0 0 1
0.144063 5.891857 -24.945753 25.632505 1.546350 2.909589 0.000746 0.002695 468335.000000 0 0 1
0.644763 6.615057 -23.857753 24.766249 1.473634 2.869897 0.003990 0.001284 -116342.000000 0 1 0
1.690163 5.841757 -23.300553 24.081083 1.289162 2.886292 0.010413 0.011869 -256990.000000 0 1 0
2.082663 6.341857 -21.897553 22.892345 1.253493 2.845709 0.018805 0.007300 100286.000000 0 1 0
2.745763 7.565057 -21.887653 23.320349 1.222629 2.789243 0.016085 -0.001609 -268243.000000 0 1 0
2.569963 8.212957 -20.636953 22.359365 1.267533 2.746516 0.017580 -0.005224 117796.000000 0 1 0
2.971163 9.697857 -20.675153 23.029073 1.273503 2.685510 0.004028 -0.007292 -53251.900000 0 1 0
2.777663 10.412257 -19.406853 22.198118 1.310099 2.634699 0.009915 -0.014539 55130.800000 0 1 0
3.348863 11.724757 -19.384853 22.901034 1.292581 2.580101 0.012407 -0.009881 -98120.000000 0 1 0
4.626863 11.793457 -18.524653 22.442287 1.196924 2.541769 0.002342 -0.015503 -280504.000000 0 1 0
5.606563 10.959757 -19.043953 22.676463 1.097944 2.567732 0.003846 -0.012363 -522129.000000 0 1 0
6.702763 10.744757 -18.147453 22.129322 1.013048 2.532319 0.007869 -0.010729 299323.000000 0 1 0
7.770463 9.855957 -18.806553 22.609874 0.903167 2.553112 0.016250 -0.007992 -440476.000000 0 1 0
7.438863 8.493457 -18.952253 22.060448 0.851494 2.604316 0.019845 -0.007144 -160355.000000 0 1 0
6.727463 8.252357 -20.137953 22.779317 0.886845 2.655244 0.014973 -0.004778 12056.900000 0 1 0
6.235663 6.819857 -20.234853 22.245072 0.830115 2.713196 0.022616 -0.009872 634914.000000 0 1 0
7.376363 5.964157 -20.477853 22.568216 0.679933 2.707794 0.023040 -0.003685 751196.000000 0 1 0
7.053363 4.634757 -20.801153 22.448137 0.581349 2.756149 0.022580 -0.000960 -232068.000000 0 1 0
6.939163 4.475157 -22.341953 23.818940 0.572791 2.787585 0.037252 -0.005294 -963821.000000 0 1 0
5.818363 5.054557 -22.865253 24.129270 0.715265 2.816480 0.020980 -0.011302 -925370.000000 0 1 0
5.835063 4.596957 -24.182853 25.298031 0.667267 2.843568 0.031314 -0.014064 -77724.600000 0 0 1
4.811563 5.357957 -25.066653 26.080566 0.839075 2.861840 0.019962 -0.008472 -481774.000000 0 0 1
5.087063 6.674457 -25.489033 26.835003 0.919553 2.823529 0.025404 -0.010538 -30256.100000 0 0 1
4.940263 7.610657 -24.433653 26.063992 0.995037 2.786024 0.022399 -0.009972 -1053590.000000 0 0 1
5.053763 9.081257 -24.890153 26.972754 1.062973 2.746053 0.023717 -0.015548 158461.000000 0 0 1
3.973763 9.707957 -25.551303 27.620722 1.182272 2.752035 0.019382 -0.015373 1254990.000000 0 0 1
2.667663 9.661557 -24.923553 26.863462 1.301397 2.759232 0.015178 -0.006040 527600.000000 0 0 1
1.479863 10.222257 -25.690363 27.688974 1.427026 2.759320 0.019843 0.000582 -252008.000000 0 0 1
1.387263 11.607357 -25.668933 28.205485 1.451845 2.714247 0.034294 -0.017391 484475.000000 0 0 1
0.163463 11.954857 -26.322923 28.910925 1.557124 2.715248 0.048448 -0.021954 169414.000000 0 0 1
-0.043337 13.437457 -26.723653 29.911883 -1.567571 2.675681 0.046495 -0.022007 -183293.000000 0 0 1
-0.123337 14.165957 -25.513133 29.182349 -1.562090 2.634718 0.042681 -0.026600 12242.200000 0 0 1
-0.164137 15.560557 -25.704183 30.047677 -1.560248 2.597209 0.046808 -0.036915 -121161.000000 0 0 1
-0.669737 16.248957 -24.386253 29.311542 -1.529602 2.553441 0.050834 -0.022145 1173140.000000 0 0 1
-2.080537 16.017657 -24.169953 29.070270 -1.441629 2.552476 0.048356 -0.017787 811254.000000 0 0 1
-2.382437 16.226557 -22.792853 28.080087 -1.425015 2.517868 0.051041 -0.024515 -52361.200000 0 0 1
-3.615437 15.374557 -22.379853 27.391718 -1.339835 2.527037 0.044388 -0.019476 877702.000000 0 0 1
-4.886537 15.854957 -22.844553 28.233518 -1.271831 2.513464 0.043603 -0.017140 373541.000000 0 0 1
-5.253837 15.289557 -24.064453 28.990882 -1.239814 2.550029 0.035866 -0.015857 -131289.000000 0 0 1
-6.741837 15.423757 -24.470953 29.701384 -1.158715 2.539054 0.014252 -0.007924 202690.000000 0 0 1
-7.108637 16.692657 -25.034553 30.917736 -1.168202 2.514463 0.018048 -0.013811 -1049340.000000 0 0 1
-8.400737 16.562357 -25.487833 31.535911 -1.101390 2.511913 0.016080 -0.008156 -1074860.000000 0 0 1
-9.176937 17.801857 -25.929723 32.763895 -1.094822 2.483911 0.020777 -0.010925 -20126.700000 0 0 1
-9.695937 18.620957 -24.899853 32.569217 -1.090726 2.441094 0.019259 -0.011047 1050730.000000 0 0 1
-10.829437 19.362557 -25.486423 33.789689 -1.060843 2.425332 0.019582 -0.008523 1283190.000000 0 0 1
-11.564337 20.213857 -24.422453 33.745965 -1.051145 2.379967 0.020641 -0.006271 298611.000000 0 0 1
-10.770437 21.305257 -23.850653 33.745666 -1.102735 2.355728 0.009190 -0.013063 342692.000000 0 0 1
-11.003537 22.653957 -24.349653 35.031203 -1.118636 2.339334 0.004302 -0.011197 -223422.000000 0 0 1
-10.547437 23.037757 -25.763293 36.134941 -1.141448 2.364528 0.004559 -0.011404 -63462.600000 0 0 1
-11.237137 22.290457 -26.794883 36.621080 -1.103856 2.391579 0.003405 -0.014593 279994.000000 0 0 1
-11.011637 22.853957 -28.063833 37.830388 -1.121793 2.406596 0.020072 -0.012688 -348618.000000 0 0 1
-11.562637 22.126857 -29.322163 38.510799 -1.089263 2.436268 0.019720 -0.015547 -72346.400000 0 0 1
-10.772737 21.117157 -29.917443 38.171188 -1.099068 2.471510 0.020952 -0.018749 -115289.000000 0 0 1
-10.506537 19.926557 -29.125233 36.820296 -1.085577 2.483255 0.015807 -0.016090 -198100.000000 0 0 1
-9.594037 18.883257 -29.790343 36.552531 -1.100713 2.523527 0.018865 -0.015863 -1384860.000000 0 0 1
-8.311337 19.419557 -29.826593 36.548915 -1.166398 2.525380 0.015855 -0.014880 -329169.000000 0 0 1
-7.329237 18.552357 -30.441073 36.394596 -1.194558 2.561510 0.018270 -0.006258 717037.000000 0 0 1
-6.886137 17.241457 -29.691093 35.017820 -1.190812 2.582780 0.025009 -0.010465 -277881.000000 0 0 1
-7.958837 16.304157 -29.628823 34.742421 -1.116675 2.592147 0.026022 -0.019882 595070.000000 0 0 1
-7.523137 15.108457 -29.001713 33.555364 -1.108796 2.614542 0.009410 -0.013481 -123830.000000 0 0 1
-8.748737 14.183657 -28.974713 33.425298 -1.018102 2.619645 0.018739 -0.006352 54139.900000 0 0 1
-9.753237 14.760657 -28.186733 33.279041 -0.986895 2.581078 0.013758 0.001948 -446414.000000 0 0 1
-10.936937 14.027057 -28.017753 33.186886 -0.908555 2.575945 0.048823 -0.002853 -27723.500000 0 0 1
-11.818537 14.441457 -26.862243 32.708005 -0.884951 2.534437 0.043575 -0.002287 -196580.000000 0 0 1
-12.389837 15.707257 -27.131303 33.709548 -0.902924 2.506228 0.030400 -0.001953 -667989.000000 0 0 1
-13.237437 16.071757 -26.081633 33.373383 -0.881802 2.467879 0.008809 -0.002657 -567016.000000 0 0 1
-14.305137 17.033957 -26.516343 34.610823 -0.872253 2.443592 -0.008299 0.000060 -443849.000000 0 0 1
-13.802337 18.348657 -26.764123 35.263239 -0.925872 2.432543 -0.000420 -0.001739 308690.000000 0 0 1
-14.893837 19.258757 -26.833883 36.232353 -0.912515 2.404768 -0.008462 -0.002372 -9184.720000 0 0 1
-14.483337 20.648157 -27.260793 37.138448 -0.959108 2.395036 -0.005858 -0.008598 122058.000000 0 0 1
-15.504637 21.638157 -27.067983 37.964185 -0.949055 2.364546 -0.029802 -0.001499 327682.000000 0 0 1
-15.070037 22.987857 -27.243013 38.700508 -0.990519 2.351732 -0.012950 -0.004325 358030.000000 0 0 1
-14.325837 23.638257 -25.991523 37.941482 -1.025944 2.325458 -0.036598 -0.004431 94751.400000 0 0 1
-13.986337 24.965257 -26.207343 38.803434 -1.060131 2.312286 -0.018500 -0.009714 17724.100000 0 0 1
-13.504737 25.558757 -24.987553 38.210022 -1.084703 2.283594 -0.001475 -0.006009 -314982.000000 0 0 1
-13.081137 27.010457 -25.282383 39.241303 -1.119788 2.270878 0.015416 -0.013934 -181130.000000 0 0 1
-14.125237 27.926657 -25.514693 40.378460 -1.102521 2.254784 0.023320 -0.010305 -226442.000000 0 0 1
-14.482837 28.746057 -24.407653 40.395815 -1.104097 2.219573 0.031700 -0.013394 144398.000000 0 0 1
-15.812337 29.460957 -24.774353 41.614259 -1.078205 2.208477 0.027649 -0.012462 1153860.000000 0 0 1
-16.953437 28.587957 -24.881053 41.518154 -1.035520 2.213399 0.014716 -0.009368 -192846.000000 0 0 1
-18.071237 29.158757 -25.472893 42.727871 -1.015979 2.209513 0.008462 -0.003927 -76885.600000 0 0 1
-19.340637 28.276057 -25.334473 42.607877 -0.970894 2.207559 0.007941 0.004094 3751.120000 0 0 1
-19.570437 28.043557 -23.978153 41.765954 -0.961509 2.182310 0.017528 0.000151 -414858.000000 0 0 1
-20.487937 26.980957 -23.832953 41.421459 -0.921339 2.183861 0.015304 -0.008562 -147915.000000 0 0 1
-21.085337 26.998957 -22.394753 40.927498 -0.907768 2.149789 0.026732 -0.007527 417330.000000 0 0 1
-22.037337 28.076757 -22.256453 42.063027 -0.905333 2.128361 0.016900 0.000153 282443.000000 0 0 1
-22.350237 28.318257 -20.900853 41.692954 -0.902644 2.095902 0.003050 0.004911 -208761.000000 0 0 1
-23.722337 29.021757 -20.826053 42.880487 -0.885536 2.077933 -0.010297 0.012597 -235263.000000 0 0 1
-24.829437 28.235857 -21.193053 43.161442 -0.849503 2.084054 -0.011382 0.014115 -960076.000000 0 0 1
-25.925617 29.087157 -21.217553 44.366484 -0.842804 2.069439 0.002779 0.014509 -426112.000000 0 0 1
-27.224917 28.318157 -21.584953 44.822141 -0.805078 2.073240 -0.013072 0.013937 3904.700000 0 0 1
-27.281057 27.680357 -22.845353 45.081797 -0.792663 2.102211 -0.013887 0.017669 16025.300000 0 0 1
-28.609427 27.206857 -23.043353 45.713330 -0.760275 2.099117 -0.011120 0.015720 323807.000000 0 0 1
-29.019057 26.773657 -24.490253 46.461886 -0.745174 2.125986 -0.014360 0.021120 -107087.000000 0 0 1
-28.571017 25.493957 -24.938053 45.696295 -0.728545 2.148062 0.001714 0.011718 -173649.000000 0 0 1
-28.746927 25.434657 -26.308943 46.534590 -0.724341 2.171670 0.009826 0.009357 -181017.000000 0 0 1
-28.824677 24.021557 -26.804923 46.112917 -0.694759 2.191108 0.011387 -0.000065 42829.000000 0 0 1
-27.670257 23.186757 -26.746163 44.929123 -0.697467 2.208431 0.031700 -0.005266 77885.300000 0 0 1
-27.935877 21.850257 -27.212403 44.703041 -0.663766 2.225264 0.037794 -0.010907 284157.000000 0 0 1
-26.687557 20.908157 -27.255753 43.500032 -0.664563 2.247939 0.058246 -0.010816 354598.000000 0 0 1
-26.383717 20.519557 -25.914493 42.293188 -0.661017 2.230312 0.056444 -0.010611 213826.000000 0 0 1
-25.808937 19.205357 -25.816353 41.248407 -0.639738 2.247049 0.045233 -0.017223 312929.000000 0 0 1
-26.859047 18.063857 -25.635203 41.290132 -0.592060 2.240630 0.051798 -0.006999 122605.000000 0 0 1
-27.745717 17.812857 -26.707193 42.431084 -0.570733 2.251610 0.039793 -0.006929 -165547.000000 0 0 1
-28.520037 16.709957 -26.415293 42.312917 -0.529989 2.245011 0.021824 -0.007649 -238930.000000 0 0 1
-29.397117 16.268657 -27.635513 43.503808 -0.505457 2.259120 -0.002003 -0.012217 200390.000000 0 0 1
-30.647077 16.891957 -27.815633 44.702248 -0.503746 2.242400 -0.014486 -0.004125 -184609.000000 0 0 1
-31.296277 16.296457 -28.913463 45.618196 -0.480082 2.257271 -0.007230 -0.002929 893846.000000 0 0 1
-32.704717 16.839257 -29.354043 47.061863 -0.475487 2.244306 0.001912 -0.003651 1730990.000000 0 0 1
-33.852697 16.569757 -28.502133 47.253926 -0.455185 2.218265 -0.013849 0.006715 1060100.000000 0 0 1
-35.037653 17.043657 -29.127943 48.647307 -0.452740 2.212745 -0.018970 0.012275 686189.000000 0 0 1
34.712141 16.833557 -28.299993 47.845491 0.451533 2.203698 0.008685 0.020242 307389.000000 0 0 1
34.627711 17.726657 -27.198623 47.466597 0.473139 2.180965 -0.013255 0.023105 -273202.000000 0 0 1
33.480751 17.409257 -26.462343 46.090113 0.479502 2.182354 0.001958 0.019834 -161553.000000 0 0 1
33.093391 18.617057 -25.535713 45.758497 0.512436 2.162835 0.011736 0.015487 12309.000000 0 0 1
32.611801 19.726857 -26.286263 46.299526 0.544014 2.174559 0.015359 0.008615 -3123.390000 0 0 1
32.288271 20.801857 -25.469743 46.086414 0.572325 2.156339 0.027050 0.001026 -891247.000000 0 0 1
31.381371 21.872057 -26.112913 46.314809 0.608693 2.169792 0.034897 -0.002931 -227463.000000 0 0 1
30.187781 21.283457 -26.568193 45.498973 0.614097 2.194357 0.037612 -0.002987 -573764.000000 0 0 1
29.158251 21.600157 -25.638823 44.431066 0.637581 2.185905 0.026896 -0.003107 -884619.000000 0 0 1
27.775051 21.297457 -26.197493 43.718918 0.654156 2.213330 0.017882 -0.001650 -457309.000000 0 0 1
27.488121 19.901657 -26.255113 42.906919 0.626659 2.229268 0.016949 -0.006048 57460.400000 0 0 1
26.149241 19.796557 -26.724243 42.306875 0.648005 2.254510 0.021828 -0.007655 -158111.000000 0 0 1
25.803971 18.286057 -26.716273 41.400291 0.616510 2.272233 0.025556 -0.005697 -562167.000000 0 0 1
26.531841 17.421057 -27.582683 42.050401 0.581008 2.286228 0.018169 -0.006607 154851.000000 0 0 1
27.705191 16.999557 -26.884583 42.182264 0.550350 2.261842 0.012786 -0.000150 -1161.540000 0 0 1
28.528441 16.015357 -27.757643 42.905132 0.511540 2.274379 0.002267 0.011988 -22231.100000 0 0 1
27.863261 14.811757 -28.208713 42.325890 0.488597 2.300253 0.013097 0.015908 241032.000000 0 0 1
27.260571 14.002257 -27.214793 40.985936 0.474504 2.296956 0.035101 0.004215 101491.000000 0 0 1
28.215681 13.225957 -26.220293 40.725353 0.438332 2.270292 0.021819 -0.000097 502999.000000 0 0 1
28.992231 14.003157 -25.279373 40.935127 0.449953 2.236417 0.009843 -0.002385 521948.000000 0 0 1
29.839091 13.152057 -24.510053 40.793268 0.415148 2.215343 0.006708 0.000836 -91037.100000 0 0 1
-14.590237 -31.541897 -24.069453 42.274163 1.137541 2.176530 0.044323 0.015098 -44296.100000 0 0 1
-13.784937 -30.525697 -24.601353 41.558023 1.146625 2.204305 0.033678 0.001140 70426.500000 0 0 1
-14.138037 -30.334897 -25.941063 42.344171 1.134663 2.230173 0.027516 0.012533 -271716.000000 0 0 1
-13.399737 -29.197797 -26.614453 41.718023 1.140541 2.262643 0.036774 0.005936 -86579.800000 0 0 1
-13.833237 -27.900497 -26.201163 40.697630 1.110509 2.270251 0.039509 0.010933 360815.000000 0 0 1
-12.981937 -26.977397 -26.862613 40.223260 1.122289 2.302096 0.024979 0.002146 85838.100000 0 0 1
-13.349937 -25.495497 -26.540143 39.148696 1.088432 2.315742 0.014041 0.007077 -247916.000000 0 0 1
-13.220637 -25.111597 -25.179133 37.938981 1.086193 2.296517 0.018836 -0.010468 74401.300000 0 0 1
-13.510437 -23.726597 -25.048053 37.052507 1.053164 2.313138 0.019996 -0.005526 -166392.000000 0 0 1
-13.201637 -23.049597 -23.700753 35.599057 1.050655 2.299320 0.028149 -0.000970 -346164.000000 0 0 1
-11.825537 -22.923697 -23.481353 34.881416 1.094537 2.309292 0.031486 -0.020681 -490359.000000 0 0 1
-11.479937 -22.043097 -22.396553 33.455832 1.090651 2.304246 0.017724 -0.006461 1398250.000000 0 0 1
-9.921437 -21.895597 -22.190353 32.714887 1.145347 2.316236 0.020428 -0.014495 1393900.000000 0 0 1
-9.160437 -21.055997 -23.047953 32.534240 1.160443 2.358055 0.034298 -0.021507 780245.000000 0 0 1
-7.754137 -21.194597 -22.813253 32.090218 1.220068 2.361587 0.044926 -0.016676 395788.000000 0 0 1
-6.874637 -20.080697 -23.360353 31.562654 1.240952 2.404055 0.027510 -0.006278 -244352.000000 0 0 1
-6.887137 -18.795797 -22.698653 30.264558 1.219570 2.418870 0.046362 -0.014654 -109578.000000 0 0 1
-7.633837 -17.776397 -23.295353 30.281170 1.165174 2.448544 0.032569 -0.018491 -249005.000000 0 0 1
-6.919537 -17.082897 -24.483353 30.645390 1.185939 2.496301 0.044268 -0.016119 193038.000000 0 0 1
-6.605437 -17.895697 -25.598723 31.924636 1.217202 2.501179 0.033796 -0.023883 301768.000000 0 0 1
-5.777637 -17.122797 -26.470383 32.050779 1.245369 2.542573 0.022440 -0.016266 171600.000000 0 0 1
-5.441037 -17.720197 -27.821083 33.430868 1.272882 2.553855 0.017657 -0.002236 -619470.000000 0 0 1
-6.518237 -17.671097 -28.680563 34.312240 1.217416 2.560512 0.029438 0.000559 -523026.000000 0 0 1
-6.217937 -18.223297 -29.980053 35.630814 1.241975 2.570680 0.030657 -0.007802 86596.900000 0 0 1
-7.243137 -17.870997 -31.117233 36.607619 1.185728 2.586821 0.035399 -0.011366 331190.000000 0 0 1
-7.086837 -16.661697 -31.844193 36.631790 1.168640 2.624591 0.032747 -0.011240 -160386.000000 0 0 1
-7.218037 -15.460697 -31.038783 35.419476 1.134007 2.638965 0.020617 -0.008551 -357223.000000 0 0 1
-7.492737 -14.207097 -31.843383 35.664881 1.085474 2.674430 0.015108 -0.007003 -241413.000000 0 0 1
-6.661737 -13.897297 -32.970613 36.394710 1.123801 2.704338 0.039466 -0.009237 -339067.000000 0 0 1
-7.259237 -13.036097 -33.855533 36.997750 1.062704 2.726478 0.044326 -0.010083 -711961.000000 0 0 1
-7.224137 -11.489297 -33.525133 36.168034 1.009490 2.756936 0.027693 -0.009686 233093.000000 0 0 1
-5.991737 -10.846697 -33.787603 35.988246 1.066111 2.790075 0.026503 -0.008430 -148377.000000 0 0 1
-5.915837 -10.422297 33.667530 35.736871 1.054531 0.341972 0.008020 -0.006694 240897.000000 0 0 1
-4.765437 -9.380997 33.608838 35.217418 1.100778 0.303406 0.011745 -0.006771 72080.300000 0 0 1
-4.767837 -8.739597 32.354380 33.851422 1.071380 0.298509 0.004723 -0.001595 -446822.000000 0 0 1
-3.758437 -7.804197 32.207500 33.351978 1.121983 0.262729 0.008527 -0.009636 -1604270.000000 0 0 1
-3.896137 -6.909497 30.949710 31.950049 1.057358 0.250895 0.014419 -0.006284 -1055210.000000 0 0 1
-4.924037 -6.010997 30.941830 31.902588 0.884474 0.246040 0.008718 -0.006889 -1418410.000000 0 0 1
-6.105637 -6.630097 30.533900 31.836395 0.826555 0.287034 0.000674 -0.003691 -2235400.000000 0 0 1
-7.254037 -5.711697 30.554810 31.919288 0.666999 0.293448 -0.005600 -0.002248 -1281820.000000 0 0 1
-8.427637 -6.302497 30.057880 31.846863 0.642115 0.336774 -0.001736 0.006806 -687998.000000 0 0 1
-9.532437 -5.426297 30.158570 32.091298 0.517499 0.348828 -0.004374 0.000722 757997.000000 0 0 1
-10.746237 -5.947297 29.293690 31.764324 0.505473 0.397014 -0.005511 0.001572 481747.000000 0 0 1
-10.428437 -5.845697 27.877310 30.332638 0.510910 0.405125 -0.010226 0.005249 495598.000000 0 0 1
-11.435137 -6.443297 27.074610 30.088419 0.513122 0.451405 -0.007330 -0.002073 19996.900000 0 0 1
-11.194137 -6.287897 25.553540 28.597723 0.511792 0.465602 -0.005205 -0.001882 343994.000000 0 0 1
-10.069937 -7.029097 25.068650 27.915033 0.609401 0.455516 0.002281 -0.001935 733457.000000 0 0 1
-9.444737 -6.512997 23.841470 26.458229 0.603705 0.448500 0.004091 -0.007827 296386.000000 0 0 1
-10.247437 -6.625797 22.518730 25.612582 0.573968 0.496604 0.007060 -0.013917 822698.000000 0 0 1
-11.514737 -5.945397 22.501230 25.966176 0.476626 0.522530 0.005309 -0.006408 200259.000000 0 0 1
-12.176837 -6.078997 21.307030 25.282783 0.463028 0.568427 0.007998 -0.007679 -483068.000000 0 0 1
-13.397537 -5.179497 21.191630 25.600906 0.368902 0.595677 0.005854 -0.000332 -390804.000000 0 0 1
-13.036737 -3.785697 21.248330 25.214670 0.282614 0.568523 -0.001178 0.006905 -967789.000000 0 0 1
-14.054637 -2.921697 20.960330 25.404814 0.204962 0.600499 -0.008148 0.003427 -928849.000000 0 0 1
-13.620437 -1.617697 20.321030 24.516883 0.118216 0.593732 -0.013606 0.003834 -319306.000000 0 1 0
-12.857737 -0.870697 21.247130 24.849951 0.067614 0.545213 -0.011441 0.000711 -19745.600000 0 1 0
-12.707137 0.551303 20.883330 24.451764 -0.043358 0.547051 -0.010580 -0.002932 -203351.000000 0 1 0
-12.197537 0.953303 19.473630 22.998065 -0.077997 0.560949 -0.000551 -0.013390 389174.000000 0 1 0
-13.128237 0.797303 18.370430 22.593340 -0.060657 0.621355 0.006428 -0.003537 473026.000000 0 1 0
-14.317537 1.580303 18.380130 23.352054 -0.109930 0.664722 -0.001967 0.004403 580132.000000 0 1 0
-15.439237 0.809303 17.592630 23.420625 -0.052371 0.720979 0.017565 0.012196 15952.100000 0 1 0
-15.880537 -0.348697 18.158630 24.125690 0.021954 0.718692 -0.004106 0.015785 -92636.400000 0 1 0
-16.747037 -0.977697 17.254630 24.065357 0.058314 0.771321 -0.004128 0.013016 -205712.000000 0 1 0
-16.690737 -2.535697 17.380530 24.230008 0.150769 0.770856 -0.007691 0.012066 -367611.000000 0 1 0
-17.340537 -2.978697 18.520730 25.545730 0.170116 0.759758 -0.006381 0.019657 -204404.000000 0 0 1
-17.109837 -4.321597 18.763630 25.758427 0.247405 0.754745 -0.006011 0.012873 -680133.000000 0 0 1
-17.750137 -4.819997 20.015430 27.183031 0.265153 0.743180 -0.013735 0.016089 -543822.000000 0 0 1
-17.086337 -4.490297 21.231030 27.619963 0.256989 0.694015 -0.012507 0.013247 113651.000000 0 0 1
-17.923537 -4.335697 22.380230 28.998727 0.237340 0.689183 -0.009695 0.012579 -77184.400000 0 0 1
-18.403437 -5.657597 23.060930 30.041661 0.298251 0.695659 0.003642 0.014369 -480230.000000 0 0 1
-17.469737 -6.428597 23.723630 30.155086 0.352606 0.665318 0.014609 0.007130 -566524.000000 0 0 1
-16.654737 -7.233597 22.895330 29.221591 0.409744 0.670506 -0.003019 0.009635 346986.000000 0 0 1
-15.329637 -7.638597 23.626730 29.181644 0.462278 0.627252 0.002352 0.004662 502494.000000 0 0 1
-15.596437 -8.657997 24.563660 30.357588 0.506771 0.628102 0.014430 -0.004513 671688.000000 0 0 1
-14.419537 -8.941297 25.333890 30.490586 0.555055 0.590117 0.029082 0.001127 758366.000000 0 0 1
-14.705737 -9.891897 26.536830 31.910997 0.592137 0.588834 0.024260 0.001284 208376.000000 0 0 1
-14.787237 -11.300297 26.200740 32.137795 0.652523 0.617614 0.026994 -0.006616 -34904.000000 0 0 1
-14.430537 -11.999997 27.377370 33.192781 0.693696 0.600950 0.027878 -0.008556 37279.400000 0 0 1
-14.431937 -13.525997 27.167000 33.604751 0.753006 0.629321 0.023574 -0.012877 -360945.000000 0 0 1
-15.737237 -14.041297 27.225480 34.439010 0.728508 0.659103 0.031225 -0.014153 -104260.000000 0 0 1
-15.919437 -15.439897 26.914690 34.874338 0.770108 0.689189 0.029927 -0.010539 120450.000000 0 0 1
-15.108837 -16.495897 27.800860 35.683041 0.829258 0.677558 0.023435 -0.005212 453350.000000 0 0 1
-13.715037 -16.407397 27.588730 34.906202 0.874542 0.659388 0.027968 -0.012327 -113394.000000 0 0 1
-12.979537 -17.422497 28.251830 35.639552 0.930511 0.655555 0.022653 -0.004550 -472994.000000 0 0 1
-11.511537 -17.325597 27.847580 34.758877 0.984348 0.641558 0.019190 -0.009689 -549796.000000 0 0 1
-10.666837 -18.321997 28.371080 35.417442 1.043577 0.641752 0.033320 -0.018004 415600.000000 0 0 1
-9.494437 -18.534397 27.556620 34.540346 1.097389 0.647143 0.022637 -0.012530 379193.000000 0 0 1
-8.377037 -19.124497 28.433150 35.275560 1.157944 0.633383 0.043127 -0.019235 -489283.000000 0 0 1
-8.424437 -20.511297 28.692470 36.262133 1.181081 0.657943 0.025166 -0.009129 -233499.000000 0 0 1
-7.402337 -20.924697 29.568740 36.972259 1.230775 0.643910 0.036696 -0.011969 -50936.100000 0 0 1
-7.733537 -22.207497 30.422450 38.451346 1.235690 0.658038 0.021125 -0.005842 109310.000000 0 0 1
-7.641037 -23.399397 29.638490 38.527358 1.255165 0.693076 0.015331 -0.011621 -986.619000 0 0 1
-8.088237 -24.475697 30.411440 39.866465 1.251634 0.703114 0.017221 -0.013062 -499426.000000 0 0 1
-8.173437 -25.755497 29.556850 40.046949 1.263502 0.740613 0.021866 -0.007119 -149743.000000 0 0 1
-9.241437 -25.717197 28.605750 39.560932 1.225818 0.762544 0.015852 -0.012468 364940.000000 0 0 1
-9.439437 -26.983097 28.071550 40.064978 1.234275 0.794487 0.015927 -0.013480 2123.030000 0 0 1
-10.837637 -27.250397 27.438710 40.161192 1.192269 0.818641 0.021252 -0.019387 275824.000000 0 0 1
-11.013037 -26.864097 26.079080 39.026723 1.181739 0.838961 0.024725 -0.018271 150968.000000 0 0 1
-11.274737 -25.480697 25.904070 38.044796 1.154212 0.821828 0.012295 -0.005986 -488691.000000 0 0 1
-11.375137 -25.004197 24.453900 36.777668 1.143851 0.843421 0.028010 -0.023592 -104896.000000 0 0 1
-12.639737 -25.261997 23.875480 36.986078 1.106872 0.869084 0.022360 -0.019442 259816.000000 0 0 1
-12.688037 -24.691797 22.562830 35.773628 1.096125 0.888327 0.028784 -0.024813 271166.000000 0 0 1
-14.074337 -24.900397 21.884730 36.014694 1.056339 0.917684 0.027469 -0.024270 185585.000000 0 0 1
-14.486737 -26.236797 21.563730 36.921938 1.066301 0.947105 0.035879 -0.027519 -608213.000000 0 0 1
-15.495937 -26.044697 20.646030 36.670272 1.034080 0.972763 0.040142 -0.030720 -700683.000000 0 0 1
-15.998637 -27.459397 20.236030 37.675878 1.043248 1.003791 0.051113 -0.033200 46045.400000 0 0 1
-15.143537 -28.042497 19.283230 37.249850 1.075647 1.026668 0.047625 -0.027918 163656.000000 0 0 1
-15.486137 -29.415397 19.107230 38.342825 1.086203 1.049129 0.064326 -0.023692 298401.000000 0 0 1
-14.478437 -30.095597 18.145630 38.008341 1.122398 1.073090 0.063759 -0.023715 117495.000000 0 0 1
-14.712937 -29.831597 16.772330 37.251923 1.112604 1.103761 0.057854 -0.026337 -880554.000000 0 0 1
-13.507937 -29.726897 16.113730 36.411606 1.144288 1.112363 0.060663 -0.028564 -749505.000000 0 0 1
-13.695237 -29.263097 14.628530 35.466636 1.133072 1.145645 0.048938 -0.022308 -110353.000000 0 0 1
-13.945537 -27.862597 14.618230 34.416493 1.106740 1.132116 0.047797 -0.021512 -132629.000000 0 0 1
-14.239637 -27.326897 13.364030 33.587555 1.090423 1.161584 0.049392 -0.009204 -117518.000000 0 0 1
-13.194637 -27.369897 12.208130 32.745200 1.121583 1.188748 0.039349 -0.009669 110651.000000 0 0 1
-13.567637 -26.657597 11.040530 31.884190 1.100007 1.217204 0.028166 0.001605 -62138.000000 0 0 1
-12.585437 -26.806697 10.025930 31.265180 1.131854 1.244355 0.029523 0.003295 28475.300000 0 0 1
-12.828337 -26.145497 8.647630 30.379841 1.114655 1.282155 0.032106 0.002507 148696.000000 0 0 1
-13.947437 -26.681597 7.946430 31.138150 1.089126 1.312743 0.032363 -0.006346 151159.000000 0 0 1
-14.171537 -25.876497 6.810830 30.278919 1.069751 1.343919 0.028700 -0.004567 34944.200000 0 0 1
-15.252937 -26.261997 5.801930 30.919362 1.044615 1.382030 0.036115 -0.005888 -104165.000000 0 0 1
-14.799137 -27.359997 5.002830 31.505749 1.074963 1.411330 0.040680 -0.006953 33828.100000 0 0 1
-15.641237 -27.650697 3.912030 32.008019 1.056000 1.448270 0.040437 -0.004292 -354425.000000 0 0 1
-15.291137 -28.878097 3.122630 32.825511 1.083823 1.475524 0.030577 0.003590 -351452.000000 0 0 1
-14.064337 -28.819097 2.435730 32.160204 1.116777 1.494986 0.040009 0.007821 -325424.000000 0 0 1
-13.638737 -30.090897 2.022430 33.099357 1.145242 1.509656 0.019962 0.006787 1187580.000000 0 0 1
-12.232137 -29.989197 1.264330 32.412584 1.183511 1.531779 0.009540 0.004483 1211820.000000 0 0 1
-12.141437 -29.424197 -0.035770 31.830789 1.179446 1.571920 0.015074 0.013215 -228108.000000 0 0 1
-12.472537 -28.068197 -0.102970 30.714792 1.152638 1.574149 0.011700 0.008426 -397407.000000 0 0 1
-12.140237 -27.384897 -1.479870 29.991798 1.153512 1.620159 0.018131 0.003506 -937179.000000 0 0 1
-10.791037 -27.377797 -1.771670 29.480995 1.195341 1.630928 0.021191 0.004141 -1220670.000000 0 0 1
-10.467337 -26.540397 -2.885270 28.675470 1.195133 1.671585 0.039555 0.000451 435954.000000 0 0 1
-8.972637 -26.623697 -3.273070 28.285021 1.245734 1.686774 0.027338 -0.004485 274906.000000 0 0 1
-8.584137 -25.802197 -4.356470 27.539419 1.249625 1.729654 0.022496 -0.007052 -1658090.000000 0 0 1
-7.376837 -26.206597 -4.838770 27.651711 1.296409 1.746692 0.018503 0.004473 -938064.000000 0 0 1
-6.627337 -25.151597 -5.726370 26.632982 1.313157 1.787499 0.007959 0.002223 -125455.000000 0 0 1
-6.944237 -24.863697 -7.053570 26.761515 1.298444 1.837519 0.018065 -0.001970 -507132.000000 0 0 1
-6.237137 -23.823897 -7.681570 25.797024 1.314741 1.873152 0.010694 -0.002252 -474209.000000 0 0 1
-6.691537 -23.730697 -9.167270 26.305160 1.295954 1.926763 0.018792 -0.003882 127661.000000 0 0 1
-6.034437 -24.726497 -9.993970 27.343985 1.331428 1.944956 -0.004727 -0.001259 -120.599000 0 0 1
-6.155837 -24.627497 -11.432270 27.840702 1.325857 1.993943 -0.012189 0.008527 -169775.000000 0 0 1
-7.560837 -24.954697 -11.983170 28.696681 1.276606 2.001577 -0.010660 0.006109 84325.700000 0 0 1
-7.694037 -24.959797 -13.380870 29.346845 1.271781 2.044242 -0.005546 0.009138 207351.000000 0 0 1
-8.953937 -25.503697 -13.765070 30.332964 1.233156 2.041820 -0.002958 0.003462 -267415.000000 0 0 1
-9.051137 -25.612197 -15.302070 31.177893 1.231103 2.083803 0.000738 0.001205 604966.000000 0 0 1
-8.225737 -26.536897 -16.075070 32.097936 1.270215 2.095334 -0.001356 0.001686 472291.000000 0 0 1
-6.828537 -26.403597 -15.932670 31.585262 1.317720 2.099522 -0.001255 0.003069 -135145.000000 0 0 1
-5.985437 -27.294497 -16.888670 32.650301 1.354922 2.114442 -0.011310 -0.001116 -95143.400000 0 0 1
-5.804737 -26.651997 -18.100970 32.736356 1.356348 2.156675 0.010161 -0.004618 -43880.700000 0 0 1
-5.067437 -27.401797 -19.025070 33.741527 1.387931 2.169833 0.000890 -0.009539 -462233.000000 0 0 1
-24.538037 14.846357 -5.830253 29.266388 -0.544113 1.771351 0.023604 -0.020929 -43334.400000 0 0 1
-24.835837 13.654257 -5.216453 28.817858 -0.502675 1.752814 0.019251 -0.014365 426598.000000 0 0 1
-23.650337 12.871257 -5.192153 27.422001 -0.498404 1.761289 0.031336 -0.013765 -255193.000000 0 0 1
-23.779437 11.400757 -4.713053 26.789023 -0.447063 1.747649 0.044381 -0.019567 -260325.000000 0 0 1
-24.260637 10.414457 -5.607453 26.990424 -0.405485 1.780078 0.031118 -0.012796 393836.000000 0 0 1
-25.667697 10.524957 -5.807453 28.343111 -0.389137 1.777156 0.028215 -0.012395 80917.400000 0 0 1
-25.988607 9.902257 -7.197453 28.727439 -0.364041 1.824037 0.038104 -0.004430 -286537.000000 0 0 1
-25.764377 10.887957 -8.167653 29.138657 -0.399834 1.854906 0.056685 0.005928 64271.000000 0 0 1
-25.905287 10.329257 -9.456953 29.448454 -0.379412 1.897725 0.051631 0.003337 -179943.000000 0 0 1
-26.215517 11.269757 -10.618453 30.446877 -0.406004 1.927037 0.038404 -0.002137 442234.000000 0 0 1
-25.136217 12.167757 -10.924853 29.987266 -0.450825 1.943695 0.041029 -0.002547 884482.000000 0 0 1
-25.528547 12.985357 -12.007153 31.056367 -0.470552 1.967765 0.043357 -0.007052 -239337.000000 0 0 1
-24.492637 14.059757 -12.331153 30.815960 -0.521113 1.982482 0.038860 -0.003537 -388595.000000 0 0 1
-24.393437 15.090557 -11.354353 30.849409 -0.554007 1.947715 0.036488 0.003160 231684.000000 0 0 1
-23.880037 16.277357 -11.927353 31.264521 -0.598291 1.962213 0.031877 0.000866 -53659.900000 0 0 1
-23.862237 17.631657 -11.191453 31.710098 -0.636355 1.931497 0.035477 -0.000648 434367.000000 0 0 1
-22.833537 17.642357 -10.177653 30.597513 -0.657841 1.909887 0.016613 0.005802 694299.000000 0 0 1
-22.761137 18.947557 -9.604153 31.133889 -0.694218 1.884390 -0.012267 0.009685 -24553.200000 0 0 1
-21.760337 19.108657 -8.432253 30.162161 -0.720607 1.854136 -0.015100 0.017549 -185624.000000 0 0 1
-22.014037 18.437357 -7.229153 29.611056 -0.697208 1.817426 -0.002492 0.007098 101372.000000 0 0 1
-22.948537 19.122357 -6.406153 30.550592 -0.694702 1.782054 -0.002649 -0.000072 -205286.000000 0 0 1
-23.258037 18.419157 -5.096553 30.102766 -0.669812 1.740921 -0.000247 0.001269 323797.000000 0 0 1
-22.178637 18.469257 -4.165053 29.160814 -0.694394 1.714117 0.004115 -0.014419 549526.000000 0 0 1
-22.513337 17.696557 -3.033853 28.796228 -0.666175 1.676348 -0.001424 -0.013714 -457826.000000 0 0 1
-21.316537 17.563257 -2.105953 27.700141 -0.689161 1.646897 0.012253 -0.030180 -874885.000000 0 0 1
-20.948637 18.742757 -1.456453 28.147071 -0.729879 1.622564 0.010812 -0.027668 215090.000000 0 0 1
-19.913537 18.389957 -0.548153 27.111620 -0.745643 1.591016 0.055265 -0.046442 286348.000000 0 0 1
-19.129237 19.613757 -0.015953 27.397581 -0.797903 1.571379 0.052874 -0.043849 1321.310000 0 0 1
-20.012037 20.308457 0.851547 28.524379 -0.792750 1.540939 0.043624 -0.040025 329842.000000 0 0 1
-19.773537 21.712557 0.907747 29.381149 -0.832103 1.539896 0.049206 -0.030446 122188.000000 0 0 1
-20.788837 22.484457 1.797347 30.675023 -0.824562 1.512170 0.026201 -0.020029 24358.300000 0 0 1
-20.609437 22.066457 3.137847 30.356606 -0.819526 1.467245 0.048284 -0.025662 576294.000000 0 0 1
-21.777437 22.299557 3.909747 31.413582 -0.797243 1.446012 0.025104 -0.021420 139121.000000 0 0 1
-21.490837 21.801657 5.330747 31.073867 -0.792578 1.398393 0.032664 -0.021273 -219886.000000 0 0 1
-20.417137 22.547157 5.877047 30.980211 -0.834934 1.379936 0.026236 -0.010074 -95045.700000 0 0 1
-19.869837 21.924357 7.001947 30.405840 -0.834517 1.338428 0.033913 -0.003635 -514025.000000 0 0 1
-20.619237 21.693657 8.328247 31.066499 -0.810785 1.299399 0.020108 -0.015761 -1539930.000000 0 0 1
-21.746137 20.901457 8.193347 31.255341 -0.765595 1.305555 0.018887 -0.009844 -132191.000000 0 0 1
-22.175937 20.281657 9.394247 31.486023 -0.740812 1.267820 0.020019 -0.010195 -136070.000000 0 0 1
-22.522137 21.158457 10.639747 32.682276 -0.754189 1.239202 0.022110 -0.013896 -546352.000000 0 0 1
-23.595437 22.025657 10.292247 33.879264 -0.751003 1.262126 0.030763 -0.013171 490239.000000 0 0 1
-24.208337 22.638357 11.374047 35.041514 -0.751898 1.240220 0.038353 -0.012302 397060.000000 0 0 1
-25.141487 23.863357 11.062947 36.386027 -0.759322 1.261862 0.050483 -0.020482 724318.000000 0 0 1
-26.001827 24.260957 12.122247 37.571770 -0.750777 1.242276 0.047480 -0.022766 162795.000000 0 0 1
-26.765127 25.415357 11.863147 38.769146 -0.759537 1.259813 0.045462 -0.021198 107871.000000 0 0 1
-27.258237 26.104457 13.148647 39.966750 -0.763780 1.235563 0.052786 -0.026514 104766.000000 0 0 1
-26.195277 26.271457 14.054947 39.672705 -0.786850 1.208660 0.034321 -0.019716 21827.000000 0 0 1
-26.741337 26.499557 15.330947 40.649275 -0.780857 1.184077 0.034947 -0.009710 79371.600000 0 0 1
-25.681617 26.519757 16.436847 40.410554 -0.801453 1.151907 0.035677 -0.011691 -169303.000000 0 0 1
-25.329527 25.289257 17.006247 39.627565 -0.784603 1.127243 0.043050 -0.017897 56502.400000 0 0 1
-24.375137 25.552957 18.021247 39.646768 -0.808984 1.098935 0.034762 -0.013124 74753.700000 0 0 1
-23.993037 24.304257 18.851947 39.009725 -0.791842 1.066419 0.047824 -0.004754 -484172.000000 0 0 1
-22.968737 24.542457 19.766047 38.994765 -0.818509 1.039224 0.041134 -0.008055 -143245.000000 0 0 1
-22.419937 23.282557 20.063847 38.043251 -0.804271 1.015264 0.048953 -0.007040 -530234.000000 0 0 1
-20.932837 23.201357 20.419347 37.328760 -0.836753 0.992003 0.046329 -0.011825 -478819.000000 0 0 1
-19.994737 23.511957 19.384147 36.446492 -0.866066 1.010010 0.038560 -0.018192 186015.000000 0 0 1
-18.732037 22.934557 19.575847 35.497843 -0.885919 0.986676 0.035859 -0.015632 -572032.000000 0 0 1
-18.572237 21.374557 19.465047 34.361137 -0.855435 0.968563 0.040052 0.006214 -853935.000000 0 0 1
-19.019737 20.527457 20.500047 34.689751 -0.823504 0.938555 0.029201 0.004065 -552570.000000 0 0 1
-18.154037 20.406157 21.540647 34.784763 -0.843737 0.903002 0.012133 0.010656 -890941.000000 0 0 1
-18.882737 20.093157 22.859847 35.817109 -0.816444 0.878589 0.011376 0.005631 -68472.900000 0 0 1
-19.711637 21.225157 23.136547 37.072304 -0.822353 0.896827 0.020485 0.003689 340099.000000 0 0 1
-20.320837 21.147657 24.417647 38.162564 -0.805334 0.876516 0.029432 0.012139 -279964.000000 0 0 1
-21.434537 22.132657 24.749047 39.519732 -0.801421 0.894068 0.033384 0.004693 -925091.000000 0 0 1
-21.053137 23.517757 24.897947 40.202329 -0.840639 0.902925 0.043513 -0.005724 -202106.000000 0 0 1
-22.027437 24.524057 25.020547 41.384358 -0.838978 0.921546 0.038809 -0.006139 -349226.000000 0 0 1
-23.042037 24.720957 23.859347 41.368220 -0.820535 0.956045 0.035962 -0.005522 221000.000000 0 0 1
-24.025437 23.687157 23.848147 41.316306 -0.778308 0.955490 0.028385 -0.004694 -24762.100000 0 0 1
-24.835337 23.888757 22.717447 41.274073 -0.765973 0.987947 0.034567 0.004030 75935.800000 0 0 1
-25.951737 22.841957 22.411047 41.200761 -0.721751 0.995662 0.037240 0.012509 416656.000000 0 0 1
-27.193957 23.078357 23.045447 42.464273 -0.703714 0.997146 0.009838 -0.000357 339449.000000 0 0 1
-28.165247 22.158557 22.539747 42.335836 -0.666599 1.009359 0.012093 0.001712 -11826.500000 0 0 1
-29.611197 22.592357 22.783847 43.661668 -0.651748 1.021805 0.027315 0.004253 -897733.000000 0 0 1
-30.136597 23.419757 21.769847 43.938886 -0.660633 1.052435 0.009541 0.001870 102785.000000 0 0 1
-31.482287 23.836157 21.956247 45.181562 -0.648048 1.063340 -0.001986 0.000151 362671.000000 0 0 1
-32.392267 22.839057 21.165947 44.931935 -0.614126 1.080296 0.003199 -0.006274 -1106210.000000 0 0 1
-32.408877 21.497857 21.673447 44.522258 -0.585691 1.062373 0.008424 -0.001750 280085.000000 0 0 1
-32.889917 20.494657 20.773047 43.969274 -0.557253 1.078734 0.013380 0.006160 599678.000000 0 0 1
-34.446858 20.479257 20.598447 45.058651 -0.536378 1.096011 0.013684 -0.001842 230353.000000 0 0 1
-34.850954 19.499157 19.706247 44.532486 -0.510109 1.112396 0.020626 0.006022 -387178.000000 0 0 1
34.820171 19.576057 19.517747 44.459069 0.512165 1.116306 0.024746 -0.005048 -335070.000000 0 0 1
34.359351 18.743657 18.270947 43.193949 0.499396 1.134045 0.051818 -0.011901 -122165.000000 0 0 1
34.653661 17.339157 18.432247 42.910026 0.463932 1.126796 0.058560 -0.007692 336763.000000 0 0 1
34.016131 16.596557 17.442147 41.674589 0.453923 1.138968 0.061672 -0.011569 -68689.100000 0 0 1
34.207301 15.090257 17.544947 41.299885 0.415463 1.132035 0.056424 -0.014473 31671.500000 0 0 1
33.334391 14.533857 16.583547 39.967845 0.411152 1.142939 0.061183 -0.023118 221522.000000 0 0 1
33.497091 13.105457 16.541447 39.590751 0.372933 1.139762 0.041560 -0.028312 -71903.200000 0 0 1
32.587261 12.372757 15.567447 38.175386 0.362868 1.150767 0.050810 -0.032807 -350910.000000 0 0 1
33.023791 12.662557 14.241447 38.127811 0.366147 1.187997 0.067481 -0.035367 258500.000000 0 0 1
32.104541 12.228457 13.267947 36.827641 0.363929 1.202237 0.067201 -0.035803 -447292.000000 0 0 1
32.267311 12.720957 11.820847 36.643342 0.375528 1.242330 0.072547 -0.030458 -28815.200000 0 0 1
33.440741 12.201557 11.205847 37.319327 0.349861 1.265821 0.063642 -0.036918 372389.000000 0 0 1
33.572131 12.675257 9.894647 37.224376 0.361007 1.301751 0.053571 -0.034649 286000.000000 0 0 1
35.054896 12.639757 9.397847 38.430831 0.346060 1.323752 0.061334 -0.026555 -32814.900000 0 0 1
-35.513830 11.305157 9.369447 38.429484 -0.308188 1.324505 0.065377 -0.026743 -236581.000000 0 0 1
-34.125771 11.265957 9.175247 37.090096 -0.318865 1.320824 0.078010 -0.026485 -530326.000000 0 0 1
-33.641587 11.382957 7.701147 36.340553 -0.326267 1.357261 0.105978 -0.041342 -666696.000000 0 0 1
-33.909807 12.662757 7.111547 36.888949 -0.357389 1.376799 0.098826 -0.043170 145278.000000 0 0 1
-33.834297 12.586257 5.712147 36.548627 -0.356135 1.413864 0.086308 -0.040933 -174022.000000 0 0 1
-35.084824 13.215157 5.092647 37.835437 -0.360228 1.435787 0.065403 -0.044379 -1106170.000000 0 0 1
34.781981 12.472657 5.162547 37.309587 0.344312 1.431980 0.053399 -0.040859 138815.000000 0 0 1
33.622131 13.266657 4.925547 36.478938 0.375826 1.435358 0.054511 -0.025616 266036.000000 0 0 1
33.272741 14.253957 6.078347 36.704181 0.404745 1.404426 0.037233 -0.025594 -983835.000000 0 0 1
32.230371 15.183857 5.711147 36.082732 0.440265 1.411849 0.009689 -0.021851 1090730.000000 0 0 1
31.469101 15.790757 6.768747 35.853428 0.465075 1.380867 0.025344 -0.018741 678488.000000 0 0 1
30.299461 14.945457 7.342647 34.573668 0.458240 1.356790 0.031183 -0.021942 -437683.000000 0 0 1
30.770891 13.972757 8.250447 34.787290 0.426250 1.331346 0.021941 -0.019169 -4769.000000 0 0 1
29.991571 12.821357 8.388247 33.678543 0.403985 1.319079 0.038877 -0.019788 -921742.000000 0 0 1
30.384251 11.754257 7.393247 33.406966 0.369122 1.347640 0.037553 -0.021156 83145.600000 0 0 1
29.822731 12.023157 6.099547 32.728521 0.383222 1.383332 0.017840 -0.023760 656588.000000 0 0 1
30.458201 11.146857 5.172547 32.843716 0.350833 1.412648 0.044704 -0.031172 -246295.000000 0 0 1
30.108541 11.409057 3.695247 32.409037 0.362212 1.456529 0.028514 -0.034492 -399625.000000 0 0 1
28.818121 10.926157 3.401847 31.007057 0.362397 1.460863 0.009215 -0.019488 122149.000000 0 0 1
28.423901 11.226057 2.062447 30.629989 0.376146 1.503411 0.016983 -0.020961 386768.000000 0 0 1
26.914111 10.998657 1.745747 29.127092 0.387947 1.510825 0.030731 -0.005896 249381.000000 0 0 1
26.522011 9.772257 1.390147 28.299233 0.353023 1.521653 0.024543 -0.018321 715899.000000 0 0 1
25.102571 9.542357 1.434747 26.893385 0.363265 1.517422 0.023922 -0.014780 595693.000000 0 0 1
24.742071 8.044057 1.577447 26.064637 0.314337 1.510239 0.026274 -0.015047 -102143.000000 0 0 1
25.093971 7.379757 2.790447 26.305034 0.286021 1.464516 0.033698 -0.009170 728551.000000 0 0 1
26.480691 7.047757 2.844147 27.549720 0.260117 1.467375 0.037230 -0.017371 121496.000000 0 0 1
26.776121 6.401957 4.173847 27.845408 0.234686 1.420336 0.035806 -0.017687 95065.000000 0 0 1
28.118861 5.890157 4.237747 29.040021 0.206488 1.424346 0.050515 -0.030333 1069970.000000 0 0 1
28.390871 5.357357 5.524347 29.415324 0.186507 1.381869 0.041936 -0.015870 689730.000000 0 0 1
29.923541 5.255957 5.873947 30.944251 0.173873 1.379814 0.035620 -0.022721 593383.000000 0 0 1
30.412541 6.509857 6.240847 31.721429 0.210870 1.372765 0.045085 -0.020165 -499945.000000 0 0 1
31.759901 6.334757 6.611547 33.053487 0.196874 1.369412 0.043854 -0.016405 -473705.000000 0 0 1
32.295021 7.613757 7.214347 33.955625 0.231529 1.356701 0.029845 -0.018882 -207636.000000 0 0 1
31.757151 7.865257 8.486947 33.799515 0.242783 1.316983 0.020654 -0.019970 -178209.000000 0 0 1
32.385001 8.975757 9.041547 34.800892 0.270371 1.307973 0.028317 -0.025990 -164018.000000 0 0 1
31.901491 9.230857 10.489147 34.827232 0.281662 1.264870 0.033013 -0.027459 -36235.300000 0 0 1
30.517851 9.518457 10.655747 33.696961 0.302336 1.249051 0.033297 -0.026570 312662.000000 0 0 1
30.222951 9.197557 11.970447 33.783331 0.295419 1.208599 0.032711 -0.028608 -56658.200000 0 0 1
28.720721 9.418357 12.286147 32.627208 0.316879 1.184715 0.023269 -0.033133 -35394.500000 0 0 1
28.219021 10.718557 12.574247 32.700341 0.363002 1.176098 0.035238 -0.030046 315106.000000 0 0 1
28.160811 11.762457 11.565047 32.636437 0.395662 1.208567 0.032183 -0.032661 -250962.000000 0 0 1
27.143811 11.578357 10.404347 31.290498 0.403188 1.231834 0.026755 -0.032115 -190001.000000 0 0 1
27.138211 12.665457 9.548947 31.433719 0.436656 1.262138 0.013568 -0.014625 359378.000000 0 0 1
26.106791 12.564857 8.552747 30.209099 0.448565 1.283753 0.014955 -0.019366 140755.000000 0 0 1
26.181291 13.653257 7.439347 30.450211 0.480691 1.323986 0.002687 -0.006295 -68223.100000 0 0 1
25.821871 14.917857 7.971247 30.868305 0.523877 1.309603 -0.011372 0.003390 264268.000000 0 0 1
26.436311 15.999357 7.319247 31.755777 0.544237 1.338220 -0.006258 0.010553 -755691.000000 0 0 1
26.083471 17.351757 7.903247 32.309321 0.587014 1.323677 -0.006193 0.011401 745843.000000 0 0 1
24.728471 17.826457 7.987647 31.513209 0.624608 1.314531 0.001316 0.016522 854408.000000 0 0 1
23.889871 17.212757 8.956547 30.777015 0.624355 1.275510 0.017757 0.011684 330997.000000 0 0 1
22.605571 18.127257 9.046847 30.355473 0.675894 1.268168 0.023621 0.004539 451953.000000 0 0 1
21.900371 18.311357 7.834647 29.602597 0.696381 1.302944 0.031268 -0.004587 -92064.200000 0 0 1
21.007271 19.376757 7.828547 29.631913 0.745045 1.303429 0.071122 -0.015341 -276489.000000 0 0 1
20.379271 19.661957 6.473847 29.048544 0.767486 1.346046 0.059783 -0.014970 -156726.000000 0 0 1
21.157771 20.416857 5.599747 29.930862 0.767579 1.382598 0.017917 -0.000568 -425159.000000 0 0 1
20.298071 20.977457 4.658147 29.559495 0.801856 1.412551 0.039979 -0.009996 -139348.000000 0 0 1
17.134763 17.599357 33.314303 41.390582 0.798773 0.635329 0.048688 0.003270 289591.000000 0 0 1
16.518663 18.370757 32.238400 40.616073 0.838433 0.653871 0.027158 0.001192 365815.000000 0 0 1
16.335263 17.495957 31.194100 39.319476 0.819693 0.654504 0.032550 0.001289 109432.000000 0 0 1
15.777963 18.079957 29.874960 38.318953 0.853284 0.676707 0.024183 0.001902 343621.000000 0 0 1
16.851163 18.555357 29.090650 38.399595 0.833493 0.711203 0.020243 0.008925 -64242.800000 0 0 1
16.373463 18.741357 27.757650 37.280234 0.852729 0.730910 0.025718 0.001780 154150.000000 0 0 1
17.490863 19.081757 26.751910 37.225105 0.828870 0.768934 0.015400 0.009008 -297466.000000 0 0 1
18.145863 20.275557 27.045540 38.364460 0.840771 0.788425 0.014177 0.009943 -824768.000000 0 0 1
19.098463 20.518057 26.106430 38.305191 0.821216 0.820934 0.010048 0.017802 -553674.000000 0 0 1
19.925063 21.851257 26.361420 39.615780 0.831473 0.842730 0.025137 0.007194 -150761.000000 0 0 1
19.275963 23.029257 26.019620 39.735753 0.873886 0.856857 0.014597 0.000525 -295556.000000 0 0 1
20.048463 24.199457 26.243190 40.942149 0.878937 0.875019 0.028321 -0.001518 -138323.000000 0 0 1
19.312663 25.576457 26.171200 41.377117 0.924042 0.886014 0.028929 -0.004846 -47681.400000 0 0 1
19.105663 25.993757 24.838800 40.714466 0.936958 0.914643 0.026148 -0.004508 603093.000000 0 0 1
18.176063 27.093857 24.744530 40.947993 0.979899 0.921920 0.047619 -0.019147 39583.600000 0 0 1
18.238163 27.945357 23.404030 40.759320 0.992570 0.959169 0.039845 -0.021225 -192719.000000 0 0 1
19.499263 28.590157 23.328630 41.735396 0.972235 0.977659 0.040199 -0.019213 179010.000000 0 0 1
19.503163 29.528157 22.293730 41.824584 0.987079 1.008619 0.028711 -0.015829 -774717.000000 0 0 1
20.802863 30.265757 22.140230 42.883154 0.968618 1.028281 0.037421 -0.014961 -1075120.000000 0 0 1
21.826363 29.542257 21.501830 42.561294 0.934490 1.041186 0.029580 -0.015591 -240459.000000 0 0 1
22.832963 30.418757 21.026930 43.460059 0.926898 1.065780 0.035118 -0.022714 -62724.500000 0 0 1
22.653263 30.684657 19.511230 42.841645 0.934851 1.097945 0.033571 -0.021663 -641800.000000 0 0 1
21.638463 31.528557 19.086530 42.738374 0.969315 1.107846 0.010216 -0.011287 -250107.000000 0 0 1
21.715863 31.817957 17.706530 42.396725 0.971910 1.139951 0.016558 -0.009762 -379369.000000 0 0 1
21.073563 33.142757 17.358930 42.940305 1.004438 1.154630 0.028658 -0.003691 -881138.000000 0 0 1
21.834363 34.284557 17.636130 44.308050 1.003716 1.161423 0.022787 -0.006713 36509.800000 0 0 1
22.112763 -33.867197 16.490930 43.679653 -0.992367 1.183655 0.021332 -0.008798 395374.000000 0 0 1
23.196963 -34.359597 15.434330 44.236857 -0.976962 1.214397 0.009619 -0.004132 253883.000000 0 0 1
22.853463 33.372357 14.740530 43.049717 0.970343 1.221319 0.025868 -0.013489 193855.000000 0 0 1
21.973663 33.548557 13.641330 42.360753 0.990928 1.242926 0.010059 -0.011413 46712.400000 0 0 1
21.483763 32.281457 12.922030 40.873260 0.983592 1.249129 0.015108 -0.025311 408349.000000 0 0 1
22.590263 31.601757 12.292430 40.744261 0.950179 1.264324 0.030243 -0.035874 502021.000000 0 0 1
22.189863 30.528357 11.503230 39.454973 0.942270 1.274946 0.033354 -0.032835 -120715.000000 0 0 1
23.310963 29.766957 10.657730 39.281801 0.906436 1.296038 0.030949 -0.028435 1683230.000000 0 0 1
24.429963 29.109857 11.296030 39.646023 0.872586 1.281871 0.031911 -0.023778 874895.000000 0 0 1
25.281863 29.939557 12.040830 40.994283 0.869545 1.272680 0.036867 -0.023197 -627480.000000 0 0 1
26.745063 29.481457 12.231630 41.642135 0.834027 1.272668 0.041850 -0.021314 285193.000000 0 0 1
26.891763 28.355757 13.097730 41.216094 0.811891 1.247407 0.048397 -0.011991 -305076.000000 0 0 1
28.157063 28.365557 13.704530 42.252090 0.789087 1.240470 0.047359 0.000745 -280424.000000 0 0 1
28.476463 27.107257 14.514830 41.909338 0.760770 1.217131 0.039181 -0.006750 524887.000000 0 0 1
29.707263 27.284857 15.236030 43.117531 0.742920 1.209635 0.016081 -0.015754 431053.000000 0 0 1
29.943563 26.258157 16.155830 42.978118 0.719917 1.185420 0.009593 -0.016390 462974.000000 0 0 1
31.197263 26.444157 17.072730 44.317499 0.703124 1.175332 0.018234 -0.012724 -192711.000000 0 0 1
32.405963 26.471457 16.421330 44.950467 0.684943 1.196819 0.021752 -0.009920 -1697260.000000 0 0 1
33.463663 26.657657 17.274330 46.139461 0.672674 1.187053 0.025349 -0.005950 -596654.000000 0 0 1
34.754863 27.121457 16.584430 47.101138 0.662653 1.210980 0.027915 -0.017941 -170460.000000 0 0 1
34.671463 28.403957 16.012630 47.595162 0.686358 1.227669 0.027162 -0.014038 153133.000000 0 0 1
-35.225246 28.744257 15.249630 47.954160 -0.684429 1.247173 0.030881 -0.019409 287128.000000 0 0 1
-35.425046 29.964557 14.355830 48.568492 -0.702084 1.270735 0.017166 -0.015254 65749.000000 0 0 1
35.333663 31.163957 15.105030 49.475467 0.722776 1.260539 0.020786 -0.022233 141707.000000 0 0 1
35.206363 32.320657 14.308530 49.888344 0.742690 1.279900 0.027683 -0.015389 -58620.300000 0 0 1
34.109663 33.279857 14.845430 49.913973 0.773085 1.268807 0.019224 -0.012139 -491796.000000 0 0 1
34.035463 34.383657 13.930330 50.345831 0.790487 1.290445 -0.002064 -0.020906 374160.000000 0 0 1
32.879263 -33.764097 14.047130 49.177047 -0.798675 1.281118 -0.006333 -0.004406 -130451.000000 0 0 1
31.562963 -34.262097 13.441130 48.484800 -0.826380 1.289893 0.002409 -0.002090 -454635.000000 0 0 1
31.057063 33.647657 14.273430 47.962868 0.825414 1.268626 0.007832 -0.010737 -696447.000000 0 0 1
30.097263 32.911657 13.613530 46.629932 0.830035 1.274533 0.013586 -0.008393 -1178190.000000 0 0 1
29.544163 31.766557 14.441430 45.722277 0.821630 1.249443 0.027951 -0.013946 -575790.000000 0 0 1
28.676563 32.160857 15.448330 45.774631 0.842608 1.226551 0.039394 -0.012452 -172296.000000 0 0 1
28.091763 31.114457 16.204530 44.942667 0.836408 1.201928 0.041701 -0.019562 -149920.000000 0 0 1
27.119763 31.583757 17.271130 45.070025 0.861295 1.177531 0.032928 -0.018066 -283999.000000 0 0 1
26.977663 30.641357 18.313230 44.744401 0.848897 1.149126 0.020668 -0.006028 -175116.000000 0 0 1
27.782963 30.922957 19.431230 45.887852 0.838834 1.133546 0.024437 -0.008353 -167050.000000 0 0 1
28.025563 29.787657 20.431530 45.718531 0.815868 1.107501 0.027610 -0.004590 -616921.000000 0 0 1
26.836763 29.393857 21.012330 45.008096 0.830842 1.085063 0.024853 -0.012795 -784385.000000 0 0 1
27.047363 28.585357 22.154430 45.160837 0.813037 1.058056 0.008491 -0.003908 16052.400000 0 0 1
25.877763 28.371457 23.141730 44.834561 0.831333 1.028437 0.017468 -0.009870 270518.000000 0 0 1
24.752063 27.693057 22.605630 43.480852 0.841417 1.024064 0.031962 -0.007642 225422.000000 0 0 1
23.585663 27.646657 23.396930 43.220799 0.864499 0.998772 0.039968 -0.012406 89967.000000 0 0 1
23.503963 26.521557 24.498640 43.081465 0.845646 0.965922 0.027242 -0.018689 -405820.000000 0 0 1
24.427863 26.612257 25.558160 44.251014 0.828170 0.955045 0.018334 -0.011177 -21570.100000 0 0 1
24.007963 25.750657 26.603600 44.127431 0.820407 0.923689 0.043246 -0.014127 -482688.000000 0 0 1
25.139363 25.246157 27.568330 45.048516 0.787518 0.912248 0.056143 -0.022278 394279.000000 0 0 1
25.734663 26.353757 28.285060 46.441770 0.797283 0.915942 0.066340 -0.023419 1106610.000000 0 0 1
26.592363 27.243357 27.491470 46.958867 0.797490 0.945377 0.045889 -0.008669 -547847.000000 0 0 1
26.915363 28.571557 28.285180 48.382042 0.815238 0.946383 0.020241 -0.003628 -344117.000000 0 0 1
27.605163 28.394757 29.496520 49.379671 0.799497 0.930614 0.022817 -0.000976 116593.000000 0 0 1
27.769863 29.578857 30.200630 50.578178 0.816931 0.930905 0.010428 -0.004173 282186.000000 0 0 1
29.278463 29.890957 30.416100 51.728491 0.795749 0.942218 -0.011050 -0.001771 239381.000000 0 0 1
29.830563 30.250657 29.167640 51.533639 0.792390 0.969160 -0.020054 -0.000502 -527378.000000 0 0 1
31.230363 30.355157 29.182020 52.424817 0.771188 0.980454 -0.000677 -0.009764 -482407.000000 0 0 1
31.704763 30.852257 27.810630 52.254042 0.771771 1.009576 -0.007143 -0.005061 -697396.000000 0 0 1
31.432763 32.205657 27.534990 52.757924 0.797543 1.021705 -0.012291 -0.004040 256621.000000 0 0 1
31.923563 32.571457 26.244530 52.619284 0.795443 1.048626 0.000616 -0.005998 -243808.000000 0 0 1
31.642363 34.067257 25.885700 53.215473 0.822285 1.062795 -0.003589 -0.009713 -856112.000000 0 0 1
32.586563 -34.081597 26.453440 54.066846 -0.807819 1.059541 0.018645 -0.013794 -321095.000000 0 0 1
32.253163 -32.725097 26.302630 52.943619 -0.792661 1.050883 0.018111 -0.011595 -632081.000000 0 0 1
33.166363 -31.887497 27.145740 53.420139 -0.765742 1.037754 0.026982 -0.024780 -429230.000000 0 0 1
32.785463 -31.737297 28.475610 53.786643 -0.769155 1.012882 0.024051 -0.032067 260167.000000 0 0 1
33.753963 -30.903997 29.083580 54.223995 -0.741349 1.004678 0.036317 -0.036452 -227775.000000 0 0 1
33.446063 -30.413897 30.489250 54.527411 -0.737952 0.977431 0.029565 -0.039847 -495850.000000 0 0 1
33.412963 -31.309497 31.623900 55.648735 -0.752910 0.966386 0.031374 -0.036198 212402.000000 0 0 1
32.522363 -32.394997 31.598150 55.727758 -0.783436 0.967926 0.023754 -0.031395 -553359.000000 0 0 1
32.664063 -33.281097 32.861989 57.048074 -0.794755 0.956920 0.024429 -0.024407 -224968.000000 0 0 1
32.147063 -32.687197 34.073437 57.121674 -0.793729 0.931655 0.032618 -0.027990 295173.000000 0 0 1
32.469563 -33.327497 -33.459923 57.311090 -0.798437 2.194234 0.028010 -0.020076 45213.800000 0 0 1
31.882663 34.205657 -33.142783 57.314703 0.820534 2.187390 0.013711 -0.016375 -41065.200000 0 0 1
32.300063 33.345157 -34.189594 57.655198 0.801317 2.205577 0.017967 -0.018618 98642.100000 0 0 1
31.449963 32.234557 -34.372235 56.653485 0.797718 2.222712 0.015732 -0.010455 -155394.000000 0 0 1
31.845763 31.280457 33.276350 55.677060 0.776443 0.930208 -0.002614 -0.000501 666483.000000 0 0 1
33.041163 30.519857 33.521237 56.096822 0.745751 0.930341 -0.006929 -0.005137 534050.000000 0 0 1
33.353763 29.677757 32.461860 55.199774 0.727144 0.942114 -0.008795 -0.004851 -745217.000000 0 0 1
34.730463 29.051957 32.470820 55.718717 0.696603 0.948671 -0.008854 -0.005760 -511214.000000 0 0 1
34.664963 27.957257 33.323992 55.621545 0.678691 0.928394 -0.005241 0.001858 -754317.000000 0 0 1
-35.155146 27.369257 33.342271 55.647710 -0.661510 0.928336 -0.021802 0.000332 -1289070.000000 0 0 1
-35.168446 25.957157 34.007906 55.381687 -0.635829 0.909597 -0.037827 0.007703 -163032.000000 0 0 1
35.477463 24.941057 33.163775 54.594346 0.612744 0.917940 -0.035087 0.006225 -39050.300000 0 0 1
35.117063 23.796557 33.918249 54.313275 0.595558 0.896314 -0.040732 0.003887 -532618.000000 0 0 1
34.539863 22.599657 33.155352 52.943592 0.579397 0.894076 -0.044810 -0.003921 -466371.000000 0 0 1
-35.474246 21.891857 32.524170 52.872462 -0.552913 0.908228 -0.037836 -0.006231 480863.000000 0 0 1
35.058163 20.947657 31.597080 51.635788 0.538588 0.912308 -0.023173 -0.002496 321005.000000 0 0 1
-34.785746 20.254957 30.942590 50.771600 -0.527286 0.915434 -0.013619 -0.019585 367353.000000 0 0 1
-34.225846 20.999657 29.838990 50.027587 -0.550331 0.931724 -0.018660 -0.018039 667579.000000 0 0 1
-33.003046 20.484157 29.302640 48.656412 -0.555483 0.924497 -0.006571 -0.018229 540600.000000 0 0 1
-33.267146 19.306857 28.292220 47.748377 -0.525852 0.936604 0.009288 -0.013600 -602616.000000 0 0 1
-33.835446 18.125657 28.818390 47.998713 -0.491798 0.926796 0.012462 -0.017089 177979.000000 0 0 1
-34.277446 17.266657 27.791550 47.386190 -0.466629 0.944077 0.018539 -0.021834 -191200.000000 0 0 1
-35.138546 16.160557 28.373660 47.968173 -0.431064 0.937866 0.036918 -0.027859 -308865.000000 0 0 1
-34.266346 15.171257 28.860810 47.300062 -0.416804 0.914528 0.038806 -0.017208 476681.000000 0 0 1
-34.940946 13.997757 29.319930 47.712317 -0.381034 0.909025 0.043202 -0.018664 -62405.000000 0 0 1
-33.951946 12.889257 29.710450 46.920981 -0.362826 0.885113 0.043538 -0.011243 -41599.200000 0 0 1
-33.162646 13.182957 30.843190 47.168356 -0.378370 0.858074 0.040762 -0.004050 289645.000000 0 0 1
-32.350146 12.122457 31.294000 46.613307 -0.358531 0.834763 0.039066 0.000082 -272056.000000 0 0 1
-30.858146 12.458557 31.267740 45.663031 -0.383723 0.816536 0.034004 0.005419 -761285.000000 0 0 1
-30.204346 12.435957 29.981550 44.337895 -0.390575 0.828196 0.025385 0.002294 640679.000000 0 0 1
-28.823546 12.735857 30.009030 43.514834 -0.416061 0.809822 0.013380 0.004585 612363.000000 0 0 1
-27.780146 11.713457 30.531520 42.908220 -0.399028 0.779089 0.018126 0.007044 -174598.000000 0 0 1
-27.496546 10.677157 29.581350 41.774610 -0.370387 0.783967 0.021714 0.004561 911923.000000 0 0 1
-26.351146 9.875257 30.001450 41.133814 -0.358557 0.753407 0.017802 0.003878 430274.000000 0 0 1
-25.991146 8.789157 28.933150 39.873753 -0.326088 0.758863 0.015449 -0.003229 181673.000000 0 0 1
-26.873946 7.707157 28.562580 39.967865 -0.279293 0.774689 0.012953 -0.006921 -376357.000000 0 0 1
-28.093446 8.111557 28.028830 40.504992 -0.281090 0.806562 0.017030 -0.001559 -613169.000000 0 0 1
-29.028546 6.916657 27.702670 40.717743 -0.233909 0.822544 0.014347 0.002287 -61536.400000 0 0 1
-29.411946 6.351057 28.964110 41.765036 -0.212669 0.804459 0.010521 -0.004393 120212.000000 0 0 1
-30.207846 5.184457 28.796350 42.054992 -0.169970 0.816562 0.018004 -0.006397 -513651.000000 0 0 1
-30.578046 4.620357 30.174920 43.207528 -0.149966 0.797676 -0.003553 0.005639 -74406.700000 0 0 1
-31.847246 5.113057 30.553700 44.428809 -0.159191 0.812480 0.001885 -0.002258 -116992.000000 0 0 1
-32.184746 4.739157 31.877170 45.546366 -0.146198 0.795561 0.000879 0.001497 223717.000000 0 0 1
-33.665046 5.081157 32.181420 46.848664 -0.149802 0.813550 0.016986 0.000836 167107.000000 0 0 1
-33.915646 6.501457 32.524100 47.437929 -0.189397 0.815350 0.023222 0.005738 -1232300.000000 0 0 1
-35.221246 6.864957 32.352660 48.315199 -0.192496 0.837104 0.025410 0.006832 -1085900.000000 0 0 1
35.410763 8.338457 32.634190 48.871693 0.231265 0.839611 0.025451 0.001709 -119487.000000 0 0 1
-35.510946 8.727657 34.023659 49.948060 -0.240997 0.821422 0.028735 0.001847 331679.000000 0 0 1
35.202763 10.099157 34.223240 50.124422 0.279382 0.819255 0.032271 0.000346 -185065.000000 0 0 1
35.200663 10.392657 -33.060613 49.397349 0.287084 2.304034 0.025674 -0.004445 333603.000000 0 0 1
34.028363 9.899857 -32.381233 48.005009 0.283115 2.311136 0.038897 0.001771 929147.000000 0 0 1
34.271263 9.900057 -30.983483 47.249411 0.281218 2.285963 0.035838 0.006983 52936.700000 0 0 1
33.144563 9.104657 -30.274913 45.804227 0.268083 2.292898 0.022315 0.010262 226923.000000 0 0 1
33.292263 7.708157 -30.318083 45.683439 0.227521 2.296492 0.008185 0.009792 -131098.000000 0 0 1
32.142863 7.114557 -29.790473 44.398793 0.217830 2.306319 0.014137 0.011554 -360924.000000 0 0 1
34.067961 6.426857 -20.446853 40.249277 0.186457 2.103664 -0.018846 0.007775 -317081.000000 0 0 1
33.724541 7.000957 -19.231253 39.448691 0.204685 2.080021 -0.020560 0.004546 130630.000000 0 0 1
34.087181 8.350357 -19.136953 39.973584 0.240240 2.070015 -0.021632 0.013207 47444.000000 0 0 1
35.491194 8.655957 -18.498153 40.947920 0.239220 2.039520 -0.013449 0.008494 2031760.000000 0 0 1
-34.418731 8.115257 -19.263853 40.269126 -0.231551 2.069603 -0.010049 -0.000581 1428030.000000 0 0 1
-34.018147 8.976057 -20.330653 40.634215 -0.257981 2.094780 -0.007043 -0.003187 -487980.000000 0 0 1
-32.908527 8.349457 -21.215853 40.034948 -0.248474 2.129318 -0.002832 -0.003462 -262225.000000 0 0 1
-33.289007 7.222757 -22.010253 40.555856 -0.213660 2.144462 -0.012708 0.006556 988272.000000 0 0 1
-34.227590 7.491757 -23.101653 41.968330 -0.215482 2.153705 -0.019289 0.012236 624163.000000 0 0 1
-34.331248 6.261857 -24.006353 42.357413 -0.180412 2.173360 -0.013327 0.004811 498268.000000 0 0 1
-33.103217 5.907357 -24.654753 41.696244 -0.176594 2.203459 0.000667 -0.003052 640745.000000 0 0 1
-33.238707 4.745657 -25.456983 42.135388 -0.141817 2.219522 0.012054 0.003928 -365530.000000 0 0 1
-31.984257 4.631157 -26.332803 41.687610 -0.143796 2.254502 0.018819 0.006788 -143106.000000 0 0 1
-30.833297 4.357157 -25.560403 40.286614 -0.140384 2.258111 0.011163 0.000741 -565392.000000 0 0 1
-29.710307 4.442057 -26.387273 39.984027 -0.148413 2.291542 0.008728 0.005222 -277406.000000 0 0 1
-28.375407 4.608057 -25.636823 38.518108 -0.160991 2.299065 0.016397 -0.004155 -12151.800000 0 0 1
-28.022907 5.953957 -25.371003 38.267751 -0.209354 2.295597 0.010217 -0.007096 503954.000000 0 0 1
-26.669897 6.108557 -24.941753 37.022817 -0.225159 2.309982 0.019051 -0.010203 383620.000000 0 0 1
-26.125817 7.561057 -25.011853 36.950247 -0.281713 2.314348 0.019852 -0.015514 -339676.000000 0 0 1
-26.578137 8.409557 -24.033453 36.806588 -0.306442 2.282290 0.026117 -0.017050 -288320.000000 0 0 1
-26.409447 9.825657 -24.253553 37.178452 -0.356183 2.281484 0.015420 -0.018221 -260145.000000 0 0 1
-25.058837 10.429357 -23.859253 36.138356 -0.394389 2.291908 0.040784 -0.007860 -432225.000000 0 0 1
-24.996937 10.760057 -22.466253 35.289634 -0.406482 2.260910 0.045017 -0.013118 -518514.000000 0 0 1
-23.701737 11.131257 -22.151853 34.298423 -0.439065 2.272941 0.065096 -0.020210 -1265710.000000 0 0 1
-23.543337 11.503357 -20.641753 33.357127 -0.454489 2.238024 0.072275 -0.028029 -925640.000000 0 0 1
-24.086037 12.779357 -20.339553 34.016857 -0.487804 2.211707 0.070804 -0.030580 183664.000000 0 0 1
-25.467447 13.006657 -20.453453 35.158324 -0.472184 2.191678 0.070193 -0.020119 -570561.000000 0 0 1
-26.408467 12.127857 -19.583453 35.042884 -0.430512 2.163786 0.060572 -0.019120 -941496.000000 0 0 1
-26.248037 12.323457 -18.205553 34.238417 -0.438951 2.131437 0.059294 -0.024708 274403.000000 0 0 1
-27.160067 11.559557 -17.435853 34.282672 -0.402386 2.104344 0.038422 -0.024696 -610558.000000 0 0 1
-26.819597 11.418557 -15.933053 33.219519 -0.402509 2.071028 0.053614 -0.023108 4496.120000 0 0 1
-25.986787 10.308057 -15.674753 32.051007 -0.377628 2.081804 0.076735 -0.027225 1097710.000000 0 0 1
-24.587437 10.551557 -15.867353 31.107078 -0.405376 2.106084 0.072607 -0.024848 -126324.000000 0 0 1
-23.687137 9.321657 -15.768853 29.943789 -0.374918 2.125410 0.058405 -0.026315 -28749.400000 0 0 1
-22.327137 9.585157 -16.101553 29.148522 -0.405512 2.156033 0.052486 -0.021197 359813.000000 0 0 1
-21.578837 8.467357 -15.756653 28.028815 -0.373930 2.167790 0.044151 -0.022708 -618647.000000 0 0 1
-20.061637 8.589957 -15.607053 26.829774 -0.404560 2.191621 0.065054 -0.022845 -330951.000000 0 0 1
-19.408137 8.764057 -16.851653 27.156265 -0.424156 2.240232 0.075736 -0.027874 -98653.400000 0 0 1
-18.033337 8.984657 -16.621653 26.119048 -0.462226 2.260593 0.067647 -0.023364 -359812.000000 0 0 1
-17.253537 9.556957 -17.855553 26.605277 -0.505842 2.306526 0.055450 -0.017629 1896.440000 0 0 1
-17.067037 8.676657 -18.960253 26.945488 -0.470335 2.351321 0.077918 -0.026707 183423.000000 0 0 1
-16.196237 7.581357 -18.766853 25.922767 -0.437798 2.380311 0.072327 -0.021870 -653151.000000 0 0 1
-15.776837 6.852257 -20.085453 26.444044 -0.409741 2.433410 0.060020 -0.022949 473687.000000 0 0 1
-16.798437 6.043557 -20.702953 27.337234 -0.345351 2.429991 0.061037 -0.017803 764217.000000 0 0 1
-17.926937 6.788757 -21.183953 28.569602 -0.362002 2.406078 0.060804 -0.017371 -253987.000000 0 0 1
-18.946037 5.854657 -21.877553 29.527219 -0.299709 2.405248 0.062639 -0.012038 -8784.580000 0 0 1
-19.670637 5.015857 -20.975453 29.190109 -0.249672 2.372556 0.054823 -0.017940 340373.000000 0 0 1
-20.264037 3.926357 -21.631553 29.899358 -0.191388 2.379625 0.037321 -0.002261 -82038.800000 0 0 1
-21.095737 3.052357 -20.648153 29.676476 -0.143693 2.340295 0.060421 -0.007249 -205849.000000 0 0 1
-21.803937 1.991357 -21.229553 30.497067 -0.091077 2.340772 0.057409 -0.001945 157337.000000 0 0 1
-22.456537 1.252757 -20.228253 30.249755 -0.055728 2.303266 0.057594 -0.008567 -427319.000000 0 0 1
-23.158437 0.006557 -20.765853 31.105207 -0.000283 2.301778 0.063109 0.001059 64251.600000 0 0 1
-22.237637 -0.991043 -21.150053 30.705365 0.044537 2.330638 0.055299 -0.005452 347098.000000 0 0 1
-22.970737 -2.172743 -21.547553 31.570123 0.094307 2.322015 0.053386 -0.003813 -34477.200000 0 0 1
-23.076037 -2.299643 -23.099653 32.732031 0.099327 2.354235 0.040519 -0.010533 879588.000000 0 0 1
-21.871137 -2.502943 -23.883753 32.481457 0.113945 2.396912 0.014848 -0.008031 943087.000000 0 0 1
-21.244237 -3.778943 -23.687953 32.042428 0.176040 2.402780 0.011150 -0.013573 875494.000000 0 0 1
-20.039637 -3.986543 -24.687753 32.046291 0.196369 2.450230 0.012412 -0.004350 642032.000000 0 0 1
-20.674837 -4.164243 -25.911363 33.409408 0.198757 2.458415 0.005585 -0.009246 711080.000000 0 0 1
-19.853637 -3.740143 -26.978963 33.704897 0.186204 2.498836 0.006715 -0.017330 -39175.000000 0 0 1
-20.742837 -3.567543 -28.221763 35.205974 0.170323 2.500794 0.001089 -0.023377 41697.200000 0 0 1
-21.089937 -4.823543 -28.786713 36.010094 0.224846 2.497103 0.004051 -0.013001 114110.000000 0 0 1
-21.941837 -4.706443 -29.892873 37.378854 0.211295 2.497636 -0.010347 -0.017019 -496921.000000 0 0 1
-21.908237 -6.001743 -30.691293 38.183076 0.267389 2.504440 0.009719 -0.014941 -1096380.000000 0 0 1
-20.669037 -6.061743 -31.279573 37.978488 0.285277 2.538548 -0.003737 -0.012371 -863456.000000 0 0 1
-20.268937 -7.318143 -31.744573 38.367994 0.346487 2.545207 -0.005260 -0.008472 -724244.000000 0 0 1
-18.902137 -7.213543 -32.413833 38.209719 0.364567 2.583589 0.004057 -0.013767 -813962.000000 0 0 1
-18.827737 -6.796343 -33.749823 39.239324 0.346418 2.606266 0.013542 -0.015749 393131.000000 0 0 1
-18.682637 -7.949443 34.229583 39.798228 0.402293 0.535374 0.010827 -0.006562 -546179.000000 0 0 1
-18.433237 -7.672943 32.758428 38.363693 0.394441 0.547379 0.009706 0.000147 683232.000000 0 0 1
-17.093837 -7.267943 32.418740 37.363043 0.402022 0.520303 0.020714 -0.002989 898300.000000 0 0 1
-16.749537 -5.893743 32.678100 37.190610 0.338344 0.497737 0.005349 -0.007690 378175.000000 0 0 1
-15.472237 -5.426543 31.890320 35.858472 0.337323 0.474900 0.008061 -0.005848 222870.000000 0 0 1
-15.703637 -5.281443 30.491130 34.701684 0.324436 0.497739 0.004169 -0.004768 208750.000000 0 0 1
-14.598637 -4.801843 29.740800 33.476755 0.317777 0.476945 -0.003267 -0.002713 26656.900000 0 0 1
-14.922437 -4.801643 28.243420 32.302101 0.311311 0.506697 0.000529 0.000426 119824.000000 0 0 1
-15.910637 -3.835643 27.956190 32.394585 0.236560 0.529639 -0.007695 0.003901 -117441.000000 0 0 1
-16.477437 -3.862943 26.658330 31.576809 0.230280 0.565655 0.002719 0.005179 207854.000000 0 0 1
-15.503137 -3.479343 25.484630 30.031974 0.220770 0.557495 -0.005160 0.005804 294517.000000 0 0 1
-15.183037 -2.123843 25.573790 29.817010 0.138981 0.540034 -0.008835 0.005486 -393222.000000 0 0 1
-14.063637 -1.878543 24.771810 28.547459 0.132788 0.520157 -0.011561 0.009392 -734017.000000 0 0 1
-13.872637 -0.366643 24.519330 28.174138 0.026423 0.515030 -0.006479 0.004724 -341658.000000 0 0 1
-14.953737 0.222057 23.835760 28.139066 -0.014848 0.560348 -0.011400 0.000464 -198529.000000 0 0 1
-15.093337 1.528157 24.313770 28.658394 -0.100903 0.557842 -0.016371 -0.002169 -146819.000000 0 0 1
-15.839737 2.483257 23.330730 28.308776 -0.155508 0.602093 -0.012419 -0.001392 189063.000000 0 0 1
-14.952137 3.126457 22.419430 27.128804 -0.206128 0.598100 -0.013774 0.002090 921930.000000 0 0 1
-15.636937 4.133857 21.632730 27.010694 -0.258452 0.642008 -0.005424 0.007195 -81422.500000 0 0 1
-14.601737 4.817057 20.784730 25.853816 -0.318654 0.636918 0.005448 0.014994 -400877.000000 0 0 1
-13.693737 5.640157 21.449130 26.065207 -0.390704 0.604295 -0.010356 0.004074 -257713.000000 0 0 1
-12.603337 5.875257 20.594230 24.849247 -0.436217 0.593896 -0.010329 0.011092 1846.640000 0 1 0
-11.726437 7.099857 20.992230 25.071718 -0.544423 0.578494 -0.007613 0.012767 328710.000000 0 0 1
-12.358537 8.346757 20.720230 25.528998 -0.594013 0.623851 0.001137 0.006994 439832.000000 0 0 1
-11.455837 9.382857 21.031030 25.721167 -0.686247 0.613471 -0.001871 0.013719 193164.000000 0 0 1
-12.136537 10.775457 20.856330 26.427117 -0.726063 0.661288 0.003749 0.016434 -25079.900000 0 0 1
-12.332037 11.182557 19.521330 25.655624 -0.736553 0.706099 0.002981 0.013163 288369.000000 0 0 1
-12.994837 12.424857 19.447430 26.484815 -0.762979 0.746182 -0.002662 0.014801 -359415.000000 0 0 1
-13.176937 13.124257 18.102730 25.953548 -0.783395 0.798887 -0.007968 0.014258 -43136.000000 0 0 1
-12.071137 13.832857 17.537930 25.389748 -0.853303 0.808273 -0.011676 0.009952 143719.000000 0 0 1
-11.786637 15.137157 18.024530 26.323792 -0.909206 0.816571 -0.008558 0.009762 -536515.000000 0 0 1
-12.595437 16.395557 17.553130 27.121425 -0.915734 0.866884 -0.014962 0.018446 -13515.300000 0 0 1
-12.647737 16.751657 16.168630 26.495431 -0.924094 0.914430 -0.016837 -0.004420 305334.000000 0 0 1
-13.372737 15.742357 15.438730 25.787716 -0.866607 0.928937 -0.000205 0.002932 -208073.000000 0 0 1
-13.767037 16.097557 13.976030 25.376999 -0.863277 0.987550 -0.005455 -0.009814 68526.700000 0 0 1
-14.678637 17.199857 13.987630 26.588555 -0.864322 1.016815 -0.009191 -0.009176 84562.900000 0 0 1
-15.092937 17.480857 12.682930 26.348317 -0.858575 1.068595 -0.010938 -0.013425 -721719.000000 0 0 1
-16.151737 18.558757 12.644030 27.661843 -0.854633 1.096072 0.004172 -0.014333 -96379.100000 0 0 1
-17.409937 17.981157 13.051730 28.227213 -0.801537 1.090118 0.012163 -0.016476 209731.000000 0 0 1
-18.391037 18.991857 13.138430 29.521843 -0.801469 1.109576 0.017328 -0.016182 -447486.000000 0 0 1
-19.733237 18.328057 13.446630 30.101996 -0.748496 1.107720 0.016199 -0.003656 -361018.000000 0 0 1
-20.333937 17.728957 12.313430 29.654772 -0.717066 1.142605 0.013351 -0.011393 1023030.000000 0 0 1
-21.617537 17.138857 12.686030 30.364349 -0.670349 1.139781 0.042288 -0.015755 979818.000000 0 0 1
-22.346837 16.486857 11.544030 30.074278 -0.635629 1.176834 0.029897 -0.016760 -518597.000000 0 0 1
-21.793937 15.290957 11.089630 28.840405 -0.611809 1.176112 0.029427 -0.010501 282535.000000 0 0 1
-22.498837 14.887157 9.926530 28.746498 -0.584546 1.218224 0.029487 -0.011372 -375774.000000 0 0 1
-22.016437 13.453157 9.586930 27.524901 -0.548505 1.215039 0.041214 -0.000070 -162235.000000 0 0 1
-22.447937 12.368057 10.416130 27.665402 -0.503585 1.184777 0.044130 -0.004191 393372.000000 0 0 1
-23.815237 11.998257 10.403130 28.624270 -0.466688 1.198841 0.048690 -0.011175 84779.700000 0 0 1
-24.344637 11.219457 9.109330 28.311084 -0.431848 1.243210 0.051172 0.004884 -178406.000000 0 0 1
-24.619837 12.118257 8.054730 28.598378 -0.457400 1.285283 0.053757 -0.004306 408868.000000 0 0 1
-25.669557 11.549757 7.265330 29.070743 -0.422804 1.318200 0.066771 -0.007951 19899.400000 0 0 1
-26.110817 12.554957 6.170430 29.622220 -0.448197 1.360956 0.053937 -0.008447 515765.000000 0 0 1
-25.079617 12.757857 5.162530 28.607723 -0.470579 1.389343 0.053595 -0.012279 2448260.000000 0 0 1
-23.772137 13.357057 5.368530 27.791124 -0.511917 1.376400 0.051831 -0.014192 1125310.000000 0 0 1
-23.909237 14.839257 5.731030 28.717588 -0.555465 1.369882 0.043622 -0.017301 -1524790.000000 0 0 1
-22.664137 15.373557 5.945930 28.024337 -0.596028 1.357001 0.037514 -0.021785 -489372.000000 0 0 1
-22.752337 16.694557 6.428130 28.943012 -0.633021 1.346833 0.035320 -0.026016 104421.000000 0 0 1
-21.340737 17.340157 6.531730 28.262548 -0.682339 1.337579 0.034179 -0.025165 403821.000000 0 0 1
-20.841437 17.902557 5.298130 27.981016 -0.709689 1.380299 0.040181 -0.033796 -516246.000000 0 0 1
-19.554637 18.360457 5.434030 27.368210 -0.753912 1.370915 0.047855 -0.028425 -1139410.000000 0 0 1
-18.979037 19.065557 4.184030 27.225088 -0.787672 1.416502 0.052671 -0.027756 589968.000000 0 0 1
-17.559037 19.276057 4.229030 26.415353 -0.831978 1.410007 0.039420 -0.030011 1081630.000000 0 0 1
-17.101037 20.369557 3.381930 26.810479 -0.872407 1.444317 0.043734 -0.024658 148769.000000 0 0 1
-17.218637 21.788857 3.946330 28.050121 -0.902029 1.429639 0.049987 -0.024960 -263634.000000 0 0 1
-16.296537 22.011057 4.977730 27.835976 -0.933481 1.391006 0.044399 -0.019761 -199531.000000 0 0 1
-16.468537 23.293957 5.530230 29.058641 -0.955396 1.379316 0.032783 -0.019204 157374.000000 0 0 1
-15.716037 23.628757 6.873930 29.198680 -0.983863 1.333146 0.029901 0.000729 197215.000000 0 0 1
-16.400737 23.135157 8.009630 29.468184 -0.954116 1.295527 0.024890 -0.005007 -102992.000000 0 0 1
-15.639037 23.280757 9.137830 29.497001 -0.979277 1.255826 0.020538 -0.007490 -229570.000000 0 0 1
-16.378237 22.700857 10.357130 29.847038 -0.945799 1.216418 0.010779 -0.007017 258020.000000 0 0 1
-17.548237 23.400057 10.716830 31.150501 -0.927345 1.219587 0.018855 -0.010362 -54739.700000 0 0 1
-18.413337 22.539657 11.463330 31.280906 -0.885817 1.195590 0.012947 -0.010967 -47604.500000 0 0 1
-19.618337 23.280657 12.045930 32.740992 -0.870562 1.194030 0.008671 -0.011877 424117.000000 0 0 1
-20.583637 23.778357 11.072030 33.341959 -0.857289 1.232294 0.012056 -0.011386 584994.000000 0 0 1
-20.258337 25.047657 10.563330 33.902349 -0.890718 1.253940 0.008402 -0.009130 -425629.000000 0 0 1
-21.456137 25.945057 10.227730 35.186905 -0.879817 1.275871 0.022646 -0.004929 -133383.000000 0 0 1
-22.109337 26.531857 11.342030 36.351119 -0.876070 1.253485 0.030489 -0.021760 110800.000000 0 0 1
-23.112337 27.426857 10.916630 37.491138 -0.870561 1.275337 0.032144 -0.011729 245720.000000 0 0 1
-23.996437 28.032357 12.041630 38.815498 -0.862814 1.255364 0.029025 -0.025689 -1406.450000 0 0 1
-23.193037 28.903757 12.785830 39.202316 -0.894580 1.238568 0.032633 -0.021870 722458.000000 0 0 1
-23.981937 29.671657 13.723930 40.544874 -0.891049 1.225487 0.031496 -0.019323 355269.000000 0 0 1
8.565663 -33.228797 28.635100 44.693316 -1.318510 0.875384 0.004537 -0.007388 -26598.700000 0 0 1
9.858663 -32.950197 28.154960 44.447840 -1.280075 0.884808 0.009158 -0.016686 182454.000000 0 0 1
9.801563 -32.687397 26.796480 43.388799 -1.279470 0.905122 0.017562 -0.017944 -713262.000000 0 0 1
11.152963 -32.625597 26.116970 43.254067 -1.241403 0.922532 0.023951 -0.008115 -393805.000000 0 0 1
11.870763 -33.846997 25.955900 44.274631 -1.233482 0.944377 0.022425 -0.008395 146348.000000 0 0 1
13.229463 -33.651897 25.652370 44.334106 -1.196229 0.953767 0.030763 -0.005031 -5947.840000 0 0 1
14.021563 33.983157 25.611210 44.803942 1.179472 0.962307 0.043001 0.001774 -133272.000000 0 0 1
14.078263 33.453957 24.304750 43.681639 1.172467 0.980742 0.041177 -0.007205 353703.000000 0 0 1
14.896063 32.292857 24.336190 43.092591 1.138601 0.970676 0.049844 -0.002767 -190933.000000 0 0 1
15.507563 31.764257 23.010130 42.177228 1.116627 0.993741 0.047034 -0.013381 -76036.100000 0 0 1
14.701863 30.984057 22.116730 40.808165 1.127758 0.998019 0.035557 -0.009636 139179.000000 0 0 1
15.089363 29.600557 22.090930 39.898509 1.099366 0.984022 0.035918 -0.010162 148868.000000 0 0 1
14.600963 28.691257 23.274030 39.724763 1.100055 0.944828 0.032644 -0.007863 -159083.000000 0 0 1
15.256163 29.052857 24.498180 40.950944 1.087257 0.929503 0.045335 -0.016987 403482.000000 0 0 1
14.802663 28.390257 25.690520 41.050315 1.090176 0.894601 0.029563 -0.016708 -520417.000000 0 0 1
15.683163 28.800957 26.844930 42.380502 1.072158 0.884823 0.042586 -0.023969 -157402.000000 0 0 1
15.378263 30.177757 27.224690 43.455399 1.099507 0.893745 0.040006 -0.010808 402745.000000 0 0 1
15.947063 30.417157 28.516050 44.639415 1.087915 0.877847 0.053838 -0.017693 122032.000000 0 0 1
15.810063 31.887857 29.033210 45.931697 1.110513 0.886542 0.058254 -0.016544 -215574.000000 0 0 1
16.667463 32.733457 28.360680 46.407022 1.099826 0.913310 0.055969 -0.010464 -250012.000000 0 0 1
16.347663 34.047657 28.756210 47.470081 1.123162 0.920056 0.057251 0.004575 -180059.000000 0 0 1
17.136063 -33.782097 28.083290 47.154490 -1.101363 0.932835 0.047541 -0.000127 -499075.000000 0 0 1
16.910463 -33.594597 26.730860 46.142167 -1.104458 0.952908 0.054391 -0.003084 -184506.000000 0 0 1
17.267863 -32.330997 26.223330 45.068120 -1.080245 0.949783 0.061545 -0.009031 830529.000000 0 0 1
18.744663 -31.755597 26.119430 45.188549 -1.037555 0.954508 0.055055 -0.004902 758539.000000 0 0 1
19.242963 -31.317997 27.326920 45.802501 -1.019828 0.931507 0.049213 -0.002436 -146066.000000 0 0 1
20.156463 -30.260797 27.110640 45.354003 -0.983192 0.930097 0.046057 0.001407 -185807.000000 0 0 1
20.409363 -29.345797 28.254010 45.563219 -0.963112 0.901919 0.046192 -0.002338 281246.000000 0 0 1
19.267263 -28.563597 28.635150 44.800427 -0.977363 0.877376 0.039525 -0.006600 521304.000000 0 0 1
19.632663 -27.621797 29.634500 45.017871 -0.952881 0.852261 0.057231 -0.003816 -31997.900000 0 0 1
18.407363 -26.963297 30.317970 44.553672 -0.971788 0.822376 0.036187 -0.006665 57395.400000 0 0 1
17.664563 -26.168497 29.429170 43.161361 -0.977025 0.820520 0.034865 -0.004662 32576.300000 0 0 1
16.513563 -25.696397 30.125220 42.901415 -0.999612 0.792319 0.039883 -0.006116 321145.000000 0 0 1
15.481663 -25.038197 29.140780 41.421954 -1.017014 0.790471 0.037176 0.003085 4724.690000 0 0 1
14.775463 -25.981097 28.327990 41.180174 -1.053709 0.812200 0.044959 -0.006853 277987.000000 0 0 1
14.316463 -25.404397 27.095690 39.806041 -1.057615 0.822088 0.042315 -0.019698 -805749.000000 0 0 1
12.873063 -24.937197 27.006500 38.947793 -1.094258 0.804596 0.020976 -0.015608 -633884.000000 0 0 1
11.801063 -25.827797 27.078670 39.237667 -1.142208 0.809142 0.013719 -0.010438 -5543.390000 0 0 1
11.628363 -26.581497 25.906620 38.896629 -1.158419 0.841912 0.024024 -0.011647 -662731.000000 0 0 1
10.849963 -27.891097 26.112540 39.717751 -1.199798 0.853363 0.025902 -0.018046 105931.000000 0 0 1
9.444663 -27.719697 26.168780 39.273252 -1.242412 0.841526 0.009234 -0.016321 -10858.300000 0 0 1
8.728963 -28.923797 26.200570 39.990632 -1.277697 0.856392 0.001789 -0.011048 -476764.000000 0 0 1
7.317263 -28.765397 26.779260 39.976483 -1.321702 0.836755 0.003755 -0.019261 -24618.300000 0 0 1
6.219463 -28.348397 25.961650 38.939961 -1.354824 0.841011 0.008899 -0.018752 505951.000000 0 0 1
6.358063 -27.095097 25.301860 37.613207 -1.340309 0.832964 0.010363 -0.018267 -1122710.000000 0 0 1
5.191563 -26.956697 24.325010 36.678631 -1.380537 0.845719 0.015526 -0.009345 -571998.000000 0 0 1
5.116763 -27.974497 23.267930 36.744391 -1.389888 0.885067 -0.005592 -0.006409 -194379.000000 0 0 1
4.576063 -29.238097 23.695230 37.911352 -1.415546 0.895643 -0.008903 -0.003807 -595249.000000 0 0 1
3.070263 -29.298297 24.005170 38.000854 -1.466384 0.887051 -0.005211 -0.005973 -461286.000000 0 0 1
2.314563 -28.826797 22.859330 36.863130 -1.490676 0.901909 -0.012338 -0.008741 260223.000000 0 0 1
0.979163 -28.432097 23.071030 36.628067 -1.536371 0.889407 -0.002226 -0.010260 242018.000000 0 0 1
0.753963 -27.050897 23.802510 36.039963 -1.542932 0.849382 -0.002248 -0.010232 -189271.000000 0 0 1
1.352763 -27.092497 25.087950 36.949135 -1.520906 0.824416 -0.003336 -0.013887 158798.000000 0 0 1
1.066363 -25.880997 25.717050 36.501093 -1.529617 0.789000 0.001249 -0.001618 602814.000000 0 0 1
2.376163 -25.321797 26.387090 36.648575 -1.477232 0.766989 0.005874 0.001671 499650.000000 0 0 1
3.156363 -24.522297 25.531210 35.540799 -1.442786 0.769349 0.009992 -0.009112 706640.000000 0 0 1
4.197263 -23.753497 26.206520 35.617795 -1.395901 0.743993 0.017742 -0.011078 881638.000000 0 0 1
3.916163 -22.283797 26.390540 34.761538 -1.396832 0.708732 0.006271 0.000783 -174270.000000 0 0 1
4.070463 -21.626397 25.170220 33.433661 -1.384756 0.718429 0.005609 -0.001621 206888.000000 0 0 1
3.267463 -20.458397 25.171710 32.601186 -1.412421 0.688641 0.007273 -0.005286 61348.100000 0 0 1
3.401263 -19.607297 23.856370 31.066720 -1.399036 0.695228 0.011017 -0.006356 437818.000000 0 0 1
4.657963 -18.966297 23.646930 30.669111 -1.329971 0.690333 0.025865 0.002620 193076.000000 0 0 1
4.645363 -18.237397 22.458130 29.301018 -1.321384 0.697481 0.032529 -0.002733 316779.000000 0 0 1
6.038463 -17.607097 22.182430 28.957436 -1.240410 0.698145 0.035488 0.001719 140472.000000 0 0 1
6.962163 -18.526697 21.673630 29.350578 -1.211333 0.740043 0.034936 0.003705 -159871.000000 0 0 1
8.135563 -17.925597 21.145530 28.890273 -1.144744 0.749653 0.040282 0.005789 717691.000000 0 0 1
9.407163 -17.881597 22.049830 29.907210 -1.086503 0.741769 0.031602 0.012299 47803.400000 0 0 1
9.259963 -17.054997 23.200930 30.247363 -1.073384 0.696582 0.025442 0.019515 228359.000000 0 0 1
10.221963 -17.334297 24.222590 31.491272 -1.037988 0.693233 0.022075 0.018299 231317.000000 0 0 1
10.100863 -16.495897 25.551630 32.047275 -1.021363 0.647970 0.031522 0.002458 -255726.000000 0 0 1
10.437463 -15.133797 25.349730 31.314234 -0.967031 0.627450 0.039677 -0.000918 190240.000000 0 0 1
10.393463 -14.381697 26.538050 31.923743 -0.945006 0.589363 0.034377 -0.002689 -161900.000000 0 0 1
10.718663 -12.889697 26.505500 31.362008 -0.877101 0.563957 0.031461 -0.000184 304419.000000 0 0 1
9.792963 -12.094697 25.764550 30.099765 -0.890174 0.543369 0.033330 0.004133 514477.000000 0 0 1
10.304963 -10.787697 25.887220 29.878334 -0.808281 0.522807 0.028875 0.006222 411572.000000 0 0 1
9.382063 -9.803397 25.070200 28.506923 -0.807356 0.496107 0.020863 0.008116 300890.000000 0 0 1
8.085363 -9.783897 25.643430 28.612641 -0.880167 0.459606 0.020251 0.015727 -155101.000000 0 0 1
7.181863 -9.322797 24.640190 27.306275 -0.914395 0.445573 0.027406 0.020094 216040.000000 0 0 1
5.701963 -9.339497 25.066850 27.351153 -1.022676 0.411599 0.028459 0.012555 -776661.000000 0 0 1
5.320563 -8.407097 26.053680 27.888742 -1.006561 0.364785 0.035655 0.015885 -417762.000000 0 0 1
3.991363 -8.483597 26.478970 28.089825 -1.131042 0.340303 0.033926 0.015511 549923.000000 0 0 1
2.821763 -8.228797 25.466810 26.911594 -1.240449 0.329161 0.030351 0.009480 -73521.300000 0 0 1
2.852663 -6.919597 24.987760 26.084606 -1.179767 0.291024 0.044738 0.009208 422181.000000 0 0 1
1.615563 -6.629797 24.321400 25.260538 -1.331773 0.273535 0.037845 0.000908 639328.000000 0 0 1
1.611263 -5.330797 23.441230 24.093668 -1.277272 0.233248 0.037660 -0.009139 -63175.000000 0 1 0
1.492163 -4.172897 24.245030 24.646726 -1.227381 0.180791 0.041738 0.002595 -60259.800000 0 1 0
1.853263 -2.994697 23.581730 23.843255 -1.016633 0.148247 0.046657 -0.004044 -368765.000000 0 1 0
0.809263 -2.500697 22.514630 22.667531 -1.257818 0.116215 0.022012 -0.012010 739542.000000 0 1 0
-0.238537 -1.690697 23.042630 23.105804 1.430633 0.073964 0.020912 -0.012017 381025.000000 0 1 0
-1.302137 -2.346697 23.716830 23.868192 1.064213 0.112679 0.023948 -0.005773 -421188.000000 0 1 0
-2.225637 -1.308697 24.341830 24.478375 0.531557 0.105673 0.015047 -0.003626 -271865.000000 0 1 0
-1.642337 -0.630697 25.446350 25.507093 0.366658 0.069027 0.020678 -0.010118 139197.000000 0 0 1
-2.422137 0.492303 25.841240 25.959176 -0.200520 0.095358 0.011170 -0.010125 -148174.000000 0 0 1
-1.852837 1.395303 26.994140 27.093606 -0.645459 0.085714 0.028151 -0.018695 -550580.000000 0 0 1
-1.956837 0.876303 28.349030 28.429996 -0.421036 0.075488 0.034842 -0.014778 122931.000000 0 0 1
-1.160937 -0.244697 28.668880 28.693420 0.207734 0.041361 0.044645 -0.017394 617893.000000 0 0 1
0.396363 -0.094697 28.884280 28.887155 -0.234518 0.014108 0.054795 -0.022291 1135990.000000 0 0 1
1.173363 0.252303 27.703660 27.729645 0.211801 0.043295 0.056852 -0.022581 346229.000000 0 0 1
1.482363 -0.825697 26.799410 26.853074 -0.508212 0.063231 0.044535 -0.019222 190808.000000 0 0 1
2.703463 -1.714697 27.205590 27.393303 -0.565230 0.117135 0.047235 -0.012118 -166333.000000 0 0 1
2.383863 -2.634697 28.243070 28.465689 -0.835338 0.125146 0.053700 -0.011090 863685.000000 0 0 1
3.486263 -3.498697 28.625380 29.048362 -0.787178 0.170861 0.044152 0.001416 834093.000000 0 0 1
4.133563 -4.442697 27.586240 28.245788 -0.821428 0.216526 0.043547 0.005524 424365.000000 0 0 1
5.061863 -3.776697 26.716210 27.452537 -0.641006 0.232132 0.040570 0.008922 88288.100000 0 0 1
5.721563 -4.610997 25.793760 26.820060 -0.678327 0.277535 0.035076 0.007780 -194682.000000 0 0 1
6.837763 -3.833697 25.054870 26.252595 -0.510995 0.303230 0.044635 0.003522 1584850.000000 0 0 1
8.183663 -3.819697 25.685170 27.226649 -0.436693 0.338109 0.041990 0.008197 1800570.000000 0 0 1
8.947163 -4.971197 25.393580 27.378795 -0.507146 0.383152 0.025990 0.007305 -133239.000000 0 0 1
9.661763 -4.929997 23.980590 26.319636 -0.471821 0.424780 0.027173 -0.001535 -919789.000000 0 0 1
8.939963 -5.396697 22.878930 25.149408 -0.543106 0.428186 0.020570 -0.009176 -181164.000000 0 0 1
9.552063 -5.116897 21.589030 24.155967 -0.491786 0.465193 0.035521 -0.007605 265786.000000 0 1 0
9.357663 -3.603697 21.157530 23.413534 -0.367602 0.442590 0.037765 -0.024573 -558874.000000 0 1 0
8.056663 -3.232697 20.864930 22.598793 -0.381579 0.394272 0.033016 -0.031291 -1059480.000000 0 1 0
8.008863 -2.018697 20.170730 21.796224 -0.246915 0.388646 0.025027 -0.033760 442210.000000 0 1 0
6.517763 -1.532697 20.040730 21.129630 -0.230961 0.322438 0.030184 -0.027841 884166.000000 0 1 0
6.023463 -1.047697 21.312630 22.172235 -0.172213 0.279365 0.039305 -0.028198 873549.000000 0 1 0
4.698163 -0.497697 21.157930 21.678986 -0.105541 0.219691 0.021615 -0.015095 806820.000000 0 1 0
4.170863 -0.037697 22.550730 22.933228 -0.009038 0.182895 0.023020 -0.022444 90478.000000 0 1 0
2.909863 0.606303 22.458530 22.654370 0.205422 0.131584 0.018119 -0.016813 54612.400000 0 1 0
2.511263 1.060303 23.716530 23.872673 0.399513 0.114436 0.032258 -0.016638 364901.000000 0 1 0
0.996363 1.428303 23.748360 23.812127 0.961693 0.073200 0.025120 -0.011834 292327.000000 0 1 0
0.705063 2.614303 23.125030 23.283014 1.307369 0.116559 0.019289 -0.018626 432190.000000 0 1 0
-0.704737 2.801303 23.038030 23.218415 -1.324336 0.124733 0.009536 -0.019393 181136.000000 0 1 0
-1.145837 4.096303 22.438230 22.837838 -1.298043 0.187344 0.010871 -0.023298 -718982.000000 0 1 0
-0.942037 5.185303 23.308930 23.897302 -1.391082 0.222362 0.010399 -0.015188 84820.100000 0 1 0
-1.766237 6.323303 23.054330 23.970939 -1.298416 0.277433 0.011322 -0.021464 -207713.000000 0 1 0
-1.460837 7.577303 23.840010 25.057846 -1.380342 0.313049 0.019602 -0.014771 -338787.000000 0 0 1
-0.287637 8.266303 23.527630 24.939204 -1.536014 0.338061 0.017339 -0.010615 -222569.000000 0 1 0
-0.297437 9.504303 24.100670 25.908735 -1.539512 0.375801 0.026534 -0.006793 -1265750.000000 0 0 1
0.507463 10.647303 23.459130 25.767293 1.523171 0.426491 0.028178 -0.008113 909650.000000 0 0 1
1.940863 10.462303 23.432030 25.734933 1.387371 0.426270 0.024112 -0.009753 997579.000000 0 0 1
2.495063 10.590303 24.744090 27.030536 1.339417 0.414265 0.037389 -0.009291 -889028.000000 0 0 1
3.742663 11.534303 24.750870 27.561808 1.257034 0.455563 0.027493 -0.007827 450618.000000 0 0 1
4.979263 11.089303 24.239330 27.116616 1.148762 0.464843 0.027829 -0.007340 66608.800000 0 0 1
5.016763 10.924303 22.893730 25.857904 1.140294 0.483514 0.033136 -0.006765 -922707.000000 0 0 1
6.373163 10.448303 22.335130 25.468457 1.023077 0.501271 0.029024 -0.005370 60800.900000 0 0 1
7.226863 11.529303 21.960130 25.834080 1.010885 0.554726 0.031184 -0.009339 295015.000000 0 0 1
8.471963 11.013303 21.511030 25.608425 0.915090 0.573516 0.034477 -0.007249 -343390.000000 0 0 1
9.305163 12.109303 20.910330 25.893304 0.915603 0.630797 0.032687 -0.021848 -1135750.000000 0 0 1
8.829563 12.644303 19.693930 25.013806 0.961210 0.664342 0.026412 -0.017048 115561.000000 0 0 1
9.639563 13.641303 19.064830 25.347072 0.955624 0.719476 0.043866 -0.015668 245005.000000 0 0 1
10.991963 13.184303 18.473430 25.217389 0.875832 0.748711 0.041721 -0.018158 -61380.300000 0 0 1
11.940063 12.804303 19.439230 26.161020 0.820311 0.733164 0.039053 -0.023022 -215124.000000 0 0 1
13.212463 12.541303 18.890930 26.243489 0.759343 0.767235 0.035019 -0.022757 -164621.000000 0 0 1
14.314163 12.211303 19.879430 27.371572 0.706287 0.757901 0.019802 -0.016874 -369568.000000 0 0 1
14.904563 13.377303 20.425330 28.605810 0.731449 0.775562 0.019370 -0.018245 -93295.700000 0 0 1
15.954063 12.985303 21.295730 29.608417 0.683170 0.768080 0.020558 -0.013858 1543.810000 0 0 1
16.763363 14.185303 21.744530 30.904009 0.702289 0.790324 0.030885 -0.005548 -363582.000000 0 0 1
15.996763 15.014303 22.597930 31.495907 0.753728 0.770607 0.024373 -0.001466 451092.000000 0 0 1
16.712163 16.210303 22.980230 32.713320 0.770156 0.791930 0.021619 0.008111 -21285.200000 0 0 1
-20.597337 13.090157 -24.588553 34.643895 -0.566133 2.359942 0.035789 0.001252 15630.700000 0 0 1
-20.539237 12.960957 -25.991963 35.572866 -0.562927 2.390097 0.031697 -0.007162 -37161.600000 0 0 1
-21.433237 13.894857 -26.530673 36.828350 -0.575169 2.375157 0.034325 -0.013780 -149997.000000 0 0 1
-21.338537 14.002357 -28.094663 37.956676 -0.580722 2.404130 0.023979 -0.001610 692351.000000 0 0 1
-20.083737 14.519557 -28.592043 37.837534 -0.625964 2.427447 0.043609 -0.006262 564119.000000 0 0 1
-19.996237 14.609057 -30.005233 38.904859 -0.630963 2.451593 0.032057 -0.010209 -49786.900000 0 0 1
-18.617437 15.111457 -30.475323 38.777705 -0.681824 2.474943 0.021920 -0.007823 -7411.360000 0 0 1
-17.576837 14.214657 -30.187803 37.713461 -0.680033 2.498845 0.024871 -0.012167 -345873.000000 0 0 1
-16.325937 14.880057 -30.182273 37.402165 -0.739098 2.509793 0.031154 -0.005739 1377570.000000 0 0 1
-15.244837 14.285457 -29.143683 35.858522 -0.752922 2.519637 0.053125 0.004916 1035780.000000 0 0 1
-15.633837 14.628857 -27.812823 35.099479 -0.752202 2.485530 0.043921 -0.005266 75689.200000 0 0 1
-16.359137 13.549257 -27.184613 34.499376 -0.691724 2.478308 0.047603 0.005076 194314.000000 0 0 1
-17.034337 13.845757 -25.847153 33.910897 -0.682506 2.437513 0.038264 0.004777 -183296.000000 0 0 1
-16.064037 14.277757 -24.921753 32.908987 -0.726594 2.429955 0.049283 -0.015063 175467.000000 0 0 1
-16.619637 14.510657 -23.652953 32.345536 -0.717755 2.390962 0.042438 -0.016498 129903.000000 0 0 1
-15.629837 15.229257 -22.682253 31.475493 -0.772418 2.375510 0.020204 -0.006114 388715.000000 0 0 1
-15.308737 16.583957 -23.040953 32.253226 -0.825362 2.366529 0.003794 -0.006609 -190042.000000 0 0 1
-14.582637 17.236757 -22.042453 31.553587 -0.868618 2.344196 -0.005054 0.001177 -877436.000000 0 0 1
-14.496137 18.749657 -22.269153 32.520806 -0.912648 2.325079 -0.004155 -0.000731 88022.500000 0 0 1
-15.668937 19.535257 -22.039953 33.360177 -0.894785 2.292503 -0.025301 0.000698 732633.000000 0 0 1
-16.571737 19.354557 -23.150653 34.426358 -0.862703 2.308336 -0.023967 0.000651 -102142.000000 0 0 1
-17.838637 20.239957 -23.171653 35.564004 -0.848377 2.280419 -0.020431 0.002639 -295643.000000 0 0 1
-17.607637 21.610457 -23.337453 36.354882 -0.887112 2.267815 -0.025498 0.004190 172879.000000 0 0 1
-18.794737 22.358057 -23.592053 37.546103 -0.871770 2.250225 0.003375 -0.009194 139368.000000 0 0 1
-18.499637 23.751857 -24.139253 38.588740 -0.909072 2.246635 0.000063 -0.010476 53762.400000 0 0 1
-17.994937 24.572657 -23.108153 38.231139 -0.938710 2.219850 0.004323 -0.002768 128135.000000 0 0 1
-17.069337 25.550957 -23.599953 38.744954 -0.981836 2.225735 -0.003816 0.002275 -299681.000000 0 0 1
-16.063537 25.942057 -22.507553 37.915927 -1.016373 2.206343 -0.000878 -0.004433 602952.000000 0 0 1
-14.943737 25.031157 -22.257353 36.677839 -1.032582 2.222867 0.005426 -0.015629 915095.000000 0 0 1
-15.294837 23.747757 -21.693053 35.615679 -0.998612 2.225705 -0.006390 0.000503 -675664.000000 0 0 1
-14.183937 22.666257 -21.657353 34.409072 -1.011641 2.251588 0.007579 -0.005550 541518.000000 0 0 1
-13.137637 23.118057 -20.787853 33.751695 -1.054023 2.234331 0.024778 -0.010438 36428.400000 0 0 1
-12.195937 22.104357 -20.500853 32.521200 -1.066615 2.252844 0.027432 -0.008814 175921.000000 0 0 1
-11.461937 22.332457 -19.135053 31.563664 -1.096612 2.222116 0.024723 -0.006944 -47748.000000 0 0 1
-12.303937 22.234357 -18.017653 31.151073 -1.065366 2.187557 0.025625 -0.003145 39219.700000 0 0 1
-13.047237 23.452857 -17.801953 32.205224 -1.063116 2.156476 0.037283 -0.011965 332591.000000 0 0 1
-13.970337 23.362357 -16.528153 31.845720 -1.031860 2.116485 0.055566 -0.017734 467535.000000 0 0 1
-13.219437 23.508457 -15.300953 31.008390 -1.058538 2.086843 0.078102 -0.028540 575318.000000 0 0 1
-14.069937 23.484357 -14.130853 30.808427 -1.031024 2.047292 0.078615 -0.022595 320627.000000 0 0 1
-13.362037 23.779357 -12.796953 30.129120 -1.058849 2.009468 0.090743 -0.024226 -122708.000000 0 0 1
-12.783137 25.042957 -12.736453 30.867062 -1.098825 1.996128 0.084064 -0.025473 396819.000000 0 0 1
-11.758737 25.139057 -11.748053 30.137300 -1.133282 1.971230 0.066330 -0.019843 207617.000000 0 0 1
-11.213137 26.584857 -11.699553 31.134685 -1.171651 1.956026 0.074194 -0.027881 5819.290000 0 0 1
-10.425437 26.927557 -12.813953 31.590829 -1.201402 1.988456 0.076958 -0.034659 -75280.800000 0 0 1
-10.216237 28.317657 -12.836453 32.726682 -1.224557 1.973853 0.042192 -0.007829 -845895.000000 0 0 1
-9.823337 28.897157 -14.228053 33.674636 -1.243110 2.007015 0.066271 -0.028281 956521.000000 0 0 1
-8.420737 29.000057 -14.536253 33.514396 -1.288198 2.019426 0.045505 -0.025529 386809.000000 0 0 1
-7.748837 27.805057 -14.639253 32.364694 -1.299008 2.040163 0.051074 -0.029690 -257898.000000 0 0 1
-6.275937 27.980857 -15.122653 32.419290 -1.350154 2.056093 0.047777 -0.025177 882939.000000 0 0 1
-5.362037 28.511557 -14.150853 32.278584 -1.384902 2.024611 0.033251 -0.027097 -250686.000000 0 0 1
-4.148637 28.660257 -14.860453 32.549264 -1.427043 2.044913 0.036755 -0.025142 217759.000000 0 0 1
-3.140137 29.712357 -14.261753 33.107132 -1.465503 2.016149 0.010576 -0.020714 148455.000000 0 0 1
-3.408637 31.106757 -14.490053 34.484935 -1.461653 2.004446 0.007673 -0.020213 -343259.000000 0 0 1
-4.450837 31.649957 -13.713653 34.779218 -1.431086 1.976109 0.001873 -0.021782 -96966.000000 0 0 1
-4.600137 33.179257 -13.837353 36.242195 -1.433030 1.962542 -0.001672 -0.026025 -343007.000000 0 0 1
-3.481837 33.870257 -13.357653 36.575188 -1.468357 1.944656 -0.010869 -0.023546 -329426.000000 0 0 1
-3.595037 -33.718497 -13.690053 36.568824 1.464578 1.954507 -0.020193 -0.019716 79399.200000 0 0 1
-2.673637 -32.752297 -12.977153 35.330833 1.489345 1.946905 -0.017903 -0.013022 -543271.000000 0 0 1
-3.169537 -32.602797 -11.650553 34.766704 1.473884 1.912515 -0.015221 -0.014592 -140452.000000 0 0 1
-2.348437 -31.854597 -10.836553 33.729236 1.497206 1.897878 -0.026940 -0.014302 -529359.000000 0 0 1
-2.801537 -31.986297 -9.335353 33.438310 1.483434 1.853738 -0.025162 -0.010512 -840591.000000 0 0 1
-2.011637 -31.236897 -8.507553 32.437152 1.506486 1.836178 -0.023335 -0.004176 -501619.000000 0 0 1
-2.278537 -31.458897 -7.115453 32.333939 1.498494 1.792674 -0.020505 -0.014609 -22035.400000 0 0 1
-1.149837 -30.839897 -6.266153 31.491047 1.533530 1.771115 -0.005265 -0.010611 57214.300000 0 0 1
-1.234237 -31.155497 -4.929353 31.567180 1.531202 1.727592 -0.003201 -0.010316 215592.000000 0 0 1
-0.080537 -30.710897 -4.208553 30.998025 1.568174 1.706985 -0.003484 -0.000750 382716.000000 0 0 1
-0.184737 -30.696697 -2.584753 30.805880 1.564778 1.654800 -0.003428 0.000960 -430153.000000 0 0 1
-0.208237 -31.964097 -1.843153 32.017871 1.564282 1.628395 0.003369 -0.012180 795391.000000 0 0 1
0.837363 -32.934597 -2.135053 33.014350 -1.545377 1.635512 0.002598 -0.012274 445114.000000 0 0 1
2.269163 -32.608897 -1.700253 32.731943 -1.501321 1.622764 0.018405 -0.009769 -928696.000000 0 0 1
2.541663 -32.815497 -0.332453 32.915458 -1.493498 1.580897 0.006036 -0.009806 -194937.000000 0 0 1
3.745363 -32.317797 0.195047 32.534685 -1.455419 1.564801 0.011668 -0.013534 -105485.000000 0 0 1
3.958163 -30.700297 0.133747 30.954695 -1.442575 1.566476 0.007641 -0.013396 -980179.000000 0 0 1
4.206563 -30.156797 -1.128253 30.469665 -1.432201 1.607834 0.019874 -0.022498 103929.000000 0 0 1
4.151363 -28.773997 -0.960753 29.087794 -1.427510 1.603832 0.021630 -0.009962 -519543.000000 0 0 1
3.716863 -28.029097 -2.207953 28.360543 -1.438958 1.648728 0.017962 -0.007665 442358.000000 0 0 1
2.410963 -28.286597 -2.749653 28.522007 -1.485768 1.667351 0.014019 -0.005743 557692.000000 0 0 1
1.900763 -27.371197 -3.677453 27.682467 -1.501464 1.704034 0.014387 -0.005840 -8061.000000 0 0 1
2.444363 -27.483197 -5.122653 28.063189 -1.482089 1.754366 0.010769 -0.008109 -236297.000000 0 0 1
1.840463 -28.464297 -5.890853 29.125687 -1.506228 1.774458 0.008177 -0.008229 -237192.000000 0 0 1
2.205463 -28.251197 -7.248053 29.249418 -1.492888 1.821207 0.023229 -0.016453 -102898.000000 0 0 1
1.419963 -29.059297 -8.262853 30.244566 -1.521971 1.847516 0.001505 -0.010759 -126339.000000 0 0 1
0.131463 -28.581797 -8.603053 29.848767 -1.566197 1.863165 -0.001010 -0.008682 -117627.000000 0 0 1
-0.168037 -28.577397 -10.023353 30.284706 1.564916 1.908128 0.018001 -0.008125 429985.000000 0 0 1
-1.578437 -27.954797 -10.198853 29.798972 1.514392 1.920112 -0.016593 -0.008342 -266176.000000 0 0 1
-1.599737 -26.565397 -9.908953 28.398359 1.510650 1.927222 -0.005240 -0.000675 299255.000000 0 0 1
-2.859237 -25.955697 -9.587153 27.817026 1.461080 1.922663 -0.004460 -0.010072 1013580.000000 0 0 1
-3.665337 -26.522897 -8.354053 28.047976 1.433471 1.873235 -0.007278 -0.006979 -218429.000000 0 0 1
-3.083137 -26.314397 -7.067453 27.420833 1.454163 1.831479 -0.001016 -0.009766 -345652.000000 0 0 1
-2.262937 -27.383497 -6.658553 28.272126 1.488345 1.808546 -0.001324 -0.004109 -125290.000000 0 0 1
-1.802937 -27.147597 -5.232153 27.705920 1.504481 1.760783 0.007924 -0.004263 -55097.600000 0 0 1
-2.780737 -27.335597 -4.212353 27.797684 1.469419 1.722918 0.016534 -0.008569 99366.500000 0 0 1
-2.274137 -27.084197 -2.902753 27.334070 1.487027 1.677192 0.015658 0.001506 1125390.000000 0 0 1
-3.450137 -27.102597 -1.805053 27.380877 1.444178 1.636768 0.011692 0.001169 1380900.000000 0 0 1
-4.499237 -26.145297 -1.999253 26.604824 1.400380 1.646014 0.017964 0.003856 535196.000000 0 0 1
-5.334337 -26.196697 -0.817753 26.746790 1.369916 1.601375 0.026994 -0.001424 347227.000000 0 0 1
-6.494937 -25.175297 -0.798753 26.011878 1.318313 1.601508 0.014662 0.001567 272579.000000 0 0 1
-6.034337 -23.817797 -0.633253 24.578480 1.322663 1.596564 0.009793 -0.000125 346432.000000 0 1 0
-6.826037 -23.192097 0.379347 24.178752 1.284553 1.555106 0.015404 0.006044 -8524.080000 0 1 0
-6.319637 -21.779197 0.651347 22.686901 1.288383 1.542082 0.007397 0.001275 310757.000000 0 1 0
-5.118137 -21.861497 1.391247 22.495687 1.340822 1.508912 -0.004913 0.000627 -402523.000000 0 1 0
-4.362037 -20.727797 1.373647 21.226300 1.363379 1.506037 -0.013655 0.007612 84960.600000 0 1 0
-3.299637 -20.519597 2.491647 20.932027 1.411357 1.451478 -0.006723 0.009501 330939.000000 0 1 0
-3.908937 -20.379397 3.791747 21.094477 1.381290 1.390063 -0.007805 0.012183 194810.000000 0 1 0
-2.999137 -20.144597 4.883647 20.943963 1.423001 1.335453 0.007388 0.003345 380830.000000 0 1 0
-2.101637 -21.379497 5.275647 22.120854 1.472810 1.329984 -0.001896 -0.001000 144633.000000 0 1 0
-1.078837 -21.673997 4.375247 22.137498 1.521062 1.371847 0.016754 -0.006150 -686758.000000 0 1 0
-0.627537 -22.961097 4.610347 23.427784 1.543473 1.372714 0.017888 -0.004689 -615814.000000 0 1 0
0.300063 -23.383997 3.437047 23.637145 -1.557965 1.424870 0.021667 -0.013184 1104430.000000 0 1 0
1.508863 -22.615397 3.287447 22.902841 -1.504177 1.426760 0.005955 -0.012378 1112420.000000 0 1 0
2.572263 -22.902397 4.197047 23.425446 -1.458951 1.390658 0.026815 -0.017621 -342475.000000 0 1 0
3.684963 -21.900997 4.423147 22.645018 -1.404102 1.374207 0.038647 -0.025348 -57411.500000 0 1 0
4.686163 -21.938897 3.388247 22.688224 -1.360358 1.420896 0.018118 -0.011589 -407175.000000 0 1 0
5.833663 -21.338797 3.916147 22.465798 -1.303934 1.395585 0.034762 -0.007115 -426478.000000 0 1 0
6.688363 -20.639397 2.883247 21.886800 -1.257417 1.438678 0.041546 0.001005 -702243.000000 0 1 0
7.370063 -21.583697 2.046347 22.898937 -1.241746 1.481313 0.034006 -0.005467 -136889.000000 0 1 0
6.669163 -21.911297 0.862747 22.920013 -1.275334 1.533146 0.026823 -0.001998 -110038.000000 0 1 0
7.591163 -22.714597 -0.032953 23.949525 -1.248268 1.572172 0.027218 -0.002534 917838.000000 0 1 0
8.737163 -21.962797 -0.514553 23.642487 -1.192174 1.592562 0.029089 -0.005801 255017.000000 0 1 0
9.583863 -22.833097 -1.234653 24.793650 -1.173393 1.620614 0.029104 -0.005124 971787.000000 0 1 0
10.983363 -22.253097 -1.668853 24.872065 -1.112309 1.637944 0.030364 -0.001298 804876.000000 0 1 0
10.860563 -21.300597 -2.657453 24.056793 -1.099283 1.681488 0.029839 0.002131 -635493.000000 0 1 0
12.103163 -21.163597 -3.307853 24.603379 -1.051306 1.705652 0.029750 -0.000797 -83030.700000 0 1 0
12.226363 -19.971597 -4.339553 23.815548 -1.021464 1.754035 0.024513 -0.010969 -589144.000000 0 1 0
12.212363 -18.739697 -3.715553 22.674289 -0.993238 1.735405 0.030248 -0.008761 136277.000000 0 1 0
12.582063 -17.720897 -4.655553 22.226395 -0.953382 1.781820 0.033663 -0.016730 -848883.000000 0 1 0
12.898463 -16.348097 -4.049653 21.213917 -0.902806 1.762871 0.041806 -0.013120 1149350.000000 0 1 0
14.217363 -16.328897 -3.457553 21.925349 -0.854414 1.729154 0.038180 -0.011537 1371530.000000 0 1 0
15.302863 -16.224997 -4.383953 22.729874 -0.814638 1.764884 0.046559 -0.015975 500133.000000 0 1 0
16.729363 -15.950797 -3.804553 23.425928 -0.761579 1.733927 0.042885 -0.010978 857971.000000 0 1 0
17.430763 -17.092297 -3.282253 24.632322 -0.775594 1.704444 0.052733 -0.009433 151105.000000 0 1 0
18.765663 -16.747297 -3.036853 25.334650 -0.728625 1.690955 0.044137 -0.002715 -409244.000000 0 0 1
19.564963 -17.623597 -2.071853 26.413472 -0.733242 1.649316 0.042450 -0.014088 -608628.000000 0 0 1
20.937763 -17.393097 -2.203953 27.308737 -0.693185 1.651589 0.035954 -0.011743 -576600.000000 0 0 1
21.572363 -18.116297 -1.189453 28.195422 -0.698538 1.612995 0.031369 -0.007305 9733.300000 0 0 1
23.099963 -18.309097 -1.402453 29.509289 -0.670214 1.618340 0.026992 -0.007494 462027.000000 0 0 1
23.818063 -17.073997 -1.215353 29.330846 -0.621946 1.612244 0.029414 -0.001805 992079.000000 0 0 1
25.162563 -17.311797 -0.754653 30.551962 -0.602626 1.595499 0.033771 0.002864 848482.000000 0 0 1
25.765963 -15.934097 -0.313753 30.296513 -0.553851 1.581153 0.027125 -0.007265 96707.500000 0 0 1
25.099663 -15.327397 0.800047 29.420439 -0.548222 1.543599 0.026578 -0.006945 179110.000000 0 0 1
25.892163 -14.299597 1.349647 29.609189 -0.504588 1.525199 0.020597 -0.018159 -187655.000000 0 0 1
25.206963 -13.275097 2.286647 28.580551 -0.484735 1.490704 0.040662 -0.023003 -389425.000000 0 0 1
24.725763 -13.736097 3.522447 28.503532 -0.507085 1.446900 0.047899 -0.008512 -46744.000000 0 0 1
25.727463 -14.157297 4.429247 29.697636 -0.503058 1.421093 0.037525 -0.001191 -42930.800000 0 0 1
25.265363 -14.736897 5.790947 29.816937 -0.528038 1.375337 0.034034 0.002258 26254.900000 0 0 1
24.585263 -15.967197 5.737847 29.871548 -0.575997 1.377511 0.033875 -0.000321 -5324.100000 0 0 1
23.871063 -16.312997 6.914747 29.728021 -0.599484 1.336046 0.018772 -0.000208 -37087.200000 0 0 1
23.061163 -17.643797 6.676047 29.794133 -0.653087 1.344805 0.017742 -0.006394 -195704.000000 0 0 1
23.832363 -18.786297 6.432847 31.020767 -0.667546 1.361908 0.019254 -0.008545 -161644.000000 0 0 1
23.035863 -19.944397 6.619647 31.180918 -0.713594 1.356870 0.006591 0.002618 105068.000000 0 0 1
1.774763 23.382157 -3.135553 23.658122 1.495039 1.703723 0.021588 -0.008168 124222.000000 0 1 0
2.478863 24.484857 -2.600553 24.747037 1.469899 1.676076 0.020877 -0.005968 -303267.000000 0 1 0
3.286163 25.004457 -3.627853 25.479071 1.440122 1.713668 0.028585 -0.003797 -377619.000000 0 0 1
4.254363 26.052557 -3.108453 26.580026 1.408926 1.688012 0.026049 0.001419 -894246.000000 0 0 1
5.244963 25.544857 -2.301153 26.179088 1.368287 1.658810 0.024070 0.001066 -1220080.000000 0 0 1
5.913263 26.567457 -1.649253 27.267498 1.351791 1.631317 0.014454 0.001553 -510650.000000 0 0 1
7.097063 25.901057 -0.917653 26.871455 1.303354 1.604953 0.004864 -0.011256 -494652.000000 0 0 1
8.074163 25.537557 -1.844153 26.846970 1.264573 1.639542 0.009008 -0.014942 -989718.000000 0 0 1
8.922063 24.567057 -1.309453 26.169794 1.222436 1.620854 0.008682 -0.011892 231937.000000 0 0 1
10.145263 24.329657 -2.266853 26.457460 1.175728 1.656581 0.013434 -0.008148 79517.000000 0 0 1
11.063163 25.450557 -2.348353 27.850299 1.160745 1.655217 0.016489 -0.007369 170351.000000 0 0 1
12.100563 25.399857 -3.286453 28.326262 1.126204 1.687080 0.032149 -0.009410 799191.000000 0 0 1
13.234263 24.331557 -2.983653 27.858079 1.072638 1.678104 0.033100 -0.014334 -302195.000000 0 0 1
12.821663 23.001557 -3.185053 26.525671 1.062270 1.691161 0.031047 -0.014038 -147118.000000 0 0 1
12.792963 22.666457 -4.568953 26.425432 1.056964 1.744569 0.029752 -0.018480 -6111.950000 0 0 1
11.821463 21.479357 -4.880653 24.998610 1.067674 1.767295 0.027790 -0.016388 1027620.000000 0 1 0
10.419563 21.740257 -4.905953 24.602326 1.123866 1.771552 0.030428 -0.012167 553014.000000 0 1 0
9.607463 20.568057 -5.056453 23.257601 1.133808 1.789957 0.013306 -0.006062 -39570.700000 0 1 0
8.141663 20.977757 -4.934753 23.037030 1.200582 1.786679 0.011585 -0.001562 -408843.000000 0 1 0
7.693263 21.307957 -3.611253 22.940280 1.224310 1.728874 0.015042 -0.006824 1050150.000000 0 1 0
6.350163 21.841457 -3.550353 23.021268 1.287857 1.725635 0.020194 0.004400 1413200.000000 0 1 0
5.855763 22.455457 -2.142053 23.305061 1.315705 1.662840 0.027805 -0.001636 141514.000000 0 1 0
5.529763 21.507757 -1.164053 22.237736 1.319141 1.623166 0.024499 -0.009477 -213267.000000 0 1 0
4.840863 22.183257 -0.148653 22.705791 1.355943 1.577343 0.030265 -0.002750 202671.000000 0 1 0
4.300863 21.216557 0.961247 21.669418 1.370794 1.526422 0.018672 -0.012969 -4999.900000 0 1 0
3.721363 21.822957 2.073647 22.234882 1.401896 1.477400 0.024483 -0.011130 -329881.000000 0 1 0
3.212363 20.916357 2.981847 21.370649 1.418406 1.430810 0.020559 -0.012415 -481867.000000 0 1 0
2.193163 21.430657 3.989947 21.908963 1.468814 1.387660 0.019553 -0.019801 -791663.000000 0 1 0
0.927463 21.538957 3.409347 21.826829 1.527763 1.413954 0.020093 -0.016755 -692026.000000 0 1 0
0.060663 22.166357 4.336447 22.586629 1.568060 1.377605 0.017496 -0.018971 -190852.000000 0 1 0
-1.423737 22.136857 3.967047 22.534527 -1.506570 1.393831 0.014938 -0.019189 -38811.500000 0 1 0
-2.299437 22.674457 4.958747 23.323970 -1.469731 1.356558 0.024668 -0.018668 148574.000000 0 1 0
-3.579437 22.829257 4.363647 23.516563 -1.415271 1.384158 0.028603 -0.015210 223085.000000 0 1 0
-4.769937 23.121957 5.300947 24.196636 -1.367356 1.349927 0.032671 -0.023004 27538.400000 0 1 0
-4.895137 24.461557 5.741547 25.598740 -1.373290 1.344582 0.041740 -0.016028 -448580.000000 0 0 1
-5.955437 24.669357 6.616447 26.226356 -1.333918 1.315758 0.043130 -0.020602 -135936.000000 0 0 1
-6.345337 26.143457 6.960547 27.788358 -1.332688 1.317616 0.048278 -0.019518 -302260.000000 0 0 1
-5.351337 26.692357 7.786447 28.315146 -1.372937 1.292215 0.042465 -0.024668 -152091.000000 0 0 1
-5.724037 27.867357 8.481847 29.686628 -1.368211 1.281046 0.053298 -0.026260 -125417.000000 0 0 1
-5.887837 29.157557 7.652947 30.714774 -1.371544 1.318982 0.058006 -0.023583 119641.000000 0 0 1
-7.039337 29.074057 6.854347 30.689332 -1.333250 1.345550 0.055116 -0.022566 -708413.000000 0 0 1
-7.250337 30.249457 6.076547 31.694186 -1.335549 1.377878 0.063501 -0.023446 564195.000000 0 0 1
-8.717737 30.579057 5.558747 32.279673 -1.293075 1.397728 0.063604 -0.024299 1127930.000000 0 0 1
-9.589637 30.967657 6.596247 33.082735 -1.270495 1.370065 0.062443 -0.025951 -308313.000000 0 0 1
-10.101737 29.911857 7.360147 32.418143 -1.245106 1.341761 0.045410 -0.023214 -1040700.000000 0 0 1
-10.984437 30.421357 8.521047 33.447347 -1.224288 1.313197 0.027267 -0.023046 -121632.000000 0 0 1
-10.374937 31.026557 9.656147 34.110522 -1.248096 1.283788 0.037232 -0.026370 460969.000000 0 0 1
-11.421937 31.345157 10.590147 35.001867 -1.221358 1.263419 0.041092 -0.023236 799891.000000 0 0 1
-10.785537 31.859057 11.913747 35.682834 -1.244368 1.230381 0.039918 -0.026771 -59895.100000 0 0 1
-10.416837 33.205457 11.887047 36.775192 -1.266811 1.241650 0.043074 -0.022544 496433.000000 0 0 1
-9.433437 33.418457 12.918047 37.049412 -1.295673 1.214644 0.046745 -0.030503 287634.000000 0 0 1
-9.008237 -34.051997 12.921647 37.518739 1.312177 1.219191 0.047945 -0.030778 572438.000000 0 0 1
-9.966337 -33.210397 13.614047 37.250511 1.279251 1.196656 0.037210 -0.018283 479806.000000 0 0 1
-9.406637 -31.932397 13.717247 36.004522 1.284320 1.179933 0.044425 -0.007900 194127.000000 0 0 1
-10.267537 -30.825897 14.423947 35.548677 1.249272 1.152995 0.048629 -0.008059 -90670.000000 0 0 1
-10.467237 -31.039697 15.822447 36.378230 1.245551 1.120822 0.035894 -0.014698 -52932.400000 0 0 1
-9.439837 -30.546197 16.663147 36.053309 1.271071 1.090344 0.042802 -0.007940 -596.740000 0 0 1
-9.685237 -30.672497 18.156347 36.935874 1.264942 1.056911 0.035632 -0.017204 -85678.600000 0 0 1
-10.665437 -29.753497 18.597047 36.672500 1.226605 1.038966 0.062150 -0.023224 -14280.700000 0 0 1
-11.213337 -30.299197 19.747747 37.864941 1.216340 1.022152 0.063240 -0.027513 -451864.000000 0 0 1
-11.385937 -29.356497 20.951547 37.820772 1.200807 0.983672 0.061953 -0.031290 -645592.000000 0 0 1
-10.199637 -29.114297 21.626247 37.674519 1.233827 0.959379 0.046233 -0.023756 -274846.000000 0 0 1
-10.431637 -28.280597 22.782247 37.784150 1.217418 0.923593 0.030348 -0.017362 471596.000000 0 0 1
-9.136737 -28.304397 23.643147 37.994963 1.258553 0.899156 0.035677 -0.019939 459714.000000 0 0 1
-8.950837 -29.597197 24.243147 39.291751 1.277119 0.905867 0.035915 -0.007002 119539.000000 0 0 1
-7.703837 -29.634897 24.927847 39.483842 1.316467 0.887513 0.043423 -0.007506 311572.000000 0 0 1
-7.598037 -30.763497 26.049047 41.020431 1.328660 0.882754 0.045147 -0.006772 -130558.000000 0 0 1
-7.419337 -32.081097 25.531447 41.666510 1.343524 0.911252 0.060937 0.004807 229171.000000 0 0 1
-7.261637 -33.060197 26.537147 43.010791 1.354581 0.905887 0.056168 -0.000249 -226597.000000 0 0 1
-7.245637 34.454657 26.040547 43.791925 -1.363522 0.933975 0.045795 -0.004970 -622325.000000 0 0 1
-5.956337 34.020157 25.726647 43.066337 -1.397471 0.930576 0.044161 0.002654 -317982.000000 0 0 1
-5.856937 32.674357 25.239947 41.700986 -1.393428 0.920704 0.033427 0.004789 54142.700000 0 0 1
-6.554937 32.319857 23.875647 40.713473 -1.370696 0.944151 0.037700 0.000027 368555.000000 0 0 1
-7.511337 31.272457 23.996447 40.127499 -1.335072 0.929787 0.038129 -0.000677 73855.700000 0 0 1
-8.184937 31.107057 22.783147 39.417178 -1.313507 0.954520 0.030042 -0.002410 -129329.000000 0 0 1
-9.249137 30.018357 22.746447 38.782072 -1.271910 0.944041 0.027349 -0.015170 -96438.400000 0 0 1
-8.609337 28.801957 22.613147 37.616855 -1.280335 0.925864 0.034990 -0.010118 -74541.500000 0 0 1
-9.487737 27.759857 22.986447 37.269338 -1.241464 0.906169 0.038750 -0.014136 -44838.000000 0 0 1
-8.873237 26.372457 22.688147 35.902546 -1.246236 0.886746 0.033979 -0.004012 399449.000000 0 0 1
-7.761837 26.091357 23.547547 35.992943 -1.281647 0.857637 0.021591 -0.002307 31838.600000 0 0 1
-7.282037 24.843857 23.269647 34.809794 -1.285671 0.838633 0.016492 -0.002058 48225.900000 0 0 1
-5.860037 24.686357 23.873247 34.838027 -1.337731 0.815830 -0.002373 0.006299 501229.000000 0 0 1
-4.839037 25.386257 23.158247 34.701336 -1.382440 0.840139 -0.004194 0.010822 -477807.000000 0 0 1
-3.658037 25.358757 23.897347 35.036138 -1.427533 0.820197 -0.002840 0.011376 -942441.000000 0 0 1
-2.439137 25.704357 23.077147 34.629728 -1.476188 0.841430 -0.008054 0.027634 -838760.000000 0 0 1
-2.110137 24.799057 22.022647 33.233159 -1.485911 0.846417 -0.004579 0.025138 -81677.700000 0 0 1
-1.570237 25.381357 20.861547 32.891991 -1.509009 0.883766 0.007776 0.027688 22935.900000 0 0 1
-1.165237 24.311457 19.826547 31.392621 -1.522903 0.887224 0.005380 0.025171 -102779.000000 0 0 1
-0.179537 23.369157 20.268847 30.935026 -1.563114 0.856340 0.019099 0.018033 216507.000000 0 0 1
0.135563 22.389057 19.295647 29.556898 1.564742 0.859481 0.012783 0.015734 -516984.000000 0 0 1
1.366163 21.551957 19.649047 29.196546 1.507492 0.832550 0.018572 0.011751 240650.000000 0 0 1
2.579963 22.307157 19.512347 29.748901 1.455652 0.855420 0.033477 0.003561 -272983.000000 0 0 1
3.626263 21.390457 19.513047 29.179795 1.402866 0.838313 0.037547 0.001703 441743.000000 0 0 1
5.039163 21.997457 19.150847 29.597908 1.345603 0.867109 0.035477 0.001682 1242300.000000 0 0 1
6.069563 21.012057 19.219147 29.115661 1.289590 0.849849 0.035927 -0.004401 -691514.000000 0 0 1
7.292163 21.521657 18.821647 29.506130 1.244108 0.879042 0.041451 -0.005283 -390138.000000 0 0 1
8.314763 20.392457 18.460547 28.736377 1.183638 0.873157 0.034031 0.003534 6681.720000 0 0 1
8.938963 19.835857 19.561847 29.258026 1.147405 0.838475 0.044757 -0.007862 -113312.000000 0 0 1
9.791063 18.754057 19.227347 28.587942 1.089643 0.833122 0.027285 -0.002958 154236.000000 0 0 1
10.188563 17.966057 20.514047 29.110344 1.054919 0.788797 0.039438 -0.010636 96346.400000 0 0 1
9.192663 17.090057 21.045447 28.626664 1.077294 0.744880 0.051635 -0.013263 258456.000000 0 0 1
9.667163 16.491357 22.267847 29.347502 1.040589 0.709382 0.048334 -0.013010 -407389.000000 0 0 1
8.824163 15.355457 22.823647 28.889007 1.049218 0.659912 0.039559 -0.008013 169549.000000 0 0 1
7.732963 15.883057 23.593447 29.474072 1.117709 0.642698 0.037354 -0.003376 528928.000000 0 0 1
6.604763 15.036257 23.778347 28.898472 1.156913 0.604434 0.029088 -0.003205 481599.000000 0 0 1
6.762863 13.809857 24.767947 29.153038 1.115412 0.555601 0.031725 -0.001048 -555080.000000 0 0 1
7.018963 14.250557 26.082547 30.539212 1.113135 0.547041 0.031903 -0.004433 67814.300000 0 0 1
7.291263 13.158957 26.928947 30.846212 1.064817 0.509463 0.030253 -0.005958 -92020.500000 0 0 1
8.398963 13.564257 27.975747 32.205186 1.016380 0.518281 0.014394 -0.000070 -54316.700000 0 0 1
9.698863 13.723657 27.509847 32.236600 0.955571 0.548374 0.036693 0.002734 -311140.000000 0 0 1
10.038663 14.946457 26.828247 32.309846 0.979357 0.591074 0.031679 0.003561 647862.000000 0 0 1
11.460563 14.877457 26.133447 32.181365 0.914410 0.623110 0.038666 -0.002355 887220.000000 0 0 1
11.387163 14.092857 24.903347 30.796960 0.891191 0.628977 0.036632 -0.006392 315194.000000 0 0 1
12.633763 13.733157 24.321947 30.655646 0.827070 0.654435 0.044431 -0.003947 -169008.000000 0 0 1
12.550363 12.344757 23.546247 29.399496 0.777139 0.641989 0.035810 -0.016609 -93559.500000 0 0 1
12.173863 11.175257 24.193247 29.298506 0.742656 0.599265 0.038031 -0.009317 799645.000000 0 0 1
10.756063 11.099257 24.410947 28.892572 0.801100 0.564443 0.049542 -0.007580 372227.000000 0 0 1
10.354363 9.721257 24.934747 28.695945 0.753873 0.517761 0.038866 -0.004740 -240491.000000 0 0 1
10.452663 8.718957 23.941547 27.540443 0.695213 0.516965 0.039221 -0.000508 203813.000000 0 0 1
10.114763 7.517157 24.519447 27.568448 0.639126 0.474760 0.038464 -0.003645 -80631.400000 0 0 1
10.341863 6.238057 23.572047 26.486013 0.542758 0.473493 0.047717 -0.013563 -193902.000000 0 0 1
11.722063 6.012057 23.374747 26.831518 0.473901 0.513221 0.048553 -0.009418 193122.000000 0 0 1
11.946363 5.025057 22.394847 25.874619 0.398168 0.524621 0.052502 -0.019612 -205.127000 0 0 1
11.753563 3.578757 22.933747 26.017503 0.295564 0.491822 0.042635 -0.022657 -177396.000000 0 0 1
12.779363 3.278657 23.870747 27.274058 0.251142 0.504910 0.038243 -0.009328 221843.000000 0 0 1
12.634763 2.109657 24.565747 27.704942 0.165446 0.480656 0.034872 -0.014309 156850.000000 0 0 1
13.958263 1.718057 25.312847 28.957297 0.122469 0.507126 0.024549 -0.003949 450991.000000 0 0 1
14.774363 1.048757 24.389447 28.534659 0.070866 0.545765 0.015155 -0.004605 43655.400000 0 0 1
16.166763 1.178257 24.602247 29.462231 0.072753 0.582584 0.016531 -0.005684 865803.000000 0 0 1
17.148063 0.286357 23.732747 29.281074 0.016698 0.625766 0.017217 -0.004599 388247.000000 0 0 1
17.031863 -1.075243 24.082547 29.516259 -0.063048 0.616499 0.010088 -0.005454 52975.700000 0 0 1
18.099363 -1.915643 23.696647 29.879553 -0.105448 0.654960 0.013431 -0.002707 -484489.000000 0 0 1
17.943963 -3.398743 24.178547 30.300815 -0.187191 0.646909 0.016184 0.000364 96486.500000 0 0 1
16.967163 -4.085343 23.412747 29.201564 -0.236282 0.640556 0.013750 -0.008802 172589.000000 0 0 1
17.105963 -5.421343 23.766547 29.780088 -0.306913 0.646714 0.035395 -0.013180 147014.000000 0 0 1
16.197863 -6.405143 22.963447 28.822153 -0.376562 0.648933 0.021793 -0.016626 71686.000000 0 0 1
16.599163 -6.640643 21.596447 28.036349 -0.380557 0.691482 0.009919 -0.020707 334914.000000 0 0 1
15.797163 -7.660043 20.973047 27.351331 -0.451495 0.696953 0.024728 -0.028603 267797.000000 0 0 1
16.243063 -9.140043 21.210247 28.235652 -0.512545 0.720938 0.033298 -0.024519 84970.200000 0 0 1
15.940563 -9.536243 22.512047 29.186191 -0.539123 0.689875 0.022482 -0.016277 -310575.000000 0 0 1
16.687263 -10.659343 22.845347 30.232370 -0.568441 0.714137 0.024926 -0.019096 -499502.000000 0 0 1
16.179463 -11.514043 23.962747 31.121720 -0.618499 0.692004 0.042002 -0.028120 -366124.000000 0 0 1
15.054563 -12.265043 23.573747 30.541655 -0.683644 0.689042 0.037401 -0.023534 -150115.000000 0 0 1
14.523663 -13.095343 24.591647 31.419323 -0.733729 0.671817 0.045657 -0.007886 236380.000000 0 0 1
13.473463 -14.040043 23.948747 30.857730 -0.805988 0.682336 0.046973 -0.011796 243781.000000 0 0 1
14.080463 -14.820443 22.901747 30.698452 -0.810997 0.728727 0.040402 -0.002966 693786.000000 0 0 1
13.056863 -15.635743 22.314647 30.214261 -0.875037 0.739884 0.049379 0.007652 395171.000000 0 0 1
13.437463 -16.486843 21.041747 29.918832 -0.886951 0.790775 0.037402 0.002471 -241558.000000 0 0 1
14.346163 -17.527743 21.303247 31.094413 -0.884886 0.816035 0.044779 -0.000625 -9113.950000 0 0 1
14.554663 -18.265143 20.063147 30.789341 -0.897976 0.861070 0.041497 -0.001268 -132072.000000 0 0 1
-23.342937 -32.395397 26.828770 48.105482 0.946402 0.979175 0.016137 -0.016889 -473858.000000 0 0 1
-23.704637 -33.562297 27.542090 49.466194 0.955863 0.980285 0.023205 -0.015051 -467753.000000 0 0 1
-24.809737 -34.078097 26.856220 49.980959 0.941508 1.003529 0.017061 -0.017652 -168930.000000 0 0 1
-25.686117 34.027457 27.861110 50.930206 -0.924189 0.991966 0.011614 -0.013575 47228.400000 0 0 1
-26.443487 -34.096797 28.739430 51.844039 0.911148 0.983222 0.038364 -0.020197 452535.000000 0 0 1
-25.678207 -33.519597 29.796670 51.679544 0.917092 0.956277 0.029844 -0.014872 -388755.000000 0 0 1
-26.631017 -32.866897 30.801320 52.327481 0.889825 0.941438 0.016458 -0.014975 11663.300000 0 0 1
-27.039597 -31.589897 30.378780 51.496910 0.862854 0.939843 0.006771 -0.011803 96902.500000 0 0 1
-27.865207 -30.971997 31.337490 52.132261 0.838152 0.925901 0.006591 -0.005448 -302763.000000 0 0 1
-28.204317 -29.547597 31.050420 51.309576 0.808653 0.920832 0.003780 -0.006055 -199219.000000 0 0 1
-28.964217 -29.318897 29.885400 50.908356 0.791484 0.943395 0.013017 -0.009613 260292.000000 0 0 1
-29.434797 -27.981297 29.839830 50.396188 0.760088 0.937128 0.013252 -0.004095 76684.400000 0 0 1
-30.065657 -27.569297 28.470320 49.745040 0.742112 0.961458 0.004702 -0.007372 300980.000000 0 0 1
-29.155517 -27.522197 27.360560 48.539837 0.756588 0.971971 0.002772 -0.004529 247490.000000 0 0 1
-28.471387 -26.303697 27.249400 47.381792 0.745844 0.958067 0.006668 0.001305 -247138.000000 0 0 1
-27.578047 -26.202097 25.999870 46.077021 0.759819 0.971248 0.016010 0.000185 -275258.000000 0 0 1
-28.286117 -26.161297 24.818720 45.831068 0.746393 0.998545 -0.000465 -0.001374 -292900.000000 0 0 1
-27.387037 -26.429497 23.790330 44.883716 0.767607 1.012144 0.030175 0.000833 -444900.000000 0 0 1
-28.005617 -26.545097 22.409630 44.622285 0.758631 1.044647 -0.000174 0.010314 -288541.000000 0 0 1
-28.396977 -25.300397 21.869830 43.872404 0.727795 1.048944 -0.003498 0.008753 317758.000000 0 0 1
-29.104317 -25.596897 20.685030 43.933278 0.721366 1.080567 -0.013557 0.016745 -225738.000000 0 0 1
-29.523067 -24.333297 19.926130 43.136661 0.689332 1.090626 -0.014255 0.011580 -138770.000000 0 0 1
-30.784927 -23.917797 20.391830 43.995449 0.660516 1.088857 -0.015270 0.014476 -148598.000000 0 0 1
-31.365827 -22.865697 19.714130 43.535068 0.629925 1.100856 -0.009693 0.011085 -434459.000000 0 0 1
-32.874987 -22.718797 19.965030 44.671142 0.604705 1.107462 -0.017765 0.018729 -520152.000000 0 0 1
-33.622657 -23.741497 19.391730 45.499241 0.614819 1.130509 -0.021681 0.015308 -70682.200000 0 0 1
-34.936080 -23.277597 19.118530 46.129106 0.587742 1.143450 -0.004635 0.009963 272478.000000 0 0 1
35.234089 -24.302497 18.371530 46.578595 -0.603809 1.165360 0.006583 0.001231 -115796.000000 0 0 1
34.853761 -25.396597 19.147830 47.184862 -0.629704 1.152937 0.004172 -0.004377 86361.000000 0 0 1
34.319151 -26.500497 18.414430 47.108086 -0.657545 1.169190 0.014599 0.005085 43299.700000 0 0 1
34.095971 -27.818897 19.248930 48.030694 -0.684361 1.158447 0.017785 0.004755 1032530.000000 0 0 1
32.890101 -27.819397 20.081130 47.528196 -0.702068 1.134584 0.020930 -0.000740 1064070.000000 0 0 1
32.959391 -27.077897 21.272730 47.666162 -0.687746 1.108186 0.026522 -0.009114 -302510.000000 0 0 1
31.605431 -27.038797 22.022030 47.063464 -0.707685 1.083858 0.021556 -0.006633 430310.000000 0 0 1
30.556001 -26.433897 21.263930 45.657145 -0.713193 1.086336 0.025278 -0.004278 -416516.000000 0 0 1
29.517781 -26.028097 22.086530 45.128440 -0.722655 1.059378 0.034180 -0.006062 -446083.000000 0 0 1
28.676651 -24.935297 21.322230 43.574727 -0.715725 1.059480 0.043081 -0.001351 227994.000000 0 0 1
29.359441 -23.705297 20.971730 43.170955 -0.679247 1.063537 0.050329 -0.002879 163557.000000 0 0 1
30.047061 -23.073597 22.043530 43.830743 -0.654869 1.043818 0.058324 -0.006066 55972.200000 0 0 1
30.923761 -21.901697 21.585730 43.610860 -0.616240 1.053005 0.043484 -0.012059 295581.000000 0 0 1
30.108021 -20.749697 21.458630 42.397119 -0.603424 1.040100 0.043598 -0.019108 134133.000000 0 0 1
30.866231 -19.719597 20.944930 42.193327 -0.568513 1.051345 0.036539 -0.010258 -177084.000000 0 0 1
30.120161 -18.361697 21.136330 41.123235 -0.547459 1.030984 0.024255 -0.002555 95127.800000 0 0 1
30.067181 -17.881197 22.525430 41.607302 -0.536519 0.998717 0.036430 -0.016681 212733.000000 0 0 1
29.156061 -18.545197 23.382830 41.722380 -0.566518 0.975881 0.048144 -0.011020 -220450.000000 0 0 1
29.171001 -17.988597 24.802390 42.304793 -0.552580 0.944339 0.035189 -0.007644 -53277.900000 0 0 1
28.494601 -16.732097 25.010810 41.442080 -0.530956 0.922897 0.031292 -0.019286 421556.000000 0 0 1
28.613811 -16.210997 26.322840 42.124085 -0.515457 0.895808 0.025696 -0.011569 -350559.000000 0 0 1
28.274961 -14.726497 26.453020 41.425903 -0.480174 0.878168 0.015009 -0.015881 -104595.000000 0 0 1
26.907941 -14.386497 26.322650 40.297525 -0.490987 0.858983 0.040220 -0.012166 190805.000000 0 0 1
26.562681 -13.047997 26.574380 39.774665 -0.456595 0.839113 0.029367 -0.015692 -83736.100000 0 0 1
27.110521 -11.884997 25.624730 39.151760 -0.413158 0.857278 0.034752 -0.026272 -188299.000000 0 0 1
26.683191 -11.891797 24.289540 37.991964 -0.419244 0.877165 0.033203 -0.014062 179345.000000 0 0 1
27.449041 -10.975597 23.534330 37.785954 -0.380380 0.898438 0.028923 -0.007595 1448450.000000 0 0 1
28.848081 -11.457397 22.932130 38.592309 -0.378058 0.934507 0.031334 -0.022097 915238.000000 0 0 1
28.577551 -12.389397 21.922230 38.088814 -0.409078 0.957513 0.019580 -0.021192 146297.000000 0 0 1
28.793621 -13.713997 22.435430 38.993524 -0.444497 0.957748 0.033758 -0.027787 -209029.000000 0 0 1
28.182961 -14.907397 21.615630 38.519414 -0.486539 0.975007 0.041067 -0.018016 -267182.000000 0 0 1
28.620841 -14.906997 20.276430 38.111740 -0.480184 1.009805 0.028728 -0.016861 -306063.000000 0 0 1
28.009031 -15.882797 19.472830 37.629247 -0.515847 1.026879 0.030705 -0.022548 -137185.000000 0 0 1
28.678601 -16.062597 18.016630 37.484239 -0.510557 1.069406 0.029437 -0.023656 74544.700000 0 0 1
28.190231 -17.024397 17.120630 37.116509 -0.543290 1.091373 0.030159 -0.023882 844529.000000 0 0 1
26.780481 -16.954397 16.776330 35.862111 -0.564394 1.083995 0.042248 -0.025256 1168040.000000 0 0 1
26.365601 -15.967597 15.614530 34.553186 -0.544543 1.101904 0.019225 -0.014619 -609987.000000 0 0 1
26.650101 -16.320197 14.300330 34.366789 -0.549478 1.141634 0.028181 -0.021357 -77581.500000 0 0 1
25.774571 -17.310697 13.780030 33.968780 -0.591423 1.153087 0.021174 -0.021454 -159003.000000 0 0 1
25.807471 -17.721997 12.324530 33.645041 -0.601744 1.195756 0.013118 -0.008854 -628817.000000 0 0 1
25.310071 -16.771797 11.409530 32.435633 -0.585219 1.211347 0.026098 -0.021557 -181974.000000 0 0 1
25.026071 -17.383897 10.115030 32.106354 -0.607114 1.250289 0.019980 -0.017739 135606.000000 0 0 1
26.267061 -17.728997 9.215530 33.003058 -0.593716 1.287801 0.018107 -0.016000 406317.000000 0 0 1
26.959221 -18.832897 9.714330 34.290609 -0.609765 1.283569 0.017879 -0.006059 -523622.000000 0 0 1
28.309901 -18.934297 9.297930 35.304527 -0.589494 1.304289 0.021476 -0.002245 328297.000000 0 0 1
29.073381 -19.844697 10.274730 36.669382 -0.598934 1.286795 0.037855 -0.016895 -308592.000000 0 0 1
28.998611 -19.382397 11.606030 36.759988 -0.589195 1.249576 0.043446 -0.029096 32838.600000 0 0 1
29.485981 -20.344197 12.534230 37.952818 -0.603957 1.234219 0.043363 -0.027464 -27872.800000 0 0 1
29.440441 -19.762097 13.967930 38.110145 -0.591174 1.195536 0.050671 -0.022411 101845.000000 0 0 1
29.488921 -20.715597 15.051530 39.054846 -0.612393 1.175161 0.054206 -0.021219 -14424.900000 0 0 1
29.259201 -20.055397 16.262630 39.022980 -0.600886 1.140935 0.054234 -0.026025 36785.500000 0 0 1
28.989171 -21.036797 17.382130 39.812778 -0.627752 1.118984 0.048361 -0.016019 89188.800000 0 0 1
27.678201 -21.561497 17.366230 39.148013 -0.661808 1.111180 0.028689 -0.010342 -64203.200000 0 0 1
27.462291 -22.461797 18.439030 39.983842 -0.685569 1.091492 0.042487 -0.017720 -349941.000000 0 0 1
26.174121 -23.272397 18.339630 39.535188 -0.726781 1.088425 0.034913 -0.008159 -445041.000000 0 0 1
25.039071 -22.517197 18.680330 38.508882 -0.732419 1.064329 0.037988 -0.006369 -263242.000000 0 0 1
23.864471 -23.244897 18.339030 38.028387 -0.772247 1.067580 0.013951 -0.001098 1005800.000000 0 0 1
22.572371 -22.610397 19.013330 37.178606 -0.786240 1.033977 0.000270 0.008119 464853.000000 0 0 1
22.242771 -21.303397 18.535030 35.946112 -0.763830 1.029049 0.004078 0.008085 -437586.000000 0 0 1
21.039171 -20.828797 19.064830 35.212970 -0.780373 0.998677 0.001542 0.012345 -175676.000000 0 0 1
20.983071 -20.338097 20.542330 35.719950 -0.769791 0.958077 0.007549 0.008970 -280787.000000 0 0 1
21.220271 -21.332997 21.485830 36.973471 -0.788047 0.950699 0.010095 0.009269 -178921.000000 0 0 1
21.568471 -20.741897 22.736430 37.581518 -0.765865 0.921043 0.022062 0.013981 329553.000000 0 0 1
22.204671 -21.739697 23.774560 39.126609 -0.774818 0.917721 0.022174 0.011266 478861.000000 0 0 1
21.226171 -22.651497 24.312970 39.430460 -0.817871 0.906375 0.019458 0.014393 372628.000000 0 0 1
21.624771 -23.333097 25.516950 40.782090 -0.823378 0.894780 0.017259 0.011773 -317644.000000 0 0 1
20.483771 -24.021497 26.279050 41.075609 -0.864721 0.876594 0.028635 0.004774 -280465.000000 0 0 1
19.813871 -25.048297 25.613920 40.939951 -0.901551 0.894837 0.031989 0.011292 -157991.000000 0 0 1
18.913671 -25.732897 26.445240 41.463956 -0.936965 0.879173 0.045829 0.001619 -762030.000000 0 0 1
18.136571 -26.737597 25.708800 41.288942 -0.974771 0.898664 0.047339 -0.001988 -1299400.000000 0 0 1
17.116671 -26.211797 24.941910 40.026711 -0.992305 0.898056 0.045101 -0.002599 -307727.000000 0 0 1
16.583271 -27.251997 24.127650 39.997747 -1.024139 0.923258 0.051083 -0.013629 -249006.000000 0 0 1
15.831671 -26.682797 22.926130 38.577466 -1.035297 0.934416 0.045909 -0.012355 294115.000000 0 0 1
14.568171 -26.103297 23.238330 37.863356 -1.061758 0.910005 0.042717 -0.011613 344597.000000 0 0 1
13.859771 -25.638397 22.116530 36.586358 -1.075209 0.921656 0.036934 -0.010831 199078.000000 0 0 1
12.375871 -25.273397 22.317830 35.916463 -1.115439 0.900291 0.037784 -0.010117 -23970.200000 0 0 1
11.477371 -26.355697 22.330430 36.400562 -1.160083 0.910357 0.039844 -0.019323 -248721.000000 0 0 1
10.184771 -25.817097 22.534430 35.749862 -1.195043 0.888810 0.036422 -0.009645 -274016.000000 0 0 1
9.069171 -26.838897 22.622830 36.254223 -1.244931 0.896938 0.027070 -0.014440 -476141.000000 0 0 1
8.778371 -27.452697 21.390830 35.892590 -1.261308 0.932326 0.027827 -0.015111 11491.000000 0 0 1
7.476571 -27.985797 21.427330 36.031020 -1.309737 0.933915 0.013956 -0.012500 -387640.000000 0 0 1
7.072371 -28.686597 20.147230 35.761014 -1.329078 0.972319 0.025334 -0.006533 10436.300000 0 0 1
7.699471 -29.959497 20.069630 36.873342 -1.319244 0.995259 0.034414 -0.012493 309192.000000 0 0 1
7.222471 -30.679897 18.990230 36.797405 -1.339592 1.028534 0.020267 -0.013487 -21028.900000 0 0 1
8.042971 -31.988597 18.804830 37.968162 -1.324470 1.052640 0.027962 -0.011511 119530.000000 0 0 1
7.764671 -33.009897 19.728830 39.232259 -1.339773 1.043877 0.024431 -0.014491 668118.000000 0 0 1
8.649871 -34.122197 19.469430 40.226898 -1.322529 1.065587 0.028785 -0.013430 277430.000000 0 0 1
8.432771 33.670957 20.420130 40.271909 1.325398 1.039030 0.036239 -0.021839 -458822.000000 0 0 1
7.327971 32.880157 20.118830 39.237370 1.351511 1.032415 0.040149 -0.025980 -386146.000000 0 0 1
7.322271 31.781857 20.986730 38.783307 1.344356 0.999019 0.038604 -0.028440 380149.000000 0 0 1
6.250771 30.696957 20.608030 37.497549 1.369914 0.988931 0.042102 -0.028614 1970420.000000 0 0 1
4.902571 30.976157 21.119230 37.809779 1.413829 0.978141 0.046177 -0.028253 1320300.000000 0 0 1
4.074571 29.886257 20.765530 36.619636 1.435296 0.967864 0.054030 -0.015623 117423.000000 0 0 1
2.678871 29.802857 21.400830 36.788343 1.481151 0.949944 0.036024 -0.007456 -23017.100000 0 0 1
2.760871 29.356257 22.723530 37.225946 1.477025 0.914203 0.031806 -0.009547 -205977.000000 0 0 1
1.463271 29.067857 23.191330 37.214503 1.520499 0.897994 0.014522 0.005014 -60858.600000 0 0 1
1.304571 28.506857 24.644760 37.705530 1.525065 0.858450 0.022177 -0.000162 -323324.000000 0 0 1
1.396171 29.450057 25.707000 39.116557 1.523424 0.853712 0.025792 -0.011294 52786.000000 0 0 1
1.144971 28.918657 26.997700 39.578725 1.531224 0.820129 0.025480 -0.010019 903192.000000 0 0 1
2.348471 28.152857 27.738580 39.592013 1.487570 0.794544 0.025719 -0.005856 986724.000000 0 0 1
2.770271 26.940457 27.077190 38.296695 1.468327 0.785496 0.030908 -0.006326 538795.000000 0 0 1
3.797671 26.281557 27.821660 38.460204 1.427290 0.762099 0.015883 0.003874 271525.000000 0 0 1
4.084471 24.870257 27.289560 37.147445 1.408018 0.745678 0.016699 0.012503 286760.000000 0 0 1
3.025971 23.933357 27.404420 36.509784 1.445030 0.721819 0.024511 0.011816 288953.000000 0 0 1
3.606771 22.692657 27.057170 35.497267 1.413175 0.704041 0.031025 0.016114 716678.000000 0 0 1
2.496671 21.594957 26.904510 34.589423 1.455694 0.679599 0.020018 0.016548 199089.000000 0 0 1
2.940671 20.268957 26.834310 33.757345 1.426719 0.651924 0.021906 0.018705 29032.600000 0 0 1
3.498971 19.865457 25.555890 32.557376 1.396451 0.668182 0.020599 0.017030 43212.800000 0 0 1
3.998071 18.372957 25.688880 31.835023 1.356530 0.631847 0.020654 0.010440 269057.000000 0 0 1
5.110971 18.237857 26.571150 32.630775 1.297565 0.619279 0.020315 0.009235 -54418.700000 0 0 1
6.312571 18.069257 25.882980 32.191230 1.234697 0.636740 0.036573 0.005472 -974173.000000 0 0 1
7.567471 17.802957 26.753330 33.014430 1.168868 0.626043 0.021188 0.002698 123576.000000 0 0 1
8.073371 18.938657 27.421620 34.289901 1.167833 0.644002 0.013263 0.007177 190409.000000 0 0 1
8.608171 19.992457 26.614810 34.382366 1.164216 0.685531 0.007887 -0.000394 -683587.000000 0 0 1
9.076171 21.179057 27.476070 35.858943 1.165927 0.697848 -0.001014 0.002322 -70537.300000 0 0 1
10.170771 20.815557 28.292460 36.567681 1.116299 0.686134 0.013814 -0.016221 -133074.000000 0 0 1
10.361571 21.673157 29.415300 37.978254 1.124835 0.684824 0.005267 -0.017122 -22125.200000 0 0 1
11.749171 21.554657 30.080700 38.826470 1.071733 0.684481 -0.004397 -0.010215 409308.000000 0 0 1
12.843071 22.099757 29.346190 38.917125 1.044359 0.716561 -0.000370 -0.005514 971682.000000 0 0 1
14.060971 21.999657 30.164830 39.895022 1.002090 0.713455 -0.005785 -0.003350 1583120.000000 0 0 1
15.319971 22.073957 29.256970 39.723185 0.964089 0.742883 -0.007657 -0.003015 336863.000000 0 0 1
15.639871 23.473257 28.861080 40.355437 0.983058 0.773926 -0.004947 0.002978 -70238.700000 0 0 1
16.930571 23.577657 28.304100 40.542228 0.948041 0.798002 0.022586 0.000005 -79977.900000 0 0 1
-8.349037 16.674057 4.296147 19.136025 -1.106573 1.344361 0.001365 -0.011261 -299618.000000 0 1 0
-8.335337 18.054657 4.623047 20.416195 -1.138278 1.342375 0.002368 -0.010040 1139500.000000 0 1 0
-7.027537 18.448557 5.114247 20.393407 -1.206840 1.317311 0.000704 -0.002814 663886.000000 0 1 0
-6.934937 19.900957 5.693947 21.830311 -1.235483 1.306917 0.006750 -0.002054 -135789.000000 0 1 0
-7.206037 21.004857 4.813147 22.722178 -1.240313 1.357353 0.014269 -0.007511 -392510.000000 0 1 0
-8.510837 21.247157 4.362247 23.300326 -1.189804 1.382467 0.006490 -0.011711 -212375.000000 0 1 0
-8.577437 22.407257 3.341147 24.224385 -1.205207 1.432430 0.025273 -0.017322 187706.000000 0 1 0
-7.904937 22.187557 2.079547 23.645300 -1.228540 1.482735 0.017188 -0.018150 -165139.000000 0 1 0
-8.407037 21.136557 1.258247 22.781911 -1.192232 1.515538 0.025984 -0.016343 -1241760.000000 0 1 0
-7.898237 21.067457 -0.205653 22.500271 -1.212111 1.579936 0.011573 -0.010202 342551.000000 0 1 0
-6.596137 20.574757 -0.474353 21.611447 -1.260555 1.592747 0.009872 -0.007353 48139.400000 0 1 0
-5.599237 21.403457 0.091347 22.123918 -1.314926 1.566667 0.018731 -0.013358 -1189320.000000 0 1 0
-4.165237 21.174657 -0.397353 21.584095 -1.376568 1.589207 0.015031 -0.009197 -166785.000000 0 1 0
-4.044037 21.602657 -1.702553 22.043768 -1.385737 1.648108 0.008932 -0.008865 -138098.000000 0 1 0
-2.737037 21.542657 -2.230853 21.830120 -1.444421 1.673167 0.015209 -0.003806 -56283.900000 0 1 0
-2.844337 21.721457 -3.771553 22.229182 -1.440591 1.741288 0.017292 -0.010270 921079.000000 0 1 0
-1.634837 22.355157 -4.255153 22.815172 -1.497796 1.758400 0.030395 -0.001226 997833.000000 0 1 0
-1.760537 22.721657 -5.646153 23.478761 -1.493468 1.813656 0.029495 -0.009252 -24576.500000 0 1 0
-0.450337 23.334257 -6.186453 24.144617 -1.551499 1.829911 0.029266 -0.017658 -402803.000000 0 1 0
0.571263 22.385657 -6.201453 23.235791 1.545283 1.840963 0.041615 -0.007450 -360504.000000 0 1 0
1.719163 22.896657 -6.867953 23.966251 1.495853 1.861439 0.044717 -0.012072 406447.000000 0 1 0
3.000163 22.046757 -6.750353 23.251403 1.435545 1.865358 0.029983 -0.001321 6117.580000 0 1 0
2.952063 20.913157 -7.582453 22.440330 1.430565 1.915475 0.035369 -0.017279 -938946.000000 0 1 0
4.045063 20.102657 -7.498453 21.833601 1.372228 1.921370 0.035181 -0.013136 -777670.000000 0 1 0
3.918563 18.871557 -8.434653 21.038873 1.366062 1.983304 0.026430 -0.016785 81051.800000 0 1 0
4.303863 19.082357 -9.771253 21.866343 1.348967 2.034052 0.032088 -0.022449 651598.000000 0 1 0
3.165263 19.069357 -10.666453 22.077873 1.406309 2.075021 0.027230 -0.018906 264257.000000 0 1 0
3.517563 19.493457 -12.140953 23.232969 1.392269 2.120664 0.025660 -0.021875 -61456.700000 0 1 0
3.668263 20.874157 -12.332853 24.521130 1.396840 2.097803 0.044843 -0.022670 149384.000000 0 1 0
4.193963 21.214757 -13.631753 25.563253 1.375622 2.133241 0.044097 -0.015176 43216.000000 0 0 1
4.232363 22.706657 -14.053153 27.036943 1.386518 2.117385 0.037488 -0.016058 -897688.000000 0 0 1
3.025863 23.303657 -14.307053 27.511962 1.441674 2.117683 0.036828 -0.012500 -1131920.000000 0 0 1
3.317263 24.513857 -14.951753 28.904815 1.436291 2.114461 0.032869 -0.009588 347414.000000 0 0 1
2.050463 25.230057 -15.488053 29.675578 1.489704 2.119888 0.024153 0.000861 344840.000000 0 0 1
1.236063 25.814857 -14.483753 29.626235 1.522951 2.081605 0.025251 -0.006532 -282327.000000 0 0 1
1.380963 27.215257 -14.328153 30.787550 1.520098 2.054869 0.015861 -0.003305 -929756.000000 0 0 1
0.523763 27.810757 -13.130453 30.759085 1.551965 2.011837 0.018968 -0.007520 998552.000000 0 0 1
-0.914837 27.876557 -13.144553 30.833725 -1.537991 2.011200 0.009056 -0.013840 706149.000000 0 0 1
-1.510637 26.618057 -13.397653 29.837897 -1.514105 2.036459 0.003066 -0.009904 -1279100.000000 0 0 1
-1.296137 25.511757 -12.308053 28.355209 -1.520034 2.019798 0.028982 -0.016575 -808227.000000 0 0 1
-2.033437 25.620757 -11.094553 27.993698 -1.491596 1.978305 0.024168 -0.015609 11758.500000 0 0 1
-2.063637 24.385757 -10.358553 26.574863 -1.486373 1.971197 0.036682 -0.014906 -151160.000000 0 0 1
-3.091337 24.371057 -9.225853 26.241592 -1.444626 1.930048 0.035477 -0.016420 -5236.410000 0 0 1
-2.541537 24.830957 -7.990953 26.208608 -1.468798 1.880628 0.035112 -0.018955 27184.500000 0 0 1
-2.146237 26.198257 -7.985653 27.472270 -1.489056 1.865734 0.031415 -0.017119 38900.000000 0 0 1
-2.335437 26.929757 -6.640953 27.834660 -1.484289 1.811706 0.036049 -0.011412 654215.000000 0 0 1
-1.185837 26.586957 -5.851353 27.249052 -1.526224 1.787218 0.031934 -0.005581 622410.000000 0 0 1
-1.297037 26.984557 -4.432353 27.376895 -1.522767 1.733413 0.030337 -0.005770 -122708.000000 0 0 1
-2.112837 25.937257 -3.574553 26.267524 -1.489516 1.707302 0.035262 -0.006987 2024510.000000 0 0 1
-3.527937 25.815257 -3.945553 26.352252 -1.434977 1.721085 0.025930 -0.006579 1311040.000000 0 0 1
-4.069037 25.033157 -2.936553 25.531145 -1.409660 1.686070 0.025658 -0.006852 306481.000000 0 0 1
-5.478637 24.460757 -3.299353 25.282995 -1.350456 1.701667 0.013650 -0.003076 212499.000000 0 0 1
-6.549237 25.340857 -3.162353 26.363839 -1.317885 1.691036 0.008934 -0.003547 -889339.000000 0 0 1
-7.645737 24.862457 -3.880853 26.299431 -1.272454 1.718901 0.018153 -0.006177 -317906.000000 0 0 1
-8.779437 25.872557 -4.101453 27.627697 -1.243655 1.719802 0.013732 -0.002368 -240308.000000 0 0 1
-9.458537 26.082057 -2.908853 27.896219 -1.222901 1.675260 0.014035 -0.000715 -552467.000000 0 0 1
-10.747537 26.615557 -3.105153 28.871082 -1.187013 1.678557 0.021161 0.000276 19198.000000 0 0 1
-11.658137 26.542757 -1.871053 29.050489 -1.156942 1.635248 0.026572 -0.000375 -32881.700000 0 0 1
-11.996137 25.219857 -1.384053 27.961833 -1.126808 1.620315 0.028907 -0.003641 619827.000000 0 0 1
-10.933037 24.632657 -0.614753 26.956947 -1.153074 1.593603 0.023364 -0.006936 527256.000000 0 0 1
-11.308137 23.221957 -0.222453 25.829881 -1.117636 1.579409 0.026533 -0.014244 -529603.000000 0 0 1
-12.212037 23.220257 0.800847 26.247962 -1.086627 1.540281 0.036671 -0.010674 -779632.000000 0 0 1
-12.658837 21.922657 1.111747 25.339397 -1.047136 1.526908 0.043780 -0.017597 -326277.000000 0 0 1
-13.576537 21.939457 2.345247 25.906800 -1.016655 1.480146 0.047957 -0.015131 -203242.000000 0 0 1
-13.049337 22.150157 3.658147 25.967223 -1.038407 1.429451 0.041725 -0.018401 -232849.000000 0 0 1
-12.466937 23.415057 3.870647 26.808046 -1.081541 1.425906 0.037201 -0.010861 -24696.700000 0 0 1
-12.286037 23.631457 5.382847 27.172918 -1.091354 1.371381 0.031603 -0.009121 46141.200000 0 0 1
-11.275837 22.805757 5.989647 26.136620 -1.111615 1.339575 0.022893 -0.007252 383675.000000 0 0 1
-11.538137 22.498157 7.384347 26.340544 -1.096923 1.286647 0.018854 -0.005982 -134788.000000 0 0 1
-10.341237 21.964857 8.219747 25.631238 -1.130774 1.244336 0.008750 -0.013154 -49657.300000 0 0 1
-9.389737 22.979457 8.415847 26.211621 -1.182886 1.243934 0.017538 -0.015583 154610.000000 0 0 1
-8.180037 22.639357 9.085547 25.729373 -1.224073 1.209893 0.021503 -0.015286 475412.000000 0 0 1
-8.228337 22.475657 10.625347 26.186994 -1.219851 1.152998 0.011962 -0.017757 -147351.000000 0 0 1
-9.050937 21.388157 11.025347 25.708578 -1.170472 1.127567 0.010764 -0.014570 298590.000000 0 0 1
-8.627037 20.913257 12.325547 25.762554 -1.179548 1.071932 0.006589 -0.008033 152521.000000 0 0 1
-9.667237 19.859257 12.781247 25.518735 -1.117774 1.046207 0.006277 -0.007887 -258969.000000 0 0 1
-9.839637 18.769057 11.955147 24.331492 -1.087939 1.057163 0.015043 -0.016939 -61767.300000 0 1 0
-10.454037 17.714357 12.699347 24.173513 -1.037655 1.017680 0.005744 -0.018790 -85812.400000 0 1 0
-10.758337 16.569257 11.675447 22.947726 -0.994917 1.037024 0.008855 -0.024540 -328317.000000 0 1 0
-11.127137 15.373057 12.279447 22.603736 -0.944270 0.996495 0.000122 -0.023113 -76746.000000 0 1 0
-11.510837 14.482957 11.240447 21.647241 -0.899243 1.024817 0.003654 -0.013889 -269592.000000 0 1 0
-11.755437 13.073357 11.766347 21.155375 -0.838429 0.981006 0.000653 -0.013759 -263783.000000 0 1 0
-12.748037 13.072557 12.727947 22.257691 -0.797966 0.962043 0.006085 -0.012432 -401283.000000 0 1 0
-13.088137 11.823357 13.336747 22.112438 -0.734671 0.923373 0.003000 -0.003620 36232.500000 0 1 0
-13.882337 11.963157 14.633947 23.451840 -0.711278 0.896945 0.005469 -0.000585 -538011.000000 0 1 0
-15.051237 12.684457 14.465247 24.427005 -0.700271 0.937032 0.011942 -0.004437 -624826.000000 0 1 0
-15.750837 12.750357 15.709747 25.640917 -0.680509 0.911346 0.011578 0.002982 457415.000000 0 0 1
-17.007137 13.695957 15.706647 26.898340 -0.677968 0.947240 0.015873 0.000215 475680.000000 0 0 1
-18.121237 13.223357 14.986447 26.978324 -0.630392 0.981833 0.024829 -0.001852 -245159.000000 0 0 1
-19.007137 14.288557 14.791747 28.004105 -0.644618 1.014318 0.042841 -0.007830 -16489.000000 0 0 1
-20.219037 13.953957 13.864947 28.209203 -0.604077 1.056980 0.035485 -0.008870 52244.700000 0 0 1
-21.045337 13.023057 14.508147 28.687847 -0.554135 1.040575 0.044713 -0.005645 -692181.000000 0 0 1
-22.194137 12.770157 13.768347 29.072736 -0.522123 1.077442 0.031274 -0.007738 -417815.000000 0 0 1
-23.197937 11.910957 14.605447 29.888698 -0.474349 1.060242 0.042656 -0.003655 -181736.000000 0 0 1
-23.719137 12.545757 15.725647 31.101277 -0.486523 1.040688 0.055388 -0.015422 642909.000000 0 0 1
-24.672937 11.623757 16.335247 31.791600 -0.440273 1.031162 0.045396 -0.009553 890896.000000 0 0 1
-25.586897 12.347957 17.428647 33.330453 -0.449622 1.020541 0.037675 -0.015113 267931.000000 0 0 1
-26.432477 13.312657 16.852147 34.057268 -0.466562 1.053171 0.033327 -0.010686 -33155.600000 0 0 1
-27.307287 13.876157 17.768547 35.411254 -0.470145 1.045145 0.032869 0.000210 45665.600000 0 0 1
-28.346327 14.883357 17.220047 36.353247 -0.483489 1.077324 0.025872 -0.002755 508490.000000 0 0 1
-27.768857 16.188057 17.012747 36.367515 -0.527794 1.083996 0.031981 -0.002172 656733.000000 0 0 1
-28.810307 17.077557 16.639147 37.397031 -0.535078 1.109698 0.040061 0.004237 -1476.510000 0 0 1
-28.295297 18.466057 16.682747 37.682000 -0.578214 1.112161 0.050567 0.001299 -375560.000000 0 0 1
-27.794067 18.915357 17.928247 38.101482 -0.597555 1.080894 0.035486 0.002355 -431891.000000 0 0 1
-28.668137 19.024457 19.009947 39.308652 -0.585883 1.066025 0.032417 -0.001820 -1171240.000000 0 0 1
-28.096067 19.091757 20.430447 39.639467 -0.596846 1.029314 0.023954 -0.003875 64269.100000 0 0 1
-27.634407 17.866557 21.024647 39.050097 -0.573934 1.002257 0.026443 -0.005057 152686.000000 0 0 1
-26.518577 17.199157 20.458547 37.651004 -0.575369 0.996346 0.036246 0.001479 -21284.800000 0 0 1
-25.956627 15.916657 21.115447 37.053320 -0.550070 0.964453 0.021665 0.001605 -272380.000000 0 0 1
-26.886117 14.869957 21.101047 37.272417 -0.505199 0.968992 0.011187 -0.002336 -277190.000000 0 0 1
-26.484777 13.616657 21.584047 36.779449 -0.474889 0.943632 0.008727 0.006918 -1058040.000000 0 0 1
-27.636587 12.717757 22.014147 37.551897 -0.431286 0.944396 0.015994 0.007057 -753462.000000 0 0 1
-28.466487 12.571257 20.915347 37.494388 -0.415860 0.979032 0.018125 0.000132 -597916.000000 0 0 1
-29.549757 11.709457 21.135347 38.170701 -0.377280 0.983988 0.018619 -0.003960 -59268.600000 0 0 1
-30.433747 11.587057 19.842547 38.133968 -0.363785 1.023550 0.025896 -0.008054 -175821.000000 0 0 1
-29.875337 10.950157 18.696647 36.905370 -0.351323 1.039547 0.035515 -0.014290 248595.000000 0 0 1
-29.508757 9.577057 18.867747 36.310861 -0.313825 1.024394 0.036348 -0.010353 -210202.000000 0 0 1
-28.762867 8.930357 17.670247 34.918354 -0.301045 1.040204 0.032702 -0.018508 145595.000000 0 0 1
-29.490677 8.727257 16.418947 34.863260 -0.287721 1.080426 0.034638 -0.012139 594136.000000 0 0 1
-30.046747 9.907457 15.857947 35.389818 -0.318508 1.106165 0.041935 -0.017174 -303473.000000 0 0 1
-29.038287 10.929857 15.297847 34.593468 -0.359993 1.112726 0.040625 -0.016027 145573.000000 0 0 1
-28.469257 10.588157 14.007047 33.448543 -0.356064 1.138712 0.039140 -0.015136 387714.000000 0 0 1
-27.325797 11.354357 13.719347 32.616577 -0.393812 1.136662 0.040425 -0.003652 -87606.300000 0 0 1
-26.832187 11.226257 12.225747 31.550975 -0.396257 1.172887 0.048750 -0.005272 -326888.000000 0 0 1
-26.345867 9.997457 11.733347 30.524176 -0.362683 1.176244 0.055520 -0.001025 587914.000000 0 0 1
-27.394377 9.155457 11.300147 31.015603 -0.322539 1.197875 0.049023 -0.000916 -222036.000000 0 0 1
-26.911807 7.953257 10.455047 29.946747 -0.287351 1.214163 0.055335 -0.011492 -288041.000000 0 0 1
-26.461837 8.296157 9.142347 29.199958 -0.303808 1.252347 0.060690 -0.006907 422871.000000 0 0 1
-25.940837 7.127957 8.514647 28.217619 -0.268159 1.264269 0.068793 -0.021666 -39889.200000 0 0 1
-25.212247 7.485357 7.174647 27.261026 -0.288605 1.304476 0.070684 -0.005052 254361.000000 0 0 1
-26.110937 7.952157 6.147247 27.978679 -0.295628 1.349277 0.059840 -0.011172 429884.000000 0 0 1
-25.399177 8.281457 4.978047 27.175020 -0.315183 1.386571 0.059425 -0.005106 -130941.000000 0 0 1
-26.230937 8.618457 3.708747 27.858476 -0.317449 1.437272 0.046934 -0.008524 -441890.000000 0 0 1
-26.841567 7.506057 3.057447 28.038520 -0.272678 1.461535 0.047869 -0.023187 356629.000000 0 0 1
-26.018187 6.424857 2.572347 26.922887 -0.242094 1.475105 0.053367 -0.016720 -300595.000000 0 0 1
-25.097127 6.802557 1.397247 26.040217 -0.264689 1.517113 0.062350 -0.012894 -838226.000000 0 0 1
-24.057737 7.622057 1.811447 25.301222 -0.306819 1.499140 0.055661 -0.002696 -578147.000000 0 0 1
-23.193737 7.798357 0.705447 24.479818 -0.324352 1.541975 0.063790 0.003801 96743.000000 0 1 0
-21.951637 8.646257 1.177147 23.622401 -0.375217 1.520944 0.047495 0.007996 224007.000000 0 1 0
-22.243337 10.025657 1.300047 24.432969 -0.423458 1.517562 0.040391 0.006464 -207232.000000 0 1 0
-21.185637 10.789857 1.738347 23.838500 -0.471060 1.497810 0.051991 0.005460 -1064260.000000 0 1 0
-21.585637 12.260157 1.952547 24.901077 -0.516541 1.492304 0.047685 0.003660 -465476.000000 0 1 0
-20.529537 13.080657 2.386247 24.459347 -0.567298 1.473081 0.053755 -0.008315 -1500.630000 0 1 0
-20.878837 14.204657 3.167847 25.450607 -0.597407 1.446002 0.041439 -0.018565 -335590.000000 0 0 1
-19.771637 14.787057 4.098347 25.027408 -0.642151 1.406301 0.026139 -0.017832 -56880.800000 0 0 1
-19.321737 13.855457 5.065547 24.309730 -0.622105 1.360883 0.022201 -0.014491 378535.000000 0 1 0
-18.429937 14.588457 5.923147 24.239829 -0.669575 1.323941 0.022123 -0.014733 40161.900000 0 1 0
-17.968737 13.645357 7.088847 23.650011 -0.649486 1.266377 0.007279 -0.005011 -124380.000000 0 1 0
-17.096837 12.632257 6.639047 22.269995 -0.636337 1.268078 0.019877 -0.003328 122819.000000 0 1 0
-16.456737 11.999957 7.713547 21.778934 -0.630044 1.208765 0.005947 0.002047 -303451.000000 0 1 0
11.055663 -32.796097 -14.378553 37.477385 -1.245657 1.964552 0.041218 -0.002668 -238743.000000 0 0 1
12.268363 -32.899897 -13.690153 37.687348 -1.213868 1.942557 0.006389 -0.002220 -462883.000000 0 0 1
12.949163 -31.681197 -13.718253 36.872341 -1.182784 1.952010 0.003775 -0.007873 -296974.000000 0 0 1
14.439963 -31.770497 -13.346553 37.363183 -1.144199 1.936077 0.043429 -0.005983 -43831.500000 0 0 1
15.173063 -32.698097 -14.160953 38.728800 -1.136332 1.945121 0.026739 -0.004724 314935.000000 0 0 1
16.559963 -32.549297 -13.854953 39.059555 -1.100161 1.933404 0.038276 -0.009091 812684.000000 0 0 1
17.351163 -33.827497 -14.327953 40.628224 -1.096858 1.931209 0.018542 -0.010580 249548.000000 0 0 1
16.934363 33.966157 -13.591253 40.313702 1.108297 1.914671 0.017927 -0.004919 -225021.000000 0 0 1
17.606863 32.804157 -13.945553 39.756669 1.078201 1.929192 0.011768 0.003142 -390789.000000 0 0 1
17.519963 31.764457 -12.778953 38.460778 1.066757 1.909494 0.012274 -0.006840 458629.000000 0 0 1
18.635063 31.816757 -11.885953 38.740772 1.040958 1.882633 0.008496 -0.011848 185026.000000 0 0 1
18.385763 31.004757 -10.748053 37.614516 1.035541 1.860577 0.013718 -0.013209 418139.000000 0 0 1
19.558963 30.843557 -9.730853 37.796395 1.005655 1.831183 0.017434 -0.006991 -661929.000000 0 0 1
20.690963 30.208857 -10.151453 37.996618 0.970256 1.841249 0.023141 -0.010550 -673614.000000 0 0 1
21.598063 30.162557 -9.037953 38.182990 0.949376 1.809765 0.022696 -0.009920 605984.000000 0 0 1
22.908263 29.355257 -9.350753 38.392137 0.908134 1.816830 0.002980 -0.001607 622437.000000 0 0 1
23.850663 30.023657 -10.208053 39.679698 0.899482 1.830983 0.001659 -0.008068 342815.000000 0 0 1
25.062063 29.281357 -10.064053 39.834533 0.862884 1.826211 -0.001602 0.006911 478148.000000 0 0 1
26.194863 29.900157 -10.949853 41.232141 0.851356 1.839587 0.004041 -0.002019 -44026.000000 0 0 1
26.637163 31.170257 -10.557353 42.338883 0.863655 1.822809 -0.005645 -0.010203 -159502.000000 0 0 1
27.632463 31.543057 -11.461353 43.472750 0.851387 1.837595 -0.006364 -0.002022 -312198.000000 0 0 1
27.980463 33.074357 -11.429753 44.804672 0.868637 1.828749 -0.003981 -0.003910 -504688.000000 0 0 1
27.008163 33.919857 -11.993753 44.987194 0.898356 1.840664 0.015352 -0.004384 -60408.400000 0 0 1
27.455663 -33.702797 -11.893853 45.068344 -0.887192 1.837867 0.038278 -0.002785 -131769.000000 0 0 1
26.332863 -32.716697 -12.148953 43.719549 -0.893090 1.852387 0.028366 -0.005108 -40250.900000 0 0 1
25.350363 -32.630097 -11.140853 42.795826 -0.910300 1.834156 0.025042 -0.005645 335278.000000 0 0 1
24.235363 -31.750397 -11.336753 41.520627 -0.918832 1.847347 0.023766 -0.000858 615328.000000 0 0 1
24.461263 -30.259997 -10.965353 40.425978 -0.890973 1.845483 0.035297 -0.012649 -248255.000000 0 0 1
25.280763 -29.610197 -11.939553 40.723871 -0.864109 1.868351 0.025737 -0.000088 261731.000000 0 0 1
25.816263 -28.381997 -11.394453 40.023127 -0.832703 1.859486 0.030869 -0.000678 185378.000000 0 0 1
26.610163 -27.572497 -12.470253 40.297029 -0.803157 1.885420 0.009980 0.011238 486354.000000 0 0 1
27.868263 -28.032197 -12.931453 41.589261 -0.788331 1.886970 0.003314 0.015684 292093.000000 0 0 1
27.747163 -29.189397 -13.801953 42.572524 -0.810723 1.900961 0.008938 0.010177 474168.000000 0 0 1
29.143063 -29.787497 -14.225453 44.033812 -0.796333 1.899755 0.020039 0.014218 591295.000000 0 0 1
29.832263 -30.444397 -13.224853 44.628712 -0.795553 1.871645 0.033357 0.000749 51442.300000 0 0 1
30.858863 -31.264197 -13.778853 46.038855 -0.791923 1.874742 0.022192 -0.002262 75387.400000 0 0 1
31.381963 -32.242397 -12.665653 46.742042 -0.798921 1.845196 0.006400 -0.005521 109395.000000 0 0 1
32.314163 -33.115997 -13.306053 48.144838 -0.797652 1.850817 -0.001689 -0.005426 508289.000000 0 0 1
33.150663 -33.811797 -12.380553 48.943663 -0.795271 1.826530 0.002374 -0.004794 266449.000000 0 0 1
32.418763 33.932257 -11.719953 48.370771 0.808205 1.815526 -0.007755 -0.002311 81757.800000 0 0 1
31.726763 34.388757 -10.568353 47.967324 0.825639 1.792943 -0.003903 -0.010822 -75195.700000 0 0 1
31.190563 33.215557 -9.926853 46.633323 0.816829 1.785308 -0.006220 -0.009646 -957969.000000 0 0 1
30.440163 33.492657 -8.656453 46.079233 0.833107 1.759779 -0.011578 -0.007637 -1618320.000000 0 0 1
29.265763 34.123257 -8.907953 45.828301 0.861879 1.766418 -0.002335 -0.011766 -1631290.000000 0 0 1
28.612463 34.320857 -7.648653 45.333168 0.875856 1.740328 0.004936 -0.007706 220939.000000 0 0 1
27.635663 -33.445897 -7.698153 44.063811 -0.880235 1.746402 0.018004 -0.013233 -541797.000000 0 0 1
28.267563 -32.204397 -7.754253 43.546604 -0.850408 1.749819 0.019108 -0.020837 301399.000000 0 0 1
27.384963 -31.119997 -8.058953 42.229576 -0.849153 1.762811 0.011987 -0.012052 1023570.000000 0 0 1
26.159763 -30.658597 -7.175253 40.936133 -0.864413 1.746986 0.020106 -0.018815 1208730.000000 0 0 1
25.415763 -29.613797 -7.871253 39.810734 -0.861538 1.769825 0.027909 -0.022643 236340.000000 0 0 1
24.433763 -28.950997 -7.123953 38.547629 -0.869814 1.756674 0.028166 -0.026316 -189753.000000 0 0 1
23.498363 -28.045897 -7.943453 37.441205 -0.873396 1.784579 0.052495 -0.032449 -374065.000000 0 0 1
22.632863 -28.804397 -8.761553 37.665695 -0.904809 1.805560 0.063772 -0.034482 190014.000000 0 0 1
21.806963 -27.906197 -9.518153 36.672806 -0.907477 1.833345 0.073264 -0.028899 -227192.000000 0 0 1
20.741363 -28.679197 -10.303753 36.862824 -0.944656 1.854086 0.053599 -0.015516 -416491.000000 0 0 1
21.203863 -29.662097 -11.235053 38.153246 -0.950175 1.869699 0.048464 -0.012949 -482299.000000 0 0 1
20.178163 -30.497397 -11.657853 38.381701 -0.986285 1.879406 0.032940 -0.010416 -126332.000000 0 0 1
19.813463 -31.717297 -10.756153 38.913430 -1.012420 1.850855 0.027939 -0.018950 -107410.000000 0 0 1
20.729063 -32.745997 -10.937253 40.269316 -1.006446 1.845854 0.024233 -0.013952 -278809.000000 0 0 1
20.233663 -34.001497 -10.526653 40.942805 -1.034001 1.830823 0.021749 -0.014202 77282.300000 0 0 1
21.276263 33.829457 -10.755453 41.385882 1.009378 1.833697 0.007300 -0.002796 43163.400000 0 0 1
22.326863 33.996157 -9.849353 41.847786 0.989693 1.808387 0.011010 -0.009814 -247935.000000 0 0 1
23.472163 33.188257 -10.073853 41.879414 0.955226 1.813723 0.014541 -0.010767 -391339.000000 0 0 1
24.702763 33.698857 -9.347053 42.815965 0.938235 1.790876 0.021375 -0.015267 -817537.000000 0 0 1
24.748563 33.626857 -7.953953 42.503202 0.936331 1.759044 0.016715 -0.022027 245114.000000 0 0 1
25.123263 32.271357 -7.598353 41.597521 0.909303 1.754491 0.005133 -0.008573 -545139.000000 0 0 1
24.937963 31.970857 -6.114453 41.005173 0.908357 1.720469 -0.002963 -0.005042 -41546.600000 0 0 1
25.950363 32.540057 -5.240153 41.949205 0.897588 1.696040 0.006801 -0.008865 389181.000000 0 0 1
27.039763 31.697657 -4.978953 41.960460 0.864533 1.689735 -0.001264 -0.005727 -409209.000000 0 0 1
26.931963 30.555157 -4.025353 40.928617 0.848341 1.669306 0.006091 0.008195 -926060.000000 0 0 1
26.847463 30.841557 -2.664153 40.976647 0.854523 1.635859 0.014253 0.010630 -65673.100000 0 0 1
26.537563 29.648657 -1.925953 39.837098 0.840713 1.619161 0.008267 0.010437 294327.000000 0 0 1
25.079963 29.082957 -2.046953 38.457937 0.859171 1.624047 0.018353 0.020870 139301.000000 0 0 1
24.141863 29.745057 -1.237953 38.329238 0.889006 1.603100 0.012433 0.022962 -447694.000000 0 0 1
22.873363 29.153957 -1.413153 37.082892 0.905534 1.608914 0.019024 0.024692 -104366.000000 0 0 1
21.719763 29.904357 -0.761153 36.967526 0.942632 1.591388 0.043487 0.018915 -107255.000000 0 0 1
21.713763 29.638857 0.598347 36.746528 0.938517 1.554513 0.054087 0.005825 -409056.000000 0 0 1
20.628263 30.308657 1.151447 36.680590 0.973205 1.539400 0.040671 -0.000647 -647013.000000 0 0 1
19.948063 29.572357 2.249547 35.742271 0.977355 1.507817 0.051640 -0.013556 -561687.000000 0 0 1
19.192863 28.484957 1.786147 34.394026 0.977879 1.518841 0.071814 -0.010126 -77019.800000 0 0 1
18.621263 27.743157 2.827447 33.532501 0.979660 1.486377 0.082479 -0.011394 -148272.000000 0 0 1
17.968963 26.506257 2.147047 32.094783 0.975047 1.503849 0.059831 0.005504 336067.000000 0 0 1
18.847663 25.481457 1.650247 31.737396 0.933945 1.518776 0.050788 0.000810 764649.000000 0 0 1
19.709463 24.815657 2.621747 31.798637 0.899581 1.488254 0.043356 0.003726 353181.000000 0 0 1
20.842563 23.955557 2.048047 31.819422 0.854776 1.506387 0.039898 0.005822 -466519.000000 0 0 1
20.432363 22.916957 1.215347 30.726949 0.842651 1.531233 0.034613 0.004048 -360730.000000 0 0 1
21.474463 22.055857 0.895047 30.796338 0.798753 1.541729 0.012019 -0.001937 -463422.000000 0 0 1
21.099063 20.860357 -0.076553 29.670369 0.779709 1.573376 0.038168 -0.004234 -477265.000000 0 0 1
20.694063 21.261257 -1.402953 29.702753 0.798916 1.618047 0.033093 0.003672 406713.000000 0 0 1
21.065863 20.376157 -2.455453 29.410671 0.768757 1.654382 0.072228 -0.015219 -118734.000000 0 0 1
20.913363 20.980957 -3.834253 29.870902 0.787012 1.699512 0.051213 -0.008759 337436.000000 0 0 1
21.944463 21.944957 -4.152953 31.311141 0.785409 1.703823 0.041876 0.002235 801811.000000 0 0 1
21.670063 22.556857 -5.383853 31.739396 0.805446 1.741247 0.039776 -0.006258 -482395.000000 0 0 1
22.582463 23.743957 -5.746153 33.268023 0.810465 1.744390 0.031519 0.012023 -247537.000000 0 0 1
22.528863 24.946157 -5.027053 33.987228 0.836271 1.719251 0.014190 0.019860 64280.100000 0 0 1
22.990463 24.951857 -3.656553 34.125165 0.826287 1.678154 0.024403 0.009528 -14515.900000 0 0 1
21.969663 24.675257 -2.517253 33.134135 0.843337 1.646841 0.027504 0.004217 -412682.000000 0 0 1
20.972163 25.694957 -2.290153 33.246161 0.886257 1.639736 0.037319 0.005013 1072280.000000 0 0 1
19.967263 25.363657 -1.338653 32.307873 0.903885 1.612242 0.048154 0.011511 395380.000000 0 0 1
18.972163 24.271857 -1.844353 30.862074 0.907343 1.630593 0.054345 -0.002333 -1001130.000000 0 0 1
18.337663 24.558357 -3.083653 30.804085 0.929412 1.671070 0.047067 -0.002082 -59764.000000 0 0 1
17.524863 23.506157 -3.503853 29.528583 0.930153 1.689736 0.043475 -0.009466 -37599.400000 0 0 1
16.820863 23.935257 -4.820453 29.649194 0.958217 1.734104 0.037561 -0.012659 -48218.200000 0 0 1
16.038063 22.957357 -5.463953 28.532691 0.961009 1.763484 0.034093 -0.016950 84550.700000 0 0 1
15.735663 23.333357 -6.767753 28.945796 0.977469 1.806789 0.030029 -0.012622 -211079.000000 0 0 1
15.070863 22.129357 -7.501153 27.804795 0.972912 1.843960 0.031507 -0.012097 -492921.000000 0 0 1
15.908463 21.022857 -7.782053 27.488180 0.923007 1.857827 0.024650 -0.010173 462665.000000 0 0 1
15.205663 19.975457 -8.451153 26.488734 0.920155 1.895520 0.029070 -0.007274 179714.000000 0 0 1
16.148063 18.763757 -8.645953 26.221956 0.860181 1.906805 0.023581 -0.004709 109135.000000 0 0 1
17.297563 19.035857 -9.410453 27.388431 0.833205 1.921536 0.018389 -0.011369 -255263.000000 0 0 1
17.971663 17.843157 -9.665653 27.106895 0.781810 1.935396 0.020292 -0.011028 -427871.000000 0 0 1
19.298363 18.018957 -10.423753 28.385986 0.751127 1.946809 0.017469 -0.010130 -360225.000000 0 0 1
19.228663 18.427457 -11.775653 29.120073 0.764124 1.987100 0.017917 -0.008362 -43764.800000 0 0 1
20.441463 18.963857 -12.256453 30.458199 0.747918 1.984936 0.024689 0.001457 -20591.300000 0 0 1
20.394063 19.216557 -13.706153 31.193789 0.755680 2.025713 0.031392 -0.006754 -111789.000000 0 0 1
20.393363 18.030757 -14.502153 30.843312 0.723988 2.060300 0.031866 -0.000638 347695.000000 0 0 1
20.219463 18.402257 -15.855953 31.605078 0.738381 2.096348 0.034469 -0.004354 -252782.000000 0 0 1
20.492063 17.330957 -16.874953 31.702535 0.702016 2.132100 0.037244 -0.010754 390533.000000 0 0 1
21.858563 17.171057 -17.256353 32.717330 0.665869 2.126378 0.044577 -0.017916 630166.000000 0 0 1
21.947563 16.285057 -18.355853 32.921663 0.638360 2.162242 0.054784 -0.023665 -199761.000000 0 0 1
23.047663 16.526857 -19.399353 34.360830 0.622093 2.170718 0.059443 -0.016306 -228136.000000 0 0 1
24.387563 16.306757 -19.018753 34.962501 0.589375 2.145964 0.065773 -0.012669 409630.000000 0 0 1
25.283663 16.633257 -20.104353 36.333371 0.581885 2.157153 0.073005 -0.018368 -474542.000000 0 0 1
26.611463 16.945757 -19.454953 37.065129 0.567028 2.123377 0.056881 -0.014194 -1053610.000000 0 0 1
26.664063 18.284257 -18.878153 37.438896 0.601082 2.099297 0.051334 -0.012397 829919.000000 0 0 1
27.965563 18.663557 -18.388453 38.321486 0.588494 2.071277 0.046008 -0.014403 448884.000000 0 0 1
27.911863 19.849757 -17.338653 38.388980 0.618176 2.039418 0.038433 -0.013116 77301.500000 0 0 1
27.203263 19.588457 -16.150953 37.209924 0.624074 2.019779 0.037179 -0.018462 -181439.000000 0 0 1
25.807763 19.698457 -16.283253 36.320988 0.651944 2.035676 0.040875 -0.014635 -545198.000000 0 0 1
25.036863 19.101057 -15.117553 34.931866 0.651717 2.018362 0.038450 -0.005643 -144005.000000 0 0 1
25.387063 19.802457 -13.954953 35.091038 0.662440 1.979782 0.038616 -0.011377 318991.000000 0 0 1
24.620063 19.255957 -12.893453 33.810952 0.663746 1.962041 0.038471 -0.010612 -24294.600000 0 0 1
25.044663 19.726257 -11.458953 33.877248 0.667161 1.915852 0.043797 -0.013667 -404909.000000 0 0 1
24.565163 21.001257 -11.154553 34.189531 0.707344 1.903137 0.046627 -0.011640 297135.000000 0 0 1
25.056963 21.442157 -9.862353 34.422136 0.707815 1.861380 0.033531 -0.006214 102707.000000 0 0 1
24.197463 21.021657 -8.672153 33.205925 0.715282 1.835023 0.038620 -0.005208 -867841.000000 0 0 1
24.275763 19.598257 -8.382153 32.305801 0.679187 1.833262 0.051312 -0.011315 1070200.000000 0 0 1
23.297663 19.153557 -7.399053 31.054562 0.688086 1.811370 0.038257 -0.012638 2423860.000000 0 0 1
21.726263 19.227357 -7.693953 30.015307 0.724456 1.830024 0.022201 -0.021844 1308630.000000 0 0 1
21.298963 20.573457 -7.898253 30.647925 0.768073 1.831447 0.049844 -0.006165 38650.100000 0 0 1
19.893863 20.664857 -8.062153 29.795979 0.804405 1.844790 0.067607 -0.011194 176132.000000 0 0 1
19.390863 22.144557 -8.104153 30.529727 0.851599 1.839468 0.030952 -0.008255 -534098.000000 0 0 1
19.868963 22.835857 -9.276953 31.659341 0.854761 1.868185 0.035755 -0.008681 399565.000000 0 0 1
19.226063 22.585657 -10.535553 31.476201 0.865576 1.912099 0.025922 0.004137 556014.000000 0 0 1
17.687863 22.818957 -10.651953 30.773842 0.911399 1.924246 0.021615 -0.003585 255938.000000 0 0 1
17.356363 24.207457 -10.485253 31.578233 0.948762 1.909262 0.034327 -0.008788 907555.000000 0 0 1
15.931963 24.386557 -10.557353 30.983694 0.992098 1.918499 0.034606 -0.003343 937510.000000 0 0 1
15.544663 25.781957 -10.016553 31.728176 1.028227 1.891990 0.047618 -0.003512 86847.300000 0 0 1
16.174963 26.847557 -10.716553 33.124994 1.028559 1.900242 0.040575 -0.003326 181517.000000 0 0 1
15.998963 28.081257 -10.058553 33.848165 1.052925 1.872520 0.041987 -0.020087 -316382.000000 0 0 1
19.684163 29.240157 34.173252 49.094442 0.978292 0.800885 0.025911 -0.001017 385221.000000 0 0 1
18.404263 29.467757 33.603157 48.334643 1.012516 0.802072 0.037670 -0.007759 -135158.000000 0 0 1
17.550363 28.358557 33.802197 47.484855 1.016615 0.778664 0.030968 -0.004108 861727.000000 0 0 1
16.054363 28.859857 33.884632 47.315982 1.063139 0.772547 0.027024 -0.010843 842164.000000 0 0 1
15.457063 29.066457 32.619570 46.344536 1.082046 0.789994 0.030880 -0.014809 620633.000000 0 0 1
14.208663 29.803257 32.723800 46.486206 1.125922 0.789858 0.028443 -0.011517 878708.000000 0 0 1
13.432763 29.758257 31.379880 45.284543 1.146782 0.805225 0.025206 -0.012984 -106381.000000 0 0 1
12.959863 28.457557 31.129830 44.123201 1.143452 0.787639 0.009655 -0.016974 -235312.000000 0 0 1
11.554163 28.389857 31.210410 43.744398 1.184285 0.776355 0.000110 -0.002873 -99773.000000 0 0 1
10.976363 26.916057 31.015100 42.507542 1.183584 0.753004 -0.012732 0.002155 16237.000000 0 0 1
11.199963 26.280457 29.735160 41.234468 1.167934 0.765373 -0.011634 0.006348 254987.000000 0 0 1
12.505063 25.739457 29.593510 41.166395 1.118547 0.768613 -0.009061 0.004637 134279.000000 0 0 1
12.850163 25.082957 28.266400 39.915796 1.097352 0.783921 0.014847 0.003334 -253948.000000 0 0 1
12.724163 25.962557 27.189240 39.688959 1.115103 0.816113 0.007191 0.001736 41038.000000 0 0 1
12.841563 25.313057 25.931390 38.445983 1.101318 0.830524 0.024716 0.003125 16007.400000 0 0 1
11.870063 24.157557 25.548050 37.110495 1.114084 0.811471 0.025810 0.003558 -197109.000000 0 0 1
12.088363 23.669557 24.271340 35.992699 1.098615 0.830725 0.033111 -0.004903 931130.000000 0 0 1
11.135263 22.588057 23.935960 34.743986 1.112788 0.810793 0.039238 -0.008732 835358.000000 0 0 1
11.188663 22.089857 22.471830 33.438467 1.101957 0.833842 0.044791 -0.008100 16322.300000 0 0 1
10.687663 23.143057 21.665030 33.454458 1.138166 0.866369 0.045340 -0.015378 153308.000000 0 0 1
10.770963 22.774457 20.315730 32.363844 1.129030 0.892164 0.047816 -0.009954 -600810.000000 0 0 1
10.510163 23.968257 19.443230 32.603375 1.157544 0.931842 0.039397 -0.009850 -329856.000000 0 0 1
9.205763 24.382157 19.190730 32.365410 1.209782 0.936092 0.051467 -0.016174 -501023.000000 0 0 1
8.467463 25.026957 20.230330 33.276309 1.244552 0.917320 0.053978 -0.017611 124000.000000 0 0 1
7.153163 25.679557 19.759430 33.181960 1.299128 0.932924 0.059713 -0.018875 275462.000000 0 0 1
7.430163 26.782257 18.916830 33.620575 1.300174 0.973201 0.060344 -0.026207 187718.000000 0 0 1
6.228063 27.488757 18.666330 33.806100 1.347990 0.985845 0.057170 -0.022015 377085.000000 0 0 1
6.423763 28.434457 17.469430 33.984762 1.348611 1.030912 0.058889 -0.021005 151933.000000 0 0 1
6.436263 27.771457 16.259730 32.818564 1.343059 1.052451 0.054473 -0.015701 -278191.000000 0 0 1
7.141463 28.564957 15.362030 33.210679 1.325810 1.089912 0.047841 -0.013607 -156919.000000 0 0 1
7.448963 27.870757 14.007030 32.069659 1.309633 1.118793 0.044588 -0.013794 -10062.400000 0 0 1
6.338963 27.831157 13.159630 31.431379 1.346852 1.138807 0.027828 -0.013650 -439193.000000 0 0 1
6.452463 26.716857 12.302130 30.112574 1.333821 1.149945 0.014834 -0.015966 184510.000000 0 0 1
5.807063 26.878457 10.842630 29.559026 1.358018 1.195216 0.011951 -0.017597 -189342.000000 0 0 1
6.384063 27.718857 9.829530 30.095032 1.344429 1.238075 0.010280 -0.014027 48021.900000 0 0 1
6.295063 29.059357 10.101330 31.402403 1.357465 1.243300 0.014801 -0.010797 -195964.000000 0 0 1
6.582863 30.002357 8.882330 31.974541 1.354807 1.289300 0.019576 -0.001080 335218.000000 0 0 1
5.623763 29.828557 7.805130 31.341499 1.384448 1.319113 0.003435 -0.008191 363507.000000 0 0 1
5.706563 28.706857 6.997930 30.093513 1.374567 1.336108 -0.004232 -0.001639 -1732650.000000 0 0 1
4.376463 28.054057 6.880030 29.215036 1.416043 1.333067 -0.003122 -0.006975 -1436430.000000 0 0 1
3.615863 28.922857 6.114530 29.782437 1.446424 1.364019 0.002249 -0.001711 -1374780.000000 0 0 1
2.246963 28.662257 6.055130 29.380919 1.492562 1.363218 -0.001990 -0.004891 -350834.000000 0 0 1
1.554863 29.781557 5.247630 30.280296 1.518635 1.396615 -0.001212 -0.006135 -295406.000000 0 0 1
1.900363 29.845457 3.903930 30.159631 1.507209 1.440990 -0.003698 -0.007579 168947.000000 0 0 1
0.951963 30.618157 3.181030 30.797674 1.539715 1.467324 -0.008045 -0.011705 673606.000000 0 0 1
-0.274737 29.890957 2.572230 30.002686 -1.561605 1.484958 0.017386 -0.007775 154292.000000 0 0 1
0.070363 29.093957 1.452630 29.130283 1.568378 1.520909 0.019507 -0.005013 -337463.000000 0 0 1
-0.839537 28.051357 1.212430 28.090095 -1.540877 1.527621 0.026995 -0.010381 -12849.700000 0 0 1
-1.349537 27.986857 -0.311170 28.021103 -1.522613 1.581901 0.026516 -0.011155 100680.000000 0 0 1
-2.058137 29.125057 -0.683270 29.205679 -1.500248 1.594194 0.030326 -0.007753 -174914.000000 0 0 1
-1.404637 29.855157 -1.690670 29.935961 -1.523783 1.627303 0.015692 -0.003952 -521254.000000 0 0 1
-2.291137 30.978557 -2.235270 31.143486 -1.496972 1.642631 0.020122 -0.004229 -504785.000000 0 0 1
-3.491937 30.642457 -2.856570 30.972791 -1.457328 1.663156 0.023033 -0.003524 -655809.000000 0 0 1
-3.494637 29.982557 -4.139970 30.468107 -1.454764 1.707097 0.015086 -0.003134 -167456.000000 0 0 1
-4.836237 29.626457 -4.855770 30.408792 -1.408983 1.731166 0.019989 -0.003336 526236.000000 0 0 1
-5.586337 30.758157 -5.319570 31.710711 -1.391133 1.739346 0.017862 -0.001588 -3748.080000 0 0 1
-6.533337 30.332957 -6.263170 31.654384 -1.358650 1.769972 0.023806 -0.004114 -158471.000000 0 0 1
-7.192437 31.526057 -7.037570 33.093063 -1.346493 1.785093 0.024564 0.000854 306133.000000 0 0 1
-8.105237 32.321257 -6.279670 33.908594 -1.325092 1.757066 0.020568 0.005864 176469.000000 0 0 1
-8.504937 33.474857 -6.981870 35.237005 -1.321991 1.770257 0.020104 -0.005429 -284596.000000 0 0 1
-9.437337 34.363757 -6.143070 36.161698 -1.302774 1.741502 0.025231 -0.005043 211440.000000 0 0 1
-10.742137 33.822657 -6.036570 35.997303 -1.263270 1.739287 0.030894 -0.001337 -39924.100000 0 0 1
-11.661337 -34.132097 -5.600970 36.501475 1.241577 1.724850 0.031962 0.002580 685810.000000 0 0 1
-13.152637 34.411757 -5.769970 37.288784 -1.205717 1.726158 0.031662 -0.003543 363750.000000 0 0 1
-13.540937 34.465357 -7.133470 37.710797 -1.196438 1.761106 0.037038 -0.003017 373680.000000 0 0 1
-14.927437 34.225157 -7.350770 38.055532 -1.159516 1.765177 0.037411 -0.007263 -380835.000000 0 0 1
-15.307837 34.294957 -8.849370 38.584780 -1.150975 1.802205 0.050500 -0.006727 350650.000000 0 0 1
-16.625137 33.915857 -9.253970 38.888513 -1.115029 1.811063 0.062836 -0.014548 702325.000000 0 0 1
-17.558337 -33.990997 -8.914770 39.283027 1.093990 1.799728 0.057497 -0.016398 -5983.710000 0 0 1
-19.052837 -34.458397 -9.161070 40.426686 1.065712 1.799391 0.061638 -0.016385 762249.000000 0 0 1
-19.645637 33.667757 -8.198170 39.833138 -1.042586 1.778091 0.053732 -0.016991 132143.000000 0 0 1
-19.685537 34.230557 -6.894370 40.084707 -1.048897 1.743651 0.041476 -0.014776 -1023800.000000 0 0 1
-19.980137 33.206957 -5.801770 39.186329 -1.029139 1.719399 0.029407 -0.019767 -388618.000000 0 0 1
-19.795937 33.761657 -4.498270 39.394962 -1.040479 1.685230 0.024485 -0.023200 1850710.000000 0 0 1
-21.046437 33.903457 -3.710970 40.077028 -1.015241 1.663525 0.026501 -0.016500 1770740.000000 0 0 1
-21.857337 -33.752597 -4.014570 40.411604 0.996128 1.670302 0.035380 -0.023718 -146745.000000 0 0 1
-22.324737 -33.694697 -5.356970 40.772829 0.985643 1.702563 0.039345 -0.021797 8850.220000 0 0 1
-23.064337 -32.505097 -5.536270 40.239225 0.953683 1.708818 0.035010 -0.022866 -318904.000000 0 0 1
-23.624337 -32.544797 -6.975370 40.815792 0.942897 1.742538 0.034902 -0.023320 857.870000 0 0 1
-22.657237 -32.158597 -7.951270 40.134130 0.957025 1.770233 0.049420 -0.025491 308931.000000 0 0 1
-22.905237 -32.665397 -9.252570 40.954708 0.959260 1.798686 0.040580 -0.016531 504399.000000 0 0 1
-24.066937 -31.933197 -10.037270 41.227337 0.924954 1.816729 0.023105 -0.012173 1605180.000000 0 0 1
-25.390997 -32.316497 -9.553170 42.193859 0.904837 1.799188 0.013587 -0.009700 970794.000000 0 0 1
-26.479297 -31.977297 -10.357870 42.790024 0.879175 1.815288 -0.003392 -0.001670 205968.000000 0 0 1
-26.978177 -30.498397 -10.090570 41.949897 0.846568 1.813717 -0.004335 0.007100 -689309.000000 0 0 1
-26.190067 -29.539497 -10.728970 40.909807 0.845427 1.836159 -0.001675 0.014165 -304014.000000 0 0 1
-26.405427 -29.382297 -12.139870 41.327260 0.838708 1.868944 0.002705 0.010895 -285807.000000 0 0 1
-25.368877 -28.581797 -12.942570 40.348595 0.844881 1.897337 0.011478 0.010439 -347842.000000 0 0 1
-24.114037 -29.216297 -12.988170 40.047114 0.880781 1.901091 0.019632 -0.000240 42764.900000 0 0 1
-23.229337 -28.672497 -13.970570 39.457458 0.889890 1.932712 0.031938 0.000914 268483.000000 0 0 1
-21.931737 -29.505697 -14.056370 39.359481 0.931594 1.935988 0.051488 -0.011333 -224536.000000 0 0 1
-22.037537 -30.746697 -14.713870 40.589535 0.948920 1.941750 0.061122 -0.012021 36791.900000 0 0 1
-22.598637 -31.845497 -14.006670 41.485188 0.953634 1.915195 0.043926 -0.007259 -23983.800000 0 0 1
-23.066137 -33.012497 -14.932170 42.951616 0.960937 1.925861 0.048255 -0.006553 105885.000000 0 0 1
-23.588137 -34.054697 -14.098870 43.759578 0.965017 1.898838 0.033716 -0.014510 13811.000000 0 0 1
-23.785537 33.667357 -14.750670 43.781559 -0.955730 1.914435 0.039451 -0.018185 -146985.000000 0 0 1
-24.116837 32.627857 -13.662870 42.812065 -0.934276 1.895614 0.028182 -0.021115 -891807.000000 0 0 1
-23.185737 32.280657 -12.704170 41.725473 -0.947924 1.880179 0.023898 -0.019080 -402576.000000 0 0 1
-23.118837 33.146757 -11.585870 42.040700 -0.961771 1.849997 0.052272 -0.018753 118492.000000 0 0 1
-22.260237 32.646457 -10.386070 40.855596 -0.972350 1.827831 0.049121 -0.021802 -33216.800000 0 0 1
-22.941837 31.806457 -9.461170 40.342190 -0.945921 1.807524 0.036739 -0.014278 -57777.900000 0 0 1
-22.111837 31.212757 -8.482870 39.180717 -0.954440 1.789031 0.032572 -0.014180 -359986.000000 0 0 1
-22.881437 30.151757 -7.712070 38.628547 -0.921639 1.771794 0.032731 -0.012889 -230653.000000 0 0 1
-23.282037 29.141457 -8.625270 38.284109 -0.896707 1.798044 0.027517 -0.003856 -92280.000000 0 0 1
-23.822437 27.962757 -8.019870 37.599768 -0.865180 1.785743 0.019720 0.002451 -122726.000000 0 0 1
-22.961237 27.028857 -7.103070 36.169478 -0.866588 1.768464 0.019012 0.005124 -168033.000000 0 0 1
-23.012137 27.456657 -5.726570 36.279747 -0.873236 1.729304 0.026370 0.006716 1274790.000000 0 0 1
-21.945737 26.942657 -4.837070 35.084461 -0.887255 1.709106 0.012895 0.011269 1118020.000000 0 0 1
-20.627437 27.741857 -4.732570 34.892678 -0.931436 1.706848 0.003895 -0.000128 -101841.000000 0 0 1
-19.850737 27.565457 -5.897870 34.477399 -0.946687 1.742707 -0.000102 -0.002755 -420740.000000 0 0 1
-18.664037 28.289157 -5.722170 34.371004 -0.987591 1.738058 0.035354 -0.005477 -245380.000000 0 0 1
-17.645237 28.176157 -6.894470 33.952672 -1.011301 1.775280 0.045875 -0.011058 -204582.000000 0 0 1
-17.844737 28.916057 -8.063370 34.922642 -1.017882 1.803791 0.057089 -0.010883 146583.000000 0 0 1
-17.632837 30.307057 -7.987370 35.961545 -1.043862 1.794773 0.049273 -0.011089 -243759.000000 0 0 1
-17.674137 31.018457 -9.397670 36.916608 -1.052883 1.828194 0.057599 -0.021689 131847.000000 0 0 1
-16.638137 30.526257 -10.252570 36.246312 -1.071766 1.857569 0.064895 -0.017441 245918.000000 0 0 1
-16.588537 31.240757 -11.427470 37.171918 -1.082665 1.883279 0.073079 -0.023139 186143.000000 0 0 1
-15.118937 31.487557 -11.889770 36.897359 -1.123150 1.898890 0.074793 -0.021719 503019.000000 0 0 1
-14.945937 32.341357 -13.044470 37.940777 -1.137900 1.921769 0.075331 -0.021681 -132210.000000 0 0 1
-15.339037 31.687257 -14.219770 37.968015 -1.119969 1.954675 0.073275 -0.028677 -45789.900000 0 0 1
-14.792937 32.509857 -15.433370 38.909005 -1.143768 1.978664 0.089176 -0.028818 1061750.000000 0 0 1
-13.362437 32.490257 -15.528270 38.409617 -1.180608 1.986989 0.077545 -0.027678 497925.000000 0 0 1
-12.937937 33.046157 -16.748170 39.242068 -1.197629 2.011738 0.063947 -0.035388 538647.000000 0 0 1
-11.443537 32.914757 -17.197870 38.860037 -1.236197 2.029247 0.076632 -0.033412 567571.000000 0 0 1
-11.104837 31.528457 -17.292870 37.635148 -1.232148 2.048214 0.078758 -0.044676 -171616.000000 0 0 1
-9.770737 31.230457 -17.630370 37.170400 -1.267584 2.064979 0.062595 -0.037585 -123833.000000 0 0 1
-9.372037 31.273257 -19.110670 37.829477 -1.279631 2.100386 0.053662 -0.038414 -429652.000000 0 0 1
-10.088837 30.319657 -19.843370 37.614167 -1.249572 2.126511 0.060981 -0.047225 -3350.630000 0 0 1
-9.672737 30.233457 -21.209670 38.176876 -1.261152 2.159837 0.047332 -0.045008 -1011180.000000 0 0 1
-10.743537 29.641857 -22.188170 38.553575 -1.223078 2.184030 0.054952 -0.042144 715151.000000 0 0 1
-11.729037 30.607657 -22.585070 39.805582 -1.204851 2.174122 0.064112 -0.040558 259953.000000 0 0 1
-12.689637 30.891757 -21.591870 39.768535 -1.181034 2.144729 0.068386 -0.037646 -983130.000000 0 0 1
-13.489137 32.173057 -21.864670 41.171910 -1.173791 2.130645 0.074531 -0.035803 516381.000000 0 0 1
-14.460437 32.114857 -22.931070 42.027398 -1.147716 2.147927 0.060294 -0.027366 429835.000000 0 0 1
-15.061237 33.389057 -23.125370 43.318041 -1.147042 2.133944 0.054990 -0.025530 168236.000000 0 0 1
-15.740437 33.470357 -24.502070 44.366401 -1.131206 2.155877 0.052866 -0.017382 97969.100000 0 0 1
-14.800737 33.334257 -25.568970 44.542190 -1.152935 2.182227 0.041256 -0.018515 4005.560000 0 0 1
-15.382437 33.174557 -26.836170 45.358027 -1.136623 2.203903 0.044772 0.002608 79776.500000 0 0 1
-15.640737 -34.452097 -27.588170 46.826133 1.144633 2.200817 0.034872 0.011234 659265.000000 0 0 1
-16.783237 -33.719797 -27.127170 46.417508 1.108969 2.194957 0.026661 0.015716 333690.000000 0 0 1
-17.199437 -32.661497 -27.985270 46.322449 1.086098 2.219483 0.025597 0.018993 400756.000000 0 0 1
-18.610937 -32.083497 -27.629270 46.250344 1.045154 2.211033 0.026926 0.006657 226106.000000 0 0 1
-19.553737 -33.057397 -27.977370 47.517085 1.036644 2.200352 0.015961 0.007878 -478692.000000 0 0 1
-20.862437 -32.700297 -27.537970 47.569848 1.002911 2.188170 0.014227 0.003372 342991.000000 0 0 1
-21.937637 -33.731897 -27.833870 48.926732 0.994173 2.175950 -0.003954 0.006402 -371064.000000 0 0 1
-21.761637 34.036357 -27.121770 48.658327 -1.001934 2.162038 0.027277 0.005150 142506.000000 0 0 1
-23.045237 33.422957 -27.126070 48.826229 -0.967150 2.159837 0.007843 0.005158 262382.000000 0 0 1
-22.994837 31.850857 -27.046470 47.694351 -0.945488 2.173752 0.018115 0.003585 41302.200000 0 0 1
-22.477737 31.350757 -25.833070 46.426998 -0.948768 2.160871 0.020460 -0.005830 -299849.000000 0 0 1
-22.625237 29.924957 -25.842670 45.554890 -0.923424 2.174003 0.009381 -0.006544 30324.300000 0 0 1
30.680241 10.070357 -26.761783 41.939031 0.317156 2.262839 -0.001093 -0.001279 25685.500000 0 0 1
30.344941 8.732557 -26.532393 41.243677 0.280205 2.269608 -0.009543 -0.000698 65121.800000 0 0 1
28.961251 8.535557 -26.306963 40.045800 0.286609 2.287525 -0.000060 -0.005284 143241.000000 0 0 1
28.682641 7.101757 -25.863383 39.268861 0.242716 2.289784 -0.001262 0.001135 -43501.300000 0 0 1
29.162381 6.788757 -24.571653 38.733679 0.228718 2.257995 -0.018322 0.003136 194048.000000 0 0 1
28.585121 5.529357 -24.275153 37.907335 0.191075 2.265791 -0.013468 0.002882 -57450.400000 0 0 1
28.551481 5.340257 -22.789453 36.919705 0.184903 2.236065 -0.013620 0.000300 -1157460.000000 0 0 1
29.746331 5.330157 -22.123953 37.452959 0.177305 2.202739 -0.019257 0.006163 -1035140.000000 0 0 1
29.598921 5.003657 -20.755353 36.495444 0.167465 2.175734 -0.013122 0.004936 -1147330.000000 0 0 1
30.852341 4.688157 -20.009753 37.070689 0.150801 2.140964 -0.017504 0.007912 -1233580.000000 0 0 1
31.443051 3.409657 -20.216753 37.536760 0.108017 2.139554 -0.013647 0.011007 447280.000000 0 0 1
32.244811 3.114557 -19.075953 37.594153 0.096292 2.102982 -0.003560 0.006889 -123625.000000 0 0 1
32.985201 1.781157 -19.106553 38.160928 0.053946 2.095185 0.010928 -0.002344 14746.500000 0 0 1
32.079611 0.703057 -18.851153 37.215074 0.021912 2.101971 0.033807 -0.003428 90713.900000 0 0 1
32.660801 -0.542743 -19.005253 37.791827 -0.016616 2.097739 0.042327 -0.000738 -680305.000000 0 0 1
31.806871 -1.734543 -18.605353 36.889631 -0.054480 2.099428 0.028105 -0.002103 -170604.000000 0 0 1
31.511601 -1.853743 -17.225153 35.960024 -0.058760 2.070321 0.040580 -0.007828 973038.000000 0 0 1
30.123531 -1.562043 -16.935753 34.593162 -0.051808 2.082392 0.036961 -0.012394 901953.000000 0 0 1
29.708181 -1.914743 -15.501953 33.564160 -0.064363 2.050888 0.051134 -0.014294 -193095.000000 0 0 1
29.600711 -3.306143 -15.234153 33.454628 -0.111230 2.043581 0.050020 -0.020061 143264.000000 0 0 1
28.745671 -3.616943 -14.185553 32.258733 -0.125168 2.026109 0.051381 -0.013094 -385130.000000 0 0 1
28.627241 -5.109643 -13.781853 32.180225 -0.176629 2.013375 0.037837 -0.015094 -162941.000000 0 0 1
28.008341 -5.887543 -14.777053 32.210117 -0.207190 2.047407 0.025296 -0.018512 421200.000000 0 0 1
27.448521 -7.055443 -14.207253 31.702471 -0.251596 2.035484 0.013296 -0.013090 -139550.000000 0 0 1
26.728061 -7.992743 -15.235753 31.786812 -0.290575 2.070665 0.008151 -0.006332 473368.000000 0 0 1
25.488871 -7.473443 -15.725653 30.867962 -0.285210 2.105341 0.020027 -0.012602 284133.000000 0 0 1
24.755471 -8.507743 -16.319053 30.846824 -0.331026 2.128259 0.007492 0.000242 552509.000000 0 0 1
23.374471 -8.157743 -16.991053 30.026831 -0.335786 2.172275 0.018478 -0.000715 683166.000000 0 0 1
23.406071 -7.039943 -17.864953 30.274767 -0.292167 2.201971 0.009610 0.001449 1025990.000000 0 0 1
22.056771 -6.734043 -18.301253 29.441202 -0.296317 2.241606 0.005171 0.002238 1212610.000000 0 0 1
21.900171 -7.057443 -19.827853 30.373817 -0.311747 2.282064 0.007130 0.005188 -144406.000000 0 0 1
22.639771 -6.208643 -20.679053 31.284657 -0.267656 2.292942 -0.001126 0.006084 125152.000000 0 0 1
22.324571 -6.462643 -22.008853 32.008466 -0.281783 2.328968 0.016125 0.003145 -100064.000000 0 0 1
23.155371 -5.636543 -23.042053 33.149330 -0.238779 2.339353 0.013340 0.000164 -99755.300000 0 0 1
22.992371 -6.107543 -24.346053 34.039412 -0.259638 2.367751 0.015024 -0.001253 210959.000000 0 0 1
23.213171 -5.034643 -25.327013 34.722566 -0.213579 2.388257 0.012758 -0.021031 -214955.000000 0 0 1
23.191371 -5.499743 -26.801083 35.866209 -0.232845 2.414713 0.020786 -0.020614 47092.400000 0 0 1
21.887971 -5.953043 -27.108233 35.346546 -0.265554 2.444836 0.025179 -0.018643 -231519.000000 0 0 1
21.845771 -6.319643 -28.508133 36.467647 -0.281597 2.468244 0.017935 -0.019394 744865.000000 0 0 1
20.518671 -6.979543 -29.043083 36.238524 -0.327878 2.500499 0.021340 -0.024058 697039.000000 0 0 1
20.402671 -8.353843 -28.645633 36.147310 -0.388625 2.485643 0.017144 -0.014278 152121.000000 0 0 1
19.392371 -8.963743 -29.424213 36.362028 -0.432978 2.513588 0.016468 -0.009898 -78203.000000 0 0 1
19.190571 -10.492943 -29.130953 36.427906 -0.500365 2.497571 0.025494 0.000722 21771.600000 0 0 1
18.251571 -10.724243 -28.079073 35.164806 -0.531236 2.495595 0.033753 0.005386 436059.000000 0 0 1
18.427071 -12.033543 -27.528673 35.244730 -0.578507 2.467177 0.033851 0.005210 -143170.000000 0 0 1
18.497871 -13.253943 -28.500223 36.470550 -0.621722 2.467796 0.034750 0.005503 -242484.000000 0 0 1
17.337371 -13.362943 -29.295643 36.570308 -0.656655 2.499889 0.035499 0.007393 81280.000000 0 0 1
17.397971 -14.387643 -30.276653 37.767306 -0.690973 2.500868 0.034413 -0.001197 -1112260.000000 0 0 1
16.176471 -14.658143 -31.114463 38.008541 -0.736197 2.529796 0.019951 -0.011375 -1110390.000000 0 0 1
15.194471 -15.436043 -30.466313 37.381006 -0.793285 2.523562 0.010487 -0.006775 143471.000000 0 0 1
14.128171 -15.653943 -31.371203 37.799518 -0.836585 2.549790 0.007009 -0.014759 -605066.000000 0 0 1
12.927171 -16.308543 -30.690813 37.081078 -0.900545 2.545736 0.010931 -0.013321 -485428.000000 0 0 1
13.123071 -17.594243 -30.248113 37.372728 -0.929942 2.513863 0.005974 -0.017588 323725.000000 0 0 1
12.085371 -17.922143 -29.326113 36.431859 -0.977510 2.506401 0.003620 -0.013755 314240.000000 0 0 1
12.217471 -19.423843 -28.824533 36.842991 -1.009330 2.469245 0.005907 -0.002108 -543457.000000 0 0 1
13.251171 -19.632243 -27.921303 36.614447 -0.977067 2.438082 0.018717 0.001582 -337189.000000 0 0 1
12.972871 -20.791243 -27.202013 36.613122 -1.012946 2.408275 0.021149 0.008183 365207.000000 0 0 1
13.783471 -20.794043 -25.854203 35.927930 -0.985436 2.374041 0.013853 0.011767 345818.000000 0 0 1
15.191171 -20.761443 -25.962983 36.549770 -0.939110 2.360786 0.018627 0.015426 381407.000000 0 0 1
15.875971 -20.908943 -24.724853 36.063122 -0.921375 2.326223 0.015902 0.031854 1635820.000000 0 0 1
17.425571 -21.283543 -24.869653 37.082872 -0.884736 2.305882 0.032555 0.026746 1586990.000000 0 0 1
17.796271 -22.628643 -25.268983 38.305147 -0.904373 2.291184 0.047149 0.012198 185069.000000 0 0 1
17.576471 -23.643543 -24.299453 38.189173 -0.931536 2.260478 0.053218 0.003205 -786138.000000 0 0 1
18.624971 -24.755143 -24.205353 39.314194 -0.925782 2.234058 0.034301 0.006886 -1126090.000000 0 0 1
19.869771 -24.366043 -23.747853 39.401427 -0.886694 2.217696 0.036806 0.009253 -576269.000000 0 0 1
20.529671 -25.457023 -23.144353 40.064804 -0.892138 2.186671 0.043447 0.007099 -182710.000000 0 0 1
20.334671 -25.483233 -21.611053 39.114341 -0.897299 2.156169 0.045749 0.014042 -623977.000000 0 0 1
19.116471 -26.055693 -21.244453 38.673834 -0.937824 2.152351 0.034788 0.010184 -134857.000000 0 0 1
19.156371 -26.278473 -19.878053 38.113800 -0.940887 2.119457 0.021253 0.002655 71613.700000 0 0 1
17.932271 -27.077493 -19.384253 37.822034 -0.985852 2.108904 0.013853 0.005710 -636015.000000 0 0 1
17.969071 -28.446123 -19.663553 38.970820 -1.007402 2.099682 0.019135 0.011809 67895.100000 0 0 1
16.885771 -29.169803 -19.146953 38.763546 -1.046052 2.087414 0.003888 0.023215 420761.000000 0 0 1
15.407671 -28.928693 -19.563553 38.170647 -1.081403 2.108923 0.014094 0.014612 -316878.000000 0 0 1
14.761271 -27.868633 -18.956353 36.795369 -1.083693 2.112018 0.014418 0.013054 -1092740.000000 0 0 1
13.561471 -27.577833 -19.576653 36.437560 -1.113768 2.137988 0.017924 0.013399 -502250.000000 0 0 1
12.678971 -26.602683 -18.726653 34.916280 -1.126039 2.136879 0.008308 0.003313 -372636.000000 0 0 1
12.110171 -27.142983 -17.534253 34.508663 -1.151139 2.103787 0.014747 0.004798 -112520.000000 0 0 1
11.310671 -26.207943 -16.843553 33.143519 -1.163370 2.103890 0.019740 -0.007699 117925.000000 0 0 1
9.818571 -26.242903 -17.268853 32.913639 -1.212778 2.123126 0.034202 -0.005687 -721907.000000 0 0 1
9.290871 -27.518373 -16.912253 33.609604 -1.245189 2.098091 0.044537 -0.007229 287782.000000 0 0 1
7.874871 -27.324973 -17.047453 33.155444 -1.290206 2.110833 0.040959 0.004027 790624.000000 0 0 1
7.184171 -28.005843 -18.235653 34.183017 -1.319687 2.133496 0.045994 0.000191 -246576.000000 0 0 1
7.487571 -27.444753 -19.457253 34.465387 -1.304455 2.170678 0.027956 -0.001882 -143378.000000 0 0 1
6.725771 -28.049553 -20.458453 35.363283 -1.335458 2.187712 0.015200 -0.000601 -97757.200000 0 0 1
6.782071 -27.297873 -21.804153 35.589205 -1.327280 2.230221 0.015784 -0.009515 -560242.000000 0 0 1
5.892671 -26.213593 -21.798353 34.598327 -1.349677 2.252402 0.021281 -0.011274 12324.300000 0 0 1
5.903971 -25.504863 -23.048553 34.879661 -1.343319 2.292683 0.013701 -0.014896 -783607.000000 0 0 1
4.580571 -24.714743 -23.198353 34.204733 -1.387538 2.316135 0.014043 -0.010579 -129079.000000 0 0 1
3.543871 -25.658233 -23.345653 34.870095 -1.433546 2.304337 0.008623 -0.006980 -644950.000000 0 0 1
2.449371 -25.138673 -24.027453 34.860735 -1.473669 2.331238 0.013075 -0.012949 -301833.000000 0 0 1
1.427271 -26.195313 -24.488053 35.887272 -1.516364 2.321783 -0.004460 -0.011013 -390027.000000 0 0 1
1.905271 -27.029333 -25.467623 37.186217 -1.500424 2.325218 -0.012978 -0.000145 208599.000000 0 0 1
0.856171 -27.855923 -25.969163 38.093083 -1.540070 2.320920 -0.010083 -0.007375 128264.000000 0 0 1
1.271171 -28.807863 -27.105783 39.575654 -1.526699 2.325277 -0.021853 0.002821 -237330.000000 0 0 1
1.747671 -28.083583 -28.256683 39.877088 -1.508645 2.358301 -0.028253 -0.000836 155119.000000 0 0 1
1.936571 -28.918493 -29.337733 41.239934 -1.503930 2.362272 -0.015355 -0.001933 -397441.000000 0 0 1
3.320271 -29.525803 -29.558573 41.910697 -1.458814 2.353608 -0.029155 0.009492 -611630.000000 0 0 1
3.778371 -30.388323 -28.523703 41.848870 -1.447095 2.320727 -0.041052 0.002356 200438.000000 0 0 1
5.065871 -30.906953 -28.831853 42.569691 -1.408334 2.314864 -0.012450 -0.004366 384811.000000 0 0 1
5.599771 -31.985713 -27.905243 42.815253 -1.397482 2.280698 0.011294 -0.014781 -249365.000000 0 0 1
4.758371 -33.101113 -27.943373 43.579329 -1.428022 2.266867 0.015185 -0.016147 79176.200000 0 0 1
5.310071 -34.243103 -27.261163 44.090339 -1.416952 2.237377 0.035104 -0.015468 138592.000000 0 0 1
4.215671 33.681797 -26.904983 43.314125 1.446282 2.241018 0.029493 -0.011340 -76863.100000 0 0 1
3.680371 32.975366 -28.009753 43.421955 1.459647 2.271898 0.027235 -0.011372 -35778.800000 0 0 1
2.436371 32.423800 -27.625683 42.666346 1.495796 2.275072 0.022351 -0.013729 87671.200000 0 0 1
1.355471 32.661500 -28.710773 43.507693 1.529320 2.291483 0.031839 -0.016859 -310151.000000 0 0 1
1.393671 31.696610 -29.745043 43.490056 1.526856 2.323960 0.050284 -0.027369 434498.000000 0 0 1
0.334871 31.945810 -30.677873 44.291972 1.560314 2.335923 0.044783 -0.032764 595665.000000 0 0 1
0.083371 30.806320 -31.734583 44.228046 1.568090 2.371034 0.056575 -0.033719 618580.000000 0 0 1
1.196171 30.795040 -32.658743 44.903884 1.531973 2.385181 0.058450 -0.033567 812223.000000 0 0 1
0.847971 29.997740 -33.765603 45.174101 1.542536 2.415019 0.065004 -0.039083 -1009200.000000 0 0 1
2.020471 29.631300 34.183364 45.283536 1.502715 0.715334 0.064003 -0.031802 -858618.000000 0 0 1
2.567571 30.734870 33.518349 45.548923 1.487450 0.743837 0.059651 -0.034367 -178337.000000 0 0 1
3.492871 30.342040 32.507360 44.604574 1.456184 0.754243 0.035191 -0.030593 -193125.000000 0 0 1
3.036971 29.514840 31.253910 43.094732 1.468261 0.759417 0.043845 -0.020478 -328193.000000 0 0 1
2.695771 28.138680 31.441160 42.280008 1.475285 0.732296 0.050291 -0.026893 92377.500000 0 0 1
3.868171 27.361970 31.587150 41.968896 1.430357 0.718745 0.043634 -0.018114 -494607.000000 0 0 1
3.685871 25.914160 32.084340 41.406935 1.429510 0.684312 0.054168 -0.018041 258181.000000 0 0 1
2.843971 25.228860 31.131720 40.171726 1.458543 0.684135 0.052415 -0.008566 474056.000000 0 0 1
2.780771 23.845810 31.332510 39.472542 1.454706 0.653797 0.042185 -0.004206 -338800.000000 0 0 1
1.972471 23.130910 30.270340 38.147387 1.485728 0.654241 0.039011 0.008248 1732900.000000 0 0 1
0.567871 22.877010 30.621450 38.227651 1.545979 0.641784 0.022040 0.001621 1818030.000000 0 0 1
-0.213729 22.274810 29.575820 37.026234 -1.561202 0.645531 0.032760 0.007101 931065.000000 0 0 1
-1.576429 21.763610 30.157510 37.223854 -1.498488 0.626361 0.021849 0.009836 204004.000000 0 0 1
-2.492829 22.750510 30.553950 38.175172 -1.461659 0.642898 0.031320 0.001779 257314.000000 0 0 1
-3.766829 22.099610 30.653860 37.976847 -1.401971 0.631450 0.013905 0.004346 533583.000000 0 0 1
-4.981829 23.045110 30.758280 38.755226 -1.357895 0.654003 -0.003375 -0.010322 -100687.000000 0 0 1
-5.259729 23.505610 32.101770 40.133553 -1.350658 0.643712 -0.004656 -0.012375 184605.000000 0 0 1
-4.575329 24.739690 32.299750 40.942151 -1.387924 0.661760 0.009123 -0.016527 -183513.000000 0 0 1
-4.680129 25.245530 33.739214 42.397818 -1.387493 0.650507 0.011215 -0.011783 546595.000000 0 0 1
-6.035029 25.495670 34.109327 43.010429 -1.338366 0.655000 0.008091 -0.006717 404832.000000 0 0 1
-6.065329 26.163090 -33.418143 42.872693 -1.342993 2.464622 0.018950 -0.014103 -409589.000000 0 0 1
-7.487729 26.475210 -32.977763 42.948058 -1.295174 2.446278 0.017733 -0.005298 -767659.000000 0 0 1
-8.090429 27.558420 -33.661273 44.249326 -1.285246 2.435215 0.023045 -0.006846 30848.600000 0 0 1
-9.362029 27.982580 -33.198973 44.416711 -1.247937 2.415001 0.018593 -0.006590 233505.000000 0 0 1
-9.589829 28.441830 -31.773443 43.708743 -1.245594 2.384645 0.019801 -0.010281 -725545.000000 0 0 1
-8.984129 29.619570 -31.378903 44.075720 -1.276299 2.363041 0.014580 -0.010672 -213402.000000 0 0 1
-8.995829 29.716820 -29.977113 43.158332 -1.276847 2.338639 0.022466 -0.011849 -320012.000000 0 0 1
-8.529029 31.063030 -29.461303 43.653460 -1.302828 2.311613 0.025830 -0.016865 -21632.700000 0 0 1
-7.136429 31.249900 -29.592333 43.625578 -1.346280 2.316277 0.020944 -0.016561 -422868.000000 0 0 1
-6.688129 32.420230 -29.009723 44.015525 -1.367355 2.290390 0.025733 -0.015431 -177401.000000 0 0 1
-5.148529 32.551860 -28.986263 43.890026 -1.413932 2.292187 0.018191 -0.017709 -257233.000000 0 0 1
-4.721029 33.796768 -28.431183 44.416684 -1.432006 2.265427 0.020075 -0.022232 -301304.000000 0 0 1
-4.656929 -34.101444 -29.368963 45.245237 1.435075 2.277205 0.029777 -0.016936 -86751.600000 0 0 1
-3.474229 -34.022825 -30.379243 45.744085 1.469034 2.297103 0.038943 -0.020508 -95525.200000 0 0 1
-3.503329 34.030993 -31.455743 46.474139 -1.468212 2.314263 0.047092 -0.027326 -102453.000000 0 0 1
-4.452129 34.242356 -32.466213 47.396365 -1.441503 2.325391 0.053086 -0.028802 -183841.000000 0 0 1
-4.009829 -33.656023 -33.500043 47.655635 1.452214 2.350348 0.027333 -0.025246 -41362.000000 0 0 1
-3.579029 -32.379543 -33.031673 46.393272 1.460710 2.363128 0.028686 -0.024494 42229.700000 0 0 1
-2.968329 -31.621873 -34.008393 46.533049 1.477201 2.390354 0.009951 -0.019357 -243399.000000 0 0 1
32.198311 19.719657 12.512330 39.776306 0.549519 1.250795 0.019984 0.013974 -298365.000000 0 0 1
32.914801 18.727157 13.136430 40.083118 0.517282 1.236897 0.041647 0.005772 34691.900000 0 0 1
32.259931 17.446157 13.054930 38.929459 0.495752 1.228821 0.048265 0.009170 315128.000000 0 0 1
33.171911 16.330857 13.623330 39.403905 0.457477 1.217774 0.071822 -0.006683 441805.000000 0 0 1
34.195151 15.847457 12.768730 39.793099 0.433976 1.244140 0.079346 -0.015762 346666.000000 0 0 1
35.075581 14.960057 13.444830 40.433441 0.403148 1.231825 0.078156 -0.014902 -271687.000000 0 0 1
-35.014456 14.293357 12.460230 39.819210 -0.387566 1.252530 0.076685 -0.022972 -319438.000000 0 0 1
-34.037257 13.486957 13.064230 38.872960 -0.377262 1.228050 0.063430 -0.023327 -245291.000000 0 0 1
-34.504914 12.222957 13.540030 39.029761 -0.340445 1.216516 0.053956 -0.023413 -275423.000000 0 0 1
-33.762127 11.602757 14.734330 38.621311 -0.331017 1.179369 0.041068 -0.025109 -110629.000000 0 0 1
-33.939977 12.400657 15.831730 39.450501 -0.350302 1.157854 0.051020 -0.020281 265423.000000 0 0 1
-33.253187 11.860857 16.941830 39.159673 -0.342616 1.123383 0.034414 -0.015308 -114472.000000 0 0 1
-33.306387 12.935557 18.091530 40.049314 -0.370450 1.102091 0.032559 -0.014645 -61956.300000 0 0 1
-34.501304 12.902057 18.848230 41.377033 -0.357857 1.097836 0.032068 -0.012573 174772.000000 0 0 1
-34.345532 13.711857 20.042430 42.063400 -0.379845 1.074148 0.033111 -0.015102 -454717.000000 0 0 1
-35.519489 13.716457 21.013930 43.489776 -0.368525 1.066499 0.038772 -0.015134 -547863.000000 0 0 1
35.350935 12.434357 21.471830 43.189598 0.338225 1.050482 0.033087 -0.007183 238926.000000 0 0 1
34.276821 12.394157 22.398930 42.781160 0.346962 1.019761 0.026630 -0.009938 84179.000000 0 0 1
34.078341 10.975857 23.074530 42.593858 0.311586 0.998298 0.019249 -0.006154 -372332.000000 0 0 1
34.986645 10.684657 24.103480 43.808732 0.296397 0.988195 0.021957 -0.000081 -338193.000000 0 0 1
34.762121 11.216657 25.372720 44.474638 0.312122 0.963683 0.020975 0.003462 -916811.000000 0 0 1
-35.046491 11.609957 26.214630 45.279736 -0.319895 0.953358 0.035721 -0.005066 253357.000000 0 0 1
-34.346588 12.766057 25.776120 44.800321 -0.355860 0.957757 0.038808 -0.012978 -45067.200000 0 0 1
-33.597827 12.626857 24.595590 43.510856 -0.359493 0.970030 0.028699 -0.011895 -1000640.000000 0 0 1
-32.516487 13.715857 24.356920 42.880138 -0.399168 0.966694 0.021901 -0.009276 705897.000000 0 0 1
-31.533987 13.884657 25.393690 42.802051 -0.414765 0.935666 0.022376 -0.013113 667041.000000 0 0 1
-32.110227 14.506957 26.542990 44.114044 -0.424338 0.925181 0.020552 -0.013902 -727136.000000 0 0 1
-31.093417 15.053957 27.584410 44.207713 -0.450889 0.896980 0.014935 -0.004218 -50666.300000 0 0 1
-30.524657 16.264957 27.112670 43.947701 -0.489578 0.905960 0.015251 -0.005241 88649.900000 0 0 1
-29.962727 17.084257 28.181400 44.540186 -0.518207 0.885738 0.010175 -0.007176 107461.000000 0 0 1
-29.265367 18.361357 27.709910 44.288151 -0.560330 0.894802 0.006135 0.002930 -157397.000000 0 0 1
-30.150147 19.370357 27.290500 45.044573 -0.571059 0.919956 0.000159 -0.016414 227102.000000 0 0 1
-29.412007 20.490457 26.958400 44.851760 -0.608487 0.925975 -0.002495 -0.017915 -437105.000000 0 0 1
-30.304107 21.369357 26.112810 45.352698 -0.614183 0.957248 -0.009009 -0.009238 -761485.000000 0 0 1
-31.257747 22.053557 26.870680 46.748686 -0.614434 0.958449 -0.009141 -0.011533 -186784.000000 0 0 1
-32.178577 22.620257 25.978490 47.138295 -0.612710 0.987100 -0.003799 -0.008495 -1066590.000000 0 0 1
-31.970197 24.137357 25.777260 47.635834 -0.646691 0.999014 -0.005890 -0.008307 -1003620.000000 0 0 1
-32.940387 24.765057 25.025530 48.214669 -0.644661 1.025064 0.001923 -0.009307 -483890.000000 0 0 1
-32.821457 26.185257 24.967690 48.849783 -0.673404 1.034319 0.004210 -0.011356 -64396.000000 0 0 1
-33.922627 26.804357 24.090610 49.493188 -0.668713 1.062436 0.018417 -0.008936 -34607.600000 0 0 1
-33.697537 26.481157 22.713330 48.504341 -0.666052 1.083460 0.019991 -0.007195 510862.000000 0 0 1
-34.705926 26.986657 21.814030 49.077825 -0.660920 1.110204 0.027429 -0.016255 340689.000000 0 0 1
-34.398554 26.840357 20.291230 48.118596 -0.662598 1.135486 0.028535 -0.024470 -145473.000000 0 0 1
-34.675268 25.580357 19.747730 47.399385 -0.635590 1.141068 0.026675 -0.026362 144018.000000 0 0 1
-33.760137 25.133257 18.768130 46.083296 -0.639950 1.151338 0.033823 -0.013001 -116933.000000 0 0 1
-34.212184 23.785257 18.147630 45.448306 -0.607516 1.160040 0.029694 -0.005578 1310270.000000 0 0 1
-35.500692 23.828057 17.464330 46.185260 -0.591134 1.183014 0.028553 -0.013531 856811.000000 0 0 1
-35.504106 23.018457 16.319330 45.350981 -0.575202 1.202694 0.019654 -0.002274 201049.000000 0 0 1
34.238951 22.965857 15.479530 44.038077 0.590826 1.211620 0.015822 0.008847 650973.000000 0 0 1
33.251931 22.152457 16.112430 43.081698 0.587680 1.187481 0.026944 0.000170 -28524.100000 0 0 1
32.031401 22.157657 15.412830 41.887084 0.605166 1.193981 0.028811 0.008461 -394923.000000 0 0 1
31.004411 21.122657 15.943130 40.763017 0.598051 1.168951 0.015778 0.003470 437051.000000 0 0 1
30.288221 21.550057 17.108230 40.920323 0.618402 1.139459 0.015638 0.003861 -382183.000000 0 0 1
29.123751 22.276757 16.893230 40.371129 0.652969 1.139060 0.019254 0.004737 -608774.000000 0 0 1
28.498471 22.846057 18.208230 40.812312 0.675752 1.108343 0.027378 0.008495 -251447.000000 0 0 1
29.320701 23.746557 18.886430 42.193598 0.680743 1.106701 0.004951 0.006236 -475124.000000 0 0 1
28.657231 24.484857 19.909930 42.628048 0.707045 1.084831 0.001974 0.008528 -164894.000000 0 0 1
29.604261 25.194057 20.861030 44.117291 0.705091 1.078270 0.008639 0.004678 -313463.000000 0 0 1
30.357111 26.244557 20.350430 44.994122 0.712868 1.101464 0.028942 -0.010425 -474406.000000 0 0 1
31.184571 26.680857 21.387830 46.279422 0.707724 1.090383 0.043049 -0.012498 490076.000000 0 0 1
32.282531 27.725457 20.837530 47.382122 0.709603 1.115447 0.046425 -0.017072 1326490.000000 0 0 1
33.305291 28.241457 21.688630 48.756733 0.703307 1.109808 0.044968 -0.012793 504404.000000 0 0 1
32.761891 29.175657 22.590030 49.344401 0.727562 1.095274 0.028994 -0.011398 -590828.000000 0 0 1
33.598061 29.565657 23.785790 50.682557 0.721644 1.082288 0.028287 -0.013986 -197306.000000 0 0 1
34.768011 30.300257 23.451030 51.738487 0.716843 1.100376 0.042687 -0.011684 -12170.200000 0 0 1
-35.520329 30.384857 24.637720 52.838912 -0.707633 1.085716 0.038060 -0.004512 -1557.900000 0 0 1
-34.179842 31.110357 24.392980 52.260247 -0.738420 1.085173 0.052924 -0.013852 542476.000000 0 0 1
-33.062997 30.325257 23.941860 50.852686 -0.742235 1.080590 0.049520 -0.015547 70538.400000 0 0 1
-31.900237 31.039957 24.195740 50.661010 -0.771731 1.072874 0.059597 -0.013127 -958717.000000 0 0 1
-30.579737 30.409957 23.797070 49.256333 -0.782614 1.066574 0.053531 -0.012998 -809453.000000 0 0 1
-30.381857 30.184157 22.414530 48.337891 -0.782134 1.088624 0.026586 -0.003408 -15006.200000 0 0 1
-30.863397 28.977257 21.829330 47.631401 -0.753889 1.094718 0.026836 -0.002141 -218500.000000 0 0 1
-30.425647 27.657457 22.524430 46.882885 -0.737775 1.069640 0.016460 0.002175 -429367.000000 0 0 1
-29.033647 27.429057 22.534130 45.859490 -0.756987 1.057130 -0.022044 0.005814 41995.500000 0 0 1
-28.651867 26.434957 23.491730 45.514809 -0.745176 1.028465 -0.009018 0.005915 -62308.100000 0 0 1
-28.452067 26.839957 24.912120 46.373669 -0.756250 1.003678 0.014218 0.002032 -6050.130000 0 0 1
-29.636857 27.124757 25.654310 47.668012 -0.741170 1.002512 0.018769 -0.003391 336342.000000 0 0 1
-29.328047 27.630257 26.964310 48.483394 -0.755599 0.981044 0.033042 -0.012384 -321181.000000 0 0 1
-30.598597 27.878657 27.799850 49.863066 -0.738919 0.979396 0.039703 -0.020608 -169971.000000 0 0 1
-31.297297 26.677057 28.130470 49.824788 -0.705872 0.970863 0.016999 -0.017370 396820.000000 0 0 1
-32.264467 27.069157 29.119320 51.202245 -0.698060 0.965857 0.018540 -0.012604 276778.000000 0 0 1
-32.982987 25.872157 29.761570 51.410087 -0.665162 0.953411 -0.001005 -0.006300 -57822.200000 0 0 1
-32.254627 25.278757 30.811410 51.271040 -0.664738 0.926105 -0.003764 -0.016281 34775.800000 0 0 1
-33.034517 24.219957 31.282610 51.541123 -0.632643 0.918586 -0.025398 -0.013299 167645.000000 0 0 1
-32.255897 23.308357 32.327750 51.271882 -0.625738 0.888578 -0.015306 -0.022212 -613323.000000 0 0 1
-31.141887 22.664057 31.737140 49.907141 -0.629120 0.881591 -0.004107 -0.020200 42911.900000 0 0 1
-30.512597 21.776057 32.618610 49.690935 -0.619845 0.854720 0.007475 -0.026618 -352468.000000 0 0 1
-29.776287 22.368957 33.815469 50.303911 -0.644290 0.833588 0.020728 -0.030241 -1595510.000000 0 0 1
-30.550897 22.787257 -33.889543 51.001152 -0.640858 2.297602 0.047498 -0.030652 168006.000000 0 0 1
-29.970637 22.507157 -32.618013 49.686477 -0.644124 2.286935 0.031497 -0.016535 140174.000000 0 0 1
-28.572547 23.027457 -32.182253 48.809340 -0.678346 2.290745 0.047335 -0.027925 203535.000000 0 0 1
-28.628827 24.236557 -31.520343 48.995433 -0.702504 2.269639 0.035311 -0.018975 -218032.000000 0 0 1
-27.441197 24.567257 -30.846153 48.042217 -0.730195 2.267983 0.063575 -0.017213 -192622.000000 0 0 1
-27.665727 25.813657 -29.990473 48.282148 -0.750781 2.241006 0.040332 -0.007340 -140363.000000 0 0 1
-27.731557 27.048257 -30.670723 49.409925 -0.772925 2.240483 0.037045 -0.010427 -215467.000000 0 0 1
-28.986347 27.429457 -31.166393 50.635240 -0.757808 2.233827 0.016471 -0.005610 -753373.000000 0 0 1
-28.917617 28.754157 -31.878223 51.761484 -0.782564 2.234283 0.024557 -0.008288 -4802.130000 0 0 1
-28.657727 29.841157 -31.014143 51.707224 -0.805625 2.214051 0.018619 -0.012347 40472.100000 0 0 1
-28.265747 30.937257 -31.785723 52.596564 -0.830492 2.219722 0.028794 -0.020554 -255954.000000 0 0 1
-28.497697 32.298557 -31.078113 53.114637 -0.847835 2.195817 0.028259 -0.014444 -223530.000000 0 0 1
-27.685227 32.500557 -29.962693 52.158614 -0.865236 2.182733 0.012580 -0.011963 -145587.000000 0 0 1
-27.899707 33.795957 -29.380843 52.761675 -0.880679 2.161396 0.003735 -0.015494 -336207.000000 0 0 1
-27.272187 33.943557 -27.980243 51.757427 -0.893951 2.141951 -0.000228 -0.013653 662338.000000 0 0 1
-25.884417 34.299657 -28.025503 51.302031 -0.924322 2.148718 -0.000247 -0.009078 473667.000000 0 0 1
-25.559387 -33.266697 -28.023253 50.450551 0.915675 2.159712 0.002927 0.008561 -789483.000000 0 0 1
-26.041417 -32.328197 -26.830593 49.428215 0.892691 2.144587 0.003521 0.009388 -134791.000000 0 0 1
-27.376167 -31.897897 -26.965743 49.940782 0.861536 2.141179 -0.000863 -0.003765 -155849.000000 0 0 1
-27.752987 -31.080697 -25.843893 49.032080 0.841899 2.125959 -0.003112 -0.001700 -302814.000000 0 0 1
-29.256607 -30.792497 -25.853823 49.724713 0.810970 2.117576 -0.011166 -0.004268 -362750.000000 0 0 1
-29.690137 -29.896497 -26.816633 49.944335 0.788861 2.137591 -0.002555 -0.004616 241963.000000 0 0 1
-31.105457 -29.829797 -26.783533 50.741737 0.764467 2.126852 -0.005163 -0.001944 -72807.300000 0 0 1
-31.810707 -28.911397 -27.771823 51.176793 0.737687 2.144402 0.007789 -0.006283 -156406.000000 0 0 1
-33.170137 -28.795397 -27.408263 51.774953 0.714916 2.128658 0.007984 -0.000478 -111867.000000 0 0 1
-33.909137 -28.131797 -28.393333 52.415732 0.692545 2.143248 0.013560 -0.010248 -337274.000000 0 0 1
-35.416786 -28.404897 -28.447403 53.576503 0.675970 2.130539 0.018428 -0.016828 -118066.000000 0 0 1
34.944651 -27.541797 -27.529163 52.321449 -0.667476 2.124868 0.005544 0.002681 894472.000000 0 0 1
33.548081 -27.760497 -27.847273 51.687422 -0.691276 2.139764 0.007264 -0.000648 1176340.000000 0 0 1
32.473571 -27.298597 -26.821513 50.191033 -0.699035 2.134581 0.025076 0.010377 93623.100000 0 0 1
32.471801 -28.140497 -25.699313 50.067556 -0.714060 2.109813 0.026909 0.011471 419541.000000 0 0 1
31.486541 -27.658397 -24.796553 48.695567 -0.720764 2.105070 0.024024 0.011737 269082.000000 0 0 1
31.472171 -28.498797 -23.500953 48.528072 -0.735858 2.076331 0.018092 0.016064 -36305.900000 0 0 1
31.074521 -29.835197 -23.583353 49.111500 -0.765054 2.071679 0.028632 0.010096 -289405.000000 0 0 1
30.556971 -30.331797 -22.379953 48.524310 -0.781700 2.050156 0.030776 0.007953 -188973.000000 0 0 1
31.496821 -30.567297 -21.170953 48.730059 -0.770422 2.020228 0.023250 0.014863 -326013.000000 0 0 1
32.565801 -31.503497 -21.345553 50.086269 -0.768819 2.011058 0.017693 0.009114 850397.000000 0 0 1
33.604251 -31.474497 -20.377653 50.350158 -0.752684 1.987468 -0.002773 0.011889 946791.000000 0 0 1
34.603271 -30.254397 -20.435353 50.302272 -0.718446 1.989144 -0.008255 0.011205 -204412.000000 0 0 1
33.967181 -29.018197 -20.113553 48.993675 -0.706986 1.993836 -0.006968 0.017434 61330.400000 0 0 1
34.602401 -27.927197 -20.749253 49.069196 -0.679048 2.007392 -0.004180 0.010695 217594.000000 0 0 1
33.844261 -26.546397 -20.501253 47.649203 -0.665137 2.015570 -0.008686 0.020585 373353.000000 0 0 1
32.619001 -26.479497 -21.188353 47.054323 -0.681884 2.037893 0.004471 0.015902 -135338.000000 0 0 1
31.630851 -25.780097 -20.461253 45.648516 -0.683839 2.035586 0.017327 0.030980 892658.000000 0 0 1
30.321871 -25.522597 -21.316553 45.002381 -0.699669 2.064257 0.014898 0.027236 933253.000000 0 0 1
29.541041 -26.659197 -21.658453 45.304244 -0.734165 2.069249 0.031133 0.018671 -65616.100000 0 0 1
28.347951 -26.239997 -22.283653 44.594899 -0.746802 2.094038 0.032416 0.010374 165418.000000 0 0 1
27.541851 -27.467097 -22.832853 45.103594 -0.784039 2.101606 0.040791 0.011351 290106.000000 0 0 1
27.027621 -28.320897 -21.775753 44.796751 -0.808760 2.078419 0.039004 0.013976 169243.000000 0 0 1
26.466801 -29.539597 -22.194053 45.449481 -0.840208 2.080964 0.039052 0.015039 -231126.000000 0 0 1
25.956671 -30.387797 -20.981853 45.137624 -0.863880 2.054252 0.041857 0.017046 -402820.000000 0 0 1
26.931781 -30.918397 -20.135753 45.680594 -0.854202 2.027280 0.049186 0.007148 -332851.000000 0 0 1
27.522921 -32.124197 -20.634053 47.066329 -0.862387 2.024618 0.057702 0.005647 -146774.000000 0 0 1
28.492141 -32.715297 -19.604953 47.607215 -0.854286 1.995232 0.041506 -0.007617 -85779.700000 0 0 1
27.996331 -33.140397 -18.294853 47.082716 -0.869341 1.969874 0.041567 -0.002779 837.529000 0 0 1
27.431601 -32.173497 -17.395853 45.719168 -0.864786 1.961126 0.021232 -0.000212 -3767.030000 0 0 1
26.783991 -32.803197 -16.184853 45.336314 -0.886072 1.935846 0.019558 0.002202 1028830.000000 0 0 1
25.484171 -33.425297 -16.417853 45.124709 -0.919393 1.943176 0.025275 0.002520 1159620.000000 0 0 1
25.105671 -34.264597 -15.336553 45.161568 -0.938459 1.917281 0.022319 0.008887 1034480.000000 0 0 1
23.542871 -34.287897 -15.113553 44.253205 -0.969104 1.919335 0.015925 0.014206 1275850.000000 0 0 1
22.977671 -33.143297 -14.454253 42.841299 -0.964593 1.914940 0.017179 0.021363 1377170.000000 0 0 1
21.570871 -33.290697 -14.152653 42.117343 -0.995860 1.913494 0.014460 0.011198 1125120.000000 0 0 1
-0.556637 -7.039743 -29.054073 29.899950 1.491890 2.903162 0.018440 -0.009118 161085.000000 0 0 1
-0.459037 -8.470843 -28.871723 30.092230 1.516659 2.855809 0.015788 -0.007117 -130490.000000 0 0 1
-0.484437 -9.210543 -30.073193 31.455774 1.518249 2.844006 0.012038 -0.007864 -111603.000000 0 0 1
-0.239837 -10.761643 -29.944143 31.820154 1.548514 2.796498 0.023873 -0.007379 -663375.000000 0 0 1
1.052863 -10.919743 -29.475333 31.450669 -1.474675 2.785289 0.009969 -0.008471 -910646.000000 0 0 1
1.371263 -12.296043 -29.471713 31.963337 -1.459735 2.744133 0.013060 -0.004242 -1082140.000000 0 0 1
2.736163 -12.534043 -28.917133 31.635256 -1.355870 2.724028 0.009276 0.002519 -1449280.000000 0 0 1
3.772763 -12.464143 -29.903893 32.616429 -1.276874 2.730877 0.009814 0.002762 1113360.000000 0 0 1
5.108763 -12.545043 -29.361853 32.335677 -1.184070 2.709360 0.036015 -0.004409 1142020.000000 0 0 1
5.551963 -13.905243 -28.727123 32.394871 -1.190918 2.661127 0.039477 -0.012838 -1662080.000000 0 0 1
4.993463 -14.258243 -27.494873 31.371966 -1.233929 2.639164 0.029187 -0.006495 -358958.000000 0 0 1
5.639063 -15.322343 -26.883583 31.453144 -1.218151 2.595805 0.036618 -0.008307 -260803.000000 0 0 1
5.297463 -16.741643 -27.375943 32.523653 -1.264340 2.571265 0.026330 -0.009778 -166310.000000 0 0 1
5.683763 -17.114643 -28.691113 33.887994 -1.250157 2.580446 0.034267 -0.012339 244327.000000 0 0 1
5.230763 -18.446443 -28.915713 34.695110 -1.294485 2.556070 0.025756 -0.010855 -283003.000000 0 0 1
5.291663 -18.892043 -30.438793 36.213687 -1.297695 2.569062 0.024810 -0.012252 670611.000000 0 0 1
6.637763 -19.081143 -30.902483 36.920366 -1.236020 2.562581 0.016745 -0.015123 837186.000000 0 0 1
6.656563 -19.933243 -32.068253 38.340799 -1.248497 2.561479 0.013316 -0.012741 -297345.000000 0 0 1
8.000863 -19.932543 -32.794823 39.202303 -1.189086 2.561758 0.008727 -0.014534 -311310.000000 0 0 1
8.509163 -18.658643 -33.177433 39.003755 -1.142928 2.587963 0.013737 -0.015936 75597.100000 0 0 1
9.544263 -18.798343 -34.123543 40.110932 -1.100993 2.588168 0.003605 -0.016407 -356820.000000 0 0 1
9.960463 -17.400743 34.108589 39.565042 -1.050906 0.531419 0.009674 -0.014852 -258110.000000 0 0 1
9.031663 -16.983343 33.153270 38.329417 -1.082037 0.525733 0.014215 -0.008951 -23341.400000 0 0 1
9.260963 -15.654543 32.667900 37.390131 -1.036589 0.508031 0.011268 -0.003622 -61447.000000 0 0 1
8.223663 -15.297243 31.577370 36.038377 -1.077530 0.502845 0.025454 -0.003130 -145370.000000 0 0 1
8.323363 -15.971743 30.334850 35.278578 -1.090388 0.535789 0.024576 0.001771 158561.000000 0 0 1
7.411563 -15.575643 29.308960 34.008044 -1.126660 0.531941 0.026823 0.006068 -180253.000000 0 0 1
7.524463 -16.486843 28.106800 33.442873 -1.142640 0.572698 0.023513 0.011541 -406167.000000 0 0 1
7.239163 -17.815143 28.505490 34.385285 -1.184829 0.593474 0.027563 0.003278 320669.000000 0 0 1
7.335363 -18.770043 27.462270 34.063153 -1.198245 0.633068 0.019456 0.002763 210120.000000 0 0 1
6.879663 -20.261743 27.821340 35.098362 -1.243471 0.655624 0.029745 -0.007280 220078.000000 0 0 1
7.837963 -20.712443 28.766030 36.303216 -1.209032 0.656092 0.032646 -0.004813 482081.000000 0 0 1
7.386463 -21.829243 29.467270 37.408498 -1.244515 0.663704 0.019574 -0.004285 -215855.000000 0 0 1
7.844163 -21.859943 30.952410 38.696766 -1.226270 0.643717 0.024181 -0.015195 -109836.000000 0 0 1
7.121863 -21.056743 31.904060 38.884141 -1.244652 0.608528 0.038666 -0.019549 364737.000000 0 0 1
7.065963 -19.659943 31.708810 37.972225 -1.225764 0.582568 0.021125 -0.014970 -173686.000000 0 0 1
6.382263 -18.954243 32.887488 38.491343 -1.246001 0.546377 0.018259 -0.016637 346465.000000 0 0 1
4.975863 -19.110143 33.088536 38.533207 -1.316074 0.538065 0.019047 -0.016964 437015.000000 0 0 1
4.515063 -18.202343 34.087619 38.906001 -1.327655 0.502973 0.021975 -0.006282 -1068090.000000 0 0 1
3.074463 -18.386643 -34.369630 39.099776 -1.405117 2.644607 0.023787 -0.006585 -1196910.000000 0 0 1
2.826263 -19.603743 -33.632083 39.030905 -1.427613 2.609364 0.011584 -0.008373 829285.000000 0 0 1
1.972263 -19.310243 -32.469213 37.828893 -1.469014 2.602779 0.021208 -0.009480 593399.000000 0 0 1
1.430763 -20.417643 -31.530773 37.591447 -1.500836 2.565826 0.010135 -0.007638 -101251.000000 0 0 1
0.442163 -21.287343 -32.106343 38.524846 -1.550028 2.556015 0.001972 -0.006424 704275.000000 0 0 1
-0.282337 -22.107143 -31.190263 38.231375 1.558026 2.524958 0.006743 -0.002004 422653.000000 0 0 1
-1.204437 -21.407843 -30.164023 37.008306 1.514594 2.523631 0.015781 -0.004061 -241269.000000 0 0 1
-2.165137 -20.513243 -30.746373 37.024592 1.465637 2.550677 0.029201 -0.018804 223066.000000 0 0 1
-2.556037 -19.437143 -29.943373 35.790243 1.440044 2.561907 0.043777 -0.004582 -203118.000000 0 0 1
-1.778737 -18.125043 -30.171073 35.241662 1.472973 2.598510 0.032472 0.003096 3075.860000 0 0 1
-2.493537 -17.086443 -29.566143 34.239175 1.425883 2.613001 0.037687 -0.004094 -354369.000000 0 0 1
-1.920737 -15.804843 -29.816283 33.800785 1.449861 2.651136 0.043480 -0.007465 -378024.000000 0 0 1
-2.781937 -14.512543 -29.557543 33.045445 1.381402 2.677999 0.034408 0.003561 238411.000000 0 0 1
-3.027937 -14.358743 -28.178803 31.770849 1.362964 2.661471 0.027693 -0.006234 -156232.000000 0 0 1
-3.927337 -13.296643 -27.928663 31.180682 1.283599 2.680808 0.018658 -0.010435 156871.000000 0 0 1
-4.209837 -13.027943 -26.406293 29.744619 1.258249 2.663267 0.017120 -0.008467 -160108.000000 0 0 1
-4.854637 -14.087343 -25.737423 29.739464 1.238931 2.616804 0.018540 -0.004275 231071.000000 0 0 1
-4.618937 -13.994143 -24.324553 28.440368 1.251993 2.596892 0.012894 0.000388 4583.100000 0 0 1
-5.363937 -12.863043 -23.480953 27.305400 1.175718 2.605945 0.020218 -0.011146 636878.000000 0 0 1
-6.778337 -13.054543 -23.605353 27.813300 1.091882 2.584333 0.026201 -0.010047 745215.000000 0 0 1
-7.494037 -12.019543 -22.883853 26.912836 1.013285 2.587342 0.010968 -0.007236 107070.000000 0 0 1
-8.999637 -12.071843 -23.169753 27.632596 0.930177 2.565309 0.035845 -0.015122 23624.900000 0 0 1
-9.726637 -13.202743 -22.691653 27.996983 0.935853 2.515808 0.031501 -0.010401 126110.000000 0 0 1
-10.381637 -14.021543 -23.658953 29.396057 0.933464 2.506192 0.032929 -0.015446 70062.300000 0 0 1
-11.200637 -15.197743 -23.087653 29.823907 0.935672 2.456140 0.035853 -0.021210 -198993.000000 0 0 1
-10.438537 -16.305443 -22.608053 29.764990 1.001350 2.433420 0.036105 -0.016484 -539882.000000 0 0 1
-11.162737 -17.387043 -22.084953 30.243365 1.000055 2.389471 0.038674 -0.012471 335010.000000 0 0 1
-12.079737 -18.178743 -23.135753 31.806443 0.984297 2.385310 0.026750 -0.002853 1268190.000000 0 0 1
-13.300637 -17.504043 -23.492753 32.174648 0.921014 2.389358 0.031618 -0.003356 111374.000000 0 0 1
-13.717137 -18.134643 -24.663853 33.545951 0.923209 2.396796 0.024528 -0.003624 -627967.000000 0 0 1
-14.888937 -17.471243 -25.329813 34.183684 0.865028 2.405342 0.037601 -0.000744 -271474.000000 0 0 1
-16.138637 -17.546543 -24.656753 34.297118 0.827170 2.373038 0.032961 0.006177 624896.000000 0 0 1
-17.211037 -17.031543 -25.443693 35.123707 0.780156 2.380963 0.017095 0.007690 817215.000000 0 0 1
-18.006437 -15.779743 -24.877853 34.527376 0.719588 2.375356 0.035702 0.000622 269159.000000 0 0 1
-18.719337 -16.054643 -23.665753 34.179424 0.708919 2.335603 0.017306 0.005101 182235.000000 0 0 1
-19.469237 -14.928143 -23.298053 33.833415 0.654139 2.330368 0.027533 -0.000411 59426.700000 0 0 1
-20.044937 -14.946043 -21.843953 33.201536 0.640696 2.288850 0.009224 -0.003189 127955.000000 0 0 1
-19.079537 -14.536943 -20.870553 31.795148 0.651082 2.286842 0.021102 0.002985 236835.000000 0 0 1
-19.447437 -14.431143 -19.487753 31.084293 0.638399 2.248406 0.021919 -0.002131 -329608.000000 0 0 1
-20.232837 -13.172443 -19.031453 30.742108 0.577108 2.238352 0.017985 -0.004686 -783514.000000 0 0 1
-21.548837 -13.124843 -19.458353 31.862853 0.547065 2.227729 0.014523 -0.008041 -631436.000000 0 0 1
-22.300637 -12.075643 -18.934453 31.648904 0.496289 2.212131 0.016547 -0.007472 409347.000000 0 0 1
-23.761837 -11.831343 -19.395053 32.875123 0.461977 2.201807 0.035267 -0.005651 451350.000000 0 0 1
-23.837237 -11.109143 -20.554853 33.378570 0.436114 2.234210 0.024055 -0.010807 -682611.000000 0 0 1
-25.037237 -10.429843 -20.554353 34.031255 0.394712 2.219288 0.016435 -0.006582 -1015450.000000 0 0 1
-25.244257 -9.414143 -21.708653 34.600061 0.356948 2.249027 0.021694 -0.005633 -453936.000000 0 0 1
-25.281207 -9.989643 -22.999353 35.607621 0.376311 2.273012 0.003960 -0.002556 100207.000000 0 0 1
-26.015287 -9.211943 -23.885353 36.498838 0.340320 2.284204 0.012345 -0.006972 -560643.000000 0 0 1
-25.982107 -9.707043 -25.360163 37.582369 0.357547 2.311475 0.001092 0.004499 175135.000000 0 0 1
-24.761437 -9.554943 -26.081193 37.210944 0.368275 2.347456 -0.005678 -0.007761 147299.000000 0 0 1
-24.150537 -10.822743 -26.250233 37.275394 0.421303 2.352126 -0.007971 0.011101 24044.200000 0 0 1
-23.113037 -10.956843 -27.401693 37.484900 0.442677 2.390592 0.005070 0.005567 47277.700000 0 0 1
-23.691237 -10.859543 -28.670143 38.745084 0.429799 2.403820 0.008180 0.011738 527521.000000 0 0 1
-22.685737 -10.821743 -29.718363 38.922152 0.445102 2.439564 0.008563 0.011779 674007.000000 0 0 1
-23.208337 -11.189043 -31.138383 40.415598 0.449236 2.450350 0.006004 0.009685 55210.200000 0 0 1
-24.109937 -10.292643 -31.759823 41.181476 0.403483 2.451546 0.003886 0.010213 46873.100000 0 0 1
-23.521537 -9.123643 -32.332713 41.011071 0.370019 2.478984 0.000087 0.012112 -639995.000000 0 0 1
-24.456537 -8.143743 -33.095413 41.949364 0.321440 2.479874 0.014849 0.006261 -645768.000000 0 0 1
-25.340497 -8.674843 -34.076923 43.343170 0.329827 2.475451 0.027747 0.006845 1970860.000000 0 0 1
-26.543747 -9.382943 -33.633883 43.861695 0.339780 2.444663 0.031432 0.002990 779742.000000 0 0 1
-27.508777 -8.603743 -32.707683 43.595295 0.303125 2.419247 0.017067 0.004672 -607514.000000 0 0 1
-28.832337 -9.113843 -32.870533 44.663607 0.306159 2.397877 0.018863 0.006389 247942.000000 0 0 1
-29.733077 -8.588643 -31.941383 44.475529 0.281204 2.371978 0.020690 0.006790 214321.000000 0 0 1
-31.099637 -9.343543 -32.024693 45.607787 0.291859 2.349245 0.026941 0.009645 137856.000000 0 0 1
-31.197637 -10.678143 -31.738583 45.767379 0.329776 2.337099 0.026662 0.005036 704004.000000 0 0 1
-32.556997 -11.116343 -31.610683 46.720086 0.329031 2.313928 0.027759 0.000134 432093.000000 0 0 1
-32.813897 -12.596443 -31.703533 47.334303 0.366529 2.304708 0.032771 -0.009417 -168142.000000 0 0 1
-34.102849 -13.119843 -31.438683 48.202961 0.367260 2.281299 0.017120 -0.015020 72400.100000 0 0 1
-34.169310 -14.524243 -31.544733 48.719253 0.401927 2.275069 0.017444 -0.009517 -305683.000000 0 0 1
-35.495405 -15.066143 -31.019113 49.488361 0.401408 2.248231 0.025590 -0.019115 -273951.000000 0 0 1
-35.523391 -14.988443 -29.640073 48.632281 0.399269 2.226192 0.021121 -0.015454 29338.500000 0 0 1
34.914371 -16.139343 -29.126853 48.247957 -0.432998 2.218919 0.018960 -0.018457 -187960.000000 0 0 1
35.164189 -16.328443 -27.580723 47.579771 -0.434722 2.189124 0.025394 -0.021017 34940.100000 0 0 1
-34.498303 -16.388043 -27.320483 46.958596 0.443480 2.191736 0.023389 -0.024691 311927.000000 0 0 1
-34.273918 -15.934343 -25.967543 45.857585 0.435185 2.172763 0.045006 -0.026455 -687727.000000 0 0 1
-32.917307 -15.315343 -25.638453 44.445913 0.435477 2.185659 0.048574 -0.024364 -1304190.000000 0 0 1
-32.002557 -16.320143 -25.704003 44.172464 0.471587 2.191861 0.049409 -0.022760 -919712.000000 0 0 1
-30.707057 -15.812043 -25.406593 42.877023 0.475522 2.205012 0.063270 -0.017739 744043.000000 0 0 1
-29.612467 -16.946643 -25.532153 42.614291 0.519788 2.213230 0.041137 -0.010566 349350.000000 0 0 1
-29.548177 -17.996943 -24.571853 42.435371 0.547063 2.188349 0.041732 -0.015570 403632.000000 0 0 1
-30.356027 -19.160143 -24.908753 43.692625 0.563032 2.177412 0.039544 -0.017535 23346.100000 0 0 1
-30.109267 -20.369143 -23.929053 43.520910 0.594785 2.152956 0.036128 -0.016020 914290.000000 0 0 1
-28.862477 -21.084443 -24.142953 43.133265 0.630913 2.164855 0.033396 -0.008797 958297.000000 0 0 1
-28.807967 -22.219343 -23.331953 43.220114 0.656989 2.141044 0.030484 -0.016187 -766144.000000 0 0 1
-27.518357 -23.027243 -23.546553 42.917993 0.696778 2.151534 0.025768 -0.015165 828833.000000 0 0 1
-26.288107 -22.471543 -23.017053 41.542985 0.707284 2.158022 0.028235 -0.016046 839376.000000 0 0 1
-26.149907 -22.175843 -21.627553 40.538090 0.703348 2.133544 0.036723 -0.025265 -666468.000000 0 0 1
-26.245547 -23.438043 -20.706253 40.827926 0.728951 2.102682 0.042620 -0.017414 -105602.000000 0 0 1
-25.977257 -23.089943 -19.376953 39.792332 0.726622 2.079393 0.043661 -0.024459 37556.500000 0 0 1
-26.028537 -24.242543 -18.558853 40.120029 0.749886 2.051703 0.040250 -0.001494 -175775.000000 0 0 1
-26.168607 -23.852943 -17.073953 39.310034 0.739138 2.020103 0.035018 -0.001476 878821.000000 0 0 1
-27.460607 -23.302343 -16.773753 39.729623 0.703665 2.006665 0.037860 -0.004113 717571.000000 0 0 1
-27.181027 -22.171943 -15.985053 38.547701 0.684249 1.998390 0.040366 -0.005443 -327595.000000 0 0 1
-28.409547 -21.572943 -15.309553 38.818510 0.649462 1.976198 0.031196 0.002161 -138597.000000 0 0 1
-29.218777 -20.770543 -16.188653 39.334780 0.617979 1.994962 0.030779 0.001199 36733.200000 0 0 1
-30.298647 -20.273443 -15.432453 39.587639 0.589699 1.971243 0.037812 0.003132 103482.000000 0 0 1
-31.428297 -19.662443 -16.317053 40.504269 0.559051 1.985422 0.036625 -0.008042 284567.000000 0 0 1
-32.332027 -20.564243 -16.960353 41.903481 0.566494 1.987500 0.031508 -0.004625 420472.000000 0 0 1
-32.987357 -19.893943 -18.046253 42.539417 0.542680 2.008901 0.027183 -0.008738 443476.000000 0 0 1
-33.995017 -20.753543 -18.898053 44.085226 0.548095 2.013817 0.011148 -0.001103 756678.000000 0 0 1
-35.202691 -21.262843 -18.372153 45.043024 0.543364 1.990927 0.000848 0.009551 125070.000000 0 0 1
-35.077078 -22.177943 -17.292953 44.958968 0.563805 1.965613 0.024919 0.003746 -630989.000000 0 0 1
35.111358 -23.471143 -17.295853 45.638236 -0.589255 1.959487 0.011250 0.025647 837127.000000 0 0 1
33.753011 -23.123043 -16.954953 44.287824 -0.600633 1.963660 0.009900 0.015708 1165180.000000 0 0 1
32.968071 -24.324843 -16.729053 44.254412 -0.635667 1.958453 -0.004473 0.015494 180540.000000 0 0 1
31.466781 -24.170343 -16.463053 42.958072 -0.654999 1.964093 -0.005173 0.004492 -532412.000000 0 0 1
30.682321 -23.923343 -17.574353 42.691792 -0.662247 1.995067 -0.009357 0.007338 17793.600000 0 0 1
29.333631 -24.204143 -17.194953 41.736901 -0.689879 1.995427 -0.001001 0.000233 178880.000000 0 0 1
28.277321 -23.816643 -18.215353 41.214542 -0.699979 2.028584 0.022921 0.009589 -433497.000000 0 0 1
28.082211 -22.405043 -18.176253 40.261306 -0.673421 2.039194 0.023300 0.009760 -50943.400000 0 0 1
27.006151 -21.958143 -18.944553 39.628126 -0.682665 2.069239 0.018548 -0.006899 -650202.000000 0 0 1
33.796161 29.045757 -18.008353 48.063888 0.709949 1.954843 0.014077 -0.007705 -74274.700000 0 0 1
33.029541 29.547457 -19.119553 48.265517 0.729811 1.978098 0.022589 -0.019394 419599.000000 0 0 1
33.638751 29.234957 -20.398653 49.013808 0.715470 2.000038 0.019157 -0.017589 -30555.300000 0 0 1
32.699681 29.455457 -21.581353 49.016812 0.733250 2.026712 0.033316 -0.017607 -401644.000000 0 0 1
31.594351 28.527357 -21.565153 47.718644 0.734429 2.039716 0.034200 -0.012420 592128.000000 0 0 1
30.880071 28.551057 -22.792353 47.835479 0.746230 2.067436 0.042019 -0.008494 85162.000000 0 0 1
29.872911 29.724357 -22.963153 47.992027 0.782906 2.069718 0.040552 -0.005099 -563514.000000 0 0 1
30.448141 31.009557 -23.046353 49.191629 0.794533 2.058390 0.040739 -0.008147 -493277.000000 0 0 1
29.472731 31.996757 -22.982153 49.199733 0.826437 2.056826 0.047127 0.001756 -813635.000000 0 0 1
30.092851 33.355157 -22.763853 50.362081 0.836770 2.039807 0.041876 -0.002561 -118517.000000 0 0 1
30.461851 33.643757 -21.408753 50.181286 0.834993 2.011558 0.052227 -0.004922 424479.000000 0 0 1
31.793361 33.256657 -21.076353 50.606677 0.807889 2.000360 0.054584 -0.001841 -123828.000000 0 0 1
32.132981 33.238857 -19.600253 50.214739 0.802313 1.971785 0.029485 -0.002736 -627729.000000 0 0 1
32.160601 -34.436397 -19.035153 50.818370 -0.819558 1.954732 0.034541 -0.005889 164670.000000 0 0 1
31.832081 -34.451397 -17.665753 50.122440 -0.824894 1.930986 0.005200 -0.016415 -749527.000000 0 0 1
31.598371 -33.030097 -17.065153 48.792047 -0.807548 1.928104 0.006069 -0.012053 146885.000000 0 0 1
32.623451 -32.027997 -17.015853 48.781363 -0.776188 1.927107 0.004855 0.001293 153518.000000 0 0 1
33.768951 -32.458997 -16.297653 49.593770 -0.765621 1.905642 0.001522 -0.002497 12040.500000 0 0 1
34.956981 -31.457997 -16.398653 49.804738 -0.732763 1.906315 0.011171 0.007885 203900.000000 0 0 1
-35.270895 -31.701297 -17.518253 50.555885 0.732149 1.924647 -0.005716 0.001907 -130005.000000 0 0 1
-34.075955 -30.927697 -17.488753 49.229561 0.737004 1.933977 -0.002089 0.010417 489928.000000 0 0 1
-33.120577 -31.365397 -18.630553 49.273302 0.758187 1.958546 -0.003563 -0.000598 -881840.000000 0 0 1
-32.687897 -32.734197 -18.397953 49.784646 0.786106 1.949322 -0.001252 -0.002486 616642.000000 0 0 1
-31.671907 -33.369497 -19.221153 49.860663 0.811492 1.966543 0.009026 -0.000216 1866690.000000 0 0 1
-30.333407 -32.526097 -19.316453 48.489050 0.820266 1.980532 0.000277 -0.003091 -337449.000000 0 0 1
-30.462417 -31.646397 -20.450953 48.453016 0.804459 2.006533 -0.006048 -0.004208 358864.000000 0 0 1
-29.234387 -31.189097 -21.015953 47.634855 0.817737 2.027719 0.007462 -0.003791 1046750.000000 0 0 1
-28.274597 -32.237397 -21.738553 48.075641 0.850793 2.039998 0.004771 0.005100 613105.000000 0 0 1
-28.948327 -32.813397 -22.847553 49.363300 0.847897 2.051998 -0.002408 0.012732 -213671.000000 0 0 1
-28.194397 -33.861797 -23.339453 49.862565 0.876472 2.057908 -0.007956 0.008725 -340079.000000 0 0 1
-28.836797 34.308957 -24.492453 51.073923 -0.871841 2.070937 -0.012385 0.003973 -719653.000000 0 0 1
-29.928477 33.522357 -24.123353 51.003905 -0.841978 2.063456 -0.013045 0.006447 -447278.000000 0 0 1
-30.504337 32.750257 -25.152733 51.339594 -0.820889 2.082804 -0.013733 0.005094 423709.000000 0 0 1
-31.450457 33.475257 -26.146393 52.852228 -0.816574 2.088295 -0.006762 -0.000560 -308714.000000 0 0 1
-30.739007 34.261157 -27.078753 53.403860 -0.839532 2.102562 -0.007835 -0.012063 110219.000000 0 0 1
-31.671087 -33.877597 -27.799313 54.069873 0.819048 2.110797 -0.006193 -0.015083 421377.000000 0 0 1
-31.052617 -32.993697 -28.886343 53.733322 0.815696 2.138369 0.004656 -0.013692 -63469.500000 0 0 1
-30.719447 -33.598997 -30.106133 54.579816 0.830138 2.155076 0.009093 -0.013964 -270467.000000 0 0 1
-31.851627 -33.908897 -30.871613 55.833645 0.816672 2.156663 0.011846 -0.009671 -341974.000000 0 0 1
-31.688087 34.096257 -32.078063 56.530450 -0.821989 2.174199 0.031545 -0.008942 -349254.000000 0 0 1
-30.929877 -34.368397 -33.154483 56.895200 0.838008 2.192879 0.036533 -0.017964 -82332.300000 0 0 1
-31.273827 33.921757 -34.363152 57.528811 -0.825991 2.210953 0.036575 -0.027620 -54126.200000 0 0 1
-30.310147 34.368157 33.295745 56.643463 -0.848057 0.942444 0.045849 -0.028456 -30299.700000 0 0 1
-29.007627 33.890657 33.419991 55.739707 -0.862877 0.927830 0.037766 -0.023708 -644761.000000 0 0 1
-28.707967 32.660557 32.804215 54.469954 -0.849717 0.924487 0.043438 -0.028460 -637623.000000 0 0 1
-27.237437 32.381957 33.091541 53.717029 -0.871474 0.907098 0.032855 -0.029810 -990983.000000 0 0 1
-27.006207 32.042057 -34.326032 54.169227 -0.870476 2.257099 0.035120 -0.026834 -120827.000000 0 0 1
-25.620757 32.004157 -34.067433 53.303652 -0.895723 2.264150 0.040880 -0.029840 -310288.000000 0 0 1
-25.025837 30.576657 -34.369104 52.368500 -0.884899 2.286692 0.051194 -0.026345 -631245.000000 0 0 1
-25.264377 29.597457 -33.420293 51.295362 -0.864216 2.280391 0.039870 -0.021562 16279.800000 0 0 1
-24.769137 28.372557 -33.821423 50.620162 -0.853102 2.302504 0.036144 -0.021023 -389906.000000 0 0 1
-25.071237 27.270157 -32.744513 49.441193 -0.827385 2.294670 0.054224 -0.028781 1560580.000000 0 0 1
-23.982937 27.216157 -31.700953 48.175211 -0.848464 2.289002 0.050192 -0.021198 1563980.000000 0 0 1
-23.954737 28.301957 -30.828153 48.220382 -0.868397 2.264407 0.037087 -0.013574 -22453.600000 0 0 1
-22.706037 28.331757 -29.916533 47.045207 -0.895182 2.259984 0.048779 -0.006374 342636.000000 0 0 1
-21.533937 28.642557 -30.671493 47.168284 -0.926134 2.278719 0.045374 -0.005173 732067.000000 0 0 1
-20.292937 28.600057 -29.944043 46.113038 -0.953695 2.277541 0.018250 -0.003194 940795.000000 0 0 1
-19.977837 29.917857 -29.178043 46.320086 -0.982040 2.252249 0.013493 -0.001870 -664030.000000 0 0 1
-19.455137 30.863157 -30.068093 47.277130 -1.008346 2.260096 0.014560 0.007516 -50661.600000 0 0 1
-19.455937 32.121657 -29.434513 47.715038 -1.026200 2.235570 0.012810 0.005338 -135283.000000 0 0 1
-18.886137 33.279357 -30.291553 48.803483 -1.054614 2.240411 0.003585 0.019186 122852.000000 0 0 1
-17.538037 33.060457 -30.647043 48.371663 -1.083060 2.256961 0.014334 0.019443 -357349.000000 0 0 1
-17.169637 34.098957 -31.557263 49.531769 -1.104334 2.261541 0.014618 0.022498 -415730.000000 0 0 1
-15.688037 34.102657 -31.931093 49.281847 -1.139638 2.275658 0.014746 0.028343 -1285620.000000 0 0 1
-14.925437 -34.356497 -30.849893 48.526832 1.160967 2.259748 0.022430 0.026459 -1343830.000000 0 0 1
-13.570437 -34.265697 -31.047883 48.189893 1.193712 2.270880 0.017006 0.028719 -893472.000000 0 0 1
-12.838337 33.342657 -31.096033 47.365799 -1.203251 2.286977 0.016699 0.020671 -1332390.000000 0 0 1
-12.873137 32.691257 -29.815403 46.080302 -1.195664 2.274481 0.031448 0.007100 -12423.900000 0 0 1
-12.527337 31.307557 -29.888563 45.060221 -1.190171 2.296020 0.026405 0.000717 -143528.000000 0 0 1
-12.607037 30.654857 -28.520853 43.727528 -1.180623 2.281332 0.025092 -0.011720 -648873.000000 0 0 1
-11.536737 31.008357 -27.726903 43.167067 -1.214612 2.268313 0.028255 -0.011878 -668831.000000 0 0 1
-11.413037 30.196157 -26.578053 41.814569 -1.209430 2.259604 0.029226 -0.025933 177442.000000 0 0 1
-10.218237 30.657757 -25.691443 41.283903 -1.249076 2.242488 0.037849 -0.020859 183216.000000 0 0 1
-8.989437 30.197257 -26.188273 40.969622 -1.281460 2.264269 0.033592 -0.018639 -897300.000000 0 0 1
-7.944137 30.700657 -25.396743 40.627998 -1.317589 2.246062 0.033430 -0.021566 -16988.700000 0 0 1
-6.589337 30.091257 -25.826833 40.198612 -1.355221 2.268527 0.030599 -0.029755 -103331.000000 0 0 1
-6.443537 28.697857 -25.463653 38.903519 -1.349929 2.284362 0.020204 -0.034767 -1811.370000 0 0 1
-5.117437 28.284857 -25.738103 38.583303 -1.391808 2.301077 0.028723 -0.042603 372488.000000 0 0 1
-4.529737 27.056957 -25.040053 37.142990 -1.404920 2.310613 0.033584 -0.034325 375416.000000 0 0 1
-5.392137 25.906257 -25.296583 36.607737 -1.365586 2.333692 0.043634 -0.029947 953218.000000 0 0 1
-4.839737 24.758057 -24.654253 35.273455 -1.377749 2.344720 0.047226 -0.030772 -764612.000000 0 0 1
-5.758837 23.590757 -24.658653 34.608340 -1.331365 2.363860 0.041024 -0.028194 -738661.000000 0 0 1
-5.988037 22.984957 -25.925973 35.161355 -1.315941 2.399925 0.039172 -0.027573 635547.000000 0 0 1
-6.855837 21.831257 -25.715463 34.422250 -1.266511 2.414424 0.035606 -0.029481 339633.000000 0 0 1
-6.738237 21.012357 -27.056333 34.913724 -1.260477 2.457430 0.032440 -0.023594 240774.000000 0 0 1
-5.569237 20.210557 -27.191193 34.334298 -1.301909 2.484799 0.046372 -0.025248 -24550.800000 0 0 1
-5.491637 19.066157 -26.327823 32.967115 -1.290356 2.495776 0.044923 -0.022838 -348201.000000 0 0 1
-4.195637 18.255857 -26.517463 32.466221 -1.344895 2.526588 0.048170 -0.028086 109298.000000 0 0 1
-4.254937 17.386257 -27.634133 32.924637 -1.330784 2.566818 0.032218 -0.023074 -208238.000000 0 0 1
-3.099237 16.595357 -27.794153 32.519626 -1.386170 2.595747 0.032258 -0.027844 -224418.000000 0 0 1
-2.821537 16.242757 -29.246553 33.573041 -1.398802 2.628299 0.033366 -0.025405 -355027.000000 0 0 1
-2.221937 17.343657 -29.812673 34.562045 -1.443378 2.611152 0.041585 -0.032768 -147233.000000 0 0 1
-1.898737 17.049857 -31.154603 35.565603 -1.459889 2.638251 0.033777 -0.041311 -170014.000000 0 0 1
-1.161537 18.166457 -31.866633 36.699477 -1.506945 2.622587 0.046387 -0.019492 91307.700000 0 0 1
0.217863 18.290357 -31.537593 36.458256 1.558886 2.616012 0.056405 -0.024878 252062.000000 0 0 1
0.814863 19.409857 -32.181153 37.590333 1.528839 2.598475 0.063033 -0.007985 240969.000000 0 0 1
0.557763 20.834557 -31.632843 37.881745 1.544032 2.559005 0.067024 -0.013421 -99674.600000 0 0 1
1.302663 21.098657 -30.459783 37.076254 1.509133 2.534911 0.070732 -0.024211 -273336.000000 0 0 1
0.974963 22.304457 -29.808403 37.242184 1.527113 2.498748 0.077177 -0.030408 516834.000000 0 0 1
1.924363 22.548757 -28.579333 36.454463 1.485660 2.471837 0.075270 -0.028543 631029.000000 0 0 1
3.248363 22.926557 -28.878913 37.015814 1.430048 2.465746 0.058336 -0.027561 -13496.000000 0 0 1
4.062363 23.069657 -27.709173 36.283745 1.396492 2.439791 0.051563 -0.027628 337199.000000 0 0 1
4.652063 24.479457 -27.479023 37.094234 1.382996 2.405041 0.051242 -0.024926 -229358.000000 0 0 1
5.573963 24.944057 -28.418723 38.221707 1.350950 2.409120 0.048784 -0.027946 -67975.800000 0 0 1
5.917863 26.283757 -28.099053 38.928316 1.349336 2.377218 0.041868 -0.024822 -29115.800000 0 0 1
6.651663 26.977257 -29.307243 40.384793 1.329053 2.382848 0.041332 -0.024175 648916.000000 0 0 1
8.029163 26.613657 -29.427223 40.481053 1.277787 2.384649 0.020603 -0.019604 401456.000000 0 0 1
8.692963 27.508257 -30.268423 41.814462 1.264714 2.380198 0.023931 -0.015660 367964.000000 0 0 1
10.209263 27.677557 -29.981243 42.061278 1.217416 2.364277 0.020944 -0.012616 732337.000000 0 0 1
10.989463 28.518157 -30.848553 43.424495 1.202983 2.360856 0.021138 -0.009221 29018.800000 0 0 1
12.217763 28.895357 -30.289423 43.608079 1.170767 2.338636 0.022562 -0.010828 -38839.200000 0 0 1
13.051263 29.833957 -31.186653 45.088887 1.158417 2.334596 0.027761 -0.012103 20407.000000 0 0 1
12.395563 31.092157 -31.301493 45.827455 1.191436 2.322698 0.021068 -0.010440 302159.000000 0 0 1
13.314963 32.097557 -31.667243 47.014420 1.177573 2.309817 0.033058 -0.013888 15441.000000 0 0 1
12.694163 33.492757 -31.691043 47.824980 1.208513 2.295143 0.037510 -0.022218 -364213.000000 0 0 1
11.783263 33.637457 -32.733973 48.392528 1.233853 2.313696 0.021786 -0.017324 -346343.000000 0 0 1
11.299363 -33.990397 -32.758643 48.540204 -1.249861 2.311594 0.028617 -0.021393 -263094.000000 0 0 1
10.037163 -33.747597 -33.611243 48.676078 -1.281709 2.332988 0.015358 -0.019342 -334842.000000 0 0 1
10.208563 -33.238297 33.872521 48.542217 -1.272809 0.798482 0.011084 -0.009139 -423712.000000 0 0 1
9.033563 -33.021297 33.136946 47.645236 -1.303762 0.801690 0.011852 -0.003724 -410443.000000 0 0 1
9.224563 -32.226397 31.838710 46.231339 -1.292008 0.811126 0.015313 -0.000989 -73508.200000 0 0 1
9.287163 -30.813997 31.993100 45.379646 -1.278061 0.788359 0.002964 -0.006324 115116.000000 0 0 1
9.527963 -30.131897 30.757600 44.099243 -1.264536 0.798945 0.022042 -0.005571 -537597.000000 0 0 1
8.859063 -28.735597 30.833160 43.068565 -1.271746 0.772872 0.015050 -0.020645 351071.000000 0 0 1
7.441263 -28.615697 30.801890 42.696451 -1.316390 0.764952 -0.002188 -0.007252 -25148.500000 0 0 1
7.025563 -28.478997 32.117830 43.496745 -1.328933 0.740107 -0.001659 0.001748 -601300.000000 0 0 1
5.482863 -28.347797 32.116440 43.187094 -1.379741 0.732271 -0.005868 0.003305 351271.000000 0 0 1
4.673963 -29.539197 31.949990 43.763135 -1.413868 0.752377 -0.000421 -0.013669 50373.500000 0 0 1
4.845563 -30.343097 30.800020 43.506600 -1.412441 0.784220 0.000230 -0.011112 -951239.000000 0 0 1
4.369863 -29.717897 29.479020 42.086360 -1.424798 0.794781 -0.006089 -0.018709 312632.000000 0 0 1
2.973763 -29.678397 29.203290 41.743055 -1.470930 0.795964 0.006789 -0.021962 545404.000000 0 0 1
2.669563 -28.981697 27.984010 40.375366 -1.478944 0.805021 0.009110 -0.020708 -326490.000000 0 0 1
1.300463 -29.344397 27.399560 40.168654 -1.526508 0.820148 0.006223 -0.022305 -279838.000000 0 0 1
1.228463 -30.614597 26.765250 40.683428 -1.530691 0.852782 0.011812 -0.028668 -57884.000000 0 0 1
0.819063 -31.593997 27.630910 41.979980 -1.544878 0.852381 0.033774 -0.035136 -766853.000000 0 0 1
0.988863 -33.081697 27.125920 42.792430 -1.540914 0.884217 0.032972 -0.038115 189416.000000 0 0 1
2.331763 -33.535397 26.976340 43.102006 -1.501377 0.894547 0.024348 -0.026015 577025.000000 0 0 1
3.042063 -33.032597 25.862000 42.062449 -1.478963 0.908603 0.016404 -0.032170 -797671.000000 0 0 1
4.559163 -32.999997 25.982190 42.247603 -1.433509 0.908413 0.014341 -0.016676 -352689.000000 0 0 1
5.146563 -32.339997 24.859180 41.113761 -1.412980 0.921478 0.012859 -0.024044 448503.000000 0 0 1
6.551163 -32.146597 24.956350 41.220636 -1.369759 0.920486 0.014881 -0.025358 198257.000000 0 0 1
7.231363 -32.016697 23.540830 40.392229 -1.348661 0.948619 0.012687 -0.019317 -81826.900000 0 0 1
8.576563 -31.636197 23.655830 40.422824 -1.306060 0.945658 0.011748 -0.009291 -50694.400000 0 0 1
9.366563 -31.697997 22.479630 39.972857 -1.283479 0.973544 0.012210 -0.015878 560039.000000 0 0 1
10.403463 -30.503397 22.522330 39.318502 -1.242109 0.960857 0.010702 -0.008069 -54702.800000 0 0 1
11.409163 -30.687997 23.476730 40.287455 -1.214852 0.948712 0.026837 -0.009156 -357242.000000 0 0 1
12.323963 -29.620697 23.406030 39.712819 -1.176523 0.940502 0.033176 -0.002291 -228131.000000 0 0 1
13.611263 -29.855197 24.210490 40.776796 -1.143039 0.935107 0.054559 -0.007412 -226885.000000 0 0 1
13.448263 -29.686497 25.582330 41.431865 -1.145443 0.905293 0.029922 -0.008935 97153.400000 0 0 1
14.696563 -29.588797 26.236330 42.188042 -1.109797 0.899642 0.040659 -0.015953 -23288.000000 0 0 1
-10.823937 -13.551043 25.829240 31.111703 0.896816 0.591312 0.032988 -0.016752 946068.000000 0 0 1
-9.430837 -13.802343 25.517570 30.505602 0.971382 0.579954 0.021943 -0.015074 541585.000000 0 0 1
-8.869637 -14.294243 26.713050 31.568702 1.015437 0.562006 0.026717 -0.021104 -922552.000000 0 0 1
-7.351137 -14.226443 26.660110 31.099717 1.093860 0.540899 0.048416 -0.013364 -194785.000000 0 0 1
-6.653837 -15.188543 25.816510 30.683181 1.157897 0.570947 0.046310 -0.017022 402412.000000 0 0 1
-6.698137 -14.815543 24.480890 29.388422 1.146196 0.586268 0.041069 -0.018184 -521413.000000 0 0 1
-5.993137 -15.884743 23.575430 29.052430 1.210020 0.624118 0.044416 -0.023212 292863.000000 0 0 1
-6.643337 -17.148943 23.408530 29.768767 1.201207 0.665926 0.052947 -0.017106 -157329.000000 0 0 1
-7.031837 -17.925243 24.585350 31.228201 1.196957 0.664411 0.058031 -0.015682 -81454.900000 0 0 1
-7.571337 -19.338743 24.306490 31.970574 1.197629 0.707057 0.043135 -0.013638 -124723.000000 0 0 1
-8.940337 -19.294743 23.967180 32.041262 1.136891 0.725738 0.025635 -0.009140 -492538.000000 0 0 1
-9.335437 -20.596943 23.551330 32.650415 1.145248 0.765093 0.018391 -0.010296 -1184230.000000 0 0 1
-10.819237 -20.808443 23.582730 33.259471 1.091321 0.782642 0.000872 -0.007550 -1266700.000000 0 0 1
-11.197437 -20.882143 24.923990 34.389705 1.078594 0.760123 0.001265 -0.007065 -1007040.000000 0 0 1
-12.576537 -20.857343 25.054410 34.941688 1.028189 0.771257 0.008303 -0.007223 -829057.000000 0 0 1
-13.008537 -20.787443 26.555050 36.145685 1.011630 0.745620 0.018645 -0.011429 -197630.000000 0 0 1
-12.751737 -21.900943 27.370520 37.301522 1.043534 0.746950 0.016368 -0.012159 67589.000000 0 0 1
-11.574437 -21.670743 28.136110 37.352770 1.080239 0.717801 0.014889 -0.012371 84494.800000 0 0 1
-11.218337 -22.977143 28.871000 38.565981 1.116602 0.724828 0.009071 -0.003522 -181596.000000 0 0 1
-12.183737 -23.470143 29.774460 39.822225 1.091973 0.726228 0.026351 -0.010536 -321586.000000 0 0 1
-11.688137 -24.664743 30.289850 40.772995 1.128262 0.733419 0.005784 -0.003707 -712279.000000 0 0 1
-12.656037 -25.451073 31.174090 42.187158 1.109336 0.739290 0.027216 -0.015007 -159395.000000 0 0 1
-12.733337 -24.915643 32.464250 42.858543 1.098342 0.711360 0.006296 -0.011562 -437020.000000 0 0 1
-13.886337 -25.411033 33.081372 43.965079 1.070668 0.719028 0.033555 -0.019968 -490331.000000 0 0 1
-14.029837 -24.974743 -34.182101 44.598096 1.058968 2.444088 0.029826 -0.016963 126248.000000 0 0 1
-14.240637 -23.583943 -33.836863 43.634063 1.027567 2.458254 0.032125 -0.019380 841293.000000 0 0 1
-15.500437 -23.074343 -34.339309 44.180053 0.979275 2.461093 0.041409 -0.028403 354135.000000 0 0 1
-15.694837 -21.539443 -34.157778 43.324697 0.941096 2.479022 0.039912 -0.024806 -89101.800000 0 0 1
-15.855337 -21.185543 -32.790603 42.136002 0.928318 2.462605 0.046192 -0.023180 46555.500000 0 0 1
-15.919037 -19.789243 -32.611253 41.334293 0.893361 2.479917 0.032704 -0.021731 -185713.000000 0 0 1
-15.866337 -19.484843 -31.081343 39.968108 0.887402 2.461721 0.039727 -0.008991 31348.200000 0 0 1
-16.980237 -19.983043 -30.368293 40.123356 0.866458 2.429312 0.041121 -0.005145 -12814.100000 0 0 1
-16.986037 -19.561443 -29.025373 38.905627 0.855749 2.412900 0.031009 -0.000685 -296703.000000 0 0 1
-16.037037 -20.304843 -28.090443 38.190918 0.902298 2.397240 0.027685 -0.000611 -103004.000000 0 0 1
-14.656737 -20.146643 -28.341243 37.735040 0.941850 2.420461 0.025654 -0.000149 -299506.000000 0 0 1
-13.958637 -21.148743 -27.666383 37.517218 0.987408 2.400056 0.017839 0.003612 -895445.000000 0 0 1
-12.470037 -21.229543 -27.905473 37.214389 1.039700 2.418642 0.021696 -0.005703 -1042890.000000 0 0 1
-11.738737 -20.230043 -27.210713 35.881409 1.045016 2.431576 0.028879 -0.016156 -13491.200000 0 0 1
-10.338437 -20.383243 -27.193613 35.522563 1.101403 2.442662 0.024522 -0.022243 335642.000000 0 0 1
-9.770637 -21.468343 -26.206103 35.257836 1.143694 2.408742 0.028744 -0.023843 -520469.000000 0 0 1
-9.669837 -22.821243 -26.683773 36.418933 1.170010 2.393062 0.032510 -0.022051 92471.900000 0 0 1
-9.463337 -23.771043 -25.596573 36.191184 1.191926 2.356411 0.043977 -0.023003 39213.600000 0 0 1
-9.704037 -25.274423 -25.955433 37.505324 1.204205 2.335117 0.048176 -0.017753 -407118.000000 0 0 1
-8.686537 -25.717483 -26.833003 38.168769 1.245060 2.350417 0.039415 -0.014010 122625.000000 0 0 1
-8.905037 -26.871413 -27.656923 39.576230 1.250792 2.344552 0.034715 -0.003503 -329013.000000 0 0 1
-8.883837 -28.252273 -26.921353 40.023403 1.266139 2.308567 0.050344 -0.002993 -94181.300000 0 0 1
-9.907237 -28.444523 -25.961123 39.764610 1.235636 2.282164 0.039435 -0.002503 37770.600000 0 0 1
-9.678537 -29.580003 -25.158013 40.019699 1.254577 2.250600 0.055682 -0.000469 401801.000000 0 0 1
-10.675337 -29.641183 -23.928953 39.562070 1.225106 2.220369 0.051960 -0.004506 385344.000000 0 0 1
-10.575137 -28.555463 -23.020853 38.173390 1.216120 2.218128 0.039121 -0.012553 -254786.000000 0 0 1
-11.273637 -27.368913 -23.330653 37.689146 1.180062 2.238301 0.032602 -0.012483 -311964.000000 0 0 1
-11.055637 -26.212323 -22.313253 36.155142 1.171663 2.235916 0.037770 -0.021015 -37501.800000 0 0 1
-11.564837 -26.413213 -21.004453 35.673385 1.158098 2.200368 0.029017 -0.019839 191165.000000 0 0 1
-11.510537 -25.219923 -20.245453 34.328055 1.142628 2.201563 0.019471 -0.009459 -249128.000000 0 0 1
-11.966137 -25.510263 -18.801253 33.874018 1.132196 2.159201 0.021864 -0.005238 -151008.000000 0 0 1
-13.344137 -25.764023 -18.736653 34.538574 1.092902 2.144189 0.028889 -0.007032 -331820.000000 0 0 1
-13.694337 -26.366103 -17.463353 34.462661 1.091756 2.102187 0.041321 -0.008764 -30488.800000 0 0 1
-15.219837 -26.571033 -17.412453 35.225797 1.050618 2.087837 0.042351 -0.014368 -1094420.000000 0 0 1
-15.913637 -25.364443 -17.406653 34.635104 1.010473 2.097368 0.039825 -0.007621 400190.000000 0 0 1
-17.307537 -25.457533 -17.075653 35.202483 0.973716 2.077239 0.059143 -0.011689 935091.000000 0 0 1
-18.301837 -26.097993 -18.068253 36.640473 0.959216 2.086472 0.062436 -0.008713 -1028020.000000 0 0 1
-18.077337 -27.463813 -18.354153 37.655360 0.988662 2.079934 0.061911 -0.006672 -136120.000000 0 0 1
-18.530337 -28.355963 -17.348353 38.057843 0.991972 2.044114 0.060638 -0.018264 -879875.000000 0 0 1
-20.020537 -28.668283 -17.293953 39.009912 0.961178 2.030098 0.079837 -0.013870 -419490.000000 0 0 1
-20.502737 -29.592633 -18.276953 40.374908 0.964897 2.040566 0.066283 -0.012393 -5158.950000 0 0 1
-21.881037 -29.877453 -18.180753 41.255082 0.938681 2.027165 0.057925 -0.005464 55885.200000 0 0 1
-22.337937 -30.967733 -19.212353 42.744572 0.945898 2.036967 0.038526 -0.009711 -102727.000000 0 0 1
-21.938537 -32.287333 -18.903053 43.371612 0.973977 2.021767 0.039604 -0.006959 39937.200000 0 0 1
-22.101337 -33.107743 -20.051953 44.572106 0.982177 2.037424 0.028333 0.004100 49531.200000 0 0 1
-21.583037 34.364799 -19.927153 45.209052 -1.010002 2.027262 0.020642 0.006500 116588.000000 0 0 1
-22.371337 33.490912 -19.168153 44.604215 -0.981883 2.015000 0.016598 0.005894 212750.000000 0 0 1
-21.540537 32.336160 -18.893053 43.203813 -0.983156 2.023391 0.012591 -0.002740 333882.000000 0 0 1
-22.257137 31.067560 -18.394753 42.413917 -0.949141 2.019387 0.017718 -0.011609 -11625.600000 0 0 1
-22.949037 31.150630 -17.129553 42.313611 -0.935854 1.987582 0.000513 -0.011569 18422.300000 0 0 1
-23.524337 29.935340 -16.692753 41.571228 -0.904750 1.984000 0.004881 -0.006704 35915.400000 0 0 1
-22.595537 28.731880 -16.249853 40.001712 -0.904386 1.989120 0.005657 -0.021738 92063.800000 0 0 1
-21.983937 28.068890 -17.333953 39.643688 -0.906375 2.023328 -0.005738 -0.019559 -180848.000000 0 0 1
-21.464537 26.830300 -16.981753 38.327161 -0.896049 2.029821 0.001215 -0.020711 -169746.000000 0 0 1
-20.850537 26.301070 -18.303453 38.229669 -0.900483 2.070056 0.010766 -0.016331 -590658.000000 0 0 1
-20.312937 25.015750 -18.132053 36.975323 -0.888777 2.083325 0.031774 -0.023178 343012.000000 0 0 1
-19.565937 24.421100 -19.209953 36.718365 -0.895330 2.121363 0.031925 -0.013416 7149.440000 0 0 1
-18.135337 24.965510 -19.361053 36.428252 -0.942561 2.131149 0.023133 -0.017237 -1407680.000000 0 0 1
-17.391337 24.690330 -18.239153 35.280841 -0.957138 2.114104 0.032537 -0.016228 -723821.000000 0 0 1
-16.330937 25.609010 -18.154253 35.384994 -1.003115 2.109530 0.046129 -0.020762 -481742.000000 0 0 1
-16.576537 26.956580 -17.473553 36.149189 -1.019468 2.075300 0.047965 -0.031476 -640272.000000 0 0 1
-17.539837 27.816390 -17.995153 37.486304 -1.008210 2.071504 0.036284 -0.027856 -402575.000000 0 0 1
-17.494837 29.071800 -17.316553 38.093331 -1.029069 2.042700 0.047216 -0.038134 1032250.000000 0 0 1
-18.816937 29.882140 -17.708353 39.504496 -1.008821 2.035616 0.041204 -0.032466 809189.000000 0 0 1
-18.825037 30.444340 -19.047853 40.547017 -1.016999 2.059829 0.063527 -0.029228 -14317.200000 0 0 1
-18.831237 29.475470 -20.081153 40.332016 -1.002279 2.091967 0.021638 -0.015003 -588780.000000 0 0 1
-18.808037 30.173630 -21.461753 41.530676 -1.013401 2.113869 0.024979 -0.018121 380434.000000 0 0 1
-19.856137 31.135690 -21.637153 42.800278 -1.003096 2.100801 0.021032 -0.012362 298460.000000 0 0 1
-20.064137 31.216870 -23.010953 43.664248 -0.999546 2.125860 0.026676 -0.012072 211190.000000 0 0 1
-20.535537 32.593300 -23.573053 45.163263 -1.008571 2.119934 0.023080 -0.008696 -345183.000000 0 0 1
-19.566337 33.552291 -23.379553 45.334328 -1.042852 2.112637 0.010467 -0.000785 -372643.000000 0 0 1
-19.801437 -34.386753 -24.318753 46.539741 1.048327 2.120621 0.006172 0.000946 200044.000000 0 0 1
-18.812437 -33.189943 -24.144753 45.149189 1.055138 2.135040 0.024736 0.004171 92293.200000 0 0 1
-18.842937 -32.419793 -22.935353 43.955998 1.044302 2.119732 0.025391 0.001810 203094.000000 0 0 1
-18.187937 -33.010953 -21.807753 43.544256 1.067211 2.095340 0.034306 -0.009714 -273728.000000 0 0 1
-17.923337 -32.030143 -20.647053 42.112669 1.060630 2.083209 0.050164 -0.013019 503077.000000 0 0 1
-16.944537 -31.049473 -21.067553 41.170729 1.071240 2.107973 0.046436 -0.013143 567473.000000 0 0 1
-16.808137 -30.062373 -20.046853 39.851425 1.060987 2.097909 0.050449 -0.012910 -76548.700000 0 0 1
-15.543737 -29.181303 -20.165953 38.727534 1.081363 2.118483 0.043561 -0.017143 418454.000000 0 0 1
-14.351737 -29.919063 -19.949753 38.718411 1.123532 2.112098 0.044946 -0.019956 893585.000000 0 0 1
-13.172037 -29.196183 -20.399353 37.974377 1.146981 2.137895 0.034460 -0.017621 683210.000000 0 0 1
-11.886237 -30.073663 -20.468453 38.270948 1.194402 2.135103 0.044565 -0.019257 168802.000000 0 0 1
-11.433537 -30.463363 -19.178153 37.769615 1.211744 2.103387 0.038782 -0.015790 94144.900000 0 0 1
-10.898237 -29.463643 -18.319153 36.365770 1.216515 2.098727 0.016585 -0.012129 416841.000000 0 0 1
-9.902237 -30.067143 -17.193453 36.023635 1.252646 2.068356 0.015537 -0.001684 621417.000000 0 0 1
-10.609337 -30.665953 -16.139853 36.241600 1.237721 2.032351 0.033527 -0.011608 1714.570000 0 0 1
-10.921037 -32.018973 -16.389153 37.591064 1.242090 2.021929 0.042321 -0.013615 756030.000000 0 0 1
-12.189337 -32.409943 -15.525753 37.947772 1.211063 1.992302 0.058969 -0.023858 363909.000000 0 0 1
-11.841237 -32.742523 -14.197853 37.601420 1.223783 1.957987 0.057050 -0.017615 -539535.000000 0 0 1
-12.949837 -33.028303 -13.425153 37.931542 1.197133 1.932567 0.061709 -0.012210 -1187690.000000 0 0 1
-12.662337 -33.765983 -12.104653 38.039441 1.212023 1.894640 0.045693 -0.012769 -208609.000000 0 0 1
-11.879337 -32.945253 -11.286653 36.795338 1.224729 1.882564 0.046348 -0.009285 -97358.500000 0 0 1
-11.676837 -33.624573 -10.075353 36.992881 1.236555 1.846640 0.049694 -0.009297 -443400.000000 0 0 1
-10.500837 -32.982713 -9.299053 35.841308 1.262569 1.833250 0.035958 -0.011628 290354.000000 0 0 1
-9.320937 -33.366813 -10.013453 36.062354 1.298393 1.852165 0.020153 -0.010262 -239943.000000 0 0 1
-8.179037 -32.694943 -9.531453 35.024343 1.325665 1.846410 0.007617 -0.010674 -781594.000000 0 0 1
-6.908937 -33.210023 -10.129053 35.401085 1.365684 1.860974 0.001168 -0.019736 -788328.000000 0 0 1
-6.481237 34.414854 -9.789053 36.362263 -1.384650 1.843368 0.000868 -0.009857 -361050.000000 0 0 1
-5.285737 34.065734 -10.435953 36.018361 -1.416861 1.864751 0.003930 -0.007026 85098.600000 0 0 1
-4.562537 32.908340 -9.638453 34.592996 -1.433031 1.853158 0.002656 -0.011843 -21002.200000 0 0 1
-4.155537 33.329680 -8.425953 34.628496 -1.446757 1.816588 0.008041 -0.015170 -30811.900000 0 0 1
-3.277037 32.404830 -7.767953 33.483624 -1.470011 1.804922 0.003271 -0.011294 328791.000000 0 0 1
-3.025837 32.883530 -6.346453 33.626771 -1.479038 1.760667 0.008457 -0.007675 -490883.000000 0 0 1
-2.112737 33.952388 -6.263153 34.589816 -1.508650 1.752870 -0.005634 -0.008364 -237613.000000 0 0 1
-1.977237 34.474814 -4.970153 34.887314 -1.513506 1.713746 0.005018 -0.008988 97261.600000 0 0 1
-0.962837 33.701211 -4.053353 33.957743 -1.542234 1.690446 0.004440 -0.010881 79756.800000 0 0 1
0.346063 33.807187 -4.585153 34.118459 1.560560 1.705593 0.000383 -0.009196 122263.000000 0 0 1
1.300563 33.129415 -3.785953 33.370392 1.531559 1.684494 0.005724 -0.007863 -81367.200000 0 0 1
2.768363 33.160083 -4.194953 33.538822 1.487505 1.696202 0.014281 -0.003424 -577837.000000 0 0 1
3.374363 34.371221 -4.040253 34.771983 1.472936 1.687252 0.014746 -0.005114 163287.000000 0 0 1
4.756463 34.290013 -4.420553 34.899430 1.432963 1.697803 0.036599 -0.006580 626314.000000 0 0 1
5.577463 -33.469733 -4.016753 34.168194 -1.405672 1.688627 0.036454 -0.003409 -241254.000000 0 0 1
5.336363 -32.385603 -4.842853 33.177663 -1.407488 1.717287 0.038026 -0.003181 -165281.000000 0 0 1
5.416663 -31.189523 -4.024653 31.911196 -1.398842 1.697254 0.040273 -0.012689 55592.600000 0 0 1
5.441863 -29.914033 -4.925753 30.801401 -1.390847 1.731406 0.028167 -0.009271 -28742.500000 0 0 1
6.583363 -29.832753 -5.756253 31.088073 -1.353602 1.757031 0.042247 -0.007142 -167312.000000 0 0 1
6.543863 -28.709783 -6.644253 30.186419 -1.346693 1.792721 0.032769 -0.011581 49282.600000 0 0 1
6.832163 -27.299903 -6.084353 28.792057 -1.325570 1.783722 0.035415 -0.011365 265346.000000 0 0 1
5.951263 -26.932673 -5.024553 28.036272 -1.353323 1.750986 0.029985 -0.018438 20234.000000 0 0 1
6.395663 -25.704693 -4.488953 26.866084 -1.326935 1.738670 0.026212 -0.018216 153254.000000 0 0 1
5.416963 -25.254363 -3.361753 26.046645 -1.359502 1.700224 0.023556 -0.013861 563476.000000 0 0 1
4.398363 -24.392443 -3.875553 25.086985 -1.392397 1.725902 0.017081 -0.022334 -86535.000000 0 0 1
3.548463 -23.953243 -2.817053 24.377966 -1.423725 1.686612 0.009330 -0.014566 389059.000000 0 1 0
2.308863 -23.191043 -3.362553 23.547019 -1.471565 1.714088 0.017686 -0.016689 503776.000000 0 1 0
1.504363 -24.080343 -4.158253 24.482996 -1.508405 1.741466 0.019697 -0.017725 -688079.000000 0 1 0
0.396163 -23.376143 -4.626453 23.832857 -1.553851 1.766157 0.006545 -0.014337 -391108.000000 0 1 0
-14.997137 23.494557 18.532430 33.471769 -1.002673 0.984027 0.005482 -0.000353 -16596.300000 0 0 1
-15.514237 22.860357 19.658930 33.908126 -0.974542 0.952349 0.021338 0.001039 -122369.000000 0 0 1
-15.331537 23.784557 20.687130 35.053082 -0.998226 0.939532 0.023273 -0.003038 -1046000.000000 0 0 1
-15.264937 23.206057 22.121330 35.509050 -0.988958 0.898253 0.022362 -0.002124 271694.000000 0 0 1
-14.162037 22.334557 22.514030 34.731503 -1.005690 0.865538 0.017552 0.000269 2083190.000000 0 0 1
-12.817637 22.818857 22.235330 34.342422 -1.059005 0.866550 0.023418 -0.008318 755955.000000 0 0 1
-12.398437 23.909557 23.264230 35.589501 -1.092415 0.858356 0.036986 -0.000210 -887964.000000 0 0 1
-12.166137 23.378457 24.550220 36.017780 -1.090963 0.820830 0.043123 -0.000004 42253.900000 0 0 1
-12.132337 24.396557 25.556050 37.356356 -1.109313 0.817406 0.050130 -0.005065 -305940.000000 0 0 1
-11.519237 23.906157 26.873350 37.767368 -1.121772 0.779095 0.045304 -0.009263 363831.000000 0 0 1
-10.125037 23.664757 26.708960 37.093202 -1.166512 0.766922 0.033279 -0.006852 98504.400000 0 0 1
-9.698537 22.839157 27.785730 37.252322 -1.169226 0.728943 0.028570 -0.002449 -939680.000000 0 0 1
-8.236737 22.418057 27.692100 36.568641 -1.218692 0.711683 0.019603 -0.005459 56650.600000 0 0 1
-7.274537 23.375657 28.139140 37.298143 -1.269095 0.715999 0.015635 0.001035 258320.000000 0 0 1
-7.023137 24.506557 27.304780 37.355680 -1.291695 0.751097 0.018146 -0.001706 -473822.000000 0 0 1
-5.971237 25.454357 27.951230 38.273375 -1.340377 0.752028 0.007611 -0.006029 -332037.000000 0 0 1
-4.679737 24.945257 27.915090 37.728213 -1.385351 0.737875 -0.002855 -0.002993 -495640.000000 0 0 1
-3.699437 25.795257 28.524520 38.635856 -1.428352 0.740263 0.004034 -0.002919 207899.000000 0 0 1
-2.266037 25.294857 28.419630 38.113516 -1.481450 0.729275 0.010063 -0.005667 -182237.000000 0 0 1
-1.713237 25.297757 27.077080 37.095552 -1.503177 0.752580 0.007919 -0.000330 -1199090.000000 0 0 1
-0.368437 25.033657 27.032230 36.845097 -1.556080 0.747086 0.025874 0.006090 -878614.000000 0 0 1
0.148063 24.737057 25.638300 35.626764 1.564811 0.767518 0.019076 0.004138 -127733.000000 0 0 1
-0.420937 23.559357 25.135150 34.452812 -1.552931 0.753128 0.016332 0.010780 -242927.000000 0 0 1
0.094663 23.273157 23.890910 33.353027 1.566729 0.772305 0.013061 0.015438 -225549.000000 0 0 1
-0.435337 21.961957 23.206430 31.953959 -1.550977 0.757951 0.007293 0.016993 546956.000000 0 0 1
0.425663 20.865857 23.550130 31.467027 1.550399 0.725140 0.018772 0.012052 501754.000000 0 0 1
0.020863 19.632257 22.858730 30.132167 1.569734 0.709611 0.013439 0.012400 -73763.700000 0 0 1
1.083963 18.548057 23.010630 29.575234 1.512422 0.679261 0.022195 0.013852 -230505.000000 0 0 1
2.268363 18.863557 22.319730 29.311254 1.451120 0.705214 0.027586 0.007145 -477381.000000 0 0 1
3.164963 17.779657 22.265130 28.668261 1.394631 0.681470 0.017805 0.006704 303824.000000 0 0 1
4.503763 18.225857 21.574430 28.599332 1.328541 0.716105 0.031923 -0.003384 226026.000000 0 0 1
5.397163 18.755957 22.520030 29.800454 1.290609 0.714083 0.033629 0.001189 -531477.000000 0 0 1
6.544663 19.260757 21.857930 29.859311 1.243244 0.749498 0.034923 -0.006348 639625.000000 0 0 1
7.640563 19.797057 22.890530 31.213427 1.202465 0.747552 0.038499 -0.006180 409274.000000 0 0 1
7.339163 20.973957 23.693830 32.483346 1.234195 0.753330 0.027518 -0.002763 57410.400000 0 0 1
7.069563 22.146957 22.985330 32.692382 1.261809 0.791078 0.035577 -0.008300 -424393.000000 0 0 1
5.619263 22.612057 23.123930 32.826778 1.327223 0.789187 0.034833 0.000817 -234621.000000 0 0 1
5.540063 23.959257 22.726830 33.485028 1.343561 0.824783 0.032348 -0.005820 -501477.000000 0 0 1
4.283663 24.460857 23.041030 33.875837 1.397431 0.822814 0.026976 -0.000885 -1163120.000000 0 0 1
4.197463 25.924757 22.498530 34.581723 1.410280 0.862435 0.031331 -0.000122 -8003.200000 0 0 1
3.923663 25.959257 21.112130 33.689764 1.420785 0.893533 0.032298 -0.000483 -296569.000000 0 0 1
2.742563 25.337857 20.683730 32.822939 1.462976 0.889036 0.030664 0.002298 -709177.000000 0 0 1
2.274763 25.806357 19.273330 32.289377 1.482876 0.931172 0.023231 0.002958 -46565.600000 0 0 1
1.566163 27.055157 19.292430 33.266082 1.512973 0.952138 0.020336 -0.003503 287906.000000 0 0 1
1.465763 27.584457 18.026430 32.984889 1.517709 0.992610 0.024496 0.003152 812973.000000 0 0 1
0.315863 28.692457 18.071430 33.910668 1.559788 1.008757 0.006051 0.014668 722670.000000 0 0 1
0.660963 29.797957 18.785730 35.231502 1.548618 1.008408 0.014060 0.013803 563523.000000 0 0 1
-0.378737 30.788557 18.700330 36.024728 -1.558496 1.025002 0.002931 0.012262 427338.000000 0 0 1
0.088863 32.141357 19.307330 37.494636 1.568032 1.029864 0.003409 0.021323 44759.100000 0 0 1
0.429463 32.004457 20.651830 38.091571 1.557378 0.997787 0.005047 0.017267 -24828.400000 0 0 1
1.066763 33.178857 21.127130 39.348827 1.538656 1.004016 0.002426 0.003355 -179330.000000 0 0 1
1.499463 33.168657 22.596930 40.162538 1.525620 0.973224 0.005569 -0.011580 270425.000000 0 0 1
0.408163 32.951657 23.502030 40.476212 1.558410 0.951284 0.004236 0.004978 287317.000000 0 0 1
0.866363 32.860957 24.823190 41.192036 1.544438 0.924015 0.011016 -0.001734 -544083.000000 0 0 1
-0.164037 32.509657 25.898840 41.565065 -1.565751 0.898107 0.008912 -0.004377 -1056270.000000 0 0 1
-1.110137 33.519557 25.973600 42.419583 -1.537689 0.911827 0.009015 0.002986 175471.000000 0 0 1
-2.126337 33.361057 26.986410 42.962167 -1.507145 0.891631 0.007657 0.000024 465546.000000 0 0 1
-1.643637 33.737557 28.355740 44.101840 -1.522116 0.872439 0.032135 -0.022151 -301621.000000 0 0 1
-0.613337 32.915557 28.905990 43.810573 -1.552165 0.850251 0.033641 -0.022903 428762.000000 0 0 1
-0.017637 33.464057 30.074730 44.992586 -1.570269 0.838690 0.042758 -0.034322 -243621.000000 0 0 1
1.105463 32.562457 30.664760 44.742185 1.536860 0.815691 0.040057 -0.030303 921656.000000 0 0 1
2.435263 32.615857 30.127090 44.467586 1.496270 0.826429 0.034970 -0.031758 878847.000000 0 0 1
2.490263 32.144557 28.771980 43.212276 1.493480 0.842192 0.034076 -0.027765 397148.000000 0 0 1
3.973363 31.996357 28.202820 42.836358 1.447247 0.852125 0.018208 -0.019156 1346830.000000 0 0 1
4.618263 30.883457 28.789230 42.472768 1.422358 0.825992 0.023800 -0.023152 -640835.000000 0 0 1
5.992363 30.900757 28.571170 42.509728 1.379251 0.833743 0.006707 -0.022337 -500400.000000 0 0 1
6.677563 29.648157 29.188730 42.137691 1.349266 0.805572 -0.000274 -0.007797 47576.700000 0 0 1
6.680363 29.772657 30.604640 43.216691 1.350073 0.783897 0.006307 -0.016612 -3620.900000 0 0 1
7.217063 28.640257 31.191750 42.956671 1.323945 0.758133 0.000336 -0.011213 -454056.000000 0 0 1
7.303663 28.762357 32.759080 44.201516 1.322121 0.736044 0.013628 -0.014970 263143.000000 0 0 1
6.038263 28.578657 33.406783 44.375820 1.362573 0.718468 0.023691 -0.023221 203401.000000 0 0 1
6.123563 28.570257 -33.968463 44.806407 1.359657 2.431216 0.036722 -0.019933 -40818.900000 0 0 1
6.309863 27.050157 -33.495173 43.513814 1.341629 2.449261 0.026671 -0.017858 -133231.000000 0 0 1
7.503963 26.426757 -33.889533 43.625490 1.294126 2.460410 0.008955 -0.013278 -168877.000000 0 0 1
7.740463 25.151457 -33.305893 42.447533 1.272241 2.472906 0.017325 -0.015027 734801.000000 0 0 1
9.080063 24.457357 -33.765923 42.670217 1.215308 2.483766 -0.008963 -0.003311 339508.000000 0 0 1
9.240963 24.210457 33.634396 42.459559 1.206171 0.656470 -0.016765 0.000073 1077530.000000 0 0 1
10.498563 23.520657 33.334122 42.126059 1.150978 0.657873 -0.005276 -0.007314 1186370.000000 0 0 1
10.596663 22.031857 33.765922 41.687281 1.122488 0.626676 -0.008285 -0.010331 -616546.000000 0 0 1
9.933963 21.181957 32.789324 40.280252 1.132269 0.619740 -0.010923 -0.005844 472655.000000 0 0 1
9.435163 19.928157 33.286917 39.927091 1.128606 0.585035 -0.018793 0.000542 -581291.000000 0 0 1
8.141163 19.976657 34.083655 40.336595 1.183812 0.564267 0.004959 -0.012795 -879465.000000 0 0 1
8.230963 20.783857 -33.570583 40.332388 1.193720 2.554127 0.014195 -0.024346 25843.300000 0 0 1
6.997463 20.832357 -32.866133 39.536493 1.246743 2.552214 0.019673 -0.020735 198458.000000 0 0 1
7.173063 21.300357 -31.467073 38.669558 1.245967 2.521359 0.022378 -0.028717 -238641.000000 0 0 1
7.511463 22.662657 -31.409623 39.453549 1.250745 2.491647 0.015415 -0.020145 81499.600000 0 0 1
7.458063 23.302657 -30.113773 38.800462 1.261046 2.459284 0.012483 -0.023277 790232.000000 0 0 1
8.909563 23.448057 -29.499873 38.722528 1.207675 2.436925 0.011745 -0.025723 1303000.000000 0 0 1
9.513763 22.150457 -29.209773 37.873015 1.165115 2.451608 0.006266 -0.027547 14205.400000 0 0 1
10.914163 22.367657 -29.140353 38.322202 1.116840 2.434731 0.009458 -0.030691 259810.000000 0 0 1
11.665063 21.013757 -28.980163 37.649721 1.064034 2.449216 0.014002 -0.035080 -288405.000000 0 0 1
11.697663 20.224957 -30.171983 38.160618 1.046427 2.482679 0.005212 -0.027445 998715.000000 0 0 1
10.435863 19.520157 -30.301413 37.524917 1.079838 2.510700 0.002505 -0.020532 615571.000000 0 0 1
10.416163 18.584657 -31.519533 38.044275 1.059949 2.547213 0.002607 -0.011983 -359837.000000 0 0 1
11.099663 17.348857 -31.350153 37.510231 1.001631 2.560341 0.017599 -0.013439 207585.000000 0 0 1
11.193263 16.527257 -32.479103 38.122585 0.975495 2.590523 0.016525 -0.003522 -77442.100000 0 0 1
12.243863 16.858157 -33.581583 39.520025 0.942645 2.586280 0.011994 0.009042 -149725.000000 0 0 1
12.055963 18.110157 -34.251558 40.577004 0.983462 2.575704 0.017692 0.003031 -311843.000000 0 0 1
12.760263 18.282357 33.360199 40.124454 0.961444 0.589141 0.020551 0.002826 -534573.000000 0 0 1
12.161863 17.674657 32.082710 38.595397 0.968104 0.589430 0.023433 -0.003544 -1224980.000000 0 0 1
12.476363 18.257257 30.851650 37.958021 0.971323 0.621882 0.017492 0.008036 -133592.000000 0 0 1
11.853463 17.631257 29.719410 36.532303 0.978905 0.620633 0.013493 0.004237 993513.000000 0 0 1
10.286663 17.769157 29.647000 36.062487 1.046032 0.605705 -0.001857 -0.004163 356536.000000 0 0 1
9.672863 17.085357 30.692210 36.434674 1.055639 0.569093 0.008989 0.000369 -193435.000000 0 0 1
8.248763 17.194757 30.622450 36.075424 1.123500 0.556999 0.010531 -0.003821 614353.000000 0 0 1
7.539963 16.310657 31.644620 36.390528 1.137784 0.516437 0.011906 0.002419 -232098.000000 0 0 1
7.895363 16.546757 32.982031 37.735213 1.125591 0.507343 0.017616 -0.001954 197562.000000 0 0 1
7.450963 15.474957 33.791107 37.905541 1.122070 0.470249 0.029503 -0.000926 -142164.000000 0 0 1
7.507963 15.806657 -33.499663 37.794806 1.127358 2.660211 0.029554 -0.006225 -283135.000000 0 0 1
6.448363 16.660057 -33.151553 37.658523 1.201499 2.647333 0.023939 -0.012938 -252173.000000 0 0 1
6.495863 17.026057 -31.796203 36.648075 1.206318 2.621170 0.034897 -0.020220 387890.000000 0 0 1
5.270563 17.798757 -31.178063 36.285620 1.282903 2.604579 0.034690 -0.023381 -101152.000000 0 0 1
5.591963 18.191157 -29.828323 35.382440 1.272564 2.573681 0.029508 -0.032407 240175.000000 0 0 1
4.788763 19.274357 -29.393353 35.473966 1.327275 2.547380 0.037460 -0.035112 1584760.000000 0 0 1
3.248863 18.925457 -29.156483 34.911725 1.400787 2.559199 0.054769 -0.039276 396696.000000 0 0 1
2.882463 18.194857 -27.964253 33.486727 1.413680 2.559083 0.064417 -0.036346 494770.000000 0 0 1
1.499163 17.863957 -27.894753 33.158494 1.487071 2.570397 0.060759 -0.038748 1168060.000000 0 0 1
0.401863 18.987257 -27.723903 33.604943 1.549635 2.540989 0.059168 -0.042806 167999.000000 0 0 1
0.082663 19.289357 -26.331173 32.640723 1.566511 2.509338 0.060103 -0.042872 12931.800000 0 0 1
-0.528637 20.572657 -26.196483 33.313202 -1.545106 2.475706 0.077930 -0.036875 12149.300000 0 0 1
-1.152837 20.849457 -24.797853 32.418550 -1.515559 2.441726 0.059225 -0.031309 -13785.200000 0 0 1
-2.299837 20.075357 -24.538953 31.787882 -1.456733 2.452714 0.060053 -0.028751 -54691.000000 0 0 1
-2.769037 20.372757 -23.224653 31.017758 -1.435706 2.416976 0.059003 -0.024485 120648.000000 0 0 1
-3.872937 19.383757 -22.747853 30.136265 -1.373590 2.426196 0.054648 -0.022381 852538.000000 0 0 1
-5.184337 19.964557 -22.874353 30.800924 -1.316731 2.407817 0.045593 -0.018513 -22532.600000 0 0 1
-6.142437 19.003057 -22.549653 30.121961 -1.258162 2.416762 0.041492 -0.019945 1074780.000000 0 0 1
-7.626837 19.577457 -22.471353 30.763732 -1.199311 2.389776 0.028410 -0.013932 1283940.000000 0 0 1
-7.795337 20.518457 -21.397453 30.653309 -1.207721 2.343463 0.018669 -0.015161 71774.500000 0 0 1
-7.363737 21.850957 -21.699353 31.663084 -1.245751 2.325840 0.024885 -0.015070 -208633.000000 0 0 1
-7.636837 22.762057 -20.512053 31.578107 -1.247090 2.277809 0.027063 -0.016256 425325.000000 0 0 1
-6.731137 22.744257 -19.363353 30.619420 -1.283060 2.255428 0.040556 -0.012205 459577.000000 0 0 1
-7.023537 23.706057 -18.400953 30.820485 -1.282759 2.210598 0.045418 -0.015088 -178345.000000 0 0 1
-6.063837 23.650557 -17.203853 29.867901 -1.319810 2.184621 0.040987 -0.010528 -153747.000000 0 0 1
-4.781837 24.128857 -17.489953 30.182216 -1.375152 2.188885 0.033928 -0.011072 -1037670.000000 0 0 1
-3.906137 23.848857 -16.424053 29.219435 -1.408451 2.167711 0.027223 -0.008546 110839.000000 0 0 1
-2.488837 24.374357 -16.748253 29.678402 -1.469040 2.170411 0.016145 0.000237 -73119.500000 0 0 1
-2.417037 25.788357 -16.646453 30.789378 -1.477343 2.142013 -0.001794 -0.000822 -772751.000000 0 0 1
-1.383737 26.291957 -17.411053 31.564640 -1.518215 2.155077 -0.006098 0.001898 -418221.000000 0 0 1
-1.156537 27.834357 -17.233553 32.757966 -1.529269 2.124790 -0.015968 -0.016830 -492892.000000 0 0 1
-2.197437 28.559957 -17.811853 33.730727 -1.494006 2.127111 -0.009221 -0.023030 -451383.000000 0 0 1
-1.910337 29.235057 -19.013753 34.926505 -1.505545 2.146462 -0.006187 -0.022444 413111.000000 0 0 1
-3.181437 29.825157 -19.758853 35.917597 -1.464529 2.153300 0.016587 -0.029535 1008750.000000 0 0 1
-3.829237 30.936557 -19.151653 36.585782 -1.447646 2.121718 0.014887 -0.024087 242625.000000 0 0 1
-4.952237 30.548057 -18.348053 35.977208 -1.410081 2.105971 0.010853 -0.026172 156477.000000 0 0 1
-5.557837 31.720557 -17.625953 36.711817 -1.397345 2.071584 0.012464 -0.018180 1415.230000 0 0 1
-6.349437 32.569857 -18.458453 37.971376 -1.378263 2.078435 0.029937 -0.019111 5723.220000 0 0 1
-6.461237 33.769157 -17.725753 38.682113 -1.381746 2.046812 0.025332 -0.025806 332174.000000 0 0 1
-7.232637 -34.030097 -18.468053 39.388165 1.361376 2.058811 0.026015 -0.015126 1545030.000000 0 0 1
-8.572437 -34.285497 -18.965853 40.108422 1.325788 2.063335 0.043663 -0.022299 992840.000000 0 0 1
-9.127637 -33.157797 -19.556153 39.562563 1.302171 2.087837 0.068566 -0.035514 -212668.000000 0 0 1
28.767463 -20.111643 -26.891063 44.217354 -0.610129 2.224532 0.022176 0.003749 478770.000000 0 0 1
28.003763 -21.203043 -26.371253 43.922918 -0.648061 2.214796 0.035830 0.004108 -752392.000000 0 0 1
26.764663 -21.379543 -26.956373 43.589885 -0.674007 2.237513 0.031860 0.007159 -593821.000000 0 0 1
26.161463 -22.790343 -26.570793 43.701590 -0.716641 2.224342 0.039439 0.005514 -422444.000000 0 0 1
26.657663 -23.963843 -27.088683 44.929873 -0.732233 2.217940 0.030943 0.018819 419089.000000 0 0 1
27.851163 -24.473243 -26.443663 45.540029 -0.720930 2.190346 0.024610 0.018841 1038290.000000 0 0 1
28.426163 -25.765993 -27.057643 46.947302 -0.736350 2.185040 0.024478 0.014459 137799.000000 0 0 1
27.637863 -26.884093 -26.633053 46.860703 -0.771574 2.175290 0.030345 0.012473 -82127.200000 0 0 1
28.020363 -28.177563 -27.076473 48.085873 -0.788195 2.168911 0.025824 0.013031 -79320.700000 0 0 1
26.961563 -28.903193 -27.922673 48.394175 -0.820140 2.185828 0.042393 0.006967 -258351.000000 0 0 1
26.831563 -28.534303 -29.263833 48.892854 -0.816143 2.212461 0.018025 0.003215 -809653.000000 0 0 1
27.880363 -28.758383 -30.124353 50.118219 -0.800899 2.215630 0.008957 0.006358 -1086360.000000 0 0 1
28.132163 -30.245253 -30.570653 51.388314 -0.821579 2.207931 0.019872 0.009853 -871852.000000 0 0 1
28.811463 -31.156243 -29.744903 51.822497 -0.824479 2.182150 0.023797 0.011939 725072.000000 0 0 1
30.133563 -30.865083 -29.247973 52.116494 -0.797390 2.166636 0.028558 0.013139 1514720.000000 0 0 1
31.240963 -30.585743 -30.348763 53.221545 -0.774801 2.177588 0.024673 0.003252 -372384.000000 0 0 1
31.144663 -29.255453 -30.815733 52.682834 -0.754130 2.195589 0.029522 -0.006024 589838.000000 0 0 1
32.240963 -28.979993 -31.710473 53.711021 -0.732183 2.202339 0.023453 -0.008957 595728.000000 0 0 1
32.115363 -27.552863 -32.283203 53.223698 -0.709082 2.222519 0.010353 -0.001149 95926.700000 0 0 1
32.211563 -26.494113 -31.325953 52.161654 -0.688313 2.214992 -0.001195 0.006201 -110864.000000 0 0 1
30.974363 -26.182263 -30.730803 50.885207 -0.701752 2.219212 0.016552 0.008236 -310837.000000 0 0 1
30.995063 -24.850543 -30.011103 49.788651 -0.675812 2.217764 0.013410 0.010076 -524198.000000 0 0 1
31.707963 -24.855643 -28.819043 49.535191 -0.664842 2.191723 0.016750 0.014525 -8205.790000 0 0 1
31.476063 -23.559043 -28.286583 48.434511 -0.642524 2.194465 0.008436 0.013689 441587.000000 0 0 1
32.559063 -23.100043 -27.241773 48.330309 -0.617061 2.169604 0.009058 0.015256 -43193.400000 0 0 1
32.587763 -23.820543 -26.091373 48.063919 -0.631208 2.144620 0.017163 0.010856 -33314.900000 0 0 1
31.740263 -23.365243 -25.011453 46.679242 -0.634571 2.136269 0.039785 0.012646 153705.000000 0 0 1
32.132263 -22.067043 -24.224953 45.894281 -0.601782 2.126855 0.028176 0.011635 -59130.800000 0 0 1
32.185563 -20.884343 -25.016353 45.802666 -0.575583 2.148590 0.025308 -0.003106 44377.000000 0 0 1
32.258063 -19.751743 -24.128353 44.865258 -0.549418 2.138617 0.014965 -0.006246 -12424.000000 0 0 1
32.517463 -18.455643 -24.962753 44.957037 -0.516226 2.159469 0.010643 -0.020410 -114549.000000 0 0 1
31.464363 -18.310043 -25.872873 44.661722 -0.527026 2.188675 0.016744 -0.012152 134569.000000 0 0 1
31.616463 -17.049443 -26.600833 44.697747 -0.494559 2.208220 0.008454 -0.010745 -340155.000000 0 0 1
30.494863 -16.781843 -27.624303 44.437248 -0.503087 2.241641 0.001340 -0.002821 764055.000000 0 0 1
29.224663 -16.544143 -26.980613 43.078337 -0.515122 2.247614 0.006781 0.001952 362045.000000 0 0 1
28.166763 -16.533543 -27.883113 42.944063 -0.530797 2.277446 -0.010670 0.003813 327841.000000 0 0 1
26.792763 -16.465143 -27.109033 41.519306 -0.551040 2.282237 -0.007090 0.004126 450946.000000 0 0 1
26.274363 -17.633943 -26.560643 41.313023 -0.591098 2.269091 0.004424 0.015454 -124206.000000 0 0 1
25.499463 -17.241543 -25.456803 39.944239 -0.594541 2.261797 0.005037 0.014144 -394227.000000 0 0 1
25.313663 -18.415943 -24.495953 39.748965 -0.628951 2.234789 0.024177 0.021643 -504765.000000 0 0 1
24.982563 -17.988443 -23.225453 38.563379 -0.624049 2.217134 0.019665 0.024321 -26113.300000 0 0 1
24.887163 -19.057943 -22.359653 38.503638 -0.653520 2.190403 0.029184 0.019661 -231417.000000 0 0 1
24.860963 -18.569443 -20.865253 37.393188 -0.641535 2.162765 0.028521 0.014742 1067330.000000 0 0 1
23.737463 -17.665143 -20.583853 36.044687 -0.639771 2.178599 0.026563 0.012763 933863.000000 0 0 1
23.750263 -16.300443 -21.065253 35.686473 -0.601490 2.202210 0.014607 0.017598 -617633.000000 0 0 1
24.921763 -15.375043 -20.733853 35.880062 -0.552777 2.186907 -0.003266 0.018142 -265671.000000 0 0 1
24.970163 -14.691543 -19.459653 34.900266 -0.531820 2.162263 -0.004596 0.007628 611119.000000 0 0 1
26.106763 -13.822743 -19.551853 35.424656 -0.486945 2.155471 -0.011955 0.010633 295645.000000 0 0 1
26.143663 -12.783543 -18.385153 34.422724 -0.454787 2.134238 -0.002011 0.010916 -119739.000000 0 0 1
26.646263 -13.246043 -17.121553 34.331160 -0.461331 2.092915 -0.015265 0.008866 379870.000000 0 0 1
26.375163 -12.218443 -16.127753 33.242202 -0.433822 2.077341 -0.020299 0.006131 360541.000000 0 0 1
27.169763 -12.455443 -14.794553 33.349856 -0.429842 2.030427 -0.017749 0.006151 78576.300000 0 0 1
26.552563 -13.547443 -14.072753 32.963831 -0.471784 2.011875 0.002545 -0.003101 458035.000000 0 0 1
26.969163 -13.616843 -12.727453 32.783261 -0.467563 1.969507 -0.000371 -0.003984 -292692.000000 0 0 1
26.588463 -14.955443 -12.063553 32.804587 -0.512373 1.947374 0.007585 -0.013191 499883.000000 0 0 1
25.203963 -15.131043 -11.760453 31.662225 -0.540672 1.951350 -0.001515 -0.019431 668343.000000 0 0 1
25.066963 -16.392443 -11.047853 31.923657 -0.579144 1.924176 0.008750 -0.025368 -516626.000000 0 0 1
23.618863 -16.554643 -10.610153 30.732430 -0.611335 1.923294 0.022039 -0.030886 -523340.000000 0 0 1
23.267663 -15.846743 -9.399253 29.679106 -0.597903 1.893040 0.021872 -0.022298 930660.000000 0 0 1
21.902863 -16.110743 -9.047853 28.655804 -0.634192 1.892035 0.030567 -0.024567 476024.000000 0 0 1
21.578763 -15.777743 -7.548353 27.776930 -0.631341 1.846006 0.028600 -0.021394 -264426.000000 0 0 1
21.701363 -14.398543 -7.292653 27.045332 -0.585797 1.843821 0.018429 -0.009004 349486.000000 0 0 1
21.555163 -14.006543 -5.906053 26.375931 -0.576235 1.796629 0.026867 -0.001477 -266079.000000 0 0 1
22.461763 -14.618843 -4.787353 27.224256 -0.576960 1.747564 0.027855 -0.006978 -492862.000000 0 0 1
23.823363 -14.361443 -4.944053 28.253271 -0.542498 1.746692 0.014883 -0.005058 -248048.000000 0 0 1
24.596663 -15.132643 -4.049053 29.161405 -0.551544 1.710096 0.015461 -0.012886 337952.000000 0 0 1
26.113363 -14.761443 -4.074653 30.272276 -0.514501 1.705806 0.013143 -0.009841 306142.000000 0 0 1
26.432963 -13.489243 -3.557353 29.888392 -0.471869 1.690100 0.018253 -0.010102 -491859.000000 0 0 1
27.741563 -13.185843 -3.907153 30.963311 -0.443701 1.697320 0.025900 -0.017805 -984401.000000 0 0 1
28.319363 -11.943743 -3.149753 30.895958 -0.399116 1.672921 0.030286 -0.028308 -1043600.000000 0 0 1
28.920663 -12.208643 -1.842453 31.445991 -0.399448 1.629421 0.035756 -0.039839 394964.000000 0 0 1
29.387263 -11.068643 -1.160453 31.424079 -0.360214 1.607734 0.035429 -0.023297 -330090.000000 0 0 1
30.714563 -10.457543 -1.625953 32.486740 -0.328164 1.620867 0.042960 -0.028633 -871849.000000 0 0 1
30.720863 -10.111943 -2.980853 32.479352 -0.317986 1.662703 0.031152 -0.018604 -401659.000000 0 0 1
31.673763 -10.713343 -3.797553 33.651514 -0.326160 1.683887 0.054044 -0.026156 -863411.000000 0 0 1
31.451363 -10.565743 -5.296253 33.598712 -0.324094 1.729089 0.037796 -0.016819 -395477.000000 0 0 1
30.265163 -11.163543 -5.745553 32.766082 -0.353375 1.747058 0.012693 -0.019974 5395.610000 0 0 1
30.204563 -11.293743 -7.229553 33.047401 -0.357813 1.791343 0.006025 -0.006010 -341063.000000 0 0 1
29.031763 -12.119843 -7.747253 32.399904 -0.395474 1.812249 -0.018018 -0.003445 -255549.000000 0 0 1
29.001863 -13.471143 -7.363553 32.814656 -0.434840 1.797122 -0.016896 -0.002172 637122.000000 0 0 1
27.787863 -14.157243 -7.691153 32.120814 -0.471199 1.812590 -0.019607 -0.000762 596270.000000 0 0 1
28.079263 -15.733143 -7.628853 33.078334 -0.510726 1.803521 -0.012622 -0.008760 31608.800000 0 0 1
28.385463 -16.212143 -8.945053 33.890737 -0.518930 1.837899 -0.011013 -0.017733 167053.000000 0 0 1
28.692163 -17.541743 -8.995753 34.812017 -0.548743 1.832172 -0.000584 -0.020699 -230864.000000 0 0 1
28.982863 -17.963943 -10.431753 35.658534 -0.554860 1.867684 0.003972 -0.025673 11137.200000 0 0 1
30.230163 -17.432943 -10.849153 36.544143 -0.523091 1.872218 0.005926 -0.014758 146443.000000 0 0 1
30.596463 -17.739043 -12.196753 37.410934 -0.525415 1.902888 0.001219 -0.004054 -18025.000000 0 0 1
29.786063 -17.093843 -13.375953 36.855463 -0.520998 1.942207 0.000206 0.000373 -30684.500000 0 0 1
30.180463 -15.812743 -13.779353 36.752874 -0.482615 1.955106 -0.013162 0.004043 -92756.400000 0 0 1
29.459763 -15.446643 -14.933153 36.461973 -0.482922 1.992762 -0.021256 0.007471 -1309070.000000 0 0 1
30.130563 -14.409743 -15.844053 36.966546 -0.446091 2.013745 -0.016706 0.015652 -17975.700000 0 0 1
31.122363 -14.920043 -16.714953 38.348387 -0.447032 2.021802 -0.018474 0.012653 169832.000000 0 0 1
32.381163 -15.149843 -16.112953 39.213323 -0.437606 1.994243 -0.004472 0.015931 -898549.000000 0 0 1
33.324063 -15.684843 -17.213553 40.654814 -0.439915 2.008000 0.001841 0.015064 629218.000000 0 0 1
34.704563 -15.578243 -16.788853 41.580692 -0.421924 1.986425 0.015304 0.008623 1213040.000000 0 0 1
-35.486546 -16.083543 -17.822853 42.844246 0.425536 1.999829 0.027819 -0.001577 983165.000000 0 0 1
-33.963646 -16.174143 -17.445353 41.466523 0.444443 2.005023 0.042900 -0.006252 719580.000000 0 0 1
-33.498446 -16.987943 -16.342353 40.961062 0.469332 1.981193 0.036582 -0.008081 62383.200000 0 0 1
-34.156646 -16.876943 -15.114753 40.987357 0.458920 1.948478 0.030426 -0.006649 -783499.000000 0 0 1
-33.523646 -17.662843 -13.925453 40.369904 0.484917 1.922978 0.019980 -0.007304 -488284.000000 0 0 1
-32.235346 -17.251543 -13.558353 38.994387 0.491390 1.925913 0.050079 -0.014389 -254203.000000 0 0 1
-32.019846 -17.660143 -12.246453 38.563284 0.504023 1.893960 0.067502 -0.002841 1287370.000000 0 0 1
-30.511746 -17.518443 -11.734653 37.088605 0.521198 1.892723 0.069670 -0.007013 1402260.000000 0 0 1
-30.006846 -16.188843 -11.744053 36.061229 0.494750 1.902516 0.058815 -0.020273 270903.000000 0 0 1
-28.655046 -16.079243 -11.335353 34.758366 0.511349 1.902991 0.070480 -0.021321 247777.000000 0 0 1
-28.346246 -15.869543 -9.820553 33.938111 0.510371 1.864361 0.069522 -0.021845 -157668.000000 0 0 1
-28.460646 -17.060043 -9.105653 34.408813 0.539997 1.838618 0.059962 -0.017421 -84384.000000 0 0 1
-28.888746 -16.829243 -7.771053 34.324516 0.527492 1.799176 0.061481 -0.026958 -57602.900000 0 0 1
-29.073846 -18.205943 -7.025553 35.015758 0.559459 1.772807 0.044535 -0.018094 279266.000000 0 0 1
-30.085046 -19.081343 -7.554453 36.418092 0.565221 1.779750 0.041518 -0.013950 201020.000000 0 0 1
-29.923146 -19.611043 -8.808853 36.845401 0.580148 1.812211 0.035249 -0.009746 -53299.500000 0 0 1
-31.119346 -20.473143 -9.312153 38.396348 0.581903 1.815766 0.031398 -0.011120 656981.000000 0 0 1
-32.361346 -19.811443 -9.573653 39.133168 0.549338 1.817948 0.027588 -0.013665 354833.000000 0 0 1
-33.227246 -20.770843 -10.138853 40.475600 0.558682 1.823986 0.018797 -0.012917 415554.000000 0 0 1
-34.696946 -20.243743 -10.313253 41.473491 0.528157 1.822104 0.019988 -0.015838 757467.000000 0 0 1
-35.028646 -19.519743 -11.572853 41.736763 0.508393 1.851760 0.020727 -0.022481 1194180.000000 0 0 1
34.599863 -19.619143 -11.760353 41.477309 -0.515824 1.858277 0.028669 -0.027881 817806.000000 0 0 1
34.111063 -19.045043 -13.134953 41.216565 -0.509212 1.895134 0.018201 -0.014442 -563351.000000 0 0 1
34.605763 -19.787943 -14.233653 42.328695 -0.519434 1.913744 0.022609 -0.005795 94931.600000 0 0 1
34.020263 -19.451043 -15.462753 42.128590 -0.519387 1.946618 0.014999 0.003254 156612.000000 0 0 1
32.688163 -20.205443 -15.760553 41.535177 -0.553642 1.959999 0.014607 -0.005547 -292437.000000 0 0 1
31.692563 -19.945143 -14.729153 40.238976 -0.561708 1.945549 0.019330 -0.007443 132555.000000 0 0 1
30.618263 -20.853143 -14.775453 39.882899 -0.597907 1.950312 0.015386 -0.004875 293330.000000 0 0 1
29.651163 -20.523943 -15.970953 39.439765 -0.605458 1.987715 0.011420 -0.002917 -1025030.000000 0 0 1
28.908563 -19.315743 -15.738053 38.163978 -0.589040 1.995861 0.001092 0.004708 172899.000000 0 0 1
27.876863 -19.270143 -16.694253 37.777718 -0.604836 2.028520 0.006453 -0.000639 -66349.800000 0 0 1
27.197363 -17.857243 -16.680253 36.562392 -0.580987 2.044532 0.007336 -0.004482 94914.600000 0 0 1
26.236263 -17.684143 -15.642753 35.295412 -0.593086 2.029956 0.012837 -0.003709 175154.000000 0 0 1
25.715463 -16.394743 -15.792853 34.343658 -0.567569 2.048620 0.007657 -0.006507 -1416250.000000 0 0 1
24.351463 -16.230843 -15.122753 32.941337 -0.587904 2.047757 0.012358 -0.025798 323584.000000 0 0 1
23.207963 -16.858843 -15.739253 32.719325 -0.628242 2.072635 0.016069 -0.030504 930943.000000 0 0 1
22.813563 -16.233043 -16.898653 32.703743 -0.618437 2.113811 0.013426 -0.010365 -1299200.000000 0 0 1
21.958963 -16.990643 -17.894553 33.031697 -0.658526 2.143301 0.015520 -0.008726 157715.000000 0 0 1
20.670663 -17.306243 -17.366153 32.068140 -0.697038 2.143063 0.012788 -0.000670 200325.000000 0 0 1
19.940663 -17.988243 -18.389353 32.548045 -0.733968 2.171219 0.011403 -0.003983 -783834.000000 0 0 1
18.497563 -18.235943 -18.037753 31.623883 -0.778276 2.177769 0.000129 0.000354 -893641.000000 0 0 1
17.767663 -17.017243 -17.852053 30.396911 -0.763828 2.198513 0.003314 -0.000309 843896.000000 0 0 1
16.435463 -17.459643 -17.500053 29.685273 -0.815605 2.201260 0.007284 -0.008739 1553540.000000 0 0 1
15.315663 -16.326943 -17.370753 28.335167 -0.817347 2.230706 0.010676 -0.002517 196341.000000 0 0 1
14.798263 -15.874443 -18.579753 28.569105 -0.820470 2.278834 0.017990 0.009863 -382174.000000 0 0 1
13.889563 -14.898943 -18.178453 27.301184 -0.820446 2.299427 0.018157 0.002111 -696315.000000 0 0 1
13.059763 -14.308243 -19.306653 27.350139 -0.830985 2.354499 0.017102 0.000292 -404237.000000 0 0 1
13.636863 -13.372343 -20.174853 27.781438 -0.775605 2.383573 0.007979 0.000280 -22495.400000 0 0 1
12.694363 -13.000943 -21.206253 27.926270 -0.797329 2.433134 0.020824 0.007088 385514.000000 0 0 1
12.808863 -11.543343 -21.653653 27.680254 -0.733478 2.469111 0.014716 0.009242 -52594.100000 0 0 1
14.021263 -11.244443 -22.362453 28.689939 -0.675933 2.464588 0.002391 0.017827 171230.000000 0 0 1
14.119063 -9.827043 -22.609153 28.409374 -0.608045 2.491180 -0.010705 0.023241 -857631.000000 0 0 1
15.286663 -9.354143 -23.396553 29.471694 -0.549135 2.487936 -0.020748 0.028874 -769024.000000 0 0 1
15.157363 -9.690843 -24.761353 30.606906 -0.568851 2.513266 -0.003962 0.026388 -186550.000000 0 0 1
16.312963 -9.275343 -25.418533 31.595040 -0.517002 2.505647 0.007647 0.015717 -335818.000000 0 0 1
21.894463 5.046657 -6.754953 23.462004 0.226542 1.862840 0.060989 0.007558 -214614.000000 0 1 0
21.928863 6.357957 -7.199353 23.940119 0.282198 1.876247 0.046231 0.005300 688336.000000 0 1 0
21.945063 7.269557 -6.129153 23.916495 0.319885 1.829961 0.051401 0.006779 -291495.000000 0 1 0
21.346163 8.666357 -6.459953 23.926876 0.385661 1.844176 0.034047 0.009894 699072.000000 0 1 0
19.947263 8.655057 -6.845853 22.796250 0.409382 1.875810 -0.005229 -0.000127 1818220.000000 0 1 0
19.353363 9.946557 -7.110453 22.892033 0.474741 1.886629 -0.017142 0.005538 90340.100000 0 1 0
19.053563 10.765957 -5.859353 22.655597 0.514314 1.832397 0.010759 0.003165 48637.100000 0 1 0
20.221063 11.283857 -5.181153 23.728909 0.508983 1.790917 0.023637 0.000577 935268.000000 0 1 0
19.775863 12.185357 -4.144353 23.595409 0.552227 1.747355 0.041697 -0.009892 534163.000000 0 1 0
20.859063 12.580857 -3.084053 24.553815 0.542722 1.696733 0.037598 -0.018556 -236031.000000 0 1 0
22.067963 13.141157 -3.597053 25.934991 0.537094 1.709940 0.036134 -0.022177 730541.000000 0 0 1
22.863463 13.599557 -2.506553 26.720192 0.536599 1.664742 0.027818 -0.023096 -455604.000000 0 0 1
23.669963 12.536457 -1.801953 26.845426 0.487074 1.637970 0.026537 -0.021884 -1899650.000000 0 0 1
24.778863 12.132557 -2.556853 27.707913 0.455320 1.663207 0.021287 -0.021587 755954.000000 0 0 1
25.558263 11.069157 -1.870353 27.915036 0.408707 1.637848 0.030893 -0.022124 668822.000000 0 0 1
26.918663 10.637057 -2.458653 29.048345 0.376323 1.655538 0.029511 -0.023092 -35327.900000 0 0 1
27.893063 11.632757 -2.305953 30.309427 0.395116 1.646950 0.021061 -0.022879 49860.700000 0 0 1
29.213863 11.112357 -2.321853 31.342068 0.363479 1.644945 0.027291 -0.020251 485657.000000 0 0 1
30.236463 12.190557 -1.826653 32.652565 0.383240 1.626768 0.011542 -0.012213 -279132.000000 0 0 1
30.140963 12.444057 -0.467053 32.612119 0.391545 1.585118 0.009029 -0.014447 575049.000000 0 0 1
30.959563 13.477857 0.088147 33.766180 0.410594 1.568186 0.017004 -0.009816 -288626.000000 0 0 1
32.450163 13.171757 0.356047 35.023349 0.385588 1.560630 0.030059 -0.009418 45490.900000 0 0 1
33.202063 14.377957 0.433247 36.184117 0.408664 1.558823 0.028809 -0.007825 127129.000000 0 0 1
33.956663 14.664857 -0.748953 36.995593 0.407675 1.591042 0.030863 0.004491 -1093.960000 0 0 1
33.265663 15.631957 -1.806753 36.799820 0.439289 1.619913 -0.006827 0.033155 196832.000000 0 0 1
32.109563 15.207057 -2.484953 35.615356 0.442305 1.640625 0.010673 0.023230 -246538.000000 0 0 1
31.554763 16.160757 -3.350753 35.610401 0.473320 1.665031 0.005041 0.033198 -4859.840000 0 0 1
30.220563 15.703657 -3.971253 34.287871 0.479232 1.686878 0.025691 0.011744 -999450.000000 0 0 1
30.333663 14.669657 -4.931853 34.053680 0.450450 1.716133 0.008756 0.011453 -55545.700000 0 0 1
29.227263 14.494857 -5.773253 33.131016 0.460391 1.745946 0.016175 -0.002923 113363.000000 0 0 1
27.865263 14.092857 -5.126053 31.644239 0.468237 1.733503 0.016435 -0.015229 -415853.000000 0 0 1
26.877763 13.748757 -6.076153 30.795488 0.472828 1.769406 0.025800 -0.021799 290329.000000 0 0 1
25.752863 13.253157 -5.344953 29.452073 0.475282 1.753287 0.031337 -0.017083 -500701.000000 0 0 1
24.584563 12.921557 -6.221253 28.461752 0.483914 1.791158 0.027797 -0.017033 -977658.000000 0 0 1
24.923863 11.725557 -6.961253 28.410327 0.439734 1.818342 0.025082 -0.005008 302327.000000 0 0 1
24.144463 11.341257 -8.079653 27.872208 0.439136 1.864900 0.018221 -0.007645 -369004.000000 0 0 1
23.956763 12.359557 -9.250653 28.500170 0.476295 1.901367 0.023296 0.000141 106332.000000 0 0 1
23.200563 13.497857 -8.830953 28.256751 0.526922 1.888647 0.025920 -0.011970 321911.000000 0 0 1
23.076463 14.423457 -9.855953 28.943031 0.558620 1.918276 0.018435 -0.010858 -727665.000000 0 0 1
22.363063 15.708757 -9.440453 28.913557 0.612363 1.903401 0.023604 -0.018060 1027130.000000 0 0 1
20.982763 15.621457 -9.020253 27.670764 0.639965 1.902850 0.027029 -0.012230 1167170.000000 0 0 1
20.862063 15.195657 -7.678453 26.927538 0.629525 1.859962 0.041778 -0.014189 195556.000000 0 0 1
19.501863 14.464057 -7.361053 25.371572 0.638152 1.865159 0.060853 -0.014900 1300960.000000 0 0 1
18.335863 15.267957 -7.622553 25.048307 0.694354 1.880015 0.057352 -0.020665 -71418.200000 0 0 1
17.126063 14.613457 -7.577253 23.754366 0.706400 1.895453 0.058891 -0.030321 -241272.000000 0 1 0
16.382463 14.819657 -6.169653 22.936258 0.735353 1.843142 0.062987 -0.021937 202084.000000 0 1 0
17.098363 14.264657 -5.060253 22.835074 0.695291 1.794251 0.097351 -0.015326 374244.000000 0 1 0
16.535463 14.737257 -3.894053 22.489373 0.727961 1.744824 0.085342 -0.010383 -141596.000000 0 1 0
16.033663 13.676357 -2.909053 21.274014 0.706220 1.707968 0.048228 -0.004340 -249226.000000 0 1 0
17.092563 12.944857 -2.331353 21.567573 0.648181 1.679103 0.050124 -0.011174 402139.000000 0 1 0
16.754963 12.283257 -1.170253 20.808091 0.632605 1.627066 0.039999 -0.006713 -202432.000000 0 1 0
16.673763 13.198057 0.094947 21.265279 0.669565 1.566331 0.041159 -0.011553 436421.000000 0 1 0
15.621163 14.194757 0.160847 21.107764 0.737594 1.563176 0.038501 -0.013422 998108.000000 0 1 0
15.678963 14.902357 1.380647 21.675246 0.760009 1.507056 0.032318 -0.014395 -249372.000000 0 1 0
14.535463 15.924057 1.581247 21.618409 0.830955 1.497587 0.038409 -0.009380 -190866.000000 0 1 0
14.418763 16.923457 0.612947 22.241398 0.865143 1.543234 0.046085 -0.014004 314401.000000 0 1 0
13.486863 17.904757 1.038747 22.440026 0.925215 1.524490 0.038449 -0.014800 -7137.170000 0 1 0
13.557963 19.196757 0.190847 23.502558 0.955879 1.562676 0.034126 -0.014813 -111772.000000 0 1 0
13.025263 19.066557 -1.138753 23.118992 0.971471 1.620072 0.036143 -0.023666 225419.000000 0 1 0
12.478163 20.327357 -1.547953 23.901927 1.020248 1.635604 0.028724 -0.020070 1205240.000000 0 1 0
10.915163 20.421057 -1.342153 23.194001 1.079927 1.628695 0.018049 -0.024467 887571.000000 0 1 0
10.422763 20.458757 -0.034753 22.960747 1.099615 1.572310 0.015548 -0.031388 927439.000000 0 1 0
8.984763 20.296357 -0.049653 22.196182 1.154048 1.573033 0.016590 -0.029539 1214850.000000 0 1 0
8.320563 20.193957 1.292647 21.879181 1.179960 1.511681 0.018453 -0.030837 -319519.000000 0 1 0
8.330263 21.389157 2.044447 23.044936 1.199407 1.481964 0.022312 -0.019831 102309.000000 0 1 0
7.435363 21.258357 3.130247 22.737651 1.234334 1.432690 0.020346 -0.022876 -43646.700000 0 1 0
6.869263 22.617857 3.623147 23.914042 1.275940 1.418704 0.009980 -0.015546 -135975.000000 0 1 0
7.690963 23.260857 4.542247 24.916869 1.251472 1.387475 0.007236 -0.011135 -83518.600000 0 1 0
7.146463 24.530057 4.918547 26.018987 1.287308 1.380615 0.000325 -0.010301 25052.000000 0 0 1
7.684263 25.056557 6.271447 26.948283 1.273225 1.335921 -0.003012 -0.003892 -198616.000000 0 0 1
7.251663 24.201057 7.289047 26.294637 1.279668 1.289911 0.011199 -0.016669 264953.000000 0 0 1
7.981663 24.466757 8.474947 27.095273 1.255457 1.252674 0.013735 -0.015373 -62288.200000 0 0 1
7.503863 23.596457 9.643747 26.572591 1.262901 1.199396 0.020208 -0.020197 521600.000000 0 0 1
6.255863 23.841957 10.304447 26.716219 1.314192 1.174830 0.014768 -0.020123 460896.000000 0 0 1
5.909763 22.863457 11.226447 26.147582 1.317852 1.127024 0.008762 -0.018596 -467311.000000 0 0 1
4.609563 23.258957 11.907647 26.533360 1.375147 1.105396 0.020720 -0.018846 -521.977000 0 0 1
3.487763 23.289157 11.048147 26.011744 1.422142 1.132125 0.013861 -0.015805 815385.000000 0 0 1
2.188563 23.474357 11.634347 26.290554 1.477833 1.112379 0.009847 -0.019780 1495610.000000 0 0 1
1.073963 23.548957 10.520847 25.814627 1.525222 1.151023 0.021917 -0.024220 62778.200000 0 0 1
1.188463 24.765157 9.834147 26.672755 1.522844 1.193190 0.015979 -0.019084 456649.000000 0 0 1
0.259963 24.875457 8.742547 26.368315 1.560346 1.232845 0.008908 -0.023852 368888.000000 0 0 1
-1.103137 25.503957 9.053947 27.085839 -1.527570 1.229967 0.018639 -0.026996 249469.000000 0 0 1
-1.988537 24.874657 10.000447 26.883299 -1.491024 1.189639 0.017546 -0.021790 791889.000000 0 0 1
-3.311837 25.334357 9.706747 27.331645 -1.440808 1.207725 0.033094 -0.020719 -498834.000000 0 0 1
-4.424637 24.520357 10.308147 26.964480 -1.392270 1.178527 0.035040 -0.026179 -584098.000000 0 0 1
-4.775037 24.715557 11.676547 27.748900 -1.379948 1.136477 0.021375 -0.010160 225775.000000 0 0 1
-5.686437 25.781257 11.900647 28.959181 -1.353707 1.147305 0.021911 -0.008883 -105201.000000 0 0 1
-6.124537 25.979357 13.373247 29.854324 -1.339277 1.106325 0.013302 0.004829 269398.000000 0 0 1
-6.906237 24.871857 13.889247 29.312396 -1.299947 1.077155 0.016577 -0.017058 287858.000000 0 0 1
-7.210437 25.092757 15.243847 30.232627 -1.290984 1.042320 0.006149 0.007909 -64184.900000 0 0 1
-8.371437 24.226857 15.801747 30.111738 -1.238097 1.018351 0.014659 -0.004742 -547877.000000 0 0 1
-9.588537 24.709357 15.338247 30.622772 -1.200631 1.046184 0.012936 -0.000528 -1177540.000000 0 0 1
-10.585137 23.760157 15.605747 30.333637 -1.151691 1.030407 0.007196 -0.002788 -913707.000000 0 0 1
-11.989637 24.239757 15.348747 31.095035 -1.111456 1.054563 0.003837 -0.006195 -891761.000000 0 0 1
-12.480637 25.201057 16.238047 32.473585 -1.110962 1.047153 0.022330 -0.008322 319089.000000 0 0 1
-13.705937 25.762557 15.768447 33.169353 -1.081870 1.075387 0.015385 -0.005476 266122.000000 0 0 1
-14.261637 26.917557 16.655747 34.718339 -1.083573 1.070439 0.030045 -0.008536 -103125.000000 0 0 1
-15.222637 26.561757 17.616647 35.321408 -1.050388 1.048637 0.028371 -0.010639 -171693.000000 0 0 1
-15.451837 27.602857 18.512647 36.652354 -1.060467 1.041313 0.041331 -0.014449 -472677.000000 0 0 1
-16.751137 27.437257 19.304347 37.497486 -1.022674 1.030002 0.035932 -0.012201 -68549.700000 0 0 1
-17.918837 27.568057 18.518547 37.736177 -0.994431 1.057861 0.032221 -0.016506 -41262.400000 0 0 1
-19.085337 27.178957 19.207947 38.365232 -0.958589 1.046435 0.033133 -0.011414 381516.000000 0 0 1
-20.370737 27.247857 18.325047 38.642205 -0.928827 1.076714 0.034312 -0.018235 -28753.000000 0 0 1
-20.989237 28.483857 18.340447 39.852856 -0.935744 1.092571 0.028789 -0.018785 -346463.000000 0 0 1
-21.715137 28.610357 17.166247 39.809292 -0.921563 1.124961 0.026074 -0.021450 -826725.000000 0 0 1
-22.691837 29.799357 17.151147 41.195667 -0.919984 1.141387 0.018807 -0.024520 -266541.000000 0 0 1
-23.964537 29.377457 17.617747 41.805729 -0.886528 1.135786 0.002878 -0.017790 -77227.100000 0 0 1
-24.865137 30.428957 17.399047 42.975845 -0.885683 1.153975 -0.004679 -0.008346 454474.000000 0 0 1
-26.316237 30.169457 17.940447 43.870264 -0.853508 1.149501 -0.006622 -0.001030 304528.000000 0 0 1
-27.209127 29.520457 17.025247 43.607947 -0.826119 1.169713 0.008142 -0.001611 648500.000000 0 0 1
-28.479267 29.347957 17.679047 44.552440 -0.800419 1.162753 0.018233 -0.001066 390506.000000 0 0 1
-28.567857 28.194057 18.697347 44.278867 -0.778813 1.134855 0.011070 0.003240 -965809.000000 0 0 1
-28.718427 26.891857 18.147847 43.327409 -0.752564 1.138614 0.022045 -0.002567 136450.000000 0 0 1
-28.894297 25.867557 19.127047 43.241818 -0.730183 1.112604 0.012476 0.001953 -46639.500000 0 0 1
-29.029837 24.493057 18.437147 42.220489 -0.700837 1.118883 0.023719 -0.000741 -226296.000000 0 0 1
-30.149067 24.378957 17.601147 42.580514 -0.679971 1.144654 0.032585 -0.003889 -373578.000000 0 0 1
-30.045047 23.275957 16.693047 41.510635 -0.659124 1.156944 0.038195 -0.009092 -132116.000000 0 0 1
-30.464357 21.824957 17.084847 41.186136 -0.621654 1.143051 0.042443 -0.003725 -119461.000000 0 0 1
-31.833867 21.511457 17.122547 42.063280 -0.594259 1.151556 0.041609 -0.000640 -207552.000000 0 0 1
-31.958597 20.150757 16.812647 41.352993 -0.562564 1.152106 0.036960 0.001120 -636300.000000 0 0 1
-33.299867 19.721457 16.259847 41.978562 -0.534693 1.173055 0.038299 -0.007800 -673016.000000 0 0 1
-33.525577 20.155857 14.959647 41.880949 -0.541308 1.205534 0.041458 -0.005113 -342397.000000 0 0 1
-34.819400 19.880557 14.513147 42.641044 -0.518794 1.223501 0.051447 -0.005051 -246920.000000 0 0 1
-34.911370 20.153557 12.968047 42.345482 -0.523544 1.259551 0.058552 0.001030 -181226.000000 0 0 1
-34.870545 21.577957 12.712447 42.932149 -0.554130 1.270184 0.045404 -0.002145 52499.800000 0 0 1
-34.962859 21.989557 11.371847 42.839947 -0.561428 1.302126 0.029755 -0.002159 -322108.000000 0 0 1
-33.785577 21.557557 10.499447 41.429843 -0.567943 1.314575 0.050021 -0.007569 -595532.000000 0 0 1
-33.882607 20.243857 9.986047 40.713216 -0.538557 1.322990 0.072971 -0.007801 -489626.000000 0 0 1
-32.761257 19.849257 9.261747 39.409046 -0.544729 1.333562 0.089646 -0.010637 -580102.000000 0 0 1
-32.042527 18.774557 10.054447 38.474660 -0.530007 1.306400 0.090137 -0.018619 -347587.000000 0 0 1
-31.573747 19.136957 11.339647 38.622691 -0.544895 1.272805 0.083314 -0.020323 -329774.000000 0 0 1
-30.762507 18.179557 11.876947 37.654880 -0.533749 1.249901 0.081559 -0.022577 -207467.000000 0 0 1
-30.055287 18.636957 13.195047 37.746069 -0.555060 1.213680 0.062521 -0.012233 203309.000000 0 0 1
-29.042837 19.632357 13.076947 37.415536 -0.594422 1.213753 0.055802 -0.009921 -226180.000000 0 0 1
-29.364557 21.022057 13.130947 38.426890 -0.621317 1.222058 0.052764 -0.005596 -164279.000000 0 0 1
-28.166967 21.920357 13.503447 38.160492 -0.661324 1.209102 0.053952 -0.013615 109365.000000 0 0 1
-27.754667 21.682457 14.843947 38.220325 -0.663183 1.171925 0.050150 -0.005370 179988.000000 0 0 1
-26.614367 22.502257 15.103547 37.984118 -0.701872 1.161866 0.052803 -0.013911 144081.000000 0 0 1
-26.047037 22.266157 16.529247 38.045314 -0.707300 1.121355 0.051977 -0.009846 -441994.000000 0 0 1
-25.301997 21.101757 16.680547 36.928523 -0.695129 1.102128 0.059363 -0.010555 67742.700000 0 0 1
-24.916637 20.772157 18.049147 37.122675 -0.694935 1.063057 0.055848 -0.001658 -136495.000000 0 0 1
-23.873137 19.661857 18.156147 35.863086 -0.688965 1.039951 0.056460 -0.003922 -94989.900000 0 0 1
-23.538137 19.510457 19.525647 36.276062 -0.692108 1.002435 0.053863 -0.005129 354185.000000 0 0 1
-22.402437 18.686457 19.792947 35.253562 -0.695206 0.974665 0.045552 0.006058 433975.000000 0 0 1
-22.026437 18.732857 21.292447 35.908942 -0.704768 0.936071 0.033684 -0.002244 989.589000 0 0 1
-22.873537 17.948857 22.124847 36.535859 -0.665342 0.920320 0.036677 0.007530 385557.000000 0 0 1
-22.662037 18.335457 23.479047 37.430236 -0.680255 0.892747 0.032721 0.002008 -324139.000000 0 0 1
-23.403737 17.484257 24.461547 38.102512 -0.641624 0.873701 0.029510 0.006281 -367879.000000 0 0 1
-22.772037 16.205557 24.597947 37.232308 -0.618497 0.849097 0.025757 0.002098 429714.000000 0 0 1
-23.478537 15.314257 25.487047 37.886115 -0.577967 0.832907 0.020299 -0.001415 140887.000000 0 0 1
20.003463 25.216357 33.617132 46.541538 0.900171 0.763668 0.051976 -0.005490 120435.000000 0 0 1
21.045763 24.290757 33.327619 46.300056 0.856852 0.767256 0.051521 -0.020259 133355.000000 0 0 1
20.810763 22.953157 33.741101 45.808265 0.834313 0.742808 0.053450 -0.017275 446202.000000 0 0 1
19.648963 22.078757 33.122214 44.391827 0.843562 0.728561 0.042300 -0.013318 547955.000000 0 0 1
20.003863 21.463957 31.906140 43.345793 0.820594 0.743530 0.047698 -0.011843 442834.000000 0 0 1
19.018063 20.498357 31.570400 42.172971 0.822841 0.724859 0.033188 -0.008694 79967.300000 0 0 1
19.344863 19.956457 30.187180 41.033520 0.800959 0.744139 0.024956 0.014078 -851335.000000 0 0 1
20.594663 19.374257 30.027290 41.244880 0.754874 0.755360 0.035419 0.001758 -700784.000000 0 0 1
20.668863 18.691957 28.814480 40.085726 0.735215 0.768691 0.019084 0.005036 -741264.000000 0 0 1
21.824963 17.723457 28.786680 40.238326 0.682059 0.773593 0.028301 0.001637 -511360.000000 0 0 1
23.097163 18.317157 28.820570 41.226477 0.670487 0.796687 0.039038 -0.005529 310075.000000 0 0 1
24.181463 17.407657 29.000480 41.578811 0.623941 0.798918 0.039621 0.001381 194326.000000 0 0 1
25.522563 17.895057 29.529710 42.937606 0.611495 0.812431 0.042690 -0.015519 -559344.000000 0 0 1
26.461963 18.050857 28.512710 42.884071 0.598641 0.843465 0.037889 -0.003304 234333.000000 0 0 1
27.743263 18.414657 29.026390 44.173743 0.585982 0.853836 0.050024 -0.008530 887180.000000 0 0 1
28.957463 18.443257 28.047460 44.332250 0.567117 0.885807 0.055274 0.004308 313545.000000 0 0 1
28.855363 19.409257 27.012850 44.034592 0.592126 0.910379 0.059909 -0.007104 385016.000000 0 0 1
29.895663 19.219157 26.055930 44.068562 0.571350 0.938177 0.067184 -0.017225 -326036.000000 0 0 1
30.084563 20.359957 25.031520 44.115595 0.594956 0.967442 0.057395 -0.018168 347186.000000 0 0 1
29.002963 20.556157 24.091130 42.943102 0.616581 0.975202 0.052231 -0.017794 774393.000000 0 0 1
29.349063 21.492157 23.026430 43.052256 0.632073 1.006468 0.030040 -0.017352 75556.800000 0 0 1
30.017363 20.948557 21.710930 42.558766 0.609303 1.035449 0.039359 -0.010413 200587.000000 0 0 1
29.218863 20.005257 20.968430 41.153703 0.600363 1.036175 0.028859 -0.006006 233744.000000 0 0 1
29.878963 19.602857 19.753030 40.831441 0.580634 1.065839 0.027807 -0.000229 -236114.000000 0 0 1
31.009763 18.604457 20.002130 41.325735 0.540386 1.065563 0.030896 -0.010236 -614758.000000 0 0 1
30.601763 17.319957 20.348030 40.626237 0.515028 1.046205 0.030247 -0.002484 254756.000000 0 0 1
31.745763 16.531857 20.612430 41.303366 0.480116 1.048295 0.031740 0.000095 -179509.000000 0 0 1
31.344763 15.077057 21.022730 40.641936 0.448338 1.027142 0.033766 -0.004007 65269.600000 0 0 1
30.920763 14.853657 22.338730 40.935847 0.447827 0.993571 0.031008 0.005205 56002.600000 0 0 1
29.584063 15.239557 22.563130 40.206414 0.475676 0.974983 0.025050 0.005487 -459711.000000 0 0 1
28.791363 14.424657 23.600430 39.924849 0.464452 0.938348 0.025935 0.002055 -112437.000000 0 0 1
28.288663 13.222457 23.164230 38.880115 0.437239 0.932552 0.024549 0.002366 138191.000000 0 0 1
27.485963 12.521457 24.105300 38.643635 0.427467 0.897221 0.025653 0.010060 87311.000000 0 0 1
26.989463 11.188757 23.552930 37.528121 0.392995 0.892320 0.035389 0.002151 -871003.000000 0 0 1
25.765263 11.211357 22.916030 36.258623 0.410423 0.886644 0.042967 -0.003720 -600379.000000 0 0 1
25.364563 9.931257 22.507530 35.335249 0.373193 0.880234 0.040985 -0.001233 -199865.000000 0 0 1
24.075463 9.854257 21.678230 33.862663 0.388504 0.876063 0.043831 -0.008873 61334.900000 0 0 1
22.881463 9.820857 22.437930 33.518223 0.405428 0.837362 0.033329 -0.009224 343935.000000 0 0 1
21.814963 9.204357 21.770430 32.164645 0.399266 0.827330 0.025906 -0.000963 899149.000000 0 0 1
20.342563 9.461057 22.275330 31.615215 0.435329 0.788970 0.019286 -0.011633 854863.000000 0 0 1
20.015363 8.944357 23.550030 32.174838 0.420252 0.749632 0.026569 -0.007053 -81210.800000 0 0 1
18.638163 8.837457 23.792940 31.489455 0.442762 0.714251 0.016522 -0.001030 -348915.000000 0 0 1
18.295063 7.994757 25.027930 32.015976 0.411982 0.673357 0.020224 0.010869 -452022.000000 0 0 1
18.551163 6.632557 24.944670 31.786365 0.343365 0.668487 0.013665 0.011130 217453.000000 0 0 1
18.218463 6.014957 26.157730 32.439466 0.318889 0.632833 0.017412 0.007903 -253812.000000 0 0 1
18.415163 4.492057 26.245890 32.375045 0.239260 0.625479 0.018028 -0.000397 -360127.000000 0 0 1
19.702063 4.043257 25.927970 32.814309 0.202410 0.659755 0.030808 0.003620 -305777.000000 0 0 1
19.903363 2.679057 25.775970 32.676013 0.133799 0.661886 0.022631 0.008419 -1269190.000000 0 0 1
21.330063 2.482357 25.346520 33.220171 0.115857 0.702877 0.040453 0.001631 -907791.000000 0 0 1
22.224663 2.618357 26.452990 34.648984 0.117273 0.702148 0.047594 -0.009361 -756460.000000 0 0 1
23.498163 2.882457 25.998670 35.162524 0.122058 0.738639 0.061215 -0.017685 -1131160.000000 0 0 1
24.435363 3.361357 27.099130 36.643533 0.136703 0.738419 0.062618 -0.022891 -644190.000000 0 0 1
24.690463 2.345857 28.059190 37.449168 0.094726 0.723851 0.066511 -0.031457 -15701.400000 0 0 1
25.246163 2.829357 29.243220 38.736803 0.111605 0.715263 0.067383 -0.022391 -424783.000000 0 0 1
26.765863 2.977457 29.280140 39.781947 0.110785 0.743630 0.067438 -0.021933 -1374190.000000 0 0 1
27.161563 4.138957 28.519990 39.601405 0.151220 0.766740 0.070552 -0.017414 1000790.000000 0 0 1
28.588663 4.197257 28.340850 40.473848 0.145774 0.795082 0.056496 -0.012355 832658.000000 0 0 1
29.259563 3.146557 27.448330 40.242188 0.107128 0.820195 0.061536 -0.015291 -882608.000000 0 0 1
28.956663 3.319257 26.084360 39.113931 0.114130 0.840780 0.059909 -0.013261 -98026.800000 0 0 1
29.377763 2.237857 25.257390 38.807173 0.076028 0.862102 0.053962 0.001557 -174350.000000 0 0 1
29.007163 2.290757 23.762440 37.567494 0.078809 0.885985 0.073816 -0.021253 184748.000000 0 0 1
29.745763 3.302857 23.081030 37.794883 0.110583 0.913862 0.060301 -0.011797 1053460.000000 0 0 1
31.060263 2.849657 22.645030 38.544232 0.091490 0.942821 0.052642 -0.009427 1177830.000000 0 0 1
31.864063 3.943257 21.914730 38.873168 0.123126 0.971878 0.042141 -0.009458 -182152.000000 0 0 1
31.348563 4.172757 20.598130 37.741585 0.132331 0.993492 0.040776 -0.023518 202077.000000 0 0 1
31.837763 5.380357 19.956930 37.958799 0.167411 1.017197 0.034213 -0.010251 -92805.800000 0 0 1
33.320863 5.746257 19.707030 39.136510 0.170773 1.043098 0.023896 -0.008991 -518593.000000 0 0 1
34.056263 5.975057 20.853830 40.378368 0.173679 1.028084 0.025036 -0.000699 -107661.000000 0 0 1
33.829663 7.184757 21.538030 40.742528 0.209271 1.013802 0.021378 0.002713 -270128.000000 0 0 1
34.623063 7.180557 22.901430 42.128285 0.204493 0.996062 0.020374 -0.003548 223749.000000 0 0 1
34.019563 6.191157 23.715130 41.929327 0.180018 0.969639 0.023478 -0.004411 560558.000000 0 0 1
34.746963 5.995757 24.932590 43.184888 0.170872 0.955323 0.028766 -0.008660 -58691.300000 0 0 1
34.109063 4.940657 25.823600 43.066188 0.143848 0.927763 0.033530 -0.010750 -171899.000000 0 0 1
34.130963 3.628257 25.284310 42.630778 0.105906 0.935893 0.028704 -0.009372 159574.000000 0 0 1
33.526263 2.659457 26.158090 42.606674 0.079159 0.909750 0.036577 -0.008067 44643.700000 0 0 1
33.594563 1.180657 25.620370 42.265730 0.035130 0.919556 0.023081 -0.009769 143806.000000 0 0 1
32.579263 0.829657 24.685310 40.883508 0.025460 0.922541 0.029785 -0.007439 84401.600000 0 0 1
32.609763 -0.487443 24.365730 40.710233 -0.014947 0.929149 0.033162 -0.005963 -143589.000000 0 0 1
31.506863 -0.975643 23.411730 39.265040 -0.030956 0.931976 0.042957 -0.004401 107069.000000 0 0 1
30.233063 -1.125343 24.023420 38.631971 -0.037205 0.899689 0.051987 -0.005371 -297257.000000 0 0 1
29.384763 -1.763743 23.119430 37.431045 -0.059950 0.905040 0.060710 -0.012552 932197.000000 0 0 1
27.849363 -1.729243 23.491130 36.474792 -0.062013 0.871032 0.060445 -0.007725 1081920.000000 0 0 1
27.303063 -0.412843 23.329030 35.914779 -0.015120 0.863782 0.053299 -0.004799 642713.000000 0 0 1
25.877363 -0.371743 23.496430 34.955090 -0.014365 0.833635 0.060157 -0.013363 1027000.000000 0 0 1
25.321763 1.074757 23.262330 34.401785 0.042419 0.828210 0.055585 -0.000332 6482.880000 0 0 1
25.345663 1.626557 21.963630 33.577513 0.064087 0.857781 0.050797 -0.010298 224548.000000 0 0 1
24.533463 2.800657 21.987330 33.063230 0.113665 0.843291 0.042613 -0.003000 208924.000000 0 0 1
24.496263 3.656657 20.715830 32.289064 0.148180 0.874248 0.039048 -0.008482 205791.000000 0 0 1
23.841863 3.022957 19.584030 31.001725 0.126119 0.887042 0.034033 -0.005504 474449.000000 0 0 1
23.443663 3.944157 18.572630 30.167935 0.166679 0.907597 0.037417 -0.007334 60906.600000 0 0 1
23.190463 3.316357 17.209930 29.068496 0.142042 0.937199 0.037317 -0.008208 506554.000000 0 0 1
24.413963 3.114857 16.483630 29.621850 0.126899 0.980667 0.032522 -0.013486 824018.000000 0 0 1
24.265163 3.390957 15.053130 28.755755 0.138847 1.019863 0.024632 -0.014505 -322801.000000 0 0 1
23.664263 2.299357 14.106730 27.645691 0.096862 1.035299 0.025092 -0.008930 -422873.000000 0 0 1
22.378163 1.836757 14.354730 26.649843 0.081895 1.001972 0.050799 -0.007417 -187139.000000 0 0 1
22.277263 0.615257 13.642230 26.129780 0.027611 1.021491 0.057538 -0.012917 -639194.000000 0 0 1
20.840463 0.025757 13.678930 24.928672 0.001236 0.989961 0.077149 -0.022576 88808.900000 0 1 0
19.933163 0.749857 12.821330 23.712439 0.037601 0.999527 0.092124 -0.016016 786213.000000 0 1 0
20.107863 0.621957 11.437130 23.141325 0.030921 1.053848 0.096964 -0.017994 -1063860.000000 0 1 0
19.820263 -0.801243 10.863530 22.616390 -0.040403 1.069755 0.095703 -0.017461 629875.000000 0 1 0
20.829863 -1.799743 11.237730 23.736235 -0.086188 1.077602 0.071736 -0.018987 1303610.000000 0 1 0
22.064563 -1.776443 10.531830 24.513672 -0.080338 1.126712 0.086078 -0.015176 -88870.700000 0 1 0
23.073963 -2.646743 11.286230 25.822316 -0.114208 1.118455 0.065254 -0.014544 -399466.000000 0 0 1
23.332563 -2.118343 12.583530 26.594005 -0.090541 1.077909 0.051957 -0.022562 128311.000000 0 0 1
23.796463 -3.039943 13.567230 27.560527 -0.127060 1.056100 0.024501 -0.010190 -193539.000000 0 0 1
24.069763 -2.390743 14.946830 28.433728 -0.099001 1.017291 0.049763 -0.020581 -415648.000000 0 0 1
25.177263 -1.552043 14.883230 29.288461 -0.061567 1.037749 0.019750 -0.015628 -361542.000000 0 0 1
25.298463 -0.835343 16.098030 29.997610 -0.033008 1.004342 0.018113 -0.028436 341216.000000 0 0 1
26.665263 -0.097443 16.241130 31.222108 -0.003654 1.023734 0.035687 -0.017500 607513.000000 0 0 1
27.791263 -0.957743 16.104030 32.134271 -0.034448 1.045871 0.038625 -0.021142 674847.000000 0 0 1
28.992463 -0.169443 16.130730 33.178187 -0.005844 1.063078 0.033938 -0.014229 474645.000000 0 0 1
30.273563 -1.022543 16.212730 34.356758 -0.033764 1.079359 0.040041 -0.013262 -70096.100000 0 0 1
30.668763 -1.669843 15.007930 34.184782 -0.054394 1.116285 0.051608 -0.009569 664111.000000 0 0 1
32.051963 -2.028443 15.036530 35.461812 -0.063202 1.132916 0.049892 -0.010839 480951.000000 0 0 1
32.521363 -2.654543 13.697230 35.387847 -0.081444 1.173355 0.057478 -0.011707 -31629.000000 0 0 1
32.432163 -1.704743 12.670430 34.861026 -0.052515 1.198822 0.057264 -0.007008 159027.000000 0 0 1
32.847863 -2.373943 11.480430 34.877184 -0.072145 1.235375 0.052600 -0.008056 4770.050000 0 0 1
32.512363 -1.533443 10.222330 34.115996 -0.047130 1.266487 0.051232 -0.012118 -196510.000000 0 0 1
33.275663 -0.367443 10.144830 34.789687 -0.011042 1.274892 0.042021 -0.003063 565222.000000 0 0 1
32.409263 0.676157 9.716930 33.841339 0.020860 1.279565 0.033822 -0.007724 432678.000000 0 0 1
33.207063 1.963157 9.276830 34.534368 0.059050 1.298830 0.028777 -0.004906 212156.000000 0 0 1
33.453863 2.107857 7.902030 34.439020 0.062925 1.339284 0.022917 -0.002669 295630.000000 0 0 1
33.931563 3.453157 7.602630 34.943887 0.101419 1.351475 0.014876 -0.001740 79085.800000 0 0 1
34.259263 3.647857 6.146530 34.996911 0.106078 1.394250 0.019893 -0.000159 -172213.000000 0 0 1
34.721763 4.937457 5.835930 35.553303 0.141254 1.405904 0.016887 0.006652 65228.900000 0 0 1
34.942763 4.984857 4.429030 35.573329 0.141702 1.445968 0.045754 -0.008605 -78709.100000 0 0 1
35.276563 6.457457 4.033030 36.088779 0.181048 1.458809 0.065733 -0.020841 72638.800000 0 0 1
34.143963 7.283457 4.127730 35.155328 0.210166 1.453111 0.047531 -0.022581 30593.200000 0 0 1
34.541363 8.527257 3.618930 35.761942 0.242031 1.469428 0.056806 -0.035388 -438693.000000 0 0 1
33.348263 9.482757 3.594130 34.856091 0.277043 1.467499 0.047776 -0.039499 532361.000000 0 0 1
32.237563 9.302557 2.702030 33.661535 0.280931 1.490439 0.042156 -0.033650 943190.000000 0 0 1
31.487463 8.063957 2.804230 32.624399 0.250712 1.484735 0.046822 -0.022749 -159012.000000 0 0 1
30.311263 7.899857 1.799030 31.375418 0.254953 1.513426 0.040327 -0.031811 97995.700000 0 0 1
30.706163 8.113457 0.492430 31.763802 0.258325 1.555293 0.051158 -0.027798 426892.000000 0 0 1
29.605663 7.913557 -0.384870 30.647476 0.261192 1.583355 0.050732 -0.019442 189108.000000 0 0 1
30.086563 7.750757 -1.876070 31.125474 0.252133 1.631107 0.038972 -0.013825 298374.000000 0 0 1
29.133063 7.104157 -2.742370 30.111874 0.239184 1.661995 0.048096 -0.018109 1109270.000000 0 0 1
29.728663 6.888457 -4.007470 30.778304 0.227693 1.701371 0.037576 -0.017351 -360793.000000 0 0 1
28.825063 6.138157 -4.985970 29.890150 0.209811 1.738390 0.047351 -0.010055 -484155.000000 0 0 1
28.611563 4.760657 -4.616770 29.370052 0.164879 1.728644 0.048490 -0.016875 928728.000000 0 0 1
27.461863 4.293257 -5.316670 28.299345 0.155080 1.759792 0.042314 -0.018644 -29860.100000 0 0 1
27.322763 2.746857 -5.334170 27.973772 0.100197 1.762656 0.053270 -0.012214 -405596.000000 0 0 1
26.970363 2.252057 -4.027170 27.362206 0.083308 1.718513 0.060237 -0.020891 500735.000000 0 0 1
26.836563 0.858257 -4.121970 27.164836 0.031970 1.723124 0.054422 -0.021821 -123172.000000 0 0 1
26.781763 0.278457 -2.672770 26.916241 0.010397 1.670260 0.059857 -0.030626 -489658.000000 0 0 1
28.000563 0.475357 -2.033370 28.078320 0.016975 1.643278 0.059772 -0.024908 -478088.000000 0 0 1
28.046863 0.112057 -0.647170 28.054552 0.003995 1.593867 0.063891 -0.020967 -49550.800000 0 0 1
29.307863 0.636057 0.089530 29.314901 0.021699 1.567742 0.078546 -0.019773 21799.400000 0 0 1
30.487863 -0.032543 -0.310670 30.489463 -0.001067 1.580986 0.066878 -0.014003 -103553.000000 0 0 1
31.561463 0.670557 0.275930 31.569791 0.021243 1.562056 0.049782 -0.015880 -439426.000000 0 0 1
-2.881737 -21.183343 -8.448853 22.987422 1.435588 1.947161 -0.000500 -0.001356 305731.000000 0 1 0
-3.446137 -21.976143 -7.396553 23.442179 1.415250 1.891804 0.000094 0.001106 -575394.000000 0 1 0
-2.580537 -22.973443 -6.997753 24.153816 1.458938 1.864727 -0.001090 -0.001435 -413633.000000 0 1 0
-3.088037 -23.654343 -5.726053 24.532664 1.440982 1.806375 -0.003309 0.005280 -443791.000000 0 1 0
-2.990337 -22.873643 -4.540053 23.510801 1.440801 1.765122 -0.001530 0.000442 -257648.000000 0 1 0
-3.502637 -23.575143 -3.448953 24.082175 1.423302 1.714507 0.000401 0.001847 -280024.000000 0 1 0
-3.219137 -22.814743 -2.090453 23.135370 1.430623 1.661277 -0.004380 -0.008448 -605738.000000 0 1 0
-1.836537 -22.759343 -2.014853 22.922046 1.490277 1.658810 0.012176 -0.014528 -1201250.000000 0 1 0
-1.382937 -22.481643 -0.689253 22.534682 1.509360 1.601387 0.004126 -0.011370 213901.000000 0 1 0
0.107363 -22.541343 -0.287753 22.543436 -1.566033 1.583561 0.015310 -0.013090 -7360.480000 0 1 0
0.837563 -21.534243 -0.917353 21.570041 -1.531921 1.613338 0.009011 -0.010762 -401017.000000 0 1 0
1.917163 -21.165243 -0.052553 21.251960 -1.480462 1.573269 0.004183 -0.011777 78402.900000 0 1 0
2.783963 -20.031843 -0.644353 20.234633 -1.432704 1.602646 0.010145 -0.015225 53409.000000 0 1 0
3.426763 -20.628143 -1.738753 20.982999 -1.406179 1.653756 0.010619 -0.006842 -1260160.000000 0 1 0
4.465263 -19.818843 -2.129153 20.426904 -1.349193 1.675219 0.017257 -0.003483 -834351.000000 0 1 0
5.408963 -20.331643 -3.182353 21.278157 -1.310782 1.720919 0.012425 -0.003514 -1011690.000000 0 1 0
6.195463 -21.433443 -2.762553 22.481280 -1.289410 1.693990 0.017826 -0.004833 -297602.000000 0 1 0
7.002163 -21.929943 -3.800053 23.332233 -1.261731 1.734392 0.009602 -0.006800 -213102.000000 0 1 0
8.274863 -21.247643 -4.244753 23.193827 -1.199419 1.754846 0.015133 -0.007356 -1151260.000000 0 1 0
7.898063 -20.072643 -4.949053 22.131054 -1.195928 1.796328 0.005127 -0.004197 87313.000000 0 1 0
9.048463 -19.491243 -5.543853 22.192736 -1.136170 1.823275 0.014790 -0.008301 -651274.000000 0 1 0
8.687063 -18.381543 -6.544753 21.358370 -1.129310 1.882232 0.001180 0.000684 -541728.000000 0 1 0
9.574163 -18.178543 -7.612053 21.910440 -1.086038 1.925611 0.004311 0.005352 -27784.900000 0 1 0
9.552863 -16.890343 -8.118753 21.034615 -1.056069 1.967057 0.008772 0.001087 14774.900000 0 1 0
10.300663 -16.769843 -9.454053 21.833699 -1.019974 2.018618 0.011876 -0.005502 -526711.000000 0 1 0
9.614363 -17.436543 -10.522253 22.520809 -1.066885 2.056944 0.015554 -0.003639 112234.000000 0 1 0
9.006763 -16.473843 -11.346853 21.937647 -1.070466 2.114410 0.007842 -0.013205 -159101.000000 0 1 0
8.419363 -17.111543 -12.581953 22.847235 -1.113546 2.153998 0.008899 -0.012700 160159.000000 0 1 0
7.306763 -17.983543 -12.367453 23.016310 -1.184868 2.138070 0.009469 -0.003223 652614.000000 0 1 0
6.740263 -18.410243 -13.643553 23.885451 -1.219838 2.178773 0.014705 -0.001158 -524811.000000 0 1 0
5.454263 -19.175343 -13.548753 24.104180 -1.293674 2.167709 0.013248 0.003401 -911959.000000 0 1 0
5.614863 -20.542943 -13.108153 25.007257 -1.303990 2.122541 0.012886 -0.001417 812474.000000 0 0 1
4.362163 -21.258743 -12.934953 25.264118 -1.368412 2.108295 0.014531 -0.001522 897511.000000 0 0 1
4.550663 -22.752343 -12.651753 26.428101 -1.373393 2.069997 0.021439 -0.009020 3486.060000 0 0 1
4.965463 -23.476143 -13.824653 27.693071 -1.362357 2.093483 0.026179 -0.012356 -90691.600000 0 0 1
4.617763 -24.871243 -13.767953 28.800330 -1.387220 2.069228 0.027407 -0.011672 -132073.000000 0 0 1
3.209663 -25.174283 -14.293753 29.126583 -1.443983 2.083742 0.034280 -0.012985 -216898.000000 0 0 1
2.155463 -24.651443 -13.494853 28.186003 -1.483581 2.070059 0.039797 -0.009115 -10183.700000 0 0 1
0.848963 -24.935243 -13.943453 28.581585 -1.536763 2.080418 0.028659 -0.009659 83929.900000 0 0 1
0.222663 -26.289733 -13.599953 29.599973 -1.562327 2.048182 0.014323 -0.009996 -1163760.000000 0 0 1
0.831363 -27.371633 -14.242953 30.866798 -1.540433 2.050406 0.025020 -0.007487 -68119.800000 0 0 1
0.325263 -28.606963 -13.790553 31.759148 -1.559427 2.019972 0.005130 0.007748 729396.000000 0 0 1
-1.153037 -29.013683 -14.148953 32.300406 1.531076 2.024216 -0.011587 0.002286 824596.000000 0 0 1
-2.156537 -28.475483 -13.315253 31.508725 1.495207 2.007097 -0.006260 -0.005071 -345368.000000 0 0 1
-3.419337 -29.001383 -13.647353 32.233870 1.453436 2.007975 -0.010239 0.005040 -468828.000000 0 0 1
-4.575937 -28.213563 -13.003053 31.401015 1.410007 1.997746 -0.022506 -0.001418 -211994.000000 0 0 1
-4.766337 -28.330473 -11.588953 30.978017 1.404117 1.954225 -0.028288 -0.005036 -45415.200000 0 0 1
-5.220937 -29.617203 -11.086853 32.052383 1.396308 1.923992 -0.024742 -0.006249 -633510.000000 0 0 1
-5.453137 -29.830753 -9.584553 31.803682 1.389990 1.876921 -0.019745 -0.007264 251764.000000 0 0 1
-6.745237 -29.364513 -9.168653 31.493445 1.345006 1.866203 -0.005324 -0.005878 413161.000000 0 0 1
-7.003937 -27.962163 -9.162553 30.247150 1.325367 1.878554 0.000309 -0.005162 159721.000000 0 0 1
-8.502537 -27.578713 -8.807053 30.173544 1.271742 1.866988 0.004459 -0.004846 1423940.000000 0 0 1
-9.523537 -27.719223 -9.786453 30.900288 1.239860 1.893056 0.013915 -0.008814 87145.000000 0 0 1
-9.773937 -29.075623 -10.149853 32.310080 1.246508 1.890346 0.017606 -0.017330 -976332.000000 0 0 1
-10.935337 -29.360753 -11.097553 33.238398 1.214265 1.911210 0.023803 -0.015037 -659261.000000 0 0 1
-10.765337 -28.700553 -12.313053 33.033703 1.211945 1.952759 0.026378 -0.015025 202884.000000 0 0 1
-11.562837 -29.198103 -13.385453 34.137938 1.193731 1.973709 0.032794 -0.010501 -146467.000000 0 0 1
-11.693037 -28.229123 -14.548053 33.841637 1.178093 2.015163 0.039779 -0.010320 227361.000000 0 0 1
-12.840737 -27.373363 -14.519553 33.541064 1.132176 2.018491 0.026402 -0.020080 343527.000000 0 0 1
-12.770137 -26.259643 -13.571653 32.199923 1.118166 2.005874 0.027068 -0.014005 -199541.000000 0 0 1
-13.795537 -25.120733 -13.754953 31.789414 1.068591 2.018270 0.046985 -0.012739 -349361.000000 0 0 1
-13.589737 -24.315743 -14.912153 31.596023 1.061156 2.062312 0.031023 -0.003608 970361.000000 0 0 1
-14.660437 -23.376343 -15.244553 31.524249 1.010654 2.075539 0.035907 -0.005782 693941.000000 0 0 1
-14.289237 -22.633543 -16.615853 31.504701 1.007658 2.126344 0.030980 -0.007310 233091.000000 0 0 1
-13.381337 -21.567043 -16.376553 30.205778 1.015473 2.143809 0.023243 -0.003981 234019.000000 0 0 1
-13.033537 -21.032343 -17.640453 30.387796 1.016024 2.190153 0.015670 0.007316 -188922.000000 0 0 1
-13.275637 -19.506743 -17.800353 29.556863 0.973232 2.217102 0.018575 0.010002 -851367.000000 0 0 1
-12.219237 -18.679243 -17.506253 28.367108 0.991501 2.235889 0.029764 0.013262 -856982.000000 0 0 1
-12.475537 -17.327843 -17.708253 27.739420 0.946793 2.263186 0.030268 0.009994 731905.000000 0 0 1
-11.193037 -16.421543 -17.870153 26.726271 0.972522 2.303170 0.044871 -0.001035 984443.000000 0 0 1
-10.396537 -16.223743 -16.734653 25.521490 1.000900 2.285917 0.038200 0.006001 -570641.000000 0 0 1
-9.127637 -15.687743 -16.949153 24.833301 1.043842 2.321997 0.038063 0.001642 -767449.000000 0 1 0
-8.566237 -14.872843 -15.724953 23.277802 1.048237 2.312485 0.029010 0.002866 -77641.800000 0 1 0
-8.038537 -15.693043 -14.697953 22.954728 1.097408 2.265687 0.031273 0.004794 649042.000000 0 1 0
-6.875537 -16.486143 -14.992353 23.320304 1.175679 2.269060 0.036425 0.001836 169512.000000 0 1 0
-6.322337 -17.322543 -13.793253 23.028163 1.220841 2.213015 0.033947 0.003530 -101415.000000 0 1 0
-5.741137 -16.565543 -12.730253 21.666500 1.237180 2.198830 0.033229 -0.003872 161006.000000 0 1 0
-5.557237 -17.368243 -11.588053 21.606058 1.261125 2.136883 0.025596 -0.006381 -438356.000000 0 1 0
-4.502037 -18.510343 -11.552653 22.279249 1.332211 2.115937 0.027032 -0.008607 212790.000000 0 1 0
-3.189237 -17.924743 -11.558253 21.565270 1.394715 2.136448 0.025202 -0.007383 81303.400000 0 1 0
-2.261337 -19.011943 -11.541153 22.355444 1.452410 2.113271 0.002961 0.001214 -121934.000000 0 1 0
-0.881437 -18.578043 -12.010153 22.139657 1.523387 2.144174 0.005417 0.006007 -1394870.000000 0 1 0
-0.833537 -18.342743 -13.445553 22.758162 1.525385 2.202848 0.009578 0.003164 64151.500000 0 1 0
0.408363 -17.726543 -13.846153 22.496957 -1.547764 2.233776 0.011509 0.005097 1095500.000000 0 1 0
1.605763 -18.737643 -13.836053 23.347679 -1.485308 2.205091 0.010085 0.001827 -592906.000000 0 1 0
1.675463 -19.636443 -14.916553 24.716404 -1.485678 2.218690 0.023344 0.004511 65836.100000 0 1 0
0.842463 -20.773743 -14.787253 25.513154 -1.530264 2.189026 0.010947 -0.002851 -773553.000000 0 0 1
0.839263 -21.686943 -16.054453 26.995802 -1.532117 2.207691 0.014649 -0.006182 945286.000000 0 0 1
2.062963 -22.392743 -16.362253 27.810324 -1.478929 2.199815 0.018201 -0.005672 949934.000000 0 0 1
3.256763 -21.660943 -16.575153 27.468867 -1.421562 2.218574 0.025034 -0.008390 -249230.000000 0 0 1
4.455863 -22.600943 -16.805053 28.514333 -1.376139 2.201056 0.034508 -0.013433 -100094.000000 0 0 1
4.446763 -23.314743 -18.087153 29.841181 -1.382332 2.221962 0.034041 -0.020566 8676.390000 0 0 1
5.732763 -23.855043 -18.290153 30.601591 -1.334952 2.211409 0.037697 -0.019414 191526.000000 0 0 1
6.208663 -23.604443 -19.754853 31.400183 -1.313593 2.251232 0.028670 -0.013920 -91060.600000 0 0 1
6.410363 -22.246243 -20.071153 30.640484 -1.290242 2.285050 0.039047 -0.025212 -4954.670000 0 0 1
6.912463 -22.127643 -21.386353 31.540305 -1.268011 2.315922 0.020022 -0.018935 -13931.200000 0 0 1
7.209863 -20.663143 -21.827453 30.909308 -1.235081 2.354881 0.016544 -0.020610 106590.000000 0 0 1
6.045763 -19.886443 -22.061753 30.310771 -1.275661 2.385981 0.032428 -0.020663 -169.723000 0 0 1
6.266463 -18.549043 -22.496053 29.822944 -1.245002 2.425415 0.035264 -0.015760 169339.000000 0 0 1
4.931263 -17.791743 -22.735953 29.288002 -1.300418 2.459554 0.033028 -0.014995 -214005.000000 0 0 1
4.170963 -18.244943 -23.899353 30.355460 -1.346049 2.477241 0.038677 -0.015039 169459.000000 0 0 1
2.959363 -17.584743 -24.089353 29.971286 -1.404067 2.504364 0.044354 -0.006646 593123.000000 0 0 1
1.821663 -17.757243 -23.001253 29.115216 -1.468567 2.481618 0.031124 0.008571 -232548.000000 0 0 1
1.982563 -16.825043 -21.866653 27.661583 -1.453503 2.482431 0.037513 -0.000702 376581.000000 0 0 1
1.071263 -15.691043 -22.008253 27.050317 -1.502630 2.521121 0.028755 -0.008084 604367.000000 0 0 1
1.216363 -14.598343 -20.881453 25.507377 -1.487666 2.529842 0.029327 -0.015829 163257.000000 0 0 1
2.393263 -13.802443 -20.930853 25.186023 -1.399109 2.551790 0.033663 -0.009839 -74441.000000 0 0 1
2.509463 -12.875743 -19.834653 23.780152 -1.378311 2.557267 0.035309 -0.017910 438045.000000 0 1 0
3.837263 -12.067243 -19.756953 23.466575 -1.262918 2.571626 0.050259 -0.020048 -227306.000000 0 1 0
4.960263 -12.763543 -19.247253 23.621368 -1.200132 2.523222 0.044702 -0.023781 390779.000000 0 1 0
6.126563 -11.933843 -19.177453 23.403549 -1.096504 2.531203 0.041994 -0.020589 422177.000000 0 1 0
6.120563 -10.847043 -18.058353 21.936813 -1.057070 2.537818 0.039306 -0.021455 -499834.000000 0 1 0
5.212663 -9.744943 -18.074553 21.185496 -1.079613 2.592804 0.023253 -0.012068 236190.000000 0 1 0
5.520663 -8.737443 -19.051653 21.674550 -1.007294 2.644531 0.035075 -0.012623 -121882.000000 0 1 0
4.885263 -8.947643 -20.427953 22.830405 -1.071042 2.678711 0.046305 -0.020782 -262715.000000 0 1 0
3.476963 -8.853143 -20.466653 22.568813 -1.196566 2.706558 0.038627 -0.026532 -193722.000000 0 1 0
2.980863 -9.087343 -21.772953 23.780808 -1.253832 2.727715 0.040782 -0.030227 -723336.000000 0 1 0
1.487063 -8.902243 -21.809153 23.602976 -1.405281 2.749209 0.033354 -0.030186 -879808.000000 0 1 0
0.992463 -7.619043 -21.516053 22.846780 -1.441265 2.798606 0.032412 -0.032361 -646122.000000 0 1 0
-0.401837 -7.547243 -21.670853 22.950996 1.517604 2.806023 0.025692 -0.027793 -70439.700000 0 1 0
-0.917237 -6.657743 -22.822353 23.791315 1.433888 2.855212 0.030833 -0.020931 1801.360000 0 1 0
-0.656637 -7.215343 -24.093253 25.159038 1.480041 2.849482 0.030015 -0.020193 -395300.000000 0 0 1
-1.246837 -6.460443 -25.127823 25.974977 1.380145 2.885495 0.031765 -0.022305 80669.900000 0 0 1
-0.644837 -5.042743 -25.429433 25.932627 1.443612 2.944276 0.037980 -0.022268 -163688.000000 0 0 1
-1.197237 -4.591143 -26.627863 27.047275 1.315706 2.965259 0.029771 -0.015858 -192592.000000 0 0 1
-0.934937 -3.307343 -27.061603 27.278985 1.295299 3.015264 0.018669 -0.012799 -789674.000000 0 0 1
-1.331537 -2.106343 -26.167943 26.286326 1.007068 3.046651 0.029362 -0.016398 -578808.000000 0 0 1
-2.680537 -1.762843 -26.101133 26.297568 0.581731 3.019290 0.019842 -0.014058 -580583.000000 0 0 1
-3.135137 -1.078443 -27.248363 27.449325 0.331307 3.020513 0.027714 -0.007318 -996659.000000 0 0 1
-4.654037 -1.158443 -27.308133 27.726092 0.243954 2.967739 0.034268 -0.009647 -603774.000000 0 0 1
-5.187937 -0.180843 -26.449923 26.954514 0.034844 2.947795 0.033978 -0.015251 64612.900000 0 0 1
-6.586437 -0.346743 -26.276733 27.091846 0.052597 2.895670 0.038449 -0.026113 136339.000000 0 0 1
-7.369237 0.773757 -25.562123 26.614404 -0.104615 2.859453 0.042083 -0.022025 -438772.000000 0 0 1
-7.573237 2.033457 -26.221003 27.368410 -0.262318 2.851004 0.048554 -0.023332 954851.000000 0 0 1
-8.536337 2.049157 -27.332433 28.707665 -0.235593 2.830813 0.057624 -0.031188 666010.000000 0 0 1
-10.016237 1.896357 -26.950983 28.814522 -0.187114 2.779977 0.056742 -0.030601 -961140.000000 0 0 1
-10.986537 2.438657 -27.785943 29.978487 -0.218426 2.756764 0.061199 -0.040208 49248.900000 0 0 1
-12.249337 1.890557 -27.451973 30.120281 -0.153131 2.717498 0.043107 -0.025798 106192.000000 0 0 1
-13.419337 2.459957 -28.273863 31.393333 -0.181301 2.692020 0.030946 -0.017233 -529873.000000 0 0 1
-14.678437 1.953257 -27.929843 31.612464 -0.132293 2.654094 0.027262 -0.016678 239146.000000 0 0 1
-15.784337 2.387957 -28.711823 32.851430 -0.150148 2.634150 0.018907 -0.013705 647663.000000 0 0 1
-16.511137 3.674057 -28.242823 32.920714 -0.218953 2.601973 0.016016 0.000830 -309228.000000 0 0 1
-15.659937 4.803857 -28.326103 32.721229 -0.297648 2.617303 0.031350 -0.002514 88259.400000 0 0 1
-15.434937 5.456557 -29.550323 33.782139 -0.339807 2.635679 0.020215 0.001966 -446386.000000 0 0 1
-16.657437 6.051757 -30.258473 35.066639 -0.348480 2.611747 0.002140 0.014186 -16708.200000 0 0 1
-17.333437 7.089857 -29.512233 34.952626 -0.388265 2.576146 0.002949 0.019188 718856.000000 0 0 1
-18.093837 7.925557 -30.414253 36.266075 -0.412851 2.565582 -0.004600 0.017715 24357.600000 0 0 1
-18.858637 9.081057 -29.766963 36.389365 -0.448765 2.528744 0.008069 0.017171 -466430.000000 0 0 1
-18.001037 10.028057 -29.174073 35.717304 -0.508264 2.526647 0.009044 0.020686 157657.000000 0 0 1
-18.668637 11.139557 -28.615033 35.936442 -0.537989 2.491897 0.035109 0.006516 -204982.000000 0 0 1
-8.008637 25.283357 30.751990 40.608759 -1.264039 0.711666 0.019211 -0.008605 -180849.000000 0 0 1
-8.953337 26.352257 30.878430 41.570195 -1.243277 0.733550 0.021668 -0.009372 526361.000000 0 0 1
-8.698337 27.153957 32.085640 42.924198 -1.260790 0.726513 0.018842 -0.012707 -7125.350000 0 0 1
-7.415837 28.005057 32.055400 43.206788 -1.311934 0.734887 0.020141 -0.015984 59933.800000 0 0 1
-7.519137 29.061257 31.120470 43.238614 -1.317614 0.767372 0.033355 -0.009285 298146.000000 0 0 1
-6.293537 29.082557 30.404280 42.542026 -1.357680 0.774618 0.024264 -0.003292 172511.000000 0 0 1
-6.156037 30.157757 29.280280 42.482019 -1.369435 0.810358 0.039915 -0.005269 -278595.000000 0 0 1
-6.035837 31.438057 29.883900 43.793039 -1.381113 0.819770 0.042783 -0.009425 202293.000000 0 0 1
-5.792237 32.481257 28.946710 43.891845 -1.394326 0.850642 0.043242 -0.006919 -78822.700000 0 0 1
-6.082337 33.838357 29.660700 45.406898 -1.392949 0.858967 0.038810 -0.010724 -368399.000000 0 0 1
-5.320637 33.976657 30.834040 46.189397 -1.415461 0.839874 0.047568 -0.022106 -390122.000000 0 0 1
-5.810837 -34.060797 31.758230 46.930682 1.401821 0.827518 0.047827 -0.023818 91546.300000 0 0 1
-7.065237 34.426257 32.554780 47.905098 -1.368379 0.823622 0.021076 -0.014610 237918.000000 0 0 1
-6.858237 33.469357 33.594902 47.915036 -1.368683 0.793808 0.025725 -0.015248 -82613.300000 0 0 1
-6.952837 32.153957 33.010279 46.603620 -1.357839 0.783681 0.031474 -0.012916 -305824.000000 0 0 1
-6.846137 31.093357 34.117268 46.665345 -1.354074 0.750856 0.023869 -0.012165 -938690.000000 0 0 1
-5.618437 30.959657 -34.080026 46.384430 -1.391274 2.396065 0.032573 -0.024279 -1150060.000000 0 0 1
-5.806137 30.481857 -32.762473 45.124655 -1.382573 2.383347 0.031557 -0.024835 -203657.000000 0 0 1
-4.543937 30.172157 -31.912043 44.151839 -1.421319 2.378612 0.037543 -0.026290 499831.000000 0 0 1
-3.735437 29.077757 -32.260523 43.591407 -1.443032 2.403965 0.043581 -0.016843 176788.000000 0 0 1
-2.937237 29.119457 -33.425693 44.427999 -1.470268 2.422428 0.043589 -0.023350 -557270.000000 0 0 1
-2.162837 27.834557 -33.705503 43.766441 -1.493249 2.449829 0.044914 -0.025416 -96198.700000 0 0 1
-1.001037 27.612257 -32.863863 42.935676 -1.534559 2.442491 0.069225 -0.019973 1174510.000000 0 0 1
-0.307837 26.336657 -32.954133 42.186362 -1.559108 2.467312 0.075595 -0.018687 622645.000000 0 0 1
0.163063 25.940157 -34.380175 43.068721 1.564510 2.495202 0.069820 -0.013679 -54034.200000 0 0 1
-1.005837 25.493757 33.723051 42.286966 -1.531363 0.647688 0.053466 -0.016484 685539.000000 0 0 1
-0.806237 25.220057 32.346500 41.024351 -1.538839 0.662478 0.064751 -0.011773 -284056.000000 0 0 1
-0.298737 26.338757 31.408070 40.991295 -1.559455 0.697869 0.045015 -0.013910 70466.800000 0 0 1
-1.273537 27.355257 31.182590 41.500433 -1.524274 0.720646 0.034166 -0.018207 9584.540000 0 0 1
-0.729437 28.642657 30.973060 42.193179 -1.545335 0.746489 0.039276 -0.020299 47589.100000 0 0 1
-1.849637 29.697657 30.804880 42.828876 -1.508594 0.768067 0.041500 -0.026613 204150.000000 0 0 1
-2.638837 29.929457 31.942430 43.852648 -1.482855 0.754807 0.034453 -0.026685 -167648.000000 0 0 1
-3.283337 31.184857 31.805680 44.664045 -1.465897 0.778298 0.036292 -0.025441 -97479.700000 0 0 1
-3.069737 31.997357 33.109406 46.146364 -1.475152 0.770609 0.044207 -0.026178 461260.000000 0 0 1
-1.686637 32.341957 33.158622 46.350201 -1.518693 0.773610 0.057742 -0.039182 108038.000000 0 0 1
-1.318937 33.081357 34.281714 47.658700 -1.530948 0.767978 0.061286 -0.033721 263044.000000 0 0 1
0.174463 33.516557 34.227037 47.904907 1.565591 0.774918 0.054850 -0.038457 439519.000000 0 0 1
0.493563 -34.434497 33.301949 47.906137 -1.556464 0.802168 0.060372 -0.041721 1103280.000000 0 0 1
1.907063 -34.128697 33.242286 47.680755 -1.514976 0.799334 0.038287 -0.031545 1132380.000000 0 0 1
2.279663 -32.719597 32.688250 46.306485 -1.501236 0.787088 0.037252 -0.034373 -226483.000000 0 0 1
1.978263 -31.707297 33.638168 46.268699 -1.508486 0.756828 0.029217 -0.022026 258660.000000 0 0 1
2.063863 -30.429297 33.043414 44.967420 -1.503075 0.745380 0.003077 0.003761 -695940.000000 0 0 1
1.928963 -29.282297 34.083639 44.976308 -1.505017 0.710841 -0.000904 0.011672 -128872.000000 0 0 1
0.597463 -29.175897 -34.275859 45.015824 -1.550321 2.436294 0.000188 0.005613 -12549.500000 0 0 1
0.360663 -28.244897 -33.232883 43.615694 -1.558028 2.437112 -0.007313 0.008684 808772.000000 0 0 1
-1.140737 -27.780097 -33.162803 43.275935 1.529756 2.443875 0.036057 0.014680 910055.000000 0 0 1
-1.654637 -27.423397 -31.901373 42.100809 1.510533 2.430636 0.044656 0.006920 1041200.000000 0 0 1
-2.930737 -26.740797 -32.040433 41.835975 1.461634 2.443172 0.039787 -0.003371 1047410.000000 0 0 1
-3.414637 -26.137997 -30.693713 40.459346 1.440893 2.432006 0.036222 -0.010786 82083.200000 0 0 1
-4.015237 -27.116497 -29.824483 40.508349 1.423791 2.398316 0.036466 -0.000542 -33947.900000 0 0 1
-4.509137 -26.560497 -28.624073 39.308140 1.402631 2.386484 0.041072 -0.004705 -420544.000000 0 0 1
-3.491437 -26.300197 -27.525463 38.230114 1.438815 2.374590 0.041270 -0.019559 -439622.000000 0 0 1
-2.866337 -25.062497 -27.558463 37.360588 1.456923 2.400357 0.032931 -0.010397 -145207.000000 0 0 1
-1.907937 -24.967797 -26.523893 36.476678 1.494529 2.384953 0.029914 -0.010499 -1062370.000000 0 0 1
-0.971637 -23.735597 -26.795173 35.809272 1.529883 2.416254 0.032000 -0.014893 263904.000000 0 0 1
-0.159337 -23.807097 -27.957313 36.720765 1.564104 2.436187 0.008721 -0.007171 31532.500000 0 0 1
0.858663 -24.773997 -27.823343 37.264281 -1.536150 2.413807 0.011447 -0.012643 -878160.000000 0 0 1
1.609363 -25.121097 -29.150973 38.515436 -1.506820 2.429299 -0.008231 -0.007593 919138.000000 0 0 1
2.503763 -24.055697 -29.605393 38.228585 -1.467088 2.456611 -0.013742 -0.005491 1070000.000000 0 0 1
3.217463 -24.244697 -30.841703 39.362013 -1.438859 2.471139 -0.016512 -0.001464 273358.000000 0 0 1
4.341563 -23.167197 -31.027243 38.964830 -1.385544 2.491931 -0.010328 0.000696 -261179.000000 0 0 1
5.469363 -23.226197 -30.172313 38.467371 -1.339527 2.472462 -0.006165 -0.007894 1028690.000000 0 0 1
6.527863 -24.158997 -30.479263 39.436729 -1.306894 2.454140 0.005702 -0.002205 520588.000000 0 0 1
7.153963 -24.165397 -31.908733 40.660950 -1.282975 2.473091 -0.000935 -0.000016 -807670.000000 0 0 1
6.291963 -24.842897 -32.818333 41.638940 -1.322742 2.478617 -0.017516 0.002971 122567.000000 0 0 1
6.569063 -24.668797 -34.215852 42.689889 -1.310545 2.500592 -0.005065 0.003394 -196642.000000 0 0 1
6.051563 -23.342997 33.999902 41.683453 -1.317135 0.616912 0.006255 0.002988 577735.000000 0 0 1
4.619263 -23.447697 33.920117 41.493450 -1.376284 0.613772 0.003420 0.003652 414235.000000 0 0 1
4.255463 -22.438297 33.047986 40.171576 -1.383371 0.604703 0.025347 -0.013494 -615841.000000 0 0 1
2.835063 -21.908497 33.313868 39.972911 -1.442107 0.585545 0.000083 -0.015466 -188521.000000 0 0 1
1.719163 -22.729897 33.115155 40.202204 -1.495306 0.602864 0.003791 -0.008254 -139871.000000 0 0 1
1.497363 -23.750197 34.040561 41.534007 -1.507833 0.610114 -0.004108 -0.000861 -374631.000000 0 0 1
0.273563 -24.645997 33.709698 41.759355 -1.559697 0.631340 0.012295 0.004437 363202.000000 0 0 1
0.467263 -25.532897 32.614570 41.422908 -1.552498 0.664288 0.006635 -0.001492 -336110.000000 0 0 1
-0.773337 -26.001097 32.170750 41.371636 1.541063 0.679950 0.009547 -0.007461 -228194.000000 0 0 1
-0.726837 -27.218697 31.309680 41.493154 1.544099 0.715791 0.018594 -0.017485 241376.000000 0 0 1
-1.940937 -27.296197 30.566370 41.026243 1.499809 0.730195 0.030307 -0.023685 370905.000000 0 0 1
-1.999337 -28.317597 29.629190 41.033798 1.500309 0.764010 0.032426 -0.027787 -487381.000000 0 0 1
-3.373137 -28.400897 28.973420 40.711768 1.452581 0.778921 0.046324 -0.018862 483341.000000 0 0 1
-4.438037 -28.921297 29.846660 41.796659 1.418532 0.775470 0.055410 -0.019713 736857.000000 0 0 1
-5.554637 -29.172697 29.017930 41.520363 1.382643 0.796960 0.030607 -0.010830 -421022.000000 0 0 1
-6.770837 -29.589097 29.870740 42.586618 1.345841 0.793421 0.017722 -0.005295 -574563.000000 0 0 1
-7.872037 -30.023197 29.123460 42.562158 1.314370 0.817212 0.038776 -0.005843 18915.000000 0 0 1
-9.061937 -30.272597 29.847460 43.467456 1.279941 0.813909 0.027976 -0.002334 3704.750000 0 0 1
-9.114737 -31.449697 30.933630 45.044992 1.288705 0.813819 0.011821 0.010145 -632600.000000 0 0 1
-8.934737 -32.793797 30.476370 45.651635 1.304800 0.839835 0.027941 0.002481 -15042.400000 0 0 1
-10.011637 -33.174397 29.684220 45.628132 1.277700 0.862464 0.033066 -0.000533 -461622.000000 0 0 1
-9.882937 34.303057 29.209790 46.125741 -1.290286 0.885032 0.044195 -0.004009 -207941.000000 0 0 1
-10.081537 33.411557 30.351130 46.251061 -1.277746 0.854991 0.034666 -0.001548 315221.000000 0 0 1
-9.869537 32.084657 29.898940 44.953082 -1.272373 0.843149 0.037677 -0.008541 221462.000000 0 0 1
-10.463537 30.953957 30.864030 44.946873 -1.244820 0.813887 0.037233 0.000848 1559870.000000 0 0 1
-11.915537 30.887657 30.921800 45.301050 -1.202617 0.819503 0.029113 0.007213 1304110.000000 0 0 1
-12.398637 29.639557 31.377490 44.908534 -1.174603 0.797221 0.030730 0.004810 50321.300000 0 0 1
-12.414637 29.480457 32.901161 45.887983 -1.172222 0.771324 0.030497 -0.004751 -512465.000000 0 0 1
-13.512537 30.116757 33.490040 47.023297 -1.149048 0.778168 0.029134 0.006426 52727.200000 0 0 1
-13.553937 29.749357 -33.918583 47.108425 -1.143292 2.374614 0.024211 0.004751 -366702.000000 0 0 1
-14.833137 30.253957 -33.269143 47.351449 -1.114949 2.349842 0.016777 0.006270 -430816.000000 0 0 1
-14.887537 29.927057 -31.880153 46.191034 -1.109182 2.332535 0.015139 0.000324 -389104.000000 0 0 1
-16.128137 30.245957 -31.315683 46.428512 -1.080917 2.311073 0.018509 0.006820 -185079.000000 0 0 1
-16.176337 29.815057 -29.884053 45.206948 -1.073686 2.293014 0.028849 -0.001501 -214780.000000 0 0 1
-16.324137 28.400057 -29.748783 44.249642 -1.049118 2.308100 0.019201 -0.007575 56610.100000 0 0 1
-16.177637 27.967657 -28.395623 43.014151 -1.046380 2.291810 0.015737 -0.007444 -323419.000000 0 0 1
-16.771537 26.603957 -28.207383 42.245845 -1.008312 2.301906 -0.006321 -0.010449 507493.000000 0 0 1
-18.191937 26.626557 -28.381503 42.958466 -0.971417 2.292511 -0.002767 -0.004767 397578.000000 0 0 1
-18.702137 25.380357 -27.898013 42.097881 -0.935749 2.295207 -0.013477 -0.006498 234204.000000 0 0 1
-20.149937 25.047557 -28.348283 42.860532 -0.893337 2.293490 0.005338 -0.008760 605770.000000 0 0 1
-21.140237 25.662057 -27.492023 43.142347 -0.881715 2.261708 0.013864 -0.007952 1233120.000000 0 0 1
-22.448637 25.113357 -27.778723 43.660960 -0.841366 2.260407 0.028227 -0.012590 1489180.000000 0 0 1
-23.455937 25.212257 -26.574573 43.497665 -0.821470 2.228047 0.052006 -0.016578 271321.000000 0 0 1
-23.956637 26.483157 -26.328033 44.367143 -0.835446 2.206089 0.029136 -0.002931 -241141.000000 0 0 1
-24.984737 26.484257 -25.344433 44.362070 -0.814524 2.178896 0.031216 0.006834 97334.400000 0 0 1
-24.729037 26.094557 -23.886953 43.162921 -0.812260 2.157254 0.018458 0.006348 -810488.000000 0 0 1
-24.617637 24.681457 -23.696553 42.151263 -0.786693 2.167814 0.023343 0.002502 277403.000000 0 0 1
-25.819867 23.927257 -23.466953 42.306939 -0.747372 2.158779 0.021654 0.001252 492057.000000 0 0 1
-26.512427 24.175457 -22.053953 42.115773 -0.739326 2.121927 0.018632 0.001790 110279.000000 0 0 1
-25.795607 23.709457 -20.902053 40.797641 -0.743283 2.108698 0.016584 0.000860 322347.000000 0 0 1
-24.666637 24.529957 -20.613153 40.435923 -0.782620 2.105718 0.014003 0.008212 124156.000000 0 0 1
-23.895237 23.982657 -19.393653 39.016201 -0.787224 2.091011 0.011089 -0.001478 -60434.200000 0 0 1
-24.634637 24.108857 -18.222053 38.989044 -0.774612 2.057102 0.006760 -0.007966 1136170.000000 0 0 1
-23.645837 23.847357 -17.144853 37.706340 -0.789641 2.042825 0.011421 -0.016303 1170580.000000 0 0 1
-24.118637 24.014057 -15.681453 37.473878 -0.783225 2.002549 0.006498 -0.010493 -350156.000000 0 0 1
-24.393837 25.360757 -15.284453 38.364590 -0.804829 1.980568 0.002385 -0.015032 12919.300000 0 0 1
-24.851337 25.481657 -13.945053 38.227847 -0.797920 1.944201 -0.018650 -0.010216 -253219.000000 0 0 1
-25.230897 26.856757 -13.460553 39.230983 -0.816602 1.921023 -0.017612 -0.010434 -795918.000000 0 0 1
-24.168337 27.745357 -13.524053 39.202211 -0.854193 1.923016 -0.002340 -0.012071 -440544.000000 0 0 1
-24.116537 28.489857 -12.421053 39.339063 -0.868340 1.892036 0.003755 -0.009094 13210.200000 0 0 1
-22.708037 29.083757 -12.150953 38.847980 -0.907885 1.888917 0.016851 -0.015277 194695.000000 0 0 1
-21.806437 28.068257 -11.702653 37.420580 -0.910296 1.888865 0.015395 -0.022091 484982.000000 0 0 1
-20.860837 28.552857 -10.741753 36.957075 -0.939825 1.865707 0.025192 -0.022878 397322.000000 0 0 1
-20.186437 27.356857 -9.967053 35.429254 -0.935089 1.855969 0.046298 -0.025192 -8422.940000 0 0 1
-19.499737 26.542757 -10.887453 34.688533 -0.937189 1.890055 0.038388 -0.027377 89201.500000 0 0 1
-18.906837 25.460657 -10.150253 33.297765 -0.932054 1.880559 0.040305 -0.020065 -191552.000000 0 0 1
-18.103037 24.579857 -11.153353 32.500563 -0.935992 1.921091 0.033090 -0.018414 -432847.000000 0 0 1
-17.915437 23.274157 -10.664553 31.247111 -0.914770 1.919093 0.018009 -0.017009 169406.000000 0 0 1
-17.236837 22.432357 -11.575053 30.566338 -0.915628 1.959173 0.043433 -0.008427 -56493.500000 0 0 1
-16.839537 21.065057 -11.025053 29.135175 -0.896418 1.958875 0.025326 0.002045 267280.000000 0 0 1
-17.926537 20.206857 -10.707853 29.057459 -0.845126 1.948198 0.006384 0.010149 169685.000000 0 0 1
-17.379537 18.944757 -10.459053 27.755070 -0.828462 1.957172 0.028215 0.000435 -448485.000000 0 0 1
-18.392337 17.747557 -10.506653 27.634102 -0.767559 1.960815 0.016271 0.010425 278773.000000 0 0 1
-18.777837 17.358757 -11.837553 28.179093 -0.746148 2.004333 0.001251 0.017302 197484.000000 0 0 1
-19.549737 18.333657 -12.516453 29.580007 -0.753309 2.007703 -0.000508 0.020881 -695796.000000 0 0 1
-20.360137 17.903157 -13.781553 30.413639 -0.721274 2.041078 0.016028 0.011190 420637.000000 0 0 1
-19.512037 17.345957 -14.791353 30.006432 -0.726697 2.086261 0.028940 0.005795 263561.000000 0 0 1
-20.238137 17.221757 -15.977153 31.007105 -0.705049 2.112124 0.042018 -0.000038 -42644.600000 0 0 1
-19.344037 17.023157 -17.211253 30.987205 -0.721667 2.159677 0.054547 -0.007488 -382843.000000 0 0 1
-18.534137 18.108157 -17.537853 31.288910 -0.773773 2.165802 0.041043 -0.011729 -296591.000000 0 0 1
-17.762537 17.807857 -18.678253 31.328974 -0.786672 2.209553 0.035245 -0.004304 -662154.000000 0 0 1
-16.672437 18.829557 -18.999353 31.519800 -0.846084 2.217771 0.012238 0.007953 -449884.000000 0 0 1
-15.659037 18.804357 -18.027153 30.393873 -0.876412 2.205722 0.017091 0.004695 -440345.000000 0 0 1
-14.608137 19.671757 -18.309953 30.588071 -0.932052 2.212546 0.014293 0.004880 -243405.000000 0 0 1
31.851141 31.274157 2.441347 44.704902 0.776258 1.516159 0.020662 0.001018 1320190.000000 0 0 1
33.250441 31.356757 2.078247 45.751034 0.756096 1.525356 0.013385 -0.001373 1035000.000000 0 0 1
33.318191 31.665857 0.682847 45.970585 0.759977 1.555942 0.004056 0.008298 317120.000000 0 0 1
34.679351 31.647757 -0.070153 46.949365 0.739723 1.572291 -0.005073 0.005268 214831.000000 0 0 1
-35.435999 32.601457 0.339047 48.152674 -0.743761 1.563755 -0.009888 0.000255 134946.000000 0 0 1
-34.235705 32.498557 -0.399953 47.205928 -0.759373 1.579269 -0.010886 -0.000440 539112.000000 0 0 1
-33.030977 33.405157 0.031347 46.978196 -0.791030 1.570129 -0.009697 -0.000388 388098.000000 0 0 1
-32.567817 33.096857 1.317347 46.452126 -0.793455 1.542433 -0.020754 0.000684 -298443.000000 0 0 1
-31.985017 34.278757 1.766347 46.916889 -0.820000 1.533139 -0.013354 0.001245 -523638.000000 0 0 1
-31.233937 34.028657 3.080347 46.292514 -0.828195 1.504206 -0.002814 0.007283 -433116.000000 0 0 1
-30.846567 -33.725697 3.704347 45.854722 0.829956 1.489924 0.001440 0.011640 -137306.000000 0 0 1
-30.203097 -33.953797 4.930947 45.709973 0.843793 1.462711 0.018491 -0.005010 -339980.000000 0 0 1
-30.053927 -32.659097 5.883147 44.771269 0.826915 1.439011 0.023357 -0.005057 931751.000000 0 0 1
-31.302637 -32.111497 6.387047 45.296773 0.798153 1.429320 0.015936 -0.008208 839708.000000 0 0 1
-31.777037 -32.856297 7.493147 46.319149 0.802095 1.408310 0.016418 -0.016166 65070.300000 0 0 1
-33.016007 -32.168797 8.206747 46.821351 0.772402 1.394608 0.031156 -0.019698 616638.000000 0 0 1
-34.210644 -31.966797 7.526447 47.422481 0.751505 1.411412 0.012964 -0.010757 -358079.000000 0 0 1
-34.967623 -33.138397 7.343847 48.732126 0.758546 1.419522 0.006448 -0.015264 -1481910.000000 0 0 1
34.595691 -32.992497 7.157847 48.338406 -0.761683 1.422172 0.004223 -0.011362 -530050.000000 0 0 1
33.857791 -32.991697 8.407047 48.015420 -0.772443 1.394799 0.005013 -0.004909 -473721.000000 0 0 1
32.512281 -32.756197 8.236747 46.881349 -0.789135 1.394186 -0.008230 -0.000008 -1273400.000000 0 0 1
31.696251 -33.075997 9.492247 46.784363 -0.806696 1.366484 -0.016707 -0.007546 191281.000000 0 0 1
30.321381 -32.702997 9.298447 45.555826 -0.823169 1.365241 -0.007048 -0.009651 1104380.000000 0 0 1
29.541241 -32.696497 10.513347 45.302056 -0.836052 1.336589 -0.002894 -0.002980 199857.000000 0 0 1
29.836201 -31.406597 11.324947 44.775302 -0.811035 1.315090 -0.001570 -0.002956 -671339.000000 0 0 1
29.366421 -30.233097 10.761447 43.499834 -0.799939 1.320810 0.004672 -0.007713 -137012.000000 0 0 1
29.737541 -29.813797 9.463847 43.159567 -0.786679 1.349724 0.015429 -0.018400 -577526.000000 0 0 1
29.144311 -28.486897 9.132547 41.764789 -0.773991 1.350349 0.017315 -0.019530 -574743.000000 0 0 1
29.409571 -27.936097 7.853947 41.316254 -0.759709 1.379539 0.023497 -0.027731 -202343.000000 0 0 1
29.035091 -26.573897 7.785947 40.122680 -0.741168 1.375504 0.021303 -0.022632 -182966.000000 0 0 1
29.364921 -25.895097 6.451347 39.679649 -0.722690 1.407486 0.021299 -0.014838 713598.000000 0 0 1
30.735651 -25.720397 6.065947 40.534119 -0.696796 1.420582 0.024757 -0.014713 322223.000000 0 0 1
30.798191 -25.313797 4.713247 40.143886 -0.687967 1.453116 0.021412 -0.010514 390497.000000 0 0 1
32.238601 -24.961397 4.250547 40.993486 -0.658854 1.466921 0.029655 -0.007623 679249.000000 0 0 1
33.093021 -26.090097 4.046447 42.334560 -0.667619 1.475068 0.016803 -0.009617 -678805.000000 0 0 1
34.412571 -25.721397 3.769847 43.128031 -0.641862 1.483274 0.024391 -0.012350 -482661.000000 0 0 1
35.222290 -26.987797 3.971447 44.550233 -0.653797 1.481532 0.026837 -0.014931 -389825.000000 0 0 1
35.053102 -27.454697 5.310547 44.840632 -0.664432 1.452086 0.013871 -0.003626 -35555.600000 0 0 1
-35.481986 -28.753197 5.402547 45.988098 0.681026 1.453047 0.012033 -0.004472 -834066.000000 0 0 1
34.794501 -29.569197 6.486447 46.120155 -0.704392 1.429686 0.007071 -0.005849 882031.000000 0 0 1
33.545391 -30.089297 6.014547 45.462444 -0.731140 1.438110 -0.001084 -0.005888 1065500.000000 0 0 1
32.415901 -29.236597 6.263847 44.099944 -0.733876 1.428277 0.007756 -0.003297 32188.700000 0 0 1
31.083451 -29.605897 5.632747 43.294548 -0.761057 1.440324 0.010001 -0.014639 -1128610.000000 0 0 1
30.989451 -29.479497 4.187047 42.975786 -0.760433 1.473213 0.006916 -0.023501 843202.000000 0 0 1
29.674991 -29.103897 3.717647 41.730838 -0.775682 1.481592 0.016961 -0.023318 993770.000000 0 0 1
28.483151 -30.031097 3.981647 41.581368 -0.811846 1.474894 0.027427 -0.019152 -542928.000000 0 0 1
28.541751 -31.317197 3.386347 42.507243 -0.831731 1.491047 0.025342 -0.011929 -493011.000000 0 0 1
27.298561 -31.939997 3.570547 42.167803 -0.863590 1.486020 0.028289 -0.009915 -301806.000000 0 0 1
27.265511 -33.362397 3.015447 43.192019 -0.885624 1.500925 0.023946 0.000753 -170353.000000 0 0 1
27.304731 -33.394697 1.609447 43.166474 -0.885393 1.533503 0.026002 0.009655 158415.000000 0 0 1
27.414631 34.291057 1.027247 43.914620 0.896379 1.547402 0.016501 0.012277 -225385.000000 0 0 1
27.135181 34.302957 -0.453553 43.740332 0.901540 1.581166 0.012256 0.005237 -221056.000000 0 0 1
28.158271 -34.209697 -1.311953 44.327337 -0.882123 1.600398 0.012932 -0.001610 -86795.400000 0 0 1
27.820981 34.416857 -2.647353 44.334360 0.890983 1.630545 0.022190 -0.006480 23894.100000 0 0 1
28.860661 -33.959697 -3.654053 44.716338 -0.866389 1.652604 0.017941 -0.003334 232401.000000 0 0 1
28.754731 -32.589397 -3.880253 43.634387 -0.847828 1.659840 0.023115 -0.013321 113466.000000 0 0 1
29.612281 -32.116397 -4.905853 43.959271 -0.825942 1.682629 0.009587 -0.008792 -307791.000000 0 0 1
29.881451 -30.607497 -4.871653 43.051748 -0.797401 1.684197 0.015205 -0.007002 -176623.000000 0 0 1
28.774521 -29.769497 -5.199453 41.728052 -0.802392 1.695724 0.006096 -0.018048 120242.000000 0 0 1
29.024981 -28.383197 -5.248153 40.934075 -0.774219 1.699360 0.011316 -0.020603 310323.000000 0 0 1
30.235971 -27.819397 -6.081753 41.534570 -0.743797 1.717751 0.028852 -0.020353 790230.000000 0 0 1
31.534861 -28.097997 -5.556053 42.600641 -0.727828 1.701591 0.031870 -0.022083 567826.000000 0 0 1
32.653691 -27.568797 -6.253653 43.190396 -0.701163 1.716100 0.035742 -0.025827 363282.000000 0 0 1
33.023511 -28.251697 -7.587153 44.116613 -0.707680 1.743635 0.035036 -0.005351 -478467.000000 0 0 1
31.978231 -28.213797 -8.579853 43.499879 -0.722939 1.769337 0.027061 -0.009411 321461.000000 0 0 1
31.972381 -29.181597 -9.646453 44.349214 -0.739794 1.790060 0.011840 0.002022 140211.000000 0 0 1
31.658011 -30.664197 -9.189853 45.021951 -0.769453 1.776360 0.005073 0.003855 695158.000000 0 0 1
32.783301 -31.183397 -8.450153 46.027754 -0.760392 1.755432 0.017034 -0.001274 191249.000000 0 0 1
32.610991 -32.442897 -7.865453 46.667801 -0.782814 1.740146 0.014088 -0.008932 591349.000000 0 0 1
33.813751 -32.981497 -6.999753 47.750869 -0.772939 1.717915 0.013360 -0.010763 365064.000000 0 0 1
33.535361 -34.183897 -6.336953 48.304412 -0.794975 1.702363 0.009916 -0.015375 142908.000000 0 0 1
32.777911 -34.148797 -5.115253 47.609848 -0.805879 1.678445 0.017451 -0.011539 -10933.400000 0 0 1
32.666591 33.488257 -4.278153 46.977358 0.797818 1.661991 -0.005362 -0.004806 -515375.000000 0 0 1
31.880271 32.526657 -4.873453 45.804865 0.795434 1.677394 -0.010067 -0.010727 -158815.000000 0 0 1
32.347001 31.194157 -4.638553 45.176544 0.767257 1.673654 -0.015153 0.001858 21839.800000 0 0 1
31.261801 30.183357 -5.018053 43.743755 0.767849 1.685764 -0.006319 -0.006342 84722.100000 0 0 1
30.994931 30.111557 -6.427553 43.688729 0.770943 1.718454 -0.018313 -0.001517 764236.000000 0 0 1
29.640481 29.724057 -6.722353 42.511971 0.786806 1.729591 -0.030434 -0.002063 728677.000000 0 0 1
29.278771 29.483957 -8.250953 42.363055 0.788890 1.766817 -0.029196 0.003530 -192277.000000 0 0 1
29.744531 28.225957 -8.782153 41.935283 0.759208 1.781780 -0.022573 0.004148 114448.000000 0 0 1
29.879641 28.207957 -10.167453 42.330354 0.756627 1.813361 -0.030737 0.000394 -425623.000000 0 0 1
31.044661 28.962857 -10.774653 43.803096 0.750720 1.819326 -0.009896 0.000270 -1461070.000000 0 0 1
32.310511 28.482957 -10.450153 44.322158 0.722521 1.808815 -0.021494 -0.001870 -173147.000000 0 0 1
33.402011 29.236357 -10.951853 45.720914 0.718993 1.812685 -0.006566 -0.003631 220176.000000 0 0 1
33.645551 30.682057 -10.372553 46.701195 0.739362 1.794769 0.005763 -0.007890 -1356100.000000 0 0 1
34.341751 30.649657 -9.169753 46.934441 0.728650 1.767435 -0.009350 -0.004965 102069.000000 0 0 1
34.369241 31.943757 -8.524453 47.689775 0.748838 1.750510 -0.005269 -0.008389 -1260060.000000 0 0 1
35.399098 32.025557 -7.384253 48.303826 0.735406 1.724269 0.009516 -0.005136 90473.000000 0 0 1
-34.314349 32.177357 -7.793853 47.682292 -0.753270 1.734987 0.013399 -0.010454 -166461.000000 0 0 1
-33.686127 31.013657 -8.288353 46.532772 -0.744116 1.749870 0.018956 -0.011303 99979.800000 0 0 1
-32.207007 31.398857 -8.712553 45.815806 -0.772693 1.762126 0.040965 -0.016107 874841.000000 0 0 1
-31.313597 31.632557 -7.606053 45.155421 -0.790465 1.740045 0.046760 -0.014622 638462.000000 0 0 1
-29.993457 31.980657 -7.996853 44.568145 -0.817452 1.751203 0.042425 -0.026968 -40222.100000 0 0 1
-29.597797 33.246457 -8.743253 45.362991 -0.843392 1.764750 0.023990 -0.017993 -845269.000000 0 0 1
-29.721427 -34.456797 -8.117353 46.222565 0.859049 1.747326 0.019697 -0.013465 268723.000000 0 0 1
-28.728997 -34.173897 -7.128053 45.210835 0.871743 1.729119 0.028638 -0.023530 225384.000000 0 0 1
-28.905497 -32.757097 -6.545553 44.174647 0.847780 1.719518 0.019319 -0.015591 188729.000000 0 0 1
-29.932987 -32.553597 -5.609453 44.577868 0.827312 1.696966 0.018082 -0.019313 133786.000000 0 0 1
-29.505797 -33.196197 -4.375353 44.628727 0.844187 1.668993 0.028122 -0.016540 -364436.000000 0 0 1
-30.571837 -33.338397 -3.327253 45.355888 0.828659 1.644221 0.033869 -0.012176 -498303.000000 0 0 1
-31.128677 -32.093697 -2.960253 44.808069 0.800661 1.636910 0.025910 -0.013045 305631.000000 0 0 1
-32.179647 -32.202597 -1.996253 45.568871 0.785755 1.614618 0.022881 -0.013036 343296.000000 0 0 1
-32.871687 -30.826597 -1.676453 45.095869 0.753303 1.607980 0.031056 -0.012187 207680.000000 0 0 1
-33.819087 -30.866297 -0.631853 45.791464 0.739781 1.584595 0.027211 -0.008745 -335668.000000 0 0 1
-34.586944 -29.682897 -0.574053 45.581363 0.709242 1.583391 0.041873 -0.013968 89207.000000 0 0 1
-35.400512 -29.597097 0.767447 46.149468 0.696348 1.554166 0.027441 -0.013136 -837001.000000 0 0 1
34.644161 -30.578897 0.824147 46.216513 -0.723150 1.552963 0.014025 -0.009106 424958.000000 0 0 1
33.550901 -30.340797 1.721947 45.268002 -0.735197 1.532748 0.004901 -0.009594 815278.000000 0 0 1
32.729941 -28.998597 1.543247 43.755563 -0.725024 1.535519 0.004124 -0.004514 -1117150.000000 0 0 1
31.897731 -29.045797 0.412347 43.142712 -0.738636 1.561238 -0.002323 -0.009968 131071.000000 0 0 1
31.169421 -27.821997 0.324347 41.781593 -0.728715 1.563033 0.000104 -0.010710 -183418.000000 0 0 1
29.968681 -27.743297 -0.676553 40.844462 -0.746857 1.587361 -0.001716 -0.009455 292518.000000 0 0 1
28.768391 -28.302897 -0.172253 40.357205 -0.777242 1.575065 0.000607 -0.003785 -38528.200000 0 0 1
28.598021 -29.681797 -0.038853 41.217198 -0.803992 1.571739 0.009151 -0.004249 -666047.000000 0 0 1
28.100051 -30.449397 -1.271753 41.453540 -0.825502 1.601480 0.006719 -0.021857 798234.000000 0 0 1
26.757751 -30.003097 -1.573353 40.232307 -0.842512 1.609913 0.021484 -0.017984 867382.000000 0 0 1
26.478441 -30.045597 -2.998153 40.160113 -0.848423 1.645521 0.019384 -0.013497 -723701.000000 0 0 1
25.034071 -30.439497 -3.283853 39.548089 -0.882533 1.653926 0.033826 -0.015322 -503983.000000 0 0 1
24.120471 -29.367197 -3.044253 38.124754 -0.883178 1.650731 0.038128 -0.016938 -217685.000000 0 0 1
22.921371 -29.896597 -3.585053 37.842415 -0.916700 1.665675 0.031773 -0.013672 -95932.100000 0 0 1
21.808071 -28.826597 -3.765353 36.342022 -0.923132 1.674591 0.030487 -0.016574 117821.000000 0 0 1
21.939971 -28.020597 -4.897153 35.923506 -0.906511 1.707544 0.036683 -0.024251 295399.000000 0 0 1
21.069271 -26.887397 -4.794453 34.493957 -0.906129 1.710242 0.035442 -0.024870 156980.000000 0 0 1
20.660871 -26.234997 -6.124353 33.950764 -0.903705 1.752179 0.045859 -0.039014 -182147.000000 0 0 1
19.516671 -26.762097 -6.788153 33.811083 -0.940698 1.772937 0.048993 -0.037238 -55313.800000 0 0 1
19.005371 -25.845297 -7.769853 33.008395 -0.936737 1.808416 0.058484 -0.030138 398417.000000 0 0 1
17.484371 -26.083797 -7.978053 32.399337 -0.980272 1.819596 0.055478 -0.023842 354591.000000 0 0 1
16.807471 -25.670297 -6.787453 31.424906 -0.991093 1.788502 0.046659 -0.023289 660041.000000 0 0 1
15.377571 -25.747497 -6.885453 30.770323 -1.032405 1.796476 0.038055 -0.023422 1065340.000000 0 0 1
14.616171 -24.832597 -5.848753 29.402351 -1.038810 1.771053 0.024862 -0.015036 249243.000000 0 0 1
14.756371 -25.303397 -4.520753 29.638650 -1.042838 1.723923 0.023351 -0.007691 137981.000000 0 0 1
14.182771 -24.360197 -3.633553 28.421346 -1.043560 1.698993 0.016334 -0.003022 66370.300000 0 0 1
14.101371 -24.840097 -2.125053 28.642537 -1.054476 1.645057 0.018959 0.000043 403350.000000 0 0 1
13.248671 -26.003597 -1.996753 29.252373 -1.099583 1.639109 0.020228 0.001955 312994.000000 0 0 1
13.969971 -27.218397 -2.113953 30.667084 -1.096601 1.639783 0.023943 -0.005331 -710509.000000 0 0 1
13.166171 -28.484697 -2.262953 31.461834 -1.137828 1.642785 0.020003 0.005111 -603080.000000 0 0 1
12.320871 -28.686597 -1.160153 31.242129 -1.165121 1.607939 0.032924 -0.011387 -127566.000000 0 0 1
11.615971 -29.922297 -1.177053 32.119466 -1.200500 1.607451 0.028449 -0.010662 -40028.100000 0 0 1
12.431171 -31.146297 -0.664353 33.542021 -1.191047 1.590604 0.029846 -0.011280 385903.000000 0 0 1
13.488271 -31.454797 -1.593553 34.261890 -1.165699 1.617324 0.026038 -0.005908 39549.200000 0 0 1
14.033871 -32.696197 -1.301653 35.604566 -1.165356 1.607363 0.025421 -0.007439 -262127.000000 0 0 1
15.387671 -32.915597 -2.024653 36.391155 -1.133494 1.626461 0.029268 -0.002918 471177.000000 0 0 1
16.410371 -32.108197 -1.440653 36.087561 -1.098311 1.610728 0.025197 0.006577 343547.000000 0 0 1
17.583471 -31.907897 -2.207753 36.498856 -1.067132 1.631322 0.027836 0.006271 131303.000000 0 0 1
18.555371 -30.864097 -1.626653 36.049137 -1.029498 1.615935 0.030788 0.001678 -130234.000000 0 0 1
18.093271 -29.549697 -1.842853 34.697942 -1.021382 1.623933 0.022909 -0.005052 208890.000000 0 0 1
18.440171 -28.672897 -0.734153 34.098591 -0.999271 1.592328 0.021323 0.000791 -301805.000000 0 0 1
17.626771 -27.377597 -0.712653 32.569061 -0.998764 1.592679 0.009888 0.001079 -336166.000000 0 0 1
17.941171 -26.376597 -1.678353 31.944129 -0.973488 1.623361 0.023493 -0.005777 30612.200000 0 0 1
17.560371 -26.607197 -3.000753 32.020526 -0.987433 1.664647 0.028556 -0.006087 -438222.000000 0 0 1
31.423821 -29.033297 13.928047 44.993103 -0.745878 1.256066 -0.007352 -0.010130 109531.000000 0 0 1
32.200331 -29.593197 14.991547 46.231646 -0.743232 1.240556 0.006490 -0.003194 157033.000000 0 0 1
31.459651 -29.948797 16.109347 46.326571 -0.760800 1.215643 0.008633 0.000417 170349.000000 0 0 1
32.415521 -30.678097 17.141647 47.809494 -0.757868 1.204092 0.006063 0.001558 449577.000000 0 0 1
31.760211 -31.013097 18.332647 48.027171 -0.773497 1.179146 0.002976 0.001497 348511.000000 0 0 1
32.698541 -31.368797 19.329347 49.262761 -0.764646 1.167587 0.000900 0.002627 -222972.000000 0 0 1
33.199911 -32.818997 19.384447 50.547774 -0.779628 1.177227 0.005189 0.001208 -306475.000000 0 0 1
34.189131 -33.067697 18.408847 51.002499 -0.768726 1.201521 0.004935 0.007619 17699.400000 0 0 1
34.804221 -34.301997 18.631847 52.298246 -0.778131 1.206533 0.023353 -0.006071 879053.000000 0 0 1
-34.897022 34.393257 17.830347 52.140383 -0.778128 1.221786 0.013847 -0.001053 1586400.000000 0 0 1
-33.870397 -33.605197 18.203347 51.067356 0.781468 1.206323 0.018154 0.005542 998305.000000 0 0 1
-32.829097 -33.599997 17.228047 50.035138 0.797002 1.219283 0.018065 0.011126 4743.250000 0 0 1
-31.665367 -32.611497 17.512847 48.712473 0.800117 1.203049 0.006363 0.006213 -213911.000000 0 0 1
-30.595037 -32.650997 16.627447 47.734850 0.817894 1.215008 0.012288 -0.001204 -417939.000000 0 0 1
-30.801257 -31.945997 15.427147 46.981496 0.803640 1.236223 0.026443 -0.004716 241107.000000 0 0 1
-29.539727 -31.875497 14.478847 45.806984 0.823412 1.249197 0.016696 -0.007144 846880.000000 0 0 1
-28.475417 -31.097997 14.989547 44.750657 0.829392 1.229237 0.014654 -0.006861 -264097.000000 0 0 1
-27.457057 -30.864997 14.047547 43.633377 0.843765 1.243013 0.022964 -0.003545 -357899.000000 0 0 1
-26.163807 -30.474697 14.743947 42.785931 0.861364 1.218986 0.023899 -0.005000 -946923.000000 0 0 1
-25.047137 -30.682297 13.975347 42.000866 0.886172 1.231589 0.027700 -0.007163 -184265.000000 0 0 1
-23.831437 -30.185097 14.563547 41.123890 0.902484 1.208804 0.022808 -0.008111 880279.000000 0 0 1
-22.549537 -30.380797 13.722347 40.246456 0.932287 1.222861 0.024401 -0.007293 301670.000000 0 0 1
-22.102437 -31.740997 13.554447 40.984529 0.962533 1.233729 0.016427 -0.010561 -185445.000000 0 0 1
-20.996837 -31.706997 12.693947 40.091609 0.985882 1.248629 0.019690 -0.014273 -111083.000000 0 0 1
-20.464637 -33.096197 12.372247 40.831754 1.017002 1.262951 0.018827 -0.006286 17159.200000 0 0 1
-21.332937 -33.739097 11.435647 41.523426 1.006971 1.291788 0.006274 0.000106 213220.000000 0 0 1
-21.133937 33.877657 11.080647 41.438143 -1.013038 1.300100 0.011772 0.006324 -403625.000000 0 0 1
-22.156137 33.280957 10.118047 41.241864 -0.983442 1.322932 0.011359 0.008582 -390477.000000 0 0 1
-22.098137 33.967857 8.888747 41.486778 -0.994027 1.354867 0.012705 0.002852 -225310.000000 0 0 1
-23.132537 33.605757 8.008047 41.576315 -0.967932 1.376974 0.021115 0.002407 -428391.000000 0 0 1
-22.818337 33.940557 6.510047 41.412783 -0.978902 1.412943 0.022546 -0.000486 224819.000000 0 0 1
-21.931337 33.059157 5.758047 40.087984 -0.985061 1.426663 0.022072 -0.000853 1604900.000000 0 0 1
-20.512437 33.037257 6.026947 39.351550 -1.015159 1.417035 0.015326 -0.003453 1381340.000000 0 0 1
-19.713737 34.377257 5.702247 40.036769 -1.050126 1.427885 0.011343 0.005804 -664601.000000 0 0 1
-19.937537 -33.472497 6.588447 39.513555 1.033589 1.403275 0.008096 0.000586 202787.000000 0 0 1
-19.365037 -33.721997 7.898247 39.680726 1.049522 1.370413 0.012751 0.000656 -257561.000000 0 0 1
-19.352337 -32.507897 8.831547 38.849357 1.033831 1.341463 0.016263 -0.008339 -140264.000000 0 0 1
-18.555137 -31.409197 8.396747 37.434424 1.037202 1.344566 0.019621 -0.014768 -90479.000000 0 0 1
-18.560737 -30.254197 9.282447 36.687616 1.020515 1.315003 0.025163 -0.011409 159115.000000 0 0 1
-17.862637 -30.379497 10.670147 36.821728 1.039259 1.276801 0.025444 -0.007476 180232.000000 0 0 1
-16.506537 -30.771097 10.604547 36.493596 1.078431 1.275957 0.030001 -0.021178 -19747.800000 0 0 1
-15.959737 -30.982897 11.935747 36.839044 1.095130 1.240845 0.039839 -0.022031 -176718.000000 0 0 1
-14.730937 -31.874997 11.988347 37.104398 1.137887 1.241795 0.045821 -0.032303 -742136.000000 0 0 1
-13.596537 -31.233297 11.494447 35.951453 1.160216 1.245361 0.042583 -0.024939 -449403.000000 0 0 1
-12.553237 -32.191397 11.332047 36.363238 1.198978 1.253883 0.052920 -0.022820 28419.700000 0 0 1
-11.388137 -31.705297 10.464247 35.276280 1.225960 1.269627 0.062942 -0.018841 -335973.000000 0 0 1
-10.610337 -30.721597 11.065447 34.334238 1.238252 1.242653 0.061112 -0.021869 -422545.000000 0 0 1
-9.791537 -30.013297 10.161347 33.165119 1.255443 1.259402 0.058236 -0.017764 151885.000000 0 0 1
-8.770137 -29.075697 10.808047 32.235467 1.277844 1.228889 0.044618 -0.015131 419832.000000 0 0 1
-9.422037 -28.017697 11.498447 31.717194 1.246388 1.199815 0.044847 -0.015673 -299887.000000 0 0 1
-8.577737 -27.707897 12.541247 31.600443 1.270576 1.162693 0.035855 -0.006345 -148.026000 0 0 1
-9.092237 -26.450397 13.389747 31.009314 1.239703 1.124312 0.031893 -0.006625 327651.000000 0 0 1
-8.750437 -25.194797 12.852947 29.606522 1.236519 1.121729 0.018816 -0.002948 427044.000000 0 0 1
-9.525237 -24.861197 11.666647 29.067506 1.204911 1.157791 0.019092 -0.000138 383609.000000 0 0 1
-9.143637 -23.450397 11.243447 27.567051 1.199015 1.150689 0.006979 0.003038 731759.000000 0 0 1
-8.004437 -23.463697 10.361247 26.869528 1.242035 1.174924 0.000648 -0.002667 255746.000000 0 0 1
-7.524637 -22.134297 10.189347 25.502354 1.243099 1.159775 -0.008531 0.008753 -380733.000000 0 0 1
-6.302837 -22.219697 9.281147 24.891371 1.294397 1.188700 -0.014349 0.010098 -374164.000000 0 1 0
-5.177037 -22.857997 9.863947 25.428078 1.348067 1.172427 -0.007794 0.000679 -209210.000000 0 0 1
-4.111737 -22.649997 8.937647 24.694337 1.391218 1.200458 -0.010805 0.001125 187592.000000 0 1 0
-2.791637 -23.287397 9.409947 25.271390 1.451488 1.189250 0.000250 -0.001054 120333.000000 0 0 1
-2.148937 -22.742097 10.554247 25.163724 1.476584 1.137987 0.008485 0.002297 -357814.000000 0 0 1
-1.114937 -23.558497 11.013647 26.029719 1.523505 1.133912 0.020039 -0.005840 -94239.800000 0 0 1
-0.095737 -23.009797 12.007047 25.954365 1.566636 1.089846 0.024299 -0.003372 -430549.000000 0 0 1
-0.669137 -22.675997 13.232347 26.262969 1.541296 1.042757 0.014928 -0.007064 -145163.000000 0 0 1
0.226263 -22.266197 14.268347 26.446558 -1.560635 1.000934 0.015204 -0.014047 -215490.000000 0 0 1
0.850563 -20.912897 14.156347 25.268060 -1.530147 0.976113 0.004844 -0.019010 -989466.000000 0 0 1
2.047963 -20.867597 13.484547 24.929576 -1.472969 0.999283 0.021927 -0.017580 -1141890.000000 0 1 0
2.548463 -19.590397 13.254247 23.789774 -1.441435 0.979858 0.021573 -0.012991 370866.000000 0 1 0
3.985663 -19.696197 12.664647 23.753293 -1.371135 1.008448 0.037201 -0.008091 351053.000000 0 1 0
4.100863 -20.230297 11.383147 23.572399 -1.370797 1.066831 0.027223 -0.006831 -670406.000000 0 1 0
5.447063 -20.292797 11.009547 23.720839 -1.308554 1.088144 0.049637 -0.012756 -314524.000000 0 1 0
5.773763 -21.261597 9.822347 24.121988 -1.305633 1.151416 0.042463 -0.019900 -328756.000000 0 1 0
5.707263 -20.663497 8.474147 23.051336 -1.301315 1.194347 0.041232 -0.021503 -348567.000000 0 1 0
5.987363 -21.616697 7.456447 23.637442 -1.300592 1.249865 0.041911 -0.020215 17922.800000 0 1 0
7.475763 -22.000197 7.307347 24.357606 -1.243233 1.266101 0.047290 -0.014474 -110777.000000 0 1 0
8.379263 -21.109897 6.667347 23.670515 -1.192935 1.285259 0.045134 -0.022310 10950.300000 0 1 0
8.845663 -19.942797 7.419247 23.043570 -1.153318 1.242991 0.043620 -0.012801 220916.000000 0 1 0
9.792463 -20.176897 8.619647 24.027022 -1.118953 1.203870 0.040905 -0.004554 112679.000000 0 1 0
9.117163 -20.791597 9.733647 24.701357 -1.157545 1.165759 0.057433 -0.004271 -83521.700000 0 1 0
9.827563 -20.470097 10.936747 25.203537 -1.123200 1.121938 0.059550 0.007476 411885.000000 0 0 1
8.924963 -20.387897 12.198147 25.379442 -1.158169 1.069422 0.062744 0.000985 258.114000 0 0 1
8.725163 -21.643597 12.777147 26.605060 -1.187595 1.069854 0.053036 -0.008576 91739.800000 0 0 1
7.834463 -21.694597 13.893747 26.927134 -1.224245 1.028650 0.064085 -0.014559 363826.000000 0 0 1
7.811563 -23.047997 14.627547 28.393587 -1.244021 1.029589 0.064401 -0.010558 145981.000000 0 0 1
7.357563 -24.066597 13.775647 28.689776 -1.274103 1.069961 0.053323 -0.006554 -433610.000000 0 0 1
7.267463 -25.268497 14.435947 29.995158 -1.290745 1.068687 0.050071 -0.008086 195905.000000 0 0 1
7.261863 -26.565397 13.583247 30.707646 -1.303957 1.112589 0.051001 -0.015017 707713.000000 0 0 1
8.497863 -26.804997 12.899547 30.937353 -1.263794 1.140701 0.048921 -0.011791 552302.000000 0 0 1
8.466263 -28.126997 12.330047 31.856484 -1.278421 1.173366 0.045424 -0.011760 222557.000000 0 0 1
9.755463 -28.515197 11.523047 32.265556 -1.241164 1.205601 0.037644 -0.006022 725346.000000 0 0 1
10.764963 -29.078697 12.347647 33.375431 -1.216240 1.191828 0.030128 -0.005366 53868.800000 0 0 1
11.894163 -29.501497 11.624747 33.866564 -1.187559 1.220420 0.029452 -0.002013 521322.000000 0 0 1
13.015963 -30.202097 12.481247 35.176177 -1.163886 1.208074 0.031683 -0.006349 -109441.000000 0 0 1
13.668563 -29.349397 13.421847 35.048005 -1.134948 1.177802 0.038153 -0.003279 23516.100000 0 0 1
14.468763 -30.130697 14.301047 36.355521 -1.123114 1.166506 0.037715 0.000982 294554.000000 0 0 1
15.930363 -30.158097 13.772947 36.782894 -1.084822 1.187005 0.024482 0.006512 -565537.000000 0 0 1
16.593763 -28.917697 13.967247 36.147892 -1.049844 1.174080 0.019729 -0.002857 -571380.000000 0 0 1
17.821763 -29.034197 13.326147 36.581224 -1.020277 1.197927 0.017158 0.000783 -610895.000000 0 0 1
18.734963 -27.772497 13.476447 36.109902 -0.977331 1.188334 0.001617 0.001218 -1610680.000000 0 0 1
19.924163 -28.017097 12.913547 36.724510 -0.952631 1.211481 -0.004333 -0.003212 -2108290.000000 0 0 1
20.639663 -26.853497 12.774947 36.198138 -0.915496 1.210109 -0.010742 -0.011233 -493405.000000 0 0 1
21.965463 -27.045697 12.008947 36.853304 -0.888684 1.238877 -0.007264 -0.006629 -91167.600000 0 0 1
22.969263 -27.671297 12.787647 38.168201 -0.877984 1.229155 -0.003283 -0.009661 -358272.000000 0 0 1
24.010963 -28.022697 11.918247 38.779408 -0.862345 1.258406 -0.007729 -0.015796 -75237.500000 0 0 1
25.333563 -28.380097 12.682347 40.100638 -0.842056 1.249009 0.007403 -0.013373 840113.000000 0 0 1
26.115563 -27.212997 13.108447 39.929953 -0.805974 1.236308 0.001257 -0.012945 1773770.000000 0 0 1
27.368263 -27.163697 12.341147 40.486938 -0.781647 1.261049 -0.007840 -0.010078 2113150.000000 0 0 1
28.591563 -26.417597 13.055247 41.058572 -0.745899 1.247213 0.016942 -0.020483 950657.000000 0 0 1
28.425863 -25.034497 13.233147 40.123208 -0.722046 1.234691 0.034428 -0.027461 117036.000000 0 0 1
27.683163 -24.587597 14.365847 39.715047 -0.726245 1.200681 0.024784 -0.016127 -234360.000000 0 0 1
28.481163 -24.698497 15.684647 40.831367 -0.714388 1.176528 0.026295 -0.005529 -300456.000000 0 0 1
28.627463 -26.049897 16.106847 41.923254 -0.738292 1.176457 0.023968 -0.010195 57525.800000 0 0 1
29.199363 -26.008197 17.386247 42.793815 -0.727659 1.152418 0.031912 0.005227 -285710.000000 0 0 1
29.599663 -27.340197 18.032447 44.145164 -0.745737 1.150007 0.020463 0.021698 -308482.000000 0 0 1
28.560563 -28.154997 18.507847 44.169559 -0.778247 1.138433 0.002290 0.015546 -545626.000000 0 0 1
29.009863 -29.241597 19.285247 45.481467 -0.789376 1.132912 0.009300 0.005492 -912846.000000 0 0 1
28.056663 -30.173597 19.960647 45.782635 -0.821737 1.119661 0.002976 0.025498 -1549670.000000 0 0 1
27.177463 -29.473397 20.789647 45.160879 -0.825904 1.092411 -0.006740 0.026899 86714.900000 0 0 1
26.284663 -30.244397 21.593647 45.518047 -0.855332 1.076517 -0.020259 0.021791 1394780.000000 0 0 1
25.063663 -30.931497 20.814747 44.924362 -0.889809 1.089049 0.007861 0.013553 1680.170000 0 0 1
25.376663 -32.057197 20.060347 45.541809 -0.901195 1.114661 -0.000212 0.012207 -37216.200000 0 0 1
24.676763 -32.301297 18.831247 44.798797 -0.918423 1.136964 0.016627 0.016967 -510061.000000 0 0 1
24.948863 -31.323097 17.646947 43.760677 -0.898193 1.155719 0.014477 0.019815 -416456.000000 0 0 1
26.235863 -31.444597 17.097247 44.377911 -0.875457 1.175302 -0.000632 0.009031 -60207.300000 0 0 1
26.497463 -30.316897 16.235547 43.414545 -0.852524 1.187515 0.003928 -0.008175 -146970.000000 0 0 1
27.742163 -30.613497 15.387747 44.086239 -0.834563 1.214253 0.013281 -0.007773 -447062.000000 0 0 1
27.520463 -31.534297 14.359547 44.249116 -0.853262 1.240296 0.019041 0.001149 293462.000000 0 0 1
27.959063 -32.853697 14.715147 45.580808 -0.865712 1.242071 0.013908 -0.005406 -608316.000000 0 0 1
27.138863 -33.965497 14.150447 45.720979 -0.896658 1.256134 0.024551 -0.009910 -707280.000000 0 0 1
27.280363 -34.140797 12.740147 45.520583 -0.896632 1.287131 0.025506 -0.007324 285408.000000 0 0 1
26.659563 33.617857 12.302647 44.634602 0.900327 1.291551 0.028957 -0.013498 -350606.000000 0 0 1
27.183063 33.229357 10.889447 44.290959 0.885150 1.322388 0.029233 -0.016006 -192279.000000 0 0 1
28.498063 32.729557 10.914047 44.749077 0.854399 1.324417 0.014503 -0.019880 -83391.400000 0 0 1
28.843763 32.185557 9.670947 44.287695 0.840101 1.350656 0.017940 -0.015793 1223630.000000 0 0 1
30.339663 31.642057 9.800147 44.919458 0.806408 1.350856 0.001267 -0.016967 1264150.000000 0 0 1
30.430363 30.659057 10.829447 44.533826 0.789142 1.325160 0.006448 -0.013586 508561.000000 0 0 1
31.799263 30.450857 11.164847 45.421378 0.763740 1.322445 0.003384 -0.010982 474229.000000 0 0 1
31.915963 29.462757 12.383847 45.166828 0.745451 1.293059 -0.006276 0.002388 -30760.400000 0 0 1
31.722163 28.078657 12.063447 44.048079 0.724546 1.293382 0.004111 0.002088 203326.000000 0 0 1
32.072963 27.272357 13.173647 44.113505 0.704681 1.267539 0.006777 -0.003037 -234429.000000 0 0 1
31.998763 25.807357 12.739547 43.037617 0.678699 1.270284 0.003397 0.000917 -393387.000000 0 0 1
32.917963 25.630357 11.715647 43.333172 0.661563 1.297027 0.008338 0.005899 -762561.000000 0 0 1
33.079963 24.250057 11.332547 42.553211 0.632580 1.301229 0.011964 0.007253 50646.400000 0 0 1
31.906263 23.480057 10.603547 41.009241 0.634421 1.309260 0.000851 0.014917 868995.000000 0 0 1
30.813463 23.152857 11.457347 40.209390 0.644389 1.281850 0.003630 0.012271 -69701.100000 0 0 1
29.615963 23.055157 10.738047 39.037817 0.661475 1.292136 -0.000719 0.019392 -1288.890000 0 0 1
28.404963 22.583657 11.592047 38.095131 0.671722 1.261601 -0.007861 0.023764 55866.700000 0 0 1
27.956063 23.498557 12.545347 38.614885 0.698984 1.239908 0.006670 0.018501 -208435.000000 0 0 1
27.066063 22.871557 13.431847 37.895836 0.701600 1.208480 0.032013 0.009894 -240570.000000 0 0 1
23.695163 9.634757 25.982390 36.460580 0.386194 0.777576 0.031904 -0.005128 -149529.000000 0 0 1
23.295063 8.396557 26.502040 36.270101 0.345948 0.751471 0.039262 -0.007964 -264806.000000 0 0 1
21.906563 8.415557 26.713420 35.557361 0.366774 0.720802 0.041997 -0.005255 -495763.000000 0 0 1
21.419963 7.198057 27.519490 35.608274 0.324188 0.687492 0.053277 -0.008589 -426999.000000 0 0 1
21.712363 7.142557 28.933320 36.872481 0.317812 0.668607 0.053169 -0.006478 -115250.000000 0 0 1
23.053163 7.043657 29.328080 37.963110 0.296531 0.687962 0.049795 -0.010195 -469228.000000 0 0 1
23.196363 6.903957 30.885320 39.238232 0.289282 0.664666 0.041826 -0.006618 -267897.000000 0 0 1
22.996063 8.074157 31.686440 39.975510 0.337664 0.655659 0.046776 0.000940 210276.000000 0 0 1
23.096963 7.798657 33.071338 41.085303 0.325629 0.635216 0.039898 0.006511 -45632.000000 0 0 1
23.156363 9.024157 33.970173 42.090678 0.371600 0.631621 0.054540 0.001785 -135525.000000 0 0 1
24.309363 9.811357 33.743091 42.729428 0.383609 0.660489 0.038630 0.001021 -65411.500000 0 0 1
24.687763 10.459357 -33.884083 43.208967 0.400740 2.472188 0.039433 0.003259 265867.000000 0 0 1
25.888263 11.439757 -34.107217 44.321241 0.416089 2.448926 0.013615 0.000962 99954.700000 0 0 1
25.742663 12.709157 34.022616 44.516803 0.458595 0.700896 0.005461 0.001475 92165.800000 0 0 1
25.398463 13.761457 -33.935333 44.565305 0.496543 2.436381 0.006404 0.001659 -456992.000000 0 0 1
25.048363 15.158857 34.256541 45.063533 0.544222 0.707201 0.015403 0.001283 245704.000000 0 0 1
26.099063 15.690857 33.401732 45.199998 0.541304 0.739247 -0.002659 0.001730 845946.000000 0 0 1
25.960163 17.072857 33.306564 45.549311 0.581738 0.750688 0.025296 -0.012674 -10453.800000 0 0 1
26.605363 17.974757 -34.373750 47.037133 0.594166 2.390259 0.020719 -0.006825 -33269.600000 0 0 1
25.971563 17.944257 -33.089683 45.732325 0.604606 2.379730 0.021080 -0.010242 524821.000000 0 0 1
26.813563 17.314557 -32.094603 45.263943 0.573374 2.358953 0.004213 0.001763 -444281.000000 0 0 1
26.094063 16.869057 -30.851253 43.786585 0.573890 2.352631 0.005028 -0.003540 -478332.000000 0 0 1
25.423963 15.665257 -31.115553 43.127205 0.552218 2.376738 0.012300 0.005669 -158572.000000 0 0 1
24.546663 15.279757 -30.102953 41.739638 0.556784 2.376341 0.027397 -0.009367 -132136.000000 0 0 1
23.973463 13.871357 -30.262343 41.023784 0.524545 2.400421 0.039251 -0.014522 49164.500000 0 0 1
22.921863 13.753357 -31.235423 41.112264 0.540427 2.433739 0.034860 -0.014822 570364.000000 0 0 1
22.265063 12.515057 -31.392273 40.470168 0.512081 2.458603 0.042521 -0.002541 126901.000000 0 0 1
21.343863 12.066557 -30.233033 38.925552 0.514545 2.460188 0.042584 0.000944 -372133.000000 0 0 1
20.039863 12.623957 -30.267563 38.432873 0.562145 2.477609 0.045100 -0.004690 194370.000000 0 0 1
19.209063 11.858057 -29.396733 37.064397 0.553054 2.486721 0.038432 -0.000097 -187166.000000 0 0 1
17.978963 12.686957 -28.993703 36.398308 0.614512 2.492392 0.034778 -0.002066 -33738.100000 0 0 1
17.104463 12.902957 -30.105583 36.951253 0.646287 2.523073 0.019080 0.009953 442449.000000 0 0 1
15.883063 13.472157 -29.684143 36.261812 0.703453 2.529776 0.020982 -0.003835 -844062.000000 0 0 1
14.750163 13.658757 -30.657773 36.660987 0.746999 2.561206 0.010274 -0.000652 -46164.500000 0 0 1
14.095363 12.479557 -31.172053 36.415869 0.724671 2.598282 0.001527 0.006140 43481.800000 0 0 1
13.116663 11.967157 -30.273993 35.096643 0.739604 2.611162 0.007954 0.005678 -291152.000000 0 0 1
12.073863 11.181657 -31.136383 35.217637 0.747052 2.655389 0.015943 0.013524 346856.000000 0 0 1
11.361763 12.085657 -32.026003 36.066849 0.816261 2.663692 0.023099 0.009110 68927.000000 0 0 1
10.782063 11.359857 -33.089833 36.609238 0.811487 2.699517 0.035900 0.013220 64668.200000 0 0 1
10.096663 12.118457 -34.234414 37.693431 0.876158 2.709838 0.037359 0.004473 166977.000000 0 0 1
11.013963 12.776657 33.719566 37.703574 0.859355 0.463857 0.026595 0.013438 134414.000000 0 0 1
10.340163 13.347157 32.646580 36.754112 0.911668 0.477290 0.032689 0.013382 -259846.000000 0 0 1
11.108163 13.247157 31.273620 35.733986 0.872998 0.504991 0.030477 0.015967 14323.800000 0 0 1
11.335763 11.889057 30.859330 34.959226 0.809217 0.489169 0.024700 0.012548 161781.000000 0 0 1
11.518263 11.881557 29.458700 33.788412 0.800922 0.511813 0.030798 0.011877 -389672.000000 0 0 1
12.029863 10.548357 28.909910 33.041918 0.719875 0.505471 0.027887 0.016839 -936700.000000 0 0 1
11.203463 9.460957 28.971490 32.471134 0.701273 0.468552 0.026523 0.006235 -712503.000000 0 0 1
11.791863 8.283957 28.490890 31.928088 0.612412 0.468281 0.020946 -0.002450 -245672.000000 0 0 1
10.904963 7.014257 28.587520 31.390513 0.571592 0.425807 0.022960 -0.003031 -375771.000000 0 0 1
9.971863 6.899657 27.552930 30.103277 0.605277 0.414594 0.025663 -0.008420 -202177.000000 0 0 1
9.113463 5.755557 27.764430 29.783305 0.563292 0.370312 0.024898 -0.012886 -32359.700000 0 0 1
9.563063 4.366257 27.297280 29.251630 0.428308 0.367612 0.017287 -0.012864 -523683.000000 0 0 1
10.555563 3.826757 28.128460 30.286536 0.347798 0.379784 0.010865 -0.007978 31870.600000 0 0 1
10.823163 2.485957 27.769520 29.907643 0.225773 0.380419 -0.001945 -0.002801 -322462.000000 0 0 1
11.671163 1.834757 28.852820 31.177999 0.155928 0.388647 -0.006777 -0.005583 -552949.000000 0 0 1
10.902063 1.755757 30.036360 32.001884 0.159677 0.352302 -0.003203 -0.006992 146308.000000 0 0 1
10.522963 0.451057 30.346580 32.122440 0.042838 0.334069 -0.011869 -0.001029 505416.000000 0 0 1
9.336863 0.345357 31.387260 32.748380 0.036972 0.289324 0.003960 0.010040 400764.000000 0 0 1
9.590363 0.757657 32.681280 34.067803 0.078838 0.286280 -0.002567 -0.004707 -615985.000000 0 0 1
8.393263 1.015957 33.352115 34.407014 0.120458 0.248263 0.007551 -0.015383 -713677.000000 0 0 1
8.462963 2.248657 34.312483 35.412211 0.259705 0.249868 0.019983 -0.017766 -229880.000000 0 0 1
8.676963 3.515057 33.656329 34.934134 0.384897 0.271303 0.010927 -0.011345 511370.000000 0 0 1
9.942563 3.671557 33.020884 34.680163 0.353744 0.310585 -0.009728 -0.005345 -371210.000000 0 0 1
10.050363 4.949957 32.159140 34.054694 0.457642 0.335220 0.001377 -0.008665 -39907.600000 0 0 1
9.965863 6.084657 32.963929 34.970875 0.548141 0.340431 0.009473 -0.003865 71706.500000 0 0 1
10.099863 7.217357 32.143310 34.457073 0.620457 0.368550 0.013897 -0.003994 -129262.000000 0 0 1
10.152263 8.554757 32.910338 35.487218 0.700209 0.383433 0.039173 -0.003513 632100.000000 0 0 1
8.952163 9.008157 33.564547 35.886863 0.788516 0.361725 0.038415 -0.006035 556549.000000 0 0 1
8.571363 8.357157 -34.066893 36.109051 0.772745 2.803668 0.035970 -0.009283 -722334.000000 0 0 1
7.193363 8.755757 -33.565213 35.426421 0.883048 2.816004 0.035875 -0.007907 -579255.000000 0 0 1
6.633463 7.816857 -32.665413 34.236462 0.867110 2.837476 0.039336 -0.002641 147424.000000 0 0 1
5.317363 8.211157 -32.312293 33.760654 0.996126 2.847616 0.031364 -0.004719 508637.000000 0 0 1
4.726863 7.464257 -31.056473 32.288742 1.006275 2.864431 0.029856 -0.002577 -3382.200000 0 0 1
5.282863 8.037157 -29.849193 31.360467 0.989303 2.829880 0.033103 -0.007832 288259.000000 0 0 1
4.885463 7.541357 -28.572833 29.952406 0.995953 2.836907 0.024357 -0.005207 1590470.000000 0 0 1
3.332963 7.707157 -28.168153 29.393090 1.162632 2.851879 0.017817 -0.001329 1822810.000000 0 0 1
2.545263 6.798057 -28.926263 29.823156 1.212543 2.895724 0.016774 0.002070 478866.000000 0 0 1
1.140363 7.013857 -28.745123 29.610416 1.409620 2.899246 0.032318 0.003397 212739.000000 0 0 1
0.312963 6.307457 -29.747853 30.410800 1.521219 2.932407 0.034785 -0.003340 -567771.000000 0 0 1
0.423063 7.013557 -30.961783 31.749031 1.510549 2.918437 0.028427 -0.005207 323879.000000 0 0 1
-0.238937 6.346657 -32.046253 32.669550 -1.533166 2.945941 0.041876 -0.009605 -398640.000000 0 0 1
-0.139937 7.193857 -33.351483 34.118801 -1.551346 2.929110 0.052598 -0.014710 -325569.000000 0 0 1
1.168763 7.457757 -33.790683 34.623611 1.415343 2.921803 0.047341 -0.014034 3161.500000 0 0 1
1.838563 6.356357 34.394768 35.025472 1.289233 0.190059 0.046934 -0.013564 -653613.000000 0 0 1
1.536563 6.272657 32.908447 33.536147 1.330565 0.193782 0.052006 -0.022782 -836971.000000 0 0 1
0.260963 5.775457 32.608690 33.117227 1.525642 0.175471 0.046270 -0.025210 -475345.000000 0 0 1
-0.046637 5.779557 31.238160 31.768351 -1.562727 0.182953 0.052638 -0.025076 113020.000000 0 0 1
0.456463 4.542057 30.411620 30.752322 1.470636 0.148993 0.052573 -0.024400 -199061.000000 0 0 1
0.321263 4.723957 29.023620 29.407304 1.502894 0.161714 0.047829 -0.024289 113220.000000 0 0 1
0.909063 3.659157 28.290580 28.540721 1.327291 0.132493 0.044326 -0.019100 24653.600000 0 0 1
0.975863 3.932857 26.726930 27.032360 1.327578 0.150466 0.028632 -0.020159 -430156.000000 0 0 1
1.869263 4.935257 26.424860 26.946691 1.208736 0.197120 0.038580 -0.013477 -324805.000000 0 0 1
1.777163 5.440057 25.065850 25.710881 1.255045 0.224470 0.025006 -0.017229 -38771.000000 0 0 1
2.454763 6.868257 24.965280 26.008922 1.227538 0.284245 0.038186 -0.007241 284918.000000 0 0 1
3.855163 6.964057 25.022850 26.258397 1.065209 0.307984 0.037830 -0.002550 -288588.000000 0 0 1
4.538263 6.922557 23.801150 25.199452 0.990511 0.334695 0.037063 -0.008226 22058.100000 0 0 1
6.087263 7.018857 23.991600 25.727728 0.856360 0.369469 0.038740 -0.004972 749671.000000 0 0 1
6.767263 5.996157 24.750900 26.350651 0.725056 0.350241 0.041947 -0.013472 217120.000000 0 0 1
6.465863 4.635157 24.521190 25.779465 0.621956 0.313724 0.050522 -0.014805 -962016.000000 0 0 1
6.967563 4.074657 23.169730 24.535406 0.529171 0.335218 0.058130 -0.020136 195715.000000 0 1 0
6.166263 4.175557 21.966530 23.194537 0.595233 0.326857 0.049721 -0.017939 67146.600000 0 1 0
4.968563 3.416057 22.044030 22.853782 0.602311 0.266995 0.036097 -0.024312 367496.000000 0 1 0
3.880863 3.746257 20.972830 21.655372 0.767752 0.251735 0.021692 -0.021616 132488.000000 0 1 0
3.340863 5.069757 21.256930 22.107032 0.988135 0.278219 0.013378 -0.016819 -602177.000000 0 1 0
2.127063 5.240657 20.612130 21.374022 1.185234 0.267804 0.008707 -0.016116 -770600.000000 0 1 0
1.657063 6.682357 20.679930 21.795854 1.327724 0.321378 0.010309 -0.015655 -272736.000000 0 1 0
2.453063 7.645257 19.999030 21.550607 1.260313 0.381780 0.010098 -0.014659 -138076.000000 0 1 0
2.275063 8.937457 20.534330 22.510281 1.321536 0.422126 0.020566 -0.006200 -85355.400000 0 1 0
3.192063 10.019857 19.940830 22.543813 1.262388 0.485296 0.027832 -0.016936 -830646.000000 0 1 0
3.013663 10.374957 18.596830 21.507301 1.288101 0.526293 0.003173 -0.007271 -295666.000000 0 1 0
3.740163 11.510157 18.205330 21.861074 1.256615 0.586697 -0.004786 -0.004779 217252.000000 0 1 0
5.284263 11.381557 18.173930 22.085176 1.136128 0.604297 0.010752 -0.004990 -194605.000000 0 1 0
5.677963 10.442157 17.123130 20.844172 1.072761 0.606790 0.004281 -0.003974 -176215.000000 0 1 0
6.990463 9.979157 17.331630 21.185739 0.959731 0.612732 0.003410 0.001355 -218928.000000 0 1 0
7.113763 8.503057 17.845730 21.008991 0.874126 0.555886 0.007766 0.000761 -46782.000000 0 1 0
6.494263 8.239657 19.113130 21.803191 0.903310 0.502002 0.016162 -0.009024 -48739.600000 0 1 0
6.521263 6.930757 19.633830 21.818560 0.815830 0.451329 0.017564 -0.017999 1109340.000000 0 1 0
7.912163 6.227857 19.997330 22.389322 0.666841 0.466465 0.037308 -0.019747 1155910.000000 0 1 0
8.703363 5.920657 18.861130 21.599651 0.597363 0.509036 0.026159 -0.018386 -1216260.000000 0 1 0
9.926563 5.432357 19.237830 22.319078 0.500733 0.531702 0.031047 -0.016841 -994673.000000 0 1 0
10.144663 3.925557 19.196130 22.063898 0.369213 0.515544 0.046185 -0.023243 -247536.000000 0 1 0
9.436263 3.204157 20.202530 22.526693 0.327342 0.458254 0.054076 -0.028452 328291.000000 0 1 0
9.902463 1.835057 20.240430 22.607548 0.183235 0.461703 0.059233 -0.035299 -65999.700000 0 1 0
9.106963 0.897457 21.117430 23.014953 0.098229 0.408915 0.068266 -0.041630 -461088.000000 0 1 0
9.273863 1.141957 22.531130 24.391811 0.122520 0.393124 0.051786 -0.033243 555680.000000 0 1 0
8.425563 0.305257 23.361730 24.836540 0.036214 0.346346 0.058639 -0.034993 31598.500000 0 1 0
8.891663 0.419057 24.825710 26.373342 0.047094 0.344281 0.041001 -0.019691 1096120.000000 0 0 1
10.213063 -0.105943 25.126960 27.123459 -0.010373 0.386080 0.030664 -0.020666 1222940.000000 0 0 1
10.335963 -1.494343 25.023210 27.115056 -0.143582 0.395373 0.027670 -0.018967 -488234.000000 0 0 1
11.827563 -1.878043 24.924600 27.652378 -0.157471 0.447909 0.015729 -0.014334 43993.200000 0 0 1
12.016463 -3.305243 24.982030 27.918128 -0.268422 0.462742 0.014821 -0.006735 -498544.000000 0 0 1
13.371563 -3.646443 25.089970 28.663598 -0.266228 0.504688 0.003686 -0.003600 -355000.000000 0 0 1
13.458263 -5.166643 25.373440 29.182709 -0.366552 0.516671 0.008954 -0.014469 -147354.000000 0 0 1
12.997563 -5.867943 24.212820 28.100357 -0.424071 0.532274 0.012815 -0.017421 252050.000000 0 0 1
12.727963 -7.187543 24.565230 28.585177 -0.514063 0.536761 0.014226 -0.009547 -166684.000000 0 0 1
12.679763 -8.073343 23.332330 27.755232 -0.566976 0.572321 0.028021 -0.014468 65207.500000 0 0 1
12.185563 -9.372243 23.628830 28.189511 -0.655630 0.576797 0.028599 -0.009049 -345003.000000 0 0 1
12.471163 -10.216443 22.554630 27.723942 -0.686342 0.620576 0.033356 -0.012520 43710.500000 0 0 1
11.651563 -11.526943 22.481230 27.821485 -0.780022 0.629957 0.041415 -0.007077 -219844.000000 0 0 1
10.275363 -11.393543 22.242130 27.020516 -0.836955 0.603847 0.038014 -0.004011 -513807.000000 0 0 1
9.670563 -12.686043 22.251130 27.378245 -0.919470 0.621973 0.033622 -0.000413 11573.800000 0 0 1
8.142963 -12.627843 22.405030 26.976947 -0.998056 0.590747 0.019490 0.004388 106823.000000 0 0 1
7.447863 -11.897043 21.403030 25.594922 -1.011459 0.580439 0.011243 -0.003626 -456551.000000 0 0 1
6.052663 -12.017843 21.517230 25.378229 -1.104241 0.558857 0.012949 -0.004229 146115.000000 0 0 1
5.276263 -10.789643 20.961030 24.158231 -1.115978 0.520329 0.012675 -0.004294 246302.000000 0 1 0
5.548963 -9.710843 21.775730 24.480071 -1.051657 0.474483 0.018084 0.010353 -407492.000000 0 1 0
5.103263 -8.540143 21.164030 23.385755 -1.032172 0.439424 0.020775 0.003998 165875.000000 0 1 0
5.449163 -7.225143 21.908030 23.703541 -0.924616 0.391726 0.030211 0.004193 -27430.100000 0 1 0
4.865363 -6.128843 21.351730 22.740512 -0.899819 0.351291 0.035390 -0.001808 -543485.000000 0 1 0
5.487963 -4.959043 21.786830 23.008169 -0.734813 0.327289 0.050319 -0.022493 90222.500000 0 1 0
-8.072037 -15.244943 -20.984453 27.164561 1.083836 2.453555 0.032460 -0.001219 -310447.000000 0 0 1
-7.681337 -14.903243 -19.675353 25.850128 1.094894 2.435853 0.025230 -0.004382 38748.300000 0 0 1
-7.222037 -13.514643 -19.605653 24.883429 1.080020 2.478188 0.026566 -0.016865 -239459.000000 0 1 0
-6.482437 -13.275343 -18.305453 23.523315 1.116547 2.462564 0.010282 -0.015035 296691.000000 0 1 0
-5.290737 -14.069543 -18.147953 23.564638 1.211113 2.449849 0.013724 -0.008435 359359.000000 0 1 0
-4.689337 -13.666043 -16.968553 22.286373 1.240248 2.436246 0.031766 -0.014799 99038.600000 0 1 0
-3.616437 -14.686443 -16.440853 22.339917 1.329357 2.397851 0.026007 -0.001441 19770.500000 0 1 0
-2.408237 -14.556043 -17.122653 22.602284 1.406836 2.430368 0.011293 -0.013339 -510745.000000 0 1 0
-1.397637 -15.338643 -16.510753 22.579467 1.479929 2.390918 0.016606 -0.004160 618141.000000 0 1 0
-0.068037 -15.564943 -17.294653 23.267512 1.566425 2.408781 0.016659 0.002472 539941.000000 0 1 0
-0.194337 -16.433943 -18.448253 24.707293 1.558972 2.413842 0.026774 -0.007275 -221244.000000 0 1 0
-0.243637 -17.851543 -18.126753 25.442408 1.557149 2.363797 0.025020 0.001477 -206394.000000 0 0 1
-0.399637 -18.567943 -19.438553 26.884672 1.549277 2.378982 0.032868 -0.009197 -583946.000000 0 0 1
-1.667437 -18.333243 -19.959753 27.152899 1.480094 2.396592 0.024490 -0.007287 -779104.000000 0 0 1
-1.698337 -18.727443 -21.329253 28.434812 1.480357 2.419026 0.035052 -0.007504 536252.000000 0 0 1
-2.816637 -17.974643 -22.150753 28.664911 1.415360 2.453956 0.031886 -0.002171 631275.000000 0 0 1
-2.751737 -16.579143 -22.209153 27.851150 1.406320 2.493809 0.023769 0.001250 -19446.000000 0 0 1
-3.440037 -15.873943 -21.149453 26.666745 1.357387 2.486682 0.010176 -0.001869 397077.000000 0 0 1
-2.634437 -14.662543 -20.581153 25.406974 1.393022 2.515049 0.018863 -0.006450 117562.000000 0 0 1
-2.468537 -13.622443 -21.502253 25.573649 1.391531 2.569551 0.011693 -0.014906 308738.000000 0 0 1
-1.789337 -12.488143 -20.906753 24.418186 1.428482 2.598658 0.019674 -0.018711 -1683.320000 0 1 0
-1.514537 -11.464243 -21.962653 24.820976 1.439447 2.656952 0.025847 -0.023148 -450159.000000 0 1 0
-2.446737 -10.472443 -22.230253 24.694995 1.341278 2.691008 0.015178 -0.024212 -438761.000000 0 1 0
-2.551437 -10.399843 -23.624853 25.938394 1.330214 2.716029 0.021318 -0.019715 412275.000000 0 0 1
-3.533237 -9.225743 -24.055753 26.005334 1.205051 2.751915 0.012909 -0.013205 1044160.000000 0 0 1
-4.913137 -9.361043 -23.687353 25.939521 1.087467 2.721807 0.023867 -0.016924 687929.000000 0 0 1
-5.445237 -8.070743 -23.777553 25.693570 0.977261 2.752960 0.011345 -0.020753 -313293.000000 0 0 1
-6.971237 -7.983643 -23.556053 25.830686 0.852992 2.718785 0.006112 -0.022192 676332.000000 0 0 1
-7.885137 -8.404643 -24.599753 27.165443 0.817279 2.703478 0.020718 -0.011880 542793.000000 0 0 1
-8.069437 -7.485243 -25.672033 27.932024 0.747858 2.736560 0.027604 -0.020902 -221218.000000 0 0 1
-9.177937 -7.936643 -26.651393 29.283470 0.712996 2.714363 0.032785 -0.025950 141883.000000 0 0 1
-9.747337 -6.914243 -27.418963 29.910147 0.616972 2.730566 0.047842 -0.030942 102066.000000 0 0 1
-10.480737 -7.461943 -28.529393 31.296210 0.618713 2.717938 0.053595 -0.029667 115514.000000 0 0 1
-11.254837 -6.410343 -29.347993 32.079099 0.517739 2.725966 0.058429 -0.036122 144637.000000 0 0 1
-10.442437 -5.436143 -30.001073 32.228257 0.479977 2.767647 0.029823 -0.022991 164315.000000 0 0 1
-11.233837 -4.701343 -30.937363 33.247890 0.396351 2.766588 0.062122 -0.027523 547509.000000 0 0 1
-10.411337 -3.793343 -31.950913 33.817839 0.349399 2.807764 0.049909 -0.025786 197894.000000 0 0 1
-9.544937 -4.491343 -32.821203 34.474764 0.439809 2.830617 0.039812 -0.022811 -183788.000000 0 0 1
-9.031437 -3.546143 -33.697173 35.066244 0.374149 2.861239 0.035438 -0.021997 -67356.700000 0 0 1
-7.937537 -4.207043 34.193244 35.353666 0.487373 0.256922 0.032662 -0.014285 4098.800000 0 0 1
-6.689837 -4.303243 -33.988863 34.907229 0.571616 2.911702 0.027990 -0.016926 -510288.000000 0 0 1
-5.673537 -4.557743 33.873808 34.646745 0.676770 0.211625 0.016661 -0.013959 -547406.000000 0 0 1
-4.297537 -4.093743 34.307592 34.817215 0.761117 0.171306 0.027885 -0.015619 -681411.000000 0 0 1
-4.020137 -2.731143 34.251948 34.595037 0.596743 0.140952 0.040823 -0.023116 -377801.000000 0 0 1
-2.661737 -2.444243 -34.351357 34.540917 0.742828 3.036779 0.045755 -0.025873 -73033.800000 0 0 1
-2.503937 -0.949143 -33.891763 33.997385 0.362326 3.062746 0.057218 -0.025865 102049.000000 0 0 1
-2.912237 -0.810743 -32.513493 32.653724 0.271517 3.048883 0.043296 -0.029629 79603.800000 0 0 1
-3.453437 0.443057 -32.254533 32.441909 -0.127597 3.034063 0.046861 -0.028526 -853081.000000 0 0 1
-3.950337 0.544457 -30.795883 31.052987 -0.136962 3.012822 0.059025 -0.020305 595574.000000 0 0 1
-5.048537 -0.355243 -30.560373 30.976610 0.070250 2.977475 0.048170 -0.021798 870368.000000 0 0 1
-6.312637 0.283557 -30.827403 31.468374 -0.044889 2.939413 0.055463 -0.026690 131078.000000 0 0 1
-7.467337 -0.732143 -30.709383 31.612709 0.097734 2.901960 0.055913 -0.030168 -228011.000000 0 0 1
-7.727437 -1.123443 -29.370883 30.391186 0.144372 2.881739 0.046170 -0.026157 -222121.000000 0 0 1
-8.860937 -1.944843 -29.310683 30.682483 0.216059 2.841437 0.054311 -0.028829 -216588.000000 0 0 1
-9.147537 -2.579943 -27.949563 29.521376 0.274897 2.813805 0.054420 -0.026838 -245501.000000 0 0 1
-9.846737 -1.710343 -27.113983 28.897259 0.171981 2.788446 0.047062 -0.025778 67268.700000 0 0 1
-10.100437 -2.219043 -25.792053 27.788001 0.216262 2.760268 0.038573 -0.026910 242375.000000 0 0 1
-11.136537 -1.498243 -24.863253 27.284585 0.133731 2.717121 0.047467 -0.026082 388381.000000 0 0 1
-10.717037 -0.232343 -24.357453 26.611922 0.021676 2.727007 0.052829 -0.027071 808207.000000 0 0 1
-11.794037 0.435857 -23.674253 26.452969 -0.036939 2.679130 0.060014 -0.024507 782292.000000 0 0 1
-11.182837 1.656557 -23.023653 25.649340 -0.147064 2.685162 0.064419 -0.027988 215347.000000 0 0 1
-10.630037 2.592257 -23.881753 26.268910 -0.239193 2.711978 0.040044 -0.026256 -297117.000000 0 0 1
-9.732237 3.454157 -23.233953 25.425661 -0.341050 2.723338 0.035707 -0.026957 -461592.000000 0 0 1
-9.534037 4.753457 -24.023653 26.279824 -0.462509 2.724198 0.046197 -0.033704 687167.000000 0 0 1
-10.739137 5.497857 -24.310753 27.139790 -0.473159 2.680935 0.050952 -0.028087 666226.000000 0 0 1
-11.518237 4.994557 -25.384643 28.319525 -0.409151 2.682298 0.043325 -0.026622 -27503.400000 0 0 1
-12.894137 5.678757 -25.534423 29.163570 -0.414854 2.637388 0.041574 -0.011649 93069.400000 0 0 1
-12.831137 6.949857 -26.105533 29.907147 -0.496402 2.631883 0.040621 -0.005719 300569.000000 0 0 1
-14.127737 7.443057 -26.426203 30.876144 -0.484888 2.598042 0.043576 -0.004887 234351.000000 0 0 1
-14.210337 8.963257 -26.707303 31.552396 -0.562728 2.580066 0.045076 0.001738 -67010.400000 0 0 1
-13.658837 9.715557 -25.631183 30.625372 -0.618271 2.562439 0.058912 -0.009184 16955.900000 0 0 1
-14.153137 11.031857 -25.568403 31.237100 -0.662093 2.529638 0.057945 -0.004712 -119085.000000 0 0 1
-13.713137 11.768257 -24.297253 30.280332 -0.709220 2.502120 0.039787 -0.006203 -257474.000000 0 0 1
-14.512737 11.316157 -23.243553 29.646884 -0.662264 2.471901 0.045183 -0.004853 -189525.000000 0 0 1
-14.147237 11.801057 -22.000953 28.695840 -0.695226 2.444473 0.028597 -0.003281 -619996.000000 0 0 1
-15.159937 11.550757 -20.867253 28.261032 -0.651090 2.401455 0.035858 -0.005579 -203496.000000 0 0 1
-16.388737 12.205357 -20.985253 29.290652 -0.640127 2.369495 0.044146 -0.011199 -259391.000000 0 0 1
-16.826237 12.738657 -19.757253 28.909249 -0.648011 2.323238 0.041792 -0.009727 167088.000000 0 0 1
-18.269337 13.299357 -19.715953 29.989338 -0.629246 2.288202 0.053903 -0.014632 148883.000000 0 0 1
-18.381237 14.474457 -20.426453 31.058329 -0.667047 2.288532 0.055742 -0.014254 255810.000000 0 0 1
-19.730737 14.877757 -20.578853 32.158029 -0.646081 2.265202 0.040602 -0.018225 95589.400000 0 0 1
-19.996537 16.239857 -21.210153 33.368624 -0.682096 2.259623 0.036398 -0.011871 -99258.400000 0 0 1
-19.733237 16.320457 -22.608753 34.160118 -0.691021 2.294076 0.054095 -0.012937 106204.000000 0 0 1
-20.134037 17.551657 -23.080253 35.300683 -0.716981 2.283417 0.042004 0.000258 -338953.000000 0 0 1
-20.378837 17.523057 -24.609453 36.441456 -0.710194 2.312188 0.023698 -0.003150 -96726.000000 0 0 1
-19.262037 17.497757 -25.464383 36.409235 -0.737440 2.345345 0.024921 0.000777 37658.000000 0 0 1
-19.676637 17.032457 -26.722073 37.300722 -0.713492 2.369419 0.019947 -0.002703 -65108.300000 0 0 1
-18.909837 17.769557 -27.858603 38.071523 -0.754320 2.391673 -0.009269 0.010693 73822.400000 0 0 1
-19.278437 19.155257 -28.124093 39.109419 -0.782193 2.373321 -0.005282 -0.007133 506356.000000 0 0 1
-18.493837 19.997757 -27.310743 38.572127 -0.824450 2.357520 -0.021662 -0.018665 -1424890.000000 0 0 1
-19.017937 21.431657 -27.506673 39.719201 -0.845000 2.335784 0.012263 -0.011161 706547.000000 0 0 1
-20.012437 21.875157 -26.553963 39.801170 -0.829838 2.301193 0.030097 -0.003949 941633.000000 0 0 1
-21.244437 21.145357 -26.610533 40.082075 -0.783061 2.296820 0.068475 -0.016145 -551349.000000 0 0 1
-22.191737 21.649457 -25.496563 40.140340 -0.773030 2.259045 0.072097 -0.009344 54905.700000 0 0 1
-21.814737 21.254757 -24.176353 38.886289 -0.772397 2.241732 0.036942 -0.004425 572264.000000 0 0 1
-22.914137 21.528157 -23.285653 39.124684 -0.754222 2.208268 0.034140 -0.007583 466772.000000 0 0 1
-22.701437 21.018857 -21.808353 37.851709 -0.746932 2.184810 0.041828 0.000165 -71188.600000 0 0 1
-21.833737 21.818657 -21.007053 37.337142 -0.785053 2.168362 0.035255 0.000682 806039.000000 0 0 1
-20.570837 21.229057 -20.664953 36.067610 -0.801144 2.180898 0.031699 -0.001205 489286.000000 0 0 1
-20.633637 20.246757 -19.480453 34.859234 -0.775935 2.163773 0.041758 -0.013067 -1312910.000000 0 0 1
-21.399537 19.106657 -19.852653 34.887424 -0.728853 2.176145 0.056481 -0.017332 894803.000000 0 0 1
-22.279637 18.653757 -18.776753 34.596407 -0.697049 2.144489 0.049885 -0.017358 469196.000000 0 0 1
-23.396337 19.626257 -18.293353 35.598108 -0.697991 2.110504 0.037810 -0.014557 -1307170.000000 0 0 1
-24.485137 19.611757 -19.172853 36.766034 -0.675330 2.119384 0.034121 -0.008591 4487.690000 0 0 1
-25.408167 20.641457 -18.797253 37.748926 -0.682253 2.092035 0.022739 -0.010816 1234280.000000 0 0 1
-26.879917 20.488857 -19.423753 38.982116 -0.651287 2.092403 0.009989 -0.000667 1673590.000000 0 0 1
-27.676997 19.390757 -19.003353 38.770415 -0.611135 2.083059 0.007314 -0.005339 482629.000000 0 0 1
-28.136257 19.440357 -17.644053 38.482321 -0.604617 2.047100 0.000816 -0.006264 -711996.000000 0 0 1
-29.085877 18.293357 -17.305853 38.472428 -0.561430 2.037366 0.000511 -0.004549 -609455.000000 0 0 1
-28.343047 17.112457 -17.043153 37.237529 -0.543181 2.046189 0.016585 -0.011800 422552.000000 0 0 1
-29.191487 16.072457 -16.631953 37.243639 -0.503294 2.033726 0.005362 -0.004732 242418.000000 0 0 1
-28.404607 15.032957 -15.762153 35.794650 -0.486768 2.026784 0.023184 -0.002496 -191186.000000 0 0 1
-27.896367 15.510457 -14.533253 35.071314 -0.507440 1.998070 0.018939 0.001401 339454.000000 0 0 1
-28.815127 15.850657 -13.467553 35.537725 -0.502905 1.959474 0.000566 0.004751 468144.000000 0 0 1
-28.060887 16.435357 -12.205953 34.734992 -0.529841 1.929865 0.003246 0.005699 571404.000000 0 0 1
-27.520857 17.749557 -12.219253 34.953605 -0.572816 1.927924 0.003247 0.010884 73353.900000 0 0 1
-28.548237 18.714057 -12.248753 36.266372 -0.580249 1.915315 -0.008972 0.007422 -282795.000000 0 0 1
-28.116237 20.206457 -12.299353 36.743677 -0.623150 1.912119 0.019563 -0.003123 -514071.000000 0 0 1
-27.388617 20.617957 -11.202853 36.065779 -0.645286 1.886645 -0.012230 -0.003299 -291722.000000 0 0 1
-26.387797 21.487857 -11.687453 35.981112 -0.683406 1.901620 -0.015756 -0.000582 -276462.000000 0 0 1
-25.394137 22.006057 -10.661953 35.253454 -0.714041 1.878045 -0.011925 0.002583 -411374.000000 0 0 1
-25.974547 22.877757 -9.682553 35.941907 -0.722092 1.843561 0.006477 0.000403 211798.000000 0 0 1
-26.051077 24.259857 -10.012953 36.979163 -0.749810 1.844992 0.004052 -0.007103 -162124.000000 0 0 1
-26.757687 24.979157 -8.838253 37.656962 -0.751035 1.807711 0.020159 0.008826 -294442.000000 0 0 1
-25.966017 25.252657 -7.688053 37.027515 -0.771471 1.779949 0.011107 0.009128 87885.600000 0 0 1
-26.691377 25.693057 -6.534053 37.619897 -0.766343 1.745368 0.031680 -0.005075 65754.800000 0 0 1
-26.366087 24.866657 -5.249553 36.620745 -0.756139 1.714641 0.036854 -0.003001 92098.400000 0 0 1
-26.825537 23.507757 -5.336353 36.065229 -0.719577 1.719306 0.038786 -0.001194 193001.000000 0 0 1
-26.436987 22.805257 -4.125053 35.156935 -0.711779 1.688400 0.040533 -0.002979 -122314.000000 0 0 1
-26.829567 21.293357 -4.258153 34.516150 -0.670859 1.694478 0.030591 -0.000524 460787.000000 0 0 1
-26.056387 20.486657 -5.185653 33.548911 -0.666296 1.725988 0.017984 -0.007813 350693.000000 0 0 1
-26.153157 20.833857 -6.565553 34.075559 -0.672670 1.764685 0.006114 0.001186 -555217.000000 0 0 1
-27.156237 19.919257 -7.284253 34.457196 -0.632861 1.783803 0.002157 -0.001285 -439971.000000 0 0 1
-26.806787 18.588057 -7.333853 33.435088 -0.606288 1.791940 -0.003759 0.005535 123506.000000 0 0 1
-27.165277 18.002857 -8.537053 33.688817 -0.585262 1.826999 -0.014111 0.004189 -184868.000000 0 0 1
-26.629707 16.565457 -8.761753 32.562616 -0.556487 1.843228 0.004484 0.009216 -24337.700000 0 0 1
-27.223847 15.644157 -7.866253 32.369051 -0.521570 1.816272 -0.001504 0.015532 113878.000000 0 0 1
-27.089377 14.344357 -8.394953 31.781601 -0.486983 1.838114 -0.000078 0.007270 -25529.300000 0 0 1
-27.969077 13.302757 -7.697753 31.913759 -0.443957 1.814403 -0.010490 -0.001793 -129693.000000 0 0 1
-29.377317 13.299757 -7.804053 33.178510 -0.425115 1.808235 0.014812 0.005209 -157437.000000 0 0 1
-29.926537 12.298157 -6.992453 33.101914 -0.389906 1.783640 0.033219 -0.007323 -363618.000000 0 0 1
-30.318587 11.027557 -7.736453 33.176444 -0.348847 1.806154 0.032826 0.000489 -759948.000000 0 0 1
-29.324217 10.115857 -8.076753 32.054239 -0.332183 1.825513 0.033762 0.010987 -300072.000000 0 0 1
-29.858807 8.824157 -8.105653 32.173215 -0.287350 1.825479 0.036451 0.012989 -252321.000000 0 0 1
-28.742107 7.815857 -8.493253 30.973080 -0.265510 1.848569 0.050737 0.004032 22915.200000 0 0 1
-28.468387 7.782257 -9.904253 31.130481 -0.266845 1.894577 0.041321 0.000030 480496.000000 0 0 1
-27.418197 6.849957 -10.144653 30.026546 -0.244821 1.915435 0.046993 -0.010213 142249.000000 0 0 1
-26.987737 6.825057 -11.615353 30.163485 -0.247701 1.966091 0.042029 -0.010789 -54475.500000 0 0 1
-26.349537 8.003057 -12.107853 30.082339 -0.294872 1.985032 0.051944 -0.006910 263654.000000 0 0 1
-25.599217 7.773257 -13.245953 29.852952 -0.294804 2.030527 0.049820 -0.012699 -487345.000000 0 0 1
-31.328147 25.987657 -33.908603 52.977396 -0.692490 2.265370 0.005762 0.002663 -131100.000000 0 0 1
-31.467457 27.369257 -34.171981 53.916615 -0.715857 2.257244 0.000579 -0.002397 271152.000000 0 0 1
-31.466517 27.594457 33.247556 53.450872 -0.719931 0.899475 0.003221 -0.004195 -293578.000000 0 0 1
-31.773997 29.083457 32.922386 54.215476 -0.741216 0.918201 0.013112 -0.016054 -41885.900000 0 0 1
-31.834907 29.315057 31.516490 53.536184 -0.744214 0.941353 0.028840 -0.014931 223245.000000 0 0 1
-32.121667 30.645857 31.293450 54.316205 -0.761890 0.956805 0.040709 -0.022314 47235.600000 0 0 1
-32.105647 30.961657 29.760440 53.619778 -0.767261 0.982401 0.057265 -0.031408 719501.000000 0 0 1
-30.716347 31.114257 29.432720 52.705559 -0.791834 0.978296 0.046097 -0.027949 962799.000000 0 0 1
-30.424717 31.897057 28.259730 52.361226 -0.809019 1.000707 0.051272 -0.022900 -326198.000000 0 0 1
-28.988687 31.822457 27.747950 51.214856 -0.831964 0.998225 0.051031 -0.022005 -778067.000000 0 0 1
-28.671637 30.604857 27.100510 49.931530 -0.818000 0.997084 0.057477 -0.023879 124996.000000 0 0 1
-27.428847 30.567657 26.428240 48.838255 -0.839466 0.999006 0.031710 -0.009939 -175390.000000 0 0 1
-27.251707 31.445057 25.133720 48.612252 -0.856718 1.027425 0.024295 -0.000481 -482068.000000 0 0 1
-27.265187 32.890857 25.346120 49.675192 -0.878645 1.035336 0.012402 -0.009022 703219.000000 0 0 1
-28.299807 33.489657 24.539900 50.245825 -0.869194 1.060545 0.013228 -0.003801 342546.000000 0 0 1
-28.654167 -34.047397 24.986960 51.035622 0.871201 1.059167 0.025333 0.000125 -321526.000000 0 0 1
-29.151807 -34.106197 26.280480 51.997348 0.863559 1.040928 0.043022 -0.022736 166968.000000 0 0 1
-29.060967 -32.851197 26.934080 51.470240 0.846541 1.020084 0.022671 -0.023048 -41202.600000 0 0 1
-29.680077 -32.946497 28.379690 52.647749 0.837508 1.001489 0.052928 -0.023672 234949.000000 0 0 1
-31.089077 -33.097397 28.446400 53.583263 0.816677 1.011155 0.056280 -0.028646 241243.000000 0 0 1
-31.389757 -33.601297 29.727470 54.754785 0.819413 0.996886 0.053138 -0.028581 -483680.000000 0 0 1
-32.885217 -33.631897 30.014480 55.797948 0.796623 1.002836 0.062439 -0.034434 -482433.000000 0 0 1
-33.055007 -33.893497 31.374580 56.795835 0.797922 0.985544 0.048349 -0.036314 375737.000000 0 0 1
-34.445170 -33.965497 31.677290 57.823658 0.778387 0.991033 0.040962 -0.038497 257580.000000 0 0 1
-34.759885 -34.297797 33.114461 59.001322 0.778707 0.974902 0.031329 -0.028981 -233889.000000 0 0 1
-34.476983 33.339057 33.468290 58.483173 -0.768620 0.961522 0.020381 -0.021229 -66227.400000 0 0 1
-35.227534 32.983857 -34.191982 59.143940 -0.752517 2.187213 0.016846 -0.011182 42273.800000 0 0 1
-34.749787 31.684557 -33.537053 57.759785 -0.739292 2.190298 -0.001528 -0.007606 -405069.000000 0 0 1
-33.476757 31.804657 -32.999733 56.755721 -0.759790 2.191287 0.007816 -0.010707 -1126920.000000 0 0 1
-32.948877 30.577257 -32.551603 55.499586 -0.748082 2.197552 -0.008684 -0.004401 296454.000000 0 0 1
-32.333767 30.577257 -31.125543 54.306911 -0.757485 2.181131 -0.006797 -0.004143 261095.000000 0 0 1
-33.297407 30.697457 -30.081653 54.368714 -0.744793 2.157105 -0.008382 -0.005892 -39342.900000 0 0 1
-33.679567 32.010157 -29.730373 55.162111 -0.759990 2.140003 -0.007304 0.005807 209750.000000 0 0 1
-34.642617 32.026057 -28.521693 55.129540 -0.746171 2.114557 -0.005232 0.009730 399837.000000 0 0 1
-33.956097 31.750657 -27.301323 53.911808 -0.751846 2.101809 -0.017455 0.006302 28758.500000 0 0 1
-34.861010 31.325157 -26.319113 53.751755 -0.732026 2.082475 0.006828 0.002785 197471.000000 0 0 1
-34.116787 31.031257 -24.931153 52.425723 -0.738072 2.066388 0.014888 0.000045 265231.000000 0 0 1
-33.889787 32.246257 -24.184653 52.661525 -0.760553 2.047944 0.004444 0.000763 -212798.000000 0 0 1
-33.659567 32.163957 -22.756253 51.820205 -0.762681 2.025436 0.000521 -0.002197 -816455.000000 0 0 1
-34.851787 31.867957 -21.870253 52.043460 -0.740706 2.004496 -0.001987 -0.004429 -1115760.000000 0 0 1
35.280321 32.889557 -21.766953 52.917145 0.750342 1.994720 -0.003301 -0.004200 -685981.000000 0 0 1
-35.521725 34.051257 -21.000753 53.500586 -0.764266 1.974181 0.002609 -0.004278 -652221.000000 0 0 1
-35.336915 33.950257 -19.471653 52.730094 -0.765388 1.949020 0.001078 -0.003022 391832.000000 0 0 1
-34.261972 33.043857 -19.151153 51.308341 -0.767302 1.953313 -0.002198 -0.003327 421937.000000 0 0 1
-34.272816 32.638857 -17.849053 50.581712 -0.760983 1.931439 0.010685 0.000516 -409530.000000 0 0 1
-33.074817 31.763157 -17.553553 49.101618 -0.765171 1.936380 0.013690 0.004212 -398987.000000 0 0 1
-32.984247 31.199657 -16.240653 48.219684 -0.757601 1.914318 0.010868 0.001447 -237054.000000 0 0 1
-31.671957 30.842957 -15.872753 46.971749 -0.772138 1.915504 0.012596 0.007223 -220787.000000 0 0 1
-31.528377 30.744857 -14.337853 46.312621 -0.772817 1.885557 0.014042 0.003609 -388738.000000 0 0 1
-32.289197 29.757957 -13.693153 45.995986 -0.744625 1.873082 0.025939 -0.001860 111853.000000 0 0 1
-31.812277 29.462857 -12.368853 45.089571 -0.747075 1.848676 0.044313 -0.007610 272472.000000 0 0 1
-32.865947 28.603657 -11.550153 45.074890 -0.716169 1.829930 0.041268 -0.005588 419086.000000 0 0 1
-32.473277 28.148757 -10.286553 44.189132 -0.714183 1.805736 0.049827 -0.004286 545014.000000 0 0 1
-33.375937 27.117357 -9.868853 44.121406 -0.682306 1.796380 0.052457 -0.003228 783928.000000 0 0 1
-32.604727 26.301757 -8.728753 42.790674 -0.678804 1.776225 0.052844 0.003785 587007.000000 0 0 1
-32.436497 26.847457 -7.459553 42.761633 -0.691400 1.746138 0.062293 -0.006447 962577.000000 0 0 1
-31.370937 27.843757 -7.393353 42.591926 -0.725902 1.745266 0.054624 -0.011351 405315.000000 0 0 1
-30.970007 28.173157 -5.953653 42.288463 -0.738144 1.712052 0.057226 -0.016040 -69981.200000 0 0 1
-30.065747 27.344557 -5.242253 40.977496 -0.738035 1.699078 0.060390 -0.017463 394428.000000 0 0 1
-29.925057 27.739357 -3.909653 40.991052 -0.747512 1.666320 0.052952 -0.013163 -180895.000000 0 0 1
-28.988607 26.872657 -3.086153 39.648498 -0.747538 1.648713 0.049995 -0.006155 -236627.000000 0 0 1
-29.633377 25.663557 -2.784253 39.300220 -0.713730 1.641701 0.038714 0.001818 390053.000000 0 0 1
-28.758367 24.780357 -2.077453 38.018753 -0.711233 1.625466 0.020773 0.007384 245523.000000 0 0 1
-29.425987 23.469357 -1.571753 37.671871 -0.673259 1.612531 0.025326 0.003008 41060.400000 0 0 1
-29.612527 22.481757 -2.619553 37.271882 -0.649362 1.641137 0.009881 0.016494 284115.000000 0 0 1
-30.611767 21.539757 -2.253453 37.498260 -0.613167 1.630927 0.003193 0.014499 86700.500000 0 0 1
-31.110527 20.661457 -3.378753 37.499022 -0.586245 1.661021 0.015638 0.013046 -339898.000000 0 0 1
-30.178417 19.676157 -3.736753 36.219488 -0.577776 1.674150 0.009903 0.004890 -189521.000000 0 0 1
-30.446877 19.032957 -4.886753 36.237358 -0.558686 1.706062 0.017095 0.007976 -593395.000000 0 0 1
-29.439267 17.956857 -5.220453 34.876529 -0.547713 1.721045 0.013688 0.009310 -623574.000000 0 0 1
-29.418157 16.840957 -4.317153 34.171386 -0.519929 1.697473 0.012925 -0.000540 23846.700000 0 0 1
-28.869057 15.786957 -5.028253 33.285640 -0.500419 1.722441 0.008986 -0.002432 -287192.000000 0 0 1
-28.407327 14.562957 -4.194153 32.197001 -0.473715 1.701433 0.026825 -0.015106 -99402.700000 0 0 1
-29.500377 13.844357 -3.701653 32.796962 -0.438783 1.683903 0.040265 -0.014389 45105.000000 0 0 1
-29.061167 12.596957 -3.233253 31.838478 -0.409017 1.672523 0.047913 -0.023168 -277670.000000 0 0 1
-30.147777 11.777357 -2.518553 32.464407 -0.372424 1.648453 0.060207 -0.026430 -43769.100000 0 0 1
-31.102797 11.308057 -3.486953 33.277845 -0.348713 1.675772 0.052373 -0.012908 132015.000000 0 0 1
-31.958197 10.376057 -2.911453 33.726332 -0.313939 1.657230 0.058007 -0.012097 -957422.000000 0 0 1
-32.982707 9.968557 -3.947553 34.681613 -0.293507 1.684866 0.041916 -0.005233 -554002.000000 0 0 1
-32.451717 9.292557 -5.026653 34.128182 -0.278888 1.718622 0.044327 -0.013566 -330656.000000 0 0 1
-33.516967 8.882257 -5.775653 35.151668 -0.259053 1.735851 0.043004 -0.002613 -616510.000000 0 0 1
-33.044227 7.910057 -6.854853 34.662357 -0.234957 1.769869 0.047641 -0.003380 -292779.000000 0 0 1
-32.438147 6.734957 -6.299253 33.723488 -0.204716 1.758691 0.043999 -0.003920 646252.000000 0 0 1
-32.062067 5.832857 -7.352353 33.407417 -0.179956 1.792694 0.036723 0.002188 -359779.000000 0 0 1
-31.001657 4.766757 -7.065253 32.151867 -0.152563 1.792351 0.045209 -0.000544 -564236.000000 0 0 1
-29.690637 5.207857 -6.862753 30.915257 -0.173638 1.794647 0.050212 -0.001764 -440222.000000 0 0 1
-28.969847 4.120357 -6.372553 29.947268 -0.141282 1.785228 0.038958 -0.005909 446939.000000 0 0 1
-27.418287 4.361557 -6.310253 28.471125 -0.157753 1.794289 0.050118 -0.001943 1141560.000000 0 0 1
-26.731357 4.564857 -7.564653 28.153639 -0.169136 1.842831 0.050448 0.001390 552164.000000 0 0 1
-25.336697 4.405857 -7.429553 26.768602 -0.172171 1.852036 0.060007 -0.009808 702362.000000 0 0 1
-24.337937 5.053457 -8.489153 26.266677 -0.204728 1.899896 0.049090 -0.003577 653173.000000 0 0 1
-24.519937 4.589757 -9.834953 26.814539 -0.185043 1.946338 0.055469 -0.014335 655673.000000 0 0 1
-23.437337 4.951757 -10.678353 26.227007 -0.208214 1.990129 0.053107 -0.018070 -132676.000000 0 0 1
-23.675337 4.284757 -12.088553 26.926081 -0.179042 2.036390 0.065549 -0.021863 283146.000000 0 0 1
-24.783937 4.824457 -12.801453 28.308941 -0.192256 2.040033 0.071871 -0.014784 333506.000000 0 0 1
-25.110797 3.926957 -13.872653 28.955546 -0.155129 2.070427 0.067976 -0.020415 443747.000000 0 0 1
-26.279467 4.496857 -14.747753 30.468481 -0.169475 2.076054 0.049051 -0.019171 -94287.300000 0 0 1
-25.884147 5.593757 -15.530853 30.699945 -0.212834 2.101212 0.052528 -0.017139 71381.000000 0 0 1
-26.887467 6.371657 -16.156653 32.008926 -0.232683 2.099894 0.086997 -0.024954 -430865.000000 0 0 1
-27.542787 5.723457 -17.387053 33.070723 -0.204886 2.124397 0.047789 -0.019791 -404638.000000 0 0 1
-28.691597 5.007457 -17.010553 33.728939 -0.172787 2.099404 0.047854 -0.021178 -420522.000000 0 0 1
-29.399407 4.555357 -18.126553 34.837456 -0.153725 2.118020 0.043908 -0.014867 42719.700000 0 0 1
-30.796297 4.007057 -17.763653 35.777309 -0.129388 2.090365 0.032481 -0.013708 -131587.000000 0 0 1
-30.632297 2.840957 -16.913053 35.106410 -0.092479 2.073465 0.026783 -0.017819 493048.000000 0 0 1
-30.130827 1.624057 -17.515353 34.889711 -0.053848 2.096730 0.038034 -0.019329 4526.170000 0 0 1
-30.476227 0.511057 -16.525753 34.672210 -0.016767 2.067612 0.034617 -0.019328 -973002.000000 0 0 1
-29.953377 -0.754443 -16.808053 34.355271 0.025182 2.082017 0.032033 -0.001247 381016.000000 0 0 1
-30.335587 -1.814943 -15.880553 34.288976 0.059758 2.052330 0.028286 -0.011712 -356949.000000 0 0 1
-30.095717 -3.076443 -16.711653 34.561482 0.101868 2.075484 0.023220 0.002329 134520.000000 0 0 1
-31.029627 -3.169943 -17.781853 35.903769 0.101805 2.088935 0.029755 -0.002420 103232.000000 0 0 1
-30.781187 -4.373843 -18.490553 36.173368 0.141150 2.107336 0.035812 -0.000087 -374810.000000 0 0 1
-31.658087 -4.566543 -19.676353 37.553251 0.143258 2.122288 0.057140 -0.005965 -486516.000000 0 0 1
-31.234887 -5.615443 -20.482753 37.771611 0.177881 2.143944 0.057987 -0.001630 512181.000000 0 0 1
-32.267387 -5.909843 -21.430453 39.183860 0.181145 2.149478 0.063942 -0.011958 135575.000000 0 0 1
-31.979847 -7.220543 -22.257753 39.626436 0.222061 2.167223 0.068376 -0.011565 -364807.000000 0 0 1
-30.845407 -7.151443 -23.071653 39.177589 0.227823 2.200493 0.065206 -0.010447 -419525.000000 0 0 1
-30.714707 -8.179643 -24.019753 39.840286 0.260270 2.217929 0.059380 -0.007906 -493313.000000 0 0 1
-29.447567 -8.070543 -24.856053 39.371516 0.267497 2.254051 0.045224 -0.003459 -867892.000000 0 0 1
-29.334827 -6.863243 -25.580203 39.521931 0.229828 2.274755 0.047918 -0.001530 29971.600000 0 0 1
-29.474977 -7.078443 -27.001483 40.595058 0.235688 2.298480 0.032563 -0.002149 833059.000000 0 0 1
-30.916627 -7.135743 -27.657583 42.091550 0.226834 2.287737 0.043607 -0.000840 712707.000000 0 0 1
-31.580497 -8.323443 -27.373883 42.613812 0.257702 2.268384 0.043449 -0.002991 -316468.000000 0 0 1
-32.890007 -8.368843 -27.905503 43.937538 0.249162 2.258957 0.053451 -0.002034 430341.000000 0 0 1
-33.763537 -9.531743 -27.389413 44.508545 0.275148 2.233657 0.055508 -0.005701 -461518.000000 0 0 1
-33.246237 -10.786743 -27.802083 44.661191 0.313734 2.242743 0.051313 0.000730 -219168.000000 0 0 1
-34.111143 -11.872843 -27.680583 45.505485 0.334949 2.224702 0.036950 -0.003747 -913443.000000 0 0 1
-35.384825 -12.038743 -28.478743 46.989957 0.327939 2.221894 0.026067 0.000151 -654280.000000 0 0 1
34.743551 -11.039143 -28.105063 46.031203 -0.307644 2.227571 0.016652 -0.007434 -458915.000000 0 0 1
33.810671 -10.836443 -29.125633 45.922680 -0.310160 2.257811 0.012233 -0.011613 -367870.000000 0 0 1
32.941091 -9.569843 -28.875703 44.838640 -0.282731 2.270501 0.005193 -0.004845 257043.000000 0 0 1
31.795301 -9.893143 -28.087683 43.562982 -0.301656 2.271506 -0.013471 -0.004000 173001.000000 0 0 1
31.152761 -8.694043 -27.659183 42.557154 -0.272153 2.278289 -0.026283 -0.000870 -160300.000000 0 0 1
29.894511 -9.079343 -26.886903 41.219193 -0.294859 2.281399 -0.015689 0.001061 -424291.000000 0 0 1
30.221801 -9.406543 -25.543643 40.673309 -0.301746 2.249802 -0.020430 0.007113 -197124.000000 0 0 1
29.145801 -10.029143 -24.907153 39.628623 -0.331411 2.250438 -0.034553 0.009152 -357008.000000 0 0 1
29.347741 -10.136543 -23.357253 38.853581 -0.332566 2.215749 -0.040990 0.006420 255710.000000 0 0 1
30.104181 -11.246743 -22.855053 39.434813 -0.357537 2.188992 -0.047355 0.007390 322913.000000 0 0 1
30.397311 -11.040243 -21.494653 38.831735 -0.348384 2.157397 -0.027633 0.002034 -46452.500000 0 0 1
31.329451 -12.079143 -20.834153 39.515847 -0.367990 2.126140 0.001536 0.002318 -67290.000000 0 0 1
32.630531 -12.030643 -21.377453 40.822585 -0.353230 2.121946 0.015167 -0.001189 206820.000000 0 0 1
33.531711 -12.789543 -20.561353 41.360819 -0.364384 2.091074 0.043191 -0.000792 338512.000000 0 0 1
34.979401 -13.050043 -21.079353 42.874250 -0.357085 2.084786 0.056135 -0.014584 221229.000000 0 0 1
-35.276064 -11.862943 -21.132953 42.798737 0.324408 2.087222 0.074317 -0.011492 377715.000000 0 0 1
35.425554 -10.887943 -22.109553 43.154948 -0.298184 2.108691 0.077402 -0.007353 -1036450.000000 0 0 1
-35.161176 -11.223343 -23.562053 43.788607 0.308974 2.138961 0.059046 -0.007368 227690.000000 0 0 1
35.256714 -12.281443 -24.326853 44.560807 -0.335198 2.148289 0.052867 -0.006619 496727.000000 0 0 1
33.867181 -12.111743 -24.548453 43.546606 -0.343451 2.169689 0.068595 -0.011570 -109064.000000 0 0 1
33.192961 -13.316043 -25.239713 43.773655 -0.381515 2.185353 0.028870 -0.022462 -359599.000000 0 0 1
33.355811 -14.520943 -24.527253 43.875439 -0.410592 2.164000 0.023137 -0.029955 417120.000000 0 0 1
32.378581 -14.632843 -23.517753 42.609592 -0.424458 2.155480 0.007436 -0.021907 -517157.000000 0 0 1
-29.257217 8.742957 -19.437153 36.197058 -0.290384 2.137651 0.027272 -0.009663 1147610.000000 0 0 1
-27.815777 8.696057 -19.326153 34.969116 -0.303004 2.156353 0.035284 -0.000664 1040110.000000 0 0 1
-27.266647 8.519457 -20.626653 35.235068 -0.302839 2.196171 0.045353 -0.023020 -145397.000000 0 0 1
-26.102147 7.536057 -20.692853 34.151258 -0.281071 2.221715 0.051348 -0.022239 557363.000000 0 0 1
-24.871937 8.026457 -20.119253 32.982141 -0.312161 2.226863 0.060032 -0.028216 540359.000000 0 0 1
-23.876237 7.047657 -20.099253 31.995690 -0.287024 2.250016 0.065288 -0.028155 382588.000000 0 0 1
-22.454637 7.579857 -19.732353 30.838786 -0.325552 2.265106 0.059429 -0.028145 531174.000000 0 0 1
-21.865937 8.406557 -20.701653 31.262563 -0.367038 2.294529 0.066027 -0.031402 -787181.000000 0 0 1
-20.648037 8.857957 -20.206153 30.217437 -0.405252 2.303244 0.060398 -0.024102 -885637.000000 0 0 1
-19.941537 9.905357 -21.112053 30.683869 -0.461020 2.329596 0.062086 -0.016722 6808.490000 0 0 1
-19.313337 9.261357 -22.229253 30.869361 -0.447139 2.374753 0.067843 -0.017626 20676.900000 0 0 1
-18.791437 10.219657 -23.135753 31.509087 -0.498107 2.395367 0.063184 -0.018864 205382.000000 0 0 1
-17.845337 9.586057 -24.180453 31.544300 -0.492943 2.444256 0.063360 -0.009132 32066.000000 0 0 1
-18.587337 8.678757 -24.925353 32.281313 -0.436833 2.452982 0.063775 -0.007367 -194192.000000 0 0 1
-17.756337 7.961657 -25.762193 32.285695 -0.421509 2.494674 0.055481 0.000498 -824937.000000 0 0 1
-18.444437 6.845957 -26.544483 33.040490 -0.355406 2.503767 0.030812 0.004729 -150121.000000 0 0 1
-18.909237 5.800957 -25.689463 32.421580 -0.297664 2.485459 0.043621 -0.004127 308721.000000 0 0 1
-19.750137 4.893057 -26.381453 33.316528 -0.242858 2.484617 0.031339 -0.004622 -531799.000000 0 0 1
-20.176637 3.714857 -25.486333 32.717733 -0.182078 2.463828 0.028251 0.001242 82967.900000 0 0 1
-19.201837 2.733657 -25.186053 31.788689 -0.141414 2.485359 0.029325 0.002421 189475.000000 0 0 1
-17.983037 3.091457 -24.589753 30.620299 -0.170246 2.503199 0.027485 0.000299 -614519.000000 0 0 1
-17.112237 1.912557 -24.148253 29.658467 -0.111304 2.522165 0.023650 -0.002726 -283236.000000 0 0 1
-17.574137 1.046157 -23.099753 29.043818 -0.059458 2.490367 0.022286 -0.001671 342367.000000 0 0 1
-18.822337 0.378057 -23.296153 29.952196 -0.020083 2.461919 0.023515 0.004727 352675.000000 0 0 1
-19.264337 -0.422343 -22.078453 29.304456 0.021920 2.424039 0.032160 -0.001586 -305678.000000 0 0 1
-18.448437 -1.542743 -21.827553 28.621093 0.083430 2.438179 0.036273 -0.002454 214670.000000 0 0 1
-19.013937 -2.358443 -20.774553 28.260823 0.123407 2.396612 0.032781 -0.001321 17932.500000 0 0 1
-18.472037 -3.797343 -20.577753 27.912003 0.202748 2.399768 0.029037 -0.006880 -132261.000000 0 0 1
-18.671437 -4.627143 -21.673853 28.979112 0.242925 2.415709 0.027199 -0.010304 233036.000000 0 0 1
-18.436137 -5.961943 -21.376053 28.850851 0.312769 2.405229 0.042356 -0.004403 -304680.000000 0 0 1
-18.576837 -6.896343 -22.573253 30.036814 0.355464 2.421159 0.014503 -0.007862 384587.000000 0 0 1
-17.336637 -7.128743 -23.256353 29.870319 0.390120 2.463192 0.019628 0.003803 287669.000000 0 0 1
-17.430837 -7.934143 -24.367553 30.992941 0.427152 2.475479 0.034332 -0.007913 396734.000000 0 0 1
-16.094037 -7.960943 -25.161523 30.911113 0.459360 2.521795 0.036537 -0.011189 -382626.000000 0 0 1
-16.063537 -8.915943 -26.232083 32.025825 0.506706 2.530622 0.045262 -0.040628 453458.000000 0 0 1
-14.760637 -9.016443 -26.817973 31.912010 0.548355 2.568766 0.060016 -0.040938 388024.000000 0 0 1
-13.716037 -9.788243 -26.016303 30.996571 0.619818 2.566843 0.071130 -0.036884 -1117950.000000 0 0 1
-13.186237 -8.991043 -24.999053 29.659204 0.598441 2.573403 0.062219 -0.025451 -475378.000000 0 0 1
-12.425637 -9.833143 -24.183653 28.912562 0.669450 2.561553 0.042145 -0.021163 -101589.000000 0 0 1
-11.532837 -8.987443 -23.225453 27.444529 0.661986 2.579739 0.039059 -0.015312 38526.000000 0 0 1
-12.228837 -8.388743 -22.162453 26.666267 0.601255 2.551887 0.034943 -0.006402 -268446.000000 0 0 1
-11.361437 -7.850343 -21.235953 25.331322 0.604636 2.565005 0.027454 -0.004930 -569731.000000 0 0 1
-12.009537 -7.825043 -19.799553 24.443457 0.577477 2.514973 0.024585 -0.000479 487725.000000 0 1 0
-12.973037 -6.808543 -19.559753 24.438492 0.483308 2.498703 0.018753 0.007505 1114990.000000 0 1 0
-14.340637 -7.166443 -19.848153 25.513937 0.463431 2.462167 0.025122 -0.001027 729856.000000 0 0 1
-15.274737 -5.993343 -19.465553 25.458702 0.373911 2.441206 0.028692 0.000893 -389174.000000 0 0 1
-15.208037 -5.692043 -18.079453 24.301243 0.358138 2.409792 0.024339 0.003192 327612.000000 0 1 0
-14.821337 -4.361343 -17.773153 23.549487 0.286183 2.426016 0.023958 -0.003190 -455783.000000 0 1 0
-14.802437 -4.017443 -16.209353 22.315805 0.265020 2.383810 0.031198 -0.006939 -149818.000000 0 1 0
-16.037337 -3.865543 -15.561353 22.678058 0.236522 2.327028 0.050141 -0.010321 -359959.000000 0 1 0
-16.625037 -2.591643 -15.740653 23.040761 0.154643 2.322885 0.030537 -0.010033 -101141.000000 0 1 0
-17.879037 -2.380743 -14.863253 23.371868 0.132380 2.260030 0.037467 -0.012165 -242244.000000 0 1 0
-17.718537 -2.626143 -13.477053 22.415935 0.147143 2.215831 0.058107 -0.022956 387391.000000 0 1 0
-18.671237 -1.953543 -12.678953 22.653638 0.104249 2.164805 0.054457 -0.023613 -98880.700000 0 1 0
-18.093737 -0.701743 -11.963353 21.702479 0.038764 2.154650 0.045837 -0.022980 64177.400000 0 1 0
-17.697437 0.329857 -12.864353 21.881492 -0.018637 2.199269 0.049834 -0.021987 732854.000000 0 1 0
-16.663637 1.120757 -12.290553 20.736215 -0.067156 2.205215 0.041483 -0.012500 -339967.000000 0 1 0
-16.225037 2.289257 -13.230653 21.060454 -0.140169 2.250063 0.051412 -0.012482 735943.000000 0 1 0
-15.423737 1.895257 -14.388753 21.178288 -0.122266 2.317755 0.041405 -0.017139 78651.900000 0 1 0
-14.131537 1.445457 -14.156753 20.055008 -0.101931 2.354484 0.037740 -0.014760 -1401330.000000 0 1 0
-13.571237 0.560457 -15.269653 20.436607 -0.041274 2.414593 0.034412 -0.015907 -291699.000000 0 1 0
-13.226337 1.253357 -16.466653 21.157920 -0.094480 2.462708 0.031733 -0.020892 232234.000000 0 1 0
-12.777337 0.273557 -17.392953 21.583559 -0.021406 2.507894 0.016039 -0.012974 -319128.000000 0 1 0
-12.149437 0.826657 -18.641953 22.266895 -0.067936 2.562948 0.024998 -0.014822 -195142.000000 0 1 0
-10.869937 1.380657 -18.427553 21.439134 -0.126340 2.605143 0.003915 -0.014825 -312023.000000 0 1 0
-10.535037 2.234857 -19.513953 22.288472 -0.209037 2.637303 0.006782 -0.015876 347987.000000 0 1 0
-9.108537 2.851157 -19.424953 21.643090 -0.303359 2.684893 0.005833 -0.011765 -1145250.000000 0 1 0
-8.151237 1.858157 -19.616453 21.323711 -0.224130 2.738714 0.012758 -0.006617 -791956.000000 0 1 0
-6.827337 2.295257 -19.444953 20.736127 -0.324316 2.786842 0.010511 -0.000113 228630.000000 0 1 0
-6.333337 3.436657 -20.430253 21.663726 -0.497167 2.802518 0.014087 0.000092 -1389780.000000 0 1 0
-6.435637 3.094357 -21.742653 22.885267 -0.448183 2.824263 0.014846 0.003449 222998.000000 0 1 0
-5.880137 4.064357 -22.588453 23.692472 -0.604796 2.835115 0.011563 0.001881 -327645.000000 0 1 0
-5.309637 3.510757 -23.929253 24.761398 -0.584212 2.881606 0.017329 -0.008279 243286.000000 0 1 0
-4.008037 2.972757 -23.749653 24.268244 -0.638167 2.934490 0.025475 -0.011911 21422.100000 0 1 0
-3.549737 2.282657 -24.902553 25.257639 -0.571474 2.973714 0.044823 -0.016737 105992.000000 0 0 1
-2.105037 1.757657 -24.916553 25.067014 -0.695707 3.031972 0.026815 -0.010333 -5883.230000 0 0 1
-1.037237 2.707157 -24.725253 24.894632 -1.204903 3.024875 0.016997 -0.008336 490305.000000 0 1 0
0.237863 2.134157 -24.675253 24.768515 1.459799 3.054786 0.021230 -0.009722 -223802.000000 0 1 0
0.635063 1.266957 -23.456453 23.499227 1.106149 3.081247 0.026932 -0.019431 -912605.000000 0 1 0
0.006263 -0.021443 -23.455653 23.455664 -1.286647 3.140640 0.025588 -0.018654 179394.000000 0 1 0
0.699563 -0.973243 -22.649853 22.681544 -0.947567 3.088724 0.028136 -0.016955 -555255.000000 0 1 0
0.245763 -2.396743 -22.876053 23.002578 -1.468613 3.036659 0.039418 -0.017147 364440.000000 0 1 0
-0.874837 -2.863943 -22.082453 22.284574 1.274332 3.006806 0.028409 -0.017560 1565260.000000 0 1 0
-2.158937 -2.866843 -22.766953 23.048079 0.925332 2.985245 0.034941 -0.022011 1065610.000000 0 1 0
-2.843937 -1.477143 -22.835853 23.059621 0.479048 3.002168 0.036115 -0.018918 -1838450.000000 0 1 0
-3.188537 -0.944543 -21.566153 21.821043 0.287995 2.988598 0.019085 -0.012931 155636.000000 0 1 0
-4.019437 0.203357 -21.548153 21.920770 -0.050550 2.956949 0.008880 -0.011033 1593010.000000 0 1 0
-5.469237 -0.006443 -22.176953 22.841407 0.001178 2.899799 0.007484 -0.010782 409648.000000 0 1 0
-6.254537 -0.995443 -21.530153 22.442318 0.157832 2.855504 0.012707 -0.010963 -453009.000000 0 1 0
-7.543737 -0.845743 -22.081253 23.349625 0.111646 2.810474 0.011213 -0.005189 336153.000000 0 1 0
-8.539537 -2.006743 -21.745253 23.447959 0.230807 2.758154 0.014425 -0.006735 272307.000000 0 1 0
-8.543737 -2.997943 -22.746253 24.482139 0.337471 2.762757 0.034787 -0.007593 -41330.600000 0 1 0
-8.941637 -4.247243 -22.203053 24.309824 0.443445 2.722201 0.018168 -0.007507 -164816.000000 0 1 0
-9.861137 -5.062943 -23.202753 25.714649 0.474329 2.695910 0.025065 -0.009154 1515720.000000 0 0 1
-11.224837 -4.561243 -23.267753 26.233381 0.385971 2.661500 0.026475 -0.011579 1092300.000000 0 0 1
-11.950337 -5.309643 -24.227153 27.531034 0.418111 2.646647 0.028256 -0.022830 -623306.000000 0 0 1
-13.459037 -5.245543 -24.110953 28.106929 0.371632 2.601828 0.042285 -0.023341 -486627.000000 0 0 1
-14.071637 -3.973443 -24.298053 28.358326 0.275207 2.599872 0.029152 -0.025981 -373864.000000 0 0 1
-15.467537 -3.984643 -24.304753 29.083382 0.252131 2.560188 0.036017 -0.026285 -63682.200000 0 0 1
-16.134537 -2.596943 -24.587753 29.523296 0.159587 2.554989 0.026826 -0.017230 10115.800000 0 0 1
-15.874237 -2.150543 -25.915453 30.466818 0.134654 2.587945 0.022705 -0.018329 13628.500000 0 0 1
-16.071237 -0.799743 -26.268323 30.805017 0.049721 2.591983 0.016930 -0.017113 390321.000000 0 0 1
-17.535437 -0.604243 -26.800033 32.032772 0.034445 2.561924 0.013015 -0.011795 530302.000000 0 0 1
-17.841537 -1.419443 -27.923933 33.167474 0.079391 2.571604 0.018857 -0.021398 -39327.900000 0 0 1
-17.441037 -0.799843 -29.119953 33.952926 0.045828 2.601491 0.016567 -0.017103 -435837.000000 0 0 1
-17.588837 -1.518343 -30.468123 35.213337 0.086111 2.616433 0.007115 -0.013400 24704.800000 0 0 1
-18.916637 -1.761643 -30.886343 36.261671 0.092859 2.590137 -0.003662 -0.013248 127988.000000 0 0 1
-18.961337 -2.316043 -32.158613 37.404181 0.121543 2.605596 -0.000697 -0.018722 -740369.000000 0 0 1
-20.359837 -2.891043 -32.511293 38.469017 0.141054 2.577603 -0.013968 -0.011231 -193789.000000 0 0 1
-21.287837 -1.891743 -32.834223 39.176995 0.088632 2.564586 -0.007749 -0.011316 -22118.500000 0 0 1
-21.912137 -1.303943 -31.731123 38.583756 0.059438 2.536406 -0.012637 0.004100 -1300710.000000 0 0 1
-23.011637 -0.372243 -32.200943 39.579979 0.016175 2.521056 -0.008292 0.007119 -854931.000000 0 0 1
-22.447537 0.875757 -32.629453 39.614898 -0.038994 2.538642 -0.008171 0.001144 799574.000000 0 0 1
-23.483537 1.771157 -32.983533 40.528101 -0.075279 2.521533 -0.011215 0.002763 122815.000000 0 0 1
-22.898537 3.090757 -33.483393 40.682102 -0.134165 2.537556 -0.000942 0.001884 -803913.000000 0 0 1
-22.442037 4.019757 -32.467483 39.672925 -0.177238 2.529381 -0.009022 -0.002401 180976.000000 0 0 1
-23.371537 4.644257 -31.594733 39.573034 -0.196159 2.495414 -0.011587 -0.000031 -763073.000000 0 0 1
-24.434737 5.460357 -32.357553 40.913117 -0.219855 2.483049 -0.014170 -0.004184 -1063140.000000 0 0 1
-25.479167 4.644257 -32.765183 41.764989 -0.180297 2.472707 -0.014604 -0.002125 -587870.000000 0 0 1
-26.332977 5.269357 -33.703253 43.094096 -0.197496 2.468801 -0.002594 -0.007252 -207140.000000 0 0 1
-27.625397 4.487157 -33.967923 44.012691 -0.161022 2.452425 0.003619 -0.005318 -472089.000000 0 0 1
-27.365267 3.221557 34.305629 44.001278 -0.117185 0.676688 0.000260 -0.007081 105727.000000 0 0 1
-28.435687 2.713457 33.547912 44.061475 -0.095136 0.705344 0.003069 -0.001445 -137522.000000 0 0 1
-28.455897 1.156557 33.365592 43.867283 -0.040621 0.706555 0.008404 0.016490 -245767.000000 0 0 1
-28.577027 0.466257 -34.244561 44.604415 -0.016314 2.446102 0.003453 0.015631 235272.000000 0 0 1
-28.855647 -0.881043 34.291576 44.825627 0.030523 0.699756 0.010930 0.016223 -1272620.000000 0 0 1
-28.694647 -1.870943 -33.384923 44.061733 0.065110 2.430555 -0.008832 0.015659 794751.000000 0 0 1
-27.329067 -2.285643 -33.129383 43.007652 0.083440 2.450129 -0.004915 0.012169 1790870.000000 0 0 1
-26.463907 -1.190743 -32.698743 42.082824 0.044965 2.460697 -0.018738 0.016713 -1145740.000000 0 0 1
-26.604387 -0.654743 -31.222423 41.025137 0.024605 2.435736 0.003867 0.014612 -719538.000000 0 0 1
-26.015127 -1.475243 -30.230323 39.910345 0.056646 2.430204 0.002997 0.006274 218874.000000 0 0 1
-26.068067 -0.948843 -28.964693 38.979455 0.036383 2.408451 0.008252 0.001470 -426558.000000 0 0 1
-25.081967 -1.451643 -27.922273 37.561492 0.057811 2.408898 0.008599 0.002467 -487592.000000 0 0 1
-25.229877 -2.838243 -27.694293 37.570949 0.112024 2.399595 0.004591 0.000475 413574.000000 0 0 1
-24.258037 -3.369843 -26.795253 36.301430 0.138033 2.401094 0.011756 -0.000803 267180.000000 0 0 1
-24.772037 -4.693743 -26.135493 36.314585 0.187258 2.374162 0.016824 -0.009933 27979.700000 0 0 1
-25.785187 -4.519743 -25.196043 36.333794 0.173522 2.337077 0.019369 -0.009194 -376284.000000 0 0 1
-25.908727 -5.658743 -24.355753 36.006753 0.215034 2.313690 0.015584 -0.008711 150989.000000 0 0 1
-26.940877 -5.374543 -23.253953 35.992262 0.196909 2.273236 0.033988 -0.006873 63768.600000 0 0 1
-27.001937 -6.443743 -22.312553 35.615678 0.234259 2.247827 0.024327 -0.006755 266017.000000 0 0 1
-28.136687 -6.369043 -21.452653 35.950719 0.222609 2.210209 0.039088 0.000358 -101969.000000 0 0 1
-28.378417 -7.721843 -20.807853 36.026771 0.265671 2.186541 0.036330 -0.000427 -361292.000000 0 0 1
-27.373387 -8.162643 -19.894553 34.809831 0.289801 2.179155 0.030241 -0.001227 205235.000000 0 0 1
-27.818257 -8.983943 -18.809053 34.761288 0.312378 2.142531 0.044526 -0.002452 -508301.000000 0 0 1
-28.651627 -8.316643 -17.714153 34.696881 0.282504 2.106609 0.039953 -0.000875 -136086.000000 0 0 1
-27.903427 -7.476743 -16.866053 33.450960 0.261801 2.099254 0.025632 -0.001181 370131.000000 0 0 1
-28.751997 -6.855043 -15.914953 33.570146 0.234050 2.064716 0.026645 -0.002123 32609.700000 0 0 1
-27.997977 -5.940843 -14.959253 32.294885 0.209087 2.052408 0.026957 0.001158 141114.000000 0 0 1
-27.324177 -4.826143 -15.558253 31.811344 0.174822 2.081830 0.027271 0.005221 637734.000000 0 0 1
-26.548517 -4.068243 -14.633853 30.586338 0.152055 2.069678 0.039077 -0.001792 -45271.100000 0 0 1
-13.791737 21.778157 -4.525353 26.172103 -1.006263 1.744577 0.034373 -0.018724 -241558.000000 0 0 1
-14.049437 21.348957 -5.812453 26.209717 -0.988758 1.794423 0.063497 -0.031797 84293.300000 0 0 1
-14.807737 20.154057 -5.628853 25.634724 -0.937142 1.792179 0.045968 -0.034368 225028.000000 0 0 1
-15.188537 19.448557 -6.973753 25.643152 -0.907774 1.846219 0.071616 -0.034302 -769155.000000 0 0 1
-14.073537 18.864357 -7.559253 24.719845 -0.929835 1.881572 0.070415 -0.030900 -475974.000000 0 1 0
-14.308837 17.813957 -8.534053 24.390776 -0.894084 1.928248 0.056610 -0.029723 -293894.000000 0 1 0
-15.030637 16.500957 -8.037953 23.723624 -0.831994 1.916455 0.050941 -0.013607 762035.000000 0 1 0
-16.423037 16.696657 -7.764753 24.673587 -0.793660 1.890936 0.054718 -0.001630 508121.000000 0 1 0
-16.720437 15.513157 -7.041853 23.870877 -0.747962 1.870249 0.067920 -0.007373 637838.000000 0 1 0
-18.253137 15.609557 -6.677653 24.928424 -0.707489 1.841981 0.068687 -0.005939 478700.000000 0 1 0
-19.027437 15.095257 -7.699853 25.479362 -0.670668 1.877796 0.071577 -0.008079 142913.000000 0 0 1
-20.382537 15.566557 -7.532653 26.730252 -0.652224 1.856469 0.039956 -0.008946 786710.000000 0 0 1
-21.327137 14.886457 -8.543653 27.376037 -0.609386 1.888183 0.043422 -0.000086 -203685.000000 0 0 1
-21.378337 13.499857 -8.190753 26.577582 -0.563241 1.884079 0.060619 -0.002142 53000.700000 0 0 1
-22.004837 12.828457 -9.253153 27.099871 -0.527813 1.919252 0.051223 0.004119 -328871.000000 0 0 1
-22.369737 11.441957 -8.749753 26.606046 -0.472799 1.905896 0.044258 -0.004176 -253994.000000 0 0 1
-21.378837 10.449857 -8.513353 25.273135 -0.454643 1.914370 0.044888 -0.007020 94970.700000 0 0 1
-21.869737 9.566057 -7.555753 25.037657 -0.412335 1.877351 0.048838 -0.002634 205166.000000 0 0 1
-20.803837 8.445257 -7.253553 23.595255 -0.385623 1.883272 0.038190 0.000067 350105.000000 0 1 0
-20.702937 7.328257 -8.111553 23.411797 -0.340209 1.924605 0.034821 0.001238 806690.000000 0 1 0
-19.669337 6.472757 -7.582453 22.051599 -0.317916 1.921811 0.033828 0.004318 232267.000000 0 1 0
-19.420837 5.263257 -8.454853 21.825566 -0.264654 1.968588 0.019901 -0.007479 -320264.000000 0 1 0
-20.496537 4.351957 -8.539653 22.626826 -0.209219 1.957797 0.034212 -0.004981 390598.000000 0 1 0
-20.124937 3.333857 -9.425853 22.471636 -0.164167 2.003642 0.021624 -0.006707 12846.600000 0 1 0
-21.121837 2.126257 -9.372253 23.205433 -0.100328 1.986553 0.020013 -0.011963 561539.000000 0 1 0
-20.857037 1.299957 -8.185153 22.443320 -0.062246 1.944110 0.027722 -0.018166 634791.000000 0 1 0
-21.838437 0.245757 -8.121053 23.300842 -0.011253 1.926799 0.034719 -0.016346 223460.000000 0 1 0
-21.619837 -0.985243 -9.034153 23.452164 0.045540 1.966238 0.018739 -0.025587 799073.000000 0 1 0
-20.414637 -1.724943 -8.708953 22.261597 0.084295 1.972742 0.015185 -0.017858 1225370.000000 0 1 0
-20.381837 -3.046043 -9.284953 22.603275 0.148351 1.994105 0.011445 -0.018679 -218339.000000 0 1 0
-21.371937 -4.053543 -8.639253 23.405718 0.187440 1.948846 0.012144 -0.020293 30561.300000 0 1 0
-21.159137 -4.202843 -7.240353 22.755125 0.196078 1.894611 0.005538 -0.016549 -26482.300000 0 1 0
-22.141737 -5.009443 -6.663353 23.659065 0.222499 1.856300 0.017911 -0.012085 -898224.000000 0 1 0
-22.118037 -6.525243 -6.924753 24.077761 0.286881 1.862516 0.013185 -0.013948 -465123.000000 0 1 0
-21.057037 -7.255643 -6.340253 23.156900 0.331830 1.848133 0.004902 -0.016827 538902.000000 0 1 0
-21.231537 -8.633543 -6.441253 23.807688 0.386215 1.844764 0.011772 -0.016631 -647214.000000 0 1 0
-20.210737 -9.477643 -5.673853 23.032417 0.438493 1.819701 0.013881 -0.024086 -475872.000000 0 1 0
-19.011737 -9.551343 -6.405853 22.219570 0.465559 1.863245 0.010297 -0.013296 -372179.000000 0 1 0
-18.092437 -10.325743 -5.704053 21.598460 0.518613 1.838062 0.019098 -0.009132 -269534.000000 0 1 0
-17.317937 -11.470543 -6.373153 21.727895 0.585008 1.868491 0.004461 -0.007736 180464.000000 0 1 0
-16.286437 -11.149243 -7.307853 21.046577 0.600297 1.925404 0.007225 -0.015642 540922.000000 0 1 0
-16.776337 -10.810743 -8.609653 21.735772 0.572431 1.978068 0.013580 -0.012779 -169076.000000 0 1 0
-15.773737 -11.055743 -9.751853 21.590250 0.611327 2.039442 0.018509 -0.010881 157088.000000 0 1 0
-15.817337 -12.353443 -10.245753 22.533779 0.663052 2.042814 0.017177 -0.009620 172110.000000 0 1 0
-14.781737 -12.537143 -11.189653 22.380529 0.703420 2.094364 0.022803 0.000886 62750.900000 0 1 0
-14.736437 -13.919643 -11.821153 23.466119 0.756903 2.098735 0.016846 -0.004366 1037640.000000 0 1 0
-15.913537 -14.244543 -12.636653 24.815977 0.730113 2.105068 0.017689 -0.005213 1441170.000000 0 1 0
-15.604037 -15.377543 -13.387253 25.674372 0.778088 2.119316 -0.004474 -0.000857 783342.000000 0 0 1
-16.684737 -15.474843 -14.539653 27.004680 0.747794 2.139348 0.032300 -0.000434 581667.000000 0 0 1
-16.595537 -16.668443 -15.328653 28.075193 0.787590 2.148361 0.015545 0.006332 197921.000000 0 0 1
-16.703537 -16.329643 -16.675453 28.700804 0.774080 2.190765 0.016309 0.001420 -167043.000000 0 0 1
-16.945737 -17.607643 -17.602753 30.117172 0.804552 2.195030 0.017320 -0.002847 -751962.000000 0 0 1
-18.249437 -18.063943 -17.490753 31.068867 0.780290 2.168768 0.018364 -0.005829 -1426770.000000 0 0 1
-18.895037 -17.964443 -18.734653 32.104998 0.760156 2.193881 0.018179 -0.009714 391207.000000 0 0 1
-20.436137 -17.919343 -18.430553 32.839365 0.719875 2.166672 0.017707 -0.007410 362059.000000 0 0 1
-20.796737 -16.832443 -17.617453 32.034514 0.680434 2.153103 0.021357 -0.006406 154044.000000 0 0 1
-20.860437 -17.167643 -16.256453 31.530273 0.688595 2.112484 0.021818 -0.012198 -543793.000000 0 0 1
-20.752537 -15.921343 -15.406953 30.356732 0.654418 2.103112 0.030301 -0.013386 427705.000000 0 0 1
-21.962937 -15.158443 -15.441753 30.831749 0.604107 2.095365 0.044490 -0.014959 721319.000000 0 0 1
-21.787437 -13.812443 -15.026553 29.854201 0.565019 2.098246 0.047507 -0.006038 758768.000000 0 0 1
-23.131237 -13.044943 -14.669553 30.338432 0.513493 2.075480 0.052074 -0.008814 922426.000000 0 0 1
-23.807937 -13.453243 -13.468953 30.483116 0.514343 2.028456 0.061927 -0.013695 1011750.000000 0 0 1
-24.790937 -12.448543 -13.116953 30.685685 0.465359 2.012479 0.080788 -0.013256 581860.000000 0 0 1
-25.676947 -12.901843 -11.902853 31.103715 0.465620 1.963495 0.077335 -0.017718 518638.000000 0 0 1
-26.747937 -12.025343 -11.535553 31.513966 0.422505 1.945553 0.066576 -0.023231 419869.000000 0 0 1
-27.312847 -12.492743 -10.338953 31.764040 0.428986 1.902329 0.058138 -0.026374 -296482.000000 0 0 1
-28.163617 -11.430143 -9.657453 31.892067 0.385537 1.878443 0.083066 -0.031834 -303577.000000 0 0 1
-27.427647 -10.389243 -9.062353 30.697532 0.362087 1.870476 0.064879 -0.028581 38857.000000 0 0 1
-28.264207 -9.504443 -8.316453 30.957443 0.324392 1.842779 0.074033 -0.033319 85087.100000 0 0 1
-27.482517 -8.294943 -7.689953 29.719190 0.293131 1.832528 0.050466 -0.023310 415310.000000 0 0 1
-26.603107 -8.673843 -6.604653 28.750345 0.315178 1.802591 0.042906 -0.027810 326379.000000 0 0 1
-25.785827 -7.688443 -6.059853 27.581568 0.289773 1.792310 0.034862 -0.018209 -131195.000000 0 0 1
-26.550067 -6.477943 -5.431553 27.863446 0.239314 1.766987 0.039128 -0.020029 -542598.000000 0 0 1
-27.426377 -6.797543 -4.370653 28.592226 0.242951 1.724260 0.037806 -0.018689 454025.000000 0 0 1
-26.823477 -7.110543 -3.070053 27.919241 0.259127 1.680981 0.039952 -0.012232 -136144.000000 0 0 1
-26.234417 -5.895643 -2.238353 26.981725 0.221057 1.653850 0.037097 -0.003740 177777.000000 0 0 1
-27.132937 -5.007143 -1.600453 27.637461 0.182488 1.628738 0.038186 -0.005915 334294.000000 0 0 1
-26.398277 -4.122743 -0.753953 26.728908 0.154923 1.599007 0.034990 -0.013345 -226955.000000 0 0 1
-27.230827 -3.024243 -0.021553 27.398257 0.110606 1.571583 0.039913 -0.018342 -437056.000000 0 0 1
-28.061927 -3.551443 0.946447 28.301595 0.125888 1.537349 0.039608 -0.016938 -299844.000000 0 0 1
-27.415417 -3.811043 2.159247 27.763132 0.138126 1.492944 0.034627 -0.007318 208293.000000 0 0 1
-28.460367 -4.142543 3.288447 28.947661 0.144540 1.456951 0.026708 -0.006881 353154.000000 0 0 1
-29.044117 -5.408043 3.121747 29.707793 0.184093 1.465520 0.031561 -0.002038 -92892.300000 0 0 1
-30.064447 -5.568043 4.090247 30.848083 0.183129 1.437811 0.033741 -0.002233 -388881.000000 0 0 1
-30.872957 -6.821443 3.830947 31.848826 0.217458 1.450219 0.029849 -0.000274 -790618.000000 0 0 1
-30.187367 -8.010743 4.132147 31.504346 0.259389 1.439256 0.026188 0.001791 430902.000000 0 0 1
-30.995267 -9.205143 3.976747 32.576921 0.288689 1.448419 0.045194 -0.002126 413534.000000 0 0 1
-30.231167 -10.562743 4.292147 32.309713 0.336139 1.437559 0.028536 0.010050 295808.000000 0 0 1
-30.179417 -10.766743 5.674247 32.541006 0.342682 1.395528 0.021152 0.008626 495921.000000 0 0 1
-29.194387 -11.755843 5.981547 32.035777 0.382810 1.382979 0.021105 0.009873 -48351.500000 0 0 1
-29.257907 -12.260843 7.449647 32.586050 0.396829 1.340142 0.033868 -0.009995 -86228.000000 0 0 1
-28.951857 -11.212243 8.324447 32.143753 0.369486 1.308835 0.044684 -0.006167 359847.000000 0 0 1
-28.806197 -11.627143 9.625447 32.521327 0.383635 1.270322 0.038943 -0.014492 -333336.000000 0 0 1
-29.029567 -10.508643 10.676247 32.666950 0.347323 1.237858 0.030683 -0.013908 -123806.000000 0 0 1
-28.042477 -9.476643 10.753547 31.493270 0.325890 1.222331 0.038300 -0.000996 256878.000000 0 0 1
-28.462357 -8.474843 11.589647 31.878655 0.289397 1.198715 0.027350 -0.002623 142219.000000 0 0 1
-27.504547 -7.230743 11.678147 30.743502 0.257076 1.181154 0.032599 0.006674 185291.000000 0 0 1
-27.454337 -6.374243 10.515747 30.082429 0.228134 1.213690 0.021403 0.009061 162586.000000 0 0 1
-26.560927 -5.282943 10.616347 29.087784 0.196337 1.197189 0.026520 0.002083 -347633.000000 0 0 1
-26.655137 -4.300043 9.498447 28.621796 0.159943 1.232521 0.033992 -0.003084 -296136.000000 0 0 1
-26.289957 -4.714443 8.240447 27.951615 0.177439 1.271538 0.033028 0.001309 89562.800000 0 0 1
-26.507987 -3.824343 7.182347 27.728778 0.143283 1.308787 0.024590 -0.013388 -118015.000000 0 0 1
-25.667937 -4.201243 5.929947 26.676914 0.162238 1.346636 0.028940 0.000983 -979419.000000 0 0 1
-24.315937 -3.895543 6.040847 25.356102 0.158855 1.330243 0.048252 -0.018218 -416034.000000 0 0 1
-23.667837 -4.351943 4.888847 24.556196 0.181845 1.370369 0.053276 -0.004212 -1190780.000000 0 1 0
-22.254137 -3.852343 4.767547 23.082822 0.171408 1.362758 0.057786 -0.008881 -961908.000000 0 1 0
-22.137537 -2.488443 4.489147 22.724774 0.111938 1.371944 0.045571 -0.010950 1035620.000000 0 1 0
-20.758237 -2.093143 4.418247 21.326195 0.100495 1.362110 0.040702 -0.010159 412248.000000 0 1 0
-20.629537 -0.584543 4.761647 21.180009 0.028328 1.344040 0.046785 -0.023561 -275971.000000 0 1 0
-20.870737 0.419557 3.793947 21.216921 -0.020100 1.391012 0.050140 -0.021226 896353.000000 0 1 0
-22.251137 0.718557 3.621047 22.555297 -0.032282 1.409558 0.052185 -0.032433 -53179.300000 0 1 0
-22.499337 1.898457 2.678747 22.737634 -0.084179 1.452711 0.079970 -0.021476 -305921.000000 0 1 0
-21.860237 3.094357 3.031647 22.285329 -0.140618 1.434335 0.063025 -0.020576 334395.000000 0 1 0
-22.112637 4.040957 2.059547 22.572988 -0.180750 1.479430 0.069650 -0.004608 891598.000000 0 1 0
-20.786637 4.291657 1.229947 21.260653 -0.203602 1.512913 0.049838 -0.002239 635223.000000 0 1 0
-20.824437 5.288557 0.181747 21.486253 -0.248701 1.562337 0.047171 0.001488 212086.000000 0 1 0
-21.567837 4.824857 -0.930553 22.120506 -0.220083 1.612876 0.047162 -0.006905 -335928.000000 0 1 0
-21.097037 3.590857 -1.779153 21.474278 -0.168591 1.653742 0.045787 -0.006732 -346163.000000 0 1 0
-21.214437 2.369057 -1.116753 21.375498 -0.111211 1.623065 0.038157 -0.007887 619879.000000 0 1 0
-20.541137 1.316457 -1.809853 20.662695 -0.064001 1.658499 0.020437 -0.009460 -167762.000000 0 1 0
-19.620037 0.441257 -0.954553 19.648200 -0.022486 1.619398 0.009032 -0.008412 -588047.000000 0 1 0
-20.334337 -0.429943 -0.138853 20.339356 0.021141 1.577623 0.010268 -0.013924 120155.000000 0 1 0
-19.606437 -1.107743 0.839647 19.655648 0.056439 1.528065 0.007064 -0.013835 -603412.000000 0 1 0
-18.911637 -2.477343 0.436647 19.078205 0.130254 1.547907 -0.004212 -0.004945 6046.080000 0 1 0
-18.163737 -3.106243 1.434647 18.483190 0.169375 1.493099 0.004122 -0.003896 341774.000000 0 1 0
-17.412937 -4.206943 0.943547 17.938758 0.237056 1.518174 -0.003499 -0.000635 -230963.000000 0 1 0
-18.178037 -5.482543 0.495747 18.993291 0.292926 1.544692 -0.020406 -0.004736 -386896.000000 0 1 0
-18.866737 -6.072143 1.558247 19.880967 0.311375 1.492337 0.000829 -0.004165 631527.000000 0 1 0
-19.849337 -7.012343 1.124547 21.081598 0.339593 1.517428 -0.002528 -0.007906 235196.000000 0 1 0
-20.748837 -7.544543 2.304347 22.197847 0.348750 1.466799 0.020944 0.001390 -83514.000000 0 1 0
-20.099737 -8.382543 3.282847 22.023705 0.395115 1.421179 0.027288 -0.001874 1055010.000000 0 1 0
-21.004837 -8.736743 4.342347 23.160092 0.394171 1.382187 0.048088 -0.009077 445629.000000 0 1 0
-20.240337 -9.524743 5.401747 23.012407 0.439838 1.333854 0.040806 -0.003005 8714.110000 0 1 0
-19.692437 -10.766743 4.969147 22.987111 0.500341 1.352905 0.034607 -0.000128 229708.000000 0 1 0
-18.722437 -11.257743 5.855447 22.617531 0.541373 1.308924 0.040012 -0.005017 -453522.000000 0 1 0
-17.978137 -12.494543 5.359347 22.539956 0.607353 1.330726 0.019714 -0.005099 -52043.300000 0 1 0
-18.730837 -13.753143 5.323047 23.839632 0.633346 1.345612 0.026710 -0.000509 387420.000000 0 1 0
-17.945437 -14.880943 4.997447 23.842308 0.692313 1.359626 0.016053 -0.000422 -409561.000000 0 1 0
-18.777137 -16.150843 5.188147 25.305088 0.710348 1.364308 0.028051 -0.003343 -93501.800000 0 0 1
-18.124237 -17.328643 4.800747 25.530708 0.762961 1.381632 0.027888 -0.004214 118423.000000 0 0 1
-18.574537 -18.432043 5.609647 26.762321 0.781548 1.359620 0.038111 -0.006686 407365.000000 0 0 1
-17.633637 -19.658743 5.336147 26.942268 0.839648 1.371419 0.035646 -0.005437 -274240.000000 0 0 1
-17.750737 -20.227243 4.029447 27.211514 0.850515 1.422171 0.040124 -0.002159 -23506.400000 0 0 1
-17.082337 -21.436143 3.769747 27.668131 0.897952 1.434123 0.033139 -0.002551 -675231.000000 0 0 1
-15.566037 -21.303343 3.714147 26.644490 0.939772 1.430944 0.037529 0.003638 -372224.000000 0 0 1
-14.860437 -22.602943 3.802547 27.316387 0.989198 1.431139 0.029021 0.005660 923857.000000 0 0 1
-13.444737 -22.386743 3.866247 26.398392 1.029960 1.423810 0.019433 0.008161 723957.000000 0 0 1
-12.727737 -23.749543 4.125647 27.259073 1.078831 1.418863 0.032081 0.005378 -165540.000000 0 0 1
-12.649537 -24.547243 2.966447 27.773688 1.094973 1.463784 0.032821 0.008705 228972.000000 0 0 1
-12.097237 -25.855463 3.284147 28.733843 1.133174 1.456251 0.035228 -0.000778 187443.000000 0 0 1
17.963363 19.259257 -24.169353 35.745755 0.820199 2.313316 0.059534 -0.017275 592452.000000 0 0 1
16.886363 19.591757 -25.069753 36.020532 0.859427 2.340587 0.045189 -0.016336 714837.000000 0 0 1
17.328863 19.382457 -26.424143 37.070264 0.841279 2.364296 0.047968 -0.019596 324185.000000 0 0 1
16.312163 19.787957 -27.524883 37.620062 0.881384 2.391542 0.039578 -0.023417 -38898.500000 0 0 1
16.205763 21.172557 -27.744963 38.479694 0.917503 2.376082 0.042623 -0.019973 346503.000000 0 0 1
15.317063 21.392857 -28.833153 39.033543 0.949420 2.401901 0.026504 -0.021674 -161368.000000 0 0 1
15.138863 22.876457 -29.200243 40.064593 0.986194 2.387407 0.014043 -0.014211 -550676.000000 0 0 1
14.451163 23.662057 -28.259423 39.589443 1.022523 2.365723 0.017657 -0.023621 164177.000000 0 0 1
14.208663 24.957657 -28.769193 40.650181 1.053248 2.357071 0.013724 -0.006071 -380684.000000 0 0 1
13.314163 25.747157 -27.815123 40.172927 1.093553 2.335585 0.014066 -0.012536 -509355.000000 0 0 1
12.064163 25.122057 -27.691123 39.286894 1.123096 2.352999 0.009452 -0.019908 -726163.000000 0 0 1
11.304263 25.780057 -26.725203 38.815386 1.157556 2.330244 0.009098 -0.015778 -168223.000000 0 0 1
9.763063 25.586557 -26.738143 38.274242 1.206278 2.344226 0.015857 -0.021471 638025.000000 0 0 1
8.969263 26.421457 -25.902653 38.072148 1.243534 2.319046 0.024673 -0.008162 306241.000000 0 0 1
8.875163 27.775157 -26.287303 39.258759 1.261514 2.304454 0.025080 -0.011458 -680885.000000 0 0 1
8.451663 28.640457 -25.114173 39.018304 1.283845 2.270056 0.032750 -0.008128 14305.300000 0 0 1
9.470863 28.827057 -24.156753 38.784600 1.253365 2.243169 0.028448 -0.004837 162680.000000 0 0 1
8.938963 29.609957 -23.121753 38.616966 1.277606 2.212731 0.048038 -0.009599 -157903.000000 0 0 1
10.010863 29.907057 -22.073753 38.495454 1.247787 2.181461 0.039967 -0.009910 329969.000000 0 0 1
10.974263 30.884557 -22.482853 39.746308 1.229380 2.172028 0.027473 -0.010401 228878.000000 0 0 1
11.632963 31.536257 -21.415253 39.855669 1.217406 2.138053 0.025887 -0.010376 -7338.680000 0 0 1
12.803263 32.431257 -21.926953 41.188605 1.194797 2.132176 0.021967 0.003748 1252550.000000 0 0 1
13.922263 31.612957 -22.424453 41.183304 1.155957 2.146593 0.021965 -0.001366 748981.000000 0 0 1
14.857163 32.526357 -22.975053 42.503555 1.142324 2.141880 0.026319 0.002218 -432325.000000 0 0 1
16.125063 31.888557 -23.521953 42.780603 1.102624 2.152954 0.022721 0.009410 -380796.000000 0 0 1
17.006663 31.421257 -22.508053 42.227176 1.074698 2.132966 0.015696 0.009002 -368437.000000 0 0 1
18.142563 30.984057 -23.208353 42.752684 1.041073 2.144625 0.015025 0.021093 -38540.000000 0 0 1
19.186763 30.167757 -22.375253 42.176740 1.004324 2.130000 0.008018 0.018212 181775.000000 0 0 1
20.040263 30.887657 -21.556853 42.665646 0.995257 2.100469 0.013091 0.016475 -159798.000000 0 0 1
20.962163 30.080757 -20.859953 42.182957 0.962179 2.088069 0.017978 0.023652 161642.000000 0 0 1
21.592363 30.779757 -19.643653 42.420474 0.959056 2.052252 0.022509 0.012945 253995.000000 0 0 1
22.596663 31.768657 -19.932653 43.785470 0.952535 2.043432 0.024324 0.013337 521511.000000 0 0 1
23.096463 32.329857 -18.687353 43.907669 0.950471 2.010427 0.022312 0.010397 -492594.000000 0 0 1
24.390863 33.092857 -18.936853 45.262079 0.935639 2.002460 0.034005 0.006016 -427112.000000 0 0 1
25.467163 32.262557 -19.282553 45.401165 0.902569 2.009443 0.043093 0.006313 -54748.900000 0 0 1
26.701363 32.941057 -19.104853 46.508831 0.889637 1.994105 0.040642 0.001821 237381.000000 0 0 1
27.996763 32.226357 -19.483753 46.925190 0.855515 1.998969 0.049300 -0.005688 -90153.000000 0 0 1
28.349463 31.193057 -18.587553 46.067298 0.833119 1.986121 0.043085 0.000470 -225701.000000 0 0 1
29.674063 30.754057 -18.779853 46.680241 0.803269 1.984833 0.036659 -0.001312 -218824.000000 0 0 1
30.032863 29.506957 -17.921053 45.758032 0.776566 1.973219 0.027510 -0.013909 -375968.000000 0 0 1
30.200763 29.850057 -16.571953 45.582251 0.779558 1.942885 0.010923 -0.009503 11246.900000 0 0 1
30.626263 28.708457 -15.851653 44.871131 0.753088 1.931861 0.009401 -0.013250 -418775.000000 0 0 1
31.112863 28.920257 -14.379353 44.845928 0.748891 1.897200 0.005524 -0.009321 480081.000000 0 0 1
32.355863 29.605857 -14.192953 46.096079 0.741045 1.883781 -0.011410 -0.002843 324211.000000 0 0 1
32.316363 30.982857 -14.479253 47.052454 0.764335 1.883598 -0.001807 -0.004859 -308395.000000 0 0 1
33.720863 31.591557 -14.696153 48.488142 0.752808 1.878727 0.007470 -0.011099 246104.000000 0 0 1
34.330963 31.632657 -13.413053 48.571081 0.744515 1.850586 0.008798 -0.008371 -377982.000000 0 0 1
-35.358146 31.933157 -13.547653 49.532453 -0.734544 1.847837 0.023057 -0.009930 228375.000000 0 0 1
-34.487146 32.204557 -12.290853 48.760248 -0.751186 1.825612 0.021799 -0.008578 128717.000000 0 0 1
-35.027946 33.357157 -11.631653 49.748892 -0.760971 1.806788 0.020963 -0.011546 661182.000000 0 0 1
-34.157446 33.843257 -10.605353 49.239930 -0.780778 1.787878 0.005699 -0.007797 -44965.200000 0 0 1
-34.671446 -33.841297 -9.859253 49.442365 0.773282 1.771551 0.011414 -0.005119 171175.000000 0 0 1
-33.702846 -33.153797 -9.060853 48.136838 0.777186 1.760157 0.010884 -0.003825 77711.100000 0 0 1
-33.460546 -33.778597 -7.802353 48.181723 0.790128 1.733449 0.012962 -0.009194 100874.000000 0 0 1
-33.096246 -32.692097 -6.780853 47.011857 0.779255 1.715538 0.016441 -0.014907 138969.000000 0 0 1
-34.242146 -31.947297 -6.403553 47.266900 0.750741 1.706691 0.015440 -0.008337 -23688.800000 0 0 1
-33.896146 -30.869497 -5.572953 46.183681 0.738700 1.691760 0.028420 -0.008946 760079.000000 0 0 1
-35.167446 -30.110997 -5.019353 46.568394 0.708093 1.678791 0.030078 -0.012240 756522.000000 0 0 1
35.222863 -30.873797 -4.007153 47.009559 -0.719694 1.656141 0.021529 -0.012285 996285.000000 0 0 1
33.819763 -30.580797 -3.866153 45.759246 -0.735146 1.655386 0.018339 -0.008653 962071.000000 0 0 1
33.563663 -29.512497 -2.763253 44.778817 -0.721260 1.632544 0.016105 -0.014373 -539395.000000 0 0 1
34.134863 -28.256497 -2.980053 44.412827 -0.691458 1.637946 0.040687 -0.017598 131487.000000 0 0 1
33.541863 -27.252297 -2.181353 43.272422 -0.682308 1.621227 0.030181 -0.014694 -420996.000000 0 0 1
33.867763 -25.843097 -2.695853 42.686750 -0.651807 1.633993 0.044070 -0.017466 -188804.000000 0 0 1
33.405363 -25.548497 -3.971853 42.242390 -0.652907 1.664961 0.039301 -0.022825 123873.000000 0 0 1
33.268063 -24.198997 -4.130853 41.345125 -0.628876 1.670875 0.034630 -0.022744 -429243.000000 0 0 1
32.881063 -23.918897 -5.571253 41.040428 -0.628904 1.706967 0.042449 -0.026026 -442070.000000 0 0 1
33.951863 -24.028697 -6.504353 42.100046 -0.615894 1.725915 0.045114 -0.028963 423795.000000 0 0 1
33.549563 -23.592697 -7.851453 41.759236 -0.612883 1.759939 0.034422 -0.030006 -62091.800000 0 0 1
34.737963 -23.501897 -8.834053 42.861471 -0.594812 1.778391 0.028544 -0.032553 -26527.200000 0 0 1
35.431063 -24.725797 -8.980353 44.129038 -0.609286 1.775730 0.026548 -0.021901 -442596.000000 0 0 1
-34.510046 -24.510497 -9.793853 43.446833 0.617567 1.798172 0.045876 -0.018716 -243630.000000 0 0 1
-34.011446 -25.769897 -10.517753 43.948711 0.648400 1.812461 0.040610 -0.013247 -31398.100000 0 0 1
-33.251646 -26.719997 -9.783953 43.764780 0.676913 1.796259 0.026299 -0.005693 340777.000000 0 0 1
-34.062146 -27.750997 -9.191253 44.886822 0.683650 1.777020 0.024131 -0.005893 286453.000000 0 0 1
-33.163646 -28.916097 -8.770953 44.865328 0.717084 1.767559 0.024044 -0.003074 34501.300000 0 0 1
-32.392046 -29.520397 -9.805053 44.909215 0.739049 1.790900 0.019962 0.000524 495038.000000 0 0 1
-31.545846 -30.535697 -9.259253 44.869845 0.769128 1.778648 0.000827 -0.006384 46682.200000 0 0 1
-31.074046 -31.526597 -10.310753 45.451450 0.792627 1.799641 -0.001949 -0.001771 141281.000000 0 0 1
-30.096346 -31.000097 -11.218353 44.639080 0.800189 1.824832 -0.003280 0.013782 358863.000000 0 0 1
-30.003646 -31.779697 -12.375253 45.423725 0.814137 1.846725 -0.007531 0.008975 -288414.000000 0 0 1
-30.370346 -30.936797 -13.606553 45.437667 0.794637 1.874918 -0.002683 0.014628 -50053.300000 0 0 1
-29.390346 -29.963397 -13.965953 44.233985 0.795053 1.892021 -0.008858 0.015222 360704.000000 0 0 1
-29.852346 -29.171797 -15.084553 44.381303 0.773869 1.917591 -0.002951 0.014155 422091.000000 0 0 1
-28.756546 -28.145097 -15.454853 43.103804 0.774653 1.937510 -0.004947 0.006504 -464509.000000 0 0 1
-27.592646 -28.704197 -15.926553 42.882865 0.805140 1.951309 0.009264 -0.001454 -573938.000000 0 0 1
-26.726146 -27.715897 -16.528353 41.900409 0.803576 1.976285 0.036319 0.002869 1616360.000000 0 0 1
-25.361946 -28.313697 -17.117953 41.688344 0.840335 1.993927 0.046619 -0.008372 931968.000000 0 0 1
-25.462046 -29.163697 -18.280353 42.813646 0.853059 2.011941 0.038571 -0.007499 -187308.000000 0 0 1
-25.703246 -28.495197 -19.526253 43.057028 0.836866 2.041482 0.032368 -0.004960 193887.000000 0 0 1
-24.545046 -27.655497 -20.184953 42.127404 0.844914 2.070472 0.048153 -0.007802 350918.000000 0 0 1
-24.079646 -26.618697 -19.422053 40.811769 0.835438 2.066776 0.050856 -0.004182 -460549.000000 0 0 1
-22.742746 -26.284697 -19.700753 39.952941 0.857517 2.086445 0.057557 -0.010829 -66516.500000 0 0 1
-22.312346 -25.192897 -18.678453 38.489056 0.845960 2.077494 0.049615 -0.009247 -301114.000000 0 0 1
-22.354546 -25.706097 -17.363453 38.236353 0.855021 2.042168 0.055069 -0.010241 131301.000000 0 0 1
-21.966746 -24.693397 -16.453353 36.919028 0.843768 2.032708 0.055991 -0.014943 -59524.400000 0 0 1
-22.480946 -24.851997 -15.003853 36.716894 0.835449 1.991756 0.038980 -0.013340 -77422.100000 0 0 1
-23.814446 -24.450197 -14.773053 37.191169 0.798570 1.979281 0.021658 0.002846 -17071.200000 0 0 1
-24.041746 -24.144597 -13.412553 36.617806 0.787533 1.945810 0.003890 0.010339 -261005.000000 0 0 1
-25.519346 -24.050297 -12.991153 37.395506 0.755771 1.925592 -0.004884 0.030323 -484988.000000 0 0 1
-26.074246 -25.343997 -13.247353 38.699830 0.771197 1.920171 0.011818 0.021161 -62414.900000 0 0 1
-27.392046 -25.631097 -12.869153 39.659708 0.752199 1.901268 -0.002698 0.023060 582820.000000 0 0 1
-28.654046 -24.818797 -13.377353 40.199261 0.713797 1.910042 0.003436 0.021821 144004.000000 0 0 1
-28.876046 -23.509897 -12.776653 39.367298 0.683319 1.901332 0.009875 0.020728 223279.000000 0 0 1
-29.298146 -23.409797 -11.402253 39.197083 0.674143 1.865959 0.015509 0.013606 -283856.000000 0 0 1
-30.756946 -23.843497 -11.128053 40.476359 0.659449 1.849310 0.012650 0.006839 -221643.000000 0 0 1
-31.830146 -23.041697 -11.555253 40.958538 0.626584 1.856800 0.038329 -0.004874 144562.000000 0 0 1
-32.104346 -22.983597 -12.964453 41.557332 0.621320 1.888057 0.039627 0.004601 -725814.000000 0 0 1
-33.526046 -22.602997 -13.394353 42.594600 0.593194 1.890685 0.014986 -0.009525 82959.900000 0 0 1
-34.548746 -23.566097 -13.184053 43.849698 0.598619 1.876186 0.018191 -0.002995 602311.000000 0 0 1
35.220163 -23.042597 -13.522653 44.207276 -0.579353 1.881672 0.028068 -0.011415 127207.000000 0 0 1
34.135263 -24.062997 -13.205953 43.802296 -0.614028 1.877051 0.024895 -0.000022 -605402.000000 0 0 1
34.235063 -25.281597 -14.013953 44.806133 -0.636082 1.888903 0.006192 0.003962 285621.000000 0 0 1
33.437963 -26.349397 -13.496453 44.660299 -0.667386 1.877799 0.006677 -0.000883 274823.000000 0 0 1
33.298163 -27.561397 -14.466153 45.581441 -0.691414 1.893750 0.002392 -0.004199 136667.000000 0 0 1
32.465363 -27.477297 -15.602853 45.303980 -0.702375 1.922400 -0.002828 -0.005678 -204167.000000 0 0 1
32.536063 -28.607097 -16.483753 46.353807 -0.721228 1.934360 -0.007731 0.001262 337567.000000 0 0 1
31.510763 -28.623497 -17.681653 46.096351 -0.737421 1.964466 0.001724 0.005302 1063280.000000 0 0 1
30.147163 -28.880397 -17.327253 45.201354 -0.763941 1.964201 0.013296 0.005461 571746.000000 0 0 1
29.321163 -28.518697 -18.419253 44.858840 -0.771525 1.993914 0.024654 0.003727 296785.000000 0 0 1
27.820863 -28.327497 -18.090553 43.631589 -0.794421 1.998322 0.030362 0.003790 226257.000000 0 0 1
27.522263 -27.275997 -17.179053 42.386021 -0.780904 1.988103 0.025250 0.001632 461526.000000 0 0 1
26.109263 -27.207597 -16.983353 41.356755 -0.805995 1.993969 0.025632 0.002079 515434.000000 0 0 1
25.627563 -26.199297 -15.918253 39.957051 -0.796429 1.980551 0.028687 -0.002886 -253145.000000 0 0 1
25.648563 -24.864697 -16.356553 39.289168 -0.769881 2.000182 0.036270 -0.012419 138061.000000 0 0 1
25.341663 -23.929097 -15.301553 38.064932 -0.756737 1.984481 0.041927 -0.011270 -208145.000000 0 0 1
24.982163 -22.541597 -15.741053 37.148523 -0.734089 2.008359 0.039895 -0.020206 55955.100000 0 0 1
23.653063 -22.235597 -16.121753 36.246380 -0.754519 2.031728 0.036205 -0.021916 136071.000000 0 0 1
23.342863 -20.871597 -15.962253 35.146925 -0.729564 2.042223 0.042677 -0.024167 -694269.000000 0 0 1
21.867463 -20.587297 -15.784553 33.928967 -0.755254 2.054683 0.034360 -0.032215 -981428.000000 0 0 1
21.237563 -20.746997 -14.543853 33.060484 -0.773714 2.026302 0.033217 -0.034201 138941.000000 0 0 1
19.925163 -20.214997 -14.579253 31.909447 -0.792619 2.045297 0.030589 -0.033050 101058.000000 0 0 1
19.704663 -18.894597 -13.886853 30.628813 -0.764415 2.041363 0.009931 -0.029975 -360542.000000 0 0 1
19.628063 -18.977297 -12.506753 30.030276 -0.768543 2.000357 0.027127 -0.035820 106349.000000 0 0 1
19.709463 -17.733997 -11.850353 29.041151 -0.732688 1.991118 0.025840 -0.037112 172517.000000 0 0 1
18.810963 -17.701597 -10.558153 27.904721 -0.755024 1.958825 0.031484 -0.029388 162692.000000 0 0 1
19.425863 -18.411597 -9.519153 28.407135 -0.758599 1.912505 0.039374 -0.038997 575501.000000 0 0 1
18.490663 -18.628397 -8.456953 27.576110 -0.789109 1.882496 0.041236 -0.048528 395194.000000 0 0 1
19.151463 -19.439697 -7.327053 28.255372 -0.792867 1.833110 0.049413 -0.044572 220208.000000 0 0 1
20.195663 -18.850197 -6.565953 28.395536 -0.750953 1.804140 0.050607 -0.039402 199905.000000 0 0 1
20.672463 -19.742697 -5.575553 29.124072 -0.762397 1.763427 0.042749 -0.028332 -544559.000000 0 0 1
21.994063 -19.211597 -5.010253 29.629831 -0.717974 1.740708 0.043987 -0.027858 -434415.000000 0 0 1
23.023263 -19.291397 -5.969553 30.624568 -0.697433 1.766979 0.031138 -0.032724 34877.700000 0 0 1
24.010763 -18.319497 -5.645453 30.724450 -0.651750 1.755591 0.023087 -0.035146 -216570.000000 0 0 1
24.917463 -17.863697 -6.798253 31.403946 -0.621988 1.789001 0.020104 -0.037868 -297148.000000 0 0 1
25.887963 -18.819097 -7.168053 32.798262 -0.628581 1.791124 0.023875 -0.040923 365933.000000 0 0 1
25.463063 -19.837297 -8.141353 33.289150 -0.661843 1.817867 0.033269 -0.045029 -241293.000000 0 0 1
26.453463 -21.044697 -8.188053 34.780873 -0.672013 1.808445 0.034003 -0.047826 -621604.000000 0 0 1
27.728563 -20.832397 -8.661253 35.747437 -0.644331 1.815522 0.018788 -0.036336 -786176.000000 0 0 1
28.455963 -22.001097 -8.272453 36.908313 -0.658161 1.796852 0.035581 -0.040746 -59123.900000 0 0 1
-29.908307 30.439257 3.950847 42.856323 -0.794196 1.478477 0.022274 -0.000260 -120941.000000 0 0 1
-29.051107 31.211357 3.135247 42.754478 -0.821230 1.497399 0.014877 0.002979 -391596.000000 0 0 1
-28.018887 31.698057 3.970447 42.492226 -0.846931 1.477220 0.019521 0.004008 -236333.000000 0 0 1
-27.186167 32.683757 3.180647 42.631352 -0.876967 1.496119 0.024456 0.006721 -353026.000000 0 0 1
-26.268447 32.170057 2.178647 41.589546 -0.886045 1.518388 0.033224 -0.002107 471738.000000 0 0 1
-25.718637 33.235457 1.454547 42.049490 -0.912217 1.536198 0.036942 -0.008332 -538105.000000 0 0 1
-24.483637 33.920157 2.047547 41.883385 -0.945588 1.521890 0.047258 -0.009550 -213931.000000 0 0 1
-23.206337 33.377757 1.724847 40.688866 -0.963256 1.528392 0.037714 -0.006159 346882.000000 0 0 1
-22.211637 34.100557 2.455347 40.770498 -0.993468 1.510536 0.028649 -0.006303 204569.000000 0 0 1
-20.753637 33.709057 2.173647 39.645160 -1.018935 1.515941 0.032224 -0.015320 -126285.000000 0 0 1
-20.426137 34.123157 0.866747 39.778991 -1.031407 1.549006 0.032674 -0.021324 -52068.100000 0 0 1
-19.145637 33.606357 0.578147 38.681738 -1.052952 1.555850 0.022783 -0.015848 -251235.000000 0 0 1
-18.363237 34.370057 -0.524753 38.971588 -1.080102 1.584262 0.023411 -0.021258 -23821.500000 0 0 1
-18.225037 -33.167297 -0.433853 37.847190 1.068346 1.582260 0.020429 -0.017301 357722.000000 0 0 1
-17.494037 -32.585997 0.629347 36.990331 1.078099 1.553782 0.028087 -0.012133 -290634.000000 0 0 1
-17.581037 -31.050997 0.580247 35.687448 1.055602 1.554536 0.026614 -0.011144 -130053.000000 0 0 1
-16.762437 -30.410097 -0.374553 34.725978 1.067022 1.581583 0.023342 -0.002345 43534.500000 0 0 1
-17.007837 -29.011097 -0.395153 33.631331 1.040546 1.582546 0.006393 0.000150 90595.800000 0 0 1
-16.080937 -28.265797 -1.387653 32.549614 1.053544 1.613441 0.009568 0.003228 73939.400000 0 0 1
-16.437437 -28.605097 -2.759953 33.106770 1.049238 1.654258 0.003660 -0.002189 -136806.000000 0 0 1
-15.403137 -28.264897 -3.622953 32.392697 1.071834 1.682876 0.009259 0.001512 -487857.000000 0 0 1
-15.831037 -28.449997 -5.068853 32.950225 1.063014 1.725243 0.024318 -0.000446 154423.000000 0 0 1
-16.671437 -27.336197 -5.442653 32.478099 1.023153 1.739170 0.016542 0.003292 -69302.100000 0 0 1
-16.945537 -27.434397 -6.806053 32.956330 1.017482 1.778811 0.030597 0.003882 331439.000000 0 0 1
-17.768537 -26.153797 -7.247553 32.438696 0.974039 1.796121 0.020320 0.003235 622999.000000 0 0 1
-17.032637 -24.954297 -6.988653 31.010787 0.971876 1.798111 0.017216 0.005968 537890.000000 0 0 1
-17.805437 -23.774197 -7.305353 30.587811 0.927974 1.811959 0.015199 0.016456 319835.000000 0 0 1
-17.032537 -22.515397 -6.848553 29.050871 0.923158 1.808780 0.021514 0.012087 86032.400000 0 0 1
-15.869137 -22.460097 -7.632653 28.540197 0.955689 1.841527 0.033119 0.005498 -481444.000000 0 0 1
-14.997137 -21.418397 -7.161553 27.109956 0.959937 1.838136 0.051262 -0.000046 833740.000000 0 0 1
-13.790237 -21.241997 -8.127253 26.597844 0.994986 1.881323 0.053262 -0.005038 409885.000000 0 0 1
-14.209737 -20.493097 -9.268953 26.604457 0.964519 1.926658 0.047568 -0.003031 -637850.000000 0 0 1
-13.155837 -20.328497 -10.153453 26.256741 0.996419 1.967846 0.053242 -0.002851 -309319.000000 0 0 1
-13.444537 -19.416097 -11.370753 26.211342 0.965160 2.019514 0.052062 -0.004082 -560251.000000 0 0 1
-14.374837 -19.960997 -12.261253 27.484826 0.946677 2.033210 0.032710 0.005031 -481961.000000 0 0 1
-14.466237 -19.139297 -13.417153 27.488265 0.923568 2.080713 0.024349 0.004273 -768865.000000 0 0 1
-15.608937 -19.633597 -14.284353 28.864507 0.899104 2.088489 0.021608 0.002245 -321784.000000 0 0 1
-16.865837 -19.363997 -13.737853 29.123005 0.854242 2.062035 0.017705 -0.001622 -762622.000000 0 0 1
-17.967137 -19.605597 -14.530453 30.303985 0.828978 2.070870 0.018761 -0.001374 -210998.000000 0 0 1
-19.361637 -19.438297 -13.856853 30.736505 0.787374 2.038488 0.016871 -0.006070 42951.100000 0 0 1
-20.305337 -20.128997 -14.646253 32.124694 0.781037 2.044201 0.027385 -0.018145 13242.700000 0 0 1
-21.624637 -19.925197 -14.123353 32.620661 0.744520 2.018567 0.016325 -0.015801 552620.000000 0 0 1
-22.602037 -20.708997 -15.049653 34.149769 0.741718 2.027170 0.023485 -0.019580 -245992.000000 0 0 1
-22.845837 -20.080497 -16.290253 34.504072 0.721066 2.062497 0.032422 -0.027102 255355.000000 0 0 1
-23.766237 -20.877097 -17.002953 35.913613 0.720772 2.063989 0.038986 -0.030833 -185422.000000 0 0 1
-24.027637 -20.383197 -18.471953 36.524172 0.703520 2.101043 0.045031 -0.024190 448736.000000 0 0 1
-22.840337 -20.336497 -19.268353 36.145865 0.727473 2.133024 0.029511 -0.018142 631428.000000 0 0 1
-23.179737 -20.002897 -20.627553 36.917639 0.711963 2.163668 0.024631 -0.016600 379492.000000 0 0 1
-22.091137 -19.184597 -21.430553 36.267557 0.715097 2.202972 0.010725 -0.016049 824433.000000 0 0 1
-20.928837 -19.890097 -21.864653 36.217333 0.759956 2.218939 0.003404 -0.004030 548970.000000 0 0 1
-20.062137 -19.041597 -22.643853 35.746550 0.759306 2.256807 -0.001656 0.005909 387289.000000 0 0 1
-18.711737 -19.734997 -22.931253 35.573046 0.812007 2.271328 0.007138 0.007276 -189251.000000 0 0 1
-18.809837 -20.907897 -23.692053 36.773136 0.838173 2.270873 -0.001433 0.011319 1028260.000000 0 0 1
-17.515937 -21.568397 -23.730153 36.539348 0.888714 2.277645 0.002778 0.011120 984490.000000 0 0 1
-17.471537 -22.927897 -24.485253 37.821564 0.919646 2.274950 0.013948 0.013783 -231155.000000 0 0 1
-17.423937 -22.840497 -25.913723 38.688538 0.919120 2.304741 0.012420 0.013356 217373.000000 0 0 1
-17.612137 -24.096497 -26.454913 39.883467 0.939631 2.296023 0.017649 0.002584 -126531.000000 0 0 1
-17.412137 -24.104197 -27.983343 40.832124 0.945214 2.325849 0.027291 0.006107 -585602.000000 0 0 1
-16.091537 -23.893497 -28.360843 40.424920 0.978099 2.348392 0.019028 0.002833 -515921.000000 0 0 1
-16.019337 -23.690297 -29.754753 41.269779 0.976224 2.376014 0.045147 -0.006697 -828044.000000 0 0 1
-14.577937 -23.605597 -30.242173 41.040584 1.017563 2.399247 0.015809 -0.009494 -410628.000000 0 0 1
-13.936337 -24.877997 -30.156563 41.503669 1.060165 2.384157 0.020676 -0.004811 228660.000000 0 0 1
-12.656037 -24.870097 -30.769663 41.538767 1.100065 2.404976 0.024045 -0.001213 52289.100000 0 0 1
-11.853937 -26.135197 -30.482593 41.865891 1.144984 2.386344 0.023759 0.006670 -1120430.000000 0 0 1
-12.200637 -27.258297 -31.258893 43.231802 1.149945 2.379008 0.020493 0.018094 243769.000000 0 0 1
-11.470037 -28.438397 -30.914973 43.543538 1.187423 2.360264 0.018700 0.014717 1074300.000000 0 0 1
-9.987837 -28.494197 -31.464283 43.608225 1.233657 2.376794 0.028303 0.011268 892829.000000 0 0 1
-9.187237 -27.473397 -30.828483 42.303525 1.248082 2.387284 0.031550 0.008291 -108023.000000 0 0 1
-8.096237 -27.212997 -31.705593 42.559851 1.281622 2.411278 0.024742 0.007658 -436257.000000 0 0 1
-7.284837 -26.010397 -31.273273 41.323446 1.297719 2.429188 0.039597 -0.001863 -540369.000000 0 0 1
-7.843137 -24.714697 -31.316123 40.657479 1.263502 2.450018 0.034309 -0.011317 -295447.000000 0 0 1
-8.750937 -24.284897 -30.359833 39.850403 1.224935 2.436953 0.029151 -0.008298 -613174.000000 0 0 1
-8.959237 -22.757297 -30.136533 38.812023 1.195745 2.459847 0.030244 -0.015222 -817928.000000 0 0 1
-9.620537 -22.248697 -31.244433 39.544581 1.162667 2.481779 0.018896 -0.016758 -221631.000000 0 0 1
-9.989637 -20.918497 -30.934703 38.656594 1.125269 2.498498 0.019658 -0.013753 55998.100000 0 0 1
-10.529537 -20.171197 -32.158963 39.394762 1.089697 2.525817 0.008847 -0.015678 -5429.580000 0 0 1
-10.954037 -18.828597 -31.900223 38.628115 1.043884 2.542467 0.011621 -0.016995 235825.000000 0 0 1
-11.673437 -18.455397 -33.074053 39.632863 1.006806 2.558041 0.026319 -0.014350 269389.000000 0 0 1
-12.704737 -17.281497 -32.877693 39.255614 0.936858 2.563540 0.027591 -0.015556 512203.000000 0 0 1
-12.191337 -15.936997 -33.156383 38.755159 0.917783 2.597379 0.040355 -0.013312 -183621.000000 0 0 1
-11.382737 -15.454497 -32.135383 37.431151 0.935970 2.603172 0.018559 -0.006288 -297354.000000 0 0 1
-11.099137 -13.933997 -32.148523 36.754247 0.898162 2.635589 0.018896 -0.009474 -193523.000000 0 0 1
-10.346337 -13.344397 -33.231483 37.275342 0.911279 2.671472 0.023567 -0.007980 67886.900000 0 0 1
-10.932637 -13.393797 34.287142 38.399538 0.886227 0.467040 0.030740 -0.003036 -279989.000000 0 0 1
-11.629737 -12.100397 33.794197 37.732190 0.805229 0.460944 0.025988 0.001131 55790.500000 0 0 1
-12.796437 -11.734197 -34.316543 38.458618 0.742123 2.673206 0.015704 -0.000851 -265751.000000 0 0 1
-13.554337 -10.777097 33.745485 37.929192 0.671748 0.474115 0.013869 -0.016249 368837.000000 0 0 1
-14.759337 -10.192897 -34.333833 38.736872 0.604394 2.660165 0.033571 -0.011373 39734.400000 0 0 1
-14.240237 -9.314797 -33.390433 37.476270 0.579265 2.670285 0.042106 -0.005954 -486201.000000 0 0 1
-15.239837 -8.686597 -32.708453 37.115395 0.518063 2.649326 0.038749 -0.015920 -571810.000000 0 0 1
-14.622737 -7.695897 -31.658613 35.711610 0.484463 2.660538 0.037806 -0.023751 -149992.000000 0 0 1
-14.188537 -6.458997 -32.265063 35.833888 0.427192 2.691499 0.028681 -0.027963 587036.000000 0 0 1
-15.214237 -5.551097 -32.706653 36.496751 0.349853 2.681818 0.024491 -0.026102 406751.000000 0 0 1
-15.883237 -4.767497 -31.529233 35.624413 0.291603 2.657388 0.030352 -0.030685 272609.000000 0 0 1
-16.542837 -5.690297 -30.614203 35.260096 0.331296 2.622439 0.051104 -0.037635 -51868.500000 0 0 1
-16.957237 -5.110197 -29.371283 34.297730 0.292702 2.598980 0.055014 -0.040391 -4244.020000 0 0 1
-15.821137 -4.682797 -28.411673 32.855139 0.287768 2.615460 0.047263 -0.039156 3504.960000 0 0 1
-15.097637 -3.600697 -28.914943 32.817337 0.234121 2.648953 0.036762 -0.035725 -396258.000000 0 0 1
-13.900337 -3.374697 -28.205613 31.625379 0.238170 2.672251 0.041763 -0.032999 2940.930000 0 0 1
-13.369737 -2.019697 -28.718973 31.742849 0.149931 2.701561 0.035375 -0.016175 -148712.000000 0 0 1
-13.132237 -2.018697 -30.127333 32.926995 0.152527 2.726239 0.032144 -0.021985 211773.000000 0 0 1
-13.425637 -0.733697 -30.608953 33.431932 0.054595 2.727695 0.045432 -0.023867 -134262.000000 0 0 1
-13.461937 -0.725697 -32.112473 34.827594 0.053855 2.744117 0.028767 -0.027199 -978947.000000 0 0 1
-14.636837 -1.144697 -32.720863 35.863662 0.078048 2.719828 0.001851 -0.016706 -325822.000000 0 0 1
-14.506837 -1.176697 -34.099531 37.075747 0.080936 2.738178 -0.001787 -0.013002 -219649.000000 0 0 1
-15.795737 -1.660697 34.018183 37.543309 0.104751 0.436812 -0.011157 -0.013378 -130104.000000 0 0 1
-15.631737 -1.848697 32.638620 36.236010 0.117719 0.449364 -0.013836 -0.010696 -697907.000000 0 0 1
-16.827037 -1.868697 31.959670 36.167136 0.110600 0.487160 -0.006250 -0.004886 -862755.000000 0 0 1
-16.689537 -1.705697 30.422480 34.741580 0.101848 0.503956 -0.009769 0.005379 -64764.700000 0 0 1
-16.270337 -0.427697 29.941450 34.079279 0.026281 0.497911 -0.024787 0.010487 24271.900000 0 0 1
-16.204937 -0.421697 28.525260 32.809576 0.026017 0.516772 -0.030863 0.001436 -414643.000000 0 0 1
-15.812737 0.976303 28.022020 32.190518 -0.061663 0.514568 -0.020153 -0.005804 -153386.000000 0 0 1
-16.558837 2.108303 28.543680 33.066323 -0.126641 0.529172 -0.012963 -0.005192 801090.000000 0 0 1
-17.922437 2.163303 28.096930 33.396574 -0.120123 0.571091 0.002384 -0.014378 478302.000000 0 0 1
-18.072437 2.897303 26.735790 32.400769 -0.158963 0.600312 0.000472 -0.018135 -799174.000000 0 0 1
-17.830137 4.311303 26.735160 32.423293 -0.237245 0.601361 -0.004589 -0.015375 71226.400000 0 0 1
-18.068337 4.826303 25.486020 31.611632 -0.261020 0.633057 0.006841 -0.008263 -517627.000000 0 0 1
-18.170237 6.429303 25.444890 31.920776 -0.340089 0.648275 0.010272 -0.011928 500972.000000 0 0 1
-16.947237 7.164303 25.491400 31.437996 -0.399956 0.625199 0.003330 -0.009363 206857.000000 0 0 1
-16.165037 7.035303 24.324140 30.041101 -0.410493 0.627163 0.007143 -0.005981 281789.000000 0 0 1
-14.944537 8.004303 24.189260 29.538592 -0.491721 0.611298 0.009058 -0.005364 415136.000000 0 0 1
-13.869237 7.782303 25.075840 29.693733 -0.511340 0.565198 -0.003200 -0.003587 287792.000000 0 0 1
-12.703837 8.175303 24.342070 28.648900 -0.571814 0.555440 0.009148 0.000859 451145.000000 0 0 1
-11.292937 7.951303 24.930160 28.500291 -0.613469 0.505911 0.006789 0.009640 -175339.000000 0 0 1
-10.262037 8.412303 24.098710 27.510436 -0.686668 0.503324 0.000994 -0.004017 -369496.000000 0 0 1
-9.037837 8.634303 24.743450 27.721328 -0.762568 0.467765 0.006961 -0.002275 -377850.000000 0 0 1
-8.944737 9.999303 25.515790 28.827937 -0.841008 0.484074 0.017833 -0.009699 -789066.000000 0 0 1
-9.855637 10.206303 26.585590 30.134629 -0.802876 0.490224 0.017819 -0.003316 195348.000000 0 0 1
-9.876737 11.502303 27.189170 31.130434 -0.861288 0.508666 0.016031 -0.003799 -266503.000000 0 0 1
-10.436737 12.758303 26.418910 31.139342 -0.885155 0.557823 0.021866 -0.012343 56792.100000 0 0 1
-11.804737 12.662303 26.081880 31.304157 -0.820434 0.585970 0.028242 -0.013942 105444.000000 0 0 1
-11.985737 12.261303 24.720030 30.084504 -0.796763 0.606433 0.017003 -0.009514 -697986.000000 0 0 1
-13.426937 11.846303 24.469020 30.320793 -0.722938 0.631734 0.036075 -0.012372 -648530.000000 0 0 1
-14.374837 12.902303 24.659290 31.323888 -0.731466 0.664483 0.023953 -0.010355 1104220.000000 0 0 1
-15.749837 12.584303 24.379440 31.635094 -0.674138 0.690943 0.022242 0.006708 896601.000000 0 0 1
-16.156637 12.203303 22.928530 30.588806 -0.646892 0.723380 0.024732 0.006691 -803131.000000 0 0 1
-15.836437 10.915303 22.533330 29.625792 -0.603476 0.706562 0.023912 -0.001281 12174.800000 0 0 1
-15.956037 10.683303 21.136630 28.556702 -0.589993 0.737483 0.020083 0.000720 -194997.000000 0 0 1
-16.076637 9.182303 20.860930 27.891780 -0.518942 0.725867 0.013556 -0.001482 86612.100000 0 0 1
-17.390737 8.728303 21.103030 28.704685 -0.465162 0.744868 0.019915 0.006584 -197814.000000 0 0 1
-17.636837 7.317303 21.022930 28.400080 -0.393274 0.737366 0.009441 0.010018 -365187.000000 0 0 1
-19.108037 6.984303 21.281230 29.441270 -0.350431 0.762898 0.029979 0.005958 -248874.000000 0 0 1
-19.544737 7.478303 22.538130 30.755310 -0.365439 0.748338 0.016576 0.001691 -526139.000000 0 0 1
-20.918337 7.720303 22.496830 31.674711 -0.353561 0.780949 0.004693 0.004847 -622076.000000 0 0 1
-21.477837 8.604303 23.605830 33.053998 -0.381035 0.775374 0.003169 -0.001556 -808026.000000 0 0 1
-21.225037 9.991303 23.626130 33.294480 -0.439960 0.781850 0.003758 0.003671 865057.000000 0 0 1
-19.897337 10.562303 23.667230 32.674211 -0.488014 0.760720 0.009479 0.007196 1180350.000000 0 0 1
-18.968437 10.085303 24.817410 32.824059 -0.488676 0.713503 0.010547 -0.010453 -431400.000000 0 0 1
-19.438337 10.690303 25.982200 34.164401 -0.502812 0.706706 0.008938 -0.002054 28039.600000 0 0 1
-18.753637 10.200303 27.083180 34.485414 -0.498156 0.667532 0.003861 -0.007088 -317297.000000 0 0 1
-29.925077 -14.353343 21.158030 39.359763 0.447229 1.003262 0.016470 -0.007189 111297.000000 0 0 1
-29.479817 -15.714843 20.965430 39.440654 0.489753 1.010344 0.022890 -0.003448 291246.000000 0 0 1
-30.407347 -16.538343 20.254130 40.104281 0.498142 1.041372 0.015194 -0.001813 230199.000000 0 0 1
-30.226617 -16.547743 18.709630 39.211306 0.500888 1.073389 0.015578 -0.007526 55913.600000 0 0 1
-30.541307 -15.341043 18.011930 38.633518 0.465490 1.085777 0.024951 -0.014262 205525.000000 0 0 1
-29.845527 -15.271543 16.744530 37.474723 0.472953 1.107586 0.025647 -0.016534 -146138.000000 0 0 1
-30.537987 -14.193643 15.808830 37.201442 0.435082 1.131887 0.023441 -0.016278 828858.000000 0 0 1
-31.862897 -14.473043 15.331930 38.207085 0.426365 1.157877 0.028115 -0.017695 1312030.000000 0 0 1
-32.991317 -14.490143 16.212130 39.512333 0.413846 1.148007 0.029813 -0.020525 -88101.200000 0 0 1
-33.297147 -13.159543 16.874630 39.580636 0.376375 1.130359 0.023780 -0.020791 -1960100.000000 0 0 1
-34.471425 -13.226143 17.571130 40.889542 0.366362 1.126612 0.007806 -0.016322 -1048450.000000 0 0 1
-34.901632 -11.979443 17.992630 41.053206 0.330635 1.117117 0.010261 -0.006515 469594.000000 0 0 1
34.946821 -12.094743 18.972730 41.563537 -0.333187 1.096767 0.006230 0.008314 287549.000000 0 0 1
35.412420 -12.480443 20.261730 42.665428 -0.338839 1.075948 0.008880 -0.004830 347128.000000 0 0 1
34.649371 -11.902043 21.333330 42.395148 -0.330872 1.043496 0.014123 -0.007785 -998107.000000 0 0 1
35.137621 -12.299443 22.724730 43.615847 -0.336707 1.022751 0.009645 -0.011607 867723.000000 0 0 1
-34.665403 -11.666543 23.083330 43.250879 0.324640 1.007817 0.006245 -0.006249 1355710.000000 0 0 1
-33.498437 -12.379443 22.646830 42.287999 0.353987 1.005652 0.001678 -0.005810 305455.000000 0 0 1
-32.213807 -11.508343 22.664330 41.034659 0.343118 0.985650 0.015263 -0.003922 52408.800000 0 0 1
-32.224237 -10.403543 21.840230 40.294303 0.312285 0.997960 0.027461 -0.008676 231646.000000 0 0 1
-30.939787 -9.799443 21.685330 39.032718 0.306730 0.981750 0.039320 -0.013458 86655.500000 0 0 1
-31.005997 -8.428143 20.907930 38.334671 0.265410 0.993924 0.045079 -0.009218 -10508.200000 0 0 1
-31.326337 -8.473643 19.555630 37.888847 0.264174 1.028468 0.042683 -0.009320 1049770.000000 0 0 1
-32.710767 -8.781243 19.274330 38.969274 0.262268 1.053418 0.044993 -0.017229 607717.000000 0 0 1
-33.035347 -8.391743 17.825530 38.464335 0.248762 1.088934 0.041199 -0.013907 -773792.000000 0 0 1
-34.392299 -8.484043 17.548730 39.531850 0.241856 1.110835 -0.001000 -0.009293 -746283.000000 0 0 1
-34.677385 -8.477243 16.153630 39.183217 0.239758 1.145864 0.004971 -0.007134 -223483.000000 0 0 1
34.873981 -8.557043 15.868730 39.258556 -0.240617 1.154681 0.014424 -0.006871 -295135.000000 0 0 1
34.299931 -9.815443 16.207530 39.185613 -0.278716 1.144382 0.005702 -0.005012 -1323150.000000 0 0 1
32.974251 -9.723843 15.876330 37.867034 -0.286764 1.138161 0.004337 -0.000583 -1095740.000000 0 0 1
32.188551 -11.083343 15.943830 37.591875 -0.331611 1.132796 -0.004436 -0.002157 236562.000000 0 0 1
32.006371 -11.598343 17.280730 38.177913 -0.347657 1.101076 -0.023139 -0.005590 543399.000000 0 0 1
31.014681 -12.641443 17.243830 37.670496 -0.387037 1.095329 -0.013416 -0.001694 132566.000000 0 0 1
30.804321 -13.185543 18.664830 38.355452 -0.404444 1.062571 -0.013322 0.000877 -492395.000000 0 0 1
31.885201 -13.918643 19.149930 39.712901 -0.411591 1.067621 -0.004428 -0.001424 -409132.000000 0 0 1
31.899361 -13.823943 20.598030 40.409770 -0.408931 1.035927 0.013771 -0.009407 -514224.000000 0 0 1
32.247001 -15.158943 21.331630 41.529521 -0.439433 1.031363 0.012792 -0.003713 73635.100000 0 0 1
32.498311 -14.977843 22.724230 42.389464 -0.431865 1.005007 0.021809 -0.010600 124494.000000 0 0 1
32.965751 -16.175043 23.387630 43.535664 -0.456149 1.003675 0.015295 0.003965 122219.000000 0 0 1
33.410891 -15.794843 24.810630 44.512157 -0.441607 0.979558 0.019887 0.005704 790649.000000 0 0 1
34.586701 -14.948043 24.763050 45.087610 -0.407945 0.989365 0.021629 -0.003427 827832.000000 0 0 1
35.055633 -14.722543 26.066740 46.099085 -0.397608 0.969817 0.022378 -0.005487 -37725.300000 0 0 1
-34.706364 -13.875243 26.204560 45.647925 0.380325 0.959343 0.014737 -0.010064 -377494.000000 0 0 1
-33.534057 -14.564743 25.951050 44.834382 0.409744 0.953515 -0.004095 -0.001747 -756820.000000 0 0 1
-32.392817 -13.812343 26.258270 43.926896 0.403057 0.930077 0.015944 -0.004474 -560074.000000 0 0 1
-31.110667 -14.614843 26.097470 43.157215 0.439172 0.921398 0.003836 0.000678 -762437.000000 0 0 1
-30.795407 -14.925443 24.737620 42.226483 0.451304 0.944890 0.008295 -0.001035 -201059.000000 0 0 1
-29.518867 -15.455443 24.530530 41.376094 0.482332 0.936182 0.012151 -0.005322 -368462.000000 0 0 1
-29.295227 -16.969143 24.927180 42.041961 0.525019 0.936126 0.018651 0.006216 -877221.000000 0 0 1
-29.375777 -17.151343 26.299260 42.997162 0.528467 0.912650 0.014234 0.012205 154628.000000 0 0 1
-29.204117 -18.494343 26.715090 43.687724 0.564530 0.912840 0.033119 0.002651 -214314.000000 0 0 1
-28.871257 -18.530543 28.190890 44.403343 0.570613 0.882940 0.037513 -0.014014 -425429.000000 0 0 1
-27.715157 -17.785443 28.453370 43.520641 0.570534 0.858214 0.035018 -0.012821 -392731.000000 0 0 1
-27.272697 -17.932843 29.792620 44.192614 0.581656 0.830978 0.044293 -0.018091 191198.000000 0 0 1
-26.051557 -17.049143 30.132670 43.328221 0.579489 0.801748 0.031421 -0.011376 -98205.600000 0 0 1
-26.333097 -15.710143 30.417940 43.191339 0.537911 0.789416 0.031261 -0.018287 255164.000000 0 0 1
-25.196217 -14.845443 30.306920 42.115864 0.532436 0.767558 0.010233 -0.013797 -455779.000000 0 0 1
-25.252297 -13.548043 31.146100 42.323842 0.492425 0.743802 0.017443 -0.004248 -140113.000000 0 0 1
-24.585137 -13.702943 32.377120 42.900787 0.508482 0.715603 0.013930 -0.005014 195185.000000 0 0 1
-24.584837 -12.471243 33.039217 43.029479 0.469450 0.695353 0.024348 0.002202 -151471.000000 0 0 1
-23.764337 -12.501343 -34.394079 43.634619 0.484274 2.478722 0.023752 0.001929 121499.000000 0 0 1
-22.379937 -12.711743 34.323816 42.901916 0.516556 0.643412 -0.000354 0.001309 -68479.100000 0 0 1
-21.867037 -13.979443 34.025477 42.793986 0.568811 0.651625 0.000211 -0.000521 -643258.000000 0 0 1
-21.955137 -14.993343 -33.578523 42.829261 0.599163 2.471894 0.002602 0.002013 -780428.000000 0 0 1
-21.044537 -14.768343 -32.547633 41.476800 0.611910 2.473039 -0.001624 0.005685 -89627.500000 0 0 1
-21.270137 -15.532343 -31.417153 40.996463 0.630735 2.443918 0.014099 0.001091 -209343.000000 0 0 1
-20.013337 -15.509743 -30.527503 39.661244 0.659292 2.449177 0.014951 0.003177 28167.300000 0 0 1
-19.659037 -14.321943 -29.863213 38.515027 0.629610 2.458090 0.017750 0.008505 31821.800000 0 0 1
-20.443737 -14.017643 -28.733783 37.948268 0.601043 2.429786 0.025817 0.014157 -376953.000000 0 0 1
-19.966037 -12.795343 -27.987513 36.683298 0.569920 2.438660 0.023304 0.001897 -258133.000000 0 0 1
-18.758737 -12.955143 -27.259123 35.535697 0.604402 2.445091 0.030707 0.002357 247343.000000 0 0 1
-18.506537 -11.857143 -26.442273 34.384264 0.569810 2.448107 0.026608 -0.005008 135944.000000 0 0 1
-17.163137 -11.943343 -25.681573 33.117366 0.607950 2.458258 0.044540 -0.014926 -389938.000000 0 0 1
-17.140537 -12.716143 -24.425353 32.436033 0.638281 2.423454 0.058599 -0.016568 726032.000000 0 0 1
-15.868037 -12.884343 -23.761453 31.343382 0.681996 2.431193 0.056572 -0.021125 575286.000000 0 0 1
-14.872937 -13.801743 -24.478653 31.794604 0.748059 2.449480 0.042321 -0.016017 -831057.000000 0 0 1
-13.953637 -13.049143 -25.240683 31.655588 0.751914 2.493693 0.063769 -0.019203 -80992.100000 0 0 1
-13.235437 -13.971943 -26.066063 32.401106 0.812462 2.505597 0.055925 -0.014981 -301496.000000 0 0 1
-12.145137 -13.255143 -26.854383 32.316576 0.829071 2.551661 0.043157 -0.013774 -680953.000000 0 0 1
-12.718137 -12.304843 -27.712263 32.880537 0.768883 2.573292 0.066646 -0.021052 -39018.200000 0 0 1
-11.813137 -11.833943 -28.691063 33.207974 0.786278 2.613920 0.066056 -0.019766 -185357.000000 0 0 1
-12.498637 -10.991643 -29.757763 34.096285 0.721332 2.631618 0.043248 -0.018188 -274866.000000 0 0 1
-11.712637 -9.942443 -30.237663 33.916874 0.703835 2.671492 0.041347 -0.017101 -148105.000000 0 0 1
-11.486637 -10.146243 -31.597813 35.118526 0.723516 2.689987 0.038612 -0.008029 -153070.000000 0 0 1
-10.830537 -8.875143 -32.132033 35.050482 0.686492 2.730628 0.035443 -0.005662 605437.000000 0 0 1
-9.406537 -8.843743 -31.996183 34.502906 0.754570 2.758057 0.032909 -0.007318 482371.000000 0 0 1
-8.954237 -7.528743 -32.357253 34.407153 0.699130 2.794666 0.037366 -0.013725 1528290.000000 0 0 1
-7.384537 -7.258243 -32.215833 33.838933 0.776773 2.830614 0.033412 -0.010674 1416790.000000 0 0 1
-6.851037 -7.117343 -30.898253 32.439102 0.804461 2.832140 0.021903 -0.004259 -72210.500000 0 0 1
-7.151137 -5.933543 -30.164563 31.563374 0.692610 2.842766 0.032432 -0.014597 -90354.600000 0 0 1
-6.215337 -4.737443 -30.571023 31.554100 0.651275 2.891319 0.023561 -0.015903 103896.000000 0 0 1
-4.877837 -4.904543 -30.168403 30.951258 0.788128 2.916202 0.021510 -0.018205 -418419.000000 0 0 1
-4.210737 -3.745343 -30.622093 31.136321 0.726969 2.959598 0.034154 -0.020247 640158.000000 0 0 1
-2.709937 -3.644743 -30.144603 30.484833 0.931456 2.992050 0.017293 -0.010522 250755.000000 0 0 1
-1.899437 -4.337143 -31.064173 31.422946 1.158011 2.990336 0.019325 -0.010374 189507.000000 0 0 1
-0.493637 -4.199543 -30.900503 31.188475 1.453788 3.005596 0.015723 -0.011496 1178300.000000 0 0 1
0.248163 -2.776543 -31.071273 31.196070 -1.481655 3.052116 0.017437 -0.007780 -226388.000000 0 0 1
0.316263 -1.925843 -29.957813 30.021317 -1.408029 3.076538 0.029971 -0.013459 33753.000000 0 0 1
0.830663 -0.652843 -30.297583 30.315998 -0.666103 3.106736 0.020662 -0.008751 64474.700000 0 0 1
0.890063 0.369857 -29.052373 29.068357 0.393831 3.108429 0.021492 -0.006835 -152155.000000 0 0 1
-0.344537 0.949457 -28.725713 28.743465 -1.222695 3.106446 0.033994 -0.008841 -357341.000000 0 0 1
-0.197137 2.371357 -28.551023 28.650011 -1.487854 3.058442 0.037528 -0.008507 233900.000000 0 0 1
-1.495837 3.145257 -28.177283 28.391715 -1.126871 3.018612 0.029080 -0.010281 64424.400000 0 0 1
-2.330437 3.268357 -29.299023 29.572722 -0.951379 3.005435 0.030196 -0.012233 463732.000000 0 0 1
-3.641137 3.672657 -28.880583 29.339979 -0.789708 2.964399 0.050240 -0.017927 1213740.000000 0 0 1
-4.715337 3.862957 -30.036243 30.648536 -0.686358 2.941369 0.059327 -0.020077 679905.000000 0 0 1
-4.306137 4.919857 -30.963953 31.646709 -0.851821 2.933495 0.059124 -0.017063 334806.000000 0 0 1
-5.367337 5.360157 -31.778133 32.670925 -0.784729 2.907276 0.061545 -0.010501 -643580.000000 0 0 1
-4.836237 6.036257 -33.035533 33.928926 -0.895325 2.911603 0.061723 -0.005237 -8560.130000 0 0 1
-4.246437 5.292257 -34.066713 34.735877 -0.894602 2.944989 0.064174 -0.010577 186529.000000 0 0 1
-3.077737 4.576657 -33.738253 34.186079 -0.978776 2.979553 0.061033 -0.010680 -619698.000000 0 0 1
-2.478337 3.847357 33.837125 34.145210 -0.998533 0.134435 0.052810 -0.019408 68237.900000 0 0 1
-3.365737 2.791557 33.483894 33.768212 -0.692415 0.129858 0.057132 -0.024077 339292.000000 0 0 1
-2.972037 1.993057 32.356210 32.553489 -0.590723 0.110148 0.050491 -0.023170 -136716.000000 0 0 1
-2.697037 2.643357 30.970990 31.200378 -0.775347 0.121335 0.046556 -0.017299 91249.800000 0 0 1
-3.845837 3.239757 30.379260 30.792628 -0.700069 0.164039 0.039160 -0.014579 197808.000000 0 0 1
-3.527137 4.111857 29.272240 29.769315 -0.861793 0.182999 0.028654 -0.017961 591293.000000 0 0 1
-4.570837 5.293757 29.135810 29.963509 -0.858552 0.235591 0.015446 -0.003238 703326.000000 0 0 1
-4.583137 5.962757 27.889360 28.885568 -0.915480 0.263394 0.012366 0.001086 -987485.000000 0 0 1
-5.811137 6.515557 27.577380 28.926350 -0.842482 0.306600 0.002510 0.003850 -819056.000000 0 0 1
-5.798037 7.292057 26.232820 27.837963 -0.899040 0.341242 0.008688 0.005230 -151168.000000 0 0 1
-4.926737 8.402157 26.164850 27.918961 -1.040462 0.356364 -0.000704 0.004020 105506.000000 0 0 1
-5.206237 9.181757 25.004430 27.140949 -1.054980 0.399436 0.015956 -0.000977 -266059.000000 0 0 1
-4.446437 10.494657 25.041410 27.513285 -1.170039 0.427133 0.022151 -0.001532 -762463.000000 0 0 1
-4.655637 11.331657 23.907490 26.863535 -1.180970 0.473537 0.032097 -0.002982 741751.000000 0 0 1
-3.981337 12.648157 24.048560 27.461977 -1.265839 0.503905 0.023178 0.007023 448669.000000 0 0 1
-2.422837 12.725157 24.119070 27.377533 -1.382651 0.492866 0.025820 0.010052 -27847.500000 0 0 1
-1.789937 12.213157 25.277810 28.130638 -1.425274 0.454259 0.026653 0.011584 96298.800000 0 0 1
-2.160337 12.931057 26.484140 29.551463 -1.405259 0.459659 0.030570 0.008156 -466029.000000 0 0 1
-1.328137 12.402157 27.721580 30.398412 -1.464114 0.422805 0.020573 0.009212 990352.000000 0 0 1
0.079763 12.586957 27.633960 30.365665 1.564459 0.427417 0.020991 0.016245 -137065.000000 0 0 1
0.743663 12.424657 28.822160 31.394937 1.511014 0.407660 0.022533 -0.000809 185140.000000 0 0 1
2.256263 12.748357 28.684140 31.470482 1.395626 0.423973 0.023975 0.002053 225006.000000 0 0 1
2.641463 14.092957 28.564960 31.961629 1.385515 0.465212 0.018009 0.001662 -1206370.000000 0 0 1
4.015763 14.025457 28.493210 32.010980 1.291937 0.473216 0.017277 0.004691 -1274750.000000 0 0 1
4.751963 15.346557 28.759020 32.942058 1.270516 0.509439 0.021838 0.005055 -369282.000000 0 0 1
4.588363 15.925557 30.079700 34.343337 1.290280 0.503597 0.026740 0.009470 -88693.500000 0 0 1
3.499563 16.784257 30.262100 34.781503 1.365239 0.515466 0.011333 0.009532 -267748.000000 0 0 1
3.739263 18.216557 29.720400 35.058911 1.368341 0.559110 0.020917 0.009945 -41871.000000 0 0 1
4.723563 19.012857 30.344950 36.119479 1.327286 0.573279 0.048180 0.007245 16452.400000 0 0 1
5.100163 20.019657 29.421530 35.950310 1.321345 0.612185 0.033543 0.004163 137836.000000 0 0 1
6.165063 21.032757 29.924180 37.092336 1.285666 0.632168 0.034200 0.005129 59326.500000 0 0 1
5.789963 21.754457 31.071020 38.369107 1.310676 0.626998 0.026413 -0.008608 764504.000000 0 0 1
6.960163 22.355757 31.657650 39.375507 1.268972 0.636815 0.006540 -0.004982 578183.000000 0 0 1
7.409363 23.759057 31.220630 39.926422 1.268500 0.673002 0.002245 0.007102 -243079.000000 0 0 1
7.907863 23.728657 29.889700 38.974064 1.249110 0.696780 -0.001618 0.000616 46472.400000 0 0 1
8.148663 25.030957 29.409930 39.470160 1.256073 0.730084 -0.003712 -0.002318 -183549.000000 0 0 1
8.465863 25.026457 27.895920 38.421045 1.244604 0.758224 0.006708 -0.003489 -115005.000000 0 0 1
7.415563 24.703757 27.038050 37.367397 1.279175 0.761831 0.005736 -0.002534 213198.000000 0 0 1
7.988763 24.801357 25.740740 36.626675 1.259181 0.791489 0.018971 -0.001636 164239.000000 0 0 1
28.843351 1.801957 6.524247 29.626876 0.062393 1.348763 0.024724 -0.016171 -292534.000000 0 0 1
29.362111 2.490457 7.571047 30.424607 0.084616 1.319308 0.013141 -0.007946 436714.000000 0 0 1
28.515141 2.244057 8.738347 29.908323 0.078535 1.274300 0.025884 -0.005208 563374.000000 0 0 1
28.748771 3.145357 9.981247 30.594287 0.108975 1.238467 0.029208 -0.004427 -237300.000000 0 0 1
28.333611 4.478457 9.958347 30.364762 0.156765 1.236656 0.026648 -0.016017 641269.000000 0 0 1
29.352661 5.378257 9.453547 31.302938 0.181219 1.264004 0.014931 -0.015800 373847.000000 0 0 1
28.943411 6.857457 9.415847 31.199422 0.232637 1.264221 0.010694 -0.020729 -715773.000000 0 0 1
28.092871 7.306757 8.422147 30.224670 0.254455 1.288407 0.032110 -0.020229 -444978.000000 0 0 1
28.313941 8.640157 8.024247 30.671161 0.296180 1.306094 0.034078 -0.026902 107334.000000 0 0 1
27.529831 9.039857 6.717947 29.744604 0.317273 1.342976 0.031493 -0.024710 750693.000000 0 0 1
26.149071 9.389557 6.822747 28.609222 0.344739 1.329995 0.032679 -0.017848 439686.000000 0 0 1
25.760871 9.913157 5.610347 28.166810 0.367347 1.370272 0.029914 -0.025145 -23062.900000 0 0 1
24.244371 10.204857 5.597147 26.893432 0.398407 1.361141 0.018667 -0.018360 -10240.300000 0 0 1
23.862371 11.423757 6.158047 27.163147 0.446491 1.342102 0.011753 -0.017593 281672.000000 0 0 1
22.463971 11.599057 6.012747 25.986944 0.476634 1.337305 0.018687 -0.011587 342457.000000 0 0 1
21.797771 12.925457 6.476647 26.156399 0.535235 1.320581 0.020944 -0.006757 -205163.000000 0 0 1
22.077871 13.961557 5.554647 26.706021 0.563887 1.361274 0.014032 0.002072 386722.000000 0 0 1
21.928271 15.186057 6.180347 27.379958 0.605697 1.343109 0.033818 -0.008635 -142743.000000 0 0 1
21.858471 16.319657 5.099747 27.751241 0.641325 1.385980 0.034861 -0.007391 68593.000000 0 0 1
20.646371 16.276757 4.360147 26.649884 0.667602 1.406449 0.059529 -0.012939 619573.000000 0 0 1
20.708671 17.355757 3.523747 27.248636 0.697540 1.441115 0.049267 -0.014387 -1309110.000000 0 0 1
19.352071 17.632357 2.965447 26.347610 0.738933 1.458006 0.056895 -0.013371 -1256270.000000 0 0 1
18.494971 18.322857 3.858047 26.318730 0.780723 1.423677 0.051057 -0.015181 755376.000000 0 0 1
17.175371 18.219257 3.264147 25.250532 0.814882 1.441163 0.064033 -0.020534 581926.000000 0 0 1
16.232271 19.118757 4.093247 25.411969 0.866870 1.409016 0.049796 -0.031281 285054.000000 0 0 1
14.834771 18.912557 3.870047 24.346098 0.905648 1.411160 0.051657 -0.036219 843849.000000 0 1 0
14.111571 20.081857 4.252447 24.909852 0.958259 1.399243 0.045269 -0.035932 534204.000000 0 1 0
12.604971 20.073757 3.850047 24.013827 1.010091 1.409775 0.033774 -0.027393 -552428.000000 0 1 0
11.883171 19.203257 4.578947 23.042170 1.016660 1.370744 0.030559 -0.035105 -1343840.000000 0 1 0
10.571171 19.614457 4.265547 22.686372 1.076478 1.381648 0.032432 -0.016232 -719553.000000 0 1 0
9.668471 18.988757 5.358547 21.971942 1.099841 1.324430 0.036443 -0.022917 -710956.000000 0 1 0
9.363471 19.772257 6.436347 22.804458 1.128519 1.284667 0.033116 -0.020069 56160.000000 0 1 0
8.885871 19.060357 7.580147 22.354296 1.134555 1.224846 0.041936 -0.020955 -1240270.000000 0 1 0
7.918671 19.721657 8.513847 22.893988 1.188979 1.189761 0.025707 -0.025298 400859.000000 0 1 0
6.583871 19.807157 7.991347 22.350222 1.249887 1.205152 0.026689 -0.029566 518545.000000 0 1 0
6.423371 20.980757 7.232747 23.103343 1.273702 1.252382 0.019894 -0.025672 1172810.000000 0 1 0
4.939671 21.161557 6.643047 22.723158 1.341476 1.274116 0.012093 -0.014709 2117260.000000 0 1 0
3.760671 21.441357 7.391747 22.989396 1.397169 1.243453 0.003782 -0.010756 510948.000000 0 1 0
3.693971 22.651257 8.148847 24.354231 1.409139 1.229619 0.011726 -0.016545 -707728.000000 0 1 0
3.797671 23.951957 7.308347 25.328452 1.413552 1.278092 0.007791 -0.014777 -430797.000000 0 0 1
2.770471 24.087357 6.371047 25.069234 1.456282 1.313840 0.014728 -0.021114 -282375.000000 0 0 1
3.108771 24.944857 5.315947 25.693766 1.446810 1.362395 0.019527 -0.010855 -718094.000000 0 0 1
1.926371 25.194957 4.397747 25.648332 1.494486 1.398482 0.009999 -0.015970 -73546.600000 0 0 1
0.805071 25.723457 5.122747 26.240939 1.539509 1.374315 0.031244 -0.021938 277873.000000 0 0 1
-0.230129 26.128757 4.227047 26.469469 -1.561989 1.410414 0.029495 -0.014891 -723160.000000 0 0 1
-1.462829 26.501157 4.996647 27.007733 -1.515654 1.384716 0.027115 -0.019178 -896421.000000 0 0 1
-2.389429 27.091257 4.120547 27.506808 -1.482825 1.420429 0.051907 -0.010868 -657908.000000 0 0 1
-3.503229 27.643757 4.771947 28.270503 -1.444741 1.401188 0.037923 -0.011044 55941.200000 0 0 1
-4.549829 28.127157 3.703947 28.732509 -1.410426 1.441525 0.022918 -0.010270 35791.400000 0 0 1
-4.167329 29.267057 2.948247 29.708911 -1.429357 1.471395 0.036459 -0.010208 -108931.000000 0 0 1
-5.064129 29.659657 1.905347 30.149146 -1.401686 1.507557 0.051801 -0.015417 -117854.000000 0 0 1
-4.544029 30.651657 0.823247 30.997580 -1.423621 1.544235 0.044359 -0.007685 -230954.000000 0 0 1
-4.225029 32.033957 1.019947 32.327473 -1.439661 1.539241 0.040706 -0.009378 291839.000000 0 0 1
-3.359229 32.269757 2.141747 32.514746 -1.467072 1.504879 0.037279 -0.013461 -88950.400000 0 0 1
-2.586929 33.600857 1.919347 33.754906 -1.493958 1.513904 0.032876 -0.019003 -912153.000000 0 0 1
-1.734529 33.473457 0.786747 33.527598 -1.519025 1.547329 0.017551 -0.013202 -171818.000000 0 0 1
-0.741429 34.450457 0.724847 34.466057 -1.549278 1.549764 0.017651 -0.012536 -54289.300000 0 0 1
0.458771 34.240257 1.692147 34.285113 1.557399 1.521421 0.006478 -0.010510 -831835.000000 0 0 1
0.225071 34.441957 3.076447 34.579814 1.564262 1.481712 0.005555 -0.007748 732596.000000 0 0 1
1.416171 34.068957 3.817047 34.311357 1.529252 1.459318 -0.000939 -0.005894 959310.000000 0 0 1
1.363471 34.346557 5.317347 34.782455 1.531120 1.417320 -0.001476 -0.003041 -418937.000000 0 0 1
0.316771 33.639057 5.891447 34.152535 1.561380 1.397425 0.001494 -0.007332 -339717.000000 0 0 1
-0.031729 33.937657 7.288847 34.711566 -1.569861 1.359239 0.020435 -0.017236 341629.000000 0 0 1
1.056171 33.494957 8.303547 34.525013 1.539275 1.327907 0.016031 -0.007526 39377.900000 0 0 1
1.279671 32.095457 8.437247 33.210586 1.530947 1.313928 0.014800 -0.013438 177540.000000 0 0 1
2.366171 31.832457 9.315947 33.251931 1.496601 1.286833 0.023578 -0.001657 -68235.300000 0 0 1
2.729071 30.352257 9.311147 31.865416 1.481124 1.274268 0.021655 -0.003601 -397007.000000 0 0 1
1.809671 29.493057 9.920047 31.169258 1.509514 1.246899 0.022408 -0.020050 363577.000000 0 0 1
2.465071 28.218557 9.995247 30.037784 1.483661 1.231572 0.020723 -0.017668 64129.600000 0 0 1
2.156571 27.437257 11.257747 29.735345 1.492357 1.182515 0.016531 -0.028362 -443014.000000 0 0 1
2.695271 28.010157 12.451547 30.771324 1.474867 1.154203 0.032774 -0.015366 -35596.600000 0 0 1
2.510171 27.180857 13.600847 30.497262 1.478707 1.108539 0.039025 -0.014109 -1489360.000000 0 0 1
1.097971 27.107557 14.090047 30.570486 1.530314 1.091783 0.018864 -0.011710 -1320080.000000 0 0 1
0.620571 28.203957 14.815447 31.864490 1.548797 1.087216 0.019636 -0.008217 -210368.000000 0 0 1
0.162571 29.241057 14.010047 32.424485 1.565237 1.123996 0.023730 -0.014012 -637708.000000 0 0 1
-0.508629 30.280857 14.968847 33.782471 -1.554001 1.111748 0.016185 -0.004646 -324024.000000 0 0 1
-1.825029 29.982757 15.328947 33.723479 -1.510002 1.098931 0.001155 0.002620 -188728.000000 0 0 1
-2.516829 31.153257 15.788247 35.016119 -1.490183 1.103040 -0.007608 0.004723 -1025410.000000 0 0 1
-3.805029 30.853857 16.483947 35.187487 -1.448092 1.083249 -0.006522 0.009485 -1092970.000000 0 0 1
-4.732829 30.324857 15.563347 34.412416 -1.415974 1.101499 0.005652 0.001453 -348953.000000 0 0 1
-5.896729 29.957257 16.245547 34.585061 -1.376443 1.081814 0.004933 0.005326 218834.000000 0 0 1
-7.041829 29.238857 15.437547 33.805561 -1.334459 1.096562 0.008395 -0.009223 567229.000000 0 0 1
-8.250929 28.964657 16.070347 34.136274 -1.293285 1.080633 0.009919 -0.005357 -658603.000000 0 0 1
-9.220729 28.394957 15.269247 33.532750 -1.256808 1.098027 0.012871 -0.007437 -794593.000000 0 0 1
-10.480229 27.912457 15.946947 33.811914 -1.211616 1.079650 0.022829 -0.003939 -113294.000000 0 0 1
-11.301629 28.948957 16.559947 35.213644 -1.198594 1.081199 0.028728 -0.012244 751082.000000 0 0 1
-10.830429 29.329257 17.822747 35.988245 -1.217058 1.052688 0.031572 -0.015454 -786566.000000 0 0 1
-11.646829 30.485057 18.319147 37.424303 -1.205859 1.059282 0.042786 -0.016767 -417908.000000 0 0 1
-12.955029 30.113157 18.726447 37.753341 -1.164520 1.051786 0.055673 -0.017247 156332.000000 0 0 1
-13.647529 31.303057 19.004747 39.080901 -1.159662 1.062955 0.068101 -0.014465 -232245.000000 0 0 1
-14.687329 31.168457 20.107647 39.893706 -1.130433 1.042537 0.064882 -0.021999 121839.000000 0 0 1
-14.078829 31.139857 21.409947 40.327285 -1.146184 1.011128 0.060690 -0.022768 315935.000000 0 0 1
-15.006929 30.699857 22.372347 40.843739 -1.116127 0.991118 0.049916 -0.021620 23221.400000 0 0 1
-14.377029 30.751857 23.764847 41.438431 -1.133471 0.960027 0.035836 -0.010433 320451.000000 0 0 1
-13.271229 29.830457 23.981247 40.510268 -1.152201 0.937284 0.028967 -0.010436 1033200.000000 0 0 1
-12.895729 29.620457 25.319047 41.045406 -1.160179 0.906056 0.037494 -0.006132 -16802.300000 0 0 1
-12.347529 30.821757 26.142347 42.259489 -1.189764 0.903818 0.033239 0.000184 -544908.000000 0 0 1
-13.386729 31.635057 26.647647 43.475032 -1.170484 0.911018 0.028377 0.001133 165942.000000 0 0 1
-13.012429 32.933257 26.899547 44.469184 -1.194508 0.921152 0.030459 0.001628 -422285.000000 0 0 1
-14.201829 33.800557 27.368447 45.751518 -1.173028 0.929546 0.040552 0.000860 126183.000000 0 0 1
-14.814429 33.401957 28.607747 46.406478 -1.153344 0.906557 0.002649 0.001215 195960.000000 0 0 1
-14.027229 33.599257 29.743347 47.014252 -1.175307 0.885832 0.020028 0.012459 -358829.000000 0 0 1
-14.605429 32.826057 30.975147 47.437625 -1.152163 0.859303 0.005701 0.006035 1176920.000000 0 0 1
-15.886729 33.407157 31.368247 48.501476 -1.126900 0.867483 0.007860 0.012538 1024690.000000 0 0 1
-16.389029 32.683557 32.508147 48.924378 -1.105993 0.844029 0.005580 0.012074 84138.800000 0 0 1
-17.796829 33.170057 32.892347 49.988861 -1.078351 0.852645 -0.000569 0.010595 -91020.800000 0 0 1
-17.957029 -34.424497 33.268647 51.130262 1.089991 0.862337 0.003524 0.013074 -564025.000000 0 0 1
-19.316729 -34.148297 33.447347 51.555477 1.056001 0.864837 0.008028 0.003073 -367608.000000 0 0 1
-19.648929 -32.644497 33.604747 50.803765 1.028976 0.848030 0.016741 0.003050 -330222.000000 0 0 1
-19.197929 -32.089897 -34.028237 50.559300 1.031661 2.309103 0.017754 0.010044 -552181.000000 0 0 1
-20.024129 -32.390797 -32.946137 50.354517 1.017099 2.284031 0.020882 0.004900 -203008.000000 0 0 1
-19.716729 -31.432897 -31.744037 48.830935 1.010571 2.278487 0.026871 0.005329 -139771.000000 0 0 1
-20.141529 -30.098797 -31.833937 48.218443 0.981055 2.291885 0.030389 -0.001341 -228317.000000 0 0 1
-19.573829 -29.295997 -30.818137 46.809697 0.981774 2.289449 0.032234 0.005095 -267681.000000 0 0 1
-19.946929 -27.801197 -30.883337 46.093025 0.948432 2.305035 0.043647 -0.009325 -606186.000000 0 0 1
-21.248629 -27.543397 -30.479837 46.251090 0.913702 2.290295 0.040567 -0.008454 -775048.000000 0 0 1
-21.619729 -26.217997 -30.639137 45.755357 0.881226 2.304506 0.050751 -0.015360 418178.000000 0 0 1
-22.888429 -25.824297 -29.810437 45.600840 0.845594 2.283294 0.049583 -0.018398 268586.000000 0 0 1
-22.813529 -25.971997 -28.395637 44.736047 0.850050 2.258465 0.045857 -0.015667 18801.100000 0 0 1
-21.953129 -25.035997 -27.786637 43.368631 0.850912 2.266217 0.054959 -0.012764 -155166.000000 0 0 1
-21.787729 -25.406397 -26.305937 42.569853 0.861925 2.236926 0.050607 -0.010617 -577178.000000 0 0 1
-23.005029 -25.317497 -25.652337 42.758033 0.833217 2.214225 0.040197 -0.018270 -426714.000000 0 0 1
-22.831129 -25.644497 -24.283237 42.054444 0.843370 2.186366 0.040968 -0.009224 -370986.000000 0 0 1
-24.164329 -25.602197 -23.530637 42.344753 0.814282 2.159991 0.034403 -0.007667 437885.000000 0 0 1
-25.226129 -26.514397 -23.884837 43.701902 0.810292 2.149023 0.028975 -0.007235 367818.000000 0 0 1
-24.958629 -27.892997 -23.656837 44.278644 0.840862 2.134443 0.037185 -0.004976 -248359.000000 0 0 1
-26.256429 -28.785697 -23.526337 45.513788 0.831317 2.114029 0.014855 -0.003961 1130790.000000 0 0 1
-27.164829 -28.557797 -22.459137 45.363956 0.810391 2.088732 0.012534 -0.000425 718222.000000 0 0 1
-28.020229 -27.386097 -22.666937 45.265014 0.773954 2.095274 0.012734 -0.002553 -14979.000000 0 0 1
-28.543829 -26.904897 -21.302837 44.636694 0.755849 2.068318 0.012617 0.000691 -301864.000000 0 0 1
-29.357629 -27.879997 -20.703837 45.473217 0.759588 2.043503 0.015767 0.006685 129772.000000 0 0 1
-29.776829 -27.378197 -19.405237 44.864110 0.743456 2.018097 0.015462 0.006121 -532547.000000 0 0 1
-30.844929 -28.237697 -18.688437 45.804310 0.741298 1.991065 0.012977 0.008893 135074.000000 0 0 1
-32.139329 -28.330997 -19.278637 46.981354 0.722503 1.993630 0.005109 0.012775 939745.000000 0 0 1
-32.976629 -27.159797 -19.194037 46.835068 0.688971 1.993055 0.008266 0.014771 -88833.700000 0 0 1
-33.756329 -26.999297 -17.854137 46.767745 0.674637 1.962498 0.021179 0.013858 -66394.500000 0 0 1
-32.836229 -26.780697 -16.789737 45.577614 0.684171 1.948059 0.016232 0.019153 548328.000000 0 0 1
-33.556029 -26.166397 -15.774837 45.382076 0.662291 1.925807 0.021544 0.009809 56507.400000 0 0 1
-33.334029 -26.876397 -14.385537 45.171250 0.678556 1.894908 0.050167 0.010287 200928.000000 0 0 1
-34.060929 -28.086697 -14.228437 46.383810 0.689563 1.882577 0.042289 0.003580 371929.000000 0 0 1
-33.702629 -28.637797 -12.971037 46.089460 0.704331 1.856082 0.015789 0.001985 -90892.100000 0 0 1
-34.143029 -30.076297 -12.763437 47.257119 0.722157 1.844278 0.015792 0.010421 -109973.000000 0 0 1
-33.623429 -31.067997 -13.621237 47.762888 0.745917 1.859995 0.001994 0.007847 44775.400000 0 0 1
-34.173129 -32.321397 -13.316137 48.885528 0.757557 1.846677 -0.005673 -0.004686 -342746.000000 0 0 1
-33.849929 -33.389897 -14.345537 49.663843 0.778557 1.863825 -0.011689 0.013908 -86699.700000 0 0 1
-32.477829 -33.718997 -14.277937 48.945271 0.804146 1.866813 0.000325 0.010714 391629.000000 0 0 1
-31.848529 -34.103597 -15.547137 49.184322 0.819577 1.892412 -0.001541 -0.004266 -341644.000000 0 0 1
-30.452229 34.332657 -15.308637 48.377928 -0.845224 1.892769 -0.005791 0.001324 -811668.000000 0 0 1
-30.085729 33.581557 -16.438837 47.990701 -0.840251 1.920418 -0.002153 0.004484 210069.000000 0 0 1
-28.722129 33.139957 -16.470537 46.845448 -0.856691 1.930069 0.002406 0.006092 612335.000000 0 0 1
9.399463 20.073557 -9.199053 23.998336 1.132869 1.964185 0.017596 -0.019104 -637419.000000 0 1 0
7.998963 20.230857 -9.277353 23.650375 1.194275 1.973895 0.025998 -0.016616 -24326.100000 0 1 0
7.478863 20.260457 -10.612353 24.063282 1.217177 2.027530 0.035819 -0.015883 264952.000000 0 1 0
7.486063 18.942957 -11.416453 23.349778 1.194444 2.081661 0.026128 -0.009368 388780.000000 0 1 0
8.779363 18.523957 -11.890853 23.698240 1.128208 2.096430 0.022016 -0.008843 673314.000000 0 1 0
8.561763 17.335857 -12.654553 23.107865 1.112060 2.150325 0.016241 -0.015240 196932.000000 0 1 0
9.854563 16.774757 -13.335553 23.586900 1.039646 2.171690 0.020353 -0.015256 531401.000000 0 1 0
9.695263 15.621957 -14.096753 23.168127 1.015355 2.224908 0.022233 -0.020546 -23103.800000 0 1 0
10.889363 15.422557 -14.823553 24.003566 0.956010 2.236428 0.031289 -0.015818 -181550.000000 0 1 0
10.702463 14.219457 -15.748453 23.764457 0.925593 2.295201 0.026197 -0.014894 -366487.000000 0 1 0
10.497063 13.027557 -14.998653 22.469205 0.892554 2.301670 0.030795 -0.018425 794283.000000 0 1 0
11.657563 12.428757 -14.403653 22.312283 0.817405 2.272537 0.035860 -0.016304 523173.000000 0 1 0
12.725263 11.725057 -15.302953 23.099559 0.744513 2.294919 0.039768 -0.017272 126129.000000 0 1 0
13.491163 12.631557 -16.079753 24.497472 0.752504 2.286812 0.035615 -0.011049 354371.000000 0 1 0
14.256963 11.916657 -17.055453 25.222137 0.696221 2.313402 0.030982 -0.012980 -7909.530000 0 0 1
14.781163 12.803257 -18.192353 26.708947 0.713817 2.320106 0.017695 -0.010450 -712217.000000 0 0 1
15.751763 13.654157 -17.712353 27.354734 0.714186 2.275103 0.008503 -0.002798 -865199.000000 0 0 1
16.305363 14.302857 -18.785153 28.693528 0.720067 2.284559 0.004949 -0.004891 -306345.000000 0 0 1
17.589963 15.121357 -18.548053 29.700042 0.710075 2.245304 0.006977 0.005837 -366532.000000 0 0 1
17.462163 16.460857 -17.973153 29.982014 0.755890 2.213628 0.008225 0.000774 352744.000000 0 0 1
16.806363 17.456657 -18.787853 30.662226 0.804375 2.230314 0.018571 -0.001454 -20137.200000 0 0 1
16.588763 18.829157 -18.055753 30.914954 0.848570 2.194501 0.019667 0.006424 -357470.000000 0 0 1
17.703763 19.669057 -17.924253 31.962069 0.837936 2.166145 0.024421 0.000070 -277205.000000 0 0 1
17.359163 20.913457 -17.485353 32.317964 0.878000 2.142471 0.010724 0.006185 56162.500000 0 0 1
18.457463 21.992057 -17.825553 33.794657 0.872560 2.126412 0.025922 -0.002813 910525.000000 0 0 1
19.670563 21.887957 -17.091053 34.031130 0.838704 2.096958 0.031528 -0.004997 74962.100000 0 0 1
19.584563 22.566657 -15.893053 33.843732 0.856028 2.059635 0.030045 0.000262 662895.000000 0 0 1
21.017363 23.027257 -15.378953 34.763433 0.831000 2.029057 0.028799 -0.001773 327535.000000 0 0 1
21.583963 22.079757 -14.522053 34.121447 0.796753 2.010420 0.037076 -0.005844 -604321.000000 0 0 1
22.484463 22.641057 -13.632053 34.698723 0.788868 1.974546 0.034793 -0.005560 -458603.000000 0 0 1
23.914263 22.936357 -14.110953 36.015100 0.764528 1.973391 0.041321 -0.005617 -879702.000000 0 0 1
24.134163 23.664757 -15.271153 37.090250 0.775578 1.995147 0.037718 -0.001870 -355785.000000 0 0 1
25.287863 24.461757 -15.233353 38.339387 0.768794 1.979401 0.026824 -0.001200 -375444.000000 0 0 1
25.704763 24.868357 -16.660053 39.455384 0.768861 2.006723 0.025873 0.005178 -308719.000000 0 0 1
26.332563 23.859257 -17.443753 39.584751 0.736161 2.027140 0.029409 -0.000132 202348.000000 0 0 1
26.472363 24.210657 -18.835953 40.518329 0.740803 2.054290 0.027791 0.000182 -558304.000000 0 0 1
26.931263 23.073557 -19.769553 40.601935 0.708404 2.079347 0.023984 -0.003621 253656.000000 0 0 1
28.298863 22.691657 -19.768453 41.310152 0.675873 2.069785 0.017225 0.006682 96327.200000 0 0 1
28.608263 21.945457 -20.928453 41.689758 0.654357 2.096711 0.015930 0.002353 621385.000000 0 0 1
30.077363 22.249757 -21.371453 43.086407 0.636909 2.089798 0.035247 -0.006956 433175.000000 0 0 1
30.368663 23.535857 -21.919153 44.233941 0.659313 2.089239 0.028231 -0.008636 13596.900000 0 0 1
31.769963 23.698357 -21.925853 45.295537 0.640895 2.076087 0.031795 -0.006661 67567.300000 0 0 1
32.170963 25.152257 -22.397553 46.575286 0.663564 2.072465 0.038379 -0.012076 -254055.000000 0 0 1
32.324863 25.493557 -23.754153 47.529759 0.667792 2.094135 0.035139 -0.009966 809768.000000 0 0 1
31.194863 25.102757 -24.575553 46.981120 0.677605 2.121274 0.030237 -0.010045 587646.000000 0 0 1
31.337663 25.683857 -26.012723 48.149469 0.686569 2.141530 0.036966 -0.012944 -442900.000000 0 0 1
31.148663 27.085657 -26.207053 48.894597 0.715741 2.136477 0.037694 -0.012416 -181551.000000 0 0 1
29.795263 27.399957 -26.460473 48.359817 0.743543 2.149762 0.036188 0.000695 43031.300000 0 0 1
29.207563 27.156657 -27.829893 48.631972 0.749028 2.180049 0.037411 0.000108 -498110.000000 0 0 1
28.845963 25.785757 -28.038963 47.782615 0.729441 2.197901 0.029096 -0.011052 -65194.700000 0 0 1
28.687063 25.468357 -29.397293 48.329966 0.726033 2.224666 0.031677 -0.012426 -606040.000000 0 0 1
27.974663 24.159357 -29.721773 47.430371 0.712346 2.248031 0.030362 -0.003429 -548036.000000 0 0 1
26.587063 24.253957 -29.567663 46.576529 0.739540 2.258571 0.035831 -0.005898 -619531.000000 0 0 1
26.047963 22.971357 -29.739723 45.723415 0.722717 2.278942 0.049592 -0.013814 -186682.000000 0 0 1
24.643863 23.012457 -29.090353 44.532480 0.751179 2.282651 0.039672 -0.007375 -375193.000000 0 0 1
24.608863 23.098557 -27.696433 43.660415 0.753751 2.257977 0.029615 0.003965 -153128.000000 0 0 1
23.336363 23.217857 -27.119133 42.650933 0.782853 2.259892 0.033637 0.004013 -534612.000000 0 0 1
23.323763 23.283357 -25.560933 41.707001 0.784531 2.230483 0.033951 0.006656 -372073.000000 0 0 1
23.634463 22.058057 -24.943353 40.832788 0.750912 2.227950 0.034014 -0.001299 94714.500000 0 0 1
24.089363 22.480557 -23.681953 40.577182 0.750866 2.193985 0.033592 0.002718 -206235.000000 0 0 1
24.601163 21.339057 -22.808353 39.759194 0.714510 2.181766 0.043577 -0.000923 -54278.400000 0 0 1
25.806963 20.775957 -23.273553 40.488245 0.677814 2.183184 0.018910 0.004481 -15629.900000 0 0 1
26.128463 19.617057 -22.516753 39.680343 0.644008 2.174206 0.044563 -0.009527 997225.000000 0 0 1
27.416963 18.848957 -23.059853 40.481228 0.602282 2.176868 0.046247 -0.011259 856240.000000 0 0 1
28.667063 19.264457 -22.577953 41.263589 0.591690 2.149769 0.049595 -0.019426 -766434.000000 0 0 1
29.594463 18.326457 -22.994953 41.718810 0.554456 2.154585 0.035126 -0.010945 378131.000000 0 0 1
30.927463 18.328757 -22.150753 42.226853 0.534988 2.123001 0.032885 -0.009165 635352.000000 0 0 1
31.719863 19.486857 -22.263453 43.376821 0.550899 2.109772 0.019750 -0.004537 -230198.000000 0 0 1
32.922563 19.314157 -21.547553 43.831824 0.530549 2.084718 0.013673 -0.006506 3589.870000 0 0 1
33.271263 20.386357 -20.466353 44.061912 0.549728 2.053856 0.020775 -0.013487 -382737.000000 0 0 1
32.454263 20.361457 -19.334853 42.915086 0.560316 2.038164 0.019444 -0.011118 -195656.000000 0 0 1
32.819763 21.275957 -18.312553 43.187414 0.575156 2.008682 0.008020 -0.004863 -351690.000000 0 0 1
32.102663 21.039957 -16.960853 41.963452 0.580159 1.986880 0.017260 -0.016154 -236162.000000 0 0 1
32.304663 19.778757 -16.397153 41.275381 0.549383 1.979328 0.016853 -0.025405 156444.000000 0 0 1
32.107163 19.865957 -15.030653 40.637995 0.554084 1.949662 0.028681 -0.024222 -663191.000000 0 0 1
32.625063 18.782557 -14.070753 40.189118 0.522367 1.928489 0.020138 -0.022436 -518793.000000 0 0 1
34.027863 18.644657 -14.240453 41.331697 0.501247 1.922546 0.013470 -0.026734 169941.000000 0 0 1
34.677863 17.667257 -13.458753 41.180386 0.471193 1.903738 0.009308 -0.011347 -71988.300000 0 0 1
34.718963 17.841257 -11.969553 40.828752 0.474687 1.868332 0.022441 -0.017278 -274649.000000 0 0 1
35.401263 19.083557 -11.584853 41.852603 0.494409 1.851260 0.005466 -0.022363 311867.000000 0 0 1
35.243463 19.355157 -10.211553 41.484932 0.502217 1.819503 0.008548 -0.017776 -718914.000000 0 0 1
34.058063 20.298657 -9.971053 40.882869 0.537474 1.817175 0.008250 -0.020460 -916471.000000 0 0 1
32.831363 19.754657 -10.342553 39.687696 0.541669 1.834438 0.047483 -0.039001 -1196700.000000 0 0 1
31.865963 20.739657 -10.119753 39.344407 0.576966 1.830930 0.034438 -0.021697 21102.700000 0 0 1
30.407163 20.211557 -10.247453 37.922458 0.586638 1.844419 0.023221 -0.022460 358995.000000 0 0 1
30.036663 20.102157 -11.622753 37.965592 0.589792 1.881931 0.034405 -0.030408 394236.000000 0 0 1
28.746363 19.513657 -11.798053 36.692373 0.596371 1.898151 0.041874 -0.029080 328842.000000 0 0 1
28.568563 18.945557 -13.235053 36.745932 0.585572 1.939254 0.050116 -0.013980 -408887.000000 0 0 1
29.430863 17.886557 -13.589953 37.024200 0.546097 1.946638 0.049924 -0.009599 -260188.000000 0 0 1
29.079663 17.189157 -14.736053 36.854378 0.533854 1.982144 0.036884 0.000312 -470260.000000 0 0 1
30.224963 16.453057 -15.440853 37.718316 0.498498 1.992563 0.040187 -0.010622 -149020.000000 0 0 1
30.723863 15.316757 -14.718453 37.352264 0.462471 1.975824 0.034833 -0.012109 827793.000000 0 0 1
32.085363 15.042357 -15.069753 38.507667 0.438396 1.972888 0.030799 -0.017702 708928.000000 0 0 1
32.812663 14.038157 -14.140553 38.388747 0.404263 1.948032 0.032119 -0.022149 101282.000000 0 0 1
33.531063 14.694057 -13.084753 38.877477 0.413016 1.914062 0.040787 -0.014378 398009.000000 0 0 1
34.221963 13.660057 -12.367053 38.867517 0.379782 1.894610 0.038982 0.000959 111987.000000 0 0 1
35.331763 14.129057 -11.399053 39.722816 0.380417 1.861853 0.054117 0.003582 1305180.000000 0 0 1
-34.525646 14.629157 -12.058953 39.388461 -0.400785 1.881947 0.024689 -0.001052 853636.000000 0 0 1
-33.474746 14.908657 -11.178753 38.311763 -0.418997 1.866888 0.004854 0.003867 -168271.000000 0 0 1
-32.099646 15.122057 -11.886853 37.421400 -0.440259 1.894045 0.018862 -0.007152 570260.000000 0 0 1
-31.382546 13.976657 -12.432953 36.534771 -0.418992 1.918037 0.008181 0.000982 468741.000000 0 0 1
-31.001346 12.991057 -11.468053 35.515733 -0.396819 1.899589 0.026564 0.011813 -1140500.000000 0 0 1
-29.941346 12.006157 -11.885753 34.378818 -0.381359 1.923812 0.029148 0.010234 -896382.000000 0 0 1
-30.257046 11.243657 -13.030653 34.809576 -0.355791 1.954482 0.026583 0.019732 -107918.000000 0 0 1
-29.582146 10.026057 -13.069353 33.859019 -0.326772 1.967081 0.036845 0.005320 -267966.000000 0 0 1
-29.688546 9.177957 -14.362453 34.233386 -0.299822 2.003741 0.042199 -0.009872 104136.000000 0 0 1
-30.949346 8.560757 -14.535453 35.248092 -0.269858 1.995857 0.019391 0.003800 253925.000000 0 0 1
-30.919646 7.845257 -15.798453 35.597243 -0.248487 2.030643 0.039646 -0.017005 -513404.000000 0 0 1
-32.299746 7.401257 -16.265153 36.913513 -0.225254 2.027095 0.038741 -0.018528 -960923.000000 0 0 1
-32.916446 6.585357 -15.378453 36.923653 -0.197456 2.000381 0.034294 -0.012194 -1117850.000000 0 0 1
-33.963546 5.991257 -16.037953 38.034637 -0.174606 2.006079 0.003518 -0.017371 -1033850.000000 0 0 1
-34.573746 4.911957 -15.153253 38.066945 -0.141127 1.980207 0.007859 -0.014769 68781.100000 0 0 1
35.301863 4.283057 -15.659153 38.855825 0.120737 1.985596 0.005603 -0.008147 773445.000000 0 0 1
34.521163 3.752557 -14.578453 37.660638 0.108278 1.968281 0.017264 -0.008751 65824.300000 0 0 1
33.604263 2.611157 -14.937253 36.867142 0.077547 1.987955 0.024804 -0.003475 -658794.000000 0 0 1
34.306763 1.443457 -15.127053 37.521531 0.042050 1.985760 0.017550 -0.007292 437152.000000 0 0 1
33.422863 0.282457 -15.134853 36.691025 0.008451 1.995987 0.030199 -0.004623 657511.000000 0 0 1
32.963463 -0.024043 -13.702553 35.698045 -0.000729 1.964754 0.041599 -0.019249 -340524.000000 0 0 1
34.053163 -0.473243 -12.932953 36.429427 -0.013896 1.933725 0.039398 -0.018823 230075.000000 0 0 1
33.943163 -0.149443 -11.560353 35.858087 -0.004403 1.899051 0.045495 -0.013763 -358493.000000 0 0 1
34.059563 1.342057 -11.132953 35.858020 0.039383 1.886487 0.046198 -0.017589 -883240.000000 0 0 1
32.949863 2.105657 -11.446153 34.944837 0.063818 1.904505 0.043349 -0.012481 -298001.000000 0 0 1
32.863063 3.371757 -10.806753 34.758244 0.102242 1.886949 0.050717 -0.010544 -160767.000000 0 0 1
31.704163 4.302257 -11.238753 33.911251 0.134876 1.908601 0.044496 -0.011921 -69006.900000 0 0 1
31.837463 4.685957 -12.635353 34.572162 0.146135 1.944942 0.040182 -0.008258 544638.000000 0 0 1
30.816163 5.602757 -12.986553 33.906892 0.179848 1.963845 0.044094 -0.006225 -16366.600000 0 0 1
31.114763 6.379257 -14.297053 34.831438 0.202221 1.993759 0.021394 -0.002550 -326229.000000 0 0 1
30.958763 5.546757 -15.415953 35.026606 0.177285 2.026530 0.010372 0.000232 233454.000000 0 0 1
31.340763 6.129157 -16.672653 36.024815 0.193128 2.051959 0.002869 0.004491 -386410.000000 0 0 1
30.360863 7.235957 -17.183253 35.628714 0.233967 2.074059 0.006123 0.004459 1617240.000000 0 0 1
29.073063 6.810557 -17.701353 34.712599 0.230107 2.105912 0.002463 0.008590 1678870.000000 0 0 1
28.119763 6.212757 -16.805453 33.342805 0.217446 2.099044 0.004296 0.011464 87912.300000 0 0 1
26.722363 6.035357 -17.462953 32.487920 0.222127 2.138291 -0.001713 0.014852 215778.000000 0 0 1
26.826063 5.146457 -18.563253 33.026020 0.189542 2.167694 0.003289 0.005106 225172.000000 0 0 1
25.685263 5.254057 -19.382653 32.604065 0.201772 2.207422 0.002203 0.000984 -66973.000000 0 0 1
25.504763 3.960557 -20.199953 32.775250 0.154056 2.234854 0.007847 0.008791 -256181.000000 0 0 1
24.857163 2.950057 -19.468153 31.711045 0.118128 2.231818 0.018903 -0.001220 83443.100000 0 0 1
24.416363 1.933557 -20.340853 31.837835 0.079026 2.263850 0.020241 -0.001544 -583149.000000 0 0 1
23.273563 1.117457 -19.689153 30.505248 0.047977 2.272389 0.019602 -0.005655 452758.000000 0 0 1
22.053663 1.868057 -19.604353 29.566608 0.084503 2.295692 0.019589 -0.011135 -27406.300000 0 0 1
21.063063 1.035557 -19.121653 28.466869 0.049125 2.307319 0.020552 -0.008665 -1177960.000000 0 0 1
19.771663 1.727457 -18.748453 27.302147 0.087149 2.327739 0.024341 -0.016512 -927117.000000 0 0 1
18.976863 2.064057 -19.916653 27.587220 0.108341 2.377416 0.023395 -0.010584 1192380.000000 0 0 1
17.859763 2.967057 -19.746053 26.789572 0.164627 2.399535 0.019060 -0.008516 1029040.000000 0 0 1
16.659063 2.426757 -18.925353 25.329479 0.144654 2.414586 0.018596 -0.013246 -1112910.000000 0 0 1
16.886763 2.180157 -17.548353 24.451187 0.128394 2.371275 0.019584 -0.018292 509732.000000 0 1 0
15.702563 2.177257 -16.733653 23.050511 0.137778 2.383220 0.004224 -0.008038 500440.000000 0 1 0
14.896563 3.469757 -16.451253 22.463092 0.228843 2.392590 0.017213 -0.012705 90073.800000 0 1 0
14.179963 3.803957 -17.648653 22.956837 0.262092 2.447720 0.023718 -0.005154 -51509.400000 0 1 0
13.322063 4.888357 -17.574953 22.588766 0.351683 2.462335 0.028944 -0.012210 -299270.000000 0 1 0
-19.107537 -21.581243 -17.181753 33.556828 0.846119 2.108331 0.031808 -0.024266 75521.600000 0 0 1
-18.967537 -22.336143 -18.388453 34.594884 0.866775 2.131210 0.031148 -0.009043 189819.000000 0 0 1
-19.985337 -21.987143 -19.291653 35.426206 0.833055 2.146659 0.033784 -0.008256 -159537.000000 0 0 1
-19.888337 -22.835443 -20.611453 36.631072 0.854270 2.168417 0.025758 -0.000561 -98408.400000 0 0 1
-19.858637 -24.246143 -20.499153 37.449382 0.884551 2.150030 0.031058 -0.000190 268005.000000 0 0 1
-19.364037 -24.796343 -21.708753 38.224267 0.907796 2.174786 0.032522 0.001613 -181932.000000 0 0 1
-19.211637 -26.328593 -21.730653 39.172735 0.940423 2.158846 0.033283 0.005680 51258.300000 0 0 1
-20.380737 -27.094883 -21.949653 40.389286 0.925890 2.145341 0.046823 0.006479 166865.000000 0 0 1
-19.965837 -28.434513 -22.108953 41.182060 0.958616 2.137506 0.055035 -0.000213 -285484.000000 0 0 1
-21.142937 -29.425813 -22.247553 42.518889 0.947751 2.121444 0.052447 -0.000871 -26581.300000 0 0 1
-21.906837 -29.264343 -23.408653 43.408252 0.928202 2.140363 0.042903 -0.001920 -107428.000000 0 0 1
-21.366637 -29.861573 -24.552153 44.170748 0.949728 2.160177 0.033486 -0.003193 -822084.000000 0 0 1
-21.964637 -29.376233 -25.873843 44.887238 0.928768 2.185136 0.023054 0.001912 -124739.000000 0 0 1
-23.341337 -29.693983 -26.003683 45.855667 0.904612 2.173749 0.021496 0.003916 362392.000000 0 0 1
-23.988437 -29.131873 -27.124513 46.474191 0.881923 2.194009 0.018417 0.008136 -89646.100000 0 0 1
-23.353837 -29.371173 -28.534883 47.141352 0.899033 2.220945 0.020869 -0.009412 -605432.000000 0 0 1
-23.454537 -30.677523 -29.045383 48.320390 0.918047 2.215673 0.020513 -0.003494 147829.000000 0 0 1
-23.109337 -30.682093 -30.407163 48.990080 0.925259 2.240406 0.026701 -0.006828 -446062.000000 0 0 1
-23.715837 -31.898353 -31.112413 50.477006 0.931480 2.234918 0.019973 -0.002533 -18041.400000 0 0 1
-23.087837 -33.159023 -30.866593 50.845999 0.962574 2.223152 0.014226 -0.009573 -178203.000000 0 0 1
-23.979637 -34.224556 -31.079213 52.079370 0.959630 2.210261 0.013993 -0.007501 -338060.000000 0 0 1
-23.389137 33.329761 -31.051113 51.206409 -0.958897 2.222311 0.027439 -0.011941 -107178.000000 0 0 1
-22.656537 32.977052 -32.205363 51.361367 -0.968822 2.248537 0.026706 -0.014692 -30540.600000 0 0 1
-22.184737 31.647450 -32.103073 50.242721 -0.959402 2.263941 0.030372 -0.000743 447062.000000 0 0 1
-21.045337 31.232020 -33.105333 50.142880 -0.977845 2.291908 0.024025 0.005601 711258.000000 0 0 1
-21.611137 31.047160 -34.383593 51.119457 -0.962710 2.308530 0.018692 0.002828 572877.000000 0 0 1
-20.790737 30.105840 33.699050 49.741756 -0.966415 0.826465 0.006125 0.002451 324925.000000 0 0 1
-20.846137 30.123980 32.123650 48.723142 -0.965452 0.850896 0.005715 0.000260 -206934.000000 0 0 1
-19.930937 31.043210 31.585110 48.564826 -1.000038 0.862725 0.004174 0.006454 232157.000000 0 0 1
-19.885737 30.821330 30.169400 47.493048 -0.997807 0.882479 0.015298 0.006311 -100009.000000 0 0 1
-19.442037 32.031350 29.372630 47.610415 -1.025268 0.905951 0.006577 -0.005617 152790.000000 0 0 1
-20.433937 33.029178 29.473700 48.756245 -1.016767 0.921644 0.009928 -0.008296 278616.000000 0 0 1
-19.853737 34.210636 29.080130 49.093711 -1.044960 0.936837 0.011333 -0.013221 92268.600000 0 0 1
-20.870337 -33.601793 29.212900 49.173622 1.015001 0.934679 0.019821 -0.020105 -52331.100000 0 0 1
-21.175337 -33.199753 30.592440 49.864977 1.003034 0.910304 0.017081 -0.013795 -142473.000000 0 0 1
-22.230837 -32.279343 30.634300 49.745618 0.967693 0.907371 0.025048 -0.015056 -531443.000000 0 0 1
-21.834437 -30.846793 30.331140 48.458698 0.954831 0.894489 0.041327 -0.018401 -627154.000000 0 0 1
-21.594637 -30.571383 28.980040 47.336884 0.955810 0.911946 0.034485 -0.013395 -69549.200000 0 0 1
-21.583137 -29.196943 28.589350 46.213031 0.934226 0.903782 0.045012 -0.021712 -14508.800000 0 0 1
-22.937337 -28.567433 28.151650 46.203194 0.894278 0.915618 0.042731 -0.019113 -285152.000000 0 0 1
-23.952037 -28.415523 29.147230 47.230320 0.870426 0.905707 0.043236 -0.014144 800242.000000 0 0 1
-24.873537 -29.525793 29.167400 48.385975 0.870711 0.923782 0.021945 -0.002002 -384103.000000 0 0 1
-25.917297 -29.636093 28.029980 48.328916 0.852239 0.952088 0.008764 0.001057 -908086.000000 0 0 1
-25.373687 -29.736283 26.758250 47.371664 0.864395 0.970535 0.009526 0.001390 -231343.000000 0 0 1
-26.372387 -29.986793 25.779880 47.532229 0.849442 0.997545 0.010943 -0.001954 -233109.000000 0 0 1
-25.868747 -30.211483 24.383790 46.652921 0.862682 1.020824 0.008921 -0.007196 -846417.000000 0 0 1
-25.593067 -29.080123 23.597330 45.359593 0.849092 1.023678 -0.006296 -0.004049 220298.000000 0 0 1
-25.228097 -29.329693 22.264830 44.636426 0.860436 1.048578 0.013826 -0.003438 -265336.000000 0 0 1
-23.894137 -30.035953 21.964330 44.221263 0.898794 1.051014 0.010924 -0.008535 -526132.000000 0 0 1
-23.937337 -31.412083 22.270630 45.339785 0.919633 1.057336 0.008546 -0.022584 292042.000000 0 0 1
-22.833737 -32.050323 21.621830 44.901073 0.951774 1.068381 0.024741 -0.011630 61709.300000 0 0 1
-21.985037 -32.861303 22.630330 45.555889 0.981163 1.050935 0.026456 -0.010916 -311474.000000 0 0 1
-21.304537 -31.991523 23.508630 45.055483 0.983295 1.021871 0.049240 -0.022709 -1132.640000 0 0 1
-20.522437 -32.755593 24.388630 45.704536 1.011096 1.007927 0.054028 -0.028456 -626016.000000 0 0 1
-19.659137 -31.865993 25.291490 45.183877 1.018020 0.976717 0.063129 -0.030172 -1964410.000000 0 0 1
-18.614737 -31.316603 24.581970 43.948963 1.034501 0.977219 0.061655 -0.030672 -382211.000000 0 0 1
-17.689037 -30.609463 25.385980 43.523434 1.046790 0.948046 0.066920 -0.038706 177819.000000 0 0 1
-16.748837 -31.469693 26.272290 44.284291 1.081705 0.935688 0.052463 -0.030718 -1054200.000000 0 0 1
-17.395337 -32.015643 27.418510 45.600152 1.073082 0.925693 0.040646 -0.019560 -111922.000000 0 0 1
-16.511937 -32.389193 28.415940 46.142926 1.099341 0.907364 0.033231 -0.013544 -545706.000000 0 0 1
-16.943537 -31.861163 29.821860 46.814106 1.082039 0.880161 0.042548 -0.016646 24831.200000 0 0 1
-16.528137 -30.498683 29.878550 45.782931 1.074170 0.859768 0.050449 -0.016160 99001.200000 0 0 1
-16.804537 -29.949643 31.175290 46.381811 1.059476 0.833695 0.055481 -0.007646 -223352.000000 0 0 1
-16.832737 -28.446853 31.147400 45.417233 1.036483 0.815086 0.055194 -0.020664 -223236.000000 0 0 1
-17.711437 -27.753113 30.279910 44.730340 1.002776 0.827194 0.071991 -0.024096 81658.100000 0 0 1
-17.488937 -27.890653 28.884200 43.795531 1.010722 0.850611 0.071304 -0.020222 649169.000000 0 0 1
-16.098537 -27.451243 28.259630 42.559845 1.040406 0.844644 0.062561 -0.017831 790097.000000 0 0 1
-15.798637 -26.061233 28.506220 41.729958 1.025822 0.818781 0.052497 -0.021456 650751.000000 0 0 1
-14.637137 -25.672623 27.751870 40.540050 1.052618 0.816804 0.038994 -0.015290 341572.000000 0 0 1
-14.816737 -24.361843 26.998070 39.267428 1.024373 0.812695 0.030515 -0.005834 -1061400.000000 0 0 1
-15.706337 -24.551543 25.964210 39.033416 1.001675 0.843063 0.059492 -0.018685 -361344.000000 0 0 1
-15.776937 -23.419643 25.024090 37.730578 0.977966 0.845669 0.021475 -0.010090 -183187.000000 0 0 1
-16.400237 -22.159043 25.638160 37.647128 0.933652 0.821652 0.033024 -0.012122 -878370.000000 0 0 1
-16.530137 -21.119443 24.705880 36.464460 0.906695 0.826393 0.017120 -0.006040 110887.000000 0 0 1
-16.983737 -19.922143 25.276970 36.390443 0.864849 0.802926 0.025918 -0.006403 -314653.000000 0 0 1
-16.453837 -18.702643 24.429140 34.889834 0.849277 0.795148 0.014473 -0.008291 1863560.000000 0 0 1
-15.028237 -18.433643 24.654680 34.256392 0.886819 0.767411 0.006390 -0.005870 1314210.000000 0 0 1
-14.656737 -17.356443 23.898000 32.972420 0.869530 0.760070 0.012250 -0.006403 -564036.000000 0 0 1
-13.264937 -16.793843 24.177980 32.288798 0.902263 0.724541 0.015679 -0.006768 -584180.000000 0 0 1
-12.249837 -17.596643 23.582730 31.872332 0.962661 0.737856 0.000666 -0.003734 -82314.800000 0 0 1
-11.002637 -16.924443 23.645630 31.090363 0.994348 0.706644 0.013784 -0.009310 -443809.000000 0 0 1
-10.678037 -15.930043 22.501230 29.565049 0.980277 0.705827 0.006325 -0.007091 -249094.000000 0 0 1
-10.152037 -16.619243 21.349830 28.897723 1.022429 0.739498 0.026792 -0.007283 23376.600000 0 0 1
-8.798537 -17.019843 21.361430 28.694948 1.093675 0.731113 0.032324 -0.005654 -583263.000000 0 0 1
-8.508837 -18.276043 20.529430 28.772758 1.135067 0.776312 0.029544 -0.008397 -169375.000000 0 0 1
-8.473037 -18.053943 19.158730 27.654912 1.131994 0.805461 0.028240 -0.015269 -48296.500000 0 0 1
-7.863537 -19.148143 18.441030 27.722883 1.181127 0.843046 0.030237 -0.016023 253636.000000 0 0 1
-7.729937 -18.871943 16.914730 26.495477 1.182042 0.878378 0.015964 -0.017897 -56952.700000 0 0 1
-6.577537 -18.091543 16.687530 25.476295 1.222084 0.856585 0.017210 -0.015685 -307225.000000 0 0 1
-6.373637 -17.844343 15.340530 24.379822 1.227740 0.890233 0.019226 -0.017514 293872.000000 0 1 0
-5.481637 -16.589343 15.102230 23.093982 1.251660 0.858007 0.003414 -0.019888 364975.000000 0 1 0
-6.149937 -15.459643 15.627030 22.826002 1.192183 0.816721 0.010217 -0.022414 -267860.000000 0 1 0
-5.410337 -14.291743 15.515530 21.777451 1.208905 0.777801 0.012230 -0.025651 -491339.000000 0 1 0
-5.716437 -13.249143 16.565130 21.968637 1.163469 0.716612 0.008998 -0.014504 126344.000000 0 1 0
-5.130537 -13.581843 17.847530 23.007026 1.209617 0.682905 0.004067 -0.013354 456551.000000 0 1 0
-5.841837 -14.574043 18.665830 24.391454 1.189567 0.699350 0.018180 -0.016868 -274885.000000 0 1 0
-7.109637 -14.245543 19.402130 25.098309 1.107887 0.687168 0.036762 -0.016443 -517387.000000 0 0 1
-6.860737 -13.276443 20.361930 25.257511 1.093831 0.633141 0.026189 -0.014969 771272.000000 0 0 1
-8.103837 -12.871543 20.978130 25.911981 1.008901 0.627340 0.031520 -0.010637 1249900.000000 0 0 1
-7.770837 -11.863543 22.080830 26.242954 0.990901 0.570927 0.028818 -0.003500 -130184.000000 0 0 1
-7.184737 -10.642143 21.654630 25.175359 0.976963 0.535229 0.015330 -0.004956 159999.000000 0 0 1
-6.902137 -9.747743 22.729830 25.676900 0.954671 0.483819 0.012584 -0.010367 -210901.000000 0 0 1
-5.500737 -9.902943 23.337230 25.941332 1.063767 0.451908 0.022700 -0.006639 -284479.000000 0 0 1
-5.312137 -11.102843 24.008110 26.979275 1.124538 0.473731 0.024667 -0.000012 -448009.000000 0 0 1
-4.023237 -11.307543 24.520930 27.300604 1.228963 0.455178 0.023896 0.001057 -465110.000000 0 0 1
-3.804437 -12.579043 25.391850 28.591120 1.277100 0.477596 0.027309 -0.001881 335602.000000 0 0 1
-2.449737 -12.806043 25.792710 28.900863 1.381784 0.468039 0.024806 0.002385 575306.000000 0 0 1
-2.351337 -13.942043 26.666010 30.182536 1.403718 0.487533 0.025148 0.003165 70956.500000 0 0 1
-2.496237 -15.360743 26.044770 30.339969 1.409697 0.538593 0.027941 -0.007301 162560.000000 0 0 1
-1.337537 -15.744143 25.316270 29.842597 1.486045 0.557979 0.008233 -0.001881 177351.000000 0 0 1
-1.529037 -16.928643 24.622180 29.919370 1.480718 0.604210 0.011985 -0.001875 -208093.000000 0 0 1
-0.283037 -17.875343 24.556910 30.375152 1.554964 0.629276 0.002475 -0.002893 291893.000000 0 0 1
0.189163 -18.341343 25.797460 31.653588 -1.560483 0.618079 0.012397 -0.007802 -23711.800000 0 0 1
0.995463 -17.433943 26.499720 31.735918 -1.513759 0.582650 0.008082 0.001090 -701428.000000 0 0 1
1.348863 -17.853543 27.959770 33.201163 -1.495388 0.569571 0.007759 0.004789 -930698.000000 0 0 1
2.290563 -18.888943 27.915660 33.783472 -1.450121 0.598270 0.005926 -0.007374 66598.000000 0 0 1
2.965563 -19.172743 29.153510 35.018792 -1.417336 0.587173 0.005133 -0.007120 351191.000000 0 0 1
3.943163 -18.138743 29.721530 35.041859 -1.356738 0.558271 0.019687 -0.002179 -971761.000000 0 0 1
3.275463 -17.016543 30.128070 34.756180 -1.380635 0.521966 0.010060 -0.000310 -438326.000000 0 0 1
4.169563 -16.074843 30.722050 34.923205 -1.317005 0.495559 0.013229 -0.011168 -99257.800000 0 0 1
3.518363 -14.889843 31.469910 34.992022 -1.338760 0.452526 0.025059 -0.004024 58121.600000 0 0 1
2.687363 -15.318143 32.524560 36.051553 -1.397127 0.446027 0.015257 -0.004038 -200447.000000 0 0 1
1.922063 -14.264543 33.050983 36.049120 -1.436859 0.410724 0.013116 0.006687 240207.000000 0 0 1
1.100063 -14.652543 34.342064 37.353508 -1.495860 0.404295 0.008895 0.012749 618872.000000 0 0 1
1.894163 -15.031043 -33.347073 36.627140 -1.445440 2.715160 0.019383 0.008050 -293352.000000 0 0 1
1.072263 -15.461643 -32.297323 35.823585 -1.501557 2.694172 0.020840 -0.000886 533474.000000 0 0 1
1.850363 -15.622643 -30.903873 34.677662 -1.452904 2.670726 0.023099 0.000466 707053.000000 0 0 1
1.064763 -16.308543 -29.925093 34.097119 -1.505600 2.641718 0.029437 -0.000110 -432214.000000 0 0 1
1.655063 -16.225143 -28.659783 32.975410 -1.469142 2.624229 0.026988 -0.005924 -102885.000000 0 0 1
1.447463 -17.471943 -27.742373 32.817727 -1.488140 2.578011 0.039298 -0.014160 -173911.000000 0 0 1
2.035863 -18.629443 -28.280893 33.926536 -1.461946 2.556375 0.037622 -0.009145 115325.000000 0 0 1
1.508763 -19.779043 -27.648333 34.028183 -1.494663 2.519246 0.053804 -0.018626 -897968.000000 0 0 1
2.399463 -20.982443 -27.970673 35.048237 -1.456935 2.494869 0.049820 -0.015539 12641.300000 0 0 1
3.681463 -20.982143 -27.375713 34.687652 -1.397107 2.480312 0.034436 -0.019330 -63166.500000 0 0 1
3.770663 -21.031143 -25.963863 33.625126 -1.393392 2.453024 0.030982 -0.029724 -1267630.000000 0 0 1
5.196963 -21.293543 -25.377153 33.532422 -1.331413 2.429191 0.012464 -0.022670 371562.000000 0 0 1
5.609563 -22.639243 -25.361503 34.455890 -1.327908 2.398023 0.014473 -0.023891 -9627.910000 0 0 1
5.724863 -23.167243 -26.700573 35.810834 -1.328539 2.412232 0.012536 -0.016752 -1247390.000000 0 0 1
5.010063 -24.525343 -26.937963 36.772912 -1.369288 2.392856 0.001358 -0.016295 31337.500000 0 0 1
5.652263 -25.630313 -26.332273 37.178618 -1.353740 2.357832 0.005380 -0.012901 184009.000000 0 0 1
4.967663 -26.802253 -26.760203 38.198782 -1.387531 2.346966 0.002404 -0.009026 109624.000000 0 0 1
5.374263 -28.069473 -25.943083 38.598207 -1.381623 2.307881 0.009675 -0.009758 498300.000000 0 0 1
6.753363 -28.408083 -26.066613 39.141991 -1.337402 2.299563 0.017217 -0.012268 155450.000000 0 0 1
6.993363 -29.503903 -25.251543 39.459192 -1.338060 2.265217 0.020642 -0.008276 252887.000000 0 0 1
8.432363 -30.060173 -25.459183 40.285094 -1.297309 2.254896 0.022904 -0.009341 363454.000000 0 0 1
8.669263 -30.321123 -26.803433 41.387808 -1.292311 2.275249 0.019224 -0.011948 -372916.000000 0 0 1
10.029763 -30.374803 -27.143113 41.952037 -1.251868 2.274444 0.043635 -0.016994 -86736.600000 0 0 1
10.267363 -30.314773 -28.696103 42.986865 -1.244231 2.301717 0.053492 -0.029442 -16077.000000 0 0 1
9.912963 -31.389843 -29.573883 44.251595 -1.264906 2.302734 0.044686 -0.023666 142325.000000 0 0 1
10.331963 -31.051673 -30.924273 45.025177 -1.249585 2.327904 0.041314 -0.020758 -29614.500000 0 0 1
-33.766887 -4.897843 -5.629653 34.581564 0.144044 1.734318 0.070859 -0.022858 -128500.000000 0 0 1
-33.652517 -4.359743 -4.330553 34.208961 0.128834 1.697728 0.063003 -0.028509 617853.000000 0 0 1
-32.892547 -3.113843 -4.200253 33.305522 0.094386 1.697246 0.060086 -0.031162 -52495.200000 0 0 1
-33.442667 -1.830043 -4.865553 33.844271 0.054667 1.715059 0.075419 -0.015277 181594.000000 0 0 1
-34.598177 -1.336443 -4.185153 34.876001 0.038608 1.691087 0.047733 -0.013138 437353.000000 0 0 1
-35.180585 -0.351843 -4.985953 35.533887 0.010001 1.711576 0.051731 -0.019523 -355602.000000 0 0 1
35.032178 0.630857 -4.226653 35.291870 0.018006 1.690847 0.055014 -0.018646 -419240.000000 0 0 1
-35.220631 1.545057 -3.549253 35.432715 -0.043840 1.671133 0.058682 -0.014852 -100773.000000 0 0 1
35.114123 2.096857 -2.478353 35.263873 0.059645 1.641135 0.058385 -0.015699 -157290.000000 0 0 1
-35.344912 3.387757 -1.893253 35.557336 -0.095557 1.624067 0.056817 -0.023474 -55493.000000 0 0 1
-35.407411 4.559557 -2.732353 35.804191 -0.128069 1.647184 0.063633 -0.029897 -387873.000000 0 0 1
-34.272046 4.769757 -3.504153 34.779345 -0.138285 1.671721 0.060929 -0.019031 -915770.000000 0 0 1
-33.408337 5.935457 -3.090253 34.071929 -0.175829 1.661619 0.062104 -0.022913 -220002.000000 0 0 1
-32.618687 5.663957 -1.929853 33.162984 -0.171927 1.629022 0.056437 -0.032789 506447.000000 0 0 1
-32.333037 6.881857 -1.270753 33.081718 -0.209713 1.609218 0.068435 -0.044579 -3893.380000 0 0 1
-31.441847 6.803757 0.015647 32.169568 -0.213106 1.570310 0.064582 -0.044984 -1433970.000000 0 0 1
-30.086817 6.746657 -0.246953 30.834963 -0.220591 1.578805 0.063894 -0.041419 -621446.000000 0 0 1
-29.279607 7.183757 0.831247 30.159455 -0.240598 1.543231 0.062754 -0.038991 -68718.500000 0 0 1
-29.237047 8.739157 0.901647 30.528524 -0.290454 1.541257 0.075160 -0.041170 -196772.000000 0 0 1
-30.518557 9.226057 1.330747 31.910396 -0.293574 1.529082 0.085811 -0.048153 661808.000000 0 0 1
-30.532297 10.621057 1.692947 32.371192 -0.334770 1.518475 0.085442 -0.036990 182720.000000 0 0 1
-31.951467 11.253857 1.761547 33.921212 -0.338649 1.518842 0.086873 -0.032844 -324289.000000 0 0 1
-32.459497 11.577557 0.453847 34.465414 -0.342611 1.557628 0.076943 -0.027771 589093.000000 0 0 1
-33.732477 12.196957 0.527147 35.873718 -0.346953 1.556101 0.065339 -0.002078 384718.000000 0 0 1
-34.967720 11.278357 0.650747 36.747330 -0.312002 1.553087 0.064863 -0.023191 -394200.000000 0 0 1
-35.137806 10.347557 -0.429253 36.632248 -0.286390 1.582515 0.063893 -0.015270 1269340.000000 0 0 1
34.628681 9.695657 -0.188053 35.960905 0.272999 1.576026 0.066099 -0.020019 1516270.000000 0 0 1
34.317671 8.697457 -1.270453 35.425448 0.248213 1.606667 0.060816 -0.035199 -27069.000000 0 0 1
33.993501 9.285257 -2.481053 35.326049 0.266644 1.641087 0.056580 -0.026289 46368.500000 0 0 1
33.709011 8.397757 -3.505253 34.915707 0.244155 1.671358 0.046683 -0.033218 -137109.000000 0 0 1
33.179341 8.913457 -4.849053 34.696278 0.262448 1.711012 0.042716 -0.023539 714084.000000 0 0 1
31.801571 9.318357 -4.822153 33.487683 0.285037 1.715296 0.043409 -0.026538 904693.000000 0 0 1
31.332981 9.754857 -6.094953 33.377559 0.301817 1.754433 0.033316 -0.014879 17302.000000 0 0 1
29.891961 10.297757 -6.088653 32.196970 0.331766 1.761048 0.039509 -0.009553 -200294.000000 0 0 1
28.908771 9.356457 -5.799953 30.933797 0.313015 1.759408 0.025207 -0.010040 13368.500000 0 0 1
27.611851 9.810257 -6.100853 29.931186 0.341381 1.776064 0.038099 -0.004814 228162.000000 0 0 1
26.482551 8.740157 -6.166753 28.561245 0.318779 1.788423 0.044472 -0.004885 -35856.700000 0 0 1
26.656441 7.821057 -7.246753 28.709758 0.285393 1.825971 0.040415 -0.002847 343637.000000 0 0 1
25.648271 6.828257 -7.260453 27.516779 0.260192 1.837814 0.050007 -0.013501 -308407.000000 0 0 1
25.793771 5.787757 -8.406353 27.739567 0.220730 1.878683 0.045913 -0.016634 -162944.000000 0 0 1
26.872141 4.885657 -8.231053 28.525986 0.179847 1.863504 0.039483 -0.014685 508426.000000 0 0 1
26.847541 3.891457 -9.225353 28.653814 0.143944 1.898594 0.040285 -0.011657 -372848.000000 0 0 1
27.896251 2.760957 -9.079753 29.466348 0.098651 1.884033 0.038124 -0.007527 -1383410.000000 0 0 1
29.193021 3.171357 -9.193753 30.770361 0.108210 1.874217 0.050659 -0.006169 -193217.000000 0 0 1
30.179041 2.614357 -8.280053 31.403323 0.086412 1.837619 0.041587 -0.012439 613240.000000 0 0 1
30.376071 1.074657 -7.998653 31.429907 0.035364 1.828118 0.040316 -0.019582 352392.000000 0 0 1
29.216801 0.473957 -7.319053 30.123324 0.016221 1.816222 0.056000 -0.020734 1443610.000000 0 0 1
29.313011 -0.921043 -7.076253 30.169096 -0.031411 1.807555 0.059471 -0.022237 -385836.000000 0 0 1
29.190351 -1.857843 -8.282753 30.399543 -0.063560 1.846748 0.058564 -0.015076 -356454.000000 0 0 1
30.257941 -1.877243 -9.208953 31.683937 -0.061962 1.865703 0.051388 -0.013278 289123.000000 0 0 1
30.033231 -2.996943 -10.107453 31.829817 -0.099458 1.893937 0.049511 -0.018757 68125.700000 0 0 1
31.073261 -3.084743 -11.266653 33.196396 -0.098949 1.917069 0.052385 -0.022736 -47270.700000 0 0 1
32.373541 -3.411343 -10.848953 34.313019 -0.104987 1.892492 0.055394 -0.017420 -341970.000000 0 0 1
33.191271 -3.769543 -11.922253 35.468438 -0.113086 1.913609 0.045679 -0.031934 -475364.000000 0 0 1
34.591311 -4.160143 -11.444553 36.672107 -0.119691 1.888176 0.035051 -0.017657 -440690.000000 0 0 1
34.589841 -5.389843 -10.725553 36.613454 -0.154578 1.868097 0.036648 -0.022073 -666602.000000 0 0 1
-35.176525 -5.764143 -10.416653 37.136504 0.162420 1.855107 0.041765 -0.010593 -816832.000000 0 0 1
-35.213000 -7.111343 -9.594353 37.183037 0.199272 1.831779 0.047827 -0.020577 -238763.000000 0 0 1
-35.361263 -6.881643 -8.222453 36.951112 0.192207 1.795197 0.052688 -0.021654 269977.000000 0 0 1
34.960211 -7.938243 -7.663353 36.660047 -0.223279 1.781388 0.051746 -0.018495 -384813.000000 0 0 1
34.706391 -7.709643 -6.139453 36.078596 -0.218590 1.741797 0.068525 -0.016915 630115.000000 0 0 1
-35.178854 -7.889343 -5.278753 36.437052 0.220614 1.716181 0.053890 -0.015960 1265520.000000 0 0 1
-35.104090 -9.013943 -4.414653 36.510786 0.251347 1.692007 0.069609 -0.022312 -406193.000000 0 0 1
-35.056882 -10.429043 -5.104853 36.929791 0.289152 1.709472 0.064372 -0.019454 -690222.000000 0 0 1
34.898161 -10.760443 -5.891453 36.991594 -0.299089 1.730742 0.040818 -0.018706 -72676.900000 0 0 1
35.034462 -12.055743 -6.341753 37.589524 -0.331419 1.740318 0.045844 -0.019193 389699.000000 0 0 1
34.173091 -12.260943 -7.657753 37.104880 -0.344483 1.778672 0.039101 -0.020372 347152.000000 0 0 1
34.583441 -11.368443 -8.675753 37.423584 -0.317597 1.804751 0.073346 -0.024743 -41042.100000 0 0 1
34.107981 -11.743943 -9.894953 37.405677 -0.331603 1.838514 0.060161 -0.015677 -364240.000000 0 0 1
34.463721 -10.850943 -11.113553 37.802145 -0.305025 1.869198 0.030166 -0.007910 -118709.000000 0 0 1
33.787351 -9.600943 -11.163953 36.856439 -0.276860 1.878534 0.025136 -0.009838 237061.000000 0 0 1
34.067531 -8.846543 -12.293453 37.282530 -0.254065 1.906822 0.033646 -0.015400 -371448.000000 0 0 1
33.087921 -7.697143 -12.540553 36.212181 -0.228562 1.924429 0.034373 -0.013121 -179874.000000 0 0 1
33.574941 -7.039943 -13.696653 36.938270 -0.206684 1.950665 0.036415 -0.015452 760797.000000 0 0 1
32.534461 -6.405743 -14.405853 36.153193 -0.194404 1.980641 0.039450 -0.021631 223829.000000 0 0 1
33.066441 -6.171243 -15.884553 37.199366 -0.184509 2.011981 0.045740 -0.019933 694674.000000 0 0 1
34.177031 -5.286943 -16.048053 38.125599 -0.153476 2.005262 0.041692 -0.026292 742052.000000 0 0 1
33.789391 -3.944543 -16.065653 37.621638 -0.116213 2.012005 0.047021 -0.019153 -216279.000000 0 0 1
35.073394 -3.129243 -15.973153 38.666223 -0.088984 1.996656 0.032176 -0.019033 21697.300000 0 0 1
-35.074408 -3.099843 -17.082453 39.136087 0.088150 2.022488 0.040745 -0.018332 779499.000000 0 0 1
-33.845447 -2.402743 -16.913653 37.912520 0.070873 2.033225 0.019706 -0.012425 -256742.000000 0 0 1
-33.927217 -0.884243 -16.494253 37.734578 0.026057 2.023182 0.002787 -0.007929 -979145.000000 0 0 1
-34.291079 0.019857 -17.526953 38.510682 -0.000579 2.043302 -0.000161 -0.004128 195443.000000 0 0 1
-34.149549 1.337957 -17.076753 38.204677 -0.039159 2.034184 0.003620 -0.007281 -232922.000000 0 0 1
-34.631425 2.481157 -18.046253 39.130027 -0.071522 2.050129 -0.007377 -0.004790 -19997.700000 0 0 1
-33.894777 2.530057 -19.280853 39.076955 -0.074506 2.086799 -0.001385 0.001030 515731.000000 0 0 1
-34.146160 3.729457 -19.997353 39.746236 -0.108789 2.098008 -0.001393 0.006470 -323605.000000 0 0 1
-33.251937 3.882057 -21.245653 39.650214 -0.116221 2.136283 0.003957 0.008430 -246511.000000 0 0 1
-31.943597 4.286357 -20.925253 38.426976 -0.133388 2.146644 0.006430 0.005516 41921.400000 0 0 1
-31.166317 4.504157 -22.070353 38.454223 -0.143526 2.182103 0.008607 -0.000402 -580055.000000 0 0 1
-29.785327 5.159457 -21.892153 37.323613 -0.171519 2.197588 0.033444 -0.006352 324842.000000 0 0 1
-28.926027 4.289557 -21.141053 36.084061 -0.147221 2.196766 0.036550 0.000766 -900545.000000 0 0 1
-27.722577 4.133857 -21.768953 35.489680 -0.148024 2.231140 0.035214 -0.010233 -1134560.000000 0 0 1
-26.704417 3.196057 -21.090353 34.178117 -0.119116 2.235812 0.055308 -0.010475 -29301.100000 0 0 1
-26.241757 3.717057 -19.876653 33.128955 -0.140711 2.214270 0.049595 -0.001596 74536.100000 0 0 1
-25.682347 2.639457 -19.101853 32.115892 -0.102414 2.207787 0.057414 -0.005691 -300368.000000 0 0 1
-24.915837 2.954957 -17.810453 30.769189 -0.118046 2.188102 0.055901 -0.015056 -70823.200000 0 0 1
-23.654837 3.504957 -18.123453 30.004926 -0.147101 2.219327 0.050699 -0.013194 343866.000000 0 0 1
-22.841437 3.709657 -16.953853 28.686686 -0.161003 2.203095 0.060107 -0.019329 1068030.000000 0 0 1
-21.569237 4.628057 -17.136353 27.933949 -0.211363 2.231230 0.050209 -0.016370 561607.000000 0 0 1
-20.400037 4.021357 -17.589053 27.234310 -0.194630 2.272922 0.055231 -0.014619 -493150.000000 0 0 1
-19.314637 4.916957 -17.597653 26.587762 -0.249277 2.294108 0.048929 -0.019362 -551224.000000 0 0 1
-18.031237 4.206957 -18.000353 25.823182 -0.229214 2.342088 0.052412 -0.018046 -632360.000000 0 0 1
-17.802137 3.139757 -17.114053 24.893071 -0.174574 2.328841 0.059376 -0.017579 -129736.000000 0 1 0
-16.730337 2.329257 -17.517153 24.334755 -0.138334 2.374370 0.058412 -0.021371 -520972.000000 0 1 0
-16.965937 0.834057 -16.981053 24.018636 -0.049121 2.356036 0.061257 -0.023286 -88697.800000 0 1 0
-17.980637 0.019257 -17.487753 25.082368 -0.001071 2.342299 0.050190 -0.013125 383180.000000 0 0 1
-19.310537 0.426157 -17.187453 25.855116 -0.022065 2.297969 0.045858 -0.013596 -236344.000000 0 0 1
-20.446937 -0.461943 -17.680253 27.034829 0.022588 2.283631 0.049816 -0.011255 -484656.000000 0 0 1
-20.451737 -1.697243 -17.009153 26.654559 0.082798 2.262867 0.045119 -0.009926 278179.000000 0 0 1
-21.294837 -2.687443 -17.552153 27.726712 0.125538 2.256272 0.054741 0.001059 -124331.000000 0 0 1
-21.365237 -3.874643 -16.617253 27.342629 0.179403 2.224010 0.060135 -0.000317 28555.900000 0 0 1
-21.769437 -3.372743 -15.342953 26.845670 0.153708 2.179159 0.056008 -0.004918 241951.000000 0 0 1
-22.484037 -4.384043 -14.680353 27.207803 0.192569 2.140716 0.068178 -0.016407 -17408.800000 0 0 1
-22.908437 -3.968643 -13.241053 26.755787 0.171537 2.088499 0.062478 -0.013345 78622.600000 0 0 1
-23.851037 -2.909043 -13.157653 27.394495 0.121368 2.071796 0.056338 -0.010294 449783.000000 0 0 1
-24.189537 -2.669443 -11.833853 27.061037 0.109911 2.023393 0.057270 -0.019773 -54106.000000 0 0 1
-24.833137 -1.256843 -11.574953 27.427065 0.050568 2.006476 0.047875 -0.030939 -28657.000000 0 0 1
-25.229097 -1.149443 -10.236353 27.250899 0.045529 1.955877 0.043353 -0.029651 681741.000000 0 0 1
-25.871807 0.093557 -9.934753 27.713868 -0.003616 1.937431 0.042691 -0.028853 -102764.000000 0 0 1
-26.383817 0.203557 -8.526753 27.728195 -0.007715 1.883374 0.049040 -0.023007 -570914.000000 0 0 1
-25.283837 0.111957 -7.673453 26.422847 -0.004428 1.865451 0.046305 -0.030023 479155.000000 0 0 1
-25.673977 0.491157 -6.376453 26.458524 -0.019128 1.814190 0.052699 -0.030486 89714.100000 0 0 1
-24.444837 0.832257 -5.505653 25.070998 -0.034033 1.792203 0.030970 -0.026742 -228853.000000 0 0 1
-23.973837 2.117057 -5.649553 24.721332 -0.088078 1.801363 0.041120 -0.022998 134298.000000 0 1 0
-22.651137 2.256957 -5.172853 23.343656 -0.099312 1.794247 0.031095 -0.018000 -171940.000000 0 1 0
-22.064137 3.690057 -5.389153 23.010555 -0.165709 1.807196 0.038089 -0.004750 -446036.000000 0 1 0
-22.567737 4.771157 -4.601553 23.521076 -0.208347 1.767702 0.037556 -0.003147 559132.000000 0 1 0
-22.033937 6.045257 -4.930253 23.374065 -0.267772 1.783321 0.033643 -0.007283 -585947.000000 0 1 0
-22.733737 7.176657 -4.170653 24.201685 -0.305782 1.743990 0.042014 -0.005294 -200217.000000 0 1 0
-22.305637 7.380957 -2.808553 23.662374 -0.319560 1.689770 0.052601 -0.001639 828557.000000 0 1 0
-20.993337 7.898357 -2.616053 22.582028 -0.359850 1.686904 0.059802 -0.005813 -82253.300000 0 1 0
-20.740837 9.419757 -2.822153 22.953838 -0.426312 1.694057 0.070463 -0.007811 -511975.000000 0 1 0
-20.507737 9.866857 -4.115453 23.127021 -0.448437 1.749699 0.050406 -0.003408 691377.000000 0 1 0
-19.830537 11.117957 -4.021253 23.087435 -0.510982 1.745864 0.053363 -0.009216 -165840.000000 0 1 0
-19.649637 11.783957 -5.407153 23.541606 -0.540201 1.802550 0.054702 -0.011175 17216.800000 0 1 0
-18.641537 11.165557 -6.202553 22.597527 -0.539655 1.848844 0.046202 -0.007032 261009.000000 0 1 0
-18.564537 11.723957 -7.490053 23.199011 -0.563277 1.899547 0.043956 -0.002466 19335.400000 0 1 0
-17.202237 11.443657 -8.184953 22.223135 -0.587016 1.947985 0.042144 -0.000066 51665.900000 0 1 0
-16.929337 10.067457 -8.513353 21.457710 -0.536495 1.978770 0.035604 0.002721 369896.000000 0 1 0
-17.723437 9.343957 -9.463253 22.158134 -0.485177 2.012055 0.028122 0.004376 -3041.200000 0 1 0
-18.009037 9.909557 -10.872253 23.253615 -0.503039 2.057315 0.051277 0.000814 -12769.400000 0 1 0
-16.852637 9.814457 -11.671053 22.727702 -0.527355 2.110074 0.043917 0.003210 43600.400000 0 1 0
-16.885537 10.681557 -12.766153 23.710582 -0.564036 2.139352 0.036440 -0.000243 153073.000000 0 1 0
-15.783437 10.414557 -13.828853 23.426845 -0.583262 2.202226 0.029802 0.000454 -57825.600000 0 1 0
-15.781137 9.132157 -14.478553 23.282377 -0.524592 2.241921 0.027138 -0.005585 -35667.700000 0 1 0
-15.766537 7.902257 -13.718753 22.343535 -0.464611 2.231905 0.030450 -0.002336 -326765.000000 0 1 0
-15.716037 6.556357 -14.459553 22.339613 -0.395225 2.274782 0.037874 -0.008679 101737.000000 0 1 0
-14.676337 6.464757 -15.430853 22.255318 -0.414916 2.336932 0.039272 -0.011897 556798.000000 0 1 0
-14.382137 5.137857 -15.817253 21.987018 -0.343109 2.373721 0.022720 -0.021091 -15664.100000 0 1 0
31.642271 -15.533743 28.235880 45.164095 -0.456355 0.895429 0.000474 -0.003075 -442791.000000 0 0 1
31.070651 -14.313943 28.692180 44.648803 -0.431708 0.872884 0.009761 -0.004443 14603.600000 0 0 1
30.006671 -14.551643 29.599230 44.589966 -0.451533 0.844896 0.013219 -0.007710 -102213.000000 0 0 1
30.388641 -14.933043 31.043390 45.936450 -0.456746 0.828760 0.007770 -0.013834 -390928.000000 0 0 1
31.071501 -13.856443 31.583510 46.421518 -0.419484 0.822538 -0.001039 -0.007149 -78324.300000 0 0 1
30.899791 -13.792043 32.972701 47.246340 -0.419812 0.798351 -0.015048 -0.004715 -469913.000000 0 0 1
31.221441 -12.397943 33.495871 47.439022 -0.378001 0.786845 0.002129 -0.004924 -82677.800000 0 0 1
30.897591 -12.211443 -33.919553 47.479644 -0.376382 2.366565 -0.009914 -0.009682 148984.000000 0 0 1
30.962341 -10.855043 -33.577923 46.946517 -0.337199 2.367761 -0.000871 -0.008211 -225835.000000 0 0 1
30.495721 -10.494243 -32.201743 45.574888 -0.331429 2.355432 0.001508 -0.009354 265842.000000 0 0 1
29.096331 -10.384243 -31.970883 44.458592 -0.342801 2.373326 0.021177 -0.015036 356583.000000 0 0 1
28.877561 -9.968243 -30.685333 43.299759 -0.332383 2.358411 0.021541 -0.012733 -463152.000000 0 0 1
27.391541 -9.610443 -30.524093 42.123360 -0.337436 2.381302 0.011173 0.008410 -6183.170000 0 0 1
26.974011 -9.379843 -29.155563 40.812077 -0.334657 2.366542 0.001833 -0.002729 313270.000000 0 0 1
26.485381 -10.566743 -28.568843 40.364716 -0.379614 2.357130 0.027568 0.002089 -1040050.000000 0 0 1
26.102961 -10.373543 -27.069223 39.009202 -0.378270 2.337714 0.019497 0.009743 -584106.000000 0 0 1
25.204971 -9.319243 -26.777913 37.936731 -0.354150 2.354429 0.006217 0.008087 906751.000000 0 0 1
23.892071 -9.209843 -27.341393 37.459366 -0.367924 2.388964 0.006638 0.005473 1281560.000000 0 0 1
22.905371 -10.468443 -27.202223 37.070275 -0.428685 2.394697 0.014049 0.023269 -308822.000000 0 0 1
23.341871 -11.565743 -27.957353 38.212864 -0.460036 2.391494 0.016932 0.010429 18450.700000 0 0 1
22.790371 -12.836643 -27.570553 38.004156 -0.512958 2.382501 0.024741 0.003046 478931.000000 0 0 1
23.696671 -14.017243 -28.107073 39.344922 -0.534167 2.366528 0.023943 0.017061 510144.000000 0 0 1
23.714171 -13.968043 -29.508673 40.351332 -0.532304 2.391013 0.028665 0.007884 -93212.800000 0 0 1
24.704471 -14.757143 -30.085153 41.631726 -0.538467 2.378424 0.028487 0.005183 -388967.000000 0 0 1
24.675271 -14.774843 -31.601593 42.729682 -0.539516 2.403228 0.044524 -0.000084 -376686.000000 0 0 1
23.484571 -15.318943 -32.114173 42.632326 -0.577989 2.423835 0.061899 0.003127 -38544.100000 0 0 1
23.466171 -15.676143 -33.461883 43.773283 -0.588947 2.440963 0.072604 -0.006756 -153820.000000 0 0 1
23.694571 -14.678743 34.225853 44.139634 -0.554633 0.683449 0.046350 -0.007619 -868434.000000 0 0 1
22.643971 -13.857843 33.924278 43.077209 -0.549188 0.664018 0.053467 -0.008241 -745078.000000 0 0 1
22.783071 -13.317543 32.622360 41.960025 -0.528972 0.680175 0.043171 -0.008036 -636271.000000 0 0 1
22.157771 -11.911343 32.333840 40.967355 -0.493250 0.661196 0.073401 -0.018961 699721.000000 0 0 1
20.754971 -11.780843 32.571360 40.378839 -0.516267 0.632344 0.058038 -0.009588 684545.000000 0 0 1
19.954171 -12.367643 31.580310 39.350268 -0.554853 0.639250 0.050244 -0.010280 -1236240.000000 0 0 1
18.463471 -12.418543 31.866310 38.866203 -0.592100 0.609564 0.062651 -0.006111 -524280.000000 0 0 1
17.776271 -11.188343 31.809050 38.118113 -0.561755 0.583596 0.066558 -0.015280 -122255.000000 0 0 1
16.549871 -11.324543 32.504940 38.193123 -0.600089 0.552781 0.052656 -0.005986 -281843.000000 0 0 1
15.785071 -10.047043 32.638050 37.621189 -0.566819 0.520553 0.052916 -0.007566 -1637550.000000 0 0 1
15.045871 -9.758643 31.447790 36.201835 -0.575385 0.518266 0.055634 -0.015603 275853.000000 0 0 1
14.207771 -8.588243 31.608490 35.703156 -0.543703 0.483628 0.061817 -0.008342 514709.000000 0 0 1
13.100771 -8.726743 32.678960 36.272589 -0.587627 0.448895 0.059042 -0.009944 -2642800.000000 0 0 1
12.343871 -9.847343 32.405500 36.047993 -0.673368 0.453420 0.051603 -0.013978 138321.000000 0 0 1
11.235471 -10.021343 33.309760 36.554114 -0.728343 0.424499 0.046665 -0.008845 1072210.000000 0 0 1
9.957071 -9.175343 32.973271 35.645011 -0.744562 0.389640 0.033280 -0.003280 -390620.000000 0 0 1
10.226771 -7.787343 33.004027 35.418857 -0.650799 0.371398 0.049700 -0.002387 53228.000000 0 0 1
9.178471 -7.009943 32.444290 34.438578 -0.652235 0.341983 0.027354 0.007360 -76103.400000 0 0 1
9.453671 -5.520843 32.307850 34.112297 -0.528564 0.326712 0.012141 0.015773 -131663.000000 0 0 1
9.774871 -4.880043 33.505760 35.242005 -0.463042 0.315202 0.012631 0.002547 320300.000000 0 0 1
10.228071 -3.569243 33.213687 34.935683 -0.335753 0.315280 0.003767 0.003041 -213043.000000 0 0 1
10.174671 -2.662943 -34.300524 35.876750 -0.255981 2.844070 0.002413 -0.008411 -1182320.000000 0 0 1
8.887571 -2.375543 -33.926813 35.151967 -0.261183 2.876801 0.008235 0.000062 -1099340.000000 0 0 1
8.955571 -1.543843 -32.777723 34.014186 -0.170711 2.871135 0.020405 -0.013505 -242841.000000 0 0 1
7.563371 -1.249643 -32.219843 33.119247 -0.163744 2.908010 0.026929 -0.013091 -161071.000000 0 0 1
6.789771 -0.477943 -33.140023 33.831798 -0.070276 2.939021 0.023792 -0.009924 963365.000000 0 0 1
5.492671 -0.118243 -32.589873 33.049709 -0.021524 2.974585 0.021686 -0.006527 964227.000000 0 0 1
4.748371 0.842557 -33.530553 33.875580 0.175613 2.998747 0.033683 -0.006743 -6522.020000 0 0 1
5.335871 2.130057 -33.480813 33.970186 0.379813 2.971648 0.026679 -0.014087 94594.200000 0 0 1
4.610071 2.996757 -34.328679 34.766241 0.576407 2.982770 0.037031 -0.013387 -295472.000000 0 0 1
5.263771 4.329357 34.315405 34.985678 0.688300 0.196061 0.036959 -0.014258 -172262.000000 0 0 1
4.593671 5.183557 33.420921 34.131057 0.845658 0.204346 0.050739 -0.022780 184093.000000 0 0 1
5.456771 6.326257 33.348929 34.379485 0.859056 0.245466 0.041201 -0.022929 154929.000000 0 0 1
5.153471 7.441657 32.234430 33.481264 0.965110 0.273763 0.050887 -0.019594 -1093940.000000 0 0 1
4.118671 8.236157 32.650700 33.924416 1.107091 0.274893 0.056489 -0.015465 -784995.000000 0 0 1
3.829171 9.392357 31.829790 33.406803 1.183678 0.308488 0.055479 -0.018970 9362.560000 0 0 1
3.537271 9.235857 30.326620 31.898546 1.205036 0.315243 0.052413 -0.021583 -85079.400000 0 0 1
2.309171 8.607857 30.014330 31.309543 1.308704 0.288640 0.053025 -0.020900 -123536.000000 0 0 1
2.092871 8.706457 28.615600 29.983914 1.334891 0.303270 0.034154 -0.009633 -53229.600000 0 0 1
0.778171 8.003057 28.198680 29.322688 1.473867 0.277776 0.034180 -0.011947 -519259.000000 0 0 1
-0.308629 8.701757 28.715180 30.006289 -1.535344 0.294415 0.037043 -0.006933 -1064600.000000 0 0 1
-1.435229 8.286857 27.945980 29.184066 -1.399304 0.292324 0.037704 -0.004979 860579.000000 0 0 1
-2.775129 8.619157 28.723500 30.116950 -1.259305 0.305382 0.022935 -0.002412 592987.000000 0 0 1
-3.036229 9.970257 28.923120 30.743643 -1.275190 0.345861 0.024891 0.002828 -707744.000000 0 0 1
-4.372629 10.100357 29.293450 31.292864 -1.162238 0.359405 0.018634 0.005885 -665703.000000 0 0 1
-4.772529 11.520857 29.827730 32.329563 -1.178065 0.395991 0.014299 0.002500 23954.000000 0 0 1
-4.832329 12.592857 28.890880 31.884391 -1.204389 0.436792 0.018273 0.001128 -359326.000000 0 0 1
-5.925129 12.567557 28.035560 31.289667 -1.130238 0.460117 0.019345 -0.002024 -641252.000000 0 0 1
-6.092129 13.947657 27.435480 31.374460 -1.158986 0.506490 0.018691 0.000440 186532.000000 0 0 1
-5.035929 14.290557 26.549360 30.568761 -1.231989 0.518602 0.009182 0.004435 16869.900000 0 0 1
-4.919929 15.700957 26.507070 31.198566 -1.267135 0.555523 0.016400 0.006737 641157.000000 0 0 1
-3.653429 16.143757 25.669400 30.543191 -1.348239 0.572721 0.007556 0.002918 364172.000000 0 0 1
-3.579829 15.828957 24.293410 29.215421 -1.348381 0.588945 0.009436 0.012193 -964190.000000 0 0 1
-2.587029 16.522357 23.672430 28.983874 -1.415480 0.615050 0.013431 0.011803 -797522.000000 0 0 1
-2.533729 16.337457 22.118430 27.614439 -1.416935 0.641877 0.019939 0.011836 -61918.400000 0 0 1
-1.893429 15.155557 21.687930 26.526257 -1.446507 0.613562 0.033012 0.003251 -54677.500000 0 0 1
-1.726929 14.947057 20.286730 25.257637 -1.455770 0.638162 0.029941 -0.001487 39964.800000 0 0 1
-1.009429 13.644857 19.898430 24.148470 -1.496952 0.602355 0.030553 -0.013539 -547689.000000 0 1 0
-1.781729 12.505257 19.935330 23.600284 -1.429270 0.564778 0.034413 -0.015490 -492142.000000 0 1 0
-1.129129 11.443057 19.268830 22.438946 -1.472441 0.538025 0.028943 -0.023787 -570594.000000 0 1 0
-1.975029 10.212357 18.902830 21.575680 -1.379759 0.503047 0.018674 -0.027110 -486175.000000 0 1 0
-2.410729 9.353057 19.958330 22.172646 -1.318539 0.450722 0.035463 -0.033526 -258606.000000 0 1 0
-3.115129 9.852157 21.070830 23.468040 -1.264556 0.455930 0.033380 -0.014441 -201017.000000 0 1 0
-4.641429 9.964657 20.794030 23.520819 -1.134890 0.486298 0.030750 -0.010827 -182890.000000 0 1 0
-5.219929 8.712857 20.896630 23.234257 -1.031034 0.452427 0.013646 -0.016224 -1020240.000000 0 1 0
-6.597629 8.750457 21.043830 23.726399 -0.924756 0.480125 0.005532 -0.008621 -758105.000000 0 1 0
-7.325529 7.421857 21.142530 23.574434 -0.791930 0.458220 0.003891 -0.006628 -130465.000000 0 1 0
-7.134229 6.789657 22.414030 24.482349 -0.760656 0.414003 -0.001984 -0.003781 83346.800000 0 1 0
-7.830629 5.562257 22.361230 24.336846 -0.617619 0.405711 -0.002553 -0.003469 195231.000000 0 1 0
-7.647829 4.756957 23.658330 25.314709 -0.556440 0.363752 -0.000715 -0.008671 -134991.000000 0 0 1
-8.372029 5.401757 24.719690 26.652072 -0.573004 0.383138 -0.000950 0.002243 344550.000000 0 0 1
-8.531829 4.546557 25.795900 27.547990 -0.489615 0.358573 0.008450 0.005609 -273148.000000 0 0 1
-9.602529 5.029057 26.780950 28.891509 -0.482445 0.384599 0.004234 0.007558 -308792.000000 0 0 1
-9.104629 6.065757 27.620880 29.708596 -0.587699 0.377126 0.002224 0.019687 702429.000000 0 0 1
-10.107229 6.655157 28.495990 30.959145 -0.582296 0.401595 0.010105 0.014589 671351.000000 0 0 1
-9.576429 7.860657 29.244040 31.760224 -0.687316 0.400732 0.016669 0.015214 -310162.000000 0 0 1
-8.548629 7.609957 30.139580 32.239491 -0.727372 0.362917 0.019478 0.014163 -464773.000000 0 0 1
-8.275629 8.711857 30.950700 33.201330 -0.811072 0.370317 0.025368 0.008584 66112.500000 0 0 1
-7.189729 8.370957 31.987710 33.837534 -0.861164 0.332185 0.034162 0.008520 582685.000000 0 0 1
-5.858729 8.156157 31.513640 33.075023 -0.947881 0.308491 0.025325 0.002991 -102501.000000 0 0 1
-5.025929 7.746757 32.536770 33.821792 -0.995280 0.276539 0.040777 -0.000195 -669019.000000 0 0 1
-3.541229 7.718457 32.191060 33.292330 -1.140648 0.257925 0.029766 0.000122 -249112.000000 0 0 1
-2.973429 9.039457 32.201450 33.578065 -1.253006 0.287335 0.020435 -0.000244 -777065.000000 0 0 1
-1.582429 8.946957 32.087710 33.349262 -1.395739 0.275933 0.026411 -0.007402 -419738.000000 0 0 1
-0.960829 10.297757 31.742540 33.384965 -1.477761 0.314977 0.030158 -0.003746 -136213.000000 0 0 1
-1.140429 11.244257 32.756056 34.651019 -1.469719 0.332244 0.030351 -0.015606 -41025.900000 0 0 1
-1.446029 12.565457 32.299880 34.688096 -1.456221 0.373237 0.027049 -0.011376 -313995.000000 0 0 1
-1.402629 13.678857 33.368931 36.091052 -1.468614 0.390874 0.024044 -0.010217 -264966.000000 0 0 1
-0.123829 14.131957 33.737744 36.578175 -1.562034 0.396686 0.037702 -0.016146 -423030.000000 0 0 1
-0.140129 14.984457 -33.935953 37.097203 -1.561445 2.725771 0.034583 -0.018761 -236827.000000 0 0 1
1.280171 15.367357 -33.508093 36.886133 1.487684 2.710285 0.033984 -0.018154 -383060.000000 0 0 1
1.897771 16.244257 34.388694 38.079650 1.454496 0.443925 0.033793 -0.011205 -104445.000000 0 0 1
3.240071 16.453857 -34.028923 37.936725 1.376365 2.683713 0.028193 -0.009878 -166849.000000 0 0 1
3.935871 17.597157 34.035312 38.516925 1.350753 0.487203 0.036597 -0.006781 -393452.000000 0 0 1
3.471771 18.885457 34.278840 39.290617 1.388993 0.510616 0.039731 -0.007055 -102661.000000 0 0 1
4.234071 19.798157 33.510447 39.151557 1.360108 0.543477 0.031909 -0.001635 104813.000000 0 0 1
3.610971 21.228157 33.570489 39.882973 1.402306 0.570326 0.048946 -0.012327 -77197.000000 0 0 1
3.913671 21.819557 -33.996333 40.585226 1.393318 2.563768 0.050276 -0.012849 179228.000000 0 0 1
3.461371 23.173357 -33.953413 41.253119 1.422524 2.537558 0.050945 -0.016246 231647.000000 0 0 1
3.692371 23.660157 -32.529433 40.393077 1.415986 2.507015 0.060572 -0.019298 -16334.800000 0 0 1
3.135171 24.920857 -32.427893 41.017638 1.445649 2.482559 0.061617 -0.026913 60134.000000 0 0 1
3.173771 25.320157 -31.069363 40.205578 1.446101 2.453979 0.066859 -0.022109 201476.000000 0 0 1
2.622871 26.764757 -30.860163 40.933865 1.473111 2.424779 0.070773 -0.023394 44805.500000 0 0 1
3.657671 27.679557 -31.090033 41.786680 1.439414 2.409860 0.060942 -0.023648 109300.000000 0 0 1
3.168671 28.962457 -30.779913 42.382395 1.461824 2.383637 0.054507 -0.027894 -440396.000000 0 0 1
4.180371 30.121357 -30.843883 43.314164 1.432893 2.363277 0.052926 -0.028162 -319856.000000 0 0 1
5.076571 30.019257 -29.770683 42.581932 1.403271 2.344989 0.040438 -0.024204 -319446.000000 0 0 1
5.684271 31.258057 -29.477023 43.339035 1.390912 2.318763 0.052293 -0.029819 1241450.000000 0 0 1
6.975171 31.181057 -28.490463 42.809086 1.350721 2.298992 0.044596 -0.013730 2190050.000000 0 0 1
8.193071 30.669757 -29.075623 43.048255 1.309754 2.312330 0.035608 -0.015360 1536630.000000 0 0 1
9.280671 31.636157 -29.161503 44.015572 1.285446 2.294984 0.039055 -0.012620 850527.000000 0 0 1
9.125071 32.846757 -30.175983 45.527643 1.299822 2.295356 0.055484 -0.018812 -1053210.000000 0 0 1
8.331471 33.883257 -29.563673 45.732912 1.329692 2.273708 0.056020 -0.028865 294074.000000 0 0 1
8.057671 -33.945897 -30.393973 46.271412 -1.337741 2.287447 0.045741 -0.032110 654214.000000 0 0 1
6.797271 -34.273697 -31.287953 46.902294 -1.375014 2.301089 0.032149 -0.025462 132429.000000 0 0 1
7.101271 33.670457 -32.199653 47.126907 1.362937 2.323006 0.029351 -0.019729 -856995.000000 0 0 1
6.020171 33.239057 -32.945773 47.185817 1.391621 2.343695 0.036209 -0.026695 -703791.000000 0 0 1
6.284471 32.646757 -34.339812 47.796736 1.380623 2.372375 0.042344 -0.020855 -60235.400000 0 0 1
6.782771 33.580757 33.527721 47.935178 1.371494 0.796184 0.030426 -0.024525 1992.600000 0 0 1
6.875971 33.116757 32.193450 46.694933 1.366077 0.810078 0.019262 -0.021800 -534339.000000 0 0 1
5.714571 33.491557 31.251380 46.162642 1.401797 0.827139 0.025589 -0.027765 -37922.100000 0 0 1
5.674071 -34.114197 30.902660 46.378313 -1.405979 0.841538 0.024046 -0.022773 -223044.000000 0 0 1
4.640071 -33.763197 30.044360 45.432888 -1.434222 0.848258 0.020644 -0.023116 -463926.000000 0 0 1
17.591663 -21.816743 29.437190 40.644619 -0.892203 0.760839 0.056271 -0.001976 -570746.000000 0 0 1
16.669063 -20.849443 29.811720 40.016192 -0.896362 0.730274 0.054017 0.002564 1066590.000000 0 0 1
15.293063 -21.318143 29.714850 39.639795 -0.948505 0.723306 0.054809 0.006047 1480650.000000 0 0 1
14.608263 -21.831743 31.008940 40.639645 -0.981091 0.702821 0.060076 0.000831 -631358.000000 0 0 1
15.241663 -22.976943 31.462210 41.834422 -0.985096 0.719607 0.074207 -0.011564 125233.000000 0 0 1
14.856363 -23.267743 32.816628 42.883919 -1.002551 0.699377 0.051315 -0.007397 -535832.000000 0 0 1
15.707963 -24.269943 33.603614 44.328018 -0.996379 0.710452 0.058658 -0.016640 -257032.000000 0 0 1
15.611363 -25.615173 33.199661 44.744489 -1.023452 0.734773 0.059487 -0.017395 -51945.400000 0 0 1
16.279363 -26.416583 34.157199 46.147240 -1.018510 0.737460 0.061896 -0.025032 74927.800000 0 0 1
16.031363 -27.911543 34.086770 46.882478 -1.049441 0.756754 0.046356 -0.012501 -237137.000000 0 0 1
16.537463 -28.468383 32.931595 46.566367 -1.044535 0.785271 0.039466 -0.014468 602364.000000 0 0 1
15.812563 -29.657893 32.519970 46.767256 -1.080970 0.801879 0.044292 -0.012151 304450.000000 0 0 1
16.685763 -30.277113 31.432370 46.723786 -1.067108 0.832907 0.050259 -0.010274 1906.720000 0 0 1
17.700863 -31.182183 31.767160 47.904087 -1.054496 0.845789 0.058593 -0.013739 -218354.000000 0 0 1
18.388563 -31.449163 30.564660 47.554049 -1.041697 0.872733 0.043101 -0.008985 -169255.000000 0 0 1
19.594363 -32.421183 30.665880 48.738777 -1.027170 0.890288 0.020506 -0.004366 -214055.000000 0 0 1
20.764463 -31.782923 31.138750 49.101313 -0.992090 0.883857 0.006634 -0.010373 765295.000000 0 0 1
21.786363 -32.841673 31.137640 50.227221 -0.985076 0.902136 0.015947 -0.007924 207804.000000 0 0 1
23.168763 -32.360263 31.569680 50.799832 -0.949437 0.900201 0.007449 -0.023948 -614399.000000 0 0 1
23.875663 -31.600043 30.626250 50.065729 -0.923748 0.912562 -0.004662 -0.007528 -139407.000000 0 0 1
24.838663 -30.817743 31.298550 50.460794 -0.892416 0.901729 -0.006959 0.003688 -91297.300000 0 0 1
25.959063 -30.234053 30.426900 50.137483 -0.861329 0.918681 -0.005996 0.010105 795937.000000 0 0 1
27.068163 -31.146493 30.237100 51.157323 -0.855341 0.938423 -0.009995 0.011300 257930.000000 0 0 1
28.019063 -30.739673 29.321680 50.889649 -0.831667 0.956747 -0.014255 -0.010310 -696744.000000 0 0 1
29.308763 -31.541613 29.353320 52.110405 -0.822076 0.972433 -0.013789 -0.012965 -581011.000000 0 0 1
29.087263 -32.850723 28.933140 52.558210 -0.846085 0.987837 -0.028190 -0.009136 334888.000000 0 0 1
30.143663 -33.723733 29.314490 53.900556 -0.841394 0.995763 -0.016520 -0.008963 -349281.000000 0 0 1
29.544463 33.863772 29.885920 53.970349 0.853412 0.983939 -0.026612 -0.006385 -452592.000000 0 0 1
28.970863 33.809902 31.150220 54.339273 0.862324 0.960324 -0.009383 -0.005448 1282210.000000 0 0 1
27.834963 -34.265749 31.416880 54.184381 -0.888585 0.952296 -0.009756 0.001450 422111.000000 0 0 1
26.531763 34.465657 30.651860 53.210455 0.914741 0.956909 -0.006578 -0.000354 -689284.000000 0 0 1
25.985163 33.130187 30.938000 52.249381 0.905681 0.937107 -0.005024 -0.003410 342095.000000 0 0 1
24.657463 33.001076 30.458520 51.232635 0.929108 0.934135 0.011571 -0.002359 457122.000000 0 0 1
23.962163 31.640740 30.583470 50.106590 0.922627 0.914271 0.033072 -0.015887 -128388.000000 0 0 1
24.106563 30.880070 29.383650 48.970440 0.907965 0.927260 0.027371 -0.015964 232528.000000 0 0 1
23.475763 29.604510 29.423300 47.888089 0.900351 0.909148 0.045806 -0.029140 -133835.000000 0 0 1
22.936263 29.092320 28.053640 46.469796 0.903171 0.922667 0.034223 -0.021310 -311123.000000 0 0 1
21.700763 29.699860 27.777660 46.093418 0.939782 0.923993 0.046520 -0.027010 -234525.000000 0 0 1
21.215363 29.317930 26.493190 44.849992 0.944386 0.938862 0.034313 -0.020247 594329.000000 0 0 1
19.808163 29.945890 26.219000 44.458471 0.986403 0.940058 0.064570 -0.023872 431451.000000 0 0 1
19.885663 31.261000 25.738920 45.112988 1.004242 0.963629 0.056504 -0.021194 -456763.000000 0 0 1
18.672663 31.729150 25.230070 44.631421 1.038874 0.970001 0.053659 -0.016962 -756735.000000 0 0 1
18.655063 33.230976 24.898000 45.521638 1.059261 0.992081 0.058306 -0.011063 21940.600000 0 0 1
19.297863 33.725172 23.710430 45.518999 1.051062 1.022902 0.058401 -0.012325 1328730.000000 0 0 1
20.743363 33.801131 23.716030 46.208805 1.020373 1.031845 0.057496 -0.017166 911027.000000 0 0 1
21.285463 34.087683 22.326430 45.972933 1.012605 1.063698 0.056048 -0.017747 -256656.000000 0 0 1
20.977363 -33.584113 21.802630 45.202844 -1.012469 1.067485 0.063490 -0.011622 118648.000000 0 0 1
21.563863 -33.349533 20.560530 44.720543 -0.996814 1.093076 0.071483 -0.016553 -351239.000000 0 0 1
21.123863 -32.035333 19.957530 43.252551 -0.987847 1.091203 0.045829 -0.008971 -395926.000000 0 0 1
21.598863 -30.858933 20.588730 42.926454 -0.960122 1.070566 0.040264 -0.000826 268266.000000 0 0 1
21.092463 -29.683623 19.984830 41.537970 -0.953008 1.068862 0.046892 -0.007098 -233907.000000 0 0 1
21.829063 -29.256403 18.676230 41.003008 -0.929777 1.097880 0.027726 -0.001880 -238839.000000 0 0 1
21.431663 -29.912923 17.522030 40.756848 -0.949103 1.126396 0.016140 -0.015558 77893.800000 0 0 1
22.140163 -29.372853 16.453230 40.294666 -0.924891 1.150180 0.005837 -0.011194 -520593.000000 0 0 1
21.729463 -29.962203 15.105430 39.975958 -0.943338 1.183309 -0.006909 -0.010127 -214248.000000 0 0 1
22.247863 -31.212493 14.718230 41.058659 -0.951540 1.204170 0.020171 -0.009717 -70683.000000 0 0 1
22.489163 -31.348143 13.339630 40.821738 -0.948488 1.237904 0.017851 -0.004810 121448.000000 0 0 1
21.238163 -31.399133 12.391630 39.881294 -0.976090 1.254853 0.005670 -0.006867 -25351.900000 0 0 1
20.550563 -32.585373 12.689330 40.560465 -1.008131 1.252604 0.008104 -0.002061 -312191.000000 0 0 1
19.401863 -32.668613 11.876230 39.808484 -1.034875 1.267849 0.009846 0.007186 -234947.000000 0 0 1
18.411463 -33.760863 12.267930 40.364340 -1.071531 1.261981 0.022113 0.005382 -216005.000000 0 0 1
17.658263 -33.488393 13.421230 40.167352 -1.085552 1.230111 0.017643 0.002989 416237.000000 0 0 1
18.331863 -33.951823 14.616230 41.260365 -1.075711 1.208691 0.005554 0.001672 -583048.000000 0 0 1
18.381463 -32.833903 15.710630 40.777044 -1.060436 1.175284 0.022576 -0.011574 277307.000000 0 0 1
17.188063 -32.143853 16.129130 39.859825 -1.079758 1.154204 0.023712 -0.021055 942929.000000 0 0 1
16.146163 -32.897803 16.777430 40.304419 -1.114538 1.141460 0.023870 -0.008219 149470.000000 0 0 1
16.418863 -33.501273 18.167530 41.496669 -1.115103 1.117638 0.022043 -0.009301 -302258.000000 0 0 1
17.055263 34.163868 18.062530 42.241056 1.107773 1.128954 0.014895 -0.005368 164772.000000 0 0 1
17.177663 33.649450 19.371130 42.457017 1.098793 1.097017 0.016257 -0.000284 -108067.000000 0 0 1
18.070363 32.418140 19.352730 41.856923 1.062278 1.090148 0.016083 -0.002603 -17812.700000 0 0 1
17.426563 31.209020 18.971230 40.467216 1.061540 1.082859 -0.005958 0.000070 58871.300000 0 0 1
18.453463 30.234520 18.857530 40.128082 1.022806 1.081581 -0.002640 -0.009890 155791.000000 0 0 1
17.986363 28.815400 18.533530 38.695326 1.012778 1.071326 0.004530 0.001794 -137733.000000 0 0 1
17.536263 28.071870 19.663330 38.499311 1.012419 1.034745 0.014495 -0.014709 34994.300000 0 0 1
17.293463 26.659750 19.455330 37.260113 0.995354 1.021428 0.013026 -0.013924 -195739.000000 0 0 1
16.984663 25.797550 20.669530 37.164793 0.988551 0.981040 0.022516 -0.002601 -229872.000000 0 0 1
15.749863 26.024100 21.287530 37.127764 1.026560 0.960197 0.026064 -0.002311 -173981.000000 0 0 1
14.822763 24.953620 21.160330 35.918756 1.034791 0.940831 0.020779 -0.003223 640969.000000 0 0 1
13.480163 25.252300 21.906830 36.045841 1.080461 0.917573 0.029316 -0.011729 127059.000000 0 0 1
12.671563 26.220260 21.318930 36.091098 1.120619 0.938873 0.034077 -0.011707 -407970.000000 0 0 1
11.526263 26.469560 22.107930 36.362796 1.160105 0.917280 0.030322 -0.012052 63347.200000 0 0 1
10.712963 27.620680 21.469430 36.586964 1.200799 0.943688 0.026788 -0.024185 -232047.000000 0 0 1
11.468863 28.788850 21.481330 37.706501 1.191688 0.964658 0.017604 -0.018321 171945.000000 0 0 1
10.974463 29.603770 20.397430 37.588259 1.215791 0.997202 0.023203 -0.017329 247538.000000 0 0 1
11.526363 31.040120 20.491830 38.939199 1.215240 1.016610 0.024160 -0.023078 -82170.600000 0 0 1
10.853163 31.931440 21.333130 39.906271 1.243157 1.006785 0.020804 -0.014828 -273310.000000 0 0 1
11.360963 31.819090 22.672930 40.688914 1.227856 0.979755 0.010188 -0.010637 311370.000000 0 0 1
10.578863 32.776490 23.621730 41.763582 1.258594 0.969628 0.016660 -0.012261 1233300.000000 0 0 1
9.223363 32.418880 23.953460 41.349999 1.293614 0.952944 0.019441 -0.020623 581043.000000 0 0 1
9.025463 32.912160 25.263490 42.460725 1.303147 0.933549 0.011850 -0.010585 703429.000000 0 0 1
7.589563 32.686230 25.870210 42.370495 1.342645 0.914015 0.039588 -0.023983 369384.000000 0 0 1
6.459763 33.294987 25.326550 42.328700 1.379161 0.929381 0.033268 -0.023193 -38188.300000 0 0 1
5.831763 32.688470 24.233260 41.107134 1.394249 0.940338 0.033722 -0.026493 29940.700000 0 0 1
4.955063 31.407930 24.430590 40.098185 1.414321 0.915658 0.035524 -0.028441 -245934.000000 0 0 1
5.704263 30.314160 24.956680 39.677737 1.384800 0.890550 0.029230 -0.020366 -166081.000000 0 0 1
5.214963 28.972870 24.731460 38.448253 1.392709 0.872074 0.030782 -0.017865 -1244880.000000 0 0 1
6.308563 27.963880 24.865730 37.948400 1.348914 0.856281 0.021573 -0.016288 6023.410000 0 0 1
7.342363 27.947090 23.823490 37.450084 1.313879 0.881311 0.020260 -0.008515 2166990.000000 0 0 1
8.443863 28.904570 23.947890 38.474335 1.286576 0.898942 0.021890 -0.006364 414131.000000 0 0 1
9.544363 28.565110 24.940890 39.103815 1.248332 0.879142 0.016926 -0.008185 -1102950.000000 0 0 1
9.157263 28.648470 26.310770 39.960567 1.261418 0.852081 0.011926 -0.002024 221091.000000 0 0 1
10.203963 28.298220 27.214280 40.565098 1.224721 0.835403 0.013982 0.001112 387085.000000 0 0 1
11.325263 29.325310 27.394470 41.697630 1.202248 0.853992 0.008723 0.002224 -141987.000000 0 0 1
10.822663 30.347940 28.190400 42.811519 1.228237 0.852003 0.008226 -0.000839 340775.000000 0 0 1
11.741363 31.419330 28.051890 43.725764 1.213167 0.874290 0.019780 0.005356 -53170.600000 0 0 1
11.274363 32.747320 28.626590 44.933060 1.239223 0.880074 0.005588 -0.002980 -341581.000000 0 0 1
11.283963 32.799020 30.057590 45.897301 1.239447 0.856762 0.000826 -0.008397 151201.000000 0 0 1
10.267063 32.107510 30.763870 45.636833 1.261301 0.831048 0.004417 -0.006310 -415553.000000 0 0 1
10.367663 32.276630 32.296710 46.822503 1.259994 0.809626 0.018086 -0.015000 -405697.000000 0 0 1
9.858963 31.115730 32.990348 46.408522 1.263955 0.780064 0.018210 -0.022501 225448.000000 0 0 1
10.362763 31.030300 34.291879 47.394086 1.248485 0.761868 0.028871 -0.011132 -22821.100000 0 0 1
10.374463 29.623100 -33.899003 46.198484 1.233930 2.394649 0.018141 -0.011078 -147317.000000 0 0 1
11.404563 28.898570 34.273902 46.258964 1.194918 0.736366 0.014312 -0.003368 -127121.000000 0 0 1
11.396463 27.587560 -34.014113 45.253870 1.179047 2.421324 0.011339 -0.003990 667605.000000 0 0 1
12.704463 26.742590 -34.284575 45.299024 1.127295 2.429277 0.007853 -0.004680 675370.000000 0 0 1
12.740463 25.394270 -33.741273 44.109657 1.105785 2.441746 0.002119 -0.007875 -283297.000000 0 0 1
12.845163 25.202130 -32.354533 42.976289 1.099430 2.423172 0.006855 -0.004196 -66803.400000 0 0 1
12.734963 23.691210 -32.106283 41.883960 1.077570 2.444253 -0.004274 -0.017526 -532081.000000 0 0 1
13.784663 22.952810 -32.619513 42.200486 1.029961 2.454298 -0.004381 -0.011371 -548134.000000 0 0 1
13.541663 21.559010 -32.539143 41.315413 1.009956 2.477666 -0.006768 -0.004292 501049.000000 0 0 1
14.666463 20.660110 -33.222683 41.781479 0.953462 2.490057 0.004213 -0.005532 2311410.000000 0 0 1
15.926563 20.732210 -32.457593 41.677035 0.915746 2.463528 0.024191 -0.012658 1399360.000000 0 0 1
17.042363 20.436810 -33.285053 42.614553 0.875721 2.467178 0.027870 -0.011835 229653.000000 0 0 1
18.381663 20.589310 -32.530163 42.661654 0.841986 2.437988 0.037238 -0.015243 -270311.000000 0 0 1
18.980363 21.825110 -32.554793 43.547723 0.855000 2.415186 0.038502 -0.013648 -416920.000000 0 0 1
20.018263 22.045110 -31.634413 43.444836 0.833546 2.386417 0.042711 -0.010907 8365.110000 0 0 1
19.613763 22.378110 -30.159403 42.368256 0.851134 2.362910 0.034925 -0.014210 -147299.000000 0 0 1
18.838363 23.545510 -30.092513 42.600872 0.896005 2.355171 0.030506 -0.006324 -101956.000000 0 0 1
18.526163 24.002840 -28.779543 41.804511 0.913468 2.330121 0.037668 -0.001674 64904.000000 0 0 1
19.792063 24.493220 -28.005213 42.141850 0.891158 2.297683 0.033481 0.006829 489668.000000 0 0 1
20.482963 25.660560 -28.515873 43.487597 0.897137 2.285938 0.036260 0.013821 -214083.000000 0 0 1
19.819663 26.896180 -28.677223 44.029611 0.935735 2.280115 0.024643 0.015121 -592859.000000 0 0 1
20.600863 27.938130 -29.562233 45.594520 0.935425 2.276241 0.021958 0.012861 -236828.000000 0 0 1
20.659963 27.742480 -30.994323 46.444885 0.930693 2.301422 0.024326 0.010875 -417.185000 0 0 1
21.168063 26.521510 -31.562583 46.343004 0.897186 2.320012 0.026652 0.011262 1464150.000000 0 0 1
22.662263 26.184360 -31.102803 46.546570 0.857379 2.302594 0.033662 0.006513 1252120.000000 0 0 1
23.676363 27.118270 -31.422183 47.784143 0.853056 2.288406 0.031446 0.007267 -449481.000000 0 0 1
24.921963 26.676290 -30.988703 47.885576 0.819385 2.274624 0.047405 -0.007221 -366486.000000 0 0 1
26.128663 27.580600 -31.318413 49.236567 0.812425 2.260204 0.033905 0.000037 -98057.000000 0 0 1
26.245063 28.780170 -30.600313 49.532622 0.831437 2.236714 0.018666 0.007360 -405292.000000 0 0 1
27.394563 29.536060 -30.825883 50.725496 0.822996 2.223958 0.025992 -0.001773 -389938.000000 0 0 1
27.423563 30.806740 -29.968293 50.982405 0.843433 2.199153 0.013358 0.007230 -369524.000000 0 0 1
27.851063 30.548560 -28.676513 50.311416 0.831556 2.177278 0.028513 0.006210 49318.100000 0 0 1
27.490163 31.634650 -27.855753 50.322988 0.855381 2.157404 0.025276 0.012035 -740434.000000 0 0 1
27.876363 31.484460 -26.368913 49.635495 0.846106 2.130873 0.035952 0.010714 -311576.000000 0 0 1
27.473763 30.315220 -25.660893 48.293909 0.834528 2.130988 0.030655 0.017873 1485060.000000 0 0 1
26.087763 29.859350 -25.806713 47.308969 0.852710 2.147774 0.028642 0.015254 1167380.000000 0 0 1
25.461363 29.760180 -24.414853 46.152295 0.863088 2.128225 0.033826 0.017907 -270588.000000 0 0 1
25.274363 31.097800 -23.914553 46.666609 0.888336 2.108838 0.060643 0.012489 140095.000000 0 0 1
24.812363 31.065860 -22.552853 45.709651 0.896847 2.086783 0.043687 0.020646 283836.000000 0 0 1
3.230763 -26.266963 -19.898853 33.111260 -1.448414 2.215510 0.034445 -0.012057 -306923.000000 0 0 1
2.556363 -27.172113 -19.090553 33.306275 -1.476992 2.181180 0.026154 -0.000204 133767.000000 0 0 1
2.663263 -26.727693 -17.765353 32.203576 -1.471480 2.155147 0.037893 -0.000255 -190154.000000 0 0 1
2.775263 -27.876693 -16.707753 32.618417 -1.471568 2.108562 0.046605 -0.011370 305622.000000 0 0 1
3.999363 -28.561533 -16.446753 33.200177 -1.431675 2.089070 0.057336 -0.007491 344519.000000 0 0 1
3.814163 -29.460083 -15.363653 33.443777 -1.442044 2.048102 0.061406 -0.013980 52063.300000 0 0 1
5.166663 -30.136543 -15.081553 34.093385 -1.401005 2.029025 0.088952 -0.011263 134036.000000 0 0 1
6.124163 -29.224553 -14.569053 33.224046 -1.364230 2.024736 0.067713 -0.006395 291107.000000 0 0 1
7.432263 -29.770213 -14.378453 33.885750 -1.326143 2.009009 0.069866 -0.001401 783901.000000 0 0 1
7.667163 -30.523353 -12.984453 34.044919 -1.324698 1.962098 0.069221 -0.000801 -503340.000000 0 0 1
7.877963 -29.682773 -11.828453 32.909598 -1.311372 1.938445 0.062308 -0.006916 38906.400000 0 0 1
8.078763 -30.382513 -10.571353 33.168012 -1.310908 1.895176 0.067656 -0.006689 18330.200000 0 0 1
9.299163 -31.303723 -10.400353 34.271925 -1.282037 1.879124 0.054425 -0.000086 -1350150.000000 0 0 1
10.511463 -30.671273 -10.516153 34.085295 -1.240627 1.884438 0.055428 -0.012035 -1092850.000000 0 0 1
11.502863 -31.671113 -10.630453 35.332447 -1.222413 1.876401 0.040824 -0.007418 -588827.000000 0 0 1
12.594063 -31.590023 -9.552953 35.324197 -1.191435 1.844643 0.032205 -0.003647 -732723.000000 0 0 1
13.554763 -30.629663 -9.897453 34.926601 -1.154166 1.858112 0.024716 -0.017926 -354752.000000 0 0 1
14.558263 -30.509803 -8.949053 34.969653 -1.125582 1.829584 0.020776 -0.012851 -1016410.000000 0 0 1
15.761763 -29.670953 -9.351953 34.874886 -1.082487 1.842276 0.020211 -0.017228 -488387.000000 0 0 1
15.598663 -28.247713 -9.449253 33.623503 -1.066258 1.855665 0.031101 -0.017758 -46176.900000 0 0 1
14.990163 -27.795853 -10.624953 33.319725 -1.076209 1.895343 0.023402 -0.019933 -508437.000000 0 0 1
14.657763 -26.305013 -10.639253 31.937399 -1.062424 1.910416 0.036963 -0.022058 -1204730.000000 0 0 1
13.637763 -25.921833 -9.756253 30.872552 -1.086479 1.892325 0.027437 -0.017680 -117231.000000 0 0 1
13.150663 -24.599943 -9.914853 29.604078 -1.079868 1.912311 0.016920 -0.011705 -251117.000000 0 0 1
12.551163 -24.217243 -11.226453 29.496437 -1.092637 1.961245 -0.006130 -0.001993 -902353.000000 0 0 1
13.389563 -24.049843 -12.360553 30.173807 -1.062792 1.992861 -0.004159 -0.002744 -252658.000000 0 0 1
12.613463 -23.937243 -13.541653 30.256692 -1.085831 2.034830 0.002056 -0.005216 -28848.100000 0 0 1
13.344163 -23.408343 -14.793153 30.738487 -1.052682 2.072886 -0.006290 -0.005026 561756.000000 0 0 1
14.387563 -24.304843 -15.243153 32.094876 -1.036308 2.065693 -0.005014 -0.003687 580193.000000 0 0 1
15.043563 -23.744343 -16.340153 32.513124 -1.006062 2.097366 -0.000900 -0.014859 -357003.000000 0 0 1
16.150763 -24.639243 -17.009953 34.018788 -0.990572 2.094414 0.012019 -0.014176 1047870.000000 0 0 1
17.433263 -24.745943 -16.392753 34.423868 -0.957063 2.067128 0.023280 -0.015230 397114.000000 0 0 1
18.221663 -23.590043 -16.726153 34.180160 -0.913094 2.082144 0.025196 -0.021116 765989.000000 0 0 1
19.735363 -23.754743 -16.254253 34.899472 -0.877557 2.055273 0.030473 -0.011387 1263700.000000 0 0 1
20.421263 -24.619843 -17.111053 36.276064 -0.878346 2.062003 0.039767 -0.004878 -1744370.000000 0 0 1
21.712063 -24.816543 -16.718853 36.970184 -0.852021 2.040055 0.049770 0.010595 -1175740.000000 0 0 1
22.397963 -25.965933 -17.555453 38.523919 -0.859038 2.043958 0.024715 0.014357 -149748.000000 0 0 1
23.107563 -25.439743 -18.678253 39.115433 -0.833401 2.068622 0.031561 0.012387 61949.800000 0 0 1
23.576163 -26.436903 -19.590353 40.478726 -0.842536 2.075978 0.024275 0.010713 -175756.000000 0 0 1
24.696063 -26.031603 -20.563853 41.357127 -0.811720 2.091195 0.023254 0.008809 -512781.000000 0 0 1
24.388863 -24.969343 -21.446353 40.966215 -0.797158 2.121765 0.033235 0.004846 -1533.370000 0 0 1
24.474863 -23.693143 -20.826253 39.926392 -0.769171 2.119541 0.047984 0.008490 -277281.000000 0 0 1
23.754963 -22.564843 -21.626653 39.257898 -0.759710 2.154223 0.060561 0.003372 -119846.000000 0 0 1
24.315363 -22.284743 -22.945253 40.178742 -0.741850 2.178617 0.049895 0.000853 483310.000000 0 0 1
23.675963 -23.026943 -24.018053 40.836971 -0.771502 2.199559 0.043997 -0.005819 336982.000000 0 0 1
22.660663 -22.171743 -24.816653 40.261124 -0.774493 2.234949 0.042918 -0.003097 79893.900000 0 0 1
23.278263 -21.479443 -25.852283 40.885016 -0.745230 2.255336 0.043036 0.004381 349578.000000 0 0 1
22.361263 -20.593543 -26.517883 40.340033 -0.744268 2.288105 0.040832 0.013535 100168.000000 0 0 1
23.065963 -19.895143 -27.635313 41.128651 -0.711725 2.307599 0.039560 0.012464 -268547.000000 0 0 1
22.229663 -18.978443 -28.346603 40.716939 -0.706664 2.340868 0.047585 0.014730 259822.000000 0 0 1
22.759863 -18.434243 -29.565903 41.617007 -0.680776 2.360903 0.061091 0.004393 74727.100000 0 0 1
21.815963 -17.433143 -30.325493 41.224826 -0.674192 2.397367 0.069622 0.001644 488795.000000 0 0 1
20.638163 -18.025843 -30.871383 41.278409 -0.717936 2.415662 0.068581 -0.003785 420841.000000 0 0 1
19.793763 -17.079543 -31.487333 40.926226 -0.711921 2.448648 0.070849 -0.008042 -135411.000000 0 0 1
18.433463 -17.688943 -31.844893 40.826321 -0.764790 2.465476 0.065178 -0.012357 -314640.000000 0 0 1
18.572263 -18.391243 -33.121803 42.192661 -0.780501 2.473514 0.067565 -0.007352 625931.000000 0 0 1
17.406763 -19.105843 -33.523513 42.330303 -0.831899 2.484794 0.064862 -0.015781 134669.000000 0 0 1
17.708763 -20.050343 34.057543 43.307422 -0.847333 0.665815 0.079197 -0.018020 329446.000000 0 0 1
18.655863 -21.060643 -34.381684 44.426255 -0.845873 2.455780 0.087213 -0.018915 412175.000000 0 0 1
18.840463 -21.965943 33.398379 44.191826 -0.861842 0.713984 0.076732 -0.023626 -45089.700000 0 0 1
19.698863 -23.189143 33.786675 45.467801 -0.866600 0.733120 0.065289 -0.023826 -206178.000000 0 0 1
19.042863 -24.022443 -34.119960 45.868073 -0.900516 2.409641 0.077456 -0.028421 56034.800000 0 0 1
19.420663 -23.790343 -32.769213 44.910621 -0.886180 2.388612 0.086626 -0.021109 -266513.000000 0 0 1
18.568563 -24.615043 -31.809413 44.300459 -0.924512 2.371776 0.079029 -0.020179 -83695.900000 0 0 1
18.678363 -26.052223 -31.934053 45.248020 -0.948779 2.354286 0.077081 -0.031235 44190.300000 0 0 1
19.871863 -26.521553 -31.345523 45.616067 -0.927761 2.328369 0.065086 -0.028055 -79231.200000 0 0 1
19.988463 -28.046623 -31.430863 46.626719 -0.951606 2.310536 0.051459 -0.027998 171509.000000 0 0 1
19.155663 -28.699053 -30.455403 46.022893 -0.982240 2.293940 0.057061 -0.034980 220774.000000 0 0 1
19.128663 -30.121733 -30.658983 47.044636 -1.005006 2.280620 0.046604 -0.023934 -928633.000000 0 0 1
17.889863 -30.802073 -30.047233 46.600978 -1.044614 2.271528 0.055833 -0.022874 1099710.000000 0 0 1
16.671263 -30.862553 -30.848113 46.712250 -1.075526 2.292129 0.058565 -0.027925 763805.000000 0 0 1
16.801263 -31.293333 -32.181293 47.929018 -1.078069 2.306942 0.053335 -0.024624 -1427660.000000 0 0 1
15.508063 -31.848083 -32.787783 48.268407 -1.117652 2.317578 0.050212 -0.029552 -36717.500000 0 0 1
14.612363 -30.774153 -33.086683 47.489981 -1.127490 2.341595 0.054095 -0.030468 63102.300000 0 0 1
13.411663 -31.295063 -33.640453 47.863700 -1.165918 2.350176 0.030678 -0.017072 55056.700000 0 0 1
12.538063 -30.198963 -34.266489 47.364255 -1.177271 2.379608 0.028805 -0.008676 -355811.000000 0 0 1
11.622163 -29.553373 -33.467383 46.136128 -1.196114 2.382419 0.042205 -0.014252 -463920.000000 0 0 1
10.757863 -28.704383 -34.160965 45.898200 -1.212218 2.410248 0.018714 -0.004947 721303.000000 0 0 1
9.694363 -27.907523 -33.273263 44.496298 -1.236462 2.415502 0.027071 -0.006573 683837.000000 0 0 1
8.679563 -28.714543 -32.727643 44.395478 -1.277258 2.399690 0.026672 -0.003371 -680222.000000 0 0 1
7.788663 -27.867763 -32.075203 43.198312 -1.298264 2.407607 -0.010111 0.001444 -241783.000000 0 0 1
6.799663 -28.659403 -31.169693 42.885272 -1.337846 2.384471 -0.017473 0.003118 44980.900000 0 0 1
5.727863 -29.309643 -31.805053 43.628259 -1.377803 2.387658 -0.005292 0.005129 216919.000000 0 0 1
6.164363 -30.519853 -32.461383 44.980020 -1.371499 2.377029 -0.003583 0.000041 -932290.000000 0 0 1
4.987063 -31.259283 -33.012163 45.736381 -1.412591 2.377185 0.018323 -0.008770 -543319.000000 0 0 1
4.345863 -31.963323 -31.962253 45.410640 -1.435661 2.351598 0.011201 -0.015224 -444324.000000 0 0 1
3.129463 -32.534603 -32.311683 45.960187 -1.474903 2.350455 0.027230 -0.032409 -1367510.000000 0 0 1
2.255263 -33.102473 -31.151583 45.511329 -1.502772 2.324686 0.027853 -0.043412 501392.000000 0 0 1
1.320563 -32.119533 -30.681043 44.437987 -1.529705 2.332871 0.010304 -0.032686 702211.000000 0 0 1
0.139363 -32.048013 -31.501963 44.938494 -1.566448 2.347598 0.012523 -0.000530 -24032.500000 0 0 1
-0.918637 -31.070363 -30.916653 43.841200 1.541239 2.353496 -0.004430 0.003878 38077.300000 0 0 1
-1.509937 -31.439343 -29.682943 43.264181 1.522806 2.326892 0.005418 -0.001410 -62253.400000 0 0 1
-2.196037 -30.317043 -29.186443 42.140173 1.498487 2.335889 0.014116 0.002731 -48344.500000 0 0 1
-2.796237 -30.421303 -27.736623 41.262512 1.479137 2.307971 0.021911 -0.005198 -54572.800000 0 0 1
-1.803737 -30.518853 -26.720403 40.603372 1.511763 2.289067 0.003955 0.001990 -237902.000000 0 0 1
-2.309337 -30.457683 -25.397183 39.724305 1.495120 2.264431 0.006766 0.000266 -193019.000000 0 0 1
-1.362637 -30.784083 -24.250653 39.212380 1.526561 2.237557 -0.002436 0.007141 84963.800000 0 0 1
-2.029237 -30.526943 -22.992653 38.271062 1.504420 2.215278 0.013035 -0.000738 88338.200000 0 0 1
-1.288537 -31.013383 -21.908853 37.993264 1.529272 2.185420 0.006627 0.002001 -111601.000000 0 0 1
-1.936837 -30.798523 -20.517653 37.057718 1.507992 2.157558 0.000741 0.008284 -184712.000000 0 0 1
-2.002937 -29.495763 -20.067553 35.731198 1.502994 2.167145 0.005758 -0.004229 275751.000000 0 0 1
-0.778437 -28.922183 -19.610953 34.952656 1.543888 2.166476 0.022299 -0.012446 112368.000000 0 0 1
-0.884837 -27.498513 -18.984953 33.427229 1.538630 2.174808 0.022904 -0.016589 -345834.000000 0 0 1
-1.762837 -27.425283 -17.909453 32.802474 1.506607 2.148353 0.009956 -0.010867 -203190.000000 0 0 1
-1.673037 -26.144283 -17.292553 31.390365 1.506891 2.154223 0.013562 -0.013951 291979.000000 0 0 1
-2.660937 -26.017523 -16.090753 30.706749 1.468876 2.122353 0.003243 -0.006953 -137513.000000 0 0 1
-2.470937 -24.839643 -15.267153 29.260885 1.471647 2.119709 0.006832 -0.002619 337825.000000 0 0 1
-3.238537 -24.866943 -14.043453 28.741461 1.441291 2.081296 -0.007022 0.002111 51528.700000 0 0 1
-2.949237 -23.605043 -13.171653 27.191700 1.446499 2.076473 -0.001262 -0.000271 -630981.000000 0 0 1
-1.685637 -23.623443 -12.596253 26.824877 1.499563 2.059604 0.004324 -0.008631 -920874.000000 0 0 1
-1.465837 -22.498443 -11.828353 25.460530 1.505735 2.053952 0.006645 -0.004585 250669.000000 0 0 1
-0.185737 -22.684843 -10.978653 25.202529 1.562609 2.021520 0.008442 -0.006283 178908.000000 0 0 1
0.044763 -21.445443 -10.317353 23.798253 -1.568709 2.019207 0.006326 -0.005118 652077.000000 0 1 0
1.266763 -21.512043 -9.537153 23.565441 -1.511978 1.987457 0.003852 -0.011840 948775.000000 0 1 0
1.871763 -20.170243 -9.303753 22.291300 -1.478263 2.001347 0.008684 -0.000174 -1397390.000000 0 1 0
2.245363 -19.505243 -10.495253 22.263120 -1.456185 2.061695 0.003903 0.006850 104873.000000 0 1 0
3.162563 -18.428443 -10.379853 21.385759 -1.400839 2.077574 0.003414 0.008281 252365.000000 0 1 0
4.541563 -18.759243 -9.768753 21.632465 -1.333269 2.039330 0.003237 -0.004090 -827600.000000 0 1 0
4.551563 -19.081943 -8.410153 21.344038 -1.336644 1.975807 0.009299 -0.013096 -363285.000000 0 1 0
5.688363 -19.883243 -8.165253 22.234482 -1.292151 1.946830 0.005036 -0.010218 -153971.000000 0 1 0
5.551963 -20.940043 -7.047053 22.780928 -1.311623 1.885295 0.005184 -0.015999 -275351.000000 0 1 0
4.508363 -21.795243 -7.424453 23.462320 -1.366822 1.892772 0.015770 -0.018063 -143859.000000 0 1 0
4.474763 -22.968143 -6.595653 24.311762 -1.378382 1.845534 0.018530 -0.017557 -399632.000000 0 1 0
3.462463 -23.961543 -7.105053 25.231448 -1.427289 1.856252 0.023182 -0.019863 -385020.000000 0 0 1
3.675363 -24.334143 -8.464153 26.025002 -1.420892 1.902053 0.019012 -0.018118 61803.800000 0 0 1
2.545763 -24.992863 -9.012953 26.690025 -1.469287 1.915258 0.015123 -0.006167 251088.000000 0 0 1
2.853763 -25.674063 -10.326353 27.819688 -1.460097 1.951085 0.023049 -0.008840 -72765.900000 0 0 1
3.331063 -26.950873 -10.067753 28.962134 -1.447822 1.925826 0.020175 -0.006827 -211114.000000 0 0 1
3.781763 -27.500723 -11.303853 29.972798 -1.434138 1.957499 0.037034 -0.001732 187786.000000 0 0 1
4.200363 -28.975503 -11.300853 31.383628 -1.426837 1.939158 0.054080 0.000895 -373515.000000 0 0 1
3.131163 -29.845113 -11.140253 32.010002 -1.466265 1.926259 0.051706 0.004377 -577831.000000 0 0 1
3.500263 -31.177833 -11.046053 33.261456 -1.458997 1.909323 0.052798 -0.001275 395186.000000 0 0 1
2.347763 -32.174523 -11.457253 34.234202 -1.497956 1.912054 0.041926 -0.005966 638239.000000 0 0 1
2.033463 -32.151503 -12.847453 34.683010 -1.507634 1.950263 0.045736 -0.011845 519823.000000 0 0 1
0.996763 -33.047283 -13.235053 35.612963 -1.540644 1.951567 0.020061 -0.013935 -109788.000000 0 0 1
0.589063 -33.107313 -14.671153 36.217177 -1.553006 1.987872 0.025813 -0.011264 -557937.000000 0 0 1
-0.363237 -32.197493 -15.115553 35.570922 1.559515 2.009693 0.020888 -0.009966 -416794.000000 0 0 1
-0.699637 -32.375743 -16.449553 36.321702 1.549190 2.040795 0.005285 -0.006494 34758.600000 0 0 1
-1.873437 -31.482153 -16.925553 35.792598 1.511359 2.063351 0.001529 -0.006146 1336040.000000 0 0 1
-3.163637 -31.772983 -16.325653 35.861651 1.471553 2.043438 -0.010008 -0.006885 497161.000000 0 0 1
-4.180837 -31.206713 -17.105953 35.832276 1.437617 2.068478 -0.010776 0.004408 -154563.000000 0 0 1
-5.543237 -31.303723 -16.397553 35.770523 1.395534 2.047001 -0.016785 0.000453 -407157.000000 0 0 1
-5.649437 -30.325363 -15.390153 34.473187 1.386614 2.033577 -0.028096 0.006235 -219760.000000 0 0 1
-6.945137 -30.224403 -14.829753 34.375443 1.344931 2.016846 -0.021320 0.006122 89727.400000 0 0 1
-7.449637 -31.276943 -13.845053 35.006139 1.336970 1.977412 -0.010819 -0.005873 -107108.000000 0 0 1
-7.581737 -32.535293 -14.449853 36.398164 1.341851 1.979036 0.000467 -0.008336 -61938.800000 0 0 1
-8.299937 -33.385423 -13.533653 36.968030 1.327127 1.945601 0.021200 -0.008361 624506.000000 0 0 1
-8.821137 34.221680 -14.111453 38.053501 -1.318523 1.950701 0.038230 -0.015371 621626.000000 0 0 1
-7.696137 33.422114 -14.485453 37.230318 -1.344471 1.970426 0.025091 -0.014014 329471.000000 0 0 1
-8.073237 32.076890 -14.718553 36.204141 -1.324233 1.989464 0.041043 -0.024469 -345236.000000 0 0 1
-7.152237 -22.172843 -3.453353 23.552391 1.258766 1.717951 0.011777 0.006110 236878.000000 0 1 0
-7.194937 -21.227943 -4.492853 22.859975 1.244011 1.768622 0.013452 0.001899 -84049.700000 0 1 0
-5.922837 -21.158743 -5.101353 22.556512 1.297858 1.798929 0.004995 -0.002274 174001.000000 0 1 0
-5.869237 -20.043643 -6.206253 21.787913 1.285937 1.859645 0.004553 -0.005196 115974.000000 0 1 0
-6.833937 -20.245643 -7.217353 22.553912 1.245255 1.896531 0.018613 -0.005951 -404281.000000 0 1 0
-6.857137 -19.159843 -8.161353 21.925502 1.227109 1.952208 0.019029 -0.011329 -200225.000000 0 1 0
-7.869337 -19.313443 -9.283053 22.827848 1.183881 1.989586 0.023114 -0.013530 191038.000000 0 1 0
-7.379337 -20.329343 -10.160353 23.894970 1.222597 2.009989 0.023859 -0.005091 -596510.000000 0 1 0
-8.256737 -20.442143 -11.211853 24.733795 1.186926 2.041262 0.044683 -0.003451 -332840.000000 0 1 0
-7.803637 -21.325743 -12.386653 25.867224 1.220005 2.070146 0.029270 -0.000231 -125741.000000 0 0 1
-6.888737 -20.644443 -13.210453 25.459062 1.248729 2.116348 0.030632 0.001074 -379616.000000 0 0 1
-6.485937 -21.366543 -14.330653 26.532323 1.276081 2.141377 0.025832 0.002528 -65705.000000 0 0 1
-5.411137 -20.619843 -15.164353 26.161345 1.314159 2.189092 0.023245 0.003156 -700610.000000 0 0 1
-4.225937 -20.605543 -14.432053 25.509432 1.368514 2.172143 0.017689 0.000715 -239265.000000 0 0 1
-3.093937 -20.063943 -15.135953 25.322546 1.417798 2.211458 0.023958 0.007578 395457.000000 0 0 1
-2.963137 -18.550943 -15.476553 24.340119 1.412405 2.259900 0.039504 0.009080 -922877.000000 0 1 0
-3.963537 -17.962543 -16.308553 24.583155 1.353621 2.296155 0.030747 0.005032 138782.000000 0 1 0
-3.958837 -18.342943 -17.655253 25.765169 1.358233 2.325726 0.038963 -0.002393 3203.970000 0 0 1
-5.313337 -17.944343 -18.331053 26.196537 1.282920 2.345845 0.022823 0.007832 497607.000000 0 0 1
-6.326637 -18.854443 -18.000253 26.823972 1.247051 2.306422 0.019495 0.011981 -213344.000000 0 0 1
-7.500137 -18.696443 -18.790953 27.548303 1.189296 2.321440 0.021922 0.009996 517385.000000 0 0 1
-8.620437 -19.646743 -18.297453 28.197575 1.157319 2.276936 0.038022 0.005083 102292.000000 0 0 1
-8.182837 -20.970643 -18.457953 29.110526 1.198763 2.257595 0.029663 0.009927 244034.000000 0 0 1
-9.108137 -21.891443 -17.937453 29.731224 1.176523 2.218454 0.032473 0.012305 104671.000000 0 0 1
-8.625537 -23.299843 -18.338653 30.880233 1.216243 2.206649 0.026848 0.002220 -571307.000000 0 0 1
-8.610337 -23.471643 -19.717553 31.840821 1.219199 2.238588 0.019301 -0.008757 799627.000000 0 0 1
-7.754437 -24.548243 -20.241153 32.748310 1.264830 2.237097 0.020601 -0.020843 1068070.000000 0 0 1
-6.218537 -24.342143 -20.051353 32.144470 1.320682 2.244377 0.030784 -0.017465 -593478.000000 0 0 1
-5.602437 -23.328243 -20.723253 31.702484 1.335103 2.283232 0.029670 -0.021757 -283248.000000 0 0 1
-5.477637 -22.020243 -20.073653 30.295993 1.326990 2.295060 0.036399 -0.016592 -7441.620000 0 0 1
-4.430137 -21.998043 -18.891353 29.332972 1.372067 2.270553 0.033320 -0.004652 635811.000000 0 0 1
-3.109137 -22.128243 -19.392553 29.587109 1.431205 2.285560 0.021028 -0.011313 -146833.000000 0 0 1
-2.127937 -22.178543 -18.393353 28.891718 1.475143 2.260918 0.012377 -0.003483 448473.000000 0 0 1
-0.801937 -22.837943 -18.869253 29.635510 1.535696 2.261022 0.021212 -0.007100 493503.000000 0 0 1
0.077363 -22.092243 -19.689853 29.593302 -1.567295 2.298757 0.025331 -0.018276 628028.000000 0 0 1
1.246263 -22.882843 -20.039353 30.442624 -1.516387 2.289310 0.026111 -0.019319 1543280.000000 0 0 1
2.238363 -22.139743 -21.021953 30.612106 -1.470037 2.327764 0.047060 -0.024250 619507.000000 0 0 1
1.886863 -22.283943 -22.408753 31.658910 -1.486324 2.357201 0.031469 -0.029741 -277940.000000 0 0 1
1.140363 -21.233943 -22.934553 31.275782 -1.517143 2.393960 0.033623 -0.024077 -465655.000000 0 0 1
0.558363 -21.619843 -24.293353 32.525320 -1.544976 2.414193 0.044712 -0.028379 -123891.000000 0 0 1
0.067363 -20.521743 -25.093323 32.416375 -1.567514 2.456079 0.044407 -0.029265 -1004040.000000 0 0 1
-1.268937 -20.215543 -24.925253 32.117700 1.508108 2.459190 0.033435 -0.026770 -926208.000000 0 0 1
-1.694637 -18.949543 -25.714333 31.987246 1.481605 2.504609 0.029382 -0.010825 56555.300000 0 0 1
-1.051637 -17.746943 -25.229493 30.864013 1.511608 2.527750 0.024322 -0.008558 -48314.900000 0 0 1
-1.616937 -16.522143 -25.607633 30.517972 1.473242 2.566423 0.033799 -0.004689 -339764.000000 0 0 1
-0.918037 -15.258143 -25.062153 29.355839 1.510702 2.593916 0.022004 -0.003656 19218.300000 0 0 1
0.250163 -14.941543 -25.800453 29.815695 -1.554055 2.616607 0.032486 -0.017420 -223625.000000 0 0 1
0.884463 -13.737943 -25.362273 28.857551 -1.506504 2.644302 0.030346 -0.018140 296077.000000 0 0 1
0.219263 -12.425443 -25.789423 28.627506 -1.553152 2.692547 0.024239 -0.014794 40618.600000 0 0 1
0.987763 -11.359443 -25.250113 27.705249 -1.484059 2.717430 0.018489 -0.013157 378488.000000 0 0 1
0.590663 -10.151843 -25.933273 27.855762 -1.512679 2.767896 0.017721 -0.009771 -496716.000000 0 0 1
1.514163 -8.960043 -25.656913 27.218601 -1.403387 2.801202 0.025028 -0.016386 -435985.000000 0 0 1
2.810863 -8.870743 -26.149813 27.756148 -1.263936 2.799715 0.040145 -0.019791 -759507.000000 0 0 1
3.037363 -9.098343 -27.531603 29.154667 -1.248593 2.806346 0.035986 -0.014435 -1059770.000000 0 0 1
4.427663 -8.786243 -28.080943 29.754691 -1.104009 2.804585 0.061430 -0.012133 -727015.000000 0 0 1
4.701263 -7.397143 -28.374713 29.697541 -1.004646 2.842000 0.048115 -0.012824 -55705.800000 0 0 1
5.918363 -7.038743 -28.977563 30.401811 -0.871652 2.834289 0.062326 -0.010344 135806.000000 0 0 1
7.229363 -7.075943 -28.096253 29.861884 -0.774674 2.795996 0.068649 -0.010916 676985.000000 0 0 1
7.771963 -8.341243 -27.704903 29.958995 -0.820714 2.751203 0.049128 -0.004875 277684.000000 0 0 1
8.183163 -9.133143 -28.782593 31.286037 -0.840204 2.738831 0.036334 -0.010676 -940088.000000 0 0 1
8.836263 -10.429643 -28.261593 31.393863 -0.867915 2.691086 0.049111 -0.005717 487904.000000 0 0 1
7.925863 -11.492443 -27.791473 31.100829 -0.967045 2.676083 0.052267 -0.010727 731041.000000 0 0 1
8.525063 -12.592343 -27.088693 31.065111 -0.975671 2.630064 0.045090 -0.009248 -467139.000000 0 0 1
9.358663 -13.558043 -27.927723 32.424726 -0.966633 2.608638 0.045859 -0.017092 -231403.000000 0 0 1
8.565063 -14.148943 -28.945033 33.337184 -1.026452 2.622462 0.045848 -0.018403 -464660.000000 0 0 1
9.173063 -15.190043 -29.650923 34.555170 -1.027524 2.602305 0.030671 -0.020271 -797643.000000 0 0 1
8.253063 -15.934943 -30.576083 35.453241 -1.092914 2.610855 0.033824 -0.015650 -400793.000000 0 0 1
7.672863 -15.095943 -31.583343 35.836684 -1.100552 2.649430 0.035429 -0.015279 342746.000000 0 0 1
6.910363 -15.754643 -32.563303 36.828394 -1.157443 2.655554 0.035926 -0.006158 -249606.000000 0 0 1
6.112263 -14.834343 -33.517303 37.159482 -1.179959 2.695142 0.036319 -0.001034 -60533.800000 0 0 1
6.831963 -13.965343 -34.330721 37.686933 -1.115819 2.716365 0.033277 -0.000488 127779.000000 0 0 1
5.942963 -12.910443 34.067512 36.913328 -1.139392 0.395237 0.025654 0.001576 533762.000000 0 0 1
6.519963 -11.889843 33.053868 35.727252 -1.069210 0.389307 0.034791 -0.000254 -118939.000000 0 0 1
6.864163 -12.347543 31.774530 34.773544 -1.063425 0.418361 0.023342 -0.001773 185531.000000 0 0 1
7.323863 -11.324743 30.922150 33.735266 -0.996735 0.411275 0.028639 -0.001046 70338.900000 0 0 1
7.748563 -11.721143 29.466600 32.645152 -0.986674 0.444947 0.014898 0.008345 -112684.000000 0 0 1
6.621063 -12.198343 28.799330 31.969352 -1.073510 0.449092 0.023603 0.007162 28595.400000 0 0 1
6.819363 -12.109943 27.352430 30.680774 -1.057935 0.470113 0.022842 0.011844 12293.700000 0 0 1
5.729063 -12.883543 26.576420 30.085112 -1.152375 0.487782 0.014944 0.003711 -252756.000000 0 0 1
5.929463 -14.296943 26.537460 30.721294 -1.177651 0.528006 0.015288 0.008281 -194947.000000 0 0 1
5.549163 -15.030043 25.388200 30.020928 -1.217116 0.562952 0.002345 0.007758 723457.000000 0 0 1
3.990263 -15.188843 25.270800 29.752924 -1.313891 0.556034 -0.001539 0.001814 500832.000000 0 0 1
3.296563 -14.036743 24.913550 28.785109 -1.340124 0.524646 -0.011252 0.003860 -137969.000000 0 0 1
1.955863 -14.325443 24.544740 28.486629 -1.435105 0.532337 -0.013989 0.004067 205346.000000 0 0 1
1.025963 -13.127743 24.432990 27.755383 -1.492803 0.494308 -0.005803 0.004831 -557473.000000 0 0 1
1.304763 -12.299043 23.326530 26.402574 -1.465105 0.487526 -0.011884 0.004279 522012.000000 0 0 1
0.311363 -11.258343 23.065930 25.668743 -1.543147 0.454228 0.010909 0.008920 1585620.000000 0 0 1
-1.058137 -11.755843 22.478930 25.389404 1.481029 0.483514 0.012538 0.001802 198993.000000 0 0 1
-0.889737 -12.300743 21.229530 24.551841 1.498590 0.526280 0.014386 -0.006888 161929.000000 0 1 0
-2.125037 -12.889343 20.827430 24.585215 1.407398 0.560193 0.021766 -0.018124 593346.000000 0 1 0
-2.014737 -13.645343 19.505730 23.889916 1.424205 0.615502 0.022802 -0.022928 61635.700000 0 1 0
-1.120637 -14.755643 19.491930 24.472846 1.494995 0.649359 0.027164 -0.026129 -201696.000000 0 1 0
-1.128237 -15.566143 18.352830 24.091578 1.498443 0.704718 0.035100 -0.019152 584460.000000 0 1 0
-2.311737 -16.607143 18.441230 24.924292 1.432484 0.737890 0.010870 -0.024719 857053.000000 0 1 0
-1.984537 -17.826843 17.833730 25.293807 1.459930 0.788284 -0.005921 -0.012700 -738016.000000 0 0 1
-3.097237 -18.663843 17.903030 26.047081 1.406346 0.812985 0.001393 -0.008218 -62650.600000 0 0 1
-2.787237 -20.083543 17.415430 26.728536 1.432895 0.861148 -0.000557 -0.002791 -10090.100000 0 0 1
-1.813337 -20.804543 18.120330 27.648935 1.483855 0.856122 -0.001798 -0.012046 -319297.000000 0 0 1
-2.061337 -22.195043 18.056630 28.686425 1.478188 0.889953 -0.005156 -0.015853 -496235.000000 0 0 1
-0.853937 -23.003643 18.545630 29.560738 1.533692 0.892620 0.001914 -0.010940 387417.000000 0 0 1
0.162663 -23.114243 17.543630 29.018506 -1.563759 0.921574 0.003512 -0.021492 -171775.000000 0 0 1
1.220663 -23.957043 17.962230 29.967844 -1.519888 0.928066 0.000788 -0.009926 397978.000000 0 0 1
2.476763 -23.753643 17.052830 29.345680 -1.466903 0.950714 0.002430 -0.022611 345769.000000 0 0 1
3.057763 -22.472143 17.300930 28.524890 -1.435558 0.919119 0.004462 -0.021500 -239078.000000 0 0 1
4.083263 -22.187943 16.371830 27.874983 -1.388802 0.943040 0.018737 -0.020584 44161.200000 0 0 1
4.805663 -20.873043 16.719730 27.172186 -1.344507 0.907998 0.031204 -0.017249 -952722.000000 0 0 1
5.639963 -21.016943 17.842230 28.140119 -1.308620 0.884017 0.031948 -0.010954 -192703.000000 0 0 1
6.136063 -19.705743 18.272130 27.565165 -1.268928 0.846150 0.047100 -0.007890 380649.000000 0 0 1
7.166463 -19.007843 17.348030 26.713488 -1.210250 0.863987 0.051232 -0.008242 -685233.000000 0 0 1
6.649863 -18.296643 16.258430 25.363840 -1.222192 0.874985 0.040152 -0.009841 -851045.000000 0 0 1
7.669963 -17.860443 15.462730 24.837870 -1.165172 0.898804 0.053653 -0.005519 -512817.000000 0 1 0
7.118963 -16.859343 14.418130 23.298059 -1.171252 0.903512 0.034748 -0.004783 257814.000000 0 1 0
6.119763 -17.387243 13.559430 22.882873 -1.232369 0.936566 0.029096 -0.006813 256855.000000 0 1 0
5.508563 -16.352543 12.768730 21.466029 -1.245873 0.933737 0.021904 -0.013620 113672.000000 0 1 0
6.022063 -16.440143 11.288930 20.832271 -1.219673 0.998105 0.015691 -0.013628 -57760.800000 0 1 0
7.422163 -16.345343 11.321930 21.223686 -1.144551 1.008114 0.018333 0.002063 -566998.000000 0 1 0
8.045963 -16.734943 10.132730 21.153441 -1.122636 1.071269 0.022529 0.006483 -162056.000000 0 1 0
9.443863 -16.138743 9.965530 21.188614 -1.041355 1.081138 0.019208 0.007133 -21027.700000 0 1 0
10.093963 -16.613243 8.795330 21.336489 -1.024818 1.145907 0.020146 0.005871 -58619.800000 0 1 0
11.410763 -16.084843 8.704530 21.556821 -0.953782 1.155135 0.017797 0.005598 73688.300000 0 1 0
12.293263 -16.929143 7.819530 22.335292 -0.942728 1.213121 0.020653 -0.004407 -510525.000000 0 1 0
12.617163 -18.166343 8.380830 23.652635 -0.963748 1.208599 0.032514 -0.009003 309612.000000 0 1 0
13.403463 -19.002243 7.506330 24.435283 -0.956481 1.258555 0.037349 -0.010689 300722.000000 0 1 0
13.940963 -20.299543 8.210430 25.958295 -0.969010 1.248977 0.040737 -0.012118 -385841.000000 0 0 1
13.014963 -21.291643 8.545230 26.376965 -1.022131 1.240878 0.038096 -0.010805 -482924.000000 0 0 1
13.606863 -22.389843 9.227130 27.777540 -1.024716 1.232183 0.036234 -0.007728 122330.000000 0 0 1
12.562863 -23.388943 9.787030 28.295833 -1.077889 1.217617 0.049406 -0.011466 232188.000000 0 0 1
12.318663 -22.979843 11.105530 28.339997 -1.078716 1.168136 0.059461 -0.014139 -235351.000000 0 0 1
11.425463 -23.781543 11.876130 28.933466 -1.122924 1.147834 0.068358 -0.008073 -17576.600000 0 0 1
11.977663 -25.121553 12.352530 30.449004 -1.125890 1.153074 0.036837 -0.011793 -169439.000000 0 0 1
12.979763 -25.113573 13.331430 31.255285 -1.093766 1.130140 0.018141 -0.008733 -201299.000000 0 0 1
12.816863 -26.236263 14.168430 32.455476 -1.116377 1.119036 0.032434 -0.009314 767247.000000 0 0 1
13.964263 -26.404413 15.249230 33.537035 -1.084327 1.098763 0.046390 -0.010569 673745.000000 0 0 1
13.750663 -25.490123 16.262030 33.215670 -1.076089 1.059178 0.048144 -0.011941 17064.600000 0 0 1
14.532763 -25.791503 17.365030 34.321234 -1.057670 1.040307 0.050050 -0.010643 -492515.000000 0 0 1
14.107663 -24.868843 18.553830 34.084163 -1.054781 0.995178 0.048667 -0.004341 -90943.100000 0 0 1
14.719663 -23.596043 18.691230 33.508265 -1.013047 0.979052 0.030479 -0.015860 714091.000000 0 0 1
16.096063 -23.607943 19.112830 34.376133 -0.972385 0.981241 0.027827 -0.005856 781340.000000 0 0 1
16.634363 -22.198243 19.375930 33.836234 -0.927708 0.961076 0.015694 -0.008539 -94295.200000 0 0 1
16.889563 -21.450143 18.201930 32.812745 -0.903794 0.982768 0.008601 0.000368 -330354.000000 0 0 1
15.743563 -20.895943 17.637330 31.552744 -0.925106 0.977642 0.010111 0.007755 -642128.000000 0 0 1
16.072463 -19.876243 16.473630 30.410025 -0.890817 0.998318 0.001097 0.013366 40946.400000 0 0 1
16.692463 -18.647243 16.831530 30.160544 -0.840656 0.978745 -0.008801 0.015167 767880.000000 0 0 1
18.108663 -18.707743 16.545630 30.849007 -0.801669 1.004699 -0.000020 0.013588 649645.000000 0 0 1
18.788463 -17.415343 16.907430 30.694653 -0.747489 0.987442 0.007568 0.017443 -865604.000000 0 0 1
18.957463 -17.274243 18.321330 31.519137 -0.738974 0.950500 -0.002522 0.015039 136821.000000 0 0 1
19.449063 -16.000343 18.690630 31.362664 -0.688418 0.932346 0.003130 0.010106 -282264.000000 0 0 1
19.533263 -15.993443 20.181330 32.320654 -0.686088 0.896421 0.015874 0.004417 -694979.000000 0 0 1
20.733563 -16.513743 20.605030 33.573079 -0.672587 0.910011 0.016245 0.001557 -901983.000000 0 0 1
20.709663 -16.550543 22.026430 34.467002 -0.674235 0.877523 0.016131 0.002653 214402.000000 0 0 1
33.134701 -1.557143 -7.892353 34.097249 -0.046960 1.804381 0.062947 -0.018131 568925.000000 0 0 1
34.538801 -1.233743 -7.826753 35.435985 -0.035705 1.793503 0.051113 -0.016544 890909.000000 0 0 1
35.285803 -2.363543 -8.174153 36.297259 -0.066883 1.797945 0.050721 -0.028866 671124.000000 0 0 1
-34.229203 -2.110943 -8.366853 35.300123 0.061593 1.810094 0.036916 -0.018897 470975.000000 0 0 1
-33.537697 -3.282543 -8.657453 34.792294 0.097565 1.822271 0.038053 -0.022997 -1358330.000000 0 0 1
-32.260717 -2.900343 -8.965453 33.608708 0.089662 1.840826 0.050650 -0.020031 -1044100.000000 0 0 1
-31.081257 -3.802843 -8.486753 32.442737 0.121747 1.835467 0.048312 -0.020090 -236864.000000 0 0 1
-30.768057 -3.592043 -7.151253 31.791769 0.116220 1.797678 0.053033 -0.023715 483124.000000 0 0 1
-29.671407 -4.388043 -6.721053 30.737923 0.146824 1.791234 0.051663 -0.027832 146614.000000 0 0 1
-29.439837 -4.351943 -5.190253 30.208975 0.146762 1.743465 0.050967 -0.031326 -514733.000000 0 0 1
-29.026007 -3.061443 -4.783153 29.576344 0.105084 1.733232 0.051070 -0.031309 570678.000000 0 0 1
-29.237837 -2.873043 -3.430453 29.578261 0.097950 1.687037 0.053095 -0.029738 -364797.000000 0 0 1
-28.845227 -1.415443 -2.981453 29.033424 0.049031 1.673668 0.062827 -0.028317 -1487850.000000 0 0 1
-27.493347 -1.214543 -2.946853 27.677486 0.044147 1.677470 0.050104 -0.022928 -829616.000000 0 0 1
-27.148817 0.144957 -2.716153 27.284735 -0.005339 1.670510 0.059937 -0.029189 29841.900000 0 0 1
-25.648437 0.291957 -2.348753 25.757411 -0.011383 1.662111 0.036591 -0.024165 -71981.700000 0 0 1
-25.363227 -0.299943 -1.143853 25.390779 0.011825 1.615862 0.035230 -0.019899 785765.000000 0 0 1
-23.935537 -0.321243 -1.054053 23.960888 0.013420 1.614801 0.024497 -0.020878 501918.000000 0 1 0
-23.495537 -1.007643 0.267447 23.518655 0.042860 1.559424 0.018451 -0.018285 -260749.000000 0 1 0
-23.840037 -2.378943 0.248547 23.959727 0.099458 1.560423 0.030110 -0.010617 428871.000000 0 1 0
-23.094137 -3.098643 1.215547 23.332774 0.133378 1.518677 0.021700 -0.007871 -148053.000000 0 1 0
-23.123137 -4.648043 0.993747 23.606595 0.198369 1.528688 0.016893 0.003886 667700.000000 0 1 0
-24.277337 -5.308343 1.582247 24.901227 0.215266 1.507213 0.025647 0.003328 1078280.000000 0 1 0
-24.140237 -6.680243 1.454347 25.089676 0.269971 1.512798 0.008460 0.004622 339048.000000 0 0 1
-25.392097 -7.461043 2.014247 26.542098 0.285790 1.494835 0.010877 0.007618 458480.000000 0 0 1
-25.535127 -7.411343 3.435747 26.809981 0.282480 1.442291 0.017749 0.006159 -677356.000000 0 0 1
-26.711647 -7.940743 3.922447 28.141661 0.288956 1.430959 0.021358 0.013368 -818001.000000 0 0 1
-26.810267 -8.035043 5.435047 28.511263 0.291182 1.378994 0.031048 0.007932 -93849.800000 0 0 1
-26.104887 -9.130843 6.019247 28.303158 0.336475 1.356489 0.030763 0.016976 101423.000000 0 0 1
-26.243917 -9.287743 7.396447 28.804736 0.340146 1.311109 0.023454 0.006529 177112.000000 0 0 1
-25.519667 -8.144543 8.239547 28.026365 0.308930 1.272395 0.031174 0.008302 253201.000000 0 0 1
-24.105337 -8.120843 8.136547 26.706156 0.324948 1.261205 0.037928 0.007683 83376.700000 0 0 1
-23.741637 -6.756743 8.366847 26.063827 0.277264 1.243997 0.036710 -0.002272 -431422.000000 0 0 1
-22.370437 -6.422643 7.788247 24.542689 0.279584 1.247879 0.047152 -0.002942 28349.100000 0 1 0
-21.248637 -6.869043 8.514747 23.899566 0.312666 1.206521 0.043524 -0.010386 521782.000000 0 1 0
-19.981437 -6.645943 7.911347 22.494795 0.321096 1.211413 0.040960 -0.011664 516168.000000 0 1 0
-18.766037 -6.870943 8.820347 21.844279 0.350978 1.155148 0.039513 -0.011046 -126773.000000 0 1 0
-18.718437 -5.924743 9.858047 21.969606 0.306542 1.105472 0.038218 -0.009534 773433.000000 0 1 0
-17.643637 -6.196243 10.780047 21.584735 0.337733 1.047857 0.030121 -0.012171 452932.000000 0 1 0
-17.363237 -5.022143 11.696447 21.529301 0.281556 0.996457 0.015822 -0.009946 305921.000000 0 1 0
-18.493437 -4.837843 12.551847 22.868336 0.255864 0.989779 0.028958 -0.007791 627568.000000 0 1 0
-18.594137 -3.544143 12.972447 22.947489 0.188346 0.969987 0.026817 -0.003142 -168644.000000 0 1 0
-19.801437 -3.349343 13.891747 24.419166 0.167560 0.965644 0.029320 -0.007291 -370565.000000 0 1 0
-19.577837 -3.926343 15.162047 25.071808 0.197925 0.921351 0.023892 -0.004256 640273.000000 0 0 1
-20.789137 -4.078943 15.904247 26.490962 0.193744 0.926839 0.021343 0.001403 556550.000000 0 0 1
-20.476837 -4.925943 17.161147 27.167457 0.236076 0.887078 0.008985 0.010682 302419.000000 0 0 1
-21.455237 -4.590743 18.152747 28.476733 0.210790 0.879601 0.011002 0.008690 763883.000000 0 0 1
-21.329237 -5.412243 19.316547 29.280672 0.248503 0.850373 0.012951 0.008575 -2068.680000 0 0 1
-22.211737 -4.940843 20.541247 30.654788 0.218879 0.836476 0.015154 0.010122 -71555.000000 0 0 1
-21.743537 -3.727543 21.075447 30.509842 0.169782 0.808236 0.009068 0.009715 412858.000000 0 0 1
-22.345237 -3.406843 22.340747 31.780893 0.151299 0.791243 0.020224 0.004811 94452.700000 0 0 1
-22.289137 -1.945343 22.737047 31.899268 0.087057 0.777348 0.020861 0.006869 -75261.400000 0 0 1
-23.256137 -1.207543 22.042447 32.065177 0.051877 0.812857 0.044078 -0.001364 111891.000000 0 0 1
-22.993837 0.179357 22.219647 31.975951 -0.007800 0.802535 0.040762 -0.005497 978391.000000 0 0 1
-24.308937 0.913757 21.722747 32.613450 -0.037572 0.841873 0.045349 -0.011065 1318020.000000 0 0 1
-25.376987 0.791657 22.640747 34.017960 -0.031186 0.842562 0.047149 -0.015028 -363714.000000 0 0 1
-26.612887 1.249757 22.174447 34.662858 -0.046926 0.876665 0.041860 -0.015627 -5740.730000 0 0 1
-27.661137 1.239457 23.323547 36.203075 -0.044779 0.870764 0.033630 -0.015690 -196869.000000 0 0 1
-27.385827 2.255957 24.250947 36.649438 -0.082191 0.847712 0.026710 -0.016584 -292305.000000 0 0 1
-28.285627 2.145357 25.286947 38.001433 -0.075701 0.842739 0.016966 -0.011550 -678304.000000 0 0 1
-28.060917 3.077057 26.504247 38.721550 -0.109220 0.816902 0.029023 -0.007513 -1141850.000000 0 0 1
-27.037047 2.652357 27.282647 38.501685 -0.097788 0.783271 0.016819 -0.008256 -655858.000000 0 0 1
-26.753847 3.546157 28.362747 39.150849 -0.131779 0.760563 0.015233 -0.008772 -250443.000000 0 0 1
-25.570557 3.092257 29.234047 38.962096 -0.120346 0.722250 0.031713 -0.012436 -195537.000000 0 0 1
-25.894267 2.022457 30.090347 39.749621 -0.077946 0.712091 0.031104 -0.010863 694351.000000 0 0 1
-24.804637 1.837057 30.993747 39.739869 -0.073926 0.676265 0.033389 -0.013988 379761.000000 0 0 1
-25.029037 0.667057 31.993247 40.625922 -0.026645 0.664041 0.016555 -0.010635 -182195.000000 0 0 1
-25.120937 -0.556343 31.256447 40.104071 0.022143 0.677115 0.020078 -0.009230 -83474.100000 0 0 1
-25.543567 -1.682443 32.037647 41.008722 0.065771 0.674147 0.008881 0.001920 -607974.000000 0 0 1
-26.216387 -2.732943 31.166947 40.818458 0.103870 0.702003 0.022801 0.008237 -338871.000000 0 0 1
-27.491827 -2.449543 30.652147 41.247484 0.088866 0.733064 0.016013 0.008210 -229574.000000 0 0 1
-27.562077 -1.344543 29.742647 40.572170 0.048744 0.747957 0.021449 0.011331 -529406.000000 0 0 1
-28.998857 -0.899643 29.337247 41.260358 0.031013 0.779838 0.020121 -0.002834 770416.000000 0 0 1
-29.843077 -0.554143 30.406147 42.608099 0.018566 0.776139 0.008915 0.001860 -718146.000000 0 0 1
-31.122527 -0.130043 30.046147 43.259676 0.004178 0.802998 -0.000577 -0.000944 -210726.000000 0 0 1
-32.001307 0.133757 31.290847 44.757331 -0.004180 0.796627 -0.007056 0.006631 -334730.000000 0 0 1
-32.406587 -1.063843 31.983947 45.544391 0.032816 0.792231 -0.003971 0.000845 237362.000000 0 0 1
-32.911547 -0.818643 33.298647 46.825634 0.024869 0.779706 0.022395 0.004904 -103193.000000 0 0 1
-32.922817 -2.189943 33.991447 47.372209 0.066420 0.770533 0.028089 0.000845 -341162.000000 0 0 1
-33.959707 -3.065743 33.648447 47.904890 0.090032 0.792031 0.022534 -0.003220 -97150.500000 0 0 1
-33.892847 -4.348643 34.287847 48.407564 0.127608 0.783687 0.018816 0.001371 -30048.300000 0 0 1
-35.105839 -5.212143 33.867447 49.057011 0.147393 0.808797 0.014229 0.006881 432928.000000 0 0 1
34.770271 -4.790443 -34.275737 49.058600 -0.136912 2.344332 0.024343 -0.003015 53906.600000 0 0 1
33.564921 -5.199743 33.901747 47.989267 -0.153694 0.786335 0.023489 -0.008604 -307277.000000 0 0 1
32.341361 -4.716943 -34.110437 47.241244 -0.144827 2.377554 0.046496 -0.011239 -939627.000000 0 0 1
32.022371 -5.501843 -32.941237 46.269079 -0.170151 2.363066 0.035884 -0.004420 62322.800000 0 0 1
31.596151 -6.852843 -33.115137 46.280563 -0.213581 2.368179 0.043282 -0.004257 -256646.000000 0 0 1
30.197871 -6.979643 -33.772237 45.838748 -0.227142 2.399065 0.023895 -0.001743 50379.300000 0 0 1
29.091351 -6.504543 -33.025837 44.489569 -0.219972 2.407334 0.018623 -0.008666 1693400.000000 0 0 1
27.827031 -6.941043 -33.656837 44.218825 -0.244447 2.435870 0.024201 -0.009266 1622740.000000 0 0 1
26.567881 -6.485643 -32.877237 42.764806 -0.239433 2.447746 0.022610 -0.017185 -487274.000000 0 0 1
25.412671 -7.147743 -33.317137 42.507949 -0.274183 2.471535 0.007938 -0.015797 -843095.000000 0 0 1
24.405771 -6.764843 -32.417237 41.137356 -0.270394 2.478390 0.010755 -0.020022 -750684.000000 0 0 1
23.090171 -7.458243 -32.825037 40.819903 -0.312427 2.505029 0.009456 -0.022037 -521936.000000 0 0 1
23.038771 -8.913643 -32.688337 40.972740 -0.369160 2.494445 0.021574 -0.025043 62224.900000 0 0 1
22.917571 -9.345943 -31.348437 39.941035 -0.387218 2.473279 0.023833 -0.021624 -428166.000000 0 0 1
22.617471 -10.886543 -31.301437 40.122896 -0.448603 2.465684 0.033088 -0.015994 443408.000000 0 0 1
21.406971 -11.227043 -31.999437 40.103228 -0.483022 2.494644 0.044320 -0.024292 785186.000000 0 0 1
21.154871 -12.625443 -31.988237 40.375459 -0.538071 2.485316 0.045480 -0.008612 -56651.500000 0 0 1
19.969071 -13.163043 -32.872437 40.652511 -0.582796 2.512599 0.049048 -0.005546 111198.000000 0 0 1
18.681171 -12.808043 -32.500937 39.614935 -0.601004 2.532944 0.024878 -0.003687 -619713.000000 0 0 1
18.311271 -11.460343 -32.817237 39.288843 -0.559220 2.559441 0.030539 -0.014193 -100559.000000 0 0 1
16.876171 -11.077043 -32.325737 38.111144 -0.580841 2.583367 0.031919 -0.009781 1321460.000000 0 0 1
15.822471 -11.650943 -33.144637 38.531313 -0.634710 2.606458 0.023097 -0.006948 -596173.000000 0 0 1
14.584971 -11.421743 -32.604137 37.499432 -0.664361 2.624898 0.033716 -0.014450 -1279150.000000 0 0 1
13.469671 -11.923943 -33.504237 38.028231 -0.724602 2.648844 0.030564 -0.019787 -1130480.000000 0 0 1
13.269171 -13.332843 -33.483337 38.405331 -0.787792 2.629745 0.031880 -0.012486 664113.000000 0 0 1
12.090371 -13.866243 -34.131137 38.773500 -0.853709 2.647227 0.019772 -0.011829 1096130.000000 0 0 1
10.789871 -13.777643 -33.243637 37.568393 -0.906419 2.657039 0.010337 -0.012219 322725.000000 0 0 1
10.384071 -12.433843 -33.074137 36.828358 -0.874989 2.686139 0.040995 -0.010280 -343081.000000 0 0 1
9.629571 -12.303643 -31.895637 35.516756 -0.906718 2.686101 0.045163 -0.007443 552823.000000 0 0 1
8.368071 -11.372143 -32.042437 35.015254 -0.936420 2.726551 0.051204 -0.003827 415073.000000 0 0 1
8.698071 -10.002843 -32.245637 34.863942 -0.855056 2.751567 0.047809 -0.005240 821828.000000 0 0 1
7.531771 -9.187643 -32.417037 34.525420 -0.884115 2.790311 0.058188 -0.006499 519871.000000 0 0 1
7.943271 -7.711043 -32.551037 34.382056 -0.770564 2.813768 0.061460 -0.003659 -108654.000000 0 0 1
8.492371 -7.039043 -31.494337 33.370073 -0.692096 2.804711 0.055605 -0.008882 449632.000000 0 0 1
9.060971 -5.746943 -31.885037 33.642000 -0.565225 2.816981 0.049759 -0.008752 203966.000000 0 0 1
9.315471 -4.730843 -30.784337 32.508988 -0.469906 2.814401 0.051892 -0.011560 -498638.000000 0 0 1
8.112671 -4.354143 -30.186937 31.559866 -0.492582 2.845547 0.051437 -0.012568 -425437.000000 0 0 1
8.263171 -3.332643 -29.203537 30.532492 -0.383359 2.845466 0.063310 -0.014922 378334.000000 0 0 1
6.902271 -2.841943 -28.628637 29.585754 -0.390586 2.886538 0.051615 -0.017024 -539220.000000 0 0 1
6.114271 -2.188743 -29.600337 30.304370 -0.343760 2.925618 0.040666 -0.011566 83078.800000 0 0 1
4.928671 -1.667843 -29.014237 29.477100 -0.326300 2.964146 0.040468 -0.012835 531097.000000 0 0 1
3.732971 -2.651243 -28.883237 29.243898 -0.617554 2.984378 0.032631 -0.013439 -470487.000000 0 0 1
3.975471 -3.677143 -27.946737 28.466575 -0.746434 2.950192 0.037022 -0.019179 -504303.000000 0 0 1
2.828471 -4.463043 -27.809037 28.306564 -1.005927 2.953826 0.040832 -0.018998 -87798.900000 0 0 1
2.812071 -5.438343 -26.646137 27.340445 -1.093576 2.915747 0.042192 -0.026153 -149217.000000 0 0 1
2.941571 -4.857743 -25.383137 26.010655 -1.026311 2.921488 0.046387 -0.026056 125184.000000 0 0 1
3.268371 -5.901943 -24.434537 25.348802 -1.065057 2.872200 0.052852 -0.029933 27728.700000 0 0 1
3.239771 -5.435943 -22.973937 23.829548 -1.033330 2.872809 0.057626 -0.036160 504000.000000 0 1 0
4.310671 -4.521543 -22.726837 23.569798 -0.809269 2.873340 0.065685 -0.031598 342207.000000 0 1 0
3.999771 -3.734243 -21.598037 22.280439 -0.751079 2.893458 0.056782 -0.027514 355326.000000 0 1 0
4.917271 -2.490843 -21.326137 22.026983 -0.468874 2.888659 0.063137 -0.023847 1454180.000000 0 1 0
6.259571 -2.762143 -20.865837 21.958935 -0.415568 2.824740 0.062971 -0.026487 788438.000000 0 1 0
7.026371 -1.630043 -20.517637 21.748572 -0.227957 2.803538 0.070344 -0.017052 160386.000000 0 1 0
8.498771 -1.945043 -20.165137 21.969184 -0.224987 2.733509 0.070328 -0.020113 -1573830.000000 0 1 0
9.166871 -2.252343 -21.368337 23.360445 -0.240932 2.725618 0.073649 -0.023056 -26215.400000 0 1 0
10.351971 -3.027643 -21.247337 23.828119 -0.284535 2.671865 0.051145 -0.017043 588438.000000 0 1 0
11.502871 -2.434943 -20.403337 23.548698 -0.208602 2.618807 0.025702 -0.011150 -1438920.000000 0 1 0
11.228571 -2.203643 -19.038437 22.212585 -0.193790 2.600413 0.028747 -0.011308 -523799.000000 0 1 0
12.348871 -1.760143 -18.307237 22.152825 -0.141581 2.543492 0.016834 -0.016229 -249676.000000 0 1 0
12.547471 -0.245443 -18.313037 22.200599 -0.019559 2.540803 0.012569 -0.015909 -127321.000000 0 1 0
13.025071 0.254157 -19.540537 23.485095 0.019510 2.553571 0.014742 -0.018472 101970.000000 0 1 0
12.937371 1.659857 -19.580637 23.527262 0.127602 2.553956 0.024706 -0.025319 -134004.000000 0 1 0
13.143371 2.410957 -20.965937 24.862249 0.181418 2.574161 0.032202 -0.020236 625115.000000 0 1 0
14.512971 2.580557 -21.373337 25.963535 0.175971 2.537831 0.026834 -0.020049 686438.000000 0 0 1
14.625571 3.615857 -22.287437 26.901889 0.242368 2.547168 0.035534 -0.024955 198433.000000 0 0 1
16.081271 3.877157 -22.812637 28.179000 0.236583 2.514201 0.030927 -0.017351 784344.000000 0 0 1
16.541871 2.854657 -23.694037 29.037733 0.170888 2.525208 0.017768 -0.017597 -101574.000000 0 0 1
17.141871 1.785457 -23.039137 28.772095 0.103783 2.499336 0.015388 -0.019231 -1017180.000000 0 0 1
9.661863 27.120857 3.051947 28.951802 1.228563 1.465185 -0.008527 0.003468 81947.700000 0 0 1
9.377663 27.492057 4.368547 29.374103 1.242068 1.421522 -0.004457 0.004273 171564.000000 0 0 1
10.465763 28.123057 5.042547 30.428043 1.214534 1.404308 0.010750 -0.000182 -266075.000000 0 0 1
10.160763 28.643257 6.484147 31.076058 1.229910 1.360598 0.004915 -0.004794 -18440.600000 0 0 1
10.068263 27.555957 7.454347 30.269918 1.220490 1.321974 0.004078 -0.005314 69537.600000 0 0 1
9.971663 28.171057 8.712047 31.127837 1.230591 1.287128 0.006441 -0.006187 -700549.000000 0 0 1
9.999063 27.219857 9.911747 30.645466 1.218754 1.241441 0.009888 -0.003760 -62348.900000 0 0 1
11.216563 26.695957 10.384547 30.762383 1.173033 1.226459 0.022995 -0.003534 -85505.500000 0 0 1
11.935063 25.919357 9.454047 30.060568 1.139270 1.250867 0.017548 -0.007087 -816452.000000 0 0 1
13.165163 25.153857 9.922947 30.074954 1.088616 1.234556 0.021566 -0.011302 -931739.000000 0 0 1
14.259863 25.974457 10.131047 31.315399 1.068725 1.241353 0.022647 -0.010752 -368606.000000 0 0 1
15.352963 25.174757 10.568547 31.323729 1.023162 1.226645 0.032634 -0.008268 22968.600000 0 0 1
16.661463 25.902157 10.865147 32.658498 0.999184 1.231642 0.026067 -0.008971 -359619.000000 0 0 1
17.229863 26.716357 9.805247 33.268224 0.998002 1.271620 0.025737 -0.011025 1286630.000000 0 0 1
18.668163 26.790457 9.943147 34.133488 0.962207 1.275209 0.030284 -0.018333 1158930.000000 0 0 1
19.277663 27.725057 11.003647 35.516014 0.963221 1.255790 0.029630 -0.011813 -637256.000000 0 0 1
19.241563 29.101657 10.869347 36.541577 0.986599 1.268774 0.031669 -0.024833 -350947.000000 0 0 1
18.008063 29.704957 11.124747 36.475125 1.025808 1.260863 0.015513 -0.013843 -388601.000000 0 0 1
18.108763 31.262257 11.302547 37.855033 1.045772 1.267598 0.002011 -0.001159 -672005.000000 0 0 1
18.567063 32.123257 10.255547 38.494359 1.046715 1.301123 0.018909 -0.022369 132281.000000 0 0 1
17.831463 32.256957 9.035147 37.948731 1.065810 1.330399 0.033294 -0.028271 70246.100000 0 0 1
16.319063 32.566357 9.128747 37.552808 1.106268 1.325245 0.023726 -0.019356 -311230.000000 0 0 1
16.015463 33.794957 9.722447 38.640912 1.128245 1.316453 0.024373 -0.017314 -1156580.000000 0 0 1
14.802063 34.320957 9.392647 38.538953 1.163616 1.324598 0.022823 -0.007686 -1010360.000000 0 0 1
14.733663 -33.133397 9.775247 37.556068 -1.152378 1.307480 0.010942 -0.009802 46384.700000 0 0 1
15.605963 -32.461997 8.850247 37.089812 -1.122671 1.329855 0.027135 -0.009422 523198.000000 0 0 1
15.579563 -31.015697 8.949847 35.844051 -1.105301 1.318438 0.038126 -0.004668 -209493.000000 0 0 1
16.323463 -30.366497 7.799347 35.346985 -1.077563 1.348314 0.029242 0.000579 -550261.000000 0 0 1
15.696563 -30.530197 6.568747 34.951730 -1.095907 1.381734 0.034924 -0.002409 -263694.000000 0 0 1
16.279763 -29.793597 5.527347 34.398265 -1.070707 1.409410 0.021998 0.008812 -246835.000000 0 0 1
15.817263 -30.179997 4.119247 34.321803 -1.088057 1.450488 0.025618 -0.006258 -227394.000000 0 0 1
16.320663 -31.385097 3.680347 35.565900 -1.091267 1.467131 0.023359 -0.013180 -114975.000000 0 0 1
16.022563 -31.567097 2.256747 35.472482 -1.101110 1.507134 0.029625 -0.017867 43886.000000 0 0 1
16.523563 -32.966297 1.809347 36.919894 -1.106168 1.521769 0.042436 -0.018784 342392.000000 0 0 1
17.926363 -33.157997 1.669047 37.730530 -1.075172 1.526546 0.044835 -0.009792 460021.000000 0 0 1
18.173963 34.434457 1.300847 38.957887 1.085169 1.537399 0.071031 -0.009254 -434226.000000 0 0 1
19.576963 33.990857 1.698847 39.262219 1.048250 1.527514 0.077731 -0.008019 -435815.000000 0 0 1
19.840663 33.793257 3.065347 39.306901 1.039902 1.492732 0.067750 -0.031499 -637116.000000 0 0 1
21.157163 33.431557 3.305147 39.701618 1.006572 1.487450 0.041715 -0.014266 -745108.000000 0 0 1
21.506863 33.315657 4.821447 39.946520 0.997557 1.449804 0.035681 -0.008825 -279686.000000 0 0 1
20.850763 32.276757 5.479047 38.814472 0.997239 1.429163 0.050904 -0.021039 119258.000000 0 0 1
21.724863 31.174857 5.792447 38.436880 0.962173 1.419520 0.037610 -0.018456 113429.000000 0 0 1
21.085863 30.122957 6.682247 37.371895 0.960075 1.391026 0.050077 -0.026988 -144516.000000 0 0 1
20.053163 29.394557 6.055547 36.094860 0.972112 1.402232 0.062247 -0.024654 -122744.000000 0 0 1
19.052363 29.120357 7.032647 35.502758 0.991430 1.371390 0.056297 -0.037548 -163667.000000 0 0 1
17.633763 29.259057 6.470847 34.769438 1.028411 1.383598 0.070330 -0.035976 -472076.000000 0 0 1
17.163963 30.598957 6.131347 35.615884 1.059598 1.397782 0.065067 -0.041153 -50293.300000 0 0 1
17.651663 31.249157 5.007347 36.237612 1.056610 1.432172 0.079280 -0.045593 -587243.000000 0 0 1
17.411663 32.726357 5.062947 37.414086 1.081848 1.435058 0.074850 -0.039442 -412319.000000 0 0 1
16.067163 33.046657 5.252347 37.119030 1.118253 1.428820 0.058881 -0.036603 -652010.000000 0 0 1
15.985163 34.463557 5.259047 38.352571 1.136503 1.433239 0.044589 -0.037653 -393586.000000 0 0 1
14.593563 -33.907497 5.476547 37.318668 -1.164366 1.423514 0.037624 -0.035408 -710717.000000 0 0 1
13.717563 -33.892397 4.427947 36.830324 -1.186212 1.450279 0.043927 -0.030119 -468906.000000 0 0 1
12.541063 -33.150097 4.684347 35.751227 -1.209126 1.439392 0.035943 -0.028354 693896.000000 0 0 1
11.714663 -32.802197 3.382447 34.995119 -1.227783 1.473990 0.035843 -0.025622 821612.000000 0 0 1
10.488063 -32.060697 3.404547 33.903962 -1.254638 1.470209 0.025198 -0.028258 621019.000000 0 0 1
10.157463 -31.752797 2.062847 33.401639 -1.261191 1.508998 0.027191 -0.019993 -202820.000000 0 0 1
9.011163 -30.657297 2.167647 32.027638 -1.284916 1.503064 0.030253 -0.020441 249807.000000 0 0 1
8.493463 -30.167997 0.985147 31.356298 -1.296361 1.539373 0.036069 -0.008361 -143074.000000 0 0 1
7.530863 -31.066297 0.477647 31.969623 -1.332971 1.555855 0.024828 -0.016096 -1181960.000000 0 0 1
7.871863 -31.570797 -0.891153 32.549586 -1.326439 1.598178 0.036369 -0.011210 690054.000000 0 0 1
9.088863 -32.355397 -0.866753 33.618899 -1.296947 1.596581 0.028513 -0.017899 696804.000000 0 0 1
9.318763 -32.983797 -2.117653 34.340277 -1.295447 1.632502 0.026524 0.002973 35050.500000 0 0 1
10.476863 -34.014297 -2.056953 35.650639 -1.272004 1.628526 0.028717 -0.006187 -87692.700000 0 0 1
10.346163 33.792457 -1.237353 35.362469 1.273691 1.605794 0.029144 -0.010941 4451.780000 0 0 1
11.538463 33.009657 -1.183153 34.988189 1.234524 1.604619 0.043377 -0.017569 224977.000000 0 0 1
11.641063 32.221457 0.113047 34.260026 1.224105 1.567497 0.038620 -0.023127 -459534.000000 0 0 1
11.904063 33.019057 1.274147 35.122475 1.224780 1.534511 0.039339 -0.026697 1433630.000000 0 0 1
13.229963 33.608157 1.509447 36.149945 1.195773 1.529029 0.046386 -0.023906 1780120.000000 0 0 1
14.370063 32.567357 1.810947 35.642825 1.155250 1.519966 0.067460 -0.029559 -421581.000000 0 0 1
15.000063 32.134957 0.675047 35.469889 1.134073 1.551764 0.076613 -0.028123 -524230.000000 0 0 1
16.071663 31.299657 0.997047 35.198877 1.096425 1.542466 0.094399 -0.024031 -207955.000000 0 0 1
16.645863 30.520957 -0.234753 34.765912 1.071498 1.577549 0.079029 -0.010901 292963.000000 0 0 1
17.601763 31.215057 -1.034353 35.850686 1.057354 1.599652 0.057601 -0.002007 -199097.000000 0 0 1
17.185163 32.382557 -1.740653 36.701358 1.082898 1.618242 0.056499 -0.005102 -62726.600000 0 0 1
18.309463 33.147957 -2.511853 37.951717 1.066146 1.637030 0.046781 -0.002378 711949.000000 0 0 1
19.300963 33.772757 -1.691653 38.935690 1.051600 1.614257 0.043267 -0.001304 47526.600000 0 0 1
20.106263 -34.307097 -2.419653 39.838341 -1.040685 1.631571 0.043740 0.003103 -167098.000000 0 0 1
21.282063 -33.691497 -1.546453 39.880254 -1.007412 1.609583 0.042202 0.004072 1811160.000000 0 0 1
22.446263 34.418757 -1.233353 41.109691 0.992910 1.600802 0.033654 0.006571 1573760.000000 0 0 1
23.243463 33.761657 -2.175453 41.046810 0.967859 1.623820 0.031467 0.008553 -233597.000000 0 0 1
23.978463 -34.398197 -3.262253 42.057638 -0.962030 1.648441 0.015672 0.003938 -890303.000000 0 0 1
23.176863 -34.002397 -4.343453 41.378684 -0.972510 1.675958 0.013326 -0.007103 8485.830000 0 0 1
23.837863 -33.269697 -5.366153 41.278469 -0.949080 1.701164 0.019842 -0.010819 -585879.000000 0 0 1
22.857363 -32.781597 -6.387753 40.470922 -0.961910 1.729295 0.020371 -0.016734 -272467.000000 0 0 1
21.852063 -31.864997 -5.956453 39.094373 -0.969685 1.723753 0.031215 -0.016443 575338.000000 0 0 1
21.031463 -31.545597 -7.084553 38.569910 -0.982770 1.755526 0.032796 -0.022354 48481.800000 0 0 1
20.074263 -30.369197 -6.856153 37.044176 -0.986722 1.756950 0.057478 -0.026591 598635.000000 0 0 1
18.976863 -30.680497 -5.981953 36.567717 -1.016862 1.735120 0.035815 -0.014786 414038.000000 0 0 1
18.033963 -29.609697 -5.937653 35.174048 -1.023745 1.740416 0.044692 -0.029680 -69701.400000 0 0 1
16.818063 -29.896097 -5.061953 34.673436 -1.058369 1.717309 0.038769 -0.014699 -693306.000000 0 0 1
15.854663 -30.576897 -5.816353 34.930601 -1.092445 1.738087 0.032566 -0.013155 -370843.000000 0 0 1
14.672263 -30.552297 -5.018353 34.262253 -1.123086 1.717794 0.020644 -0.010863 241932.000000 0 0 1
13.612563 -31.621297 -5.333453 34.837537 -1.164287 1.724496 0.012404 -0.004087 -71977.100000 0 0 1
13.992163 -32.894597 -4.860153 36.075701 -1.168618 1.705928 0.015227 -0.001092 -393569.000000 0 0 1
13.051563 -33.829797 -5.264153 36.640275 -1.202590 1.714966 0.020974 0.002660 -681410.000000 0 0 1
13.505663 33.664657 -5.242253 36.649601 1.189271 1.714326 0.017497 0.007966 -391673.000000 0 0 1
13.577163 33.088857 -3.945353 35.983018 1.181421 1.680662 0.028211 -0.002945 -18370.300000 0 0 1
13.892763 31.727257 -4.077453 34.874823 1.158066 1.687981 0.039873 -0.007216 871282.000000 0 0 1
12.688163 30.757957 -4.540453 33.580606 1.179547 1.706422 0.030667 -0.007386 866385.000000 0 0 1
11.754863 30.480557 -3.533853 32.859234 1.202720 1.678550 0.029528 -0.012292 -198207.000000 0 0 1
12.151463 29.317557 -2.823753 31.861430 1.177872 1.659539 0.040254 -0.018930 115384.000000 0 0 1
11.053363 28.700657 -1.897353 30.814030 1.203178 1.632410 0.036545 -0.015245 279319.000000 0 0 1
10.706663 29.493857 -0.737753 31.385737 1.222576 1.594304 0.020284 -0.010854 -27456.100000 0 0 1
9.663863 28.931957 0.050947 30.503294 1.248428 1.569126 0.000186 0.004552 -199151.000000 0 0 1
8.298563 29.578957 -0.192053 30.721616 1.297272 1.577048 -0.000069 0.010209 65930.600000 0 0 1
7.347763 29.083357 0.770647 30.007085 1.323330 1.545111 -0.006893 0.007488 494990.000000 0 0 1
6.072663 29.698157 0.661747 30.319889 1.369097 1.548969 0.001368 0.007130 671364.000000 0 0 1
4.927063 29.135257 1.567247 29.590461 1.403271 1.517807 -0.004241 0.006378 404960.000000 0 0 1
4.627763 27.747957 1.275847 28.160133 1.405539 1.525474 -0.002832 0.000561 592295.000000 0 0 1
3.306563 27.338457 1.657047 27.587504 1.450432 1.510695 0.005850 -0.003257 824084.000000 0 0 1
2.949263 25.957757 1.040047 26.145458 1.457664 1.531007 0.009983 -0.000982 1191210.000000 0 0 1
1.618763 25.476257 1.366647 25.564189 1.507342 1.517311 0.015349 -0.006494 1100020.000000 0 0 1
1.173463 24.508457 0.408947 24.539941 1.522953 1.554131 0.011859 -0.009004 287412.000000 0 1 0
-0.220137 23.912157 0.680247 23.922843 -1.561590 1.542357 0.016549 -0.007122 180173.000000 0 1 0
-1.328037 24.771457 0.600747 24.814303 -1.517236 1.546584 0.029335 -0.011140 143852.000000 0 1 0
-2.487537 24.120157 1.098947 24.272978 -1.468029 1.525506 0.031952 -0.004677 785573.000000 0 1 0
-3.817037 24.902357 1.370547 25.230449 -1.418700 1.516448 0.042691 -0.010897 345313.000000 0 0 1
-4.829837 24.064457 1.981947 24.624246 -1.372724 1.490222 0.036007 -0.018103 348717.000000 0 1 0
-5.988737 24.788857 2.320447 25.607360 -1.333749 1.480055 0.037126 -0.012508 300620.000000 0 0 1
-6.913237 25.271857 1.120847 26.224338 -1.303774 1.528043 0.034047 -0.006257 -597486.000000 0 0 1
-6.545537 26.517557 0.585547 27.319732 -1.328796 1.549362 0.036222 -0.005258 -88015.700000 0 0 1
-7.367537 26.878357 -0.510953 27.874500 -1.303261 1.589128 0.027536 0.000895 -144768.000000 0 0 1
-6.988037 28.138557 -1.376153 29.025934 -1.327377 1.618225 0.027541 0.009313 26707.400000 0 0 1
-7.368037 29.424857 -0.885953 30.346253 -1.325440 1.599995 0.032465 -0.002444 -90056.000000 0 0 1
-7.164637 30.405657 -1.875853 31.294645 -1.339383 1.630774 0.033199 0.001108 -87669.700000 0 0 1
-7.383137 31.825957 -1.323253 32.697909 -1.342844 1.611276 0.035979 -0.003345 -558536.000000 0 0 1
-7.469637 32.892057 -2.271853 33.805979 -1.347488 1.638050 0.036102 0.002206 -5126.980000 0 0 1
-6.413537 33.108057 -3.200153 33.875033 -1.379451 1.665407 0.026820 0.003368 1445400.000000 0 0 1
-5.009237 33.531057 -2.554453 33.999257 -1.422502 1.646000 0.026574 -0.000970 674220.000000 0 0 1
-4.969637 -34.071497 -2.240053 34.504811 1.425959 1.635762 0.032511 -0.003105 -249602.000000 0 0 1
-4.008437 -33.814797 -1.263953 34.075000 1.452806 1.607898 0.026611 -0.007526 -317976.000000 0 0 1
-3.922737 -32.299697 -1.010353 32.552712 1.449940 1.601839 0.030326 -0.008011 729152.000000 0 0 1
-5.175837 -31.724797 -0.604153 32.149915 1.409073 1.589589 0.037958 -0.010550 543888.000000 0 0 1
-5.450037 -30.560197 -1.396653 31.073770 1.394314 1.615758 0.045152 -0.004583 -36422.800000 0 0 1
-6.856137 -30.001697 -1.120253 30.795509 1.346129 1.607182 0.066284 -0.009553 -437.709000 0 0 1
-6.928237 -29.372497 0.158847 30.178954 1.339155 1.565533 0.048572 -0.001929 -57000.200000 0 0 1
-8.201637 -28.759297 0.249347 29.906959 1.292989 1.562459 0.035973 0.002431 399250.000000 0 0 1
-8.465537 -28.098597 1.612747 29.390431 1.278166 1.515896 0.037507 0.001817 724876.000000 0 0 1
-7.522437 -27.013097 1.801147 28.098729 1.299204 1.506652 0.030930 -0.001563 279444.000000 0 0 1
-7.296737 -26.621197 3.148947 27.782123 1.303272 1.457208 0.031282 -0.001179 423509.000000 0 0 1
-8.293737 -25.557397 3.746147 27.129324 1.257004 1.432269 0.018328 0.005122 66633.700000 0 0 1
-7.839037 -24.279597 3.666347 25.775791 1.258496 1.428072 0.018154 0.010073 61782.000000 0 0 1
-8.779737 -23.252697 4.083847 25.188281 1.209766 1.407945 0.019236 0.012991 467958.000000 0 0 1
-8.089137 -21.912097 4.127747 23.719452 1.217153 1.395882 -0.000754 0.014741 40298.600000 0 1 0
-7.266637 -21.687797 5.223847 23.461737 1.247496 1.346260 -0.006955 0.008226 -130490.000000 0 1 0
-6.651337 -20.394897 5.324947 22.103103 1.255545 1.327489 -0.017379 0.004566 -196077.000000 0 1 0
-7.576837 -19.369297 5.971647 21.638823 1.197918 1.291199 -0.004988 0.006542 -103200.000000 0 1 0
-7.755737 -19.653397 7.331747 22.364301 1.194931 1.236788 -0.011918 0.006155 110063.000000 0 1 0
-8.832837 -19.005697 7.985547 22.427761 1.135747 1.206752 -0.006684 0.004127 -350177.000000 0 1 0
-26.787457 29.435457 -5.917953 40.237248 -0.832462 1.718408 0.056934 -0.007451 -611142.000000 0 0 1
-25.958817 30.206757 -5.154153 40.160598 -0.860887 1.699490 0.053065 -0.017053 -543783.000000 0 0 1
-25.090097 29.342257 -4.450853 38.862464 -0.863358 1.685577 0.038558 -0.009726 442679.000000 0 0 1
-24.044237 30.092757 -3.545853 38.681681 -0.896663 1.662593 0.028431 -0.012160 -29950.600000 0 0 1
-24.762937 30.740057 -2.543053 39.555294 -0.892675 1.635132 0.030050 -0.014660 195871.000000 0 0 1
-24.031137 31.733057 -1.867353 39.849334 -0.922646 1.617674 0.036027 -0.011279 724757.000000 0 0 1
-22.721637 31.374557 -1.073653 38.752914 -0.944009 1.598505 0.035023 0.001094 644606.000000 0 0 1
-21.603037 31.004857 -1.835853 37.833355 -0.962246 1.619340 0.025701 -0.003431 -781132.000000 0 0 1
-20.482837 30.795757 -1.055253 37.000525 -0.983866 1.599320 0.016898 0.004135 -818395.000000 0 0 1
-19.323037 30.171357 -1.859953 35.876872 -1.001169 1.622662 0.022215 -0.001444 596522.000000 0 0 1
-18.132737 30.258557 -1.042953 35.291134 -1.030921 1.600353 0.024766 0.001444 208313.000000 0 0 1
-17.000837 29.802557 -1.731153 34.354297 -1.052389 1.621209 0.024890 0.000723 779915.000000 0 0 1
-15.617737 30.237857 -1.088253 34.050345 -1.094039 1.602762 0.024292 -0.005920 811781.000000 0 0 1
-15.328437 29.651457 0.151247 33.379526 -1.093678 1.566265 0.025931 -0.003017 -153275.000000 0 0 1
-14.347637 30.435857 0.797647 33.657574 -1.130285 1.547095 0.023222 -0.002874 136662.000000 0 0 1
-13.599737 29.674757 1.917547 32.698945 -1.141067 1.512120 0.022945 -0.008213 344968.000000 0 0 1
-14.462237 29.368657 3.067647 32.879853 -1.113217 1.477362 0.026693 -0.009593 430267.000000 0 0 1
-13.797737 28.632757 4.054647 32.041418 -1.121744 1.443912 0.023530 -0.015683 -78911.400000 0 0 1
-12.778037 29.323857 4.956247 32.368676 -1.159851 1.417073 0.027209 -0.010073 -191194.000000 0 0 1
-13.268437 30.373957 5.789647 33.647417 -1.158943 1.397868 0.022828 -0.014668 -256768.000000 0 0 1
-13.301037 31.625857 5.150047 34.693449 -1.172680 1.421801 0.022088 -0.010602 -18877.800000 0 0 1
-13.184637 32.863757 6.116547 35.934292 -1.189264 1.399749 0.030903 -0.017593 727879.000000 0 0 1
-14.294237 33.031057 7.042847 36.673936 -1.162379 1.377556 0.033283 -0.019689 718637.000000 0 0 1
-14.202237 34.277857 7.798947 37.914358 -1.178001 1.363618 0.053680 -0.020982 273370.000000 0 0 1
-15.480537 -34.392697 8.635247 38.692016 1.147850 1.345722 0.045604 -0.018239 194324.000000 0 0 1
-15.644437 33.684457 9.735347 38.394896 -1.135999 1.314439 0.028388 -0.023671 -514688.000000 0 0 1
-16.606937 34.148657 10.619947 39.429740 -1.118158 1.298090 0.045236 -0.023763 -1161410.000000 0 0 1
-16.618437 33.454757 12.070347 39.256674 -1.109757 1.258261 0.048916 -0.017575 52837.400000 0 0 1
-15.599437 33.761357 12.984047 39.392348 -1.137967 1.234908 0.055342 -0.030512 -928106.000000 0 0 1
-14.310037 33.393057 12.596647 38.451904 -1.165937 1.237039 0.059578 -0.026976 -935160.000000 0 0 1
-13.464237 33.415557 13.902847 38.615726 -1.187764 1.202496 0.070743 -0.026545 -497627.000000 0 0 1
-13.914637 32.501157 14.873847 38.355881 -1.166280 1.172569 0.061214 -0.024601 -58932.400000 0 0 1
-13.433137 31.191357 14.792747 37.042884 -1.164134 1.159998 0.044782 -0.022834 -416410.000000 0 0 1
-14.168037 30.190657 13.886247 36.125294 -1.132021 1.176248 0.045075 -0.026315 -129661.000000 0 0 1
-14.067837 30.369357 12.511547 35.731508 -1.136999 1.213060 0.043968 -0.021387 -337314.000000 0 0 1
-15.148037 29.804357 11.849347 35.470688 -1.100571 1.230188 0.032499 -0.015111 -508340.000000 0 0 1
-14.959037 29.611957 10.323847 34.745109 -1.103022 1.269110 0.024482 -0.006543 -618588.000000 0 0 1
-14.051737 28.654557 9.934247 33.424904 -1.114871 1.269026 0.006731 -0.002699 -449953.000000 0 0 1
-13.968237 28.438157 8.544747 32.815440 -1.114230 1.307372 0.010153 -0.003931 -755628.000000 0 0 1
-13.232437 27.139157 8.208947 31.289264 -1.117136 1.305333 0.017528 -0.001109 -108044.000000 0 0 1
-11.850937 27.298357 8.487347 30.946406 -1.161221 1.292977 0.015180 -0.003274 178527.000000 0 0 1
-11.142037 26.120757 8.133347 29.539639 -1.167606 1.291856 0.025840 -0.003163 -630708.000000 0 0 1
-10.097237 26.261257 7.076347 29.011765 -1.203730 1.324398 0.038256 -0.009802 -990836.000000 0 0 1
-10.629337 26.630757 5.805047 29.255403 -1.191034 1.371044 0.036237 -0.009461 511360.000000 0 0 1
-9.688637 26.280557 4.780547 28.414626 -1.217594 1.401750 0.048509 -0.006840 173060.000000 0 0 1
-9.981937 26.741357 3.315747 28.735577 -1.213537 1.455151 0.040673 -0.008216 -67552.900000 0 0 1
-9.912637 28.160057 3.035147 30.007687 -1.232331 1.469477 0.045580 -0.005944 -20824.200000 0 0 1
-9.981637 28.430657 1.652247 30.177231 -1.233153 1.516017 0.036992 -0.007426 4224.560000 0 0 1
-9.632937 29.904357 1.452747 31.451145 -1.259167 1.524589 0.047691 -0.007750 1335640.000000 0 0 1
-10.675437 30.780657 2.016247 32.641676 -1.236955 1.508988 0.041106 -0.008437 1029090.000000 0 0 1
-10.193437 32.116857 1.817847 33.744677 -1.263466 1.516900 0.046834 -0.009703 -111505.000000 0 0 1
-10.889837 33.186757 2.638147 35.027264 -1.253729 1.495408 0.043938 -0.009755 1002850.000000 0 0 1
-12.274637 33.426457 2.286047 35.682219 -1.218870 1.506686 0.034996 -0.009430 898580.000000 0 0 1
-12.453737 34.349857 1.250447 36.559155 -1.222980 1.536586 0.025506 -0.009873 -179721.000000 0 0 1
-13.965037 -34.457697 0.937347 37.191850 1.185746 1.545591 0.017994 -0.010323 175055.000000 0 0 1
-14.538037 33.493557 0.133247 36.512883 -1.161281 1.567147 0.014006 -0.006605 -138295.000000 0 0 1
-14.500637 33.690657 -1.264953 36.700530 -1.164356 1.605270 0.018872 -0.007609 9372.510000 0 0 1
-13.139637 33.413557 -1.957853 35.957600 -1.196129 1.625272 0.028120 -0.004495 -35165.800000 0 0 1
-12.889637 32.037857 -2.232453 34.605648 -1.188287 1.635352 0.022730 -0.001118 662888.000000 0 0 1
-11.506237 31.834857 -2.561353 33.947196 -1.223971 1.646319 0.022539 -0.002725 867247.000000 0 0 1
-11.055037 30.338557 -2.773753 32.408881 -1.221361 1.656487 0.005489 -0.004260 50710.700000 0 0 1
-11.296437 29.790357 -4.030153 32.114124 -1.208350 1.696623 0.016902 -0.003524 244226.000000 0 0 1
-10.199637 29.992157 -4.923053 32.059297 -1.242989 1.724967 0.019351 -0.000933 298937.000000 0 0 1
-10.345537 29.250257 -6.307753 31.660629 -1.230838 1.771369 0.020477 0.001320 -113636.000000 0 0 1
-10.673037 27.905657 -6.234353 30.520592 -1.205494 1.776511 0.022417 0.004365 234477.000000 0 0 1
-10.421437 27.332557 -7.506353 30.199675 -1.206529 1.821987 0.030668 0.004839 185125.000000 0 0 1
-11.101037 25.959657 -7.547653 29.225056 -1.166703 1.832017 0.042792 -0.013318 425782.000000 0 0 1
-10.324137 25.009257 -6.827653 27.904616 -1.179294 1.817984 0.017906 -0.009278 417412.000000 0 0 1
-10.999937 23.743557 -6.801153 27.037211 -1.136953 1.825076 0.049187 -0.024535 98061.000000 0 0 1
-10.333137 22.770457 -5.815653 25.672734 -1.144790 1.799310 0.036459 -0.020941 -226424.000000 0 0 1
-9.014937 22.404857 -6.157453 24.923100 -1.188253 1.820439 0.035393 -0.021981 -23066.300000 0 1 0
-8.494837 21.215557 -5.563953 23.520622 -1.189940 1.809616 0.034660 -0.021571 -222360.000000 0 1 0
-8.298837 20.977557 -4.047053 22.919582 -1.194084 1.748303 0.017165 -0.024826 -508887.000000 0 1 0
-9.426337 21.054557 -3.218353 23.291801 -1.149848 1.709415 0.023976 -0.022305 -177985.000000 0 1 0
-10.171037 19.806157 -3.203953 22.494425 -1.096384 1.713716 0.030091 -0.023071 256271.000000 0 1 0
-11.414737 19.920657 -2.285753 23.072786 -1.050459 1.670026 0.032427 -0.018703 -103926.000000 0 1 0
-11.196637 19.699557 -0.919553 22.677804 -1.053959 1.611356 0.029293 -0.023963 58396.600000 0 1 0
-11.082837 18.341357 -0.544853 21.436686 -1.027255 1.596216 0.034145 -0.028170 -113245.000000 0 1 0
-10.782837 18.124157 0.956747 21.110898 -1.034104 1.525461 0.030809 -0.026133 4292.540000 0 1 0
-11.877237 18.475957 1.762547 22.034889 -0.999465 1.490722 0.041036 -0.017439 2040.700000 0 1 0
-11.482337 18.410357 3.149647 21.924999 -1.013140 1.426642 0.029754 -0.016197 39654.400000 0 1 0
-12.637637 18.383957 4.164847 22.694177 -0.968558 1.386230 0.040918 -0.019084 -192053.000000 0 1 0
-13.335037 17.189057 4.256347 22.167620 -0.910995 1.377589 0.018437 -0.019046 -469192.000000 0 1 0
-14.419137 17.396457 5.108247 23.165544 -0.878707 1.348458 0.028031 -0.020566 -500568.000000 0 1 0
-15.155537 16.185557 5.606647 22.871315 -0.818251 1.323133 0.024319 -0.008133 -517885.000000 0 1 0
-14.516937 15.527757 6.699547 22.287589 -0.819029 1.265479 0.023939 -0.010499 129458.000000 0 1 0
-14.939237 15.978057 7.955247 23.275847 -0.818985 1.221985 0.010970 -0.013720 -231561.000000 0 1 0
-13.821737 15.764757 9.058547 22.839117 -0.850977 1.162960 0.000435 -0.006202 1688200.000000 0 1 0
-12.617537 16.569457 8.933447 22.661765 -0.919980 1.165591 0.001798 -0.013899 1005200.000000 0 1 0
-11.747337 16.176857 7.885447 21.491182 -0.942714 1.195105 0.003225 -0.012573 -1110720.000000 0 1 0
-10.710837 17.201757 7.485247 21.602115 -1.013882 1.216953 0.013429 -0.020452 284899.000000 0 1 0
-9.675637 17.334557 8.470047 21.583478 -1.061702 1.167522 0.012187 -0.010718 -72003.800000 0 1 0
-8.919137 18.477457 8.381247 22.163319 -1.121081 1.182990 0.009062 -0.016462 -550402.000000 0 1 0
-7.763637 18.616357 9.378347 22.244015 -1.175693 1.135574 0.018695 -0.008629 -582956.000000 0 1 0
-6.780537 17.670857 9.060347 20.983916 -1.204409 1.124336 0.014548 -0.009756 589105.000000 0 1 0
-5.467837 17.749357 9.667447 20.937919 -1.271963 1.090864 0.016403 -0.013089 1605280.000000 0 1 0
-4.545937 18.832757 9.054247 21.384987 -1.333943 1.133609 0.012235 -0.014847 -1294080.000000 0 1 0
-4.977837 20.161757 9.231547 22.726565 -1.328742 1.152504 0.018102 -0.018207 -217088.000000 0 1 0
-4.429937 21.050657 8.280447 23.050386 -1.363381 1.203351 0.027718 -0.029862 -380943.000000 0 1 0
-3.045837 21.653857 8.523447 23.469465 -1.431053 1.199126 0.033124 -0.021352 -765026.000000 0 1 0
-2.003437 20.773957 8.292147 22.457309 -1.474654 1.192605 0.017953 -0.010290 -643628.000000 0 1 0
-0.776237 21.471657 8.172347 22.987428 -1.534660 1.207333 0.019994 -0.009264 457374.000000 0 1 0
0.484663 20.566557 8.185247 22.140831 1.547235 1.192121 0.020514 -0.002251 435543.000000 0 1 0
0.805163 19.918357 9.450047 22.061111 1.530395 1.128122 0.018400 -0.007812 -1137440.000000 0 1 0
1.985863 19.197557 9.392447 21.464107 1.467719 1.117881 0.005654 -0.016495 -808547.000000 0 1 0
2.557963 19.090957 10.813247 22.089230 1.437601 1.059251 -0.004208 -0.011867 587271.000000 0 1 0
3.852463 18.463557 10.829447 21.749053 1.365095 1.049589 0.014122 -0.006143 882914.000000 0 1 0
4.593663 18.570657 12.044247 22.606081 1.328303 1.008905 0.013624 0.001121 834784.000000 0 1 0
6.118863 18.860657 11.869647 23.109595 1.257085 1.031393 0.024618 -0.002089 1171690.000000 0 1 0
6.892863 17.888757 11.089447 22.147122 1.203010 1.046369 0.029194 -0.000132 128412.000000 0 1 0
7.606063 17.052357 11.981947 22.185628 1.151239 1.000268 0.028018 0.002134 -35328.400000 0 1 0
8.791863 16.468157 11.142747 21.740695 1.080421 1.032668 0.021952 -0.000257 -78796.700000 0 1 0
9.737863 17.398257 10.755747 22.654169 1.060534 1.076082 0.029879 -0.008241 -1232960.000000 0 1 0
10.928763 16.818657 10.372847 22.580988 0.994562 1.093520 0.028555 -0.005979 -353318.000000 0 1 0
11.878763 17.798357 9.630147 23.465426 0.982281 1.147907 0.035545 -0.002569 -87634.800000 0 1 0
12.737363 17.184757 8.709947 23.095875 0.932950 1.184110 0.028384 -0.004350 -272521.000000 0 1 0
13.438063 18.259457 8.028347 24.050855 0.936347 1.230457 0.035190 -0.010019 -76468.500000 0 1 0
14.446063 17.715857 7.009147 23.909589 0.886717 1.273274 0.049433 -0.023247 -114852.000000 0 1 0
15.544563 17.054457 7.625647 24.303053 0.831682 1.251632 0.047794 -0.017858 -413607.000000 0 1 0
16.460463 16.693757 6.674947 24.375874 0.792435 1.293419 0.041152 -0.016201 -1069620.000000 0 1 0
17.857063 16.538857 7.270247 25.402066 0.747092 1.280531 0.031685 -0.011196 -556263.000000 0 0 1
18.009363 15.461657 8.184147 25.107374 0.709428 1.238763 0.035099 -0.010457 -719025.000000 0 0 1
19.118163 15.618857 8.974747 26.267830 0.685000 1.222110 0.032280 -0.007425 -973743.000000 0 0 1
19.254663 14.470757 10.026247 26.089662 0.644490 1.176347 0.020722 -0.010955 -301441.000000 0 0 1
19.903863 13.306157 9.511247 25.762014 0.589286 1.192652 0.027108 -0.012996 462051.000000 0 0 1
20.117063 12.269657 10.454047 25.778436 0.547677 1.153233 0.035668 -0.019810 37530.400000 0 0 1
21.067463 11.111057 9.985947 25.826589 0.485329 1.173796 0.039702 -0.017589 -148686.000000 0 0 1
22.453963 11.406657 10.121747 27.142992 0.470029 1.188659 0.041225 -0.026140 916932.000000 0 0 1
23.270563 10.523357 9.372847 27.204970 0.424697 1.219061 0.053153 -0.024506 -325058.000000 0 0 1
23.525163 9.125257 9.888947 27.101565 0.370026 1.197287 0.065665 -0.029239 -163611.000000 0 0 1
22.466563 8.183457 9.571247 25.755080 0.349313 1.190037 0.074083 -0.029149 1172860.000000 0 0 1
22.629063 6.921857 10.156647 25.751583 0.296846 1.165372 0.084085 -0.023862 494437.000000 0 0 1
23.767863 6.027657 9.504647 26.297951 0.248369 1.201004 0.077301 -0.023499 954949.000000 0 0 1
23.342363 5.852757 8.167247 25.413079 0.245671 1.243610 0.067567 -0.020408 427460.000000 0 0 1
24.421163 5.431157 7.358747 26.077611 0.218834 1.284724 0.050034 -0.014257 -200962.000000 0 0 1
24.114363 5.177557 5.904747 25.360907 0.211497 1.335811 0.049005 -0.016651 -989008.000000 0 0 1
23.328863 4.025857 5.741847 24.360052 0.170887 1.332850 0.058544 -0.011896 391983.000000 0 1 0
23.045563 3.749457 4.368447 23.753730 0.161284 1.385838 0.055980 -0.012118 -663981.000000 0 1 0
22.159963 2.564557 4.145147 22.689714 0.115217 1.387076 0.045945 -0.007589 -648016.000000 0 1 0
22.777163 1.288257 4.372847 23.228873 0.056499 1.381416 0.055209 -0.013788 187875.000000 0 1 0
21.965963 0.195157 4.022347 22.332059 0.008884 1.389693 0.047523 -0.012621 -497616.000000 0 1 0
22.673263 -1.177243 4.143547 23.078815 -0.051876 1.390279 0.058083 -0.017505 -709170.000000 0 1 0
22.780663 -1.693843 5.466747 23.488572 -0.074218 1.335902 0.069145 -0.015773 598608.000000 0 1 0
22.583963 -3.089643 5.569347 23.464844 -0.135963 1.331161 0.045485 -0.018807 -766032.000000 0 1 0
22.163463 -3.540743 6.993047 23.508693 -0.158417 1.268758 0.052158 -0.018965 -348348.000000 0 1 0
22.072063 -4.920443 7.109047 23.704963 -0.219340 1.266212 0.036420 -0.021550 609610.000000 0 1 0
21.945263 -5.182143 8.475747 24.089156 -0.231892 1.211251 0.054063 -0.025080 -199544.000000 0 1 0
21.891163 -6.662443 8.949447 24.570384 -0.295437 1.197983 0.061208 -0.027392 -96435.500000 0 1 0
20.645863 -7.255443 8.681147 23.542630 -0.337942 1.193141 0.058634 -0.025297 146444.000000 0 1 0
20.538163 -8.449243 9.398947 24.115266 -0.390289 1.170435 0.064103 -0.021506 -126676.000000 0 1 0
-26.011407 -33.161097 5.253447 42.471759 0.905643 1.446786 0.023066 -0.017597 312227.000000 0 0 1
-26.860147 -34.152697 5.850547 43.841796 0.904359 1.436950 0.022070 -0.013220 352809.000000 0 0 1
-26.787537 -34.099197 7.285747 43.970552 0.904912 1.404333 0.033741 -0.010477 -690096.000000 0 0 1
-27.534167 33.729257 7.885647 44.249029 -0.886178 1.391629 0.037360 -0.009065 -605073.000000 0 0 1
-28.921307 33.766157 7.651647 45.112560 -0.862531 1.400360 0.032299 -0.016550 -392218.000000 0 0 1
-29.504797 32.552257 8.064847 44.667933 -0.834466 1.389250 0.034060 -0.015562 -620217.000000 0 0 1
-31.023787 32.600957 8.017247 45.711858 -0.810182 1.394498 0.029528 -0.013951 -681938.000000 0 0 1
-31.572787 32.557457 6.703247 45.844982 -0.800751 1.424055 0.013291 -0.004813 -64887.200000 0 0 1
-32.975957 32.692457 6.844047 46.936675 -0.781081 1.424460 0.003259 -0.002145 -19216.800000 0 0 1
-33.596127 32.659357 5.426247 47.167547 -0.771260 1.455499 -0.004093 0.002141 -427325.000000 0 0 1
-33.447047 31.376057 4.815347 46.112357 -0.753461 1.466179 -0.009499 0.000396 38797.900000 0 0 1
-34.185915 31.262157 3.635847 46.467393 -0.740755 1.492471 -0.007204 0.012658 -231167.000000 0 0 1
-33.788827 30.109457 2.639647 45.334666 -0.727880 1.512538 -0.005372 0.009776 -66803.900000 0 0 1
-33.955427 28.855157 3.326547 44.683968 -0.704375 1.496281 0.005305 0.002787 320369.000000 0 0 1
-33.391407 27.794957 2.566547 43.521637 -0.694186 1.511790 -0.000412 0.004341 -250370.000000 0 0 1
-33.609977 26.446157 3.289447 42.893476 -0.666674 1.494032 0.014349 0.002675 -199009.000000 0 0 1
-34.942752 26.009957 3.122647 43.672242 -0.639881 1.499233 0.015734 0.000764 -213381.000000 0 0 1
-35.108183 25.041757 4.066147 43.315212 -0.619579 1.476784 0.015742 0.000157 -377939.000000 0 0 1
34.507341 24.541657 4.087147 42.541207 0.618204 1.474573 0.027684 -0.004672 -523219.000000 0 0 1
34.120691 23.855357 2.894647 41.733423 0.610153 1.501380 0.025659 -0.005418 -84096.600000 0 0 1
34.459741 22.507757 2.842847 41.257177 0.578594 1.501836 0.031285 -0.003179 -573554.000000 0 0 1
33.535431 21.568257 2.061947 39.925762 0.571543 1.519129 0.031787 -0.007093 1323270.000000 0 0 1
32.146151 21.388057 2.480647 38.690795 0.587082 1.506638 0.021425 -0.021585 1855060.000000 0 0 1
31.854371 20.437857 3.564347 38.014623 0.570449 1.476896 0.014405 -0.012968 -173381.000000 0 0 1
32.175571 18.920657 3.394147 37.480380 0.531582 1.480114 0.014982 -0.012457 -205274.000000 0 0 1
31.305921 18.431157 2.394647 36.407452 0.532102 1.504975 0.006939 -0.017962 544458.000000 0 0 1
31.615581 17.073257 2.033647 35.988565 0.495154 1.514258 -0.002443 -0.007140 -308454.000000 0 0 1
31.022531 15.962557 3.046647 35.021175 0.475218 1.483692 0.002914 -0.013381 -5371.530000 0 0 1
29.610941 15.909757 2.940247 33.742751 0.493035 1.483549 -0.011568 -0.011272 158804.000000 0 0 1
29.163241 14.924457 3.871447 32.988212 0.473008 1.453167 -0.009371 -0.019216 -528426.000000 0 0 1
27.653071 14.800457 4.030347 31.622612 0.491424 1.442997 -0.020099 -0.006615 -129497.000000 0 0 1
26.904951 14.319957 2.900547 30.616184 0.489108 1.475915 -0.010822 -0.017472 1339560.000000 0 0 1
25.477771 14.453257 3.008747 29.445985 0.516020 1.468439 -0.023509 -0.009429 877409.000000 0 0 1
24.804771 14.145057 1.643547 28.601758 0.518261 1.513302 0.008904 -0.014366 -749357.000000 0 0 1
25.246471 14.930457 0.531347 29.335732 0.534063 1.552683 0.018173 -0.019310 1034740.000000 0 0 1
26.337231 14.273357 -0.151853 29.956661 0.496639 1.575865 0.018757 -0.019476 -329221.000000 0 0 1
26.853351 15.064057 -1.360353 30.820105 0.511230 1.614949 0.036004 -0.021129 161505.000000 0 0 1
27.414831 16.379457 -1.151053 31.955978 0.538555 1.606824 0.029941 -0.019498 445961.000000 0 0 1
28.416921 16.518457 -0.177753 32.869628 0.526548 1.576204 0.032682 -0.016493 -794111.000000 0 0 1
29.041601 17.927857 -0.243553 34.130367 0.553055 1.577932 0.048613 -0.011114 -283265.000000 0 0 1
29.876831 18.123857 -1.364153 34.970847 0.545272 1.609815 0.025947 -0.001979 479609.000000 0 0 1
30.602661 19.363457 -1.368553 36.240023 0.564144 1.608569 0.026704 0.009195 315102.000000 0 0 1
29.996161 20.363557 -2.354653 36.331646 0.596405 1.635652 0.043787 0.003407 -223673.000000 0 0 1
30.669721 21.594257 -2.264853 37.577564 0.613466 1.631104 0.016023 0.015277 318249.000000 0 0 1
30.158991 22.584457 -3.154253 37.809678 0.642762 1.654318 0.034054 0.009220 -510011.000000 0 0 1
31.187171 23.713057 -3.291753 39.316464 0.650090 1.654619 0.001527 0.010278 -179747.000000 0 0 1
31.380791 24.405357 -2.092453 39.808967 0.661005 1.623383 -0.003999 0.008976 -209380.000000 0 0 1
32.511151 23.979457 -1.401053 40.422175 0.635502 1.605464 0.009398 0.017651 -775160.000000 0 0 1
32.712071 24.744457 -0.120353 41.016853 0.647605 1.573731 0.010784 -0.002137 165610.000000 0 0 1
33.178221 26.106157 -0.338753 42.218960 0.666669 1.578820 0.018440 0.000121 666239.000000 0 0 1
34.351381 26.556757 0.353847 43.421238 0.658117 1.562647 0.021947 -0.000082 700005.000000 0 0 1
34.767091 28.037257 0.123647 44.663785 0.678650 1.568028 0.008736 0.001358 -117446.000000 0 0 1
35.338505 28.420757 -1.132053 45.363321 0.677323 1.595754 -0.003119 0.003358 -41669.600000 0 0 1
34.493211 28.367757 -2.244053 44.716295 0.688260 1.621002 -0.007992 0.002912 -576266.000000 0 0 1
35.149966 27.714357 -3.433153 44.893120 0.667665 1.647345 -0.004933 0.006226 -71793.800000 0 0 1
-35.306664 28.802957 -4.193253 45.757559 -0.684297 1.662566 0.007740 0.006071 157490.000000 0 0 1
-35.078427 28.440657 -5.580253 45.502816 -0.681276 1.693741 0.011636 0.004425 -283597.000000 0 0 1
34.830401 28.438157 -6.612853 45.449042 0.684706 1.716815 -0.014351 0.006727 -221689.000000 0 0 1
33.840021 27.507557 -6.315753 44.064742 0.682540 1.714621 -0.010909 0.018359 -238282.000000 0 0 1
32.750871 27.452557 -7.226153 43.341432 0.697617 1.738305 -0.023335 0.014077 116519.000000 0 0 1
31.697321 26.395957 -6.801853 41.805884 0.694394 1.734224 -0.017915 0.013593 -502112.000000 0 0 1
31.994311 24.991257 -6.975153 41.192859 0.663120 1.740945 -0.021214 0.012010 12376.800000 0 0 1
33.164441 24.568257 -6.284553 41.748952 0.637588 1.721903 -0.018894 0.013122 199843.000000 0 0 1
33.513701 23.131057 -6.666953 41.263328 0.604116 1.733079 -0.008589 0.010217 803667.000000 0 0 1
32.572471 22.187557 -6.053153 39.873478 0.597980 1.723195 0.006528 0.020860 1133930.000000 0 0 1
32.950461 20.859957 -6.448653 39.527912 0.564382 1.734671 0.022736 0.010647 423495.000000 0 0 1
31.914751 19.747057 -6.010853 38.008262 0.554088 1.729609 0.038716 0.006099 960505.000000 0 0 1
30.654491 19.906457 -6.689353 37.157937 0.575940 1.751808 0.021829 -0.002127 910646.000000 0 0 1
29.787461 18.853757 -6.187753 35.791693 0.564291 1.744552 0.078051 -0.011870 -539666.000000 0 0 1
28.448931 18.795457 -6.862053 34.780723 0.583842 1.769394 0.050896 -0.014934 -950779.000000 0 0 1
28.393491 17.720357 -7.806653 34.367794 0.557951 1.799947 0.037879 -0.014681 268264.000000 0 0 1
27.188551 17.855157 -8.549253 33.632034 0.581082 1.827816 0.043997 -0.020848 208019.000000 0 0 1
27.023341 16.671257 -9.507553 33.144914 0.552768 1.861731 0.049524 -0.021399 -740869.000000 0 0 1
26.122301 16.820157 -10.533753 32.806284 0.572075 1.897676 0.044453 -0.018421 -366442.000000 0 0 1
26.164921 15.695657 -11.401853 32.572366 0.540327 1.928417 0.044523 -0.013857 -262658.000000 0 0 1
25.355871 15.775657 -12.730753 32.463266 0.556562 1.973773 0.039833 -0.009566 48673.700000 0 0 1
23.953271 15.798957 -12.474253 31.288548 0.583076 1.980878 0.031136 -0.007550 690763.000000 0 0 1
23.166871 15.789457 -13.676853 31.194025 0.598238 2.024664 0.030917 -0.006400 -37372.300000 0 0 1
23.084471 14.431657 -14.508953 30.849234 0.558720 2.060448 0.034639 -0.003996 -324956.000000 0 0 1
24.283871 13.868857 -15.051653 31.758524 0.518909 2.064557 0.042190 -0.007754 564693.000000 0 0 1
24.549471 14.319957 -16.380353 32.803257 0.528057 2.093646 0.054788 -0.015178 -114558.000000 0 0 1
25.990261 14.035757 -16.871053 34.016593 0.495164 2.089743 0.059342 -0.008088 28989.300000 0 0 1
26.236291 12.669157 -17.116453 33.790879 0.449863 2.101964 0.057168 -0.006522 -117557.000000 0 0 1
27.558961 12.466957 -17.536053 34.963331 0.424826 2.096192 0.046117 0.008072 -153782.000000 0 0 1
27.777311 11.046357 -18.101053 34.946375 0.378501 2.115268 0.023901 0.007769 -389933.000000 0 0 1
27.109411 10.892957 -19.324753 35.028885 0.382070 2.155174 0.030299 -0.000734 66350.500000 0 0 1
27.295531 9.571357 -19.745453 35.021991 0.337260 2.169778 0.012096 0.005737 429919.000000 0 0 1
28.660771 9.331857 -20.472153 36.436691 0.314772 2.167423 0.004784 0.005815 -472148.000000 0 0 1
28.734611 9.870757 -21.801053 37.395129 0.330885 2.193202 0.009477 0.003765 12972.700000 0 0 1
29.418761 9.026657 -22.669753 38.221221 0.297714 2.205724 -0.007481 0.000987 -602535.000000 0 0 1
30.917541 8.757357 -22.518353 39.238526 0.276019 2.182037 -0.014825 0.010758 -1292280.000000 0 0 1
31.731361 9.740357 -23.036453 40.403367 0.297833 2.177499 -0.012085 0.014584 1206110.000000 0 0 1
33.130901 9.312857 -22.908353 41.342213 0.274022 2.158096 -0.034731 0.016513 1807710.000000 0 0 1
34.088011 10.526657 -22.736353 42.305375 0.299518 2.138188 -0.018661 0.006227 -20940.900000 0 0 1
34.008051 11.120257 -21.422353 41.702816 0.316030 2.110277 -0.014765 0.003233 488137.000000 0 0 1
34.976521 12.153757 -21.233353 42.684027 0.334431 2.091458 -0.022562 0.002909 163314.000000 0 0 1
34.908261 12.813557 -19.839853 42.147286 0.351795 2.060911 -0.033715 0.014655 -223382.000000 0 0 1
35.477612 11.966357 -18.883353 41.933706 0.325310 2.037914 -0.018905 0.011330 128471.000000 0 0 1
35.261344 12.601557 -17.677753 41.408509 0.343231 2.011871 -0.006278 0.007520 -119353.000000 0 0 1
-35.297517 11.858857 -16.390853 40.684239 -0.324120 1.985457 -0.003913 0.015710 -64032.500000 0 0 1
34.982541 10.673157 -16.186553 39.996237 0.296129 1.987449 0.000608 0.016033 253606.000000 0 0 1
-35.502326 9.973457 -15.122453 39.856914 -0.273865 1.959964 0.002178 0.004778 -61586.400000 0 0 1
34.915751 8.622457 -14.722153 38.861269 0.242106 1.959337 0.033751 0.004510 -400714.000000 0 0 1
33.750081 8.670757 -13.963853 37.539835 0.251472 1.951931 0.043227 0.008893 175907.000000 0 0 1
34.090521 8.480657 -12.599553 37.320690 0.243820 1.915165 0.042616 -0.001353 -411978.000000 0 0 1
32.961411 9.073157 -11.789353 36.163043 0.268614 1.902872 0.050974 -0.001223 -732943.000000 0 0 1
32.898371 10.495557 -11.772153 36.483464 0.308822 1.899346 0.057284 -0.007117 717721.000000 0 0 1
31.760791 11.077657 -11.109453 35.424318 0.335591 1.889790 0.046217 -0.000417 111204.000000 0 0 1
31.732281 10.733857 -9.597453 34.846298 0.326181 1.849825 0.046721 -0.002435 -550577.000000 0 0 1
32.799001 11.272057 -8.856853 35.794938 0.331025 1.820826 0.057768 -0.003659 -8878.710000 0 0 1
32.785521 12.683157 -8.724653 36.219780 0.369121 1.814070 0.052352 -0.007104 -614586.000000 0 0 1
32.595191 13.137757 -7.218853 35.876998 0.383140 1.773391 0.043039 -0.004721 -507370.000000 0 0 1
33.633741 12.764757 -6.350753 36.530804 0.362730 1.745531 0.054939 -0.003851 -276422.000000 0 0 1
33.431741 13.000757 -4.973353 36.213744 0.370879 1.708565 0.044258 -0.003967 -478785.000000 0 0 1
34.570531 12.591357 -4.041153 37.013441 0.349288 1.680195 0.052363 0.000678 -97688.200000 0 0 1
-35.389497 13.479057 -4.067753 38.087375 -0.363913 1.677801 0.041547 0.019357 -88275.400000 0 0 1
-34.438824 13.198957 -3.053253 37.007667 -0.365991 1.653393 0.036523 0.004712 40562.000000 0 0 1
-33.292247 14.224557 -2.972153 36.325548 -0.403786 1.652708 0.030300 -0.001560 -73109.000000 0 0 1
-33.709057 15.491957 -2.592053 37.188977 -0.430791 1.640552 0.034080 0.006403 395089.000000 0 0 1
-32.710717 16.474957 -2.907153 36.740533 -0.466568 1.650006 0.042017 0.008783 498036.000000 0 0 1
-32.739527 17.626757 -1.833953 37.228250 -0.493889 1.620079 0.038244 0.021557 751640.000000 0 0 1
-33.920637 18.452357 -1.896453 38.661294 -0.498214 1.619869 0.020904 0.020739 695074.000000 0 0 1
-34.081796 19.276657 -0.749553 39.162740 -0.514741 1.589937 0.002439 0.024027 -36845.600000 0 0 1
-35.229908 20.319457 -0.642653 40.674805 -0.523161 1.586597 -0.002316 0.029274 43917.800000 0 0 1
-35.170423 21.525057 -1.450153 41.260025 -0.549212 1.605950 0.008042 0.030130 -148734.000000 0 0 1
-35.501406 21.385557 -2.803253 41.539741 -0.542172 1.638331 -0.019545 0.040508 -180434.000000 0 0 1
-35.103031 22.584357 -3.620153 41.897273 -0.571703 1.657310 0.020401 -0.000269 -218607.000000 0 0 1
-33.743567 22.746457 -3.933453 40.884003 -0.593129 1.667155 0.030397 0.014149 -352006.000000 0 0 1
-33.544127 24.000157 -4.547953 41.495781 -0.621040 1.680617 0.039437 0.004379 8255.490000 0 0 1
-32.104357 24.280057 -5.012453 40.562737 -0.647512 1.694686 0.038884 0.000347 41112.000000 0 0 1
-31.685057 23.397557 -6.092853 39.856134 -0.636062 1.724269 0.025869 0.005434 -38452.800000 0 0 1
-30.441727 23.894357 -6.551053 39.249909 -0.665479 1.738487 0.033700 0.010368 -80429.400000 0 0 1
-30.023957 23.153857 -7.831553 38.715272 -0.656919 1.774488 0.031616 -0.009017 -187573.000000 0 0 1
-30.854637 23.289957 -8.971353 39.685210 -0.646584 1.798830 0.035408 -0.015479 99344.200000 0 0 1
-30.223497 22.784157 -10.140853 39.184365 -0.645964 1.832574 0.005056 -0.009571 -256116.000000 0 0 1
-31.147047 22.740357 -11.343453 40.198710 -0.630641 1.856867 -0.003633 -0.008007 -504538.000000 0 0 1
-31.473917 24.046157 -11.850753 41.343264 -0.652403 1.861517 0.015254 -0.006188 19477.500000 0 0 1
-32.110947 23.939557 -13.109853 42.143607 -0.640632 1.887121 0.005027 -0.008069 -662829.000000 0 0 1
-32.447337 25.325557 -13.688153 43.377172 -0.662745 1.891844 0.023607 -0.012300 105330.000000 0 0 1
-31.385577 26.256757 -13.725553 43.160891 -0.696655 1.894425 0.018702 -0.007534 36521.300000 0 0 1
-30.308027 26.005057 -14.628753 42.530459 -0.709135 1.921927 0.013476 -0.006349 954733.000000 0 0 1
-28.957027 26.653357 -14.115953 41.811135 -0.743997 1.915175 0.003119 0.000124 417436.000000 0 0 1
-28.271007 26.042857 -13.027753 40.585744 -0.744398 1.897574 -0.004008 -0.009211 268604.000000 0 0 1
-28.972747 26.000557 -11.760653 40.666473 -0.731385 1.864185 0.017888 -0.009081 -632110.000000 0 0 1
-29.157177 27.313557 -10.983653 41.434430 -0.752762 1.839089 0.030596 -0.001509 -532569.000000 0 0 1
-28.049887 28.032757 -10.489053 41.020140 -0.785093 1.829373 0.026155 0.003147 -454084.000000 0 0 1
-28.317917 29.282157 -9.886353 41.917647 -0.802137 1.808891 0.013726 -0.004832 227502.000000 0 0 1
-27.006327 30.036057 -9.501153 41.494317 -0.838462 1.801821 0.017495 -0.007379 470013.000000 0 0 1
-27.125457 31.492057 -9.333453 42.598749 -0.859754 1.791690 0.017527 -0.020850 -173439.000000 0 0 1
-25.922467 31.962057 -8.747053 42.072061 -0.889361 1.780230 0.034081 -0.012955 -356021.000000 0 0 1
33.559031 -25.311363 34.061439 54.102268 -0.646205 0.889790 0.007488 -0.005097 -158667.000000 0 0 1
33.183011 -23.958243 34.230724 53.355901 -0.625341 0.874273 0.005718 -0.009046 86782.500000 0 0 1
32.306391 -23.746243 -33.498343 52.246780 -0.633853 2.266800 -0.011133 0.002903 -37288.700000 0 0 1
31.954151 -22.246443 -33.314073 51.242556 -0.608170 2.278545 -0.013766 0.001841 169988.000000 0 0 1
31.175741 -21.691743 -34.362897 51.217842 -0.607894 2.306240 -0.023627 -0.000820 240660.000000 0 0 1
30.713591 -20.383743 -34.108922 50.221910 -0.585926 2.317420 -0.027940 0.008592 93305.000000 0 0 1
30.414891 -19.534543 33.463488 49.259203 -0.570921 0.823941 -0.033868 0.006363 53531.200000 0 0 1
31.614171 -19.122843 32.818755 49.418718 -0.544001 0.844513 -0.014398 -0.007782 367895.000000 0 0 1
31.335471 -18.654843 31.506490 48.193090 -0.536976 0.858260 -0.008734 -0.003653 -462761.000000 0 0 1
32.572031 -18.471143 30.598720 48.357027 -0.515866 0.885675 -0.007828 0.002319 219725.000000 0 0 1
33.562211 -17.577743 31.085620 49.007294 -0.482456 0.883686 -0.006771 -0.015265 556084.000000 0 0 1
34.497101 -17.215243 30.088670 48.905447 -0.462875 0.908104 0.031105 -0.014715 -416554.000000 0 0 1
35.475483 -16.111043 30.492130 49.475708 -0.426296 0.906754 0.035684 -0.015541 -619277.000000 0 0 1
-34.588871 -15.873543 29.513010 48.159913 0.430247 0.911181 0.037287 -0.013654 -4742.930000 0 0 1
-33.586007 -15.032643 29.982990 47.465566 0.420845 0.887080 0.026299 -0.017997 -336535.000000 0 0 1
-32.338647 -15.777043 30.503460 47.171647 0.453896 0.867614 0.054180 -0.020320 -845616.000000 0 0 1
-31.430917 -15.002943 31.217630 46.771052 0.445348 0.840009 0.042999 -0.018352 -518844.000000 0 0 1
-30.262247 -15.747743 31.493770 46.429006 0.479815 0.825321 0.047160 -0.019919 344798.000000 0 0 1
-29.117577 -14.800043 32.022150 45.741586 0.470254 0.795306 0.038419 -0.019222 127081.000000 0 0 1
-29.353077 -14.048043 33.200799 46.489179 0.446372 0.775370 0.048588 -0.016382 299499.000000 0 0 1
-28.167697 -13.462643 33.712884 45.948019 0.445849 0.747019 0.032916 -0.013384 -69609.500000 0 0 1
-28.407367 -12.793543 -33.710783 45.902834 0.423153 2.395570 0.037217 -0.000519 -67266.100000 0 0 1
-28.559957 -13.734843 -32.660173 45.508285 0.448261 2.371255 0.038441 -0.003384 271020.000000 0 0 1
-28.943257 -12.993543 -31.498543 44.706851 0.421965 2.352596 0.043560 0.004539 -225864.000000 0 0 1
-29.243737 -13.822643 -30.234253 44.276085 0.441546 2.322463 0.043982 -0.002167 -250524.000000 0 0 1
-30.267297 -14.764343 -30.367333 45.346114 0.453839 2.304573 0.041623 -0.004373 -252511.000000 0 0 1
-30.576767 -15.319743 -29.135463 44.927814 0.464468 2.276402 0.050697 -0.003853 330421.000000 0 0 1
-31.793257 -16.280143 -29.240403 46.161190 0.473251 2.256789 0.050522 -0.013255 77641.900000 0 0 1
-31.454357 -17.522643 -29.856653 46.774345 0.508264 2.263101 0.045696 -0.005583 -805856.000000 0 0 1
-32.535847 -18.353243 -30.021173 47.923833 0.513599 2.247768 0.027696 -0.009480 -941315.000000 0 0 1
-32.318837 -19.821243 -30.483963 48.648340 0.550144 2.248003 0.023059 -0.010782 199586.000000 0 0 1
-33.530677 -20.486743 -30.807213 49.930926 0.548458 2.235717 0.010561 -0.011414 266197.000000 0 0 1
-33.173877 -21.748943 -31.363953 50.568965 0.580305 2.239821 0.007905 -0.009971 -12030.900000 0 0 1
-34.339832 -22.734243 -31.589113 51.903198 0.584791 2.225111 0.013354 -0.012261 -17834.600000 0 0 1
-35.037504 -23.190843 -30.416943 51.871306 0.584686 2.197394 -0.012037 -0.001341 78188.200000 0 0 1
35.052778 -24.168943 -30.730113 52.508808 -0.603645 2.195969 -0.002803 0.002280 -84501.400000 0 0 1
-35.489596 -25.566713 -31.189863 53.721279 0.624287 2.190245 -0.005697 0.007598 -178733.000000 0 0 1
-34.927704 -25.698233 -32.458953 54.165740 0.634322 2.213363 -0.002403 0.002989 -412386.000000 0 0 1
-34.378333 -26.951323 -32.739953 54.590733 0.664885 2.213966 0.003828 -0.006894 -303558.000000 0 0 1
-34.720703 -27.642123 -34.065603 55.947114 0.672375 2.225456 0.015342 -0.015615 -161352.000000 0 0 1
35.038985 -28.199053 -34.128152 56.459259 -0.677655 2.219902 0.022986 -0.006120 -102688.000000 0 0 1
34.861521 -29.310233 33.799695 56.717148 -0.699106 0.932368 0.021292 -0.002325 -337972.000000 0 0 1
-35.499711 -30.515943 34.313851 58.042163 0.710047 0.938265 0.020732 -0.009050 -163682.000000 0 0 1
35.041650 -31.001853 -33.253773 57.400746 -0.724306 2.188698 0.024087 -0.010002 -574849.000000 0 0 1
-35.020404 -31.665723 -32.562323 57.353741 0.735135 2.174561 0.025204 -0.020728 -635275.000000 0 0 1
-35.359994 -32.009093 -31.077163 56.927158 0.735700 2.148272 0.029034 -0.018426 563373.000000 0 0 1
34.610511 -32.946483 -30.938713 56.925937 -0.760772 2.145386 0.035174 -0.015407 710076.000000 0 0 1
34.308411 -33.277513 -29.629603 56.234984 -0.770146 2.125733 0.035010 -0.015875 -354642.000000 0 0 1
33.251391 -34.367811 -29.427453 56.149590 -0.801907 2.122443 0.029187 -0.009554 244951.000000 0 0 1
31.939761 -33.864563 -29.679323 55.207058 -0.814640 2.138385 0.034125 -0.008263 18475.600000 0 0 1
30.971761 34.151033 -29.307103 54.630114 0.834179 2.137038 0.040915 -0.008388 130295.000000 0 0 1
29.559991 34.395456 -29.899423 54.321414 0.860861 2.153660 0.025621 -0.000792 157073.000000 0 0 1
29.295741 33.984360 -31.208043 54.654544 0.859356 2.178526 0.019095 0.001679 -785696.000000 0 0 1
28.070091 34.462657 -31.628613 54.552488 0.887272 2.189259 0.016196 -0.002533 -770709.000000 0 0 1
27.793421 33.936768 -33.054663 54.925306 0.884591 2.216563 0.015123 -0.015812 19579.400000 0 0 1
27.710931 32.529590 -33.127323 54.069303 0.865219 2.230247 0.008259 -0.005087 90099.500000 0 0 1
27.345721 32.144910 34.371967 54.428998 0.865895 0.887309 0.018989 -0.016875 -301414.000000 0 0 1
27.322361 30.591820 34.141190 53.366579 0.841792 0.876625 0.017892 -0.010656 -1230470.000000 0 0 1
28.539921 29.922130 33.975601 53.518244 0.809037 0.882993 0.017499 -0.002262 -670441.000000 0 0 1
28.431611 28.529900 34.031374 52.729936 0.787124 0.869263 0.021161 -0.006407 413363.000000 0 0 1
29.823191 27.866780 34.207268 53.255210 0.751499 0.873266 0.025449 -0.010381 545546.000000 0 0 1
30.386401 28.154080 -33.317833 53.160734 0.747284 2.248156 0.028695 -0.002147 -314172.000000 0 0 1
31.725071 27.732660 -33.208493 53.650579 0.718352 2.238236 0.036893 -0.006802 180444.000000 0 0 1
32.475891 28.052670 -31.901493 53.472807 0.712451 2.210045 0.030645 -0.005529 -375243.000000 0 0 1
32.988421 29.327400 -31.705423 54.346722 0.726716 2.193695 0.017527 -0.001362 57913.800000 0 0 1
32.056591 30.371900 -31.479543 54.231347 0.758419 2.190099 0.030965 0.003915 904287.000000 0 0 1
31.114431 30.360810 -30.183333 52.923721 0.773140 2.177689 0.036678 0.002278 631590.000000 0 0 1
31.902271 30.464090 -29.014933 52.798504 0.762342 2.152611 0.020772 0.002257 268663.000000 0 0 1
31.026261 30.624350 -27.910983 51.763913 0.778879 2.140281 0.038864 0.002901 -353794.000000 0 0 1
31.705011 30.991530 -26.562123 51.683934 0.774019 2.110561 0.041289 -0.001788 -176256.000000 0 0 1
32.033471 32.359060 -26.479783 52.672868 0.790454 2.097540 0.043375 0.001595 370461.000000 0 0 1
32.734941 32.729260 -25.266133 52.736689 0.785311 2.070425 0.027137 -0.001659 64119.400000 0 0 1
32.988581 34.261686 -25.265143 53.855706 0.804327 2.059098 0.026545 -0.002256 -207103.000000 0 0 1
31.898131 -33.882973 -24.906953 52.781654 -0.815562 2.062226 0.045615 0.002128 -93497.700000 0 0 1
32.230131 -32.528673 -24.610253 51.986157 -0.790008 2.063943 0.035997 -0.003193 -895485.000000 0 0 1
32.611591 -31.589423 -25.759513 52.201150 -0.769478 2.086867 0.027949 -0.002148 -443801.000000 0 0 1
33.837501 -31.851703 -26.350533 53.421514 -0.755177 2.086626 0.033749 -0.005069 -969067.000000 0 0 1
34.944141 -31.269623 -25.712493 53.479105 -0.729960 2.072358 0.036330 0.001489 -193371.000000 0 0 1
-34.778376 -31.841563 -26.313943 53.998558 0.741344 2.079801 0.006629 0.002802 -131964.000000 0 0 1
-34.395494 -33.146553 -25.870743 54.323470 0.766909 2.067164 0.006037 0.001944 -85370.700000 0 0 1
-33.978307 -33.351973 -24.528453 53.558608 0.776096 2.046511 0.012469 0.001674 392134.000000 0 0 1
-32.708637 -32.596193 -23.991953 52.038261 0.783676 2.049968 0.004864 0.002586 436332.000000 0 0 1
-32.899087 -31.155603 -24.005453 51.276538 0.758186 2.058000 -0.004908 -0.005524 -219168.000000 0 0 1
-32.649437 -30.650083 -22.673353 50.194565 0.753823 2.039477 0.005554 -0.014956 -172849.000000 0 0 1
-32.476447 -29.127553 -22.602353 49.132478 0.731090 2.048824 0.011615 -0.004055 -399677.000000 0 0 1
-33.614397 -28.377503 -22.855453 49.574007 0.701121 2.049960 0.000120 0.001713 -764835.000000 0 0 1
-33.672347 -28.106013 -24.270753 50.128280 0.695539 2.076214 -0.006528 0.003454 -36974.700000 0 0 1
-34.931188 -27.312343 -24.699053 50.756234 0.663600 2.079014 -0.001547 0.003761 62916.500000 0 0 1
-34.972026 -25.989833 -24.173753 49.828550 0.639110 2.077318 -0.004385 0.010730 -488402.000000 0 0 1
35.204124 -25.176843 -24.881553 49.922896 -0.620833 2.092548 0.002427 0.012526 -821301.000000 0 0 1
-35.461952 -24.565043 -26.215213 50.479984 0.605820 2.116850 0.000104 0.011518 -862873.000000 0 0 1
-34.373633 -23.700843 -25.977673 49.174345 0.603649 2.127366 -0.007604 0.008442 -248749.000000 0 0 1
-34.163713 -22.888743 -27.125373 49.262965 0.590288 2.153908 -0.006136 -0.000422 455764.000000 0 0 1
-32.813337 -22.108843 -26.995953 47.898826 0.592908 2.169538 0.000446 -0.013614 248077.000000 0 0 1
-32.736987 -21.053943 -25.998213 46.806901 0.571526 2.159683 0.012878 -0.010495 163703.000000 0 0 1
-33.614877 -19.946543 -26.241883 47.079306 0.535541 2.162044 0.010081 -0.009398 -40014.800000 0 0 1
-34.855630 -19.845743 -25.330563 47.438444 0.517593 2.134082 0.019428 -0.011932 -131046.000000 0 0 1
-34.644401 -19.517743 -23.997153 46.443947 0.513053 2.113777 0.014071 -0.009838 -253372.000000 0 0 1
-33.929227 -20.397743 -23.161453 45.866255 0.541290 2.100153 -0.003209 -0.003849 14522.100000 0 0 1
-34.676043 -21.743343 -22.734453 46.819401 0.560067 2.077820 0.013701 0.001508 745865.000000 0 0 1
35.291473 -21.488843 -21.847753 46.739521 -0.546935 2.057185 0.008952 0.002977 248258.000000 0 0 1
34.654501 -22.673343 -21.370453 46.601623 -0.579370 2.047190 0.010381 0.012116 145564.000000 0 0 1
33.390591 -22.493343 -20.498753 45.178324 -0.592817 2.041743 0.004655 0.017500 -98275.900000 0 0 1
32.354771 -21.776243 -21.157453 44.369740 -0.592406 2.067857 0.015247 0.022644 -310689.000000 0 0 1
31.270281 -21.861543 -20.244453 43.192540 -0.610132 2.058618 0.015151 0.017351 168163.000000 0 0 1
29.961501 -21.347443 -20.915053 42.318369 -0.619063 2.087746 0.015932 0.012847 -295601.000000 0 0 1
29.388011 -22.113243 -21.988153 42.850083 -0.645072 2.109637 0.017540 0.025854 185435.000000 0 0 1
28.250651 -21.474543 -22.530653 42.034339 -0.649961 2.136495 0.031089 0.015296 -31341.200000 0 0 1
28.433941 -20.128043 -23.332153 41.928708 -0.616000 2.160930 0.024581 0.004621 -782243.000000 0 0 1
28.725201 -19.024543 -22.554753 41.179939 -0.584970 2.150424 0.022184 0.011027 132650.000000 0 0 1
28.728451 -17.855443 -23.412453 41.137377 -0.556096 2.176242 0.010678 0.005964 -544620.000000 0 0 1
29.339561 -16.590743 -22.782953 40.683235 -0.514645 2.165192 0.003135 0.003147 -598670.000000 0 0 1
28.652801 -16.005043 -21.673053 39.330213 -0.509411 2.154423 -0.016287 -0.002119 -37004.900000 0 0 1
29.398691 -15.302043 -20.718953 39.085939 -0.479913 2.129500 -0.016595 0.001877 -156795.000000 0 0 1
30.275781 -16.220543 -19.729553 39.610406 -0.491844 2.092191 -0.012400 -0.000282 1114510.000000 0 0 1
31.495191 -16.543043 -20.420153 41.019532 -0.483648 2.091874 -0.004195 -0.001369 200614.000000 0 0 1
32.218521 -17.590943 -19.872353 41.741884 -0.499758 2.066985 -0.002432 0.009342 -120129.000000 0 0 1
33.430541 -17.950643 -20.763153 43.254309 -0.492771 2.071480 0.005002 -0.004132 -106571.000000 0 0 1
34.417751 -16.949643 -20.817453 43.649037 -0.457604 2.067953 0.009052 -0.008081 136278.000000 0 0 1
35.433924 -17.444543 -21.698953 45.063507 -0.457478 2.073184 0.021340 -0.010853 379578.000000 0 0 1
-34.745512 -16.271243 -22.285053 44.369219 0.437966 2.097011 0.041254 -0.016049 682318.000000 0 0 1
-33.735807 -15.839343 -21.344753 42.948667 0.438961 2.090915 0.057917 -0.020566 -15568.500000 0 0 1
-32.999527 -14.778343 -21.835053 42.239055 0.421052 2.114069 0.060084 -0.019855 -980256.000000 0 0 1
-31.856747 -14.385543 -20.883753 40.717654 0.424159 2.109346 0.066073 -0.020861 196299.000000 0 0 1
-30.734687 -15.268743 -20.879753 40.171129 0.461078 2.117378 0.068668 -0.026167 136188.000000 0 0 1
-30.966327 -16.536443 -20.306353 40.555091 0.490487 2.095216 0.057876 -0.026760 -912097.000000 0 0 1
-29.820047 -17.575243 -20.175353 40.064564 0.532572 2.098523 0.042503 -0.030139 264114.000000 0 0 1
-30.247037 -18.867943 -19.731053 40.745515 0.557732 2.076303 0.043582 -0.033625 836534.000000 0 0 1
-29.093057 -19.688843 -19.911953 40.379976 0.594954 2.086463 0.054698 -0.035574 593047.000000 0 0 1
-29.384847 -21.064943 -19.319753 40.993340 0.621955 2.061549 0.039948 -0.017731 387335.000000 0 0 1
-30.409367 -21.765343 -20.041053 42.427628 0.621215 2.062761 0.027491 -0.009721 632193.000000 0 0 1
-30.548317 -23.135043 -19.657253 43.067825 0.648173 2.044770 0.025639 0.008471 -1249.440000 0 0 1
-31.548477 -23.917743 -20.528753 44.595903 0.648682 2.049161 0.011361 0.005254 -133767.000000 0 0 1
-31.109807 -23.975343 -21.861153 44.950498 0.656598 2.078691 0.007818 -0.004651 128128.000000 0 0 1
-31.881887 -24.856743 -22.635253 46.332139 0.662209 2.081216 0.007523 -0.002157 -215410.000000 0 0 1
-31.470737 -24.967743 -24.099053 46.846130 0.670681 2.111139 0.001981 0.003590 246539.000000 0 0 1
-30.153657 -25.430853 -24.352753 46.357609 0.700636 2.123892 -0.001101 -0.007253 -2231.450000 0 0 1
-30.020737 -25.983543 -25.662693 47.275396 0.713435 2.144604 0.000193 0.001404 -275713.000000 0 0 1
-28.562017 -26.282123 -26.029593 46.734126 0.743852 2.161532 0.016943 -0.011317 -164364.000000 0 0 1
-27.870237 -25.050163 -26.127413 45.682628 0.732160 2.179657 0.021400 -0.008960 432528.000000 0 0 1
-26.473177 -25.289893 -26.382903 45.127214 0.762543 2.195225 0.026259 -0.010461 807263.000000 0 0 1
-25.716957 -24.025943 -26.832853 44.256185 0.751416 2.222205 0.034520 -0.007237 -240589.000000 0 0 1
-25.930547 -23.626243 -28.162853 44.985986 0.738933 2.247256 0.028205 -0.016564 451104.000000 0 0 1
-25.074347 -22.488143 -28.467933 44.100598 0.731077 2.272504 0.028935 -0.021515 554263.000000 0 0 1
-24.979037 -22.063843 -29.977283 44.826365 0.723508 2.303312 0.028580 -0.022734 124696.000000 0 0 1
-24.255237 -22.983643 -30.787123 45.435794 0.758486 2.315286 0.036932 -0.025158 269713.000000 0 0 1
-24.271437 -22.523443 -32.133623 46.140849 0.748061 2.341200 0.033951 -0.024962 -69379.700000 0 0 1
-23.775937 -23.629843 -33.107413 47.114388 0.782316 2.349986 0.027080 -0.027362 -65083.900000 0 0 1
-24.679637 -24.684343 -33.153513 48.141009 0.785493 2.330456 0.010248 -0.023958 -164171.000000 0 0 1
-24.166737 -25.747823 -33.960463 48.992802 0.817063 2.336678 0.038435 -0.018747 153494.000000 0 0 1
-19.656037 -14.761343 -11.652053 27.203445 0.644130 2.013440 0.017218 0.003139 189543.000000 0 0 1
-19.896437 -14.147143 -10.458553 26.559202 0.618096 1.975539 0.025911 0.000553 -215860.000000 0 0 1
-19.170237 -14.761243 -9.437153 25.970217 0.656184 1.942694 0.012309 -0.007593 -235837.000000 0 0 1
-19.518437 -14.246843 -8.038753 25.466910 0.630524 1.891943 0.020578 -0.018853 443481.000000 0 0 1
-20.792537 -14.641943 -7.512253 26.516977 0.613534 1.858029 0.045085 -0.015802 659460.000000 0 0 1
-20.997037 -14.105243 -6.224753 26.049588 0.591529 1.812089 0.043081 -0.022416 -95860.100000 0 0 1
-22.271137 -14.730143 -5.653353 27.293609 0.584348 1.779438 0.048759 -0.024944 -548354.000000 0 0 1
-21.982337 -16.081243 -5.231453 27.734413 0.631590 1.760560 0.040518 -0.022036 708066.000000 0 0 1
-21.402737 -16.140443 -3.913053 27.090645 0.646139 1.715746 0.042135 -0.020635 -26721.900000 0 0 1
-21.050937 -17.540443 -3.410853 27.612371 0.694682 1.694639 0.023355 -0.007262 751806.000000 0 0 1
-22.216537 -18.379943 -3.162353 29.006850 0.691172 1.680034 0.034445 -0.007770 1054800.000000 0 0 1
-22.055137 -19.463243 -2.278353 29.503183 0.723051 1.648097 0.018681 0.007494 80829.800000 0 0 1
-23.357737 -20.304043 -2.289553 31.033532 0.715572 1.644640 0.006887 -0.003170 247923.000000 0 0 1
-23.432237 -21.141543 -3.387753 31.741321 0.734052 1.677730 0.002845 -0.009805 474154.000000 0 0 1
-24.423837 -22.159743 -3.145853 33.128152 0.736834 1.665900 0.015909 -0.006458 499190.000000 0 0 1
-24.452237 -23.261243 -4.208153 34.010379 0.760442 1.694846 0.011967 0.006776 -678709.000000 0 0 1
-23.242037 -23.941943 -4.111853 33.620177 0.800231 1.693406 0.008828 0.008460 -672753.000000 0 0 1
-23.060137 -24.835343 -5.151053 34.279696 0.822445 1.721633 0.013097 0.003355 -107718.000000 0 0 1
-21.626537 -24.663143 -5.690153 33.291975 0.850904 1.742556 0.006124 0.006699 -126543.000000 0 0 1
-21.265437 -23.518943 -6.417253 32.350281 0.835675 1.770489 0.001785 0.010879 73911.000000 0 0 1
-21.221037 -22.291643 -5.662153 31.293925 0.809998 1.752733 -0.002221 0.011419 -700280.000000 0 0 1
-21.267637 -20.904343 -6.350153 30.489808 0.776784 1.780604 0.010036 0.007333 290834.000000 0 0 1
-20.028337 -20.600043 -6.973253 29.565560 0.799469 1.808897 -0.008698 0.009424 145846.000000 0 0 1
-20.119537 -19.317443 -7.488253 28.879635 0.765062 1.833085 -0.011775 0.014305 190751.000000 0 0 1
-18.930137 -18.898143 -8.369553 28.027475 0.784552 1.874042 0.008166 0.006949 -9305.110000 0 0 1
-18.938037 -19.606443 -9.592253 28.897633 0.802738 1.909155 -0.009574 0.002306 699267.000000 0 0 1
-17.691637 -19.422243 -10.299853 28.218869 0.831994 1.944428 0.010920 -0.000136 783380.000000 0 0 1
-17.353637 -18.049343 -10.985553 27.342456 0.805047 1.984252 0.005890 0.004408 -231551.000000 0 0 1
-16.918937 -16.971543 -10.158953 26.028601 0.786950 1.971753 0.003508 -0.002228 128300.000000 0 0 1
-15.586837 -17.024943 -9.685653 25.032181 0.829467 1.968094 0.017163 -0.000533 -282899.000000 0 0 1
-15.398637 -15.932143 -8.663553 23.790931 0.802425 1.943520 0.014058 -0.001915 -125841.000000 0 1 0
-16.155137 -16.044443 -7.470853 23.963019 0.781960 1.887847 0.002981 0.000515 250360.000000 0 1 0
-15.996737 -14.916543 -6.603553 22.847446 0.750470 1.864008 -0.002454 -0.003614 -275096.000000 0 1 0
-16.892137 -15.165143 -5.381053 23.329844 0.731578 1.803543 0.010207 -0.011772 -89435.000000 0 1 0
-17.114637 -14.037943 -4.633253 22.615077 0.686955 1.777132 0.006544 -0.008975 151343.000000 0 1 0
-17.688537 -14.322543 -3.344153 23.004412 0.680632 1.716683 0.016690 -0.009003 -70864.700000 0 1 0
-18.434337 -13.229843 -2.572353 22.835730 0.622489 1.683682 0.016558 -0.008588 -487724.000000 0 1 0
-19.735137 -13.039943 -3.060053 23.851199 0.583894 1.699449 0.031967 -0.018209 55903.800000 0 1 0
-20.487337 -12.173443 -2.217253 23.934075 0.536139 1.663569 0.033001 -0.012610 -609505.000000 0 1 0
-21.967637 -12.213643 -2.580553 25.266765 0.507425 1.673107 0.033192 -0.012034 -672704.000000 0 0 1
-22.302437 -11.691743 -3.831053 25.471014 0.482848 1.721778 0.036074 -0.022630 1005740.000000 0 0 1
-23.731437 -11.775943 -3.992453 26.791671 0.460617 1.720372 0.029403 -0.013460 1014600.000000 0 0 1
-24.344737 -11.200043 -5.293753 27.315399 0.431188 1.765832 0.040640 -0.022364 63288.700000 0 0 1
-24.063937 -12.032143 -6.398753 27.654830 0.463653 1.804291 0.044582 -0.030301 374739.000000 0 0 1
-24.675637 -11.438243 -7.544253 28.224745 0.434060 1.841378 0.056781 -0.031197 -186565.000000 0 0 1
-23.788837 -11.626643 -8.782253 27.896516 0.454602 1.891059 0.071070 -0.028968 887206.000000 0 0 1
-22.623437 -10.759143 -8.858053 26.571492 0.443917 1.910669 0.058328 -0.024898 672296.000000 0 0 1
-21.781337 -11.233943 -9.863553 26.418134 0.476176 1.953428 0.039810 -0.018358 -701462.000000 0 0 1
-20.431437 -10.523543 -9.886753 25.018723 0.475628 1.977054 0.030807 -0.012986 -780693.000000 0 0 1
-20.521637 -9.145743 -10.325853 24.726615 0.419242 2.001600 0.029994 -0.012537 8778.830000 0 1 0
-19.488937 -8.318743 -9.870853 23.376354 0.403432 2.006731 0.028837 -0.012326 -431426.000000 0 1 0
-19.236337 -6.955143 -10.628553 23.051613 0.346938 2.050004 0.021351 -0.017495 -94459.000000 0 1 0
-18.730637 -7.178243 -11.928453 23.337780 0.365971 2.107286 0.029687 -0.013243 317392.000000 0 1 0
-18.779437 -5.945043 -12.661153 23.416140 0.306590 2.142068 0.047312 -0.022311 -19684.000000 0 1 0
-18.045537 -6.005043 -14.027553 23.632059 0.321245 2.206298 0.049948 -0.016780 314336.000000 0 1 0
-18.821937 -6.625943 -15.082653 25.013094 0.338485 2.218041 0.054692 -0.015137 499761.000000 0 0 1
-18.143637 -6.592943 -16.306153 25.269529 0.348540 2.272198 0.059594 -0.016870 -329135.000000 0 0 1
-18.701137 -7.460943 -17.411553 26.618798 0.379607 2.283798 0.053393 -0.008477 208452.000000 0 0 1
-20.014337 -7.164543 -17.879553 27.777379 0.343758 2.270085 0.050585 -0.009811 671243.000000 0 0 1
-20.472537 -7.993943 -18.893153 28.982394 0.372265 2.280862 0.057950 -0.008860 -488967.000000 0 0 1
-21.890037 -7.675643 -19.378053 30.225787 0.337250 2.266740 0.045718 -0.010695 -751868.000000 0 0 1
-22.000037 -6.405543 -20.006153 30.418396 0.283328 2.288557 0.050684 -0.013476 411316.000000 0 0 1
-23.151037 -6.069643 -20.775453 31.692753 0.256405 2.285677 0.035217 -0.012989 75990.100000 0 0 1
-24.382337 -5.645643 -19.990153 32.030890 0.227537 2.244762 0.044377 -0.006646 -486683.000000 0 0 1
-24.259037 -4.328043 -19.452953 31.395067 0.176552 2.239052 0.045466 -0.007541 547792.000000 0 0 1
-25.464567 -3.981443 -18.763953 31.880747 0.155097 2.200081 0.055009 -0.001520 268131.000000 0 0 1
-25.673747 -2.439643 -18.394953 31.677555 0.094740 2.190377 0.041405 -0.000417 -7116.370000 0 0 1
-26.012087 -1.566643 -19.460253 32.523599 0.060155 2.212227 0.053109 -0.007547 46823.000000 0 0 1
-27.416227 -1.561843 -19.604053 33.740299 0.056906 2.190787 0.058050 -0.001221 182381.000000 0 0 1
-27.963617 -0.379143 -20.529053 34.692214 0.013558 2.204022 0.049476 0.002712 162598.000000 0 0 1
-27.303177 -0.341943 -21.791353 34.934847 0.012523 2.244355 0.051991 -0.001035 4843.500000 0 0 1
-27.712157 -1.327243 -22.723553 35.862029 0.047857 2.257043 0.052523 0.004863 -246173.000000 0 0 1
-27.040557 -1.400543 -24.099553 36.248334 0.051748 2.298084 0.047368 0.005362 -543381.000000 0 0 1
-27.352767 -0.326943 -24.936253 37.014828 0.011952 2.309977 0.041903 0.011446 -4197.950000 0 0 1
-27.084817 1.035957 -24.603853 36.606149 -0.038230 2.307869 0.046241 0.015544 -194896.000000 0 0 1
-25.653707 1.354357 -24.132053 35.246319 -0.052745 2.324945 0.043167 0.002621 -285863.000000 0 0 1
-24.646837 1.094957 -25.065753 35.170407 -0.044397 2.364128 0.034208 0.002035 556382.000000 0 0 1
-23.296137 1.195757 -24.569953 33.879529 -0.051284 2.382143 0.028928 0.000405 1147240.000000 0 0 1
-22.291337 0.503657 -25.514773 33.884525 -0.022590 2.423393 0.025385 -0.001152 -178089.000000 0 0 1
-22.170637 1.149257 -26.793763 34.796030 -0.051791 2.449674 0.002853 0.002687 164837.000000 0 0 1
-21.217737 0.511057 -27.627853 34.838941 -0.024082 2.486541 -0.014409 -0.003812 24508.200000 0 0 1
-21.040037 1.245357 -28.959493 35.817403 -0.059121 2.512448 -0.006538 0.010923 -484638.000000 0 0 1
-20.279137 2.410757 -29.013143 35.479820 -0.118323 2.528264 0.000667 0.008612 123981.000000 0 0 1
-20.404837 3.133457 -30.202273 36.583511 -0.152374 2.542009 -0.006759 0.008890 -91578.700000 0 0 1
-19.610737 2.540257 -31.426353 37.130171 -0.128817 2.579953 -0.003884 0.009070 -1081350.000000 0 0 1
-18.241537 2.522357 -31.328223 36.339697 -0.137404 2.610183 -0.014301 0.009891 -1005390.000000 0 0 1
-17.623237 1.966957 -32.494373 37.017992 -0.111152 2.642045 -0.014688 0.006228 191778.000000 0 0 1
-16.092137 1.764057 -32.373353 36.195342 -0.109186 2.677899 -0.002682 -0.004677 -127075.000000 0 0 1
-15.460737 3.017357 -32.343173 35.975265 -0.192740 2.688367 0.001164 0.001573 -1153070.000000 0 0 1
-14.119737 2.919357 -32.656333 35.697699 -0.203884 2.725814 0.001395 0.003996 -1058820.000000 0 0 1
-13.542037 4.223257 -33.143763 36.051792 -0.302304 2.737190 0.014903 0.018105 -509030.000000 0 0 1
-13.218737 5.073757 -32.091903 35.076606 -0.366490 2.726079 0.030392 0.000902 125978.000000 0 0 1
-12.781337 6.336357 -32.585963 35.571857 -0.460242 2.728940 0.032976 0.013534 -183625.000000 0 0 1
-12.266737 7.288057 -31.456423 34.541210 -0.536093 2.715754 0.046009 0.001850 495088.000000 0 0 1
-11.040337 6.824257 -30.879303 33.496133 -0.553637 2.743692 0.060210 -0.011567 793640.000000 0 0 1
-11.268437 5.830857 -29.867233 32.450396 -0.477510 2.739890 0.055221 -0.012051 -309816.000000 0 0 1
-9.953637 5.120757 -29.468783 31.523106 -0.475149 2.778580 0.067485 -0.026983 124615.000000 0 0 1
-9.363837 4.138857 -30.370383 32.049521 -0.416185 2.816459 0.060206 -0.027071 511330.000000 0 0 1
-10.266637 3.142257 -30.793493 32.611606 -0.297012 2.806104 0.059301 -0.023649 -512172.000000 0 0 1
-9.673637 2.268957 -31.869243 33.382272 -0.230386 2.839365 0.048345 -0.020113 -313160.000000 0 0 1
-10.583637 1.267757 -32.283463 33.997685 -0.119217 2.822684 0.050110 -0.023787 323051.000000 0 0 1
-10.156137 0.504157 -33.375183 34.889886 -0.049600 2.845851 0.044712 -0.016299 -648903.000000 0 0 1
-10.626937 1.055257 34.075774 35.709995 -0.098976 0.303701 0.035419 -0.012968 275513.000000 0 0 1
-12.024637 1.056057 33.812811 35.902832 -0.087600 0.342891 -0.005735 -0.007269 217785.000000 0 0 1
-12.269337 1.142257 32.435580 34.697381 -0.092831 0.363063 -0.009313 0.003174 773280.000000 0 0 1
-13.825337 1.135157 32.197600 35.058722 -0.081923 0.406803 -0.012802 0.015149 718921.000000 0 0 1
-14.362337 2.419857 32.104950 35.254224 -0.166919 0.425894 -0.019817 0.017674 -192040.000000 0 0 1
-15.620837 2.318757 31.480700 35.219621 -0.147364 0.464959 -0.025180 0.007847 367823.000000 0 0 1
-16.398537 3.708657 31.226410 35.464840 -0.222416 0.493903 -0.015605 0.003608 480898.000000 0 0 1
-17.169137 4.184657 32.331660 36.845989 -0.239070 0.500212 -0.013010 0.008510 598219.000000 0 0 1
-16.426837 5.007557 33.232228 37.407187 -0.295891 0.476967 -0.014258 0.021817 -485969.000000 0 0 1
-17.175237 5.179957 -34.296593 38.705000 -0.292919 2.659663 -0.010624 0.025507 -234599.000000 0 0 1
-18.296737 6.015057 -34.399730 39.424522 -0.317620 2.631187 -0.021308 0.016562 236360.000000 0 0 1
-19.358037 5.718157 -33.477883 39.092194 -0.287221 2.599019 -0.019396 0.019161 1083250.000000 0 0 1
-20.595337 6.669557 -33.650053 40.012211 -0.313181 2.569915 -0.015477 0.008689 142055.000000 0 0 1
-20.446137 8.048157 -33.302803 39.898547 -0.375001 2.558361 -0.019431 0.009961 269316.000000 0 0 1
-19.645637 8.776357 -34.216736 40.419804 -0.420134 2.580236 -0.028166 0.010969 -212745.000000 0 0 1
-19.720637 10.268057 -33.954993 40.586674 -0.480051 2.561852 -0.016113 0.015616 -554786.000000 0 0 1
-18.944637 10.776257 -32.879443 39.447241 -0.517184 2.556216 -0.008921 0.019726 252921.000000 0 0 1
-18.694437 12.197757 -32.822503 39.693626 -0.578117 2.544362 0.003475 0.010340 76775.200000 0 0 1
-17.893037 12.765557 -34.049763 40.527850 -0.619687 2.568369 -0.000156 0.012124 -817007.000000 0 0 1
-18.674837 12.910357 33.608522 40.558102 -0.604879 0.594102 -0.001125 0.009710 -262401.000000 0 0 1
-18.063037 13.094957 32.345190 39.293289 -0.627281 0.603819 0.000259 0.007525 -351433.000000 0 0 1
-18.789337 12.317257 31.205710 38.451923 -0.580263 0.623994 -0.002653 0.003452 -113091.000000 0 0 1
-18.834837 10.929257 31.249240 38.088250 -0.525784 0.608611 -0.007454 0.004525 614723.000000 0 0 1
-17.571837 10.248057 31.151620 37.205048 -0.527982 0.578478 -0.001070 -0.002613 650075.000000 0 0 1
-17.613337 8.726457 31.177520 36.856729 -0.459998 0.562525 -0.002197 0.004716 88061.300000 0 0 1
-18.318137 8.187457 30.060930 36.142055 -0.420322 0.588555 0.006048 -0.008886 267839.000000 0 0 1
-18.367837 6.814057 30.186240 35.986358 -0.355240 0.575676 -0.001812 -0.001479 -91069.000000 0 0 1
-19.041737 6.171357 28.932250 35.181650 -0.313414 0.605236 0.003131 -0.007778 -15810.700000 0 0 1
-20.450937 6.118757 28.982270 35.995167 -0.290715 0.634832 0.018069 -0.015693 -151651.000000 0 0 1
-20.961937 4.977457 28.323720 35.586669 -0.233134 0.650290 0.012150 -0.018230 956539.000000 0 0 1
-22.514137 5.135957 28.082400 36.357745 -0.224283 0.688199 0.007663 0.000386 800255.000000 0 0 1
-22.817037 5.851457 26.885190 35.744513 -0.251041 0.719480 0.015634 -0.006768 -138453.000000 0 0 1
-24.199537 6.045157 26.719210 36.552397 -0.244795 0.751034 0.008423 -0.003794 -250893.000000 0 0 1
-24.516237 6.951157 25.444020 36.010591 -0.276282 0.786156 0.012622 -0.004281 -156192.000000 0 0 1
-24.483437 6.304757 24.205750 35.001529 -0.252035 0.807146 0.014273 -0.003638 973852.000000 0 0 1
-25.587297 5.401057 23.929890 35.447438 -0.208030 0.829722 0.016642 -0.001198 266843.000000 0 0 1
-25.700687 4.734457 22.508630 34.490272 -0.182173 0.859775 0.025090 -0.002593 302255.000000 0 0 1
-26.660367 5.292157 21.585530 34.709037 -0.195955 0.899630 0.021875 -0.001247 488246.000000 0 0 1
-26.625127 4.642157 20.305230 33.804577 -0.172617 0.926464 0.034633 -0.001331 309029.000000 0 0 1
-27.534817 5.329957 19.212430 33.995472 -0.191207 0.970185 0.029634 -0.004597 187423.000000 0 0 1
-28.895497 5.012557 19.328830 35.123769 -0.171763 0.988065 0.029614 -0.008060 -355608.000000 0 0 1
-29.676767 5.647457 18.336730 35.338930 -0.188050 1.025254 0.028758 -0.004973 -1042990.000000 0 0 1
-31.112677 5.758457 18.754430 36.781615 -0.183013 1.035744 0.024564 -0.003199 -1214280.000000 0 0 1
-31.272957 6.678457 19.834830 37.630043 -0.210393 1.015611 0.031058 -0.013031 27989.200000 0 0 1
-32.563967 6.548457 20.388230 38.974020 -0.198448 1.020284 0.029470 -0.008236 72721.200000 0 0 1
-33.107767 7.815357 21.125930 40.043838 -0.231814 1.015059 0.026377 -0.011307 -167864.000000 0 0 1
-32.418407 8.125857 22.291530 40.173312 -0.245596 0.982573 0.020486 -0.006966 70810.600000 0 0 1
-33.167077 8.991057 23.119530 41.417470 -0.264722 0.978573 0.017978 -0.003285 16308.700000 0 0 1
-0.610237 32.119157 11.447947 34.103784 -1.551799 1.228470 0.022047 0.008923 -260700.000000 0 0 1
-0.388337 32.456857 12.782047 34.885227 -1.558832 1.195656 0.008497 0.001627 109622.000000 0 0 1
-0.279937 33.850557 12.969547 36.251175 -1.562527 1.204919 0.009721 -0.005818 -235315.000000 0 0 1
-0.008137 34.250157 14.424947 37.163859 -1.570559 1.172179 -0.000657 0.000035 39192.800000 0 0 1
-1.139637 34.012957 15.242847 37.289735 -1.537303 1.149693 -0.000639 0.017942 -143490.000000 0 0 1
-1.008637 -34.301297 16.504347 38.078731 1.541400 1.122504 -0.014965 0.003958 457323.000000 0 0 1
-2.277737 -33.948297 17.361047 38.197917 1.503802 1.098983 -0.014433 0.019144 337761.000000 0 0 1
-2.994137 33.937857 17.936647 38.502809 -1.482800 1.086198 -0.016363 0.016065 -54916.100000 0 0 1
-3.816537 34.381557 18.991047 39.462859 -1.460244 1.068729 -0.007885 0.017918 230754.000000 0 0 1
-4.817237 33.278657 19.501947 38.871592 -1.427040 1.045231 -0.006851 0.010772 1161250.000000 0 0 1
-5.964237 33.030557 18.669047 38.407331 -1.392154 1.063197 0.005286 -0.000132 343011.000000 0 0 1
-6.894137 32.170157 19.250447 38.118602 -1.359687 1.041398 0.016019 -0.016018 -131810.000000 0 0 1
-8.125637 31.876057 18.376347 37.680221 -1.321199 1.061352 0.013519 -0.022946 149918.000000 0 0 1
-8.869637 33.063357 17.990747 38.671992 -1.308705 1.086920 0.023198 -0.020169 184097.000000 0 0 1
-9.733037 32.916657 16.882847 38.252697 -1.283301 1.113693 0.036841 -0.019545 18574.500000 0 0 1
-10.557837 34.215357 16.609947 39.472128 -1.271496 1.136467 0.076033 -0.031882 -10625.300000 0 0 1
-11.683637 34.246357 17.438247 40.167310 -1.242014 1.121713 0.072988 -0.029247 -263992.000000 0 0 1
-12.669437 -33.746697 17.074147 39.885845 1.211651 1.128434 0.062430 -0.031840 890887.000000 0 0 1
-13.965837 -33.966697 17.924747 40.866583 1.180704 1.116738 0.085698 -0.033383 422736.000000 0 0 1
-13.726437 -33.605997 19.285047 41.105853 1.183025 1.082462 0.079860 -0.027276 15743.000000 0 0 1
-14.838437 -33.904397 20.099047 42.114831 1.158256 1.073281 0.063544 -0.035158 155849.000000 0 0 1
-14.668437 -33.355397 21.530347 42.323768 1.156489 1.037115 0.062035 -0.040584 -162065.000000 0 0 1
-14.741437 -31.945897 21.517047 41.241164 1.138461 1.021910 0.079451 -0.040617 95639.100000 0 0 1
-14.677837 -31.452997 22.862847 41.562479 1.134175 0.988332 0.049011 -0.035437 107101.000000 0 0 1
-14.700337 -29.902197 22.976547 40.474226 1.113880 0.967107 0.058546 -0.038374 -170533.000000 0 0 1
-14.590737 -29.402397 24.312647 40.847219 1.110159 0.933270 0.053600 -0.034881 -10921.300000 0 0 1
-14.526837 -28.009497 24.475747 39.932732 1.092348 0.911040 0.035486 -0.024858 -161443.000000 0 0 1
-15.854537 -27.264697 24.246447 39.782159 1.044088 0.915391 0.052890 -0.024146 -607452.000000 0 0 1
-16.838837 -27.467297 25.214247 40.911576 1.020836 0.906747 0.077113 -0.025981 3058.150000 0 0 1
-17.873337 -26.515897 24.913447 40.536758 0.977692 0.908931 0.081533 -0.028575 -239225.000000 0 0 1
-19.044337 -26.525597 25.930247 41.697383 0.948118 0.899671 0.077350 -0.019818 -85145.500000 0 0 1
-19.841437 -27.681197 26.116947 42.918833 0.948895 0.916603 0.085645 -0.020012 770396.000000 0 0 1
-20.601137 -28.147897 24.980147 42.903597 0.938987 0.949316 0.076424 -0.023196 -59846.900000 0 0 1
-21.944137 -27.438797 24.653047 42.920921 0.896209 0.958946 0.056487 -0.017091 -260600.000000 0 0 1
-21.947537 -26.113497 24.091947 41.761597 0.871863 0.955877 0.065901 -0.017700 190212.000000 0 0 1
-23.217737 -25.794597 23.568147 41.950949 0.837926 0.974233 0.050719 -0.014279 -117452.000000 0 0 1
-23.605737 -24.351797 23.270147 41.130774 0.800954 0.969442 0.054708 -0.006601 -172405.000000 0 0 1
-23.953937 -23.661097 24.430847 41.599337 0.779248 0.943091 0.056606 -0.006111 -573510.000000 0 0 1
-24.893137 -22.684697 24.183047 41.461832 0.739014 0.948059 0.043262 -0.005550 -393454.000000 0 0 1
-25.395267 -22.116397 25.525447 42.256396 0.716495 0.922209 0.052182 -0.005263 566736.000000 0 0 1
-26.567287 -22.729397 26.099247 43.630458 0.707702 0.929557 0.046222 -0.000311 905483.000000 0 0 1
-26.832687 -22.068097 27.344447 44.212134 0.688271 0.903986 0.041169 -0.003918 -67877.700000 0 0 1
-28.194377 -22.381397 28.041247 45.630706 0.670964 0.909012 0.030085 0.000371 887750.000000 0 0 1
-29.372657 -21.653497 27.604347 45.756168 0.635258 0.923173 0.028197 -0.002655 1151530.000000 0 0 1
-30.021337 -22.228497 26.491147 45.794843 0.637344 0.953939 0.034097 0.002959 196244.000000 0 0 1
-31.077287 -23.324997 26.917347 47.269407 0.643852 0.964965 -0.002110 -0.003360 -606304.000000 0 0 1
-31.839637 -23.939797 25.937747 47.535703 0.644707 0.993635 -0.018313 0.016928 -386003.000000 0 0 1
-31.250957 -24.954897 25.092347 47.212234 0.673845 1.010450 -0.019849 0.010936 -646830.000000 0 0 1
-31.778827 -24.959497 23.654147 46.822954 0.665783 1.041203 -0.025280 0.009198 723220.000000 0 0 1
-33.096007 -25.500297 23.473947 47.923241 0.656489 1.058909 -0.017600 0.006461 686707.000000 0 0 1
-33.232427 -26.052397 22.184247 47.699711 0.664874 1.087070 -0.009073 0.009072 1216900.000000 0 0 1
-34.525551 -26.996397 22.044747 49.059046 0.663622 1.104757 0.017533 0.003245 692651.000000 0 0 1
-34.561978 -28.136597 22.846947 50.081747 0.683274 1.097084 0.022323 -0.001678 364843.000000 0 0 1
-33.605417 -29.177697 22.613447 49.920237 0.714991 1.100678 0.004758 0.006793 32009.200000 0 0 1
-33.962347 -30.247797 21.503647 50.306829 0.727613 1.129126 0.016556 0.010512 -191959.000000 0 0 1
-34.096494 -29.742097 20.169047 49.537397 0.717294 1.151467 0.006619 0.019063 220466.000000 0 0 1
-34.550056 -30.785697 19.447947 50.196495 0.727846 1.172947 0.005819 0.011227 -916175.000000 0 0 1
-34.798516 -30.350297 17.978447 49.551002 0.717226 1.199496 0.001230 0.010752 -176035.000000 0 0 1
-33.699577 -30.068097 17.092647 48.289859 0.728511 1.208995 0.010806 0.008762 454763.000000 0 0 1
-34.116460 -29.473497 15.892047 47.803525 0.712513 1.231901 0.001464 0.011580 164381.000000 0 0 1
-34.816557 -30.488297 14.910347 48.621470 0.719217 1.259112 0.001881 0.007018 279153.000000 0 0 1
-33.941187 -31.478897 14.429647 48.488554 0.747778 1.268630 0.022925 -0.002642 162127.000000 0 0 1
-34.616109 -32.343297 13.514747 49.264716 0.751468 1.292904 0.023539 -0.004090 120604.000000 0 0 1
-34.730811 -31.634897 12.118147 48.516445 0.738783 1.318349 0.028633 -0.013044 -934507.000000 0 0 1
35.224596 -30.846697 12.052447 48.348241 -0.719235 1.318855 0.023398 -0.013552 -972038.000000 0 0 1
35.232417 -30.120597 10.863547 47.608720 -0.707339 1.340584 0.013615 -0.000809 -107865.000000 0 0 1
34.060991 -29.138097 10.722347 46.088486 -0.707660 1.335998 0.025632 0.007031 -273293.000000 0 0 1
34.227341 -28.097697 9.745847 45.342838 -0.687364 1.354169 0.029677 -0.022467 819268.000000 0 0 1
33.053111 -27.297297 9.488647 43.905410 -0.690313 1.352962 0.029800 -0.020165 526466.000000 0 0 1
33.286381 -26.314497 8.326047 43.240710 -0.668951 1.377035 0.030931 -0.012468 53098.200000 0 0 1
34.184201 -25.268097 8.595947 43.369651 -0.636537 1.371273 0.037001 -0.019874 30529.500000 0 0 1
34.138821 -24.428097 7.426947 42.630395 -0.621087 1.395686 0.043603 -0.022799 -240855.000000 0 0 1
34.785311 -23.056797 7.635747 42.425681 -0.585343 1.389831 0.056689 -0.020881 -759372.000000 0 0 1
34.109751 -22.091397 8.373547 41.492424 -0.574726 1.367592 0.047356 -0.017065 -653862.000000 0 0 1
34.590171 -20.763297 8.160047 41.160428 -0.540615 1.371224 0.057608 -0.015538 -36428.300000 0 0 1
33.809551 -19.616197 8.873147 40.082586 -0.525731 1.347576 0.060480 -0.013296 84149.200000 0 0 1
33.889161 -19.725197 10.282247 40.537430 -0.527117 1.314346 0.057831 -0.020043 87171.700000 0 0 1
33.289651 -18.564697 10.877647 39.638013 -0.508714 1.292805 0.057561 -0.011051 143933.000000 0 0 1
33.556181 -18.544597 12.385247 40.290368 -0.504870 1.258337 0.043330 -0.023874 188462.000000 0 0 1
34.848571 -18.050097 12.669147 41.239983 -0.477911 1.258541 0.007652 -0.024474 133469.000000 0 0 1
35.167227 -18.270797 14.037847 42.043038 -0.479157 1.230366 0.009368 -0.014844 39346.100000 0 0 1
-34.621023 -17.524697 14.553647 41.443201 0.468585 1.211975 0.023545 -0.024640 594910.000000 0 0 1
-33.425767 -18.032197 13.967047 40.466288 0.494723 1.218395 0.017462 -0.025782 -292815.000000 0 0 1
-32.302097 -17.646597 14.694447 39.632747 0.499997 1.190963 0.006908 -0.028666 -45373.200000 0 0 1
-31.002357 -17.777697 13.843247 38.325294 0.520654 1.201238 0.021444 -0.024221 215650.000000 0 0 1
-30.493787 -19.110297 13.601347 38.471693 0.559817 1.209442 0.012169 -0.020017 -249631.000000 0 0 1
-29.305327 -18.957597 12.883747 37.204618 0.574192 1.217178 -0.005668 -0.011958 -768162.000000 0 0 1
-28.677767 -20.322497 12.640147 37.352263 0.616508 1.225576 -0.022784 -0.009724 13370.500000 0 0 1
-29.345807 -21.149997 11.662847 38.006852 0.624495 1.258902 -0.017948 -0.005821 286264.000000 0 0 1
-28.470357 -22.239297 11.396547 37.881775 0.663134 1.265218 -0.014082 -0.009982 -389845.000000 0 0 1
-28.871297 -23.042597 10.152247 38.309022 0.673590 1.302583 -0.000060 -0.009778 139116.000000 0 0 1
-29.822177 -24.059597 10.360847 39.693496 0.678855 1.306716 0.001842 -0.002591 -426214.000000 0 0 1
-31.133137 -23.568797 10.395747 40.408316 0.647987 1.310603 0.011969 -0.013467 -1190960.000000 0 0 1
-32.210707 -24.635697 10.550447 41.901780 0.652925 1.316267 0.029089 -0.018429 -419018.000000 0 0 1
-32.363657 -25.352197 9.343947 42.159809 0.664508 1.347309 0.031072 -0.012137 -281123.000000 0 0 1
-33.147197 -26.498997 9.509647 43.489848 0.674396 1.350352 0.042307 -0.011437 54645.000000 0 0 1
-33.215087 -27.291897 8.157847 43.756601 0.687816 1.383262 0.037023 -0.015731 417683.000000 0 0 1
-31.968207 -27.834097 7.747347 43.089727 0.716378 1.390018 0.033048 -0.013812 132408.000000 0 0 1
-32.102617 -28.451897 6.454747 43.379168 0.725183 1.421443 0.025997 -0.014305 -344265.000000 0 0 1
-30.790587 -28.894497 5.782147 42.619074 0.753641 1.434706 0.037058 -0.013574 129653.000000 0 0 1
-30.008027 -27.895797 5.106347 41.288400 0.748936 1.446804 0.045937 -0.013429 -52838.800000 0 0 1
-28.923927 -28.567297 4.494047 40.900861 0.779195 1.460697 0.040210 -0.018148 9070.210000 0 0 1
-27.967417 -27.501997 3.867747 39.414410 0.777008 1.472508 0.043043 -0.014760 248273.000000 0 0 1
-28.536127 -26.833397 2.729747 39.265675 0.754656 1.501220 0.044476 -0.005628 -58777.000000 0 0 1
-27.574847 -25.953197 2.235547 37.933340 0.755112 1.511829 0.044505 -0.002658 -197772.000000 0 0 1
-27.949367 -25.348097 0.871547 37.741923 0.736630 1.547702 0.045306 -0.004750 -80689.700000 0 0 1
-27.807907 -26.200697 -0.306453 38.207985 0.755649 1.578817 0.044788 -0.005791 -185910.000000 0 0 1
-27.992767 -25.571097 -1.582453 37.947071 0.740218 1.612510 0.046302 -0.011914 -155859.000000 0 0 1
-29.454127 -25.437397 -2.043953 38.971586 0.712353 1.623268 0.063542 -0.013893 -310002.000000 0 0 1
-30.190897 -24.447997 -1.406353 38.873804 0.680676 1.606982 0.056025 -0.008876 150113.000000 0 0 1
-31.466327 -24.322097 -2.044853 39.823053 0.658032 1.622167 0.057672 -0.010263 344455.000000 0 0 1
-32.050447 -22.930097 -2.185853 39.468956 0.621012 1.626206 0.045949 -0.012722 -87454.800000 0 0 1
-32.545397 -22.446597 -0.957753 39.547059 0.603780 1.595017 0.047723 -0.018980 391772.000000 0 0 1
-33.404047 -21.325297 -1.001953 39.643443 0.568181 1.596073 0.042051 -0.003702 -116778.000000 0 0 1
-33.537147 -20.657597 0.379847 39.390619 0.552073 1.561153 0.042329 -0.006564 -235890.000000 0 0 1
-34.129286 -21.556997 1.272547 40.387271 0.563351 1.539283 0.045831 -0.005936 179564.000000 0 0 1
-34.292586 -20.929997 2.538447 40.255310 0.547985 1.507696 0.043980 -0.010325 -1370950.000000 0 0 1
-35.171524 -21.709597 3.535847 41.483068 0.553006 1.485457 0.054281 -0.002157 187415.000000 0 0 1
34.547761 -21.822697 3.092747 40.979788 -0.563380 1.495254 0.041699 -0.002819 -26557.300000 0 0 1
33.790041 -20.600297 3.306047 39.712329 -0.547489 1.487450 0.039359 -0.008879 -440526.000000 0 0 1
32.418581 -20.785897 2.614547 38.598624 -0.570144 1.503008 0.019527 -0.002085 -331152.000000 0 0 1
31.512591 -21.689497 3.109947 38.381629 -0.602817 1.489680 0.017955 0.001136 -875473.000000 0 0 1
30.261381 -21.449597 2.507647 37.176938 -0.616615 1.503293 0.016271 0.008522 8947.180000 0 0 1
29.104771 -22.322597 3.004747 36.802371 -0.654276 1.489060 0.010965 0.018164 -33692.300000 0 0 1
29.137711 -23.501997 2.228947 37.500910 -0.678742 1.511324 0.005197 0.001503 64114.100000 0 0 1
27.921231 -24.188497 2.474647 37.024349 -0.713888 1.503908 0.005345 0.004608 285114.000000 0 0 1
27.617471 -25.242197 1.376347 37.440453 -0.740493 1.534027 0.010250 0.001037 -140448.000000 0 0 1
27.208431 -24.702897 0.119147 36.749776 -0.737170 1.567554 0.006554 -0.006239 92894.600000 0 0 1
26.678131 -25.905297 -0.499353 37.189467 -0.770702 1.584224 0.006023 -0.015176 -447966.000000 0 0 1
25.779271 -25.594797 -1.691653 36.366553 -0.781807 1.617330 0.028230 -0.019780 -307137.000000 0 0 1
26.389271 -24.870897 -2.764453 36.367532 -0.755786 1.646884 0.002806 -0.022987 -136228.000000 0 0 1
26.712501 -25.734797 -3.834753 37.289983 -0.766759 1.673814 0.003552 -0.023086 249547.000000 0 0 1
25.644071 -26.164297 -4.958653 36.969948 -0.795439 1.705328 0.015894 -0.032981 640613.000000 0 0 1
25.137371 -25.139897 -5.780153 36.018218 -0.785448 1.731972 0.017916 -0.040470 647464.000000 0 0 1
23.910371 -24.569597 -5.330053 34.695539 -0.798995 1.725031 0.037149 -0.039543 -210024.000000 0 0 1
23.330671 -23.351897 -6.058553 33.560950 -0.785853 1.752315 0.035742 -0.043496 -153701.000000 0 0 1
22.769771 -23.750397 -7.295253 33.701106 -0.806475 1.788993 0.035708 -0.040982 605071.000000 0 0 1
21.811971 -22.783097 -7.825153 32.497148 -0.807171 1.813981 0.045074 -0.043128 482814.000000 0 0 1
22.258271 -21.382197 -8.433453 31.996127 -0.765326 1.837525 0.044054 -0.038283 -612053.000000 0 0 1
22.788771 -21.402997 -9.771853 32.755236 -0.754050 1.873738 0.049814 -0.037638 266178.000000 0 0 1
22.541171 -20.195597 -10.464453 32.022981 -0.730569 1.903690 0.045940 -0.042339 35570.400000 0 0 1
23.205571 -20.109997 -11.916953 32.938189 -0.714054 1.940992 0.037558 -0.036836 1234050.000000 0 0 1
24.631271 -19.935297 -11.806253 33.815724 -0.680416 1.927444 0.040460 -0.026692 651650.000000 0 0 1
25.240471 -19.630797 -13.008553 34.520603 -0.661026 1.957173 0.036474 -0.022328 -254036.000000 0 0 1
26.739981 -19.987397 -12.941553 35.805117 -0.641881 1.940613 0.017129 -0.022380 -206231.000000 0 0 1
26.950871 -21.361697 -13.079053 36.793113 -0.670222 1.934219 0.019865 -0.022375 367613.000000 0 0 1
27.735111 -21.936697 -12.037353 37.354423 -0.669190 1.898899 0.026532 -0.035989 -162819.000000 0 0 1
28.017801 -23.397097 -12.306753 38.521131 -0.695768 1.895978 0.019045 -0.017389 -266204.000000 0 0 1
29.081141 -23.667597 -13.207553 39.753080 -0.683127 1.909474 0.018152 -0.020407 415881.000000 0 0 1
29.086461 -24.999997 -13.629753 40.703713 -0.709987 1.912245 0.022456 -0.008553 -185820.000000 0 0 1
-3.334337 -9.368143 -27.603913 29.340347 1.228855 2.795831 0.002990 -0.007234 15399.500000 0 0 1
-3.421437 -8.052943 -27.049053 28.428989 1.169038 2.828743 0.008783 -0.005228 313176.000000 0 0 1
-4.554737 -7.397743 -27.628993 28.962623 1.018918 2.836947 0.004934 -0.005625 413208.000000 0 0 1
-4.640637 -5.954743 -27.163503 28.193091 0.908794 2.870507 0.006299 -0.004716 -227253.000000 0 0 1
-5.165737 -5.737643 -25.868133 26.995661 0.837802 2.851555 0.006636 -0.011953 80341.300000 0 0 1
-5.052437 -4.387543 -25.438323 26.303725 0.715080 2.884368 0.016303 -0.009015 278912.000000 0 0 1
-5.660737 -4.162043 -24.021353 25.027824 0.633992 2.857035 0.011188 -0.011116 -203320.000000 0 0 1
-4.861937 -4.847343 -23.124453 24.122096 0.783895 2.852988 0.007936 -0.027515 227605.000000 0 1 0
-5.410837 -4.730343 -21.808053 22.961805 0.718397 2.823244 0.006603 -0.016749 -261116.000000 0 1 0
-4.691937 -5.664543 -20.820653 22.081688 0.879036 2.802006 0.008096 -0.018113 -436010.000000 0 1 0
-5.184337 -6.998143 -20.896553 22.638845 0.933199 2.746705 0.003463 -0.017906 107509.000000 0 1 0
-4.437837 -7.887543 -20.135453 22.075874 1.058301 2.719179 0.009297 -0.024918 -835430.000000 0 1 0
-5.028937 -9.335243 -20.219553 22.831279 1.076667 2.658597 0.014013 -0.019302 284875.000000 0 1 0
-6.167737 -9.697243 -19.475553 22.613595 1.004305 2.608485 0.009240 -0.007318 521205.000000 0 1 0
-7.390037 -9.023243 -19.838353 23.012862 0.884577 2.610107 0.005875 -0.005616 -58875.500000 0 1 0
-8.432637 -9.267343 -18.735953 22.539498 0.832522 2.552148 0.004711 -0.001567 -334116.000000 0 1 0
-9.013237 -10.562643 -18.774053 23.351081 0.864382 2.504773 0.017003 -0.000834 7939.950000 0 1 0
-9.695237 -10.900243 -17.581553 22.845655 0.843840 2.448979 0.009676 0.002467 234541.000000 0 1 0
-10.467037 -12.261243 -17.825753 24.034443 0.864176 2.406361 0.022816 0.009358 -639832.000000 0 1 0
-11.587937 -12.258643 -18.624953 25.128540 0.813517 2.405634 0.027999 -0.004620 -607027.000000 0 0 1
-11.330837 -12.398543 -19.999153 26.116621 0.830363 2.443024 0.040456 -0.002470 110373.000000 0 0 1
-12.671537 -12.102143 -20.785753 27.185976 0.762418 2.441180 0.045348 -0.011053 1483180.000000 0 0 1
-13.739537 -13.040843 -20.715053 28.070481 0.759314 2.400847 0.036305 -0.006598 46492.100000 0 0 1
-14.378437 -13.173843 -19.477353 27.561874 0.741706 2.355587 0.030043 0.001142 -1087300.000000 0 0 1
-15.539337 -14.163543 -19.639353 28.771186 0.739113 2.322118 0.028860 0.007309 -94793.100000 0 0 1
-15.093837 -15.441343 -20.003253 29.434489 0.796778 2.317994 0.029479 0.003201 99573.700000 0 0 1
-16.064137 -15.935943 -20.910353 30.809961 0.781392 2.316771 0.030049 0.001885 267877.000000 0 0 1
-15.718437 -17.301743 -21.535653 31.783706 0.833311 2.315248 0.026178 0.004952 -196784.000000 0 0 1
-15.769837 -18.374943 -20.616053 31.801698 0.861547 2.276105 0.017498 0.016392 166738.000000 0 0 1
-15.278137 -19.560243 -21.195153 32.638308 0.907698 2.277585 0.019371 0.015132 -11157.700000 0 0 1
-15.850337 -20.870043 -20.491953 33.267282 0.921257 2.234425 0.014876 0.006775 35643.500000 0 0 1
-15.395037 -22.032143 -21.102353 34.172091 0.960907 2.236397 0.012670 0.003901 150423.000000 0 0 1
-15.968337 -23.141443 -20.432253 34.756167 0.966792 2.199225 0.019405 0.008601 6813.460000 0 0 1
-15.433837 -24.527543 -20.884853 35.720874 1.009150 2.195267 0.020212 0.005974 -50180.600000 0 0 1
-15.886637 -24.926143 -22.183153 36.956598 1.003367 2.214608 0.008695 0.007999 645047.000000 0 0 1
-15.222637 -26.171023 -22.551853 37.752314 1.043971 2.211006 0.010250 0.007112 242921.000000 0 0 1
-15.717937 -26.599723 -23.967353 39.102850 1.037090 2.230561 0.012999 0.006303 -282642.000000 0 0 1
-16.993137 -27.195243 -24.040353 40.078505 1.012300 2.214087 0.033797 0.002993 -296342.000000 0 0 1
-17.001937 -28.591033 -23.958553 40.994211 1.034313 2.194983 0.037430 0.009742 -425702.000000 0 0 1
-17.806337 -29.389053 -25.065953 42.533330 1.026062 2.201019 0.044717 0.002714 -376953.000000 0 0 1
-17.431537 -29.309763 -26.464133 43.165624 1.034257 2.230754 0.035284 0.009295 -126250.000000 0 0 1
-17.725537 -28.074523 -27.155593 42.892887 1.007626 2.256351 0.049334 -0.000537 678188.000000 0 0 1
-16.742537 -27.581683 -28.337253 42.942540 1.025234 2.291466 0.045719 0.000799 460227.000000 0 0 1
-16.786337 -28.250073 -29.582083 44.214787 1.034649 2.303732 0.049900 0.000484 19503.400000 0 0 1
-15.684037 -27.861143 -30.370263 44.097452 1.058076 2.330502 0.020027 0.013298 -32472.900000 0 0 1
-15.959237 -28.186113 -31.810033 45.398595 1.055594 2.347151 0.034525 0.005610 -235164.000000 0 0 1
-15.941437 -29.545703 -32.105533 46.452592 1.076010 2.333870 0.014527 0.017796 95668.300000 0 0 1
-16.413837 -29.819863 -33.414593 47.698777 1.067621 2.346941 0.026151 0.011306 -80512.800000 0 0 1
-16.295937 -31.270873 -33.851023 48.880639 1.090394 2.335779 0.017976 0.013080 -392840.000000 0 0 1
-14.999037 -31.670223 -34.241641 48.994532 1.128490 2.344636 0.010293 0.020800 -248248.000000 0 0 1
-15.095637 -32.772503 33.687594 49.363643 1.139147 0.819704 0.007203 0.018265 -339050.000000 0 0 1
-13.777037 -33.324233 33.154342 48.984913 1.178771 0.827352 -0.002590 0.013792 -227010.000000 0 0 1
-13.008437 -34.140423 34.006547 49.912255 1.206752 0.821223 0.000687 0.015526 -110477.000000 0 0 1
-12.023237 34.054748 33.317894 49.136201 -1.231402 0.825660 0.006288 0.007098 21274.800000 0 0 1
-11.268237 33.215567 34.364834 49.103858 -1.243734 0.795623 0.017927 0.002333 43593.000000 0 0 1
-10.323137 33.968515 -33.694393 48.946290 -1.275763 2.330071 0.015218 0.009282 164017.000000 0 0 1
-9.496537 33.097534 -32.922433 47.639454 -1.291377 2.333772 0.018210 -0.000765 523557.000000 0 0 1
-8.672537 33.831085 -31.817203 47.244996 -1.319852 2.309664 0.012573 -0.000686 436492.000000 0 0 1
-9.609437 34.350249 -30.890633 47.185931 -1.298021 2.284526 0.020504 0.005743 293523.000000 0 0 1
-9.048837 -33.527213 -30.152703 45.990662 1.307182 2.285809 0.012384 0.003750 302885.000000 0 0 1
-10.118937 -32.860593 -29.228703 45.127914 1.272075 2.275339 0.017109 0.015563 398923.000000 0 0 1
-10.203337 -33.088143 -27.798683 44.403830 1.271680 2.247264 0.039463 0.008482 -170910.000000 0 0 1
-10.488237 -34.461939 -27.437943 45.282106 1.275360 2.221735 0.042097 0.003743 70688.500000 0 0 1
-10.762037 34.317052 -25.906793 44.324298 -1.266904 2.195039 0.035520 -0.007185 731895.000000 0 0 1
-9.573137 -34.444567 -25.134343 43.701355 1.299709 2.183570 0.046911 -0.013791 30206.400000 0 0 1
-9.782637 34.126355 -23.818453 42.750752 -1.291623 2.161743 0.039966 -0.017790 285594.000000 0 0 1
-8.547537 34.061946 -22.850853 41.897948 -1.324932 2.147654 0.052303 -0.013042 -65811.300000 0 0 1
-7.774037 32.938540 -23.125253 40.989760 -1.339021 2.170226 0.046499 -0.024928 -874211.000000 0 0 1
-6.941237 32.805480 -22.018753 40.114907 -1.362284 2.151835 0.040021 -0.021444 -449641.000000 0 0 1
-5.983237 31.566290 -22.096653 38.993485 -1.383473 2.173262 0.038491 -0.030627 344246.000000 0 0 1
-4.974137 31.742860 -23.106053 39.575761 -1.415359 2.194251 0.028028 -0.035845 -141798.000000 0 0 1
-4.173637 30.575470 -23.023553 38.501462 -1.435132 2.211789 0.025698 -0.028046 -91967.400000 0 0 1
-2.748037 30.930180 -23.525453 38.957344 -1.482183 2.219153 0.024151 -0.031532 -574987.000000 0 0 1
-2.421837 31.011170 -24.873253 39.827587 -1.492859 2.245317 0.030023 -0.029824 193128.000000 0 0 1
-3.052937 32.098060 -25.591673 41.164786 -1.475969 2.241693 0.027533 -0.030343 -52803.500000 0 0 1
-2.288037 32.496400 -26.888303 42.240170 -1.500503 2.260823 0.029492 -0.025778 625112.000000 0 0 1
-1.081937 33.268654 -26.826013 42.750543 -1.538287 2.249136 0.028968 -0.025449 626882.000000 0 0 1
-1.482137 -34.362814 -26.832793 43.623371 1.527691 2.233311 0.004046 -0.011907 23569.000000 0 0 1
-0.312137 -33.413443 -27.137713 43.046616 1.561455 2.252898 -0.008100 -0.003196 -216552.000000 0 0 1
0.545463 -33.129763 -26.057863 42.153185 -1.554333 2.237210 -0.005136 -0.001504 83104.900000 0 0 1
1.617563 -32.352493 -26.618013 41.926352 -1.520840 2.258644 -0.004075 0.004707 321517.000000 0 0 1
2.694963 -32.009723 -25.570653 41.057807 -1.486802 2.243108 -0.002565 0.000964 -638203.000000 0 0 1
2.199563 -31.142663 -24.597153 39.745736 -1.500285 2.238090 -0.005127 0.003527 293670.000000 0 0 1
3.183263 -30.371103 -23.929753 38.796523 -1.466365 2.235469 -0.010061 0.004859 -341295.000000 0 0 1
2.713963 -29.782503 -22.597253 37.483316 -1.479921 2.217879 0.000463 0.002002 -164132.000000 0 0 1
2.848563 -30.774743 -21.526853 37.664367 -1.478498 2.179183 0.010410 0.001391 506582.000000 0 0 1
2.746063 -30.127773 -20.257353 36.408570 -1.479900 2.160831 0.024060 -0.008198 -413957.000000 0 0 1
2.720063 -31.040353 -18.968453 36.478823 -1.483390 2.117630 0.028496 -0.001658 574336.000000 0 0 1
1.498863 -31.778503 -18.733753 36.919824 -1.523665 2.102981 0.036553 -0.006206 1001050.000000 0 0 1
1.440463 -32.966113 -19.516053 38.336874 -1.527129 2.104897 0.034460 0.002364 -344676.000000 0 0 1
2.161563 -34.201615 -18.894253 39.133306 -1.507680 2.074666 0.016049 -0.009388 800785.000000 0 0 1
3.596363 -34.164741 -18.868253 39.194060 -1.465917 2.073054 0.028532 -0.005093 469214.000000 0 0 1
3.969063 33.900251 -17.821353 38.504300 1.454246 2.051993 0.034869 -0.011607 157919.000000 0 0 1
5.059063 32.988700 -18.429553 38.124754 1.418624 2.075332 0.036032 -0.010234 240212.000000 0 0 1
6.208863 33.611844 -18.958353 39.086125 1.388133 2.077206 0.061856 -0.009194 -93422.200000 0 0 1
7.120363 32.732510 -19.571953 38.796625 1.356601 2.099571 0.050022 -0.016514 732458.000000 0 0 1
8.570963 33.231893 -19.878253 39.660623 1.318383 2.095791 0.040329 -0.016479 442323.000000 0 0 1
9.294463 33.370930 -18.677153 39.355331 1.299161 2.065280 0.047096 -0.011850 -102650.000000 0 0 1
10.461463 34.154352 -18.943953 40.433097 1.273570 2.058418 0.048487 -0.000385 679462.000000 0 0 1
11.312963 34.363229 -17.620253 40.240377 1.252755 2.024030 0.035406 -0.001069 474962.000000 0 0 1
11.903363 33.124802 -17.181153 39.168030 1.225817 2.024895 0.030379 -0.011417 -247452.000000 0 0 1
12.799363 33.345899 -16.134053 39.192861 1.204301 1.995069 0.022399 -0.011226 234602.000000 0 0 1
13.932663 32.269540 -15.958753 38.602126 1.163215 1.996999 0.016281 -0.014887 481697.000000 0 0 1
13.663263 31.044200 -15.338953 37.225134 1.156187 1.995509 0.020563 -0.015406 -403064.000000 0 0 1
14.829563 30.249260 -15.393553 37.039103 1.114983 1.999402 0.012957 -0.008283 18853.600000 0 0 1
14.921863 29.086850 -14.384453 35.715813 1.096794 1.985313 0.023287 -0.011451 -432346.000000 0 0 1
14.904563 29.362490 -13.006753 35.404483 1.101083 1.946982 0.029542 -0.020215 632138.000000 0 0 1
13.617863 29.569470 -12.380053 34.829089 1.139214 1.934193 0.029780 -0.019642 900009.000000 0 0 1
12.926163 28.242890 -11.936553 33.275033 1.141575 1.937697 0.021518 -0.019656 -734160.000000 0 0 1
12.313863 27.421480 -12.925953 32.720774 1.148725 1.976906 0.012251 -0.013175 -74371.400000 0 0 1
11.857063 26.142480 -12.541653 31.325904 1.144990 1.982707 0.021611 -0.011877 181747.000000 0 0 1
11.069063 26.000060 -11.207853 30.399724 1.168306 1.948388 0.020430 -0.010634 -598014.000000 0 0 1
9.851663 26.697270 -11.216753 30.587825 1.217284 1.946263 0.028812 -0.009022 -308196.000000 0 0 1
9.332263 26.906290 -9.938753 30.163196 1.236937 1.906570 0.020236 -0.001387 455230.000000 0 0 1
8.136663 27.894240 -9.815953 30.669966 1.286974 1.896580 0.022398 0.001135 488871.000000 0 0 1
8.667663 29.121800 -10.256753 32.068810 1.281511 1.896352 0.027382 -0.009302 -15766.200000 0 0 1
7.678863 30.103770 -10.473853 32.785721 1.321042 1.895960 0.032793 -0.004707 -104850.000000 0 0 1
8.186463 31.422320 -10.976953 34.276433 1.315932 1.896787 0.059714 -0.011055 -101708.000000 0 0 1
8.929763 32.171370 -9.998653 34.852701 1.300044 1.861768 0.044891 -0.008768 54625.200000 0 0 1
9.431463 33.451079 -10.409253 36.280569 1.295982 1.861796 0.060542 -0.006292 31406.900000 0 0 1
10.490963 33.537354 -11.535953 36.985032 1.267625 1.887998 0.051249 -0.006376 -939446.000000 0 0 1
11.734363 33.178159 -11.018253 36.876651 1.230849 1.874217 0.027038 -0.004846 -1418000.000000 0 0 1
12.666063 33.455650 -12.022853 37.739351 1.208880 1.895023 0.036304 -0.005817 -175174.000000 0 0 1
14.102663 33.210928 -11.487353 37.865685 1.169231 1.879025 0.020617 -0.007317 28756.800000 0 0 1
14.482063 34.056471 -10.458153 38.457071 1.168725 1.846208 0.026596 -0.002928 -625323.000000 0 0 1
15.818863 34.441547 -10.484153 39.323963 1.140239 1.840670 0.014933 -0.010457 -468516.000000 0 0 1
16.155963 -33.546283 -9.367753 38.394310 -1.121975 1.817272 0.012388 -0.007815 -177995.000000 0 0 1
16.039063 -34.094005 -8.057653 38.530228 -1.131078 1.781477 0.013562 -0.012125 163720.000000 0 0 1
16.639863 -33.208553 -7.139453 37.824130 -1.106292 1.760689 0.020141 -0.009101 -767149.000000 0 0 1
17.050063 -33.996215 -5.875253 38.483320 -1.105927 1.724066 0.031525 -0.008972 116509.000000 0 0 1
17.978163 33.921674 -6.145353 38.880068 1.083445 1.729521 0.028895 -0.016565 416148.000000 0 0 1
19.338163 34.363761 -6.193053 39.914740 1.058218 1.726583 0.036041 -0.018293 -55808.900000 0 0 1
20.292063 33.410893 -6.951853 39.703700 1.024991 1.746797 0.033979 -0.017083 138351.000000 0 0 1
20.548663 32.165590 -6.258853 38.678753 1.002307 1.733327 0.039711 -0.006042 -47263.900000 0 0 1
21.470063 32.219800 -5.185653 39.063667 0.983004 1.703938 0.028935 0.005061 -604463.000000 0 0 1
21.701063 30.782250 -4.671053 37.951308 0.956732 1.694189 0.011686 0.005617 181803.000000 0 0 1
22.374863 29.914560 -5.643753 37.780515 0.928603 1.720740 0.012580 0.002128 412965.000000 0 0 1
22.817163 28.678710 -5.128153 37.005260 0.898736 1.709823 0.018608 0.012322 -606927.000000 0 0 1
23.776963 28.008120 -6.088253 37.240644 0.866923 1.735018 0.000886 0.016376 -245272.000000 0 0 1
25.099663 28.546710 -6.120953 38.501607 0.849565 1.730453 -0.006503 0.010905 1004760.000000 0 0 1
26.032863 27.686070 -6.842753 38.614138 0.816164 1.748946 -0.018948 0.015180 458684.000000 0 0 1
26.656563 26.647750 -5.933253 38.155975 0.785233 1.726930 -0.011170 0.017163 -1037640.000000 0 0 1
27.536063 27.300460 -5.055053 39.103752 0.781102 1.700432 -0.008649 0.008853 187229.000000 0 0 1
28.452063 26.333510 -4.503953 39.028953 0.746748 1.686454 -0.004278 0.012255 27481.700000 0 0 1
29.575763 27.018940 -3.722053 40.231860 0.740251 1.663444 -0.010003 0.008946 -384420.000000 0 0 1
29.151863 27.718770 -2.541653 40.306591 0.760204 1.633896 -0.003844 0.000113 182366.000000 0 0 1
30.262563 28.005790 -1.700453 41.267887 0.746687 1.612013 -0.001888 -0.003292 290228.000000 0 0 1
30.102263 29.286540 -0.889353 42.007601 0.771664 1.591969 0.007706 -0.004707 -6437.770000 0 0 1
30.403463 30.450450 -1.692153 43.063486 0.786170 1.610101 -0.005012 0.008425 64182.700000 0 0 1
29.689063 31.566480 -1.214653 43.351568 0.816038 1.598819 0.014224 -0.001497 -147100.000000 0 0 1
32.791031 23.095957 18.985530 44.374828 0.613631 1.128690 0.028506 -0.000037 -30328.800000 0 0 1
32.903951 22.723857 20.332530 44.860400 0.604397 1.100399 0.028874 -0.005692 324007.000000 0 0 1
33.810811 23.667157 20.909730 46.265777 0.610718 1.101848 0.034504 -0.011875 191603.000000 0 0 1
33.807011 23.652557 22.421330 46.958210 0.610481 1.073019 0.038656 -0.012178 -935670.000000 0 0 1
32.616031 24.095657 22.933530 46.587048 0.636273 1.056098 0.020183 -0.004330 -710126.000000 0 0 1
32.709561 24.291357 24.364580 47.472289 0.638773 1.031843 0.018374 -0.003211 -16909.400000 0 0 1
31.434881 24.985257 24.886060 47.241198 0.671578 1.015980 0.044194 -0.001310 -7438.310000 0 0 1
31.234751 26.358657 24.667780 47.737699 0.700935 1.027762 0.027178 -0.002292 391446.000000 0 0 1
30.003131 26.733757 25.272740 47.472024 0.727838 1.009397 0.023495 -0.009245 221221.000000 0 0 1
29.837061 28.241857 25.559470 48.385320 0.757939 1.014260 0.006400 -0.002112 -194307.000000 0 0 1
29.635531 29.106857 24.401700 48.175895 0.776399 1.039661 0.002387 -0.007021 348321.000000 0 0 1
29.394201 30.435257 24.895190 49.092713 0.802797 1.038973 -0.011904 -0.002231 -219906.000000 0 0 1
29.366111 31.436457 23.761730 49.145083 0.819435 1.066146 0.004783 -0.001109 -150094.000000 0 0 1
30.674801 31.625857 23.282330 49.831769 0.800663 1.084654 -0.011705 -0.003733 -231986.000000 0 0 1
30.768401 32.461057 22.139330 49.905558 0.812162 1.111157 -0.001338 -0.005888 -822754.000000 0 0 1
32.181741 32.907757 21.832930 50.943712 0.796552 1.127887 0.001458 -0.019247 -517842.000000 0 0 1
32.573381 34.061857 22.567030 52.254245 0.807732 1.124231 0.002530 -0.003779 466028.000000 0 0 1
33.976321 34.286057 22.480330 53.247435 0.789936 1.134941 0.003790 -0.003276 564504.000000 0 0 1
34.525211 -33.428897 23.263430 53.391652 -0.769266 1.119966 0.015640 0.001263 -140522.000000 0 0 1
34.037121 -32.205697 22.769630 52.097875 -0.757758 1.118475 0.005967 0.006926 269296.000000 0 0 1
34.243591 -31.155297 23.711530 52.014544 -0.738211 1.097454 0.027060 0.007971 -450425.000000 0 0 1
33.232901 -29.953697 23.509530 50.540555 -0.733548 1.086979 0.007017 0.002687 262662.000000 0 0 1
31.921451 -30.346697 23.802120 50.064379 -0.760114 1.075343 -0.004656 0.008992 298482.000000 0 0 1
31.098871 -30.854797 22.734330 49.355932 -0.781459 1.092103 -0.000267 0.015133 79030.200000 0 0 1
30.236711 -32.100497 22.993730 49.733412 -0.815288 1.090164 -0.001162 0.013705 -90907.800000 0 0 1
29.258031 -32.036597 23.990430 49.577381 -0.830698 1.065692 -0.015377 0.008470 17401.600000 0 0 1
28.689911 -33.325097 24.152630 50.169938 -0.860002 1.068526 -0.012201 0.003587 76929.200000 0 0 1
28.041571 -33.572497 25.556780 50.661537 -0.874925 1.042038 -0.023381 0.002420 -12824.200000 0 0 1
27.680921 34.029057 25.643070 50.811191 0.887908 1.041792 -0.020331 -0.005937 177174.000000 0 0 1
26.872421 33.756457 26.784550 50.784225 0.898458 1.015237 -0.017420 -0.002493 -603829.000000 0 0 1
26.528781 32.251257 26.905970 49.677470 0.882446 0.998441 -0.017537 -0.006847 576878.000000 0 0 1
25.801871 31.720557 25.766710 48.330670 0.887931 1.008496 -0.017227 0.002068 726614.000000 0 0 1
24.427771 32.107757 25.730770 47.850774 0.920415 1.003055 -0.006636 -0.002668 59189.300000 0 0 1
23.880371 31.859857 24.250260 46.619714 0.927587 1.023744 0.014279 -0.016513 -242346.000000 0 0 1
24.216571 32.755057 23.266630 46.911322 0.934163 1.051844 0.020796 -0.019498 -416961.000000 0 0 1
25.448371 32.483757 22.672530 47.083518 0.906248 1.068387 -0.001988 -0.009604 -585465.000000 0 0 1
25.925971 33.628557 21.732330 47.700419 0.914021 1.097750 0.002859 -0.011302 794820.000000 0 0 1
27.342721 33.802757 21.573730 48.535313 0.890658 1.110185 0.003457 -0.004914 876713.000000 0 0 1
27.551931 34.454457 20.339830 48.579082 0.896261 1.138788 -0.007537 -0.010171 792266.000000 0 0 1
29.081331 -34.395597 19.988430 49.277969 -0.868923 1.153133 0.006052 -0.016605 897426.000000 0 0 1
29.646181 33.440057 19.290630 48.675064 0.845464 1.163297 0.024707 -0.026672 54255.200000 0 0 1
30.408411 33.816957 18.155830 48.968278 0.838420 1.190961 0.028948 -0.009768 211983.000000 0 0 1
31.301101 32.672257 17.559630 48.534276 0.806828 1.200600 0.016187 -0.022570 282166.000000 0 0 1
32.319681 32.211157 18.427130 49.210563 0.783716 1.186988 0.013420 -0.012515 442452.000000 0 0 1
33.069181 31.092357 17.901730 48.793210 0.754598 1.195133 0.017346 -0.020048 520616.000000 0 0 1
34.072961 30.494457 18.923630 49.487194 0.730032 1.178410 0.029321 -0.027894 -35244.200000 0 0 1
35.159649 31.349057 19.165130 50.855349 0.728166 1.184397 0.051692 -0.019380 33588.900000 0 0 1
-34.937378 30.734457 20.000430 50.648242 -0.721486 1.164849 0.044182 -0.019651 57131.400000 0 0 1
-33.917707 31.618357 20.740330 50.796581 -0.750327 1.150203 0.026280 -0.015962 149218.000000 0 0 1
-33.054297 32.240357 19.778030 50.231441 -0.772933 1.166102 0.029026 -0.014395 709135.000000 0 0 1
-31.915117 32.922957 20.330030 50.157810 -0.800941 1.153466 0.031451 -0.002470 621916.000000 0 0 1
-32.251047 34.219257 21.154430 51.561589 -0.815000 1.148041 0.018561 0.005935 -340190.000000 0 0 1
-32.581007 33.958657 22.467630 52.148891 -0.806099 1.125377 0.034794 0.000759 209003.000000 0 0 1
-32.524267 -33.786497 23.195430 52.320009 0.804431 1.111477 0.029007 0.004136 -65015.200000 0 0 1
-32.562557 -33.917397 24.772860 53.145127 0.805775 1.085878 0.043802 -0.007939 177107.000000 0 0 1
-33.831747 -34.376597 25.219830 54.427726 0.793386 1.089009 0.046054 -0.008232 174992.000000 0 0 1
-33.850757 34.222257 26.595540 54.994176 -0.790855 1.066026 0.057008 -0.005504 908217.000000 0 0 1
-35.325248 33.978057 27.081890 55.998306 -0.765962 1.066011 0.036296 -0.015794 747457.000000 0 0 1
-35.394302 33.311957 28.331030 56.259136 -0.755099 1.043058 0.044339 -0.020828 -1227640.000000 0 0 1
34.416491 33.350557 28.910340 55.969298 0.769670 1.027992 0.040352 -0.022887 -1123100.000000 0 0 1
34.412251 32.287557 30.023830 55.929596 0.753554 1.004139 0.031388 -0.011895 -254903.000000 0 0 1
34.290241 30.921857 29.666350 54.882367 0.733791 0.999712 0.009071 -0.008274 13955.100000 0 0 1
35.344542 30.354357 28.895350 54.823033 0.709588 1.015652 0.015977 -0.010674 -436638.000000 0 0 1
35.148256 28.892057 28.408180 53.639310 0.688016 1.012650 0.016465 -0.008234 -454608.000000 0 0 1
34.201991 28.737457 27.374560 52.392597 0.698793 1.021029 0.016123 -0.008775 243599.000000 0 0 1
34.154201 27.447357 26.792860 51.358780 0.676951 1.021977 0.025210 -0.010965 -13490.400000 0 0 1
33.812601 26.179157 27.653080 50.924779 0.658837 0.996769 0.006698 -0.009261 152507.000000 0 0 1
34.934441 25.779957 28.458820 51.912675 0.635746 0.990579 -0.003025 -0.004142 537884.000000 0 0 1
34.722991 24.549257 29.092310 51.523923 0.615410 0.970803 -0.007360 -0.006404 -133606.000000 0 0 1
35.395255 23.444957 28.206730 50.971656 0.585026 0.984379 -0.000437 -0.012526 -195772.000000 0 0 1
34.846181 23.215457 26.915860 49.776273 0.587698 0.999484 -0.003272 -0.006921 -189964.000000 0 0 1
35.426634 22.182157 26.199070 49.330374 0.559421 1.010905 -0.005071 -0.010383 -965537.000000 0 0 1
35.045815 20.731757 26.552300 48.611105 0.534192 0.992953 0.003376 -0.014833 -887542.000000 0 0 1
33.722951 20.333157 26.282980 47.344163 0.542584 0.982256 0.053155 -0.017845 190860.000000 0 0 1
33.281961 19.180157 26.961600 46.930750 0.522805 0.958806 0.045038 -0.019017 -592222.000000 0 0 1
32.925701 19.282457 28.545700 47.652618 0.529790 0.928498 0.023797 -0.016879 273594.000000 0 0 1
31.886141 20.118957 29.086480 47.618502 0.562875 0.913697 0.026826 -0.020102 679395.000000 0 0 1
31.988791 21.460557 28.729750 48.054519 0.590912 0.929971 0.037074 -0.031592 -91121.000000 0 0 1
30.943591 22.322257 29.534680 48.250247 0.624935 0.912064 0.051667 -0.035412 1062440.000000 0 0 1
29.537241 22.088157 29.343520 47.131491 0.642096 0.898750 0.064922 -0.043037 904797.000000 0 0 1
28.931151 22.761157 28.276740 46.418270 0.666600 0.915779 0.069915 -0.038112 -167995.000000 0 0 1
28.703561 24.274157 28.475700 47.159248 0.701983 0.922512 0.065180 -0.026581 -371491.000000 0 0 1
29.965791 24.940157 28.489760 48.286919 0.694121 0.939725 0.052778 -0.024300 347137.000000 0 0 1
30.033281 26.186257 29.111090 49.347478 0.717076 0.939836 0.034653 -0.016544 -216003.000000 0 0 1
30.342021 26.105957 30.621570 50.396823 0.710495 0.917749 0.027505 -0.021491 -379810.000000 0 0 1
31.689331 25.747357 30.756690 51.118628 0.682312 0.925203 -0.007621 -0.008147 -520953.000000 0 0 1
32.144651 25.441357 32.096460 52.064614 0.669515 0.906540 0.007328 -0.005878 152232.000000 0 0 1
31.416091 24.460857 33.102674 51.779256 0.661561 0.877204 0.018300 -0.006173 -134022.000000 0 0 1
32.125411 24.482557 34.356315 53.026352 0.651196 0.865959 0.019206 -0.013823 133447.000000 0 0 1
31.580081 23.573357 -33.534753 51.745380 0.641233 2.275847 0.007330 -0.014133 -601328.000000 0 0 1
32.173031 23.552457 -32.122363 51.202230 0.631918 2.248958 0.002598 -0.014995 -292074.000000 0 0 1
31.616911 24.519557 -31.232413 50.757279 0.659635 2.233599 -0.001026 -0.013152 287765.000000 0 0 1
31.952421 24.182957 -29.871833 49.980987 0.647866 2.211381 0.003048 -0.011667 -671389.000000 0 0 1
33.309501 24.601057 -29.304293 50.729444 0.636139 2.186654 0.011219 0.005313 -350704.000000 0 0 1
33.659811 23.916057 -28.094883 49.942799 0.617753 2.168253 0.006005 -0.000114 21405.500000 0 0 1
34.685571 24.603757 -27.377463 50.576271 0.616965 2.142791 0.020588 0.008150 -54584.300000 0 0 1
35.386848 23.598257 -26.455563 50.089955 0.588140 2.127230 0.009817 0.003880 -273799.000000 0 0 1
-34.919207 22.503357 -27.015723 49.554025 -0.572457 2.147397 -0.006164 0.008032 301489.000000 0 0 1
-35.062928 21.356357 -26.218053 48.712310 -0.547074 2.139123 -0.024548 0.017024 -233156.000000 0 0 1
-34.042687 20.266157 -26.532013 47.681961 -0.536968 2.160888 -0.014251 0.027447 171750.000000 0 0 1
-32.682997 20.512257 -26.234143 46.660061 -0.560476 2.167888 -0.003797 0.022792 -776584.000000 0 0 1
-31.933507 19.383557 -26.380043 45.731585 -0.545549 2.185658 -0.019892 0.016240 -784361.000000 0 0 1
-30.584177 19.639657 -25.716373 44.524599 -0.570838 2.186553 -0.002837 0.005494 -765508.000000 0 0 1
-30.688607 19.697157 -24.317353 43.830381 -0.570617 2.158926 0.001376 -0.001638 793209.000000 0 0 1
-29.407657 19.703557 -23.666953 42.581277 -0.590317 2.160129 0.007540 -0.002317 661719.000000 0 0 1
-29.621637 20.057757 -22.188653 42.096215 -0.595213 2.125973 -0.005679 -0.002387 326238.000000 0 0 1
-30.405607 19.207857 -21.355453 41.827002 -0.563418 2.106639 -0.015763 -0.001039 476507.000000 0 0 1
-30.991987 19.787357 -20.171653 41.939699 -0.568225 2.072555 -0.012623 0.002396 -86290.700000 0 0 1
-31.787117 18.824757 -19.225853 41.646437 -0.534674 2.050645 -0.010963 -0.001142 451924.000000 0 0 1
-32.653727 19.323057 -18.172253 42.069909 -0.534336 2.017454 -0.018652 -0.004910 1244350.000000 0 0 1
-33.735897 20.167357 -18.586453 43.477457 -0.538801 2.012518 -0.017753 -0.004411 -528484.000000 0 0 1
-34.841294 20.331657 -17.559553 43.995795 -0.528237 1.981352 -0.002321 -0.012299 -1099180.000000 0 0 1
-34.462077 20.934557 -16.364853 43.516650 -0.545891 1.956336 0.002801 -0.022573 -140022.000000 0 0 1
-35.489663 20.856957 -15.420353 43.958118 -0.531320 1.929218 0.005877 -0.018375 -1170260.000000 0 0 1
-35.226916 21.613957 -14.093453 43.666053 -0.550333 1.899436 0.007515 -0.016738 -206858.000000 0 0 1
-35.317140 23.037557 -14.059653 44.448884 -0.577994 1.892634 0.014520 -0.021907 590018.000000 0 0 1
34.421791 23.494857 -14.344753 44.075390 0.598924 1.902294 0.019001 -0.015082 185953.000000 0 0 1
34.279101 24.963657 -14.803153 44.915190 0.629433 1.906655 0.009094 -0.018370 -9056.970000 0 0 1
34.632921 25.878657 -13.721853 45.358939 0.641724 1.878129 0.012328 -0.011896 45405.300000 0 0 1
34.536751 27.245857 -14.141753 46.207284 0.667933 1.881838 0.017591 -0.002921 1109930.000000 0 0 1
-35.272927 27.993257 -14.857753 47.418927 -0.670838 1.889493 0.029657 -0.003768 1386350.000000 0 0 1
-34.948505 27.494257 -16.155753 47.311104 -0.666583 1.919286 0.027170 -0.002995 -73063.600000 0 0 1
-33.716917 27.986757 -16.621353 46.865322 -0.692798 1.933349 0.028006 -0.003058 -641817.000000 0 0 1
-33.466907 27.870857 -18.182853 47.195706 -0.694417 1.966291 0.024702 -0.004037 -85679.400000 0 0 1
-33.183447 26.530457 -18.654753 46.400497 -0.674441 1.984538 0.029137 -0.006794 184063.000000 0 0 1
-31.938637 26.033957 -18.211153 45.049856 -0.683895 1.986949 0.017407 -0.005032 -372021.000000 0 0 1
-31.631777 24.701557 -18.782753 44.311715 -0.662992 2.008519 0.013439 -0.006965 -593956.000000 0 0 1
-31.334007 24.754557 -20.125953 44.717581 -0.668627 2.037638 0.005122 -0.005225 137352.000000 0 0 1
-31.065387 23.472857 -20.637753 44.067564 -0.647072 2.058186 0.002782 -0.005819 -670050.000000 0 0 1
-30.859777 23.431257 -22.178253 44.645544 -0.649415 2.090661 -0.004510 0.003802 367582.000000 0 0 1
-31.979967 23.768457 -23.020853 46.017579 -0.639154 2.094698 0.000003 0.000863 480346.000000 0 0 1
-31.721377 23.523357 -24.367153 46.404227 -0.638079 2.123636 0.004371 0.005068 -366757.000000 0 0 1
-32.488787 24.427157 -25.302723 47.879381 -0.644693 2.127591 -0.012628 0.015261 -917860.000000 0 0 1
-32.030757 25.719857 -25.405123 48.300111 -0.676552 2.124669 -0.024699 0.017693 -643503.000000 0 0 1
-32.878847 26.493957 -26.180163 49.682485 -0.678271 2.125804 -0.010440 0.011821 -266883.000000 0 0 1
-32.453827 28.005257 -26.169623 50.223446 -0.711951 2.118893 -0.008045 0.015943 367839.000000 0 0 1
-31.290417 28.208757 -26.947773 50.010066 -0.733651 2.139864 -0.025441 0.009312 -610184.000000 0 0 1
-30.739207 29.469157 -26.941943 50.390459 -0.764307 2.134906 -0.016901 0.002130 -104577.000000 0 0 1
-29.451077 29.481457 -27.776633 50.080571 -0.785914 2.158725 -0.005800 0.002924 -693440.000000 0 0 1
-28.373147 28.804457 -27.127253 48.689014 -0.792941 2.161750 -0.015912 0.009599 -58460.400000 0 0 1
-27.146067 28.812457 -27.814913 48.381154 -0.815168 2.183293 0.010390 0.008065 130199.000000 0 0 1
-26.433517 30.162957 -27.765793 48.779853 -0.851198 2.176336 0.007323 -0.004150 -1627610.000000 0 0 1
-25.922717 30.553257 -26.489903 48.033361 -0.867206 2.154945 0.006064 -0.000463 250728.000000 0 0 1
-26.807367 30.841657 -25.367983 48.097581 -0.855264 2.126366 -0.008038 0.008749 -55976.500000 0 0 1
-26.118467 31.584957 -24.261953 47.627998 -0.879851 2.105290 -0.024199 0.011703 -90865.400000 0 0 1
-25.671887 32.878357 -24.465553 48.359026 -0.907864 2.101239 -0.006673 0.007568 -323744.000000 0 0 1
-24.569537 33.203757 -23.671553 47.607710 -0.933750 2.091189 0.004787 0.007286 -170287.000000 0 0 1
-24.064037 -34.305197 -23.800353 48.191091 0.959085 2.087336 0.002691 0.014173 28283.800000 0 0 1
-25.016337 -33.378197 -23.342053 47.799295 0.927627 2.080977 -0.005422 0.002662 99968.400000 0 0 1
-24.413137 -32.098897 -23.303253 46.576626 0.920571 2.094766 0.009949 -0.002312 171229.000000 0 0 1
16.645763 8.186457 -25.180143 31.275215 0.457070 2.506666 0.043280 -0.021282 -27158.200000 0 0 1
15.278363 7.891457 -24.972053 30.320074 0.476770 2.538551 0.039081 -0.022874 185654.000000 0 0 1
14.944863 6.527657 -25.407713 30.191242 0.411808 2.570959 0.033131 -0.021253 -947325.000000 0 0 1
13.470963 6.206257 -25.464493 29.469049 0.431728 2.614175 0.030961 -0.027034 -1015000.000000 0 0 1
13.003363 6.091657 -24.150653 28.097149 0.438105 2.605167 0.052873 -0.040543 -212194.000000 0 0 1
11.695563 5.569157 -24.224653 27.470630 0.444408 2.650543 0.055907 -0.037863 269170.000000 0 0 1
10.748663 5.894557 -23.007153 26.069305 0.501613 2.652029 0.058734 -0.036619 602572.000000 0 0 1
11.356063 5.263257 -21.833353 25.166592 0.434003 2.621057 0.040327 -0.029417 507393.000000 0 0 1
10.725363 5.503357 -20.592053 23.861119 0.474085 2.611967 0.037484 -0.022195 -318631.000000 0 1 0
10.745563 6.973757 -20.025153 23.771983 0.575664 2.572490 0.018823 -0.028356 -114544.000000 0 1 0
10.675963 6.954457 -18.609053 22.552993 0.577368 2.541221 0.017725 -0.017733 -465838.000000 0 1 0
10.977563 8.171357 -17.978553 22.594387 0.639887 2.490973 0.017665 -0.019168 -234870.000000 0 1 0
12.452363 8.580557 -17.810353 23.364417 0.603353 2.437633 0.009562 -0.011877 -318880.000000 0 1 0
12.882763 8.064557 -16.575853 22.489143 0.559315 2.399506 0.009998 -0.009939 -347393.000000 0 1 0
14.269563 8.249957 -16.468553 23.300117 0.524199 2.355763 0.010471 -0.005710 -561771.000000 0 1 0
14.801263 8.020357 -15.031053 22.568475 0.496580 2.299657 0.017549 -0.013637 -603018.000000 0 1 0
16.154563 7.668157 -14.957753 23.313192 0.443183 2.267379 0.011287 -0.018888 302729.000000 0 1 0
16.888363 7.999057 -13.784653 23.221076 0.442341 2.206355 0.019046 -0.010495 322492.000000 0 1 0
17.269263 9.511657 -13.561653 23.929427 0.503446 2.173334 0.027195 -0.012742 -841281.000000 0 1 0
16.199263 10.257857 -13.053853 23.195750 0.564496 2.168528 0.025715 -0.009632 -244943.000000 0 1 0
16.486663 11.609857 -12.943753 23.961210 0.613537 2.141467 0.033691 -0.015182 -125202.000000 0 1 0
15.338063 12.674057 -12.839353 23.679883 0.690581 2.143856 0.034762 -0.008755 4208.320000 0 1 0
14.797163 12.752557 -11.559853 22.698324 0.711319 2.105147 0.050286 -0.005477 -64079.700000 0 1 0
15.309863 13.781557 -10.699853 23.212282 0.732912 2.049869 0.047756 0.000036 -116657.000000 0 1 0
14.852463 15.257257 -10.861453 23.902943 0.798841 2.042493 0.041534 -0.002656 194213.000000 0 1 0
13.543463 15.521357 -10.388153 23.070579 0.853345 2.037872 0.053574 -0.008056 109124.000000 0 1 0
13.136263 16.850457 -10.749053 23.917388 0.908632 2.036917 0.045336 -0.002157 31987.700000 0 1 0
12.012463 17.344057 -9.842253 23.280582 0.965055 2.007292 0.039990 -0.004399 -255289.000000 0 1 0
12.402763 17.299757 -8.460953 22.906284 0.948796 1.949130 0.040723 -0.000316 228803.000000 0 1 0
11.347963 17.391157 -7.520353 22.085839 0.992656 1.918251 0.038761 -0.006695 39819.500000 0 1 0
11.881063 16.958457 -6.106453 21.587906 0.959669 1.857576 0.034690 -0.009899 -75798.500000 0 1 0
12.712263 17.928757 -5.592053 22.678470 0.954027 1.819946 0.030489 -0.008681 -424167.000000 0 1 0
13.299963 17.430857 -4.422653 22.367021 0.919019 1.769839 0.039560 -0.013173 -969470.000000 0 1 0
14.368763 18.326557 -3.897553 23.611754 0.905863 1.736624 0.034159 -0.018399 -1200100.000000 0 1 0
15.472863 18.409557 -4.759253 24.514725 0.871855 1.766176 0.030598 -0.022381 -346404.000000 0 1 0
16.195763 19.584757 -4.477053 25.805221 0.879833 1.745173 0.027423 -0.018644 269781.000000 0 0 1
17.564063 19.735157 -5.223053 26.930521 0.843540 1.765979 0.023093 -0.014349 566410.000000 0 0 1
18.655763 19.060157 -4.620053 27.067913 0.796120 1.742320 0.019932 -0.030555 89161.800000 0 0 1
18.967463 17.817357 -5.266253 26.551012 0.754143 1.770465 0.028409 -0.028358 -591231.000000 0 0 1
20.072063 17.069657 -4.514753 26.732824 0.704737 1.740494 0.042100 -0.030271 151161.000000 0 0 1
21.359663 17.483457 -4.996553 28.051239 0.685936 1.749874 0.037534 -0.036750 776593.000000 0 0 1
22.326063 16.662957 -4.326853 28.192709 0.641158 1.724879 0.039144 -0.038771 -440358.000000 0 0 1
23.799163 16.833957 -4.668953 29.522557 0.615631 1.729612 0.047400 -0.035027 -570574.000000 0 0 1
24.282563 18.026357 -4.116753 30.521141 0.638592 1.706091 0.052722 -0.030926 878938.000000 0 0 1
25.714663 17.935857 -4.000253 31.606026 0.609043 1.697703 0.050299 -0.018634 573257.000000 0 0 1
26.258063 19.215857 -3.414553 32.716879 0.631756 1.675353 0.063067 -0.021450 -428223.000000 0 0 1
26.109963 20.270857 -4.268853 33.329580 0.660162 1.699229 0.062747 -0.018817 181707.000000 0 0 1
26.257963 21.457957 -3.516653 34.092394 0.685140 1.674131 0.074767 -0.003754 -284161.000000 0 0 1
26.336563 22.693657 -4.437453 35.047219 0.711235 1.697751 0.047243 -0.003830 -64618.500000 0 0 1
27.525063 23.011457 -5.130253 36.241905 0.696321 1.712829 0.041166 0.009434 -21023.100000 0 0 1
27.806963 22.185257 -6.276853 36.122177 0.673417 1.745450 0.051887 0.005510 15731.200000 0 0 1
28.755863 22.815557 -7.305653 37.427554 0.670718 1.767252 0.019752 0.012327 -88145.300000 0 0 1
28.128963 23.866257 -8.025853 37.752497 0.703598 1.785022 -0.003053 0.012188 -20001.700000 0 0 1
29.016763 24.826157 -8.506553 39.123804 0.707725 1.789973 -0.023478 0.010417 -301488.000000 0 0 1
30.107163 24.434457 -9.537753 39.930598 0.681764 1.811986 -0.015249 0.001450 113695.000000 0 0 1
29.542263 24.292057 -10.821953 39.748761 0.688180 1.846536 -0.013249 0.006359 172395.000000 0 0 1
30.559263 23.841957 -11.694753 40.485487 0.662543 1.863835 -0.011113 0.001337 -133210.000000 0 0 1
30.014263 23.157957 -12.953053 40.061559 0.657161 1.900041 -0.009302 -0.001977 -40303.600000 0 0 1
29.647263 24.066057 -13.969453 40.660557 0.681862 1.921504 0.000620 0.000939 56953.500000 0 0 1
29.291363 23.350757 -15.087953 40.384255 0.673025 1.953694 0.007916 -0.000519 -219446.000000 0 0 1
29.330063 24.194457 -16.381053 41.400039 0.689742 1.977601 0.015191 -0.006553 -913963.000000 0 0 1
30.551163 24.782057 -16.702853 42.737679 0.681512 1.972321 0.015038 -0.003627 -530744.000000 0 0 1
30.629363 25.329857 -18.019653 43.640204 0.690977 1.996448 0.026220 -0.010481 417818.000000 0 0 1
32.049963 25.883357 -18.341853 45.095142 0.679354 1.989676 0.014220 -0.014300 1491250.000000 0 0 1
33.067963 24.853657 -18.609553 45.359783 0.644520 1.993541 0.012944 -0.012134 1246620.000000 0 0 1
34.397863 25.383057 -18.628653 46.631955 0.635728 1.981749 0.018745 -0.014228 407802.000000 0 0 1
35.447663 24.279457 -18.450153 46.759352 0.600546 1.976404 0.016088 -0.021282 -423544.000000 0 0 1
35.439563 23.278557 -19.433553 46.642435 0.581177 2.000553 0.015079 -0.017646 -170232.000000 0 0 1
-34.749046 23.622457 -20.474853 46.741163 -0.597041 2.024222 0.014214 -0.012091 -802535.000000 0 0 1
-34.774546 22.776857 -21.741853 46.912285 -0.579873 2.052689 0.014880 -0.009750 -195496.000000 0 0 1
-34.216846 21.481057 -21.568853 45.797858 -0.560604 2.061172 0.008375 -0.005345 316368.000000 0 0 1
-34.151446 20.706557 -22.780053 45.978404 -0.545050 2.089150 -0.006606 0.002537 186886.000000 0 0 1
-33.730746 19.188557 -22.541753 44.878665 -0.517219 2.097032 -0.018674 0.009207 294959.000000 0 0 1
-34.815646 18.397457 -22.069653 45.140505 -0.486128 2.081636 -0.014307 0.006784 355352.000000 0 0 1
-34.644746 17.074457 -22.525953 44.712572 -0.457906 2.098782 -0.027366 0.003186 -342292.000000 0 0 1
35.185663 16.172557 -22.320053 44.696389 0.430837 2.093668 -0.025594 0.004755 -337733.000000 0 0 1
34.143663 16.355057 -23.265953 44.436271 0.446713 2.121844 0.015069 0.007471 -220172.000000 0 0 1
33.125463 15.437757 -23.026353 43.195295 0.436112 2.133028 0.021526 0.012702 -684786.000000 0 0 1
33.266163 14.078457 -23.722153 43.215519 0.400351 2.151876 -0.008576 0.008177 -804881.000000 0 0 1
33.204463 14.141257 -25.118363 43.970941 0.402619 2.178823 -0.002612 0.019491 384016.000000 0 0 1
33.725563 12.900357 -25.671013 44.303879 0.365338 2.188826 -0.008529 0.011835 -161466.000000 0 0 1
33.788863 12.829157 -27.224413 45.248681 0.362873 2.216377 0.003577 0.016513 216475.000000 0 0 1
32.477563 12.687757 -27.761203 44.569672 0.372431 2.243205 0.002875 0.018831 596169.000000 0 0 1
31.926563 13.923257 -28.261813 44.854125 0.411237 2.252456 0.008801 0.018614 14092.200000 0 0 1
32.220363 14.129457 -29.786073 46.097760 0.413271 2.273326 0.006986 0.017514 1328990.000000 0 0 1
33.623363 14.416157 -30.070713 47.356139 0.405046 2.258793 0.004504 0.019886 1575910.000000 0 0 1
34.037863 14.166957 -31.447463 48.458453 0.394403 2.277009 0.008092 0.009223 -768402.000000 0 0 1
35.516663 14.433857 -31.713943 49.754836 0.386009 2.261921 0.023168 0.004326 -340572.000000 0 0 1
-34.653046 13.392857 -31.363033 48.619359 -0.368801 2.271915 0.018120 0.002890 77344.700000 0 0 1
-34.317346 13.335857 -29.990683 47.486487 -0.370644 2.254363 0.004055 0.009025 -685587.000000 0 0 1
-33.314946 12.206157 -29.661193 46.245673 -0.351198 2.267096 0.003965 -0.003415 -307027.000000 0 0 1
-33.723946 10.876857 -29.993733 46.424504 -0.311993 2.273228 0.003332 -0.005967 -704914.000000 0 0 1
-32.748646 9.915757 -29.915703 45.450472 -0.294009 2.289228 -0.000358 -0.006290 -1036860.000000 0 0 1
-33.100446 8.461257 -30.286293 45.656237 -0.250264 2.296090 -0.001438 -0.002192 -899232.000000 0 0 1
-33.454146 8.393257 -31.631783 46.799534 -0.245815 2.312981 0.003846 -0.004758 359562.000000 0 0 1
-33.855246 7.124057 -32.182843 47.251088 -0.207401 2.320064 0.002621 -0.002736 292286.000000 0 0 1
-35.052246 6.354257 -31.542673 47.581265 -0.179332 2.295511 0.015020 -0.004724 -316075.000000 0 0 1
-34.674846 5.657757 -30.392403 46.454853 -0.161741 2.283967 0.015032 -0.007286 -11557.000000 0 0 1
35.313163 5.034857 -29.742073 46.443085 0.141623 2.265813 0.011102 -0.003856 -663021.000000 0 0 1
-35.428346 4.620757 -28.314113 45.587368 -0.129693 2.240936 -0.001677 0.010918 -627522.000000 0 0 1
-34.662746 3.447157 -28.248343 44.848164 -0.099123 2.252177 0.002587 0.016737 -121794.000000 0 0 1
-35.342546 2.243257 -27.995033 45.142548 -0.063387 2.239727 -0.000007 0.015583 -955313.000000 0 0 1
-34.427046 1.071557 -27.884143 44.315857 -0.031115 2.251337 0.023658 0.013849 -292636.000000 0 0 1
-33.360846 1.313657 -26.984883 42.928495 -0.039357 2.250549 0.038781 0.008594 -123090.000000 0 0 1
-32.364446 0.335857 -27.014043 42.158377 -0.010377 2.266304 0.034428 0.011797 -622122.000000 0 0 1
-31.299146 0.481557 -25.972343 40.674698 -0.015384 2.263393 0.033539 0.013900 -570283.000000 0 0 1
-31.770146 0.152157 -24.714353 40.251268 -0.004789 2.231917 0.025195 0.008817 396334.000000 0 0 1
-30.925446 0.766457 -23.745853 38.997900 -0.024779 2.225470 0.041370 0.012421 64280.300000 0 0 1
-31.458546 0.559857 -22.333353 38.584093 -0.017795 2.188081 0.030971 0.014998 -628183.000000 0 0 1
-31.354846 -0.780643 -21.870253 38.236681 0.024892 2.179702 0.047263 0.002576 384340.000000 0 0 1
-31.952746 -0.961943 -20.587753 38.023137 0.030096 2.142961 0.024748 0.000934 635755.000000 0 0 1
-33.516346 -0.920943 -20.487053 39.292658 0.027471 2.119283 0.017134 0.001968 331716.000000 0 0 1
-34.148046 -2.122543 -20.965753 40.126763 0.062077 2.120563 0.027565 -0.004214 -44402.100000 0 0 1
-35.421746 -2.201443 -20.388353 40.929591 0.062070 2.092240 0.022809 -0.001958 -267140.000000 0 0 1
34.926063 -3.594043 -20.312453 40.562825 -0.102543 2.095279 0.028285 -0.002983 -142369.000000 0 0 1
34.463263 -4.142243 -21.516753 40.839262 -0.119619 2.125703 0.028138 0.000365 -525266.000000 0 0 1
35.400263 -4.784643 -22.293653 42.107937 -0.134344 2.128737 0.030285 -0.006589 -911563.000000 0 0 1
34.783863 -5.635843 -23.415153 42.307792 -0.160629 2.157294 0.033897 -0.012417 -679953.000000 0 0 1
34.281263 -6.896943 -22.914853 41.807455 -0.198537 2.150893 0.049146 -0.010573 331774.000000 0 0 1
33.684263 -7.691243 -23.937353 42.033102 -0.224485 2.176679 0.052910 -0.008914 465366.000000 0 0 1
32.250363 -7.230943 -24.330453 41.040753 -0.220565 2.205373 0.029057 -0.005045 -437809.000000 0 0 1
32.196863 -6.171143 -25.224533 41.364212 -0.189372 2.226624 0.015382 -0.003509 904856.000000 0 0 1
30.819063 -5.791343 -25.433243 40.375787 -0.185748 2.252238 -0.016080 -0.003509 877977.000000 0 0 1
30.708463 -4.658243 -26.423523 40.778812 -0.150545 2.275715 -0.007836 -0.019980 -48.850100 0 0 1
30.989263 -5.021343 -27.797403 41.931419 -0.160639 2.295516 0.011380 -0.021553 375393.000000 0 0 1
30.749563 -3.923643 -28.638763 42.203191 -0.126914 2.316641 0.005341 -0.013395 -173490.000000 0 0 1
30.656763 -4.221643 -30.167453 43.217295 -0.136846 2.343455 0.012544 -0.004046 -110065.000000 0 0 1
30.032363 -3.153543 -30.821083 43.148891 -0.104621 2.366414 0.000634 -0.008753 -13557.400000 0 0 1
29.685363 -3.530543 -32.166243 43.913013 -0.118376 2.392782 0.013619 -0.015056 -797118.000000 0 0 1
29.343763 -2.276443 -33.002903 44.220247 -0.077423 2.413327 0.031300 -0.007100 263806.000000 0 0 1
28.353663 -1.314943 -32.549593 43.187212 -0.046343 2.424449 0.024886 -0.007632 1852710.000000 0 0 1
26.994463 -1.783743 -32.370223 42.186658 -0.065982 2.445431 0.017378 -0.011948 1030940.000000 0 0 1
26.165063 -2.089143 -33.652603 42.678715 -0.079676 2.479179 0.036479 -0.017847 -775907.000000 0 0 1
26.498363 -3.289843 -34.333444 43.494502 -0.123521 2.480586 0.039805 -0.019214 122694.000000 0 0 1
25.809763 -3.436143 33.228000 42.214345 -0.132355 0.664661 0.037857 -0.020633 -297117.000000 0 0 1
26.364463 -4.635043 32.403940 42.030749 -0.174028 0.690452 0.007837 -0.025234 -438195.000000 0 0 1
27.654763 -4.513243 31.897350 42.456993 -0.161773 0.720788 0.021988 -0.019896 -599904.000000 0 0 1
27.863163 -3.680643 30.754770 41.662440 -0.131337 0.740414 0.041857 -0.020918 -504490.000000 0 0 1
28.260863 -2.209143 31.107390 42.085941 -0.078011 0.739004 0.039196 -0.024530 -351062.000000 0 0 1
29.500063 -2.202243 31.794210 43.427818 -0.074514 0.749373 0.043088 -0.021510 155331.000000 0 0 1
29.951063 -0.887443 32.019130 43.852918 -0.029621 0.752257 0.048971 -0.015283 -195036.000000 0 0 1
31.390663 -0.856143 32.566390 45.240208 -0.027267 0.767203 0.042403 -0.017167 -197448.000000 0 0 1
32.359363 -1.306143 31.675790 45.301104 -0.040342 0.796480 0.041620 -0.014307 449048.000000 0 0 1
33.659963 -1.466843 32.280320 46.660088 -0.043551 0.806792 0.032969 -0.005011 804114.000000 0 0 1
34.615763 -2.299343 31.429560 46.811914 -0.066327 0.834699 0.025204 -0.000196 -276208.000000 0 0 1
35.099363 -1.599943 30.326430 46.413548 -0.045552 0.858734 0.021158 0.004097 106493.000000 0 0 1
-34.802746 -2.180543 29.744340 45.833522 0.062573 0.864573 0.006536 0.003997 284425.000000 0 0 1
-34.406846 -1.635743 28.392940 44.639285 0.047505 0.881424 0.007395 0.000289 363837.000000 0 0 1
-35.417146 -1.992843 27.427220 44.839693 0.056208 0.912623 0.017482 -0.012245 552013.000000 0 0 1
-34.955246 -1.577243 26.141510 43.677632 0.045091 0.929156 0.011095 -0.006256 -103715.000000 0 0 1
-25.839797 15.053657 12.614147 32.456500 -0.527510 1.171633 0.044478 -0.008760 -618206.000000 0 0 1
-27.032167 14.415457 12.894447 33.238686 -0.489908 1.172406 0.035513 -0.007038 67836.400000 0 0 1
-28.109037 15.323757 13.118847 34.598261 -0.499115 1.181890 0.045645 -0.006969 1654570.000000 0 0 1
-29.511257 14.739857 13.582347 35.674330 -0.463220 1.180209 0.055693 -0.006121 1662520.000000 0 0 1
-30.482987 15.595857 14.180747 37.061258 -0.472904 1.178155 0.056484 -0.010881 331084.000000 0 0 1
-31.546807 14.879157 14.784747 37.883758 -0.440714 1.169876 0.055304 -0.012785 695863.000000 0 0 1
-32.428307 15.703857 15.822147 39.351576 -0.450980 1.157018 0.049756 -0.009013 606442.000000 0 0 1
-31.724947 15.966957 17.042247 39.393580 -0.466279 1.123405 0.032550 -0.001668 58227.100000 0 0 1
-32.542307 16.581357 18.018347 40.725962 -0.471244 1.112491 0.023735 -0.007318 -91195.400000 0 0 1
-31.790107 16.803957 19.312247 40.816011 -0.486258 1.077929 0.021465 -0.003818 -60940.200000 0 0 1
-31.508807 15.528257 19.919247 40.382027 -0.457889 1.054951 0.023298 -0.006924 -229935.000000 0 0 1
-30.442567 15.596357 20.845647 40.056675 -0.473455 1.023473 0.030821 -0.003438 122134.000000 0 0 1
-30.681527 16.161557 22.279347 41.217973 -0.484819 0.999735 0.027565 -0.015792 -384029.000000 0 0 1
-31.266237 17.461357 22.283847 42.178743 -0.509325 1.014176 0.011922 -0.014534 155579.000000 0 0 1
-31.423647 18.102157 23.532647 43.230998 -0.522637 0.995186 0.001688 -0.012975 -825264.000000 0 0 1
-32.354407 17.416057 24.540247 44.185410 -0.493808 0.981961 -0.010195 -0.017845 -793474.000000 0 0 1
-33.653837 17.208257 24.095447 44.825165 -0.472671 1.003276 0.017450 -0.016865 -817535.000000 0 0 1
-34.579308 18.227957 24.196147 45.972171 -0.485119 1.016528 0.019141 -0.018484 -877925.000000 0 0 1
35.063207 17.721757 23.837847 45.953587 0.467977 1.025423 0.005003 -0.026276 -243965.000000 0 0 1
34.543641 16.955557 24.875747 45.820921 0.456296 0.996921 0.014299 -0.019467 -571455.000000 0 0 1
33.289001 16.430057 24.525547 44.492773 0.458481 0.986964 0.025357 -0.018986 -154804.000000 0 0 1
32.845521 15.523857 25.689247 44.494447 0.441515 0.955307 0.024933 -0.015473 -305575.000000 0 0 1
32.207751 16.123057 26.815947 44.904200 0.464124 0.930814 0.031512 -0.021110 326600.000000 0 0 1
31.963141 15.336657 27.923047 45.128173 0.447376 0.903646 0.026112 -0.012736 575514.000000 0 0 1
30.961681 14.111357 27.821447 43.952122 0.427641 0.885381 0.024992 0.000956 98050.400000 0 0 1
31.601591 13.019957 27.251947 43.713253 0.390811 0.897680 0.026255 -0.000993 -83821.600000 0 0 1
30.789901 11.876057 27.361347 42.868427 0.368129 0.878556 0.029402 0.002605 -110029.000000 0 0 1
31.454881 10.501157 27.061847 42.802189 0.322214 0.886338 0.025894 -0.006546 232797.000000 0 0 1
32.482101 10.018457 27.935847 43.998499 0.299173 0.882882 0.029863 -0.006652 469932.000000 0 0 1
32.933931 8.731557 27.521847 43.798812 0.259161 0.891341 0.026467 0.000102 597602.000000 0 0 1
34.156461 8.150557 28.332347 45.120032 0.234244 0.891902 0.027354 -0.005281 -14919.600000 0 0 1
35.299026 8.931857 28.376047 46.162749 0.247832 0.908796 0.028786 -0.002543 -317213.000000 0 0 1
-34.698886 8.139057 28.941447 45.911483 -0.230397 0.888760 0.031415 0.001411 76430.300000 0 0 1
-33.368077 8.889257 28.888047 45.021847 -0.260353 0.874155 0.048434 -0.003019 -363580.000000 0 0 1
-32.820117 9.141057 27.597747 43.844665 -0.271636 0.889959 0.040251 -0.003214 -362230.000000 0 0 1
-31.642617 9.859557 27.780247 43.245904 -0.302057 0.873198 0.037992 0.003011 -631486.000000 0 0 1
-31.120697 10.563857 26.534847 42.239685 -0.327244 0.891563 0.025976 -0.000344 144875.000000 0 0 1
-30.416107 9.606157 25.710147 40.968640 -0.305911 0.892385 0.019091 -0.003634 285273.000000 0 0 1
-29.535797 10.182957 24.800147 39.888635 -0.332005 0.899841 0.025137 -0.001913 -267341.000000 0 0 1
-28.932507 9.113757 23.882247 38.607153 -0.305161 0.903841 0.020381 0.002939 632522.000000 0 0 1
-27.799337 9.587257 23.134147 37.415336 -0.332101 0.904210 0.019992 0.000694 609267.000000 0 0 1
-27.289657 8.534157 22.308247 36.265894 -0.303090 0.908245 0.007516 0.002218 -113886.000000 0 0 1
-26.441457 9.107557 21.162247 35.070485 -0.331715 0.923013 0.011261 0.007825 -1653190.000000 0 0 1
-25.314797 9.692557 21.707847 34.727730 -0.365662 0.895554 0.018072 0.001928 -582596.000000 0 0 1
-24.428337 10.377357 20.861347 33.758391 -0.401708 0.904651 0.019777 0.000583 220622.000000 0 0 1
-23.701237 9.557857 19.770447 32.310553 -0.383317 0.912351 0.019802 -0.004124 -1230920.000000 0 0 1
-24.498437 9.295157 18.665847 32.171217 -0.362639 0.951818 0.024512 -0.000363 209161.000000 0 0 1
-23.917737 8.368157 17.707947 30.913680 -0.336561 0.960855 0.035804 -0.004497 -377587.000000 0 0 1
-23.850037 6.879457 18.148047 30.749029 -0.280824 0.939491 0.035655 -0.002079 272690.000000 0 0 1
-22.693437 6.625857 18.980147 30.317323 -0.284076 0.894320 0.030421 0.002118 1219980.000000 0 0 1
-22.623337 5.358057 19.611347 30.415935 -0.232553 0.870071 0.035031 0.001960 -211224.000000 0 0 1
-22.611037 3.982957 18.875247 29.722010 -0.174362 0.882711 0.040779 0.000540 -301514.000000 0 0 1
-23.893337 3.698357 18.342647 30.348346 -0.153567 0.921779 0.049409 -0.004767 537813.000000 0 0 1
-23.966837 2.728757 17.338847 29.706750 -0.113367 0.947559 0.060506 -0.004084 -185578.000000 0 0 1
-23.776837 1.270157 17.737747 29.691395 -0.053369 0.930537 0.053029 0.000587 334272.000000 0 0 1
-22.412237 0.959657 18.025347 28.777464 -0.042792 0.893908 0.025102 0.007198 720715.000000 0 0 1
-22.243437 -0.349043 18.395747 28.866864 0.015691 0.879857 0.031920 0.004814 -45856.100000 0 0 1
-20.793437 -0.865243 18.607347 27.916824 0.041587 0.841255 0.035374 0.012643 102772.000000 0 0 1
-20.207237 -0.280843 19.750947 28.257941 0.013897 0.796865 0.010798 0.013096 642336.000000 0 0 1
-19.065637 -1.079743 20.140947 27.754677 0.056573 0.758778 -0.018009 0.015699 612867.000000 0 0 1
-18.216137 -0.643143 21.328547 28.056162 0.035292 0.707162 -0.009210 0.013147 470738.000000 0 0 1
-18.869537 -0.873643 22.579447 29.438990 0.046266 0.696657 -0.002137 0.008384 691324.000000 0 0 1
-17.879537 -0.648643 23.609547 29.622783 0.036263 0.648474 -0.009659 0.001213 -247215.000000 0 0 1
-18.370137 -0.859043 25.065147 31.087964 0.046729 0.632985 -0.011372 0.006471 129814.000000 0 0 1
-19.187937 0.147157 25.618447 32.007865 -0.007669 0.642868 -0.004589 -0.008699 992798.000000 0 0 1
-20.566437 0.204957 25.165747 32.501310 -0.009965 0.685189 0.034163 -0.015398 674760.000000 0 0 1
-21.234237 1.408557 25.937147 33.550148 -0.066237 0.687104 0.038375 -0.022712 -794116.000000 0 0 1
-21.006037 2.671257 25.371947 33.047313 -0.126487 0.695480 0.027281 -0.018959 171940.000000 0 0 1
-22.147237 3.107957 24.648347 33.282135 -0.139421 0.736851 0.027778 -0.012446 -847185.000000 0 0 1
-21.942737 4.220057 23.572247 32.479893 -0.190001 0.758674 0.028735 -0.004851 -406536.000000 0 0 1
-21.249337 3.930857 22.372547 31.104932 -0.182919 0.768059 0.032200 -0.003216 -568322.000000 0 0 1
-19.961037 3.490657 22.570047 30.332074 -0.173123 0.731612 0.011696 0.003620 -1838570.000000 0 0 1
-19.353237 2.798857 21.327047 28.934829 -0.143624 0.742069 0.001988 0.007749 -306948.000000 0 0 1
-18.842337 3.586057 20.310247 27.935633 -0.188070 0.756799 0.006130 0.013420 188354.000000 0 0 1
-18.720237 2.860757 19.090347 26.890008 -0.151643 0.781380 0.008821 0.012640 -3083.560000 0 0 1
-18.379337 3.798257 17.854147 25.903617 -0.203790 0.810339 0.006710 0.005821 1288380.000000 0 0 1
-16.985537 4.192657 17.738747 24.914855 -0.241999 0.778490 0.003297 0.000673 1265090.000000 0 1 0
-16.822737 5.004357 16.562547 24.132261 -0.289139 0.814374 0.009496 0.000984 570683.000000 0 1 0
-15.327037 5.418457 16.303447 23.023469 -0.339810 0.783960 0.019681 -0.002826 636286.000000 0 1 0
-14.803437 6.311257 17.314847 23.638478 -0.403003 0.748830 0.014016 -0.002247 202887.000000 0 1 0
-15.252337 7.687757 17.327347 24.330482 -0.466873 0.778217 0.006613 -0.005010 -652203.000000 0 1 0
-14.737937 8.602357 16.163347 23.504491 -0.528339 0.812521 -0.005732 -0.006000 -2828.430000 0 1 0
-15.284337 8.156957 14.916647 22.861611 -0.490228 0.859949 0.003038 -0.001863 443193.000000 0 1 0
-16.673337 8.418157 14.819047 23.842602 -0.467550 0.900094 0.011606 -0.001098 -125311.000000 0 1 0
-17.407437 7.894557 13.550047 23.429611 -0.425774 0.954116 0.016204 -0.002144 156792.000000 0 1 0
-17.068637 6.508257 13.313747 22.604239 -0.364282 0.940984 0.012049 -0.010287 1193810.000000 0 1 0
-17.876937 5.940757 12.179347 22.432431 -0.320833 0.996868 0.030445 -0.012128 889645.000000 0 1 0
-17.583937 4.409457 11.999947 21.740214 -0.245700 0.986071 0.027283 -0.019923 -20982.200000 0 1 0
-18.036037 3.721557 13.127247 22.615774 -0.203484 0.951519 0.014618 -0.004424 131883.000000 0 1 0
-17.668737 2.353857 13.130347 22.138901 -0.132442 0.935906 0.009307 -0.011868 -532220.000000 0 1 0
-18.324337 1.501457 14.210947 23.237614 -0.081755 0.912779 0.010135 -0.007765 -198509.000000 0 1 0
-19.598837 1.058857 13.811547 23.999884 -0.053974 0.957601 0.029209 -0.005423 169041.000000 0 1 0
-20.397437 0.656657 14.949847 25.297916 -0.032182 0.938558 0.024248 0.000484 1149260.000000 0 0 1
-21.841937 0.269857 14.427147 26.177960 -0.012354 0.987093 0.034724 -0.002754 623202.000000 0 0 1
-21.955637 -0.926243 13.642147 25.865346 0.042162 1.015224 0.038013 -0.005419 744346.000000 0 0 1
-23.326437 -1.269743 13.429447 26.945964 0.054380 1.049062 0.071802 -0.012665 558331.000000 0 0 1
-23.470937 -2.518643 12.558947 26.738654 0.106900 1.081854 0.063793 -0.012217 -81853.800000 0 0 1
-22.981237 -3.737443 13.184347 26.756920 0.161219 1.055554 0.058915 -0.012240 267446.000000 0 0 1
-23.225037 -4.867843 12.338147 26.745619 0.206604 1.091320 0.063803 -0.015547 -193996.000000 0 0 1
-22.727937 -6.258043 12.765247 26.808091 0.268688 1.074501 0.048307 -0.012246 964609.000000 0 0 1
-23.729537 -6.795843 13.689647 28.225536 0.278922 1.064423 0.042216 -0.006438 1210340.000000 0 0 1
-23.756537 -8.199843 13.678347 28.613068 0.332358 1.072368 0.045080 -0.011834 -930130.000000 0 0 1
-24.642837 -8.700343 14.758047 30.012753 0.339396 1.056726 0.049530 -0.010773 -60571.200000 0 0 1
-25.965067 -8.178843 14.553147 30.868629 0.305155 1.079857 0.045813 -0.015540 780825.000000 0 0 1
-26.779017 -8.509443 15.684247 32.179528 0.307675 1.061689 0.047488 -0.013032 -236523.000000 0 0 1
-28.196117 -7.897643 15.828347 33.285588 0.273098 1.075228 0.043384 -0.013015 591146.000000 0 0 1
-29.250677 -8.275643 14.934847 33.869426 0.275716 1.114135 0.038898 -0.008771 819125.000000 0 0 1
-29.576547 -9.686443 14.893447 34.502378 0.316495 1.124459 0.042443 -0.016924 -393801.000000 0 0 1
-30.187667 -10.361443 16.187147 35.786569 0.330635 1.101426 0.046367 -0.018613 -779913.000000 0 0 1
-29.151107 -10.588843 17.063447 35.398755 0.348421 1.067820 0.051830 -0.006280 -349743.000000 0 0 1
-29.472237 -11.400943 18.109547 36.421834 0.369107 1.050408 0.055714 -0.005898 834014.000000 0 0 1
-28.195527 -11.535443 19.030847 35.919735 0.388346 1.012413 0.051095 0.003381 1188320.000000 0 0 1
-27.087307 -12.291343 18.556747 35.059267 0.425983 1.013025 0.048241 -0.001685 67535.400000 0 0 1
-25.965727 -12.069443 19.383247 34.577460 0.435111 0.975717 0.036670 -0.002878 -43383.900000 0 0 1
-24.775737 -12.965043 19.002647 33.808728 0.482110 0.973918 0.044760 -0.000411 -302544.000000 0 0 1
-24.310637 -12.650643 17.721947 32.636073 0.479814 0.996770 0.038436 -0.000048 153993.000000 0 0 1
-23.187937 -13.447943 17.370547 31.941564 0.525550 0.995811 0.035351 -0.003954 145456.000000 0 0 1
-22.810637 -13.350443 15.890947 30.839613 0.529520 1.029465 0.036806 -0.007721 -207885.000000 0 0 1
-22.430037 -12.066743 15.540147 29.836371 0.493562 1.022955 0.030889 -0.010381 -110338.000000 0 0 1
-21.994637 -11.988043 14.216447 28.802511 0.499030 1.054591 0.041842 -0.012327 690640.000000 0 0 1
-20.693637 -11.193143 13.857047 27.304410 0.495828 1.038513 0.035636 -0.014814 387213.000000 0 0 1
-20.933937 -9.772243 13.733147 26.876119 0.436748 1.034472 0.032788 -0.018816 -119292.000000 0 0 1
-19.728637 -9.119043 13.459447 25.564287 0.432973 1.016325 0.031350 -0.016844 -268120.000000 0 0 1
-19.149037 -9.226343 12.014747 24.416494 0.448996 1.056325 0.034825 -0.004414 -421793.000000 0 1 0
-18.541837 -10.439943 11.707647 24.287057 0.512806 1.067800 0.024333 -0.010583 -15565.900000 0 1 0
-18.236237 -10.431743 10.315047 23.404739 0.519602 1.114390 0.028717 -0.006280 -449724.000000 0 1 0
-17.439237 -11.660643 9.798247 23.153903 0.589370 1.133845 0.003232 -0.004346 2014360.000000 0 1 0
-15.977237 -11.618143 9.882447 22.088824 0.628728 1.106945 0.011280 -0.012135 2041560.000000 0 1 0
-15.434537 -11.757343 11.182947 22.394606 0.650982 1.047938 0.022440 -0.010018 522577.000000 0 1 0
-13.942237 -12.262543 11.217947 21.693277 0.721387 1.027318 0.023074 -0.008005 925709.000000 0 1 0
-13.857937 -13.598943 10.761247 22.198606 0.775966 1.064695 0.031399 -0.014385 610293.000000 0 1 0
-12.473037 -13.946943 10.770547 21.589316 0.841128 1.048487 0.035700 -0.016831 544076.000000 0 1 0
-12.205737 -15.474643 10.652547 22.403602 0.902948 1.075283 0.040803 -0.018189 11619.000000 0 1 0
-12.555637 -16.042043 9.399447 22.435258 0.906712 1.138498 0.028512 -0.013572 51477.600000 0 1 0
-12.185737 -17.408143 9.443647 23.253346 0.960069 1.152592 0.026804 -0.009711 99104.700000 0 1 0
-12.683637 -18.155843 8.221647 23.624241 0.961012 1.215341 0.015245 -0.004928 58778.400000 0 1 0
-11.789937 -18.015443 7.085947 22.666483 0.991310 1.252849 0.014087 -0.005921 352455.000000 0 1 0
-12.244937 -18.645243 5.928147 23.080869 0.989703 1.311043 0.008961 0.000604 -837396.000000 0 1 0
-11.237637 -18.593843 4.844947 22.259583 1.027167 1.351383 0.010229 0.004195 -544173.000000 0 1 0
-11.772837 -19.175043 3.666647 22.797506 1.020170 1.409259 0.014621 0.005698 1170500.000000 0 1 0
-10.770837 -19.084843 2.597147 22.067790 1.056990 1.452833 0.020231 -0.003829 973597.000000 0 1 0
-10.940037 -20.013843 1.383947 22.850682 1.070549 1.510194 0.024692 0.003403 -5366.080000 0 1 0
-10.606237 -21.375143 1.727147 23.924299 1.110197 1.498541 0.007478 0.004453 -200906.000000 0 1 0
-11.022237 -22.325543 0.727947 24.908824 1.112197 1.541568 0.010572 0.003237 30395.100000 0 1 0
-10.327937 -22.525643 -0.654753 24.789102 1.140899 1.597212 0.027216 0.007869 -181868.000000 0 1 0
-10.400137 -21.386543 -1.478453 23.827147 1.118174 1.632885 0.027923 -0.010964 -658948.000000 0 1 0
-11.416337 -21.417543 -2.421353 24.390713 1.081070 1.670234 0.039378 -0.006804 148449.000000 0 1 0
-12.465437 -20.242743 -2.269353 23.881075 1.018842 1.665967 0.039018 -0.004336 388270.000000 0 1 0
-13.278437 -20.442043 -1.139753 24.402727 0.994727 1.617519 0.033601 0.003374 -184388.000000 0 1 0
-14.156737 -19.351443 -0.979453 23.996894 0.939202 1.611624 0.040837 0.004760 -103697.000000 0 1 0
26.240863 -20.732843 -3.917753 33.671686 -0.668674 1.687412 0.032422 -0.019365 -522815.000000 0 0 1
24.942663 -20.968643 -3.476453 32.770507 -0.699055 1.677081 0.049746 -0.017299 -304671.000000 0 0 1
24.943663 -22.028443 -2.571153 33.377379 -0.723415 1.647906 0.038263 -0.014053 241180.000000 0 0 1
23.514863 -22.278843 -2.000553 32.454550 -0.758414 1.632477 0.037689 -0.018169 301312.000000 0 0 1
22.607763 -22.793343 -2.923153 32.236505 -0.789486 1.661599 0.042143 -0.028117 -1137920.000000 0 0 1
21.398163 -23.094043 -2.326353 31.569417 -0.823496 1.644553 0.048113 -0.024117 -521646.000000 0 0 1
20.343263 -23.665843 -3.286353 31.380258 -0.860753 1.675715 0.055773 -0.029501 337451.000000 0 0 1
19.740263 -22.687043 -4.172753 30.361024 -0.854742 1.708671 0.053259 -0.030882 -29320.400000 0 0 1
18.696963 -23.153243 -5.007953 30.178282 -0.891480 1.737513 0.056890 -0.029234 -332259.000000 0 0 1
17.709463 -22.118443 -5.453553 28.854668 -0.895650 1.760941 0.047182 -0.014383 -1022930.000000 0 0 1
16.768963 -21.658243 -4.504853 27.759166 -0.911953 1.733801 0.044281 -0.012812 57442.200000 0 0 1
17.243163 -20.952443 -3.388553 27.346185 -0.882207 1.695029 0.042019 -0.016946 -580703.000000 0 0 1
16.108963 -20.416743 -2.487853 26.125304 -0.902794 1.666169 0.055956 -0.008230 4152.300000 0 0 1
15.408963 -21.372243 -1.728853 26.404504 -0.946128 1.636319 0.042351 -0.014481 -229209.000000 0 0 1
14.711263 -20.626943 -0.778453 25.347545 -0.951262 1.601512 0.040369 -0.005891 -401207.000000 0 0 1
14.392863 -21.440143 0.424547 25.826623 -0.979590 1.554357 0.030546 -0.007849 333024.000000 0 0 1
13.402663 -22.473243 0.249347 26.167541 -1.033041 1.561267 0.028945 -0.007918 -14187.300000 0 0 1
12.982063 -22.677143 1.569047 26.177255 -1.050863 1.510821 0.030177 -0.011363 -524823.000000 0 0 1
11.997163 -23.846843 1.682547 26.747613 -1.104678 1.507850 0.029898 -0.015939 -441722.000000 0 0 1
12.532063 -25.085543 1.986247 28.111959 -1.107490 1.500083 0.017793 -0.014293 -282956.000000 0 0 1
11.709463 -26.154503 1.559147 28.698441 -1.149854 1.516441 0.023614 -0.009247 34792.400000 0 0 1
12.075863 -27.521473 2.138247 30.130218 -1.157312 1.499770 0.024191 -0.012390 21200.300000 0 0 1
11.837163 -27.552713 3.529747 30.194860 -1.165020 1.453630 0.040571 -0.017561 149656.000000 0 0 1
12.088663 -28.886173 3.989347 31.566781 -1.174450 1.444079 0.037685 -0.016668 53683.100000 0 0 1
11.521963 -29.073003 5.429447 31.740732 -1.193474 1.398895 0.035861 -0.009927 10419.300000 0 0 1
11.750863 -30.372643 5.986847 33.112272 -1.201643 1.388992 0.026214 -0.016948 -257343.000000 0 0 1
11.670763 -30.332163 7.408447 33.333645 -1.203492 1.346673 0.021514 -0.011342 56011.200000 0 0 1
11.784363 -31.730123 7.978947 34.775502 -1.215191 1.339292 0.019252 -0.012261 -118562.000000 0 0 1
11.575563 -31.804643 9.365647 35.117579 -1.221741 1.300835 0.007868 -0.006150 -253251.000000 0 0 1
10.902563 -32.978823 9.669547 36.055080 -1.251514 1.299284 0.010414 -0.007975 -253789.000000 0 0 1
10.820663 -33.222503 11.156947 36.678317 -1.255929 1.261715 0.006861 -0.004502 -872762.000000 0 0 1
12.092963 -33.546153 11.604247 37.499903 -1.224809 1.256184 0.011378 -0.007233 -802611.000000 0 0 1
12.226763 -33.899623 13.036847 38.322807 -1.224643 1.223683 0.017368 -0.004802 -3051.660000 0 0 1
11.348563 33.943473 13.653447 38.306211 1.248143 1.206353 0.010587 -0.008701 26799.200000 0 0 1
11.509963 32.673960 13.049647 37.018376 1.232103 1.210536 0.010041 -0.008012 -344034.000000 0 0 1
10.416963 31.829730 13.282147 36.028603 1.254511 1.193234 0.015268 -0.002059 -179920.000000 0 0 1
10.363163 30.690370 12.285447 34.644280 1.245149 1.208292 0.020240 -0.003000 -258421.000000 0 0 1
10.042663 31.001870 10.921347 34.369271 1.257526 1.247425 0.028048 -0.004635 -18866.500000 0 0 1
10.866963 31.900620 10.213047 35.214297 1.242475 1.276543 0.003862 -0.007066 -117946.000000 0 0 1
10.405463 32.002040 8.729147 34.764957 1.256429 1.316990 0.003434 -0.007140 1125390.000000 0 0 1
9.140163 32.705620 8.640547 35.040822 1.298281 1.321641 0.003883 -0.006128 1075310.000000 0 0 1
8.572963 32.746240 7.304747 34.629052 1.314743 1.358257 0.000282 -0.006630 218104.000000 0 0 1
9.023963 34.015451 6.535747 35.793837 1.311480 1.387172 0.003557 -0.009145 -239511.000000 0 0 1
8.379563 -33.791543 6.947347 35.501424 -1.327722 1.373833 0.001678 -0.010204 -114699.000000 0 0 1
8.832663 -32.715353 6.166047 34.443147 -1.307098 1.390805 0.017663 -0.020113 -380487.000000 0 0 1
7.949063 -31.479223 6.363847 33.085157 -1.323449 1.377243 0.013917 -0.012469 -158106.000000 0 0 1
7.889863 -31.012833 7.722547 32.919348 -1.321675 1.334000 0.023922 -0.011628 -12060.900000 0 0 1
7.204963 -29.772343 7.816347 31.613276 -1.333359 1.320956 0.027465 -0.010254 -128605.000000 0 0 1
8.012563 -28.536983 7.402347 30.550864 -1.297066 1.326065 0.051117 -0.018170 -674463.000000 0 0 1
8.840063 -28.107903 8.437947 30.649631 -1.266086 1.291891 0.043147 -0.012354 320926.000000 0 0 1
9.854563 -27.149733 8.048647 29.983348 -1.222613 1.299026 0.040106 -0.012039 364256.000000 0 0 1
9.495363 -25.816813 7.392047 28.483541 -1.218355 1.308271 0.048327 -0.011959 -591572.000000 0 0 1
9.199063 -26.056793 6.028247 28.282839 -1.231417 1.356007 0.053673 -0.018800 -189542.000000 0 0 1
8.533163 -24.960343 5.417447 26.929210 -1.241384 1.368240 0.047965 -0.018948 220792.000000 0 0 1
8.106663 -25.205183 3.962047 26.771572 -1.259618 1.422256 0.044245 -0.018637 117579.000000 0 0 1
7.269163 -26.274013 3.581947 27.495360 -1.300881 1.440150 0.043601 -0.018408 -86364.700000 0 0 1
7.733763 -27.573613 3.869147 28.897847 -1.297345 1.436503 0.037724 -0.016571 109234.000000 0 0 1
6.585363 -28.570153 3.553647 29.533863 -1.344255 1.450180 0.031857 -0.015754 61176.800000 0 0 1
5.458463 -28.630113 4.416347 29.478506 -1.382403 1.420414 0.019228 -0.002577 -80815.500000 0 0 1
4.442563 -29.433653 3.869347 30.017464 -1.420992 1.441533 0.015504 -0.001109 54909.900000 0 0 1
4.692363 -30.952603 4.101447 31.573783 -1.420344 1.440528 0.011664 -0.006839 -304952.000000 0 0 1
5.534063 -31.580583 3.145447 32.215725 -1.397321 1.473004 0.013811 -0.011671 -145048.000000 0 0 1
5.523463 -32.975813 3.454447 33.613184 -1.404837 1.467844 0.004015 -0.004300 -143358.000000 0 0 1
6.701763 -33.811383 2.932647 34.593694 -1.375122 1.485920 0.004886 -0.007412 -187067.000000 0 0 1
6.738463 -33.943423 1.530847 34.639665 -1.374824 1.526588 0.012430 -0.009556 -311814.000000 0 0 1
7.681363 34.022968 1.205347 34.900122 1.348749 1.536252 0.008622 -0.008563 -491673.000000 0 0 1
7.397163 33.347927 -0.178553 34.158954 1.352513 1.576023 0.017514 -0.005737 195313.000000 0 0 1
6.180463 32.627270 -0.081653 33.207582 1.383588 1.573255 0.008740 0.001659 -677890.000000 0 0 1
5.089263 33.307125 -0.581853 33.698720 1.419171 1.588064 0.008285 -0.002850 -499190.000000 0 0 1
3.709763 32.660690 -0.288853 32.871970 1.457696 1.579584 0.009165 -0.006200 287649.000000 0 0 1
3.626463 31.414010 -0.973753 31.637627 1.455864 1.601580 0.015077 0.003303 -485225.000000 0 0 1
2.555263 30.659090 -0.505753 30.769546 1.487644 1.587234 0.012953 -0.005199 -590691.000000 0 0 1
2.315763 29.445700 -1.430753 29.571254 1.492313 1.619198 0.017659 -0.001117 -80957.700000 0 0 1
1.946763 29.879710 -2.741553 30.068307 1.505735 1.662101 0.022170 -0.004781 125808.000000 0 0 1
1.675163 28.812290 -3.677053 29.094242 1.512721 1.697519 0.030116 -0.006403 -255331.000000 0 0 1
1.661863 29.302290 -5.129553 29.794266 1.514143 1.743824 0.024213 -0.011604 1052000.000000 0 0 1
0.469463 30.107210 -5.403653 30.591894 1.555205 1.748365 0.020432 -0.008669 1129080.000000 0 0 1
0.485163 30.908320 -6.580553 31.604799 1.555101 1.780545 0.013960 -0.007371 -77232.700000 0 0 1
0.290763 30.113790 -7.951653 31.147290 1.561141 1.828946 0.017085 -0.009048 551400.000000 0 0 1
-1.060337 29.685720 -8.213553 30.819292 -1.535093 1.840563 0.023645 -0.012220 808392.000000 0 0 1
-1.287637 29.136780 -9.537653 30.685123 -1.526632 1.886856 0.020762 -0.013441 152231.000000 0 0 1
-1.511337 30.170470 -10.670453 32.037478 -1.520745 1.910345 0.014276 -0.020855 746189.000000 0 0 1
-0.282937 30.886910 -10.932353 32.765799 -1.561636 1.910971 0.017583 -0.025932 785196.000000 0 0 1
-0.541437 32.123470 -11.636953 34.170589 -1.553943 1.918303 0.005471 -0.023474 -32521.800000 0 0 1
-0.839537 33.377837 -10.742053 35.073872 -1.545649 1.882068 0.001527 -0.019562 521125.000000 0 0 1
0.249763 33.704694 -9.865053 35.119625 1.563386 1.855527 0.009433 -0.023220 390683.000000 0 0 1
-0.208837 34.467893 -8.769053 35.566495 -1.564738 1.819919 -0.001172 -0.009737 -144154.000000 0 0 1
0.897063 -34.272208 -7.699653 35.137923 -1.544628 1.791716 0.015922 -0.012911 448956.000000 0 0 1
1.891663 -33.373503 -8.201553 34.418521 -1.514175 1.811400 0.028132 -0.004752 -226009.000000 0 0 1
2.695263 -32.918243 -7.142253 33.791818 -1.489101 1.783763 0.034763 -0.011908 -406927.000000 0 0 1
3.964463 -32.183833 -7.679753 33.324086 -1.448232 1.803343 0.021114 -0.004102 681589.000000 0 0 1
4.770563 -32.933373 -8.604853 34.371629 -1.426942 1.823836 0.034063 -0.002426 116314.000000 0 0 1
5.650363 -33.797373 -7.931553 35.172412 -1.405145 1.798258 0.047770 0.011915 -916468.000000 0 0 1
6.119963 33.966346 -8.820153 35.622488 1.392532 1.820999 0.045985 0.009318 11429.700000 0 0 1
5.155763 32.977711 -9.056153 34.585043 1.415711 1.835737 0.039882 0.006038 -533620.000000 0 0 1
4.035663 33.282504 -9.857253 34.945344 1.450131 1.856754 0.037451 0.000071 -86682.200000 0 0 1
3.170463 32.021890 -9.920853 33.673084 1.472109 1.869857 0.037999 -0.014944 -156384.000000 0 0 1
3.798663 31.004500 -10.685153 33.013351 1.448884 1.900393 0.042818 -0.011874 145940.000000 0 0 1
2.984563 29.864850 -10.766853 31.886392 1.471191 1.915229 0.028391 -0.018203 95398.900000 0 0 1
3.744763 28.911950 -11.674053 31.403943 1.441990 1.951677 0.023305 -0.015349 109025.000000 0 0 1
3.703763 29.314290 -13.054353 32.302656 1.445116 1.986820 0.021255 -0.009585 -117413.000000 0 0 1
4.789263 28.796700 -13.789853 32.285399 1.405992 2.012105 0.031234 -0.017749 -89985.200000 0 0 1
4.786563 29.208070 -15.283953 33.310985 1.408362 2.047470 0.039233 -0.012123 616537.000000 0 0 1
3.759863 28.572150 -16.077553 32.999879 1.439956 2.079677 0.021753 -0.002357 411420.000000 0 0 1
3.678963 29.126380 -17.381353 34.117330 1.445151 2.105351 0.048724 -0.006276 224219.000000 0 0 1
2.596363 28.351620 -18.188553 33.784300 1.479474 2.139302 0.035221 -0.007768 36410.100000 0 0 1
2.911763 27.034890 -18.587353 32.937112 1.463506 2.170416 0.051667 0.004476 -298660.000000 0 0 1
1.965063 26.505120 -19.480453 32.952555 1.496793 2.203301 0.015558 0.001894 -164961.000000 0 0 1
2.472263 25.309720 -20.333753 32.560030 1.473425 2.245288 0.035525 -0.001537 63165.500000 0 0 1
2.739463 24.149510 -19.603953 31.225286 1.457842 2.249549 0.031717 -0.000999 -297814.000000 0 0 1
3.963563 23.573910 -19.981953 31.156340 1.404221 2.267046 0.039839 -0.004138 -157444.000000 0 0 1
4.345163 22.521310 -18.911553 29.727709 1.380203 2.260306 0.037635 -0.005143 -311585.000000 0 0 1
3.499363 21.419110 -18.810453 28.720323 1.408851 2.284916 0.048321 -0.004131 -136863.000000 0 0 1
4.239363 20.469610 -18.020153 27.598968 1.366578 2.282241 0.039696 -0.000782 163974.000000 0 0 1
3.539463 19.186310 -17.675353 26.326040 1.388369 2.306895 0.034952 -0.010870 -265099.000000 0 0 1
2.502663 19.439110 -16.739853 25.775279 1.442757 2.277662 0.033963 -0.013316 4096.320000 0 0 1
1.657463 18.316810 -16.427753 24.660166 1.480553 2.299852 0.030353 -0.013141 502473.000000 0 1 0
2.330163 17.236710 -15.510753 23.304877 1.436425 2.299038 0.021243 -0.002965 905581.000000 0 1 0
3.522863 16.565410 -16.002853 23.300530 1.361254 2.327877 0.016381 -0.012141 149166.000000 0 1 0
3.372563 15.368910 -16.655653 22.912624 1.354780 2.384623 0.020030 -0.023566 -85590.800000 0 1 0
3.029063 15.430710 -18.164853 24.025901 1.376960 2.428058 0.020607 -0.021055 -203402.000000 0 1 0
4.132063 15.960110 -18.910453 25.087931 1.317459 2.424572 0.016312 -0.012713 -160387.000000 0 0 1
3.811663 16.372210 -20.225753 26.299413 1.342058 2.448161 0.011287 -0.009610 -96064.800000 0 0 1
4.188563 15.401910 -21.404353 26.700360 1.305267 2.500847 0.008589 -0.011654 -65361.300000 0 0 1
3.374363 14.298110 -21.569453 26.097195 1.339036 2.543666 0.017006 -0.012632 364057.000000 0 0 1
2.177863 14.558410 -22.341753 26.755267 1.422303 2.559004 0.032094 -0.013451 913092.000000 0 0 1
1.371863 13.306010 -22.795153 26.430114 1.468058 2.610924 0.040215 -0.013043 301317.000000 0 0 1
0.674163 12.655710 -21.716453 25.144101 1.517577 2.613322 0.037358 -0.007388 -16432.000000 0 0 1
-0.055237 11.605510 -22.268453 25.111251 -1.566037 2.661153 0.025860 -0.003500 -668005.000000 0 0 1
-0.662837 10.768210 -21.220753 23.805757 -1.509319 2.671249 0.019131 -0.001289 -1263480.000000 0 1 0
-1.692937 11.492710 -20.547553 23.604033 -1.424543 2.627035 0.027323 0.000432 -62367.400000 0 1 0
-2.291637 10.772010 -19.498753 22.393954 -1.361181 2.627451 0.024723 0.004889 353619.000000 0 1 0
-3.301037 9.699710 -20.017653 22.487500 -1.242768 2.668510 0.028463 0.002565 -741285.000000 0 1 0
-2.628837 8.590410 -20.528153 22.407834 -1.273826 2.729077 0.019632 -0.002695 -917853.000000 0 1 0
-3.493937 7.718710 -21.170853 22.803314 -1.145734 2.760910 0.010840 0.007001 -465690.000000 0 1 0
-2.836637 6.663310 -22.076453 23.233941 -1.168324 2.824613 0.009044 0.010010 -191346.000000 0 1 0
-2.143837 5.737010 -21.321653 22.183828 -1.213179 2.861881 0.013315 0.009661 -307376.000000 0 1 0
-1.892837 4.598310 -22.133653 22.685367 -1.180298 2.920597 0.014611 0.005172 -413616.000000 0 1 0
-1.400437 3.364710 -21.381353 21.689739 -1.176391 2.972762 0.005654 0.005683 1816360.000000 0 1 0
0.006663 3.509910 -20.953953 21.245886 1.568898 2.975627 0.007296 0.000481 1795040.000000 0 1 0
0.416163 2.561110 -19.981453 20.149217 1.409711 3.012460 0.013755 -0.006688 -285308.000000 0 1 0
1.934663 2.470010 -19.861053 20.107345 0.906346 2.984915 0.020215 -0.014243 15431.700000 0 1 0
2.566063 1.839210 -21.009553 21.245440 0.621875 2.992438 0.027851 -0.021169 -115073.000000 0 1 0
3.964363 1.993510 -21.029553 21.492612 0.465931 2.933637 0.032890 -0.012374 22849.100000 0 1 0
4.742063 1.125410 -22.031553 22.564198 0.233014 2.923881 0.038485 -0.015543 -71126.700000 0 1 0
6.128863 1.358110 -22.032053 22.908924 0.218069 2.864021 0.045368 -0.015694 -129873.000000 0 1 0
6.809863 0.941210 -23.179853 24.177794 0.137343 2.853280 0.054760 -0.014570 657754.000000 0 1 0
8.362963 0.854210 -23.019653 24.506596 0.101789 2.791453 0.048623 -0.023438 781533.000000 0 1 0
9.066963 2.072910 -23.093653 24.896257 0.224760 2.758720 0.047622 -0.032154 -643062.000000 0 1 0
10.409263 1.922810 -23.391153 25.674813 0.182662 2.716631 0.035975 -0.018741 -939954.000000 0 0 1
13.415463 -21.219743 22.550830 33.745994 -1.007025 0.838940 0.054835 0.004564 -256500.000000 0 0 1
12.355163 -22.117943 22.677830 34.002021 -1.061372 0.840681 0.044702 0.009282 611853.000000 0 0 1
11.005863 -21.782843 22.311430 33.066920 -1.102955 0.830190 0.039774 0.001408 1316430.000000 0 0 1
10.739563 -21.567243 20.799030 31.828978 -1.108784 0.858647 0.064688 -0.008181 -297487.000000 0 0 1
11.280863 -20.371543 20.231830 30.847765 -1.065074 0.855474 0.056884 -0.008960 -82808.800000 0 0 1
10.976163 -20.224843 18.875430 29.762431 -1.073570 0.883819 0.082590 -0.014549 152245.000000 0 0 1
11.365963 -18.796343 18.446030 28.683509 -1.026935 0.872272 0.081983 -0.013336 -425640.000000 0 0 1
10.588063 -17.799243 19.006130 28.109663 -1.034165 0.828282 0.085195 -0.013065 -446511.000000 0 0 1
10.733863 -16.557443 18.294430 26.908194 -0.995631 0.823193 0.077330 -0.009580 171126.000000 0 0 1
9.749563 -15.490243 18.827130 26.257617 -1.009039 0.771284 0.065166 -0.000834 487526.000000 0 0 1
8.403963 -15.705643 18.444030 25.641296 -1.079471 0.767988 0.055427 -0.002465 -361266.000000 0 0 1
7.506563 -14.751543 18.958630 25.167165 -1.100081 0.717719 0.041142 0.001455 -319004.000000 0 0 1
6.117663 -15.037843 18.399630 24.537908 -1.184426 0.722968 0.022708 0.006610 -972538.000000 0 1 0
5.909263 -14.891743 16.970130 23.338139 -1.193039 0.756647 0.017363 0.000416 684348.000000 0 1 0
4.533463 -15.161243 16.621730 22.949891 -1.280242 0.760833 -0.007130 -0.000548 981840.000000 0 1 0
4.002763 -16.619943 16.802330 23.970042 -1.334456 0.794037 -0.023890 0.010610 -942273.000000 0 1 0
2.676963 -16.663043 16.353630 23.500306 -1.411505 0.801138 -0.013217 0.010055 -725225.000000 0 1 0
2.080863 -17.895343 16.612230 24.505908 -1.455037 0.825912 -0.014230 0.000865 918782.000000 0 1 0
0.556963 -17.890943 16.210430 24.148998 -1.539675 0.834879 -0.007428 0.008979 532403.000000 0 1 0
0.367863 -17.513943 14.846830 22.963055 -1.549795 0.867739 -0.004322 -0.000483 -781385.000000 0 1 0
-1.012437 -17.671343 14.681930 22.996967 1.513566 0.878341 -0.005693 0.004294 -511175.000000 0 1 0
-1.474737 -17.865343 13.215830 22.271136 1.488436 0.935512 -0.008075 -0.011601 -366230.000000 0 1 0
-2.834537 -18.189143 13.221830 22.664870 1.416203 0.947934 -0.007232 -0.006929 -676545.000000 0 1 0
-3.087637 -19.428843 12.570930 23.346129 1.413194 1.002189 0.003675 -0.014416 569910.000000 0 1 0
-4.605537 -19.776043 12.474630 23.831057 1.341990 1.019888 0.002277 -0.012871 797520.000000 0 1 0
-5.289237 -20.234843 13.644230 24.971783 1.315124 0.992753 0.001722 -0.011596 17995.800000 0 1 0
-5.282637 -21.665643 13.683030 26.163556 1.331637 1.020452 -0.038453 0.002110 -362303.000000 0 0 1
-6.137537 -22.147043 14.861530 27.368339 1.300454 0.996768 -0.018501 -0.001708 134118.000000 0 0 1
-7.515637 -21.886843 14.630630 27.378350 1.240026 1.007014 0.002398 -0.003627 -141809.000000 0 0 1
-8.278637 -22.745743 15.458830 28.720726 1.221736 1.002441 0.003552 -0.002495 -574786.000000 0 0 1
-9.711237 -22.236743 15.496030 28.790760 1.159041 1.002462 0.022164 -0.007838 -602510.000000 0 0 1
-9.939837 -21.039643 16.208030 28.357842 1.129444 0.962398 0.012332 -0.010661 710284.000000 0 0 1
-11.292937 -20.534243 16.088030 28.425522 1.067987 0.969185 0.025857 -0.010237 1086240.000000 0 0 1
-11.564037 -19.301343 16.975930 28.186008 1.031016 0.924439 0.021702 -0.011235 -369745.000000 0 0 1
-11.683037 -19.658743 18.321930 29.302776 1.034584 0.895328 0.023515 -0.015727 -48988.200000 0 0 1
-12.008837 -18.537143 19.161730 29.240550 0.995951 0.856199 0.018351 -0.017876 -145737.000000 0 0 1
-12.627037 -18.943543 20.514830 30.645688 0.982867 0.837369 0.016576 -0.011075 250599.000000 0 0 1
-13.920237 -19.513643 20.357830 31.448315 0.951161 0.866704 0.023044 -0.007617 179282.000000 0 0 1
-14.179837 -20.408143 21.447730 32.826289 0.963560 0.858768 0.015699 -0.001417 358419.000000 0 0 1
-15.587837 -21.058543 21.335230 33.788089 0.933587 0.887384 0.026593 -0.006666 -289523.000000 0 0 1
-15.574637 -22.035943 20.314430 33.776149 0.955532 0.925490 0.026316 -0.007846 -62055.400000 0 0 1
-16.796237 -22.344343 19.699130 34.197061 0.926208 0.956911 0.033411 -0.002108 -206103.000000 0 0 1
-17.880937 -23.096243 20.514730 35.693396 0.911991 0.958499 0.037531 -0.015365 -843187.000000 0 0 1
-18.460137 -22.270043 21.470930 36.024052 0.878667 0.932265 0.046138 -0.013614 -387461.000000 0 0 1
-19.092737 -22.985843 22.467330 37.385325 0.877655 0.926086 0.051118 -0.008448 -234256.000000 0 0 1
-19.606437 -22.072443 23.638030 37.820122 0.844496 0.895649 0.045013 -0.010177 205307.000000 0 0 1
-20.653637 -21.184243 23.244730 37.625289 0.798080 0.904860 0.044491 -0.005339 356286.000000 0 0 1
-20.808237 -20.189743 24.253050 37.799721 0.770313 0.874188 0.042597 -0.004062 -268426.000000 0 0 1
-21.835837 -19.193343 23.735260 37.530665 0.721082 0.886119 0.039155 -0.001221 -223507.000000 0 0 1
-21.444537 -18.461643 22.572530 36.196956 0.710789 0.897453 0.043965 -0.000404 27469.600000 0 0 1
-22.360237 -17.399143 22.348830 36.085740 0.661262 0.902913 0.038376 0.003155 -63628.700000 0 0 1
-22.161237 -16.636243 21.071530 34.812274 0.643943 0.920666 0.039893 0.004347 436604.000000 0 0 1
-20.946537 -15.861143 21.029030 33.653431 0.648106 0.895831 0.038938 0.003463 217408.000000 0 0 1
-20.865237 -15.327443 19.743330 32.558989 0.633567 0.919288 0.035157 0.008020 700245.000000 0 0 1
-19.735337 -14.276943 19.445130 31.167736 0.626272 0.897090 0.029859 0.001606 563876.000000 0 0 1
-19.565337 -13.934943 18.033430 30.036473 0.618884 0.926815 0.022057 0.000681 -499227.000000 0 0 1
-18.585437 -12.988343 17.787530 28.818601 0.609950 0.905587 0.035000 -0.015095 -646296.000000 0 0 1
-18.316337 -12.859843 16.269530 27.668780 0.612132 0.942199 0.023773 -0.016255 94567.700000 0 0 1
-17.825837 -11.645243 15.635330 26.416581 0.578677 0.937412 0.020805 -0.015860 -51960.100000 0 0 1
-16.487437 -11.348843 15.938030 25.586181 0.602853 0.898332 0.016511 -0.017381 -412697.000000 0 0 1
-16.036637 -10.093343 15.177030 24.277388 0.561752 0.895472 0.017822 -0.022904 -176122.000000 0 1 0
-16.650637 -8.939443 15.647030 24.535422 0.492717 0.879246 0.018371 -0.020981 184598.000000 0 1 0
-16.317737 -7.840943 14.807030 23.387969 0.447940 0.885239 0.011755 -0.014867 -559937.000000 0 1 0
-16.721937 -6.562343 15.495130 23.723124 0.373971 0.859039 0.015038 -0.005754 281960.000000 0 1 0
-15.967237 -6.155543 16.635830 23.866174 0.367954 0.799526 0.013679 -0.005631 1289520.000000 0 1 0
-14.557737 -5.873543 16.458330 22.744293 0.383490 0.761757 0.018498 -0.010536 668195.000000 0 1 0
-13.770637 -5.914443 17.760930 23.239229 0.405673 0.700895 0.019553 -0.010359 -297263.000000 0 1 0
-13.738737 -7.059943 18.573030 24.156845 0.474683 0.693753 0.016850 -0.011040 11289.400000 0 1 0
-13.124337 -8.229643 18.018330 23.762060 0.560074 0.710123 0.014100 -0.012322 -535010.000000 0 1 0
-12.875737 -9.450843 18.890430 24.737652 0.633185 0.701878 0.012916 -0.012091 220309.000000 0 1 0
-13.998737 -10.200643 19.358330 25.976195 0.629718 0.729911 0.010556 -0.011877 46699.000000 0 0 1
-14.908537 -9.527543 20.166030 26.827362 0.568651 0.720166 0.012695 -0.006263 -1381640.000000 0 0 1
-16.264437 -10.189243 20.488630 28.073770 0.559658 0.752746 0.013794 0.000031 270942.000000 0 0 1
-17.287737 -10.114843 19.520730 27.968461 0.529382 0.798258 0.025476 -0.005420 354100.000000 0 0 1
-17.721737 -8.781943 19.156830 27.534826 0.460078 0.801359 0.013514 -0.003710 -399154.000000 0 0 1
-18.870437 -8.718143 18.108230 27.568232 0.432788 0.854161 0.024257 -0.018459 -172768.000000 0 0 1
-20.176537 -8.994443 18.461830 28.789440 0.419345 0.874643 0.023660 -0.006653 115768.000000 0 0 1
-21.106737 -8.994943 17.320930 28.747487 0.402857 0.924142 0.037144 -0.010109 2022540.000000 0 0 1
-22.595437 -9.260943 17.807430 30.222896 0.388977 0.940724 0.037731 -0.003009 1058850.000000 0 0 1
-23.196437 -8.119043 18.468930 30.742397 0.336686 0.926340 0.043299 -0.001194 462571.000000 0 0 1
-24.525237 -8.477143 18.800030 32.043570 0.332794 0.943816 0.047295 0.004466 10804.600000 0 0 1
-25.255267 -7.351743 19.592930 32.798774 0.283269 0.930581 0.054391 -0.001993 -274178.000000 0 0 1
-24.940637 -7.323343 20.944430 33.381670 0.285603 0.892557 0.055895 -0.003876 211914.000000 0 0 1
-25.652827 -6.329043 21.631630 34.147500 0.241888 0.884759 0.054161 -0.005159 -646408.000000 0 0 1
-25.605147 -6.553943 23.218930 35.180911 0.250582 0.849995 0.047070 -0.004705 338959.000000 0 0 1
-24.505837 -6.208743 24.044340 34.888607 0.248136 0.810447 0.034158 0.001540 -18639.800000 0 0 1
-23.259937 -6.791843 23.776860 33.948386 0.284099 0.794863 0.029429 0.006903 -68759.200000 0 0 1
-22.180537 -6.622443 24.889200 33.989782 0.290144 0.749169 0.022623 0.013444 380661.000000 0 0 1
-21.725037 -5.267043 25.015730 33.548558 0.237852 0.729275 0.016743 0.020174 30256.100000 0 0 1
-20.886137 -5.030443 26.113470 33.814929 0.236349 0.688426 0.022669 0.013839 20561.700000 0 0 1
-20.522337 -3.568543 26.348520 33.587875 0.172164 0.668963 0.019440 0.009023 -151040.000000 0 0 1
-19.535037 -3.279943 27.318540 33.744309 0.166349 0.627369 0.013520 0.011308 -361259.000000 0 0 1
-19.950437 -3.007243 28.652310 35.043093 0.149609 0.613513 0.022718 0.008619 -148930.000000 0 0 1
-20.650937 -1.661243 28.980800 35.624538 0.080271 0.620640 0.040207 -0.001477 760553.000000 0 0 1
-21.946137 -1.682443 28.372080 35.908753 0.076513 0.659798 0.039287 -0.004231 -374810.000000 0 0 1
-22.660237 -0.562443 28.724390 36.590891 0.024816 0.668076 0.043074 -0.018405 729954.000000 0 0 1
-24.032837 -0.412843 27.959130 36.870865 0.017177 0.710097 0.046601 -0.013726 585466.000000 0 0 1
-23.722237 -0.155943 26.588400 35.633017 0.006574 0.728501 0.036622 -0.021487 -167908.000000 0 0 1
-24.840437 0.118557 25.764960 35.789587 -0.004773 0.767137 0.040542 -0.024668 -8142.350000 0 0 1
-25.678217 -1.162243 25.387610 36.128277 0.045231 0.791601 0.034396 -0.018007 431268.000000 0 0 1
-26.649677 -1.588443 26.366510 37.522278 0.059534 0.791626 0.031971 -0.009939 426218.000000 0 0 1
-27.272737 -2.819843 26.131530 37.876254 0.103028 0.809420 0.031681 -0.010357 -188780.000000 0 0 1
-26.401977 -4.085243 26.154290 37.387171 0.153515 0.796025 0.035165 -0.010619 -198038.000000 0 0 1
-26.007807 -4.407343 27.471260 38.085442 0.167868 0.765110 0.034421 -0.005383 -82992.000000 0 0 1
-25.095317 -5.489043 27.485440 37.621191 0.215337 0.751619 0.023656 -0.002024 25351.000000 0 0 1
-24.526337 -5.933943 28.867540 38.341724 0.237380 0.718337 0.022976 0.006088 -65828.500000 0 0 1
-25.541157 -6.366943 29.728900 39.707634 0.244303 0.724705 0.027479 0.006730 140796.000000 0 0 1
-24.993137 -7.071643 30.830370 40.313482 0.275736 0.700119 0.033603 0.010083 110248.000000 0 0 1
-26.133407 -7.692343 31.699170 41.796705 0.286264 0.709921 0.023668 0.008881 79856.500000 0 0 1
-26.817957 -8.615143 30.905280 41.815785 0.310832 0.739090 0.015351 0.005083 -158061.000000 0 0 1
-28.084837 -8.863143 31.475220 43.104558 0.305693 0.752172 0.011008 0.005441 -99207.400000 0 0 1
-29.063577 -9.651943 30.592740 43.287034 0.320638 0.785915 -0.001534 -0.010004 -266617.000000 0 0 1
-28.918047 -11.059443 30.536590 43.486183 0.365278 0.792294 0.008256 -0.005544 -152346.000000 0 0 1
-29.725137 -11.733743 29.623140 43.575165 0.375965 0.823283 0.006025 -0.000985 -841158.000000 0 0 1
-29.087097 -12.960043 29.033660 43.092637 0.419155 0.831525 0.011892 -0.006271 -490278.000000 0 0 1
-28.113097 -12.552843 28.123520 41.699551 0.419950 0.830601 0.007345 -0.000982 -512938.000000 0 0 1
-27.407757 -13.607243 27.468200 41.119877 0.460823 0.839274 0.007090 -0.000636 -544591.000000 0 0 1
-26.214927 -13.063043 26.658720 39.604960 0.462291 0.832383 0.014982 -0.001692 -932522.000000 0 0 1
-25.203767 -12.503743 27.440860 39.301073 0.460528 0.797886 0.008946 -0.003416 -711989.000000 0 0 1
-25.411987 -11.400643 28.314380 39.717098 0.421716 0.777169 0.010285 -0.012021 -1670060.000000 0 0 1
-25.510307 -10.074843 27.599090 38.909999 0.376130 0.782283 0.006858 -0.000279 -85634.500000 0 0 1
-24.301137 -9.547243 27.107950 37.636898 0.374347 0.766635 0.012879 0.007111 -290805.000000 0 0 1
-23.732437 -10.126143 25.959860 36.601663 0.403292 0.782358 0.012551 -0.000750 -435759.000000 0 0 1
-24.420037 -9.926143 24.601070 36.056611 0.386076 0.819906 0.021096 0.003711 -427171.000000 0 0 1
-25.672207 -10.561043 24.497040 37.023004 0.390278 0.847751 0.013151 0.003000 -316683.000000 0 0 1
-26.166407 -10.374343 23.209630 36.482802 0.377464 0.881259 0.024926 0.009871 -315764.000000 0 0 1
-27.356077 -11.330143 22.880430 37.419797 0.392664 0.912901 0.033207 0.002785 493894.000000 0 0 1
-28.624957 -11.074743 23.453230 38.627609 0.369155 0.918312 0.030484 -0.002732 52115.500000 0 0 1
-28.718667 -11.123643 24.831550 39.561385 0.369538 0.892238 0.024444 -0.000949 -1749120.000000 0 0 1
-30.054407 -10.760943 25.433000 40.815473 0.343827 0.898069 0.008231 -0.001414 -1306740.000000 0 0 1
-30.504087 -9.451043 25.072220 40.600958 0.300449 0.905201 0.011039 -0.003050 1221990.000000 0 0 1
-31.917737 -9.227543 25.351970 41.792486 0.281431 0.919000 0.014923 -0.005110 1263520.000000 0 0 1
-32.364267 -9.073543 26.791430 42.983203 0.273340 0.897841 0.007786 -0.003169 -623315.000000 0 0 1
-32.341097 -10.265743 27.500740 43.676341 0.307362 0.889696 -0.001554 -0.011788 91549.200000 0 0 1
-33.050177 -10.060943 28.708890 44.919230 0.295502 0.877440 0.014845 -0.011909 -791480.000000 0 0 1
-33.483437 -11.286743 29.504180 46.032899 0.325123 0.875078 0.024612 -0.006875 -25320.300000 0 0 1
-34.549826 -12.148743 29.107840 46.781929 0.338126 0.899243 0.004438 -0.006906 560921.000000 0 0 1
35.270916 -11.498643 29.362680 47.311979 -0.315144 0.901265 0.018265 -0.008089 -28237.600000 0 0 1
33.968361 -12.120943 28.777540 46.140153 -0.342747 0.897331 0.015174 -0.007576 511042.000000 0 0 1
33.750011 -11.625443 27.485690 45.051941 -0.331729 0.914624 0.021857 -0.004815 -174534.000000 0 0 1
32.573631 -12.159043 26.930880 43.979042 -0.357261 0.911758 0.027034 -0.003096 -263448.000000 0 0 1
32.367601 -11.772343 25.430510 42.813089 -0.348834 0.934788 0.034430 -0.010017 -88673.700000 0 0 1
32.191821 -10.410543 25.237110 42.209057 -0.312776 0.929908 0.037507 -0.019969 -31905.500000 0 0 1
32.057341 -10.091743 23.845050 41.208044 -0.304981 0.953723 0.030624 -0.019330 -806446.000000 0 0 1
31.515131 -8.737543 23.617530 40.340252 -0.270456 0.945351 0.026370 -0.003317 -28847.000000 0 0 1
30.145571 -8.557143 23.937350 39.433196 -0.276585 0.918472 0.034557 -0.008139 -70005.700000 0 0 1
29.799931 -7.245043 23.605030 38.700440 -0.238496 0.914809 0.030578 -0.001776 -115371.000000 0 0 1
28.313451 -7.061443 23.254930 37.313634 -0.244416 0.897932 0.036713 0.006929 -154478.000000 0 0 1
27.937671 -7.657443 22.006930 36.379320 -0.267520 0.921119 0.018774 0.012052 -641056.000000 0 0 1
26.692911 -7.193643 21.604130 35.085588 -0.263242 0.907452 0.021493 -0.011059 -738276.000000 0 0 1
13.837363 -17.038343 26.104920 34.106372 -0.888702 0.699138 0.016634 0.006744 28551.600000 0 0 1
13.404663 -18.388543 26.100660 34.627561 -0.940892 0.717040 0.006813 0.015549 -210400.000000 0 0 1
14.512763 -19.218443 26.055160 35.480138 -0.924009 0.746074 0.028970 0.012921 -1107170.000000 0 0 1
14.067863 -20.696543 25.965490 36.061868 -0.973811 0.766956 0.022657 0.001484 241894.000000 0 0 1
13.344263 -21.213343 27.065670 36.886661 -1.009290 0.746968 0.014343 -0.000460 -876416.000000 0 0 1
12.063963 -20.727743 27.197200 36.261084 -1.043702 0.722676 0.015446 0.004683 -1666060.000000 0 0 1
11.397263 -21.198343 28.518150 37.316917 -1.077485 0.700973 0.014842 0.010546 142330.000000 0 0 1
11.903863 -20.478043 29.674610 37.968865 -1.044241 0.673648 0.013021 0.000556 727595.000000 0 0 1
10.869663 -19.629143 30.225050 37.643147 -1.065078 0.638591 0.012206 -0.000304 672242.000000 0 0 1
10.839863 -18.177143 29.665360 36.440977 -1.033068 0.619677 0.014633 0.007443 821680.000000 0 0 1
11.783563 -17.270443 30.312250 36.823268 -0.972051 0.603804 -0.002188 0.012050 302913.000000 0 0 1
11.744163 -15.990543 29.610770 35.642959 -0.937325 0.590323 0.002974 0.010383 -113578.000000 0 0 1
12.574663 -14.822743 30.114960 35.843363 -0.867269 0.573177 0.010054 0.002677 -101308.000000 0 0 1
12.227363 -13.532643 29.633050 34.795955 -0.836026 0.551722 0.027374 -0.001354 70047.700000 0 0 1
13.171463 -12.530943 30.007580 35.085137 -0.760483 0.544707 0.036178 -0.002024 38021.200000 0 0 1
12.827863 -11.115843 29.490770 34.026777 -0.714018 0.522262 0.033885 -0.006805 -38031.100000 0 0 1
12.959763 -11.037243 28.087230 32.843092 -0.705454 0.544870 0.050448 -0.011277 118819.000000 0 0 1
14.286863 -10.771243 27.666590 32.948055 -0.646009 0.574060 0.047040 -0.011950 -181053.000000 0 0 1
14.337463 -9.518043 26.699590 31.765140 -0.586056 0.572533 0.042386 -0.010666 -23464.700000 0 0 1
14.392063 -8.216543 27.307150 31.942503 -0.518754 0.545468 0.037813 -0.013430 -257294.000000 0 0 1
15.572963 -8.001443 28.029650 33.048473 -0.474629 0.558337 0.047908 -0.021707 -373301.000000 0 0 1
16.237563 -6.654943 27.543510 32.658715 -0.388968 0.567265 0.043450 -0.024296 -535215.000000 0 0 1
17.569763 -6.438043 27.889720 33.585435 -0.351234 0.590951 0.040021 -0.025858 -584210.000000 0 0 1
17.912063 -5.158743 27.491810 33.215271 -0.280415 0.595825 0.032524 -0.022686 82992.700000 0 0 1
19.428563 -4.897543 27.294010 33.858795 -0.246935 0.633243 0.040149 -0.024307 -1030780.000000 0 0 1
19.853763 -5.684143 26.162380 33.330939 -0.278842 0.668217 0.039123 -0.019377 904535.000000 0 0 1
21.204863 -5.423343 25.755680 33.799614 -0.250392 0.704383 0.034351 -0.010758 917731.000000 0 0 1
22.370363 -5.714643 26.732660 35.323157 -0.250107 0.712389 0.040138 -0.018099 -876675.000000 0 0 1
22.426863 -4.689643 27.743470 35.981343 -0.206138 0.690305 0.040807 -0.019175 -24184.200000 0 0 1
23.491763 -4.920043 28.655080 37.378916 -0.206453 0.697250 0.045096 -0.029011 2907.430000 0 0 1
24.006363 -3.631543 29.277220 38.034842 -0.150136 0.692351 0.052339 -0.026544 -240787.000000 0 0 1
24.729563 -2.866943 28.329960 37.714152 -0.115417 0.720955 0.055273 -0.021735 221848.000000 0 0 1
25.132563 -1.607843 28.895900 38.330196 -0.063887 0.716867 0.061509 -0.026789 -592610.000000 0 0 1
26.159963 -0.865143 28.032810 38.352713 -0.033059 0.751126 0.070007 -0.029191 -867959.000000 0 0 1
27.464263 -1.297843 28.218020 39.398310 -0.047221 0.772420 0.071726 -0.032211 -594541.000000 0 0 1
28.321463 -0.594943 27.301260 39.342318 -0.021004 0.803848 0.063518 -0.017396 695040.000000 0 0 1
29.845463 -0.692343 27.586720 40.647978 -0.023193 0.824841 0.056027 -0.022026 317175.000000 0 0 1
30.325163 0.276057 28.472300 41.597639 0.009103 0.816921 0.051086 -0.019612 -784042.000000 0 0 1
31.669463 0.059057 28.728270 42.758296 0.001865 0.834058 0.049684 -0.015089 -628451.000000 0 0 1
32.335363 1.182857 29.590720 43.847298 0.036565 0.830023 0.041594 -0.018599 -298855.000000 0 0 1
32.443263 2.430757 28.969140 43.562426 0.074784 0.843299 0.041799 -0.019234 288698.000000 0 0 1
32.443963 3.492857 29.886700 44.249583 0.107245 0.829273 0.050160 -0.018007 -325435.000000 0 0 1
32.609963 4.890357 29.217450 44.056607 0.148856 0.845737 0.037656 -0.018172 -154573.000000 0 0 1
32.459663 6.046357 30.058820 44.651101 0.184162 0.832278 0.041951 -0.012454 -142378.000000 0 0 1
31.160963 6.291057 30.500720 44.055385 0.199211 0.806088 0.045793 -0.012194 -787492.000000 0 0 1
31.157163 7.380957 31.637500 45.013095 0.232606 0.791399 0.042711 -0.011611 -142612.000000 0 0 1
31.679063 6.943057 32.858213 46.167426 0.215757 0.778855 0.038455 -0.006610 153527.000000 0 0 1
31.567163 8.008857 33.798914 46.936064 0.248466 0.766842 0.040247 -0.001546 -97704.900000 0 0 1
31.893163 7.595957 -33.551483 46.910280 0.233813 2.367745 0.045618 0.003862 -152892.000000 0 0 1
30.984463 6.779157 -32.830963 45.649382 0.215398 2.373444 0.037508 -0.005230 -128330.000000 0 0 1
31.100963 5.404457 -33.136133 45.765504 0.172053 2.380440 0.045537 -0.000579 378125.000000 0 0 1
32.167163 4.553057 -32.350773 45.847892 0.140610 2.354081 0.038758 -0.005475 343171.000000 0 0 1
32.201263 3.259357 -32.884853 46.140636 0.100875 2.364149 0.046290 -0.013374 272571.000000 0 0 1
31.723463 2.292957 -31.974093 45.099649 0.072154 2.358827 0.021594 -0.008265 -181747.000000 0 0 1
32.171463 0.852457 -32.389703 45.659857 0.026491 2.359399 0.032267 -0.009365 129855.000000 0 0 1
33.582963 0.714857 -32.330713 46.621898 0.021283 2.337085 0.038858 0.004938 132618.000000 0 0 1
33.955463 -0.655843 -32.458413 46.978209 -0.019312 2.333564 0.037247 -0.001535 104845.000000 0 0 1
34.489063 -1.297343 -31.163013 46.500666 -0.037598 2.305224 0.028715 -0.005769 -201773.000000 0 0 1
33.542663 -1.494443 -30.150053 45.126149 -0.044524 2.302487 0.025290 -0.002068 -234731.000000 0 0 1
34.209463 -1.616143 -28.934023 44.833882 -0.047207 2.272292 0.029260 -0.005222 -224050.000000 0 0 1
33.264763 -1.292943 -27.786613 43.362565 -0.038849 2.266333 0.036200 -0.005305 -263899.000000 0 0 1
33.078563 0.120057 -27.757133 43.181757 0.003629 2.268941 0.018829 0.000885 12647.700000 0 0 1
32.413463 0.462357 -26.597623 41.931848 0.014263 2.257907 0.013437 0.003438 -635050.000000 0 0 1
31.996363 1.936557 -26.582633 41.643173 0.060451 2.263140 0.000030 0.002473 407048.000000 0 0 1
30.962463 2.250957 -27.534793 41.495852 0.072572 2.296357 0.009267 -0.009425 658705.000000 0 0 1
30.599363 3.608757 -27.496433 41.296464 0.117393 2.299402 -0.000548 -0.000698 -223090.000000 0 0 1
29.718463 3.954657 -28.666153 41.479810 0.132293 2.333788 0.013365 -0.004720 -31920.100000 0 0 1
28.856063 5.076157 -28.466393 40.850646 0.174131 2.341779 0.005971 -0.003885 903126.000000 0 0 1
27.951463 5.350857 -29.583333 41.049842 0.189145 2.375563 0.014000 -0.001275 76145.900000 0 0 1
26.759963 6.158457 -29.075873 39.992857 0.226198 2.384778 0.009949 -0.006268 -1088690.000000 0 0 1
26.012863 5.325057 -28.206243 38.737803 0.201919 2.386389 0.021473 -0.008363 -48973.000000 0 0 1
25.062763 6.215357 -27.622693 37.812510 0.243088 2.389876 0.028115 -0.012979 -335074.000000 0 0 1
23.688063 5.537557 -27.491443 36.709240 0.229646 2.417193 0.036218 -0.010704 -667874.000000 0 0 1
23.017563 5.403957 -28.703523 37.187406 0.230599 2.452560 0.039414 -0.012581 -47798.300000 0 0 1
21.720563 4.933257 -28.407993 36.098947 0.223335 2.476643 0.038646 -0.004380 137847.000000 0 0 1
20.834063 4.482357 -29.610943 36.482292 0.211915 2.517772 0.030240 0.002731 210609.000000 0 0 1
21.171063 3.157857 -29.978243 36.835866 0.148067 2.521514 0.028391 -0.000536 648622.000000 0 0 1
20.345563 2.608757 -31.035923 37.201829 0.127527 2.557582 0.013104 -0.000914 157584.000000 0 0 1
20.373963 3.352557 -32.417893 38.435111 0.163090 2.574460 0.030977 0.003552 441316.000000 0 0 1
21.619063 3.110157 -33.098713 39.655791 0.142881 2.558294 0.023992 0.004058 645328.000000 0 0 1
21.696163 3.740057 34.401237 40.843073 0.170706 0.569300 0.029796 0.003191 182624.000000 0 0 1
22.981563 3.365957 33.603284 40.849267 0.145429 0.604799 0.039462 0.007469 372789.000000 0 0 1
23.041063 1.986357 33.307083 40.548711 0.085997 0.606919 0.043224 -0.004450 620376.000000 0 0 1
24.358563 1.567457 32.936424 40.995177 0.064261 0.637776 0.055569 -0.013386 134879.000000 0 0 1
24.533263 0.078157 32.678410 40.862765 0.003186 0.643982 0.053403 -0.012305 -474454.000000 0 0 1
24.019363 -0.376743 31.429550 39.558670 -0.015684 0.652605 0.054196 -0.018037 1676760.000000 0 0 1
22.578963 -0.569243 31.359330 38.646361 -0.025206 0.624179 0.054180 -0.019919 1301450.000000 0 0 1
21.861463 -1.701643 32.239480 38.989784 -0.077681 0.597277 0.045490 -0.023605 -360262.000000 0 0 1
22.148563 -3.081143 31.947330 38.995951 -0.138225 0.610699 0.028515 -0.023678 160508.000000 0 0 1
21.695163 -4.022943 32.878404 39.596131 -0.183348 0.591072 0.033397 -0.025440 -211285.000000 0 0 1
21.919863 -5.458943 32.396230 39.494255 -0.244076 0.608901 0.031812 -0.017888 493723.000000 0 0 1
23.273063 -5.912243 32.513290 40.419106 -0.248776 0.636125 0.019127 -0.008127 361925.000000 0 0 1
23.320663 -7.289643 32.288240 40.491020 -0.302961 0.647793 0.050475 -0.016572 341522.000000 0 0 1
24.676663 -7.924943 31.835160 41.051429 -0.310747 0.683298 0.012231 -0.012567 492233.000000 0 0 1
24.868463 -7.591843 30.497550 40.077139 -0.296294 0.705988 0.030764 -0.013325 -240095.000000 0 0 1
26.061063 -8.193143 30.034770 40.600419 -0.304599 0.738075 0.014077 0.002503 94341.600000 0 0 1
26.434163 -7.744043 28.638580 39.735418 -0.284982 0.765939 0.027521 -0.010591 -183870.000000 0 0 1
25.604963 -8.253443 27.628100 38.562227 -0.311822 0.772089 0.021801 -0.010872 -316418.000000 0 0 1
26.050163 -7.770543 26.433670 37.917427 -0.289889 0.799399 0.034365 -0.004681 -10635.100000 0 0 1
25.329863 -8.404443 25.225810 36.722992 -0.320370 0.813552 0.020196 0.001811 103731.000000 0 0 1
23.962763 -8.115043 25.035100 35.592474 -0.326530 0.790652 0.023225 0.003056 7149.440000 0 0 1
23.314063 -9.119143 24.264650 34.863700 -0.372848 0.801004 0.033949 -0.006324 -1563050.000000 0 0 1
21.879663 -8.856043 24.035840 33.687843 -0.384604 0.776334 0.026515 -0.010440 -1647600.000000 0 0 1
21.022663 -9.212843 25.126950 34.032227 -0.413026 0.740208 0.023862 -0.006380 -7706.750000 0 0 1
19.737063 -8.743943 24.818320 32.893118 -0.417035 0.715883 0.030606 -0.005100 252026.000000 0 0 1
18.633663 -8.782343 25.931990 33.118138 -0.440438 0.671298 0.034151 -0.017055 187298.000000 0 0 1
18.121363 -10.023043 26.391480 33.546318 -0.505225 0.665323 0.040134 -0.016497 389922.000000 0 0 1
18.946463 -10.699043 27.327210 34.931567 -0.514058 0.672435 0.038730 -0.013401 -72334.400000 0 0 1
18.084063 -11.708543 28.050690 35.368977 -0.574581 0.654935 0.047417 -0.012238 44870.500000 0 0 1
17.453463 -12.702943 27.264510 34.775590 -0.629153 0.669692 0.046065 -0.011415 -9023.650000 0 0 1
16.632163 -13.503743 28.071580 35.312796 -0.681958 0.651886 0.042346 -0.007767 -417636.000000 0 0 1
17.163563 -14.925343 28.385550 36.374348 -0.715760 0.675535 0.052063 0.001743 -83075.800000 0 0 1
16.259063 -15.770643 29.095460 36.872973 -0.770150 0.661498 0.046369 0.002363 307241.000000 0 0 1
16.885763 -16.906843 29.675900 38.100255 -0.786022 0.677903 0.044981 0.004867 -92651.700000 0 0 1
17.318863 -17.970543 28.622050 37.975060 -0.803863 0.717113 0.040521 0.012322 -441925.000000 0 0 1
18.439163 -17.585843 27.899430 37.784161 -0.761716 0.740117 0.050886 0.009305 -373328.000000 0 0 1
18.709363 -18.571943 26.941130 37.693260 -0.781712 0.774535 0.038234 0.019111 390733.000000 0 0 1
19.874463 -18.202643 25.942310 37.407672 -0.741520 0.804457 0.041610 0.004720 798222.000000 0 0 1
21.114963 -17.951743 26.607720 38.419754 -0.704605 0.805774 0.050897 0.002670 291660.000000 0 0 1
22.092563 -17.588343 25.666800 38.160396 -0.672371 0.833075 0.039986 0.000242 57477.600000 0 0 1
23.558263 -17.620943 26.170460 39.374895 -0.642203 0.843773 0.045606 -0.013404 -6540.300000 0 0 1
24.134563 -18.874943 26.061670 40.223765 -0.663713 0.865949 0.047471 -0.015381 858147.000000 0 0 1
25.559263 -18.694943 26.206340 41.104125 -0.631513 0.879470 0.029242 -0.013024 1039010.000000 0 0 1
26.342163 -20.014643 26.570820 42.432346 -0.649740 0.894136 0.008838 -0.007413 22018.100000 0 0 1
26.081063 -20.407443 27.863100 43.278608 -0.663955 0.871332 0.006610 -0.001456 198504.000000 0 0 1
26.707863 -21.672443 27.996560 44.348756 -0.681692 0.887592 0.003789 -0.007978 -22721.400000 0 0 1
25.997563 -22.697343 28.917250 45.024993 -0.717728 0.873368 0.007224 -0.000401 -234878.000000 0 0 1
26.053563 -22.290443 30.312780 45.765890 -0.707714 0.846853 0.016695 -0.003280 -33862.000000 0 0 1
25.317863 -23.215843 31.078340 46.323135 -0.742115 0.835370 0.032007 0.001199 -492835.000000 0 0 1
24.952463 -22.908943 32.528580 46.963322 -0.742727 0.805656 0.026584 -0.007601 -55726.600000 0 0 1
24.300763 -24.033543 33.078445 47.563871 -0.779870 0.801746 0.021446 -0.010972 22597.700000 0 0 1
24.211863 -24.068043 -34.296974 48.391812 -0.782419 2.358500 0.039050 -0.009440 -409209.000000 0 0 1
23.720663 -25.415103 -33.655673 48.386999 -0.819869 2.339984 0.024248 -0.009504 34324.300000 0 0 1
22.449463 -25.974473 -33.869673 48.226615 -0.858065 2.349423 0.040962 -0.017085 -257993.000000 0 0 1
22.133963 -26.276133 33.549303 48.019821 -0.870754 0.797280 0.036524 -0.021388 206685.000000 0 0 1
20.810463 -27.089623 33.429200 47.795758 -0.915744 0.796214 0.042367 -0.024357 338612.000000 0 0 1
21.004463 -28.445543 33.735108 48.871197 -0.934754 0.808912 0.031359 -0.017379 517142.000000 0 0 1
19.819163 -29.239713 33.845010 48.920801 -0.975114 0.806772 0.051411 -0.014842 382287.000000 0 0 1
20.220163 -30.716543 33.999122 50.082945 -0.988621 0.824592 0.033259 -0.013559 113734.000000 0 0 1
20.689063 -31.094883 -33.488563 50.163861 -0.983704 2.301755 0.027372 -0.021186 -145309.000000 0 0 1
21.485363 -32.184693 -33.630533 51.268783 -0.982172 2.286257 0.005071 -0.009257 -662857.000000 0 0 1
22.196763 -32.610183 -32.311433 50.991657 -0.973162 2.257073 0.012917 -0.014473 -1017750.000000 0 0 1
23.083563 -33.675713 -32.459113 52.158399 -0.969891 2.242497 0.001213 -0.007981 316713.000000 0 0 1
23.631263 -34.112005 -31.188263 51.911205 -0.964949 2.215298 0.000997 0.004285 654140.000000 0 0 1
24.712263 -33.177473 -30.516683 51.407282 -0.930599 2.206353 0.004896 -0.001239 -444656.000000 0 0 1
24.992963 -33.618703 -29.221603 51.076095 -0.931517 2.179883 0.017198 0.002341 -980885.000000 0 0 1
26.073563 -32.877733 -28.833123 50.912916 -0.900310 2.172833 0.014797 0.004720 -930999.000000 0 0 1
26.368763 -32.929323 -27.322313 50.260927 -0.895587 2.145528 0.024753 0.008124 -523550.000000 0 0 1
27.240163 -33.887893 -26.886893 51.120650 -0.893723 2.124628 0.022121 0.018450 -419328.000000 0 0 1
28.108663 -33.285293 -25.903283 50.685183 -0.869517 2.107216 0.025461 0.012531 647254.000000 0 0 1
-26.345387 -30.718497 9.444247 41.555978 0.861884 1.341527 0.026644 -0.006623 -130320.000000 0 0 1
-26.520417 -32.028597 10.018247 42.772992 0.879200 1.334381 0.028143 -0.012910 406254.000000 0 0 1
-25.275927 -32.428097 10.590147 42.457098 0.908715 1.318703 0.018624 -0.013917 583835.000000 0 0 1
-25.325657 -33.758697 11.382747 43.710473 0.927169 1.307347 0.018421 -0.011377 246052.000000 0 0 1
-25.737207 34.033857 10.619947 43.971474 -0.923324 1.326865 0.025493 -0.009176 18986.600000 0 0 1
-25.768407 32.954957 11.507247 43.387287 -0.907172 1.302363 0.022672 -0.013276 69271.200000 0 0 1
-25.511297 31.615257 10.783047 42.031237 -0.891844 1.311347 0.029379 -0.009612 -174745.000000 0 0 1
-26.482747 31.423357 9.795547 42.245899 -0.870513 1.336797 0.026261 -0.018180 -313008.000000 0 0 1
-26.456597 30.163357 9.122747 41.146132 -0.850772 1.347223 0.030791 -0.016717 -405693.000000 0 0 1
-25.386007 30.165157 8.024847 40.234118 -0.871218 1.369996 0.032131 -0.005906 -507609.000000 0 0 1
-24.084237 29.843257 8.408447 39.260316 -0.891787 1.354953 0.030549 -0.005002 -660590.000000 0 0 1
-23.345237 29.732857 7.208347 38.483804 -0.905166 1.382375 0.019291 0.002974 -414147.000000 0 0 1
-22.115737 28.830057 7.354847 37.072521 -0.916436 1.371081 0.053518 0.011531 -366775.000000 0 0 1
-22.292737 27.377357 7.495247 36.092444 -0.887411 1.361606 0.043921 -0.000738 140638.000000 0 0 1
-22.793037 26.843657 6.242347 35.764107 -0.866823 1.395355 0.028974 0.000847 -443177.000000 0 0 1
-23.084937 25.351257 6.407347 34.880577 -0.832154 1.386053 0.032124 0.007792 -114367.000000 0 0 1
-24.100737 25.068757 7.380247 35.549348 -0.805083 1.361670 0.035551 -0.000506 559611.000000 0 0 1
-24.288137 23.691457 7.653147 34.781739 -0.772963 1.348948 0.024189 -0.005265 -163390.000000 0 0 1
-24.801937 22.725857 6.599347 34.280491 -0.741745 1.377077 0.022623 -0.006873 -200194.000000 0 0 1
-26.156817 22.935157 6.197147 35.335607 -0.719867 1.394505 0.026819 -0.006971 520737.000000 0 0 1
-26.453787 22.470957 4.859347 35.047967 -0.704170 1.431700 0.023957 -0.008772 -41183.700000 0 0 1
-26.196407 23.438557 3.697447 35.345280 -0.729893 1.465995 0.018678 -0.010242 -424802.000000 0 0 1
-24.903637 23.980757 3.651847 34.764980 -0.766522 1.465558 0.021413 -0.009170 -100923.000000 0 0 1
-24.762837 24.788357 2.495147 35.126721 -0.785913 1.499704 0.021670 0.000463 386250.000000 0 0 1
-23.395837 25.532857 2.522747 34.722561 -0.829047 1.498078 0.027310 -0.000201 371826.000000 0 0 1
-23.158537 26.226357 1.285747 35.011324 -0.847439 1.534064 0.011512 -0.003834 -736259.000000 0 0 1
-21.877137 26.767457 1.275447 34.593824 -0.885593 1.533919 0.021521 -0.002484 -517733.000000 0 0 1
-21.275337 27.276457 -0.082853 34.592657 -0.908377 1.573191 0.022308 -0.000260 222358.000000 0 0 1
-21.022737 26.356257 -1.140453 33.732898 -0.897498 1.604611 0.011559 0.005245 -785870.000000 0 0 1
-19.943637 25.534057 -0.968853 32.414123 -0.907711 1.600691 0.020069 -0.002950 -1075670.000000 0 0 1
-19.509937 24.688857 -2.163453 31.541367 -0.902040 1.639441 0.019660 -0.014826 592105.000000 0 0 1
-20.538637 23.767257 -2.584853 31.518242 -0.858141 1.652900 0.004716 -0.015507 793358.000000 0 0 1
-20.027037 23.042857 -3.717053 30.755031 -0.855306 1.691953 0.004001 -0.015557 20080.000000 0 0 1
-21.142337 22.546357 -4.658853 31.257664 -0.817524 1.720401 0.001009 -0.016818 -292113.000000 0 0 1
-21.838437 23.604057 -5.265853 32.585243 -0.824233 1.733111 -0.008278 -0.005079 -307475.000000 0 0 1
-22.942637 23.040157 -5.924953 33.050242 -0.787519 1.751042 -0.006890 0.006044 -303498.000000 0 0 1
-23.014637 23.423857 -7.423153 33.666806 -0.794210 1.793112 -0.002942 0.004113 -159809.000000 0 0 1
-22.132237 22.732957 -8.258153 32.784453 -0.798787 1.825432 -0.013185 0.004058 -80795.500000 0 0 1
-22.142137 23.382557 -9.523553 33.581487 -0.812639 1.858338 -0.004471 -0.004676 -58053.900000 0 0 1
-21.377937 22.644257 -10.671453 32.918968 -0.814156 1.900934 -0.003259 -0.008482 8704.500000 0 0 1
-22.175137 21.740557 -11.408953 33.084025 -0.775503 1.922873 -0.010195 -0.005812 160025.000000 0 0 1
-21.479537 21.398157 -12.627853 32.843787 -0.783500 1.965443 -0.012805 0.000919 550758.000000 0 0 1
-22.376937 21.097957 -13.911053 33.754533 -0.755988 1.995580 -0.018614 -0.005882 199598.000000 0 0 1
-23.029637 19.841957 -13.883153 33.418698 -0.711181 1.999213 -0.010486 0.014801 194139.000000 0 0 1
-24.348737 20.049557 -14.372253 34.661324 -0.688867 1.998352 -0.002208 -0.005810 17211.400000 0 0 1
-25.073147 18.749757 -14.645553 34.564553 -0.642093 2.008340 0.041495 -0.007520 -182468.000000 0 0 1
-24.465437 17.995457 -15.681353 34.180388 -0.634186 2.047420 0.039129 -0.013298 -220066.000000 0 0 1
-25.206757 16.869557 -15.972153 34.279327 -0.589787 2.055494 0.055090 -0.022709 -624507.000000 0 0 1
-24.671037 16.013857 -17.130553 34.037620 -0.575739 2.098190 0.066035 -0.017097 -127796.000000 0 0 1
-23.594837 15.194657 -16.747353 32.681306 -0.572133 2.108825 0.071942 -0.016508 -79961.100000 0 0 1
-23.366637 14.334257 -17.815553 32.693495 -0.550250 2.147098 0.076059 -0.023964 -74746.200000 0 0 1
-22.539537 13.085857 -17.431653 31.354951 -0.526013 2.160297 0.077268 -0.011893 705027.000000 0 0 1
-21.184837 13.308557 -17.039853 30.269979 -0.560905 2.168722 0.069934 -0.016903 533949.000000 0 0 1
-20.432237 12.125357 -16.855653 29.130974 -0.535584 2.187827 0.065351 -0.018039 -279883.000000 0 0 1
-19.236137 12.437357 -15.940253 27.907141 -0.573955 2.178750 0.050204 -0.013111 -336039.000000 0 0 1
-18.328437 13.333357 -16.557753 28.069008 -0.628924 2.201725 0.047437 -0.010668 -224181.000000 0 0 1
-17.304037 13.626757 -15.643153 27.015300 -0.667066 2.188357 0.040783 0.001520 198146.000000 0 0 1
-16.402337 14.867557 -16.021653 27.327171 -0.736356 2.197268 0.014941 0.008897 517860.000000 0 0 1
-15.540837 14.633257 -17.130653 27.369858 -0.755329 2.247075 0.020498 -0.003811 273479.000000 0 0 1
-14.758437 15.766457 -17.473753 27.779933 -0.818409 2.251071 0.009618 0.003604 728454.000000 0 0 1
-13.768237 15.460857 -18.684953 27.887810 -0.843242 2.305011 0.004223 0.003266 523330.000000 0 0 1
-12.961337 14.345157 -18.498453 26.757664 -0.836032 2.334129 0.002465 0.000790 -628552.000000 0 0 1
-11.873137 14.422057 -19.381853 26.918829 -0.882031 2.374615 -0.001712 0.002011 17264.000000 0 0 1
-11.000037 13.164157 -19.470253 25.949694 -0.874719 2.419324 -0.002891 -0.007539 10016.600000 0 0 1
-11.504837 12.096257 -20.276053 26.264026 -0.810452 2.452792 0.011203 0.003118 -330516.000000 0 0 1
-11.091637 10.871257 -19.841053 25.196747 -0.775364 2.477449 0.002755 0.002232 -308626.000000 0 0 1
-11.458937 9.799757 -20.908653 25.778174 -0.707509 2.516825 0.015440 -0.001682 -38294.400000 0 0 1
-10.837137 10.000457 -22.169653 26.626044 -0.745267 2.554637 0.017161 -0.001618 -3353.340000 0 0 1
-11.265137 8.960357 -23.035953 27.163329 -0.671933 2.583097 0.019320 0.009347 170748.000000 0 0 1
-10.845537 9.266357 -24.547253 28.391173 -0.707039 2.615167 0.027906 -0.003156 488656.000000 0 0 1
-9.518437 8.795357 -24.846353 28.023209 -0.745936 2.660813 0.019420 0.005516 427240.000000 0 0 1
-9.477437 8.279957 -26.214103 29.078492 -0.718064 2.694007 0.009146 -0.007186 -341766.000000 0 0 1
-9.362737 9.244257 -27.460973 30.450323 -0.779031 2.694779 0.028951 -0.001909 -442548.000000 0 0 1
-8.187437 9.982757 -27.607933 30.477656 -0.883884 2.704159 0.015382 -0.004232 -345190.000000 0 0 1
-7.883037 10.916057 -26.636983 29.846800 -0.945358 2.673559 0.007205 -0.000037 -775504.000000 0 0 1
-6.462337 11.461157 -26.786443 29.843483 -1.057384 2.685010 0.008271 -0.003286 -624596.000000 0 0 1
-6.168437 11.995957 -28.082673 31.154280 -1.095846 2.693804 0.017582 -0.004490 36620.000000 0 0 1
-4.851637 12.498357 -28.066453 31.104230 -1.200519 2.695954 0.029975 -0.008141 13056.900000 0 0 1
-4.146737 12.638657 -29.478063 32.340181 -1.253764 2.717712 0.039318 -0.010095 433839.000000 0 0 1
-2.742837 12.793657 -29.299243 32.088105 -1.359603 2.721589 0.037789 -0.016134 404499.000000 0 0 1
-1.992737 12.601557 -30.507823 33.068074 -1.413961 2.745502 0.039473 -0.015623 152950.000000 0 0 1
-0.488037 12.559657 -30.208253 32.718828 -1.531958 2.747299 0.037239 -0.018377 -553483.000000 0 0 1
-0.084237 11.370457 -29.586713 31.696498 -1.563388 2.774676 0.030634 -0.005507 356916.000000 0 0 1
1.305963 11.051457 -29.646963 31.666744 1.453171 2.782504 0.041413 -0.005771 699825.000000 0 0 1
1.748863 10.420257 -31.019573 32.769715 1.404513 2.813295 0.039070 -0.011086 -367796.000000 0 0 1
1.670963 11.323057 -32.110233 34.089160 1.424282 2.799184 0.038385 -0.019389 142806.000000 0 0 1
1.788063 10.654957 -33.372883 35.078121 1.404530 2.828506 0.041449 -0.013181 -92747.600000 0 0 1
1.913363 11.667057 34.278424 36.260054 1.408246 0.332131 0.045634 -0.017297 -457614.000000 0 0 1
3.209963 12.114257 34.025113 36.259722 1.311775 0.352906 0.037808 -0.017003 -399174.000000 0 0 1
3.070163 12.907057 32.854151 35.431812 1.337269 0.383796 0.038268 -0.014160 -265855.000000 0 0 1
4.407263 13.276457 32.238420 35.142624 1.250282 0.409401 0.040057 -0.004435 -307985.000000 0 0 1
5.121863 12.220957 31.614250 34.278945 1.173929 0.396898 0.033825 -0.012497 -592938.000000 0 0 1
6.492063 12.426957 31.612410 34.582085 1.089376 0.417447 0.037062 0.003876 -385774.000000 0 0 1
7.330563 11.168057 31.158900 33.901913 0.989945 0.405032 0.033964 0.006068 143527.000000 0 0 1
7.161463 10.945057 29.773220 32.519617 0.991397 0.413932 0.036895 -0.007022 167659.000000 0 0 1
7.979163 9.898857 29.255340 31.898736 0.892366 0.409973 0.032785 -0.008096 -84652.100000 0 0 1
7.292263 9.072257 28.159580 30.470394 0.893744 0.391960 0.040625 -0.007444 -438237.000000 0 0 1
6.365563 8.189557 28.673270 30.491731 0.910065 0.347103 0.044363 -0.017120 -496619.000000 0 0 1
5.811563 7.375757 27.662880 29.213199 0.903460 0.327247 0.050213 -0.014614 -401108.000000 0 0 1
4.927663 6.247957 28.185280 29.287008 0.902994 0.275160 0.060004 -0.021130 -226629.000000 0 0 1
5.619563 5.276457 28.927140 29.936599 0.753919 0.260427 0.049514 -0.023406 -415419.000000 0 0 1
4.752963 4.607957 29.771890 30.499006 0.769909 0.218797 0.053138 -0.023007 -544815.000000 0 0 1
5.399463 3.401857 30.530660 31.190512 0.562213 0.206061 0.053789 -0.021841 172551.000000 0 0 1
5.637263 2.233857 29.694970 30.307757 0.377283 0.201431 0.051576 -0.015976 142002.000000 0 0 1
6.735763 2.331557 28.804440 29.673261 0.333237 0.242584 0.056913 -0.013366 -272230.000000 0 0 1
6.984263 1.042557 28.060410 28.935333 0.148178 0.246539 0.051429 -0.020437 -21528.000000 0 0 1
7.340563 -0.053343 28.929140 29.845969 -0.007267 0.248505 0.016092 0.004011 16504.300000 0 0 1
7.456363 -1.205343 28.134930 29.131160 -0.160267 0.262278 0.023090 0.014513 11971.100000 0 0 1
8.177063 -2.433943 28.733600 29.973459 -0.289304 0.288630 0.011193 0.025213 -725280.000000 0 0 1
9.508063 -2.303343 29.077270 30.678923 -0.237673 0.324554 0.004437 0.011078 -1023690.000000 0 0 1
10.131963 -3.557943 29.103410 31.021349 -0.337708 0.353480 0.006544 0.011481 175569.000000 0 0 1
11.675663 -3.507643 28.942270 31.405090 -0.291845 0.398668 -0.000436 0.003615 118681.000000 0 0 1
12.521563 -4.559643 28.586890 31.540295 -0.349219 0.436207 0.013832 -0.003287 122700.000000 0 0 1
12.479663 -5.702343 29.425960 32.467612 -0.428603 0.436310 0.020815 -0.002007 -440185.000000 0 0 1
11.702363 -6.919543 28.838600 31.882444 -0.533994 0.440522 0.028852 -0.000287 303876.000000 0 0 1
10.299663 -6.913743 29.035960 31.574830 -0.591175 0.403756 0.014045 0.006974 36252.800000 0 0 1
9.712263 -8.143343 28.574450 31.259259 -0.697756 0.417485 0.018574 0.002856 1010030.000000 0 0 1
8.145063 -8.071843 28.583040 30.797514 -0.780883 0.381531 0.036324 0.008185 690221.000000 0 0 1
7.557263 -7.895843 29.855820 31.793499 -0.807305 0.350928 0.042634 0.007939 -1160010.000000 0 0 1
6.196563 -7.783143 29.683560 31.306365 -0.898406 0.323389 0.036420 0.016093 -1210770.000000 0 0 1
5.503063 -7.085143 30.841410 32.119707 -0.910422 0.283071 0.029138 0.012499 -248978.000000 0 0 1
5.691763 -7.683343 32.097740 33.491713 -0.933214 0.289529 0.030719 0.013762 293878.000000 0 0 1
4.941063 -7.060443 33.159842 34.261335 -0.960189 0.254258 0.029994 0.005764 86792.000000 0 0 1
5.567263 -5.827843 33.794357 34.742146 -0.808262 0.234118 0.030208 0.005100 -170893.000000 0 0 1
5.594763 -4.700343 32.923834 33.724968 -0.698738 0.218401 0.032411 0.009441 -105269.000000 0 0 1
6.304563 -3.618143 33.482676 34.262634 -0.521002 0.213780 0.023580 0.009041 -501217.000000 0 0 1
6.510163 -2.464043 32.514800 33.251556 -0.361828 0.210900 0.024658 0.004949 -793409.000000 0 0 1
5.315763 -1.896743 32.102540 32.594909 -0.342733 0.174034 0.037513 0.004374 -756640.000000 0 0 1
5.420563 -0.625943 31.443040 31.912993 -0.114967 0.171827 0.037238 -0.004840 -246262.000000 0 0 1
4.033463 -0.119043 30.990530 31.252135 -0.029505 0.129480 0.048141 -0.006276 199410.000000 0 0 1
3.189263 0.140857 32.110920 32.269218 0.044137 0.099091 0.034981 -0.004397 -27928.600000 0 0 1
2.049163 0.896357 31.755190 31.833860 0.412348 0.070317 0.031371 -0.011791 68572.200000 0 0 1
0.942063 0.997757 32.820126 32.848801 0.814101 0.041786 0.026918 -0.013719 83517.800000 0 0 1
1.364163 1.747257 33.950390 34.022681 0.907907 0.065200 0.027448 -0.007116 1191500.000000 0 0 1
0.362763 1.616557 -33.783933 33.824533 1.350049 3.092592 0.025412 -0.020620 836386.000000 0 0 1
0.599663 2.617057 -32.675453 32.785573 1.345548 3.059609 0.035908 -0.011894 110752.000000 0 0 1
1.827863 2.322157 -32.043833 32.179819 0.903946 3.049628 0.018540 -0.012485 44108.200000 0 0 1
2.431363 3.468057 -31.475043 31.758736 0.959350 3.007831 0.019367 -0.009092 190512.000000 0 0 1
3.651763 3.179357 -30.534363 30.915870 0.716353 2.984331 0.013267 -0.003492 80778.000000 0 0 1
3.416963 2.380257 -29.400393 29.693844 0.608441 3.000888 0.021699 -0.002421 -171311.000000 0 0 1
4.311763 2.545057 -28.307843 28.747219 0.533226 2.966531 0.036548 -0.009803 -193235.000000 0 0 1
3.884563 1.896357 -26.923743 27.268552 0.454145 2.982397 0.030064 -0.013787 -35273.700000 0 0 1
3.972963 0.493257 -26.944373 27.240172 0.123521 2.994089 0.043477 -0.013225 161074.000000 0 0 1
3.653663 0.102357 -25.604193 25.863767 0.028007 2.999797 0.054384 -0.016588 -95730.200000 0 0 1
4.039563 -1.372343 -25.380823 25.736891 -0.327493 2.975058 0.053184 -0.020360 393604.000000 0 0 1
5.436863 -1.506343 -25.161003 25.785745 -0.270281 2.921018 0.063998 -0.023050 228936.000000 0 0 1
5.784063 -2.871943 -24.902853 25.726553 -0.460865 2.887861 0.072816 -0.026114 -197528.000000 0 0 1
7.270463 -3.052543 -24.578453 25.812362 -0.397505 2.831145 0.081671 -0.024003 -32490.900000 0 0 1
8.174063 -3.004643 -25.651563 27.089590 -0.352252 2.814299 0.067222 -0.018796 -1265130.000000 0 0 1
9.397063 -3.513543 -25.271873 27.190391 -0.357804 2.763692 0.047762 -0.011437 -600613.000000 0 0 1
-28.858457 -4.614543 18.201530 34.429643 0.158560 1.013777 0.063218 -0.013534 -482883.000000 0 0 1
-30.187147 -4.213243 18.309630 35.556404 0.138675 1.029852 0.052819 -0.006321 -742497.000000 0 0 1
-30.867077 -5.002843 19.260330 36.725539 0.160680 1.018739 0.048239 -0.015193 1134700.000000 0 0 1
-32.364197 -4.597143 19.564230 38.096379 0.141100 1.031484 0.044266 -0.012443 1477050.000000 0 0 1
-33.263947 -4.901343 18.485230 38.369481 0.146294 1.068124 0.036446 -0.014869 123301.000000 0 0 1
-34.601718 -5.007643 18.889230 39.738626 0.143725 1.075450 0.024963 -0.007982 309198.000000 0 0 1
35.426485 -5.047343 17.686030 39.916253 -0.141521 1.111767 0.024670 -0.010736 1133810.000000 0 0 1
34.096381 -5.373343 18.079830 38.965579 -0.156307 1.088297 0.020127 -0.007483 374650.000000 0 0 1
33.103821 -5.077143 17.116730 37.611472 -0.152184 1.098319 0.019714 -0.006295 -46286.000000 0 0 1
31.702611 -5.528543 17.521430 36.641792 -0.172651 1.072213 0.014964 0.000323 -666638.000000 0 0 1
31.176891 -4.736343 18.540730 36.581282 -0.150766 1.039285 0.016054 -0.005062 -20409.000000 0 0 1
30.050221 -5.396843 19.077630 36.001357 -0.177700 1.012297 0.017790 -0.005955 -133163.000000 0 0 1
29.262781 -4.654243 20.164030 35.840766 -0.157729 0.973268 0.025225 -0.001806 -182903.000000 0 0 1
28.547701 -3.486243 19.816430 34.925865 -0.121518 0.967469 0.036302 -0.006154 407241.000000 0 0 1
29.343401 -2.319843 19.614630 35.371607 -0.078894 0.982998 0.031695 -0.011932 473535.000000 0 0 1
28.380671 -1.064643 19.620830 34.519168 -0.037495 0.966232 0.049828 -0.008403 379613.000000 0 0 1
29.012151 0.184357 19.406730 34.905015 0.006354 0.981247 0.053536 -0.013334 -194669.000000 0 0 1
28.235401 1.191057 19.948130 34.591681 0.042158 0.956144 0.071354 -0.016111 -56651.200000 0 0 1
28.529881 2.519957 19.292530 34.532681 0.088098 0.978009 0.056126 -0.020553 113517.000000 0 0 1
28.305891 2.433357 17.897530 33.577765 0.085756 1.008634 0.042586 -0.015548 75895.600000 0 0 1
28.276701 3.692457 17.272730 33.339965 0.129848 1.026193 0.036681 -0.013776 62769.800000 0 0 1
27.952831 3.556757 15.758930 32.285526 0.126561 1.060872 0.032657 -0.012135 -201994.000000 0 0 1
27.771351 4.802257 15.081630 31.965062 0.171228 1.079447 0.029211 -0.007977 279166.000000 0 0 1
27.521611 4.564157 13.691230 31.076042 0.164343 1.114561 0.030186 -0.004598 -159907.000000 0 0 1
26.905381 5.817857 12.963530 30.426964 0.212955 1.130670 0.030777 -0.010813 125395.000000 0 0 1
25.774271 6.393357 13.585230 29.828620 0.243144 1.097927 0.041844 -0.012729 194904.000000 0 0 1
25.348571 7.555557 12.870930 29.415937 0.289682 1.117925 0.061760 -0.023274 -562812.000000 0 0 1
24.158171 8.284257 13.548530 28.910359 0.330351 1.083046 0.061191 -0.025461 897695.000000 0 0 1
22.858671 7.683657 13.413630 27.594980 0.324272 1.063187 0.055706 -0.014162 1140470.000000 0 0 1
22.563371 6.443257 14.033630 27.341618 0.278159 1.031806 0.057392 -0.014456 -956560.000000 0 0 1
21.134871 5.875557 13.960830 26.002110 0.271156 1.004025 0.070194 -0.009524 -305602.000000 0 0 1
20.760071 5.694757 12.592430 24.939529 0.267727 1.041509 0.076193 -0.008784 726119.000000 0 1 0
19.804771 4.666357 12.363630 23.808889 0.231397 1.024781 0.077514 -0.012465 -83566.900000 0 1 0
19.522971 4.529957 10.837830 22.784326 0.227998 1.075070 0.077554 -0.014431 -752392.000000 0 1 0
20.540271 3.848557 10.206430 23.256942 0.185219 1.116472 0.089153 -0.016704 79923.500000 0 1 0
20.362471 3.838457 8.746130 22.491305 0.186320 1.171395 0.102018 -0.018469 134466.000000 0 1 0
21.536371 3.094257 8.047430 23.198079 0.142699 1.216532 0.094773 -0.010613 -1002630.000000 0 1 0
21.690971 1.738957 8.419130 23.332466 0.079999 1.201635 0.079977 -0.009405 871053.000000 0 1 0
22.610171 1.045557 7.573830 23.867885 0.046210 1.247891 0.068546 -0.003559 425678.000000 0 1 0
24.127471 1.388757 7.523930 25.311520 0.057496 1.268982 0.060610 -0.010778 -92307.500000 0 0 1
24.984671 1.002357 8.581930 26.436491 0.040097 1.240182 0.035464 0.004246 296323.000000 0 0 1
24.706871 1.555657 9.870530 26.651021 0.062882 1.191397 0.045176 -0.001717 -654510.000000 0 0 1
25.275971 0.780657 11.065430 27.603042 0.030876 1.158322 0.027322 0.001068 -115474.000000 0 0 1
26.675611 0.614657 11.113930 28.904766 0.023038 1.176128 0.019482 0.000560 144995.000000 0 0 1
27.043341 -0.025843 12.287130 29.703814 -0.000956 1.144331 0.017381 -0.007974 -147409.000000 0 0 1
28.553991 -0.038843 12.576830 31.201099 -0.001360 1.155906 0.031851 -0.014529 165350.000000 0 0 1
29.140781 1.256957 12.765230 31.838910 0.043107 1.158263 0.024302 -0.004715 -796917.000000 0 0 1
30.515241 1.214157 12.861630 33.137225 0.039768 1.172192 0.028118 -0.003653 -903383.000000 0 0 1
31.072851 2.610257 13.298030 33.899457 0.083808 1.167689 0.017006 -0.001888 -297346.000000 0 0 1
31.091561 3.568757 12.224130 33.598372 0.114282 1.198419 0.016824 -0.006269 204691.000000 0 0 1
31.741111 4.782657 12.576530 34.475224 0.149552 1.197379 0.011287 -0.006392 498650.000000 0 0 1
33.252641 4.876257 12.206930 35.756471 0.145605 1.222400 0.008821 -0.004292 261601.000000 0 0 1
34.034991 3.903757 12.863730 36.593654 0.114199 1.211592 0.009170 -0.002325 452039.000000 0 0 1
35.378767 3.925257 12.381330 37.687693 0.110498 1.236055 0.016582 0.001011 488538.000000 0 0 1
-34.717926 2.908157 13.046830 37.202306 -0.083570 1.212478 0.030801 0.006211 -583773.000000 0 0 1
-34.739255 1.539457 12.674130 37.011071 -0.044286 1.221282 0.030924 0.010388 215180.000000 0 0 1
35.147320 0.771757 12.893130 37.445461 0.021954 1.219285 0.039376 0.007606 -73243.200000 0 0 1
34.690431 0.412457 14.331830 37.536616 0.011889 1.179043 0.039315 0.001613 -203401.000000 0 0 1
-35.482575 -0.424743 15.079030 38.556072 0.011970 1.168977 0.037170 0.001049 308461.000000 0 0 1
35.224389 -0.475443 16.476030 38.890143 -0.013497 1.133319 0.042068 -0.003198 -198948.000000 0 0 1
-34.818859 -1.235543 17.354230 38.923628 0.035470 1.108669 0.035617 -0.003849 444800.000000 0 0 1
-33.529287 -0.652143 17.515730 37.834366 0.019448 1.089467 0.034025 -0.005487 777006.000000 0 0 1
-32.591807 -1.169143 18.470330 37.479940 0.035857 1.055485 0.032073 -0.011204 597069.000000 0 0 1
-32.928757 -0.927643 19.980830 38.527875 0.028164 1.025575 0.033946 -0.020002 -151393.000000 0 0 1
-33.802637 -1.879943 20.556530 39.607113 0.055558 1.025103 0.031094 -0.022938 127562.000000 0 0 1
-33.814997 -1.655843 21.926630 40.335753 0.048929 0.996073 0.027295 -0.016643 284941.000000 0 0 1
-34.443918 -2.818043 22.722130 41.359643 0.081634 0.989175 0.019657 -0.008631 457456.000000 0 0 1
-33.549567 -3.924143 22.600930 40.642028 0.116436 0.981113 0.028780 -0.018572 553586.000000 0 0 1
-34.080613 -5.074843 23.230630 41.556040 0.147821 0.977594 0.023463 -0.020858 6371.250000 0 0 1
-34.062227 -5.090443 24.774120 42.425287 0.148348 0.947214 0.015325 -0.021966 47186.300000 0 0 1
-32.757987 -4.895843 25.280120 41.667007 0.148357 0.918871 0.020015 -0.020444 -364568.000000 0 0 1
-32.650067 -4.724443 26.682550 42.430010 0.143702 0.890710 0.018865 -0.022253 118357.000000 0 0 1
-31.577957 -3.737943 27.222860 41.859572 0.117824 0.862767 0.018891 -0.013498 -45290.500000 0 0 1
-31.788977 -2.343243 26.861040 41.683874 0.073579 0.870559 0.013442 -0.007596 -93475.600000 0 0 1
-31.309707 -2.089243 25.497090 40.432219 0.066630 0.888453 0.011632 -0.012474 -175039.000000 0 0 1
-31.132197 -0.592243 25.198700 40.056697 0.019021 0.890433 0.016324 -0.009061 -1236860.000000 0 0 1
-32.322767 0.051757 25.177110 40.971342 -0.001601 0.909037 0.018111 -0.019953 -1223680.000000 0 0 1
-32.103417 1.411857 24.922310 40.666255 -0.043950 0.911134 0.010564 -0.014929 -96022.700000 0 0 1
-33.427007 2.122057 24.591260 41.552353 -0.063398 0.937489 0.010326 -0.012793 -140965.000000 0 0 1
-33.963837 1.642157 23.394530 41.273999 -0.048313 0.968167 0.014632 -0.008851 138169.000000 0 0 1
-35.040000 2.458657 22.913130 41.938743 -0.070052 0.992799 0.015036 -0.000462 445964.000000 0 0 1
-34.558880 3.691857 22.103730 41.188845 -0.106424 1.004342 0.017674 0.002245 -129023.000000 0 0 1
-34.003407 3.274157 20.869630 40.031154 -0.095993 1.022382 0.010061 -0.006340 29046.700000 0 0 1
-34.948906 3.263157 19.817130 40.308720 -0.093099 1.056831 0.027173 -0.007388 -19285.100000 0 0 1
-34.316576 2.554957 18.606330 39.119698 -0.074315 1.075121 0.024711 -0.007055 619229.000000 0 0 1
-33.238767 3.304357 18.018030 37.952389 -0.099087 1.076112 0.017025 -0.007868 515846.000000 0 0 1
-32.733057 2.625657 16.871230 36.918634 -0.080043 1.096195 0.023463 -0.002630 -160105.000000 0 0 1
-31.937807 3.446157 15.863530 35.826682 -0.107486 1.112094 0.022427 0.002045 -97453.200000 0 0 1
-32.619027 4.632557 15.419430 36.376096 -0.141077 1.133061 0.028648 -0.005751 -63437.500000 0 0 1
-31.849687 5.438557 14.546630 35.434234 -0.169126 1.147767 0.026515 -0.002773 -661319.000000 0 0 1
-32.420337 6.750357 14.012830 35.958379 -0.205281 1.170495 0.038179 -0.013316 -419868.000000 0 0 1
-31.712637 7.269857 12.931230 35.010840 -0.225348 1.192488 0.033441 -0.006909 -69816.500000 0 0 1
-31.967297 8.657257 12.784730 35.500782 -0.264472 1.202394 0.044049 -0.013655 -244971.000000 0 0 1
-31.309647 9.269257 11.553030 34.636479 -0.287830 1.230729 0.043843 -0.011192 -108304.000000 0 0 1
-31.627047 10.653857 11.405030 35.268251 -0.324920 1.241498 0.047602 -0.008209 -358108.000000 0 0 1
-30.777887 11.284457 10.533830 34.432236 -0.351423 1.259882 0.046862 -0.022710 -760771.000000 0 0 1
-30.896337 12.860657 10.561930 35.093226 -0.394438 1.265089 0.051589 -0.021806 181669.000000 0 0 1
-30.104387 13.454657 9.532530 34.324497 -0.420301 1.289378 0.045466 -0.020756 223073.000000 0 0 1
-30.172667 14.837957 9.640630 34.978516 -0.457040 1.291566 0.050342 -0.014722 -742954.000000 0 0 1
-29.230377 15.589957 8.760130 34.266625 -0.489969 1.312280 0.048776 -0.014125 -1045190.000000 0 0 1
-27.899657 15.405757 9.164130 33.161868 -0.504519 1.290807 0.052388 -0.010682 -444117.000000 0 0 1
-27.052517 16.040157 8.233930 32.510351 -0.535202 1.314736 0.038345 -0.021520 -500733.000000 0 0 1
-25.614687 16.200357 8.749130 31.545381 -0.563948 1.289761 0.041319 -0.013085 -855855.000000 0 0 1
-25.412777 16.902757 9.974530 32.109246 -0.586937 1.254926 0.044201 -0.017157 290738.000000 0 0 1
-25.755887 18.300157 9.910430 33.113111 -0.617754 1.266848 0.035769 -0.025039 -161196.000000 0 0 1
-25.966207 18.835157 11.382230 34.037659 -0.627552 1.229827 0.051517 -0.012653 684387.000000 0 0 1
-24.686037 18.941057 12.029530 33.359761 -0.654468 1.201885 0.033954 -0.005725 1012900.000000 0 0 1
-24.771537 19.587657 13.305330 34.268603 -0.669064 1.172047 0.046856 -0.014833 21456.000000 0 0 1
-25.215327 18.621357 14.425830 34.506119 -0.636096 1.139481 0.039186 -0.002788 58489.700000 0 0 1
-24.172437 17.723257 14.754830 33.408466 -0.632663 1.113360 0.046459 -0.007505 339865.000000 0 0 1
-24.530237 16.888057 15.859830 33.741269 -0.602938 1.081457 0.053424 -0.001632 -250287.000000 0 0 1
-23.487537 15.822957 16.163830 32.608278 -0.592839 1.052159 0.044477 -0.000948 -527822.000000 0 0 1
-22.419037 16.252757 16.964830 32.474156 -0.627278 1.021121 0.045788 0.003262 3189.510000 0 0 1
-21.586337 15.146757 17.357230 31.570044 -0.611854 0.988671 0.042933 -0.004160 87693.000000 0 0 1
-22.213537 14.175857 18.400630 32.139996 -0.568009 0.961226 0.033088 -0.001964 -335609.000000 0 0 1
-22.224837 14.681957 19.736430 33.151620 -0.583798 0.933110 0.031579 0.001407 -63424.500000 0 0 1
-22.697237 13.670257 20.505130 33.503744 -0.542100 0.912178 0.025927 0.002298 -730084.000000 0 0 1
-22.291637 13.824757 21.986930 34.226687 -0.555123 0.873182 0.013972 0.006056 203359.000000 0 0 1
-20.897737 13.837357 22.259530 33.521255 -0.584866 0.844584 0.022467 0.004868 143194.000000 0 0 1
-20.524737 15.186457 22.418430 33.977630 -0.637012 0.850244 0.018570 0.011872 75838.200000 0 0 1
-19.012437 15.284957 22.825630 33.408264 -0.677142 0.818615 0.026898 0.009858 875162.000000 0 0 1
-18.035337 14.756057 21.976030 32.030618 -0.685725 0.814689 0.019124 0.003084 -124642.000000 0 0 1
-17.722637 15.646457 20.882330 31.543228 -0.723260 0.847282 0.019102 0.011257 -994335.000000 0 0 1
-16.678237 14.995657 19.907530 29.989049 -0.732326 0.844872 0.018732 0.011156 1938480.000000 0 0 1
-15.356837 14.742557 20.454030 29.521904 -0.764993 0.805373 0.020849 0.009205 1229270.000000 0 0 1
-14.611437 15.828157 20.956130 30.053021 -0.825348 0.799165 0.020578 0.007724 -459626.000000 0 0 1
-13.510537 15.433157 22.001330 30.079486 -0.851727 0.750365 0.012398 0.009666 262083.000000 0 0 1
-12.370037 14.851157 21.446930 28.871188 -0.876294 0.733480 0.002609 0.013055 -596125.000000 0 0 1
-11.266237 14.837157 22.309730 29.065330 -0.921353 0.695752 0.013693 0.008491 592560.000000 0 0 1
-9.977637 14.217757 21.676330 27.776990 -0.958881 0.675539 0.011506 0.008050 -1194820.000000 0 0 1
-9.736237 12.943957 22.278030 27.543619 -0.925899 0.628641 0.029345 -0.002850 905029.000000 0 0 1
-8.589037 12.201957 21.774130 26.396440 -0.957453 0.600791 0.022543 0.000498 1485390.000000 0 0 1
-7.210937 12.886257 22.122230 26.597863 -1.060625 0.588580 0.016687 0.003667 -326203.000000 0 0 1
-6.951237 13.965757 21.305630 26.406286 -1.108963 0.632014 0.015014 0.010729 -558910.000000 0 0 1
-6.180437 15.003957 21.825030 27.196479 -1.180056 0.639332 0.024896 0.014721 151382.000000 0 0 1
-7.024337 16.051157 22.721230 28.692077 -1.158284 0.656884 0.028766 0.007436 914361.000000 0 0 1
-8.093737 16.703257 22.029830 28.806610 -1.119576 0.700144 0.007536 0.007653 273624.000000 0 0 1
-7.619837 17.851757 21.284330 28.805726 -1.167369 0.739371 0.023150 0.021225 -924761.000000 0 0 1
-8.559237 18.235057 20.111730 28.465058 -1.131940 0.786198 0.024831 0.024941 426797.000000 0 0 1
-9.718537 18.963757 20.415130 29.510195 -1.097215 0.806819 0.004153 0.022631 -348406.000000 0 0 1
-10.734837 18.212357 21.041330 29.827240 -1.038188 0.787752 0.008889 0.013711 -1003440.000000 0 0 1
-12.057137 18.955057 21.270830 30.937307 -1.004261 0.812692 0.004867 0.013211 88523.000000 0 0 1
-12.779437 19.058857 20.038130 30.464417 -0.980127 0.852962 0.007399 0.015744 -124848.000000 0 0 1
-14.048237 19.636457 20.167730 31.459192 -0.949799 0.874897 0.005267 0.011630 29853.400000 0 0 1
-14.898137 19.737357 18.866430 31.104018 -0.924218 0.919071 0.014143 0.009329 138581.000000 0 0 1
-15.365137 18.497657 18.351430 30.249393 -0.877642 0.918930 0.017612 0.016136 -145471.000000 0 0 1
-15.994037 18.667257 17.136430 29.965529 -0.862370 0.962011 0.027645 0.001276 -868369.000000 0 0 1
-16.672437 17.344257 16.687730 29.279238 -0.805145 0.964350 0.022993 0.005048 647648.000000 0 0 1
-17.877437 16.917857 17.321930 30.097606 -0.757827 0.957550 0.022689 0.008080 1235430.000000 0 0 1
-19.056637 17.715157 17.023430 31.093076 -0.748933 0.991424 0.033636 -0.001401 545532.000000 0 0 1
33.900731 -9.786343 11.932747 37.248122 -0.281036 1.244689 0.014095 -0.007081 167200.000000 0 0 1
32.543561 -10.194543 11.773447 36.078056 -0.303576 1.238375 0.017214 -0.001978 524890.000000 0 0 1
32.353241 -11.509743 12.089247 36.405443 -0.341790 1.232296 0.008894 -0.011139 -920653.000000 0 0 1
30.930401 -12.017543 12.021047 35.293295 -0.370584 1.223237 0.016981 0.000092 -441763.000000 0 0 1
30.128741 -11.588743 13.132047 34.849544 -0.367196 1.184434 0.014745 0.018012 -13353.400000 0 0 1
28.768971 -11.883343 12.996447 33.730923 -0.391715 1.175266 0.016488 0.010184 -366964.000000 0 0 1
28.182391 -12.513443 14.230347 33.960804 -0.417867 1.138428 0.012292 -0.000119 -640267.000000 0 0 1
28.191611 -11.687643 15.399847 34.183669 -0.393011 1.103468 0.015632 -0.003303 -213141.000000 0 0 1
27.522981 -12.117943 16.551547 34.326561 -0.414745 1.067656 0.016689 -0.008376 488354.000000 0 0 1
25.962671 -11.913743 16.542047 33.009649 -0.430214 1.045895 0.020144 -0.014816 811802.000000 0 0 1
25.556971 -10.574343 16.795347 32.358294 -0.392308 1.025065 0.010867 -0.017265 -55724.600000 0 0 1
25.268671 -9.848843 15.594847 31.284257 -0.371652 1.048942 0.024103 -0.019246 19310.700000 0 0 1
24.863871 -8.399343 15.814947 30.641045 -0.325777 1.028463 0.053799 -0.023130 300178.000000 0 0 1
25.932171 -7.599543 16.303147 31.559835 -0.285073 1.027946 0.024201 -0.015434 245875.000000 0 0 1
25.440271 -6.338943 16.745647 31.109585 -0.244197 1.002402 0.037749 -0.021692 549605.000000 0 0 1
26.550391 -5.232243 16.590947 31.742073 -0.194575 1.020805 0.035926 -0.020186 576964.000000 0 0 1
26.979811 -5.085243 15.254747 31.408235 -0.186298 1.063641 0.044227 -0.015849 284884.000000 0 0 1
28.153451 -4.296343 15.170247 32.267813 -0.151436 1.081352 0.043992 -0.012605 180176.000000 0 0 1
28.295611 -3.566243 13.802747 31.683995 -0.125374 1.120050 0.046085 -0.008283 1395.810000 0 0 1
28.801071 -4.445643 12.803647 31.830784 -0.153148 1.156833 0.039537 -0.002040 291199.000000 0 0 1
28.976191 -3.762243 11.626047 31.447402 -0.129117 1.192112 0.041248 -0.008749 -31196.900000 0 0 1
29.515661 -4.532743 10.394847 31.619185 -0.152380 1.235815 0.050477 -0.005915 -524323.000000 0 0 1
30.835911 -4.961143 10.451947 32.934929 -0.159521 1.247861 0.068920 -0.012891 -448079.000000 0 0 1
31.243971 -5.419343 9.188447 33.014884 -0.171744 1.288760 0.071534 -0.016005 -595025.000000 0 0 1
32.387441 -6.409843 9.089147 34.243905 -0.195386 1.302153 0.057038 -0.014068 151209.000000 0 0 1
33.643891 -5.742143 9.209647 35.351114 -0.169045 1.307236 0.056588 -0.014889 818781.000000 0 0 1
34.792621 -6.542343 8.908047 36.505918 -0.185868 1.324291 0.051371 -0.021700 340217.000000 0 0 1
-35.017631 -5.808843 8.457447 36.489800 0.164386 1.336894 0.043665 -0.012045 -462333.000000 0 0 1
-35.100444 -5.160643 7.194347 36.199889 0.145979 1.370725 0.043876 -0.016030 -826410.000000 0 0 1
-33.930387 -4.509543 6.871147 34.911600 0.132131 1.372687 0.033410 0.008802 -982716.000000 0 0 1
-34.075176 -3.542243 5.688447 34.727850 0.103582 1.406254 0.044082 -0.012650 -384419.000000 0 0 1
-33.684517 -4.146543 4.466947 34.231479 0.122483 1.439931 0.036610 -0.010133 -52457.200000 0 0 1
-33.562597 -3.213543 3.436747 33.890796 0.095457 1.469215 0.038985 -0.004459 35018.400000 0 0 1
-32.584717 -3.746743 2.332247 32.882233 0.114482 1.499809 0.039729 -0.009477 21954.600000 0 0 1
-33.039967 -4.854243 1.587547 33.432371 0.145877 1.523293 0.045859 -0.004761 -354648.000000 0 0 1
-34.151426 -4.583543 0.769147 34.466221 0.133415 1.548479 0.041124 -0.010087 -255462.000000 0 0 1
-33.944997 -4.926343 -0.730453 34.308385 0.144121 1.592089 0.054666 -0.011633 -689665.000000 0 0 1
-34.005177 -6.300443 -0.931653 34.596469 0.183201 1.597729 0.063739 -0.022131 182744.000000 0 0 1
-33.524597 -6.704743 -2.219453 34.260446 0.197391 1.635624 0.052607 -0.020544 84721.100000 0 0 1
-31.996607 -6.588743 -2.501853 32.763603 0.203081 1.647231 0.037540 -0.012959 125923.000000 0 0 1
-31.170447 -7.401743 -1.707753 32.082690 0.233142 1.624051 0.038587 -0.012821 657457.000000 0 0 1
-30.119917 -6.686843 -1.022453 30.870191 0.218464 1.603923 0.033487 -0.017093 720356.000000 0 0 1
-29.397937 -7.650243 0.011747 30.377049 0.254584 1.570410 0.020951 -0.007676 63621.700000 0 0 1
-28.952307 -8.816743 -0.641653 30.271815 0.295604 1.591994 0.029961 -0.003624 290416.000000 0 0 1
-28.337497 -9.635043 0.296747 29.932188 0.327748 1.560882 0.032183 0.008340 -318758.000000 0 0 1
-28.102757 -11.055543 -0.257853 30.200273 0.374801 1.579335 0.027930 0.005607 7955.670000 0 0 1
-27.000597 -11.204343 -1.156153 29.255876 0.393342 1.610325 0.023551 0.003189 659209.000000 0 0 1
-26.532777 -12.542843 -1.237753 29.374193 0.441595 1.612946 0.026187 0.007539 -80245.800000 0 0 1
-27.256767 -13.476243 -2.229753 30.487904 0.459172 1.643997 0.020011 0.000905 -1575190.000000 0 0 1
-28.446727 -13.990343 -1.844353 31.754490 0.457073 1.628911 0.031823 -0.006369 -943337.000000 0 0 1
-28.894747 -15.037343 -2.724153 32.687140 0.479848 1.654233 0.039192 -0.014600 -85323.700000 0 0 1
-29.815487 -16.059243 -1.995053 33.924074 0.494065 1.629640 0.045220 -0.009760 252205.000000 0 0 1
-29.049157 -16.850843 -1.085553 33.600341 0.525644 1.603110 0.017695 0.001053 589134.000000 0 0 1
-29.848667 -17.478943 -0.093753 34.589958 0.529753 1.573507 0.022941 0.010348 -54869.000000 0 0 1
-30.046017 -19.020843 -0.256053 35.561513 0.564372 1.577997 0.025973 0.003077 423332.000000 0 0 1
-28.805927 -19.738243 -0.114753 34.919806 0.600734 1.574083 0.041531 -0.000050 859302.000000 0 0 1
-28.927217 -21.183943 -0.155153 35.854811 0.632089 1.575124 0.052699 -0.004850 87387.000000 0 0 1
-29.729407 -21.949843 0.941247 36.966461 0.635984 1.545331 0.051587 -0.003782 103765.000000 0 0 1
-29.099627 -21.918643 2.215247 36.498254 0.645564 1.510064 0.048843 -0.005872 -351721.000000 0 0 1
-29.893107 -22.501043 3.210147 37.552628 0.645238 1.485208 0.052171 -0.007430 -499819.000000 0 0 1
-29.246417 -22.754043 4.541747 37.332652 0.661189 1.448838 0.036247 -0.006919 -580173.000000 0 0 1
-28.998647 -21.552843 5.174647 36.499638 0.639158 1.428545 0.020798 -0.004649 -178451.000000 0 0 1
-28.174497 -21.795043 6.278347 36.169654 0.658418 1.396332 0.011355 -0.006017 -219143.000000 0 0 1
-27.668747 -20.497243 6.874747 35.113512 0.637593 1.373737 0.011700 -0.003940 -357072.000000 0 0 1
-26.880487 -20.624643 8.011047 34.815419 0.654464 1.338615 0.006779 -0.009407 -406431.000000 0 0 1
-26.383637 -19.333343 8.356747 33.759587 0.632387 1.320659 0.013137 -0.012080 -215709.000000 0 0 1
-25.435537 -19.344943 9.549747 33.352527 0.650218 1.280405 0.019370 -0.006917 -520069.000000 0 0 1
-25.911027 -19.645243 10.811847 34.266791 0.648716 1.249792 0.011601 -0.006438 -363390.000000 0 0 1
-24.885137 -19.814343 11.770947 33.918040 0.672439 1.216382 0.022630 0.001713 -124025.000000 0 0 1
-24.631637 -18.581943 12.705747 33.368281 0.646307 1.180164 0.020580 -0.006091 -140146.000000 0 0 1
-23.745737 -17.612743 12.070747 31.933864 0.638182 1.183170 0.019185 -0.008129 539183.000000 0 0 1
-23.315537 -16.553443 12.907847 31.372652 0.617389 1.146767 0.020257 0.002987 192441.000000 0 0 1
-22.352337 -16.892843 14.042947 31.340062 0.647173 1.106177 0.027230 0.003755 -82374.300000 0 0 1
-23.127837 -17.457743 15.123847 32.686395 0.646589 1.089763 0.025795 -0.007327 451396.000000 0 0 1
-22.315437 -17.538443 16.265547 32.713052 0.666105 1.050406 0.037954 -0.007587 -209859.000000 0 0 1
-23.023937 -18.244243 17.440747 34.163339 0.670092 1.035018 0.032536 0.006239 -79823.900000 0 0 1
-23.974137 -17.453643 18.098647 34.741185 0.629285 1.022825 0.036761 0.001167 -247933.000000 0 0 1
-24.830537 -18.317443 18.835547 36.150548 0.635581 1.022738 0.032802 0.002300 -286555.000000 0 0 1
-25.856767 -17.545743 19.674247 36.925621 0.596201 1.008882 0.033238 0.005625 -327325.000000 0 0 1
-25.278367 -16.745743 20.695747 36.711438 0.585080 0.971888 0.034411 0.007082 -240586.000000 0 0 1
-26.185687 -15.820643 21.233847 37.240559 0.543481 0.964071 0.030094 -0.000614 -156776.000000 0 0 1
-25.499987 -14.973643 22.321147 37.049871 0.530956 0.924214 0.027278 0.001462 16313.900000 0 0 1
-24.448437 -14.157843 21.860747 35.722022 0.524903 0.912249 0.026436 0.003071 -236900.000000 0 0 1
-23.850337 -13.467343 22.888647 35.694511 0.514029 0.874687 0.017326 0.001248 -269428.000000 0 0 1
-22.658337 -12.633543 22.359447 34.248380 0.508634 0.859440 0.025630 0.001403 -47482.300000 0 0 1
-23.054137 -11.581443 21.458547 33.557299 0.465533 0.877001 0.025930 0.007092 596544.000000 0 0 1
-21.898537 -10.953843 20.914247 32.201527 0.463815 0.863896 0.031712 0.004171 52398.000000 0 0 1
-21.535337 -9.648243 21.661247 32.032311 0.421205 0.828162 0.029254 0.005597 -103900.000000 0 0 1
-21.120637 -9.742443 22.985147 32.700359 0.432191 0.791327 0.027798 0.004416 431462.000000 0 0 1
-19.716237 -9.911143 23.110547 31.954001 0.465797 0.762308 0.014328 0.003465 -6726.750000 0 0 1
-19.143737 -10.119543 24.520447 32.712997 0.486272 0.723395 0.018188 0.009006 69482.900000 0 0 1
-19.407437 -11.387043 25.097247 33.707346 0.530610 0.730916 0.024091 0.004294 109660.000000 0 0 1
-18.781937 -11.481843 26.361647 34.344291 0.548704 0.695755 0.024147 0.014220 -360039.000000 0 0 1
-18.988137 -12.900543 27.035047 35.466423 0.596766 0.703981 0.021666 -0.011117 471880.000000 0 0 1
-20.185437 -13.004343 27.801047 36.735038 0.572318 0.712394 0.011892 -0.006267 -607688.000000 0 0 1
-21.294837 -13.397743 27.074647 36.959520 0.561581 0.748738 0.008612 -0.000698 -1033160.000000 0 0 1
-22.476637 -13.620643 28.016047 38.413800 0.544813 0.753465 0.001046 -0.004031 -1090300.000000 0 0 1
-22.459037 -14.810043 28.859247 39.453794 0.582972 0.750322 0.001585 -0.005459 -434330.000000 0 0 1
-21.508737 -14.770743 29.892747 39.678419 0.601766 0.717616 0.004174 -0.007655 -387050.000000 0 0 1
-21.791837 -15.802443 31.047547 41.091989 0.627409 0.714285 -0.012056 -0.009103 -876058.000000 0 0 1
-21.519637 -17.198543 30.760047 41.292435 0.674254 0.730364 -0.001206 -0.004719 -134705.000000 0 0 1
-21.732137 -18.133243 31.823547 42.589182 0.695366 0.726925 0.005789 -0.006514 -994107.000000 0 0 1
-23.201337 -18.355443 32.188947 43.719019 0.669313 0.743257 0.012698 -0.005740 -658356.000000 0 0 1
-23.593437 -17.423043 33.182947 44.286800 0.636081 0.723831 0.011807 0.000870 791842.000000 0 0 1
-25.000237 -17.545743 33.479647 45.318338 0.611948 0.739559 0.022344 -0.015102 741011.000000 0 0 1
-25.567337 -16.369843 34.321747 45.821860 0.569500 0.724206 0.018559 -0.012998 -183692.000000 0 0 1
-25.218087 -16.390543 -33.109237 44.730565 0.576341 2.404153 0.019636 -0.016846 -135045.000000 0 0 1
-25.631257 -15.202143 -32.437537 44.048386 0.535338 2.398540 0.041081 -0.009413 -345060.000000 0 0 1
-25.098147 -15.037443 -31.013737 42.636763 0.539791 2.385313 0.034281 0.001961 -91366.800000 0 0 1
-25.671117 -15.835843 -30.004537 42.544711 0.552735 2.353568 0.026109 0.007332 -13918.500000 0 0 1
-25.119107 -15.408243 -28.795237 41.201325 0.550220 2.344642 0.025230 0.013402 -308429.000000 0 0 1
-25.794607 -16.139743 -27.609237 41.086775 0.559104 2.307667 0.017955 0.017201 771736.000000 0 0 1
-26.945727 -15.413043 -27.095537 41.204396 0.519579 2.288410 0.028240 0.009721 841608.000000 0 0 1
-26.801487 -14.047543 -26.612237 40.297200 0.482767 2.292147 0.026173 0.000053 -582826.000000 0 0 1
-26.019757 -13.852443 -25.250237 38.813560 0.489216 2.279107 0.013507 0.007270 -57244.700000 0 0 1
-24.636037 -13.823343 -25.513237 38.065003 0.511327 2.305348 -0.004496 0.009997 544637.000000 0 0 1
-23.771037 -14.076543 -24.355737 36.829516 0.534644 2.293361 -0.006622 0.010256 770304.000000 0 0 1
-23.227337 -15.554043 -24.469437 37.150919 0.590061 2.289819 -0.008507 0.011461 -609651.000000 0 0 1
-22.266037 -15.882743 -25.416137 37.336550 0.619608 2.319556 0.000694 0.019742 -199970.000000 0 0 1
-21.978337 -17.261243 -25.416337 37.775495 0.665760 2.308819 0.017273 0.013395 -64041.100000 0 0 1
-21.173137 -17.581243 -26.714137 38.354230 0.692979 2.341320 0.018601 0.013484 186312.000000 0 0 1
-21.868237 -17.523043 -27.976137 39.597236 0.675534 2.355361 0.027594 0.009613 322270.000000 0 0 1
-22.749737 -18.595843 -28.220837 40.740294 0.685266 2.336024 0.030660 -0.004855 -238958.000000 0 0 1
-23.437837 -18.641643 -29.598737 42.106155 0.671909 2.350340 0.022438 -0.005001 -185979.000000 0 0 1
-22.573337 -19.015043 -30.652437 42.552313 0.700046 2.375099 0.020507 -0.014140 103941.000000 0 0 1
-23.154137 -18.888743 -31.927837 43.729686 0.684291 2.389291 0.012993 -0.006705 -475025.000000 0 0 1
-22.253837 -19.264643 -33.131937 44.317999 0.713525 2.415231 0.012766 -0.013208 -865874.000000 0 0 1
-21.056337 -18.511543 -33.164137 43.427026 0.721172 2.439783 0.016274 -0.007094 607818.000000 0 0 1
-19.859137 -19.246343 -32.882537 42.965897 0.769729 2.442330 0.028779 -0.014694 451191.000000 0 0 1
-19.485637 -20.291843 -33.943837 44.086654 0.805663 2.449535 0.030229 -0.017119 -1397960.000000 0 0 1
-19.202337 -19.805343 33.582047 43.459582 0.800856 0.687683 0.021410 -0.017702 203219.000000 0 0 1
-18.821937 -20.807443 32.655347 43.053301 0.835458 0.709809 0.027070 -0.026078 -378966.000000 0 0 1
-20.021337 -21.415343 31.932547 43.349261 0.819027 0.742716 0.033992 -0.024386 -229351.000000 0 0 1
-20.693537 -22.338743 32.748447 44.718036 0.823611 0.749056 0.034605 -0.022374 -85405.000000 0 0 1
-21.935737 -22.817643 32.261147 45.195166 0.805102 0.775861 0.050564 -0.021150 -31070.600000 0 0 1
-21.991237 -24.054043 31.335847 45.212242 0.830168 0.805039 0.058467 -0.018605 -596467.000000 0 0 1
-21.576237 -25.178753 32.022747 46.097288 0.862297 0.802825 0.062124 -0.014124 -110229.000000 0 0 1
-21.817537 -26.408743 31.414647 46.479100 0.880313 0.828628 0.057687 -0.005528 -326749.000000 0 0 1
-21.241537 -27.484303 32.309647 47.439468 0.912824 0.821572 0.069793 -0.010804 -255034.000000 0 0 1
-21.820637 -27.564993 33.587347 48.621795 0.901194 0.808218 0.041902 -0.009961 65439.900000 0 0 1
-21.298137 -28.711913 34.211247 49.481249 0.932572 0.807374 0.038988 -0.017221 -146731.000000 0 0 1
-22.366537 -29.659323 -33.943237 50.319785 0.924667 2.311152 0.031536 -0.019756 -366550.000000 0 0 1
-23.200137 -30.326233 33.892847 51.055380 0.917752 0.844848 0.028929 -0.012991 1512140.000000 0 0 1
-24.428137 -29.699913 33.450647 50.968270 0.882486 0.854888 0.026786 -0.008071 890148.000000 0 0 1
-25.462957 -29.182873 -34.316637 51.745859 0.853366 2.295851 0.015820 -0.008842 -985302.000000 0 0 1
-26.445087 -28.355033 33.911147 51.510353 0.820237 0.852190 0.021697 -0.003182 -131846.000000 0 0 1
-27.258847 -27.851783 -33.833537 51.608864 0.796157 2.285742 0.014265 0.004535 911002.000000 0 0 1
-28.545257 -27.043943 -34.308637 52.185143 0.758397 2.288214 0.010912 -0.002317 1247360.000000 0 0 1
-29.600217 -27.842343 33.954847 52.955647 0.754805 0.874743 0.018499 0.002484 -28331.800000 0 0 1
-30.742907 -27.053833 33.785747 53.089669 0.721656 0.880987 0.016158 -0.007802 -298800.000000 0 0 1
