# x y z rho theta phi s1 s2 stress_xx np intf bulk
-0.754130 -10.887885 -14.301914 17.990539 1.501644 2.489752 0.001405 0.001907 -1344790.000000 1 0 0
2.195370 -13.467685 -12.940814 18.805926 -1.409207 2.329697 -0.003974 0.005500 -76854.700000 1 0 0
2.103670 -11.268285 -14.630614 18.586407 -1.386232 2.476999 -0.002952 0.009539 1468000.000000 1 0 0
-5.486030 -6.414785 -16.447314 18.486755 0.863282 2.667442 0.014371 -0.006503 -701464.000000 1 0 0
4.508170 -14.121385 -11.342914 18.665444 -1.261779 2.223952 -0.006854 0.005641 191311.000000 1 0 0
13.977370 -10.618885 -7.788614 19.203908 -0.649693 1.988403 0.030057 -0.015566 -1669650.000000 1 0 0
7.104570 10.822015 -10.856314 16.895280 0.989871 2.268637 0.011801 -0.002929 137740.000000 1 0 0
5.717370 -4.237785 -12.489914 14.375155 -0.637853 2.623679 -0.007003 0.001233 2227610.000000 1 0 0
13.594870 0.447815 -9.986414 16.874522 0.032928 2.204092 0.011586 0.000808 1539000.000000 1 0 0
14.240970 4.978215 -10.350014 18.295099 0.336292 2.172110 0.012008 -0.002375 605527.000000 1 0 0
4.087170 4.274215 -13.481514 14.721586 0.807765 2.728205 0.006892 -0.001966 3395020.000000 1 0 0
10.254070 -4.988885 -13.710814 17.833153 -0.452811 2.447819 0.006149 -0.000151 -845607.000000 1 0 0
2.573770 -7.556185 -11.949314 14.370328 -1.242504 2.552647 -0.004433 0.003232 1460530.000000 1 0 0
-5.574530 -2.061885 -15.162614 16.285933 0.354271 2.768008 0.006437 -0.008783 -224792.000000 1 0 0
10.572570 -0.059985 -9.650614 14.314928 -0.005674 2.310629 0.011768 -0.003335 2375430.000000 1 0 0
-1.551730 -9.603785 -16.862414 19.467448 1.410606 2.618313 0.011376 -0.002335 781418.000000 1 0 0
8.751970 1.770215 -17.966314 20.062878 0.199572 2.680350 0.023363 -0.005504 -150933.000000 1 0 0
16.275970 -6.064385 -8.671614 19.413419 -0.356663 2.033849 0.041966 -0.008730 -1957320.000000 1 0 0
10.142970 7.570215 -9.939314 16.092792 0.641162 2.236516 0.012884 -0.004207 1526900.000000 1 0 0
13.744570 -2.381585 -10.558814 17.494962 -0.171571 2.218723 0.022709 -0.003870 -538715.000000 1 0 0
7.242870 -1.935585 -13.723014 15.637351 -0.261138 2.641586 0.002451 -0.002303 52048.900000 1 0 0
-2.787430 6.508515 -13.832614 15.539361 -1.166156 2.668506 0.006872 0.000106 1787560.000000 1 0 0
11.285070 1.723115 -13.786314 17.899284 0.151520 2.449976 0.011262 -0.005190 -934410.000000 1 0 0
-2.377930 10.681315 -13.009714 16.999932 -1.351743 2.442273 0.008646 -0.001963 -230731.000000 1 0 0
2.887370 -1.128985 -15.170114 15.483664 -0.372731 2.940003 0.008652 -0.007772 768145.000000 1 0 0
-8.994930 0.363415 -15.292214 17.745214 -0.040380 2.609536 0.003621 0.002238 -658405.000000 1 0 0
2.276670 -1.774085 -17.985014 18.215140 -0.661957 2.982467 0.017658 -0.012650 1099450.000000 1 0 0
0.968370 7.877315 -13.223814 15.422681 1.448479 2.601044 0.008145 -0.002026 444201.000000 1 0 0
9.321870 -9.114385 -9.836714 16.331877 -0.774144 2.217177 0.007172 -0.001206 -1038840.000000 1 0 0
3.918970 7.290215 -13.518514 15.851050 1.077550 2.592209 0.004445 -0.004631 2185550.000000 1 0 0
-2.709330 8.994315 -15.575614 18.188950 -1.278214 2.598903 0.010294 -0.004385 299757.000000 1 0 0
5.600270 -7.660085 -15.210014 17.927198 -0.939503 2.583813 0.000137 0.007163 1902970.000000 1 0 0
4.281670 7.186015 -16.405114 18.414648 1.033446 2.670060 0.013568 -0.006327 652589.000000 1 0 0
-0.183730 5.027215 -13.492914 14.400186 -1.534265 2.784725 0.012435 -0.003863 1719170.000000 1 0 0
8.902970 4.310415 -16.588814 19.314018 0.450891 2.603915 0.019701 -0.005058 -1206470.000000 1 0 0
5.385370 0.253715 -14.363214 15.341724 0.047077 2.782508 0.003913 -0.002797 506922.000000 1 0 0
6.269870 7.936015 -11.613314 15.400021 0.902150 2.425095 0.003944 0.001202 374776.000000 1 0 0
2.805270 -8.395385 -14.908814 17.338534 -1.248316 2.605803 -0.001425 0.003690 41918.400000 1 0 0
4.010670 11.350515 -13.848514 18.349414 1.231143 2.426011 0.007205 -0.012368 -2059790.000000 1 0 0
0.638370 -4.567285 -13.708114 14.463056 -1.431926 2.817067 0.003650 -0.002286 173781.000000 1 0 0
8.472170 -0.149385 -11.672514 14.423854 -0.017631 2.513672 -0.001902 -0.002446 -356561.000000 1 0 0
-0.929930 -5.107385 -16.273014 17.081016 1.390694 2.832782 0.008206 -0.008433 132942.000000 1 0 0
4.489770 0.876615 -11.744714 12.604157 0.192821 2.770172 -0.002894 -0.003302 1813660.000000 1 0 0
-2.793130 -7.266585 -15.614714 17.447754 1.203828 2.679096 0.007151 -0.002860 2493130.000000 1 0 0
11.313470 -3.826485 -11.346214 16.473407 -0.326145 2.330573 0.012465 -0.003308 1158700.000000 1 0 0
6.475570 -7.109685 -12.395514 15.688511 -0.832041 2.481771 -0.005397 0.004783 -127164.000000 1 0 0
3.514270 -4.024385 -14.614914 15.560895 -0.852962 2.791112 0.002683 -0.000571 3780870.000000 1 0 0
-0.650130 -1.455885 -18.306114 18.375420 1.150812 3.054713 0.020272 -0.016774 -127932.000000 1 0 0
14.886070 2.842415 -8.489014 17.370600 0.188674 2.081395 0.008118 0.002118 -347880.000000 1 0 0
6.883470 4.220015 -14.352614 16.467793 0.549971 2.629165 0.005206 -0.000712 2172890.000000 1 0 0
10.125170 -9.771385 -13.925014 19.796591 -0.767619 2.350972 0.024123 -0.004003 -979595.000000 1 0 0
9.012570 -3.101985 -15.637014 18.312971 -0.331484 2.594184 0.011042 -0.001980 -575087.000000 1 0 0
-5.399530 -2.054685 -18.058114 18.959750 0.363610 2.831957 0.007173 -0.007514 -410249.000000 1 0 0
5.042670 -9.158985 -10.937914 15.131209 -1.067515 2.378745 -0.011948 0.006916 2002820.000000 1 0 0
-2.479830 3.962815 -17.222914 17.846070 -1.011640 2.876551 0.009672 0.002088 2154480.000000 1 0 0
9.430170 9.292615 -14.637214 19.736485 0.778051 2.406297 0.027913 -0.007304 -1649070.000000 1 0 0
9.856170 9.959415 -11.728614 18.272778 0.790608 2.267721 0.022207 -0.007700 1006030.000000 1 0 0
11.891970 -6.008785 -9.619914 16.433721 -0.467863 2.196141 0.018081 -0.007142 979190.000000 1 0 0
8.135570 6.871615 -13.777614 17.413478 0.701373 2.483572 0.012381 -0.001590 1299520.000000 1 0 0
3.969970 -4.126385 -17.560114 18.470119 -0.804715 2.826381 0.014454 -0.004820 665675.000000 1 0 0
9.358270 -7.507385 -12.372814 17.234400 -0.676093 2.371597 0.005284 0.000241 673038.000000 1 0 0
11.962570 -8.707685 -8.721514 17.175321 -0.629214 2.103418 0.022509 -0.013191 1223330.000000 1 0 0
-2.938830 -2.551585 -13.844414 14.381067 0.714984 2.867545 0.008401 -0.006515 -2141120.000000 1 0 0
-0.375130 6.066315 -17.660114 18.676737 -1.509037 2.810130 0.019123 -0.004844 1545820.000000 1 0 0
1.196270 -8.540085 -17.318214 19.346437 -1.431625 2.679593 0.013655 -0.004343 223954.000000 1 0 0
0.070370 8.491915 -16.062714 18.169434 1.562510 2.655257 0.013303 -0.003684 -207561.000000 1 0 0
1.774070 3.312215 -15.037814 15.500127 1.079065 2.896742 0.015570 -0.002515 1624130.000000 1 0 0
-1.937130 -0.582885 -15.745614 15.875030 0.292283 3.013817 0.015460 -0.006271 386393.000000 1 0 0
14.020670 -4.395985 -8.351814 16.901380 -0.303828 2.087653 0.028131 -0.006957 -670551.000000 1 0 0
0.599770 0.613115 -14.536114 14.561395 0.796401 3.082657 0.009991 -0.005565 1872670.000000 1 0 0
8.810070 2.699015 -12.584714 15.597341 0.297277 2.509597 0.004678 -0.000474 1650700.000000 1 0 0
5.979870 1.039415 -17.161914 18.203585 0.172100 2.801658 0.017352 -0.002729 227478.000000 1 0 0
15.302570 1.427715 -12.381614 19.736042 0.093030 2.248955 0.020783 -0.006401 776284.000000 1 0 0
8.801770 -11.272085 -11.853214 18.574976 -0.907844 2.262861 0.019297 0.000273 1627010.000000 1 0 0
-4.614730 0.728115 -15.067014 15.774688 -0.156491 2.840924 0.011046 -0.004754 618871.000000 1 0 0
2.435170 5.066515 -17.380814 18.267247 1.122756 2.828788 0.020784 -0.004404 1476970.000000 1 0 0
5.905670 -11.718185 -12.291814 17.980030 -1.103974 2.323531 0.000190 0.005043 1262900.000000 1 0 0
12.785670 7.112515 -8.679414 17.011568 0.507658 2.106221 0.010685 -0.005291 -730228.000000 1 0 0
-5.080230 3.485315 -15.802614 16.961095 -0.601305 2.769855 0.005884 0.000565 829998.000000 1 0 0
-0.601330 -4.374885 -19.026814 19.532559 1.434202 2.913536 0.021043 -0.018299 -1414610.000000 1 0 0
9.747270 4.440915 -10.299314 14.859571 0.427506 2.336591 0.003263 0.001428 1491950.000000 1 0 0
13.316770 3.513215 -12.748114 18.766818 0.257942 2.317591 0.010570 -0.009378 -605120.000000 1 0 0
-6.325930 5.775115 -17.202014 19.216624 -0.739912 2.679593 0.001140 0.005863 -1065070.000000 1 0 0
-10.080530 3.112815 -15.533714 18.777725 -0.299506 2.544976 -0.003073 0.006144 70011.700000 1 0 0
10.546870 13.486115 -8.457814 19.095716 0.907094 2.029646 0.032462 -0.002296 -1437960.000000 1 0 0
7.338470 13.464915 -12.375914 19.705845 1.071795 2.249819 0.025102 -0.007295 -254259.000000 1 0 0
5.160970 15.066315 -11.397014 19.583702 1.240774 2.191938 0.015934 -0.009727 -1166030.000000 1 0 0
14.174370 9.358615 -10.052914 19.737211 0.583547 2.105212 0.040888 -0.008495 -2299950.000000 1 0 0
8.174570 -17.321685 -2.124614 19.271179 -1.129858 1.681269 0.019231 0.001207 -870336.000000 1 0 0
0.609970 -15.927185 -0.004614 15.938861 -1.532518 1.571086 0.011601 -0.010548 1448600.000000 1 0 0
-9.112630 -11.653685 7.665486 16.661575 0.907157 1.092723 0.004859 -0.006721 -697905.000000 1 0 0
1.956070 -15.866385 -2.522814 16.184343 -1.448131 1.727314 0.010920 -0.008279 965826.000000 1 0 0
-1.276630 -11.104785 -9.422014 14.619178 1.456337 2.271161 0.006110 0.001180 -66635.800000 1 0 0
-4.826530 -12.658585 -12.944814 18.737752 1.206527 2.333448 0.017056 -0.006112 1747780.000000 1 0 0
-8.479030 -17.899885 -1.739914 19.882835 1.128416 1.658417 0.004631 -0.005134 836892.000000 1 0 0
-11.384030 -7.057385 -8.755314 16.001823 0.554950 2.149746 0.008673 -0.010202 3662490.000000 1 0 0
-13.596730 -11.395585 -4.678614 18.347203 0.697552 1.828648 0.009171 -0.003089 -139531.000000 1 0 0
-5.703530 -13.408885 9.830486 17.577454 1.168625 0.977295 0.001200 -0.005491 414043.000000 1 0 0
0.071170 -13.966285 -3.598614 14.422628 -1.565701 1.822972 0.008165 -0.005331 -1035180.000000 1 0 0
-14.771730 -11.540285 1.957186 18.847089 0.663198 1.466763 0.007218 -0.003307 1025400.000000 1 0 0
-3.866030 -16.460485 -7.446414 18.475465 1.340110 1.985636 0.004032 -0.010288 905287.000000 1 0 0
0.552070 -15.362385 -9.159414 17.894203 -1.534875 2.108151 0.005650 0.000918 -95969.000000 1 0 0
4.435270 -14.263385 -2.553214 15.153701 -1.269320 1.740092 0.001873 -0.002428 -418599.000000 1 0 0
-3.708130 -17.987085 -2.371214 18.517778 1.367489 1.699200 0.002980 -0.014096 3049690.000000 1 0 0
-0.955030 -13.398585 0.656586 13.448615 1.499638 1.521955 0.011435 -0.008213 2829030.000000 1 0 0
-8.541230 -11.533985 -10.495714 17.780479 0.933385 2.202220 0.013802 -0.001552 2232040.000000 1 0 0
-3.808130 -14.054785 -0.298714 14.564617 1.306200 1.591307 0.006875 -0.004188 4284050.000000 1 0 0
-1.479230 -14.898985 -7.203414 16.614964 1.471837 2.019225 0.005150 -0.006324 -120909.000000 1 0 0
-14.164630 -7.980785 -1.708914 16.347784 0.513096 1.675523 0.009824 -0.003583 2174880.000000 1 0 0
-10.717430 -7.456385 -11.491814 17.393181 0.607851 2.292558 0.012288 -0.012122 -57400.600000 1 0 0
-9.449730 -14.675385 6.873086 18.759095 0.998709 1.195673 -0.008877 -0.004243 -982503.000000 1 0 0
-2.465030 -14.411285 -12.201514 19.043068 1.401387 2.266248 0.016826 -0.001776 242042.000000 1 0 0
2.381070 -17.815585 -4.628314 18.560330 -1.437933 1.822822 0.013031 -0.011149 81766.100000 1 0 0
-6.757030 -9.749585 -9.297114 15.071436 0.964744 2.235556 0.013950 -0.007107 1814140.000000 1 0 0
-11.080230 -15.305285 0.388886 18.899060 0.944178 1.550218 -0.007069 -0.006177 852646.000000 1 0 0
-12.621530 -11.029685 4.060586 17.246603 0.718194 1.333122 0.009567 -0.005778 2557830.000000 1 0 0
-17.046630 -8.817085 -1.598214 19.258319 0.477339 1.653880 0.008269 -0.005947 -800261.000000 1 0 0
-1.498530 -19.107585 -3.929714 19.564970 1.492531 1.773027 0.015668 -0.014936 -1257000.000000 1 0 0
3.234470 -14.331085 -8.666214 17.057111 -1.348819 2.103739 -0.006574 0.005097 876317.000000 1 0 0
-4.249630 -8.128985 -13.130214 16.016937 1.089095 2.531807 0.009967 0.000223 1361410.000000 1 0 0
5.451270 -16.569785 1.271986 17.489770 -1.252961 1.498005 0.017857 -0.009730 4555200.000000 1 0 0
-2.833030 -13.766785 -3.130914 14.399758 1.367842 1.789975 0.009792 -0.007180 -431689.000000 1 0 0
-0.426930 -13.901285 3.634586 14.374916 1.540094 1.315179 0.009219 -0.004265 -2415790.000000 1 0 0
1.226870 -16.140785 7.030686 17.648249 -1.494932 1.161048 0.013111 -0.004955 2549730.000000 1 0 0
-5.514630 -10.467785 -14.633814 18.818453 1.085924 2.461685 0.015682 -0.002937 -202666.000000 1 0 0
-0.233230 -17.249185 -5.824614 18.207550 1.557276 1.896421 0.014442 -0.010129 192536.000000 1 0 0
-6.599730 -13.362385 -1.294614 14.959471 1.112038 1.657446 0.005403 -0.005394 2929100.000000 1 0 0
-1.776930 -17.748585 -0.104814 17.837621 1.471012 1.576672 0.008429 -0.008925 3229510.000000 1 0 0
-9.540130 -9.771485 -4.914214 14.513631 0.797378 1.916217 0.011543 -0.007248 2594040.000000 1 0 0
-0.851430 -16.614385 4.913086 17.346502 1.519595 1.283634 0.018185 -0.006904 1947680.000000 1 0 0
-6.868230 -9.932685 -6.333914 13.636322 0.965813 2.053853 0.013759 -0.008162 2424340.000000 1 0 0
-6.052330 -14.575485 -8.574514 17.961006 1.177221 2.068485 0.013016 -0.008702 -508729.000000 1 0 0
-5.766930 -12.288585 -10.301914 17.041016 1.132016 2.219980 0.017503 -0.006203 1028720.000000 1 0 0
-10.880330 -12.250085 -8.838814 18.616412 0.844548 2.065517 0.023310 -0.008874 722135.000000 1 0 0
4.023670 -17.147485 6.662286 18.831150 -1.340315 1.209175 0.024968 -0.006684 557461.000000 1 0 0
-6.798030 -14.273485 -4.154314 16.346373 1.126312 1.827758 0.009978 -0.013638 -560376.000000 1 0 0
-2.833230 -12.238385 -7.042914 14.401662 1.343300 2.081779 0.010669 -0.004457 2661200.000000 1 0 0
-7.090930 -12.839885 4.413486 15.317402 1.066221 1.278517 -0.002816 -0.001137 736978.000000 1 0 0
2.476570 -16.396185 2.390686 16.753616 -1.420884 1.427611 0.015772 -0.009416 3297190.000000 1 0 0
-6.229930 -11.984785 7.256286 15.332997 1.091419 1.077824 -0.002132 -0.000827 1402760.000000 1 0 0
-11.295630 -12.794985 -0.941814 17.093563 0.847556 1.625922 0.004517 -0.000434 1902880.000000 1 0 0
-14.244530 -8.676785 4.592086 17.299725 0.547106 1.302133 0.017405 -0.004894 34472.900000 1 0 0
-8.065130 -15.517685 4.385286 18.029853 1.091483 1.325108 -0.012635 0.001272 887937.000000 1 0 0
-16.583630 -9.138385 1.235786 18.975090 0.503648 1.505623 0.008744 -0.000414 -707471.000000 1 0 0
-6.698130 -17.009285 2.242986 18.417701 1.195653 1.448709 -0.009521 0.001424 2479140.000000 1 0 0
-11.649830 -14.867985 -4.661014 19.455091 0.906166 1.812728 0.019196 0.000298 -1096440.000000 1 0 0
-10.179030 -10.124885 -12.548114 19.067803 0.782731 2.289060 0.015752 -0.006648 -1293440.000000 1 0 0
-4.402430 -15.922085 -4.488814 17.118517 1.301038 1.836118 0.002549 -0.011613 576427.000000 1 0 0
-11.739830 -8.296285 0.091686 14.375686 0.615194 1.564418 0.007200 -0.004564 1578950.000000 1 0 0
-9.617030 -11.281285 3.468686 15.224534 0.864866 1.340942 -0.001091 0.000812 1217180.000000 1 0 0
-14.201530 -12.864885 -0.579414 19.170927 0.736054 1.601024 0.002251 0.003475 -389244.000000 1 0 0
5.643270 -14.996285 -7.031714 17.498001 -1.210877 1.984341 0.000971 -0.002912 1705990.000000 1 0 0
-7.491430 -10.489285 -1.272514 12.952448 0.950605 1.669200 0.004411 -0.003692 -339170.000000 1 0 0
-11.556530 -8.048285 -5.937614 15.283440 0.608324 1.969799 0.002157 -0.008687 -2136360.000000 1 0 0
-14.450130 -6.646285 -9.140614 18.344759 0.431094 2.092397 0.011734 -0.012664 1468900.000000 1 0 0
-3.933930 -16.403485 1.482386 16.933623 1.335419 1.483143 0.003342 -0.006093 1912810.000000 1 0 0
-8.094030 -15.549285 0.021486 17.529804 1.090852 1.569571 0.000256 -0.005407 454773.000000 1 0 0
0.942670 -18.520185 3.735786 18.916711 -1.519941 1.372004 0.014318 -0.010083 -124122.000000 1 0 0
-14.002730 -8.559485 -4.480014 17.012106 0.548667 1.837282 0.002017 -0.010363 -1005050.000000 1 0 0
-3.295230 -14.502385 11.112186 18.564977 1.347370 0.929098 -0.006494 -0.007383 311274.000000 1 0 0
-10.872130 -12.063585 -3.773114 16.672423 0.837299 1.799083 0.011923 -0.007777 1793680.000000 1 0 0
-9.930030 -10.743085 0.553086 14.639852 0.824707 1.533008 0.003187 0.000222 2854640.000000 1 0 0
-0.065930 -13.270385 -11.081614 17.289003 1.565828 2.266549 0.007394 0.000103 1467850.000000 1 0 0
-5.875830 -12.661185 -6.308414 15.317541 1.136294 1.995271 0.011542 -0.009662 1892190.000000 1 0 0
1.786470 -15.914985 9.926686 18.841903 -1.459013 1.015917 0.012612 -0.004153 349802.000000 1 0 0
-9.068630 -15.524385 -5.546814 18.815252 1.042110 1.870047 0.027819 -0.010257 -544100.000000 1 0 0
-3.322130 -15.404385 5.967386 16.850558 1.358388 1.208806 0.004225 -0.002092 -176320.000000 1 0 0
-17.508730 -5.503885 -6.532514 19.481327 0.304570 1.912743 0.021838 -0.014351 -266023.000000 1 0 0
18.788170 5.631915 -3.000714 19.842331 0.291235 1.722607 0.002468 0.017015 -1826230.000000 1 0 0
12.798070 -12.499885 -5.861314 18.825321 -0.773612 1.887412 0.031409 -0.007830 -407956.000000 1 0 0
10.968570 -13.613985 -1.581614 17.554247 -0.892599 1.661017 0.027099 -0.005766 1817210.000000 1 0 0
18.765370 -2.984885 4.640686 19.559770 -0.157742 1.331255 0.037567 -0.010172 -131348.000000 1 0 0
8.664170 -16.961185 4.997586 19.690746 -1.098528 1.314186 0.034359 -0.014470 -377955.000000 1 0 0
18.238870 -1.120985 6.789986 19.494022 -0.061384 1.215027 0.061879 -0.014247 -1295700.000000 1 0 0
17.996070 -4.408385 -4.936414 19.174477 -0.240233 1.831176 0.044731 -0.006694 -175429.000000 1 0 0
5.304670 -11.776785 14.676486 19.550740 -1.147581 0.721695 0.007432 -0.001598 669027.000000 1 0 0
15.953270 -8.910785 -0.807614 18.291013 -0.509388 1.614964 0.025303 -0.009563 460939.000000 1 0 0
13.832970 -12.626985 -1.454114 18.785799 -0.739852 1.648279 0.025371 -0.006424 337544.000000 1 0 0
11.094270 -1.757285 13.838086 17.823117 -0.157091 0.681843 -0.003698 -0.001313 1495600.000000 1 0 0
17.001070 -6.180885 -1.382614 18.142528 -0.348702 1.647079 0.030647 -0.007025 -830718.000000 1 0 0
17.794070 3.716415 -0.933114 18.201961 0.205897 1.622083 0.015808 0.006791 -262473.000000 1 0 0
9.618470 -11.060285 9.559486 17.499390 -0.855010 0.992885 0.019628 -0.006060 -368272.000000 1 0 0
9.103670 -11.185085 4.282386 15.043994 -0.887630 1.282147 0.005401 -0.001850 688459.000000 1 0 0
13.958470 -10.167785 6.802686 18.560692 -0.629554 1.195541 0.019063 -0.008300 50227.300000 1 0 0
16.376770 -0.672085 -4.698814 17.050781 -0.041016 1.849987 0.026240 -0.000044 -202743.000000 1 0 0
15.742070 -0.462585 -1.775214 15.848600 -0.029377 1.683043 0.018730 -0.000022 1535620.000000 1 0 0
12.888070 -5.217285 -0.267214 13.906610 -0.384650 1.590012 0.011519 -0.005259 837122.000000 1 0 0
14.279870 -7.557785 1.079386 16.192587 -0.486782 1.504088 0.013511 -0.003880 1822090.000000 1 0 0
15.612870 2.365615 3.647386 16.206828 0.150373 1.343799 0.023168 -0.003087 580590.000000 1 0 0
15.813870 -7.148985 5.018886 18.065871 -0.424574 1.289282 0.021394 -0.007999 -1213090.000000 1 0 0
13.647470 -12.163485 3.271186 18.571603 -0.727967 1.393733 0.022526 -0.007425 1566100.000000 1 0 0
13.994970 -1.003585 9.284786 16.824792 -0.071588 0.986214 0.022503 -0.008986 1886850.000000 1 0 0
14.110670 -2.796085 -1.554014 14.468727 -0.195620 1.678409 0.011776 -0.002812 1340980.000000 1 0 0
15.099070 1.801315 9.248686 17.797889 0.118739 1.024354 0.035836 -0.007656 287435.000000 1 0 0
14.359270 -10.235785 -2.981014 17.884249 -0.619288 1.738262 0.025043 -0.009843 320365.000000 1 0 0
7.335070 -12.582685 6.124186 15.799774 -1.043008 1.172756 0.005905 -0.004294 563299.000000 1 0 0
12.375170 -4.646285 7.020286 14.967205 -0.359167 1.082588 0.010063 -0.005227 1743190.000000 1 0 0
14.933870 -9.014885 -5.528914 18.299112 -0.543102 1.877734 0.041605 -0.014525 337023.000000 1 0 0
14.249670 -4.560385 4.634886 15.663090 -0.309734 1.270387 0.013763 -0.007063 797848.000000 1 0 0
17.105570 -4.307185 0.949786 17.665063 -0.246672 1.517004 0.023553 -0.007881 -1586770.000000 1 0 0
10.114270 -14.557385 1.140886 17.762813 -0.963578 1.506523 0.023972 -0.006251 -1113740.000000 1 0 0
16.420370 -2.609485 8.530786 18.687222 -0.157600 1.096735 0.043778 -0.015298 433799.000000 1 0 0
16.103570 -2.651085 3.252786 16.641329 -0.163164 1.374065 0.028839 -0.007381 2701680.000000 1 0 0
7.723470 -15.299585 2.741786 17.356459 -1.103304 1.412163 0.014041 -0.009003 4020920.000000 1 0 0
16.585570 -7.065085 7.871286 19.671139 -0.402699 1.159122 0.031866 -0.011033 -2042650.000000 1 0 0
10.242670 -8.628685 5.192086 14.363991 -0.700080 1.200957 0.004896 -0.003536 934775.000000 1 0 0
10.905270 -11.941085 2.167386 16.316004 -0.830705 1.437564 0.017400 -0.005404 92838.700000 1 0 0
12.205970 -7.393285 12.111286 18.717094 -0.544608 0.867060 0.006478 -0.007578 -1378730.000000 1 0 0
15.164370 -9.901585 4.274286 18.608305 -0.578447 1.339029 0.020167 -0.009112 -535942.000000 1 0 0
7.291970 -10.216985 7.783686 14.769745 -0.950928 1.015727 0.006779 -0.000339 814498.000000 1 0 0
15.205470 -3.364885 -4.302114 16.156638 -0.217785 1.840323 0.028874 -0.001557 1082550.000000 1 0 0
11.746070 -9.082385 9.873886 17.831251 -0.658202 0.983947 0.011695 -0.004687 -1781460.000000 1 0 0
16.897370 -6.743685 2.464486 18.359523 -0.379727 1.436155 0.025062 -0.007573 1354570.000000 1 0 0
17.629670 3.891115 2.052886 18.170316 0.217231 1.457574 0.021854 0.003094 -103337.000000 1 0 0
14.740670 -4.977785 8.758186 17.854174 -0.325667 1.058087 0.028944 -0.014822 1108820.000000 1 0 0
12.815970 -12.753185 6.083386 19.076173 -0.782943 1.246228 0.025772 -0.007224 -1034240.000000 1 0 0
18.164470 0.813015 -0.739414 18.197684 0.044729 1.611440 0.019413 0.000509 1544340.000000 1 0 0
11.692570 -2.092485 11.058286 16.228998 -0.177084 0.821135 0.006069 -0.000949 2650460.000000 1 0 0
5.715170 -12.475385 10.614786 17.348547 -1.141214 0.912393 0.005093 -0.001615 -2024780.000000 1 0 0
10.746570 -4.999685 11.215686 16.318003 -0.435451 0.813004 0.000800 0.001280 662988.000000 1 0 0
17.868670 1.229015 5.166986 18.641287 0.068672 1.289939 0.041582 -0.007134 -67992.800000 1 0 0
12.161670 -7.784485 7.220686 16.144433 -0.569372 1.107102 0.013818 -0.006733 -683312.000000 1 0 0
10.474870 -7.930185 14.421386 19.508642 -0.648009 0.738869 0.004947 -0.003116 -1286130.000000 1 0 0
14.227370 -0.338285 3.745786 14.716093 -0.023773 1.313428 0.012959 -0.003355 977298.000000 1 0 0
11.625370 -7.713285 2.645286 14.200054 -0.585798 1.383415 0.006651 -0.002301 1766420.000000 1 0 0
9.310870 6.097515 3.477486 11.660399 0.579799 1.267958 0.003904 0.000626 1483750.000000 1 0 0
-3.961030 14.751515 -9.965314 18.237446 -1.308467 2.148881 0.004713 -0.004897 -592990.000000 1 0 0
8.866170 -6.323385 9.276786 14.305696 -0.619533 0.865226 0.004182 -0.004526 -362066.000000 1 0 0
5.883870 -10.688885 -8.326114 14.771471 -1.067595 2.169609 -0.004258 0.000614 -94027.000000 1 0 0
5.366870 1.073415 0.619086 5.508065 0.197403 1.458162 0.001649 -0.000236 3661230.000000 1 0 0
-0.538130 10.013515 10.909686 14.818277 -1.517108 0.743311 0.001551 -0.002392 478013.000000 1 0 0
-6.305230 -5.111685 1.089186 8.189724 0.681235 1.437407 0.005806 -0.002319 3614450.000000 1 0 0
-1.004130 3.979515 -10.855914 11.605847 -1.323631 2.780137 0.011832 -0.004039 1226220.000000 1 0 0
10.963970 5.781015 1.137886 12.446829 0.485228 1.479249 0.004406 0.002183 1092040.000000 1 0 0
-10.214430 -1.837685 -13.641214 17.140431 0.178006 2.491207 0.016231 -0.002886 1474320.000000 1 0 0
7.379770 10.887715 -6.099514 14.498532 0.975121 2.005012 0.002038 0.000821 -238615.000000 1 0 0
-12.431230 -2.922085 -9.572414 15.959485 0.230869 2.214041 0.013111 -0.004257 365325.000000 1 0 0
-3.988230 -8.709985 2.569786 9.918347 1.141399 1.308712 0.004716 -0.003590 -1660090.000000 1 0 0
8.018670 -6.685785 -5.897814 11.990954 -0.695000 2.085016 -0.002183 -0.005512 1862070.000000 1 0 0
14.401870 3.069915 -4.236714 15.322793 0.210018 1.850944 0.017884 0.002782 1125090.000000 1 0 0
-2.486630 -4.902485 9.829586 11.262258 1.101391 0.509907 0.000172 -0.003460 2213600.000000 1 0 0
3.441070 -1.898185 -4.513114 5.984335 -0.504091 2.425162 -0.005773 -0.001355 -2285070.000000 1 0 0
-4.012330 8.336415 -3.418814 9.863209 -1.122219 1.924765 -0.000965 -0.000449 1138750.000000 1 0 0
5.799970 0.144415 11.743286 13.098293 0.024894 0.458876 -0.004283 0.000738 -279954.000000 1 0 0
7.116270 4.791615 12.395086 15.074450 0.592603 0.605429 0.000788 0.001009 599085.000000 1 0 0
1.194570 -14.460285 12.427386 19.104103 -1.488373 0.862542 -0.007322 -0.004675 -304288.000000 1 0 0
2.980970 8.720415 -9.117914 12.964111 1.241411 2.350853 0.001998 0.001466 1307980.000000 1 0 0
-4.490930 -8.870285 -4.612814 10.960313 1.102130 2.005195 0.011035 -0.003631 2497120.000000 1 0 0
5.692470 -6.625685 -4.088114 9.644511 -0.861013 2.008521 -0.002556 -0.005627 798749.000000 1 0 0
-2.998130 3.466515 8.580386 9.727720 -0.857725 0.490590 -0.001673 0.003528 1632030.000000 1 0 0
-3.789030 3.229415 -11.116814 12.180699 -0.705832 2.720537 0.005756 -0.005615 -289759.000000 1 0 0
3.080770 -6.114185 8.499686 10.914168 -1.104055 0.678085 -0.004925 -0.000641 -30703.200000 1 0 0
-5.126130 -8.628685 10.511886 14.533794 1.034741 0.762268 0.001267 -0.003732 642992.000000 1 0 0
-13.181630 -2.520285 6.532386 14.925792 0.188917 1.117804 0.011911 0.000699 -214080.000000 1 0 0
3.811870 -5.868085 -8.306014 10.860692 -0.994707 2.441492 -0.007579 -0.002301 1402420.000000 1 0 0
3.017870 -0.481585 12.375686 12.747434 -0.158243 0.242097 -0.003532 0.000971 406946.000000 1 0 0
1.474270 -1.392485 -7.559414 7.826699 -0.756877 2.879499 -0.002243 -0.002453 -1001880.000000 1 0 0
3.603670 -3.466085 3.372186 6.030905 -0.765940 0.977435 0.001989 -0.004160 1435160.000000 1 0 0
1.499270 0.490715 -11.815514 11.920360 0.316313 3.008864 0.005573 -0.003515 286696.000000 1 0 0
4.114670 3.507515 -10.616214 11.913738 0.705910 2.670538 -0.002316 0.001919 2106880.000000 1 0 0
2.884370 3.332815 3.445286 5.594394 0.857403 0.907337 -0.001246 0.000782 -386494.000000 1 0 0
-5.313830 0.856715 2.565686 5.962675 -0.159848 1.125981 0.001315 -0.001765 1087290.000000 1 0 0
-9.391830 -9.355385 5.664386 14.415789 0.783454 1.166981 0.004259 -0.003392 -2071040.000000 1 0 0
-3.061630 3.909315 -0.504714 4.991098 -0.906407 1.672092 -0.000185 -0.001955 -300284.000000 1 0 0
-15.826930 -6.492285 4.885186 17.790630 0.389273 1.292630 0.035699 -0.005122 792590.000000 1 0 0
1.000570 6.748815 -8.060714 10.560433 1.423610 2.439193 0.004017 -0.002778 -254232.000000 1 0 0
-1.647430 6.580315 -9.468914 11.647957 -1.325481 2.519953 0.006688 -0.003488 920161.000000 1 0 0
2.065670 -0.357985 5.239786 5.643625 -0.171598 0.380596 0.001591 -0.000917 2710940.000000 1 0 0
-3.388630 -0.461385 -6.386514 7.244532 0.135325 2.649960 0.006483 -0.004296 540565.000000 1 0 0
1.789670 -1.091185 -2.450614 3.224765 -0.547531 2.434010 0.003984 -0.000963 791233.000000 1 0 0
2.429170 -8.657685 -7.599614 11.773296 -1.297250 2.272469 -0.004833 0.000389 160735.000000 1 0 0
-2.430230 14.067715 -5.563014 15.321676 -1.399732 1.942369 -0.002684 0.003386 2244320.000000 1 0 0
6.769170 -5.195985 -8.173014 11.816009 -0.654667 2.334623 -0.006279 -0.002637 3771720.000000 1 0 0
-14.273530 -5.012185 -2.162414 15.281744 0.337701 1.712776 0.011654 -0.008406 -1239880.000000 1 0 0
-2.723630 6.901515 -6.760914 10.037880 -1.194917 2.309784 0.002453 -0.001850 -2588710.000000 1 0 0
-5.605630 -1.117085 -8.160914 9.963507 0.196702 2.530603 0.016997 -0.006282 -985423.000000 1 0 0
-5.790730 -10.637985 3.384386 12.575903 1.072305 1.298320 0.000634 -0.001089 -4378800.000000 1 0 0
8.117070 -7.468485 6.684086 12.897368 -0.743808 1.025991 -0.002054 -0.001136 -546329.000000 1 0 0
8.704470 -5.953885 13.247386 16.932507 -0.599909 0.672344 -0.002624 0.000100 7507.390000 1 0 0
-4.733430 9.586015 -0.733914 10.716141 -1.112133 1.639337 -0.000293 0.000827 551363.000000 1 0 0
2.765070 6.694415 12.058086 14.066210 1.179098 0.540915 0.002525 -0.001813 629280.000000 1 0 0
6.074570 -2.747285 10.937286 12.809067 -0.424732 0.547419 -0.003823 0.000294 723185.000000 1 0 0
-9.709830 -6.454685 -1.113914 11.712581 0.586680 1.666044 0.008442 -0.004883 -124708.000000 1 0 0
0.923570 -13.364685 6.262686 14.788138 -1.501801 1.133498 0.006499 -0.002850 1203720.000000 1 0 0
-0.457830 -3.228885 8.631686 9.227205 1.429943 0.361236 -0.000291 -0.004481 330324.000000 1 0 0
4.245770 0.733915 3.388586 5.481579 0.171167 0.904375 0.000147 0.000505 767517.000000 1 0 0
-10.209530 5.601115 8.268986 14.282266 -0.501780 0.953333 0.000988 0.000850 1665790.000000 1 0 0
9.395570 7.966115 -0.012414 12.318112 0.703250 1.571804 0.004076 0.002850 422484.000000 1 0 0
4.302470 2.857015 8.247086 9.730787 0.586182 0.559492 -0.003949 0.001957 3048810.000000 1 0 0
1.374870 2.658815 -9.716614 10.167209 1.093564 2.842762 0.006240 -0.002608 2469670.000000 1 0 0
-1.467830 -10.054485 3.053386 10.609918 1.425833 1.278882 0.004420 -0.004809 -2261440.000000 1 0 0
-9.957230 9.624115 9.050886 16.543536 -0.768388 0.991906 0.002433 -0.006534 3365460.000000 1 0 0
9.723770 -2.108785 -7.599214 12.519853 -0.213562 2.223043 0.009796 -0.002005 790933.000000 1 0 0
-5.213730 -1.947285 6.719486 8.725044 0.357448 0.691739 0.000802 -0.002754 613452.000000 1 0 0
3.076870 -7.840185 -4.886114 9.737029 -1.196817 2.096483 -0.004598 -0.002961 3367260.000000 1 0 0
-5.139630 4.845615 -13.172014 14.946495 -0.755962 2.649355 -0.001226 -0.002670 2670880.000000 1 0 0
-5.713230 9.671415 5.534986 12.522514 -1.037218 1.112966 0.005167 -0.003367 1808160.000000 1 0 0
-0.436230 -1.871285 -9.438614 9.632208 1.341769 2.940763 0.004384 -0.005814 -65124.200000 1 0 0
-16.796830 0.110415 6.384586 17.969659 -0.006573 1.207563 0.029483 -0.001893 -865465.000000 1 0 0
-5.978430 -2.956685 4.110886 7.834730 0.459285 1.018433 -0.002374 -0.002302 1629930.000000 1 0 0
0.989270 -5.654385 -5.120014 7.691896 -1.397593 2.299144 -0.000315 -0.003153 892734.000000 1 0 0
-7.039430 1.402415 -8.546014 11.160407 -0.196648 2.442993 0.007049 -0.004995 -166862.000000 1 0 0
8.020670 2.029015 4.750186 9.540038 0.247775 1.049596 0.001778 0.000668 520644.000000 1 0 0
0.515670 -8.004285 -0.445314 8.033230 -1.506461 1.626259 0.001755 -0.002548 951355.000000 1 0 0
5.442170 5.482715 -3.412514 8.445273 0.789109 1.986762 0.001275 0.000780 273811.000000 1 0 0
-0.779930 -0.324685 -1.168114 1.441596 0.394478 2.515446 0.001975 -0.002464 120164.000000 1 0 0
9.081170 6.353715 -6.329814 12.763381 0.610497 2.089708 0.004840 0.002663 572995.000000 1 0 0
-14.988730 -7.102485 2.422486 16.762332 0.442514 1.425769 0.009473 -0.005279 229408.000000 1 0 0
-6.427730 6.958115 8.897286 12.995876 -0.825000 0.816709 -0.002201 0.004239 908639.000000 1 0 0
-9.412930 -3.266385 -9.605014 13.839393 0.334009 2.337874 0.007476 -0.004607 1469530.000000 1 0 0
14.894570 3.455315 -1.235414 15.339937 0.227953 1.651419 0.005101 0.005649 64859.100000 1 0 0
12.065670 1.667015 -5.811314 13.495581 0.137293 2.015963 0.015525 0.001660 -457089.000000 1 0 0
1.618870 -9.398785 12.699886 15.882223 -1.400227 0.644119 -0.013536 -0.000529 -105742.000000 1 0 0
-3.628130 6.409715 7.853086 10.766557 -1.055725 0.753357 0.000756 0.001419 1485410.000000 1 0 0
-4.167730 13.078815 -12.436914 18.523018 -1.262307 2.306933 0.010891 -0.007345 1452940.000000 1 0 0
-10.312030 7.826115 6.462886 14.469103 -0.649192 1.107759 0.001302 0.000943 98951.400000 1 0 0
8.075870 -9.353185 -7.049114 14.226445 -0.858554 2.089199 0.000305 -0.002789 852147.000000 1 0 0
5.842370 -3.845285 -0.383414 7.004749 -0.582099 1.625560 0.001867 -0.003970 -1420580.000000 1 0 0
-1.589630 -4.392185 4.123786 6.230877 1.223540 0.847538 0.000471 -0.002960 479147.000000 1 0 0
9.823670 -2.010385 -2.643214 10.369798 -0.201860 1.828536 0.005324 -0.002541 -2094280.000000 1 0 0
13.637470 6.999515 1.322686 15.385815 0.474196 1.484722 0.005607 0.003295 605690.000000 1 0 0
5.417470 -3.700985 -3.308414 7.347916 -0.599333 2.037844 -0.000336 -0.005505 -1550620.000000 1 0 0
-12.314430 -5.935485 1.880386 13.798950 0.449140 1.434101 0.006640 -0.003328 2034160.000000 1 0 0
3.721070 -5.748385 -0.290814 6.853821 -0.996304 1.613240 0.003173 -0.004745 -251582.000000 1 0 0
-5.263530 3.819215 -8.759314 10.909479 -0.627701 2.502955 0.005400 -0.006223 1194230.000000 1 0 0
-1.701230 -9.200285 7.221386 11.818961 1.387951 0.913473 -0.000585 -0.002154 2393790.000000 1 0 0
-7.393030 -7.412385 2.513186 10.766450 0.786705 1.335195 0.007026 -0.003833 -3634720.000000 1 0 0
-5.736230 13.029915 -8.534014 16.598567 -1.156092 2.110803 0.004804 -0.008441 1457740.000000 1 0 0
9.225270 -13.949785 -4.089014 17.216914 -0.986504 1.810588 0.012477 -0.003197 359997.000000 1 0 0
-6.556930 -5.124985 -6.755414 10.718881 0.663429 2.252652 0.011661 -0.003382 1321070.000000 1 0 0
3.408770 0.386215 -6.184914 7.072625 0.112819 2.635172 -0.004555 -0.003231 1356520.000000 1 0 0
-3.623630 5.783515 4.944086 8.427558 -1.011087 0.943872 0.003631 0.000306 -381687.000000 1 0 0
-2.695530 -10.715485 -2.842014 11.408967 1.324355 1.822551 0.010105 -0.002939 1358220.000000 1 0 0
-12.561130 -0.412685 1.813186 12.698029 0.032842 1.427514 0.006364 -0.002354 -220462.000000 1 0 0
8.443770 -12.032685 -5.969514 15.865618 -0.958906 1.956547 0.006218 -0.005324 478578.000000 1 0 0
6.138170 3.951515 1.020686 7.371120 0.571977 1.431879 -0.000357 0.002076 -1160470.000000 1 0 0
3.396870 -4.725885 -10.856714 12.318317 -0.947577 2.649502 -0.004303 -0.000276 -990945.000000 1 0 0
-7.533330 4.303915 8.639186 12.243786 -0.519062 0.787530 -0.003460 0.006741 2440910.000000 1 0 0
8.285370 8.866115 4.079886 12.802376 0.819245 1.246458 0.002892 0.001993 2161250.000000 1 0 0
0.223370 10.504515 -6.340914 12.271997 1.549535 2.113786 -0.002288 0.001916 1832380.000000 1 0 0
5.517070 8.180515 3.292386 10.401860 0.977448 1.248739 0.001783 0.001804 4088680.000000 1 0 0
8.094970 6.715615 -3.747014 11.165489 0.692533 1.913027 0.001854 -0.000016 944486.000000 1 0 0
10.481370 2.508015 -8.297814 13.601580 0.234867 2.226936 0.007266 0.001685 540293.000000 1 0 0
3.318370 -12.528785 -0.226414 12.962765 -1.311882 1.588264 0.001365 -0.003979 -3005140.000000 1 0 0
0.694570 2.161115 5.236786 5.707607 1.259829 0.409023 0.001346 0.000922 742235.000000 1 0 0
-4.924730 13.442115 1.514486 14.395732 -1.219617 1.465397 0.002080 -0.001026 1847100.000000 1 0 0
8.213870 4.037315 -8.073214 12.204276 0.456844 2.293623 0.002530 0.003216 1114060.000000 1 0 0
-13.851830 -0.542485 -3.541514 14.307683 0.039143 1.820922 0.006122 -0.002460 71173.800000 1 0 0
-8.525030 0.091115 -0.541714 8.542710 -0.010688 1.634251 0.001346 -0.000741 195891.000000 1 0 0
1.769470 -3.750185 -1.154714 4.304448 -1.129933 1.842383 0.003117 -0.004534 -1942580.000000 1 0 0
8.077670 -5.629585 -0.296114 9.850313 -0.608664 1.600862 0.003214 -0.003937 2752650.000000 1 0 0
-2.312530 -1.264585 7.421286 7.875434 0.500414 0.341260 0.002440 -0.001194 1999310.000000 1 0 0
-5.892930 8.803215 -11.776214 15.839900 -0.980899 2.409014 -0.001320 -0.000182 39054.000000 1 0 0
-6.222430 9.174615 -8.935914 14.238776 -0.974836 2.249232 -0.003272 -0.000467 1300030.000000 1 0 0
-1.540230 13.930715 -8.407114 16.343705 -1.460680 2.111098 0.004688 -0.000026 -1003490.000000 1 0 0
-1.540030 7.263715 9.762886 12.265692 -1.361873 0.650220 -0.000486 -0.002039 1036500.000000 1 0 0
9.980370 2.306715 -4.052814 11.016080 0.227137 1.947546 0.004220 0.000012 -1275280.000000 1 0 0
-3.020630 -7.514985 -6.981214 10.692827 1.188612 2.282187 0.010024 -0.001219 927931.000000 1 0 0
-5.518430 -4.944885 -1.616314 7.584024 0.730638 1.785564 0.008151 -0.001219 892247.000000 1 0 0
5.690770 7.430715 -8.806614 12.851336 0.917232 2.325768 -0.002978 0.004489 128691.000000 1 0 0
-9.548930 5.254115 -7.480214 13.218978 -0.503020 2.172283 -0.004341 0.001266 366051.000000 1 0 0
-0.463130 6.173315 -5.311514 8.156990 -1.495915 2.279909 0.003827 -0.001165 -880646.000000 1 0 0
-8.237330 2.775615 -6.385414 10.785692 -0.325007 2.204367 0.003668 -0.001340 2914390.000000 1 0 0
3.626270 1.406315 -1.953314 4.352355 0.369957 2.036212 -0.001061 -0.002315 1397650.000000 1 0 0
-6.670330 12.494015 -3.465214 14.580858 -1.080412 1.810747 0.002442 0.001680 853673.000000 1 0 0
-6.535030 3.183115 -2.391814 7.652425 -0.453262 1.888679 -0.000268 0.000421 -2267790.000000 1 0 0
12.123970 4.028815 -0.937214 12.810167 0.320822 1.644023 0.005725 0.000215 462030.000000 1 0 0
2.242170 12.365615 -5.518014 13.725314 1.391422 1.984531 0.001884 0.001176 -521564.000000 1 0 0
-9.184330 -1.357385 -4.304114 10.233270 0.146731 2.004903 0.006369 -0.002148 -706162.000000 1 0 0
-1.129230 5.807515 3.505086 6.876629 -1.378750 1.035949 0.004629 -0.001602 1633100.000000 1 0 0
11.528570 2.607315 12.020386 16.858105 0.222419 0.776982 0.011534 0.002300 1721710.000000 1 0 0
-7.039430 -2.254285 -5.861414 9.433533 0.309918 2.241246 0.012576 -0.003187 644212.000000 1 0 0
7.481070 -7.349485 10.833886 15.078277 -0.776526 0.769139 0.004889 -0.003345 76227.400000 1 0 0
-5.463530 -1.991585 -10.983014 12.427516 0.349554 2.654646 0.012190 -0.004697 101184.000000 1 0 0
0.821370 -6.104385 4.455186 7.601766 -1.437046 0.944593 0.000187 -0.004096 331216.000000 1 0 0
-4.792830 -9.338785 7.361386 12.820847 1.096631 0.959202 -0.004008 -0.002413 3587330.000000 1 0 0
-8.806730 9.301515 1.612686 12.910362 -0.812715 1.445555 0.004886 -0.002885 91556.700000 1 0 0
-8.179230 7.221915 -9.144814 14.236695 -0.723319 2.268345 -0.003752 -0.001174 -782548.000000 1 0 0
-1.327030 -10.495685 -0.114414 10.579863 1.445028 1.581611 0.005397 -0.004354 -198333.000000 1 0 0
-3.936730 10.375815 7.741186 13.530756 -1.208161 0.961711 0.006201 -0.003156 609199.000000 1 0 0
-7.558330 12.038215 1.931786 14.344992 -1.010142 1.435720 0.004175 -0.006239 338329.000000 1 0 0
-8.222730 -8.275385 -2.896014 12.020074 0.788590 1.814122 0.010597 -0.004549 -761833.000000 1 0 0
5.442970 4.613615 -8.075114 10.775845 0.703116 2.417909 0.000080 0.003629 -307665.000000 1 0 0
-8.941730 -0.231485 -10.244914 13.600234 0.025882 2.423846 0.009194 -0.002441 -574891.000000 1 0 0
-15.253730 -2.240085 -1.519814 15.492066 0.145813 1.669057 0.008156 -0.005289 -223181.000000 1 0 0
-7.216330 -5.799985 8.733086 12.727217 0.677012 0.814580 0.002357 -0.002292 -2636.760000 1 0 0
8.122370 3.449315 -0.930414 8.873350 0.401590 1.675844 0.002643 0.002386 1760660.000000 1 0 0
11.917570 7.241515 -5.874114 15.131861 0.546014 1.969469 0.008077 0.000366 1491210.000000 1 0 0
3.688170 13.264915 -9.491114 16.722494 1.299607 2.174342 -0.002847 -0.003346 333510.000000 1 0 0
-9.733030 5.506915 -0.417014 11.190706 -0.514890 1.608069 -0.002636 0.003021 1577530.000000 1 0 0
11.215870 -1.304285 -5.206214 12.433887 -0.115769 2.002822 0.017580 -0.003161 -46507.200000 1 0 0
10.564270 1.725415 -1.270314 10.779358 0.161896 1.688918 0.006475 -0.000427 -444356.000000 1 0 0
14.628470 4.980015 4.762786 16.170245 0.328127 1.271822 0.013441 -0.002469 1904390.000000 1 0 0
0.899970 -0.887285 10.289586 10.366909 -0.778301 0.122212 -0.001123 -0.001346 1526350.000000 1 0 0
-7.911430 1.323915 -12.594814 14.932274 -0.165806 2.574493 0.000530 -0.001243 257991.000000 1 0 0
3.172170 -11.591785 -7.735914 14.292533 -1.303679 2.142726 -0.005880 0.002087 29277.500000 1 0 0
2.858070 5.031315 -6.784414 8.916892 1.054196 2.435418 0.001083 0.001015 -800642.000000 1 0 0
6.550270 8.054815 0.562386 10.397229 0.888051 1.516680 0.004129 -0.000803 698529.000000 1 0 0
-9.044130 -5.388885 6.667686 12.461718 0.537358 1.006225 0.000382 -0.001297 -798237.000000 1 0 0
-0.281930 -6.923885 -11.794714 13.679727 1.530100 2.610401 0.005909 0.002261 1519720.000000 1 0 0
6.383570 -13.462585 -4.553114 15.579538 -1.128024 1.867375 0.001901 -0.003468 2637750.000000 1 0 0
-3.246530 -0.345485 10.038986 10.556541 0.106018 0.314429 0.001316 0.002005 428408.000000 1 0 0
8.743570 8.502715 6.926586 14.025826 0.771433 1.054290 0.001547 0.001419 -1596850.000000 1 0 0
-7.947930 5.691815 -2.687314 10.138442 -0.621475 1.839064 0.001455 -0.000636 978660.000000 1 0 0
-5.366630 5.885915 -6.528014 10.298528 -0.831514 2.257354 0.000894 -0.001238 -2130350.000000 1 0 0
3.309070 -13.666485 2.605686 14.300781 -1.333238 1.387567 0.008497 -0.005080 -2101490.000000 1 0 0
-11.214430 -7.076885 6.460586 14.750760 0.562939 1.117442 0.012129 -0.003398 -1234150.000000 1 0 0
-12.889930 -3.621685 -6.809714 15.021288 0.273908 2.041303 0.009308 -0.006040 605956.000000 1 0 0
6.044170 0.366115 -7.275014 9.465297 0.060499 2.447444 -0.006172 0.000977 -237334.000000 1 0 0
-1.438430 2.233015 -2.423614 3.595739 -0.998534 2.310439 0.000810 -0.002484 1757260.000000 1 0 0
7.529170 0.975715 -4.976414 9.077726 0.128873 2.151007 -0.000490 0.002257 -598261.000000 1 0 0
3.729470 -4.479485 10.799386 12.271979 -0.876511 0.494926 -0.004203 -0.001919 17693.900000 1 0 0
6.048270 -2.581385 2.016486 6.878323 -0.403392 1.273260 0.004024 -0.003523 -911231.000000 1 0 0
-6.328330 7.812615 1.085386 10.112506 -0.889979 1.463258 0.000624 -0.000577 364154.000000 1 0 0
6.055570 -3.379585 7.932086 10.536105 -0.509037 0.718418 0.000467 -0.003056 584326.000000 1 0 0
6.711770 -2.319485 -7.811014 10.556505 -0.332736 2.403754 -0.005382 -0.002268 -214922.000000 1 0 0
12.033170 -8.165385 -5.666714 15.607124 -0.596200 1.942373 0.023552 -0.012503 1292510.000000 1 0 0
5.494570 -9.662385 10.016086 14.962418 -1.053743 0.837374 -0.004694 -0.000036 729252.000000 1 0 0
-6.619230 7.570615 -4.560714 11.042125 -0.852345 1.996573 0.000022 -0.001224 602183.000000 1 0 0
-1.313430 -7.572185 9.826886 12.475206 1.399051 0.663708 -0.002595 -0.005896 -1338400.000000 1 0 0
10.099570 -9.311685 0.839786 13.762777 -0.744831 1.509740 0.006292 -0.004338 931643.000000 1 0 0
11.095370 6.078915 9.832586 16.023115 0.501213 0.910121 0.005201 -0.000822 1491800.000000 1 0 0
-15.278930 -4.215385 -4.997814 16.619065 0.269198 1.876252 0.008569 -0.010410 2915860.000000 1 0 0
-4.681630 -4.650085 7.853186 10.257362 0.782018 0.698800 0.002356 -0.003783 283571.000000 1 0 0
2.889570 10.937715 -11.126514 15.867657 1.312513 2.347885 -0.000714 -0.000726 -1088650.000000 1 0 0
9.933770 -1.457185 1.585086 10.164432 -0.145651 1.414213 0.003513 0.000397 -896419.000000 1 0 0
-1.630530 -2.622885 0.665886 3.159360 1.014606 1.358438 0.000385 -0.003194 -39673.400000 1 0 0
1.554970 3.085215 0.932086 3.578445 1.103948 1.307285 0.000092 -0.001099 -1240080.000000 1 0 0
-8.934330 -2.464985 4.270486 10.204678 0.269203 1.139022 -0.000865 -0.001984 3115210.000000 1 0 0
9.868670 4.837715 -2.717614 11.321641 0.455785 1.813200 0.002437 0.001985 359142.000000 1 0 0
2.619170 8.543015 2.547786 9.291629 1.273308 1.293036 0.003912 -0.002183 1764080.000000 1 0 0
-8.148730 -0.116885 2.394386 8.494030 0.014343 1.285032 -0.001110 -0.003270 677364.000000 1 0 0
6.876370 2.146415 13.771586 15.541820 0.302560 0.481937 -0.006562 0.003434 -978339.000000 1 0 0
6.823170 4.410615 3.733586 8.941412 0.573853 1.140037 -0.000868 0.000726 705228.000000 1 0 0
-0.251430 3.425415 7.686086 8.418587 -1.497526 0.420242 -0.000568 0.001457 361247.000000 1 0 0
2.653270 -10.210885 9.202386 13.999497 -1.316571 0.853517 -0.002507 -0.002410 414185.000000 1 0 0
1.362370 -4.563285 6.835486 8.330876 -1.280670 0.608511 -0.001070 -0.003597 -391699.000000 1 0 0
-0.173430 10.832215 -1.965814 11.010513 -1.554787 1.750298 0.003442 -0.001685 2508500.000000 1 0 0
8.795170 5.553215 8.019786 13.134313 0.563184 0.913981 0.001707 0.001048 712717.000000 1 0 0
2.614970 11.383415 -2.934714 12.042955 1.344996 1.816962 0.004893 -0.006126 2206880.000000 1 0 0
1.541870 2.438015 -6.665014 7.262485 1.006873 2.733128 0.000784 -0.001812 -353411.000000 1 0 0
-13.641330 -2.249685 3.629786 14.294136 0.163446 1.314050 0.010891 -0.001970 2265070.000000 1 0 0
-0.945930 -10.593785 -5.237614 11.855617 1.481741 2.028382 0.004531 -0.001734 479288.000000 1 0 0
-5.685630 2.852215 0.440986 6.376205 -0.464969 1.501580 0.001028 -0.000930 -434460.000000 1 0 0
3.738470 7.261015 -5.007014 9.579597 1.095325 2.120782 0.002908 -0.000358 -1980460.000000 1 0 0
2.928270 9.738115 -6.441514 12.037390 1.278696 2.135453 0.003565 0.000744 60143.300000 1 0 0
-12.144530 1.662915 -2.569114 12.524186 -0.136081 1.777395 0.006868 0.000447 428861.000000 1 0 0
-2.531830 9.642415 -5.720614 11.493988 -1.314020 2.091747 -0.004443 0.000924 -10442.200000 1 0 0
-1.329230 3.366315 1.799886 4.042094 -1.194727 1.109303 -0.000261 -0.001863 -87139.400000 1 0 0
12.866370 3.699515 9.598186 16.472859 0.279981 0.948790 0.021168 -0.000408 880004.000000 1 0 0
-2.561830 -9.512385 11.648086 15.255371 1.307723 0.702019 -0.008651 -0.004768 734431.000000 1 0 0
-0.464030 -8.943785 -7.540814 11.707710 1.518960 2.270629 0.006389 -0.001263 2171790.000000 1 0 0
2.389470 7.652615 -0.448314 8.029513 1.268146 1.626659 0.002617 -0.000625 1708830.000000 1 0 0
-11.906430 -1.258585 -5.625714 13.228597 0.105315 2.010056 0.007216 -0.000436 1738910.000000 1 0 0
-6.195230 -7.277685 -11.036314 14.599513 0.865569 2.427881 0.008444 -0.001182 974576.000000 1 0 0
-4.687130 -2.203485 -1.428714 5.372686 0.439454 1.839956 0.004655 -0.001172 -1123210.000000 1 0 0
-10.411230 3.664815 4.525086 11.928998 -0.338461 1.181719 0.000486 -0.001242 3123380.000000 1 0 0
6.744470 9.368515 -3.610514 12.095155 0.946834 1.873926 0.004480 -0.000050 -252570.000000 1 0 0
1.291670 -2.638085 -11.555214 11.922704 -1.115484 2.892665 0.002413 -0.002008 -993168.000000 1 0 0
1.251170 8.874315 7.443186 11.649889 1.430732 0.877721 0.000387 0.001090 1249070.000000 1 0 0
10.367970 0.406515 10.427486 14.710286 0.039189 0.782920 0.003511 0.000358 776111.000000 1 0 0
-5.196130 -0.805385 -4.007814 6.611428 0.153773 2.222064 0.008191 -0.003306 -237693.000000 1 0 0
11.728270 5.586715 5.391586 14.065309 0.444546 1.177403 0.004443 0.001629 2356290.000000 1 0 0
9.959070 -3.519385 3.720386 11.198679 -0.339687 1.232144 0.004587 -0.003981 -2006950.000000 1 0 0
7.256070 -1.628585 -3.417414 8.184226 -0.220786 2.001556 -0.001159 -0.001762 -3307650.000000 1 0 0
2.326370 9.306015 10.356686 14.116475 1.325831 0.747104 0.002928 -0.003837 1927040.000000 1 0 0
2.389870 -10.844585 6.330586 12.782520 -1.353889 1.052670 -0.002969 -0.000713 1938690.000000 1 0 0
5.869570 -7.580185 -1.265714 9.670216 -0.911905 1.702061 0.001330 -0.005964 443374.000000 1 0 0
-0.204830 -5.580285 -2.347514 6.057421 1.534107 1.968762 0.001770 -0.000794 19220.600000 1 0 0
7.823470 -5.068985 2.677886 9.699091 -0.574912 1.291066 0.003326 -0.003920 1599240.000000 1 0 0
-2.725830 -12.380385 4.716686 13.525946 1.354081 1.214598 0.004343 -0.003351 -667918.000000 1 0 0
4.796670 -10.308985 -1.033614 11.417161 -1.135300 1.661452 0.003000 -0.007337 699240.000000 1 0 0
0.952470 0.213815 1.114586 1.481627 0.220824 0.719293 -0.002172 -0.001356 -1575800.000000 1 0 0
-1.600430 8.605515 2.502386 9.103747 -1.386920 1.292337 0.003854 -0.001966 391397.000000 1 0 0
-7.449230 0.643515 -3.042614 8.072338 -0.086173 1.957264 0.002834 -0.000253 -33042.200000 1 0 0
4.447470 -6.327885 12.808786 14.962858 -0.958169 0.543239 -0.001334 -0.004173 297838.000000 1 0 0
-5.118630 13.014915 8.451886 16.340832 -1.196088 1.027191 0.012100 -0.010081 2227130.000000 1 0 0
0.589470 6.203815 8.192186 10.293042 1.476063 0.650311 -0.000290 0.001807 1051490.000000 1 0 0
7.909370 -0.541285 -0.673114 7.956394 -0.068329 1.655498 0.002602 -0.001645 4958290.000000 1 0 0
2.347570 -9.251685 -2.339114 9.827319 -1.322296 1.811125 0.000336 -0.004037 556228.000000 1 0 0
-7.199330 12.251315 4.796886 14.997840 -1.039517 1.245237 0.008549 -0.007365 579267.000000 1 0 0
-14.925030 0.280515 0.275386 14.930206 -0.018793 1.552350 0.010331 -0.002480 839958.000000 1 0 0
6.916970 -0.471685 3.888586 7.949092 -0.068087 1.059640 0.002376 -0.001374 604344.000000 1 0 0
-4.172730 -5.057785 5.181686 8.357197 0.880989 0.902019 0.002027 -0.003941 744139.000000 1 0 0
2.971870 5.168415 6.926486 9.138968 1.048958 0.710698 -0.000868 0.001619 -531956.000000 1 0 0
2.028970 -7.127385 1.788586 7.623344 -1.293460 1.333969 0.001031 -0.004174 2827420.000000 1 0 0
-2.440030 6.438615 -1.758214 7.106394 -1.208551 1.820806 -0.000019 -0.000038 2579270.000000 1 0 0
2.712570 -3.756285 -6.496514 7.979499 -0.945364 2.522061 -0.005543 -0.003581 -1120100.000000 1 0 0
-5.068430 0.914915 -12.187114 13.230714 -0.178589 2.741752 0.007535 -0.003538 33224.900000 1 0 0
-7.489930 6.358115 -11.937014 15.460174 -0.703848 2.452957 -0.005238 -0.002963 2758500.000000 1 0 0
-1.057030 11.125415 -9.044014 14.376591 -1.476070 2.251164 0.001896 0.000628 1441020.000000 1 0 0
4.686370 5.957115 -0.618514 7.604725 0.904228 1.652219 0.000063 0.001175 507670.000000 1 0 0
-2.707530 13.367615 3.581386 14.101425 -1.370956 1.314010 0.005627 -0.002357 726570.000000 1 0 0
1.444970 -7.898185 10.206186 12.985973 -1.389848 0.666583 -0.006788 -0.001873 -1817580.000000 1 0 0
12.934970 -0.234485 -1.024514 12.977598 -0.018126 1.649823 0.012723 -0.002023 17217.200000 1 0 0
-0.963130 3.146915 -5.379314 6.306164 -1.273794 2.592550 0.002052 -0.004771 733903.000000 1 0 0
6.591270 1.082415 7.282986 9.882224 0.162767 0.742207 -0.000380 0.000833 1871910.000000 1 0 0
5.477170 -6.066885 6.789386 10.625547 -0.836438 0.877640 -0.003562 -0.000486 3074830.000000 1 0 0
12.198170 -4.951985 2.580086 13.415452 -0.385635 1.377269 0.007686 -0.003874 -1213290.000000 1 0 0
4.386870 -9.166285 13.849386 17.177628 -1.124425 0.633018 -0.002366 -0.000289 539016.000000 1 0 0
-2.701830 -4.266085 -1.446014 5.252649 1.006231 1.849690 0.005479 -0.002632 2826160.000000 1 0 0
-9.342630 -5.093485 -7.515814 13.027501 0.499141 2.185748 0.010061 -0.005130 1386470.000000 1 0 0
-10.528930 -3.189585 7.840786 13.509617 0.294148 0.951594 -0.000152 0.000376 -1052710.000000 1 0 0
12.024070 -0.605085 1.659586 12.153132 -0.050280 1.433812 0.006448 -0.001556 478953.000000 1 0 0
-7.586130 4.792515 4.359286 9.976019 -0.563436 1.118562 -0.000735 0.000762 1476890.000000 1 0 0
-1.119730 10.673315 6.919186 12.769048 -1.466269 0.998134 0.002470 -0.000643 2024110.000000 1 0 0
7.386670 -10.035185 1.882386 12.602032 -0.936266 1.420864 0.000480 -0.004172 2099420.000000 1 0 0
-4.359030 -1.788385 1.706786 5.011246 0.389329 1.223251 -0.001270 -0.001063 1092530.000000 1 0 0
6.677070 -14.989385 -0.917014 16.434897 -1.151730 1.626622 0.011507 -0.004989 -91880.700000 1 0 0
-10.463730 1.648515 2.429086 10.867737 -0.156261 1.345379 -0.001848 0.000743 1002600.000000 1 0 0
-3.064730 8.271215 -11.484914 14.481326 -1.215951 2.486652 0.006199 -0.001284 -85584.000000 1 0 0
-1.258030 -5.158685 -6.901814 8.708025 1.331599 2.485826 0.000626 -0.000541 859092.000000 1 0 0
12.963270 -0.566685 6.485986 14.506396 -0.043687 1.107262 0.012575 -0.005878 3353400.000000 1 0 0
5.933870 -13.253085 3.745286 14.996074 -1.149828 1.318373 0.004421 -0.004259 283055.000000 1 0 0
-5.551030 3.512915 -5.013814 8.263948 -0.564217 2.222711 0.003671 -0.002505 1553600.000000 1 0 0
-4.437530 8.125815 3.387086 9.858646 -1.070950 1.220086 0.003449 -0.002536 120565.000000 1 0 0
14.087470 6.133715 -4.037614 15.886522 0.410648 1.827769 0.021024 0.000397 -192565.000000 1 0 0
-6.687430 -8.496485 5.222186 12.007631 0.903982 1.120863 0.006125 -0.002152 -908027.000000 1 0 0
1.733570 11.416915 2.768986 11.875121 1.420105 1.335454 0.007881 -0.006291 755799.000000 1 0 0
-7.470530 7.303215 5.972886 12.034166 -0.774074 1.051433 0.001578 -0.000247 -575199.000000 1 0 0
-17.384430 -4.042285 5.068086 18.553813 0.228464 1.294124 0.038418 -0.009962 65172.400000 1 0 0
7.560270 -13.166485 -8.442214 17.371959 -1.049559 2.078267 0.006314 -0.002962 -592289.000000 1 0 0
-2.293530 12.892015 -2.731114 13.376222 -1.394735 1.776419 -0.004215 0.003138 409546.000000 1 0 0
-5.448830 13.903315 -5.734014 15.995963 -1.197285 1.937421 0.004341 0.000204 1268970.000000 1 0 0
-5.576830 2.482615 7.345086 9.550639 -0.418827 0.693415 -0.000910 0.002087 3843810.000000 1 0 0
-7.439730 5.112415 1.457386 9.143870 -0.602068 1.410730 -0.001098 0.001031 1167120.000000 1 0 0
10.657870 -5.672585 -5.004514 13.069566 -0.489109 1.963744 0.011322 -0.006783 1085920.000000 1 0 0
-9.454930 -0.851985 6.830186 11.695000 0.089867 0.947116 -0.001646 -0.000507 945797.000000 1 0 0
-11.345830 -4.514885 -2.551914 12.474947 0.378724 1.776814 0.006080 -0.006049 62600.000000 1 0 0
6.458070 -4.304585 13.547786 15.613412 -0.587917 0.520236 -0.003953 -0.001694 -1380630.000000 1 0 0
0.182370 10.267515 -11.740914 15.598211 1.553036 2.422964 0.004382 0.002088 122193.000000 1 0 0
-11.868230 -3.216785 1.445086 12.381069 0.264682 1.453812 0.007222 -0.002661 3645420.000000 1 0 0
5.295470 6.060115 5.475086 9.733631 0.852633 0.973400 -0.000496 0.001471 -4602890.000000 1 0 0
-7.116030 0.044515 8.048886 10.743577 -0.006256 0.723971 -0.002125 0.000185 -101781.000000 1 0 0
1.736970 2.063915 9.627086 9.997880 0.871205 0.273199 -0.002051 0.000697 2316470.000000 1 0 0
10.456170 -4.886485 -2.014114 11.716052 -0.437172 1.743565 0.006092 -0.003533 677073.000000 1 0 0
-9.695130 -2.290585 -1.684314 10.103427 0.232007 1.738285 0.005108 -0.001473 -824053.000000 1 0 0
-2.009030 -5.301785 -9.901914 11.410215 1.208581 2.621577 0.008944 -0.002331 1402750.000000 1 0 0
7.628270 -1.548685 6.507186 10.145561 -0.200297 0.874497 -0.000017 -0.002312 2177070.000000 1 0 0
1.470970 -11.865285 -2.510214 12.216788 -1.447453 1.777743 0.001375 -0.003137 -4282860.000000 1 0 0
-0.777930 -1.460985 4.847586 5.122377 1.081512 0.329034 0.002336 -0.001941 1906940.000000 1 0 0
7.631670 1.513615 9.855586 12.556512 0.195793 0.668264 -0.002713 0.003072 2124000.000000 1 0 0
-3.843730 10.625615 -8.072314 13.886692 -1.223700 2.191120 -0.001305 0.002815 1889090.000000 1 0 0
-9.637730 12.682915 6.286286 17.124824 -0.920990 1.194922 0.005439 -0.005391 771606.000000 1 0 0
-2.550930 -2.560485 -11.035914 11.612696 0.787267 2.825096 0.011054 -0.005120 -1964950.000000 1 0 0
1.153170 -11.938385 11.041286 16.302295 -1.474502 0.826731 -0.009381 0.001211 1835750.000000 1 0 0
1.343670 3.454115 -1.872814 4.152565 1.199804 2.038684 0.000512 -0.001220 2603890.000000 1 0 0
-1.848130 -9.484385 -11.993114 15.401426 1.378348 2.463390 0.007314 -0.000192 1831190.000000 1 0 0
1.270870 -2.573485 1.507386 3.241936 -1.112095 1.087201 0.004725 -0.003632 2247100.000000 1 0 0
-1.068930 -2.241885 -6.586014 7.038766 1.125881 2.780970 0.001579 -0.004977 579969.000000 1 0 0
1.871270 5.949815 4.076086 7.450935 1.266082 0.991952 -0.001571 0.000083 -1075040.000000 1 0 0
-10.957130 8.656115 3.657286 14.434777 -0.668613 1.314638 -0.004250 -0.003951 2631420.000000 1 0 0
-16.366830 -1.449685 3.948386 16.898653 0.088344 1.334965 0.027732 -0.004948 -287289.000000 1 0 0
-12.141830 0.189415 6.838186 13.936309 -0.015599 1.057933 0.000293 0.001178 -1076210.000000 1 0 0
-5.110130 3.037115 4.564686 7.494922 -0.536242 0.915950 -0.001073 0.001508 1187710.000000 1 0 0
5.182170 -5.979985 3.869286 8.808319 -0.856752 1.116003 -0.001705 -0.003521 2703200.000000 1 0 0
9.976370 3.438215 6.351086 12.316070 0.331888 1.029001 0.003541 0.004079 -168236.000000 1 0 0
-12.125130 5.895415 3.237286 13.865595 -0.452559 1.335145 0.000990 -0.000472 1948550.000000 1 0 0
-4.834730 12.345415 -1.229214 13.315212 -1.197534 1.663244 -0.006853 0.003930 634221.000000 1 0 0
-1.692830 -12.138485 10.323486 16.024446 1.432230 0.870776 -0.006557 -0.003712 1689700.000000 1 0 0
5.205770 6.478815 13.786286 16.097726 0.893921 0.542517 -0.002754 -0.003154 1061910.000000 1 0 0
12.806570 -3.705385 -5.791414 14.535425 -0.281644 1.980606 0.010914 -0.006493 1191400.000000 1 0 0
3.545470 -2.524685 6.402986 7.742262 -0.618792 0.597015 -0.002362 -0.000964 915208.000000 1 0 0
7.192770 -11.878985 -0.621314 13.900800 -1.026340 1.615507 0.006723 -0.004373 -377192.000000 1 0 0
-6.179930 -6.569385 -4.106714 9.910270 0.815936 1.998068 0.009459 -0.002781 -220065.000000 1 0 0
0.331470 -8.819185 5.064286 10.175209 -1.533229 1.049842 0.000902 -0.003819 1609290.000000 1 0 0
-10.215430 2.502215 -0.359314 10.523555 -0.240215 1.604947 -0.001001 0.003269 -446436.000000 1 0 0
-1.861630 8.966515 -0.324214 9.163470 -1.366084 1.606185 0.003181 -0.000624 688487.000000 1 0 0
-3.479930 2.414015 -6.710214 7.935008 -0.606483 2.578572 0.008036 -0.006721 231041.000000 1 0 0
-12.644430 2.979915 6.455886 14.506549 -0.231447 1.109586 0.003104 -0.001861 -254679.000000 1 0 0
11.469870 1.601515 7.894586 14.015965 0.138731 0.972474 0.010622 -0.003778 -2373460.000000 1 0 0
5.977070 2.616915 -3.129214 7.236407 0.412684 2.017978 -0.002547 0.000901 1351270.000000 1 0 0
10.476170 -2.355985 6.429786 12.515708 -0.221210 1.031261 0.009242 -0.004714 4322500.000000 1 0 0
-0.888430 11.091915 4.134086 11.870576 -1.490870 1.215078 0.009202 -0.002379 2400430.000000 1 0 0
-1.559630 -12.106085 7.413186 14.280934 1.442672 1.025002 0.000143 -0.000284 655253.000000 1 0 0
8.065070 8.635315 -7.833214 14.176504 0.819531 2.156216 0.005605 0.001288 1481420.000000 1 0 0
-4.728230 -6.001385 -8.727414 11.599161 0.903504 2.422521 0.013214 -0.002048 170966.000000 1 0 0
-8.530730 -5.442785 -11.688914 15.460529 0.567908 2.428051 0.008133 -0.002510 2029160.000000 1 0 0
6.056070 -0.693785 -9.942514 11.662371 -0.114063 2.591602 -0.006774 -0.000629 173413.000000 1 0 0
-11.197130 -5.331885 -5.374814 13.516410 0.444413 1.979752 0.004562 -0.007841 -1510280.000000 1 0 0
3.844370 8.871415 -2.775914 10.059169 1.161880 1.850383 0.006011 -0.003351 2243080.000000 1 0 0
11.638970 -10.433685 -3.915414 16.113903 -0.730847 1.816237 0.017515 -0.010919 366699.000000 1 0 0
3.909970 -11.234685 3.882686 12.513243 -1.235881 1.255302 0.002344 -0.002192 731002.000000 1 0 0
-1.005630 0.872115 3.168586 3.436832 -0.714414 0.397712 0.000692 -0.001090 46310.300000 1 0 0
-10.603230 -5.099985 4.462686 12.583875 0.448319 1.208272 0.005241 -0.002201 2867860.000000 1 0 0
4.605970 -8.595885 2.701986 10.119532 -1.078894 1.300510 -0.002112 -0.001796 5448290.000000 1 0 0
-3.640730 -5.772785 2.638386 7.317174 1.008129 1.201913 0.001711 -0.003430 1115750.000000 1 0 0
10.001570 5.075215 12.395986 16.716749 0.469583 0.735447 0.008697 0.003967 1567260.000000 1 0 0
1.621770 -12.300985 -5.196814 13.451811 -1.439712 1.967444 0.002213 -0.003381 2478960.000000 1 0 0
9.806170 -10.815285 -1.630514 14.689790 -0.834294 1.682022 0.010421 -0.007133 635147.000000 1 0 0
9.466970 -4.549985 -9.244314 13.992255 -0.448021 2.292512 0.002800 -0.003971 1562680.000000 1 0 0
-7.428630 -3.169485 -13.122014 15.408355 0.403274 2.589858 0.005664 -0.002584 4014980.000000 1 0 0
0.488370 6.229815 -2.471314 6.719858 1.492564 1.947398 0.000330 -0.001058 2521910.000000 1 0 0
-5.931730 -9.490085 0.924786 11.229531 1.012165 1.488350 0.007670 -0.003496 557091.000000 1 0 0
-8.930630 -3.987185 0.562586 9.796443 0.419908 1.513337 0.002285 -0.001256 4860310.000000 1 0 0
1.923870 3.842615 12.051786 12.795020 1.106615 0.342517 -0.001714 -0.000188 469403.000000 1 0 0
6.707570 4.303215 9.586686 12.466504 0.570409 0.693528 -0.002890 0.002451 1802880.000000 1 0 0
-8.209630 9.886515 -3.586714 13.341879 -0.877800 1.842976 0.000536 0.001215 1726800.000000 1 0 0
16.433370 1.999615 -6.067914 17.631610 0.121085 1.922129 0.019688 0.003521 -1711830.000000 1 0 0
-10.928330 2.641515 -5.120014 12.353969 -0.237164 1.998127 0.000167 0.002798 902260.000000 1 0 0
-13.743530 4.095215 1.502586 14.419195 -0.289597 1.466399 0.003571 0.004167 -660081.000000 1 0 0
-17.374630 10.516915 3.259786 20.569625 -0.544310 1.411650 0.025476 -0.007137 -832024.000000 1 0 0
-14.257330 2.868915 -1.147514 14.588315 -0.198572 1.649537 0.004927 0.003699 1484730.000000 1 0 0
-14.343930 5.068615 5.238686 16.089842 -0.339668 1.239161 0.004021 -0.000562 1528860.000000 1 0 0
-17.336630 7.554215 3.190186 19.178170 -0.410930 1.403675 0.018765 -0.000964 -363516.000000 1 0 0
-15.082030 12.677115 -3.481414 20.007427 -0.698979 1.745693 0.037579 -0.010497 -293533.000000 1 0 0
-8.527030 12.456915 -9.568614 17.872978 -0.970534 2.135739 0.008623 -0.012495 2026930.000000 1 0 0
-12.394030 8.733315 -9.993314 18.158995 -0.613833 2.153547 -0.006285 -0.002743 -1153100.000000 1 0 0
-13.749130 -3.771085 -12.125514 18.715975 0.267695 2.275581 0.007647 -0.000444 -73762.800000 1 0 0
-14.783030 5.707515 -7.743814 17.637470 -0.368454 2.025343 0.010389 0.000894 437389.000000 1 0 0
-10.923230 13.478215 -8.363614 19.259524 -0.889724 2.020011 0.012724 -0.012926 -65290.600000 1 0 0
-11.026930 13.611715 3.853386 17.936571 -0.889924 1.354274 0.008836 -0.005677 -1133330.000000 1 0 0
-15.257130 3.351015 3.143786 15.934011 -0.216203 1.372193 0.011727 0.001585 1679580.000000 1 0 0
-11.143930 9.361315 -12.653514 19.285560 -0.698682 2.286453 -0.002210 -0.006017 -1024370.000000 1 0 0
-13.040230 11.568815 -9.118914 19.673324 -0.725678 2.052756 0.006155 -0.015709 -248044.000000 1 0 0
-8.809630 14.578715 -3.475814 17.384758 -1.027236 1.772087 0.010704 -0.008282 -643728.000000 1 0 0
-16.594130 8.370115 -4.290914 19.074484 -0.467163 1.797694 0.019899 0.001792 -596415.000000 1 0 0
-16.816430 6.755215 0.421286 18.127403 -0.381974 1.547554 0.021847 0.005612 -367005.000000 1 0 0
-10.515830 2.710715 -12.647314 16.669889 -0.252283 2.432099 0.004475 -0.001481 -432785.000000 1 0 0
-16.903930 1.000515 2.350986 17.095936 -0.059119 1.432842 0.025565 -0.005171 1626410.000000 1 0 0
-12.747230 1.347515 -7.007614 14.608707 -0.105319 2.071095 0.008666 0.001707 1450530.000000 1 0 0
-12.216030 8.968915 -5.541514 16.136332 -0.633307 1.921351 0.006195 -0.002365 -213430.000000 1 0 0
-9.646830 13.997815 1.252686 17.046096 -0.967378 1.497242 0.018944 -0.008389 400964.000000 1 0 0
-12.206730 11.204715 2.649386 16.780022 -0.742624 1.412244 0.002534 -0.002736 -1647450.000000 1 0 0
-12.584730 6.825715 -3.649214 14.774389 -0.496975 1.820375 0.000924 0.004540 869495.000000 1 0 0
-15.822030 3.644115 -9.659414 18.892339 -0.226371 2.107478 0.018565 0.000976 -968759.000000 1 0 0
-15.140730 5.885015 -4.748714 16.924107 -0.370717 1.855204 0.012833 0.005519 1190590.000000 1 0 0
-17.987630 5.239915 7.547386 20.198381 -0.283462 1.187841 0.026481 0.000196 -1468590.000000 1 0 0
-15.906930 10.213715 -2.122614 19.022510 -0.570796 1.682613 0.029687 0.000858 -2041930.000000 1 0 0
-8.825930 9.911215 -8.274014 15.639326 -0.843255 2.128279 -0.001530 -0.006082 -473242.000000 1 0 0
-16.982030 4.214615 -1.123314 17.533230 -0.243266 1.634908 0.016870 0.004650 308349.000000 1 0 0
-10.229030 5.415615 -4.589614 12.450964 -0.486918 1.948315 -0.003857 0.004598 633745.000000 1 0 0
-18.272130 2.745615 6.206786 19.491879 -0.149147 1.246724 0.032117 -0.004541 -445217.000000 1 0 0
-10.353030 10.146715 -5.709114 15.579956 -0.775334 1.945976 -0.000731 -0.004848 -181093.000000 1 0 0
-15.347830 0.597015 -5.859814 16.439274 -0.038879 1.935264 0.010334 0.003015 850355.000000 1 0 0
-16.470530 -4.134285 -8.880614 19.163402 0.245930 2.052642 0.015067 -0.011192 -713649.000000 1 0 0
-9.974930 9.707115 -1.130214 13.964408 -0.771792 1.651820 0.000919 -0.000169 2681590.000000 1 0 0
-17.430030 -2.975385 -3.199314 17.969265 0.169075 1.749794 0.018497 -0.010500 -199007.000000 1 0 0
-11.886330 5.050515 -11.633214 17.381720 -0.401787 2.304034 -0.000545 -0.000007 -919202.000000 1 0 0
-16.234530 7.025015 5.964486 18.667777 -0.408392 1.245587 0.008802 -0.000747 51543.700000 1 0 0
-12.098830 5.925615 -8.889214 16.140407 -0.455428 2.154050 -0.002322 -0.002724 768186.000000 1 0 0
-14.499730 8.540615 -0.086114 16.828301 -0.532306 1.575914 0.015458 0.002855 1260960.000000 1 0 0
-14.876530 11.984015 3.718586 19.461646 -0.678125 1.378542 0.003424 -0.008020 1716580.000000 1 0 0
-17.285430 4.157215 -3.981914 18.218786 -0.236021 1.791136 0.018928 0.002711 -674838.000000 1 0 0
-13.975930 13.396715 -0.856614 19.378658 -0.764241 1.615015 0.026677 -0.007104 401697.000000 1 0 0
-10.035030 6.800615 -13.230814 17.944487 -0.595594 2.399890 -0.012864 -0.003446 1188000.000000 1 0 0
-15.889830 -1.148685 -8.257014 17.943925 0.072165 2.048968 0.015996 -0.008672 100131.000000 1 0 0
-11.510130 12.034215 -0.184214 16.653509 -0.807654 1.581858 0.016624 -0.005077 928872.000000 1 0 0
-11.952930 7.474515 -0.982114 14.131718 -0.558836 1.640350 -0.000723 0.007274 2509850.000000 1 0 0
-11.547530 0.132115 -11.661214 16.411789 -0.011441 2.361060 0.009733 -0.005679 216400.000000 1 0 0
-19.121130 -1.237785 -4.772914 19.746656 0.064644 1.814921 0.030528 -0.011621 -1686340.000000 1 0 0
-18.013830 1.523415 -5.126114 18.790846 -0.084368 1.847097 0.022837 0.000472 -601755.000000 1 0 0
-13.390130 -0.099485 -9.476714 16.404682 0.007430 2.186684 0.013969 -0.003768 -190656.000000 1 0 0
-6.240430 11.259215 -13.249614 18.473363 -1.064695 2.370612 0.002468 -0.001696 -461489.000000 1 0 0
16.348470 5.691015 6.948286 18.653118 0.334987 1.189095 0.034776 -0.004588 -272385.000000 1 0 0
14.809670 10.244715 -5.512214 18.832552 0.605173 1.867841 0.040512 -0.004528 1639760.000000 1 0 0
2.425770 16.896715 4.344686 17.614189 1.428206 1.321566 0.013684 -0.008121 2509480.000000 1 0 0
-3.889830 18.201915 -5.945414 19.539407 -1.360259 1.879977 -0.001365 -0.007792 1715830.000000 1 0 0
5.495670 14.649015 5.674286 16.643124 1.211889 1.222881 0.011058 -0.010878 -168776.000000 1 0 0
9.807070 5.998315 15.182186 19.043560 0.548928 0.648096 0.015528 0.001373 -1663960.000000 1 0 0
4.705870 12.727715 -1.225814 13.625071 1.216650 1.660886 0.006394 -0.008766 2438890.000000 1 0 0
3.530670 13.740715 12.959586 19.215196 1.319288 0.830584 0.013225 -0.007211 -298840.000000 1 0 0
-0.763130 12.437115 9.129686 15.447180 -1.509514 0.938466 0.003655 -0.003225 -219065.000000 1 0 0
-7.827630 13.922015 8.353486 18.024290 -1.058598 1.088904 0.020202 -0.019433 1693550.000000 1 0 0
11.420570 12.897915 -4.247314 17.743317 0.846073 1.812519 0.030673 -0.005124 1046740.000000 1 0 0
-5.784530 16.230515 0.868486 17.252382 -1.228433 1.520435 0.002937 0.000129 1264350.000000 1 0 0
3.302370 10.649815 6.684986 13.000510 1.270111 1.030711 0.002855 -0.001128 2673740.000000 1 0 0
-1.212830 15.579315 2.382586 15.807047 -1.493104 1.419490 0.010218 -0.005025 -649727.000000 1 0 0
9.967270 8.882215 9.486686 16.377956 0.727897 0.953006 0.007159 -0.000333 1821260.000000 1 0 0
7.302270 12.296815 6.151086 15.568259 1.034923 1.164615 0.007386 -0.006014 795814.000000 1 0 0
11.869270 13.946615 -1.538914 18.378137 0.865693 1.654631 0.021122 -0.006586 -186281.000000 1 0 0
9.763270 15.969915 -1.300014 18.762987 1.022070 1.640138 0.011856 -0.003638 1197730.000000 1 0 0
10.218570 13.827815 2.951886 17.445380 0.934381 1.400771 0.008287 -0.002040 3897100.000000 1 0 0
-6.061530 14.568415 6.266786 16.978029 -1.176511 1.192743 0.006231 -0.010636 131663.000000 1 0 0
-0.946630 18.166515 -6.387314 19.279942 -1.518735 1.908470 0.011399 -0.002418 848150.000000 1 0 0
-3.530430 15.691515 5.467786 16.987769 -1.349492 1.243097 0.006100 -0.007579 1098040.000000 1 0 0
7.098570 12.357615 10.591686 17.756243 1.049391 0.931657 0.008841 -0.007277 2753530.000000 1 0 0
1.450270 14.619515 6.173986 15.935860 1.471919 1.172957 0.005048 -0.007952 2327480.000000 1 0 0
17.469670 7.735515 -1.566114 19.169775 0.416848 1.652585 0.022379 0.011541 -498155.000000 1 0 0
2.022470 16.220715 -3.361314 16.688332 1.446752 1.773601 0.001785 -0.005114 576058.000000 1 0 0
6.833770 11.221815 0.508786 13.148704 1.023806 1.532092 0.007021 -0.004846 1553990.000000 1 0 0
12.696770 9.200115 3.134686 15.989883 0.627048 1.373477 0.009211 0.003963 -1431390.000000 1 0 0
6.029970 14.335715 -3.445414 15.929349 1.172637 1.788813 0.004350 -0.005245 1310180.000000 1 0 0
3.179670 16.397115 1.520886 16.771666 1.379257 1.479990 0.016594 -0.014093 -580105.000000 1 0 0
2.707570 18.923815 -2.813414 19.322449 1.428683 1.716919 0.011483 -0.006160 -948780.000000 1 0 0
3.987470 11.966815 10.658386 16.513806 1.249156 0.869220 0.009465 -0.013085 2803680.000000 1 0 0
8.080070 11.625415 3.277386 14.532002 0.963410 1.343310 0.004081 -0.000916 784783.000000 1 0 0
0.759670 12.520015 0.204186 12.544703 1.510194 1.554519 0.008492 -0.006684 -2320380.000000 1 0 0
11.942770 9.884115 -4.673014 16.191434 0.691359 1.863571 0.018444 -0.000024 283539.000000 1 0 0
-1.179330 16.540115 9.941186 19.333738 -1.499616 1.030735 0.001265 -0.008898 -460684.000000 1 0 0
8.057870 14.838115 -7.963614 18.668639 1.073303 2.011501 0.019867 0.001978 1768700.000000 1 0 0
14.539070 7.657415 -1.463014 16.497302 0.484762 1.659595 0.015481 0.004740 1110100.000000 1 0 0
12.573870 8.255515 5.927786 16.167696 0.580974 1.195397 0.010996 0.003227 -953352.000000 1 0 0
-3.029430 14.314515 10.154686 17.810122 -1.362240 0.964091 0.004576 -0.012721 2404280.000000 1 0 0
-4.644730 17.163515 -3.163514 18.060111 -1.306510 1.746870 0.002763 -0.005257 443801.000000 1 0 0
-7.156630 16.443615 -1.770714 18.020690 -1.160299 1.669215 0.011595 -0.006054 1547380.000000 1 0 0
8.350170 11.310315 -1.961814 14.194974 0.934839 1.709445 0.010152 -0.005219 -1560260.000000 1 0 0
8.547870 12.969515 -4.252014 16.104472 0.988069 1.837991 0.016572 -0.003762 1756980.000000 1 0 0
2.528470 14.828615 -7.356214 16.744995 1.401908 2.025625 -0.005535 -0.000024 -569974.000000 1 0 0
11.410870 11.373915 9.675086 18.793116 0.783776 1.029998 0.022704 -0.007517 275537.000000 1 0 0
8.653170 15.745115 1.353386 18.017149 1.068277 1.495609 0.005058 -0.004361 -310252.000000 1 0 0
6.128970 10.008815 7.653386 14.011245 1.021340 0.992937 0.005419 0.003458 2642000.000000 1 0 0
14.442270 11.312315 2.592486 18.527510 0.664461 1.430409 0.016202 0.002810 1223040.000000 1 0 0
12.199070 12.602615 1.109486 17.574817 0.801668 1.507625 0.016865 -0.003151 2600780.000000 1 0 0
5.149370 15.895115 8.219886 18.620882 1.257506 1.113600 0.014843 -0.009678 -640791.000000 1 0 0
11.619170 15.050415 5.099686 19.685703 0.913353 1.308752 0.017971 -0.004957 851030.000000 1 0 0
5.992570 16.613415 1.682286 17.741098 1.224615 1.475829 0.005989 -0.016736 -459990.000000 1 0 0
-0.693330 16.182715 -4.259614 16.748292 -1.527979 1.827952 0.001623 -0.003308 426964.000000 1 0 0
16.058470 6.347615 2.568886 17.457544 0.376432 1.423110 0.005688 0.004846 161247.000000 1 0 0
7.657870 16.758315 -3.197414 18.700469 1.142170 1.742621 0.012910 -0.007375 -320084.000000 1 0 0
14.898470 8.102315 7.381086 18.495739 0.498098 1.160294 0.033704 -0.002661 -250782.000000 1 0 0
2.118170 12.917915 8.576586 15.649825 1.408271 0.990788 0.006291 -0.009489 1533790.000000 1 0 0
15.944370 7.573415 -5.901414 18.611992 0.443440 1.893441 0.024001 0.001611 -2009520.000000 1 0 0
-3.029530 17.126615 0.672586 17.405499 -1.395717 1.532145 0.001337 -0.002653 746722.000000 1 0 0
-2.939930 18.526415 4.504786 19.291562 -1.413420 1.335110 0.007146 -0.010158 -248975.000000 1 0 0
-0.748030 19.028015 0.780986 19.058721 -1.531505 1.529807 0.009464 -0.009278 593098.000000 1 0 0
6.895170 16.882315 -6.066014 19.218545 1.183048 1.891920 0.016380 -0.000780 459403.000000 1 0 0
10.991870 10.049415 0.767686 14.913125 0.740637 1.519296 0.009145 0.001887 -1087860.000000 1 0 0
9.143070 8.718015 14.197286 19.004275 0.761605 0.727172 0.018036 -0.011076 -340708.000000 1 0 0
6.323570 12.391615 -8.395814 16.248980 1.098934 2.113786 0.013596 -0.001482 1487830.000000 1 0 0
6.403370 9.112415 13.270086 17.324389 0.958255 0.698236 0.009165 -0.009644 577387.000000 1 0 0
16.725570 9.387915 2.866386 19.393138 0.511471 1.422449 0.019436 0.003895 -1132210.000000 1 0 0
2.592670 14.703415 -0.824414 14.952994 1.396259 1.625958 0.009301 -0.008196 1855010.000000 1 0 0
9.105070 12.894315 8.279586 17.824624 0.955968 1.087723 0.013408 -0.011070 417697.000000 1 0 0
7.249270 9.481515 10.483086 15.885407 0.918036 0.850085 0.007709 -0.006000 1085750.000000 1 0 0
4.296070 15.820815 -5.308514 17.231794 1.305645 1.883955 0.009113 -0.006437 1119740.000000 1 0 0
0.196570 16.238315 -8.270714 18.224331 1.558692 2.041853 -0.001813 0.000521 620405.000000 1 0 0
-2.484630 15.800015 -2.032614 16.122822 -1.414819 1.697203 -0.004590 0.002361 -1614980.000000 1 0 0
13.326570 10.473615 7.606886 18.578450 0.666096 1.148949 0.030306 -0.001288 1256130.000000 1 0 0
-1.029530 15.986115 7.028186 17.493176 -1.506484 1.157350 0.008677 -0.005924 2969370.000000 1 0 0
13.431470 13.339315 6.617586 20.053283 0.781956 1.234493 0.029219 -0.006104 886152.000000 1 0 0
5.408570 17.350215 4.469386 18.715181 1.268614 1.329655 0.012841 -0.010981 736747.000000 1 0 0
10.733470 9.549615 -1.930814 14.495881 0.727098 1.704391 0.006244 0.002659 980321.000000 1 0 0
3.315370 12.867715 4.739186 14.107787 1.318631 1.228207 0.006568 -0.004262 1634190.000000 1 0 0
-0.202530 17.977015 3.494186 18.314569 -1.559531 1.378832 0.007818 -0.010508 1486190.000000 1 0 0
-7.623830 15.893915 -5.792114 18.554997 -1.123545 1.888261 0.019429 -0.016088 611308.000000 1 0 0
-12.371530 -9.219285 8.253786 17.497856 0.640423 1.079575 0.020495 -0.004890 -736771.000000 1 0 0
-13.180230 -11.750785 6.805186 18.923794 0.728125 1.202946 0.019312 -0.007107 -727149.000000 1 0 0
-6.413430 -12.252585 12.417986 18.586670 1.088577 0.839127 0.009257 -0.004050 -912299.000000 1 0 0
-1.801930 -10.745385 14.378086 18.039945 1.404649 0.648462 -0.009381 -0.001187 -11761.300000 1 0 0
-8.792630 2.891015 10.970386 14.353316 -0.317665 0.700825 -0.004364 0.005471 1768380.000000 1 0 0
0.457870 10.166215 15.038186 18.157881 1.525788 0.594925 0.000392 -0.006569 -606382.000000 1 0 0
1.089770 -6.820185 16.529186 17.914143 -1.412350 0.395798 -0.001255 -0.005095 2408660.000000 1 0 0
6.032270 2.405715 17.862086 19.006048 0.379478 0.348721 -0.005271 0.003190 1316340.000000 1 0 0
-5.052730 -2.926085 17.624786 18.566775 0.524917 0.319907 0.025479 -0.012484 -26314.000000 1 0 0
-4.329330 8.238115 13.046886 16.025944 -1.086938 0.619601 -0.004409 0.000153 1285700.000000 1 0 0
0.180070 -4.881485 18.488986 19.123387 -1.533925 0.258299 0.017279 -0.012244 893193.000000 1 0 0
-11.540730 1.998115 11.252886 16.242179 -0.171436 0.805406 0.010190 -0.004977 819208.000000 1 0 0
-3.303430 -6.069985 14.383686 15.957688 1.072399 0.447887 0.011978 -0.011559 1919150.000000 1 0 0
-7.407230 -2.258185 14.529986 16.464719 0.295912 0.489661 0.012687 -0.005313 1451200.000000 1 0 0
-6.171330 -1.074685 10.561086 12.279121 0.172413 0.535360 0.000850 0.000239 1113560.000000 1 0 0
-3.877730 2.432615 11.119586 12.024958 -0.560273 0.390526 -0.000877 0.008240 -861325.000000 1 0 0
-6.376730 6.301815 13.546786 16.244722 -0.779489 0.584625 -0.011825 0.003579 891868.000000 1 0 0
-8.994630 5.487615 12.500286 16.348531 -0.547812 0.700357 -0.002232 0.001084 26817.800000 1 0 0
-12.121830 -2.256385 15.794486 20.037361 0.184036 0.662833 0.016247 -0.005369 1223830.000000 1 0 0
-3.428030 -7.583485 16.981386 18.911058 1.146248 0.455683 0.015599 -0.008927 1024690.000000 1 0 0
-0.446330 -5.348185 14.392586 15.360626 1.487535 0.356915 0.005339 -0.004659 1360760.000000 1 0 0
-14.239230 -2.259785 13.717286 19.900408 0.157389 0.810278 0.027758 -0.002975 -171613.000000 1 0 0
-6.396530 1.539215 12.199386 13.860368 -0.236143 0.494590 0.000756 0.004885 2144540.000000 1 0 0
2.358670 -2.250185 14.523386 14.884737 -0.761864 0.220796 -0.001638 -0.002291 62995.600000 1 0 0
-12.517630 3.956615 9.210086 16.036569 -0.306146 0.959026 0.003799 0.002598 255843.000000 1 0 0
-9.061430 -3.020985 12.577386 15.793243 0.321801 0.649514 0.004380 0.000875 1339060.000000 1 0 0
-7.098230 -7.241285 15.343986 18.391819 0.795374 0.583965 0.021076 -0.007538 851772.000000 1 0 0
-3.254830 5.880215 19.486786 20.613241 -1.065253 0.332121 0.021709 0.003565 947019.000000 1 0 0
0.648670 5.555015 16.049486 16.996028 1.454551 0.335311 0.002199 0.004069 1207060.000000 1 0 0
3.476370 1.564415 16.733686 17.162424 0.422866 0.223991 -0.012352 0.007738 521275.000000 1 0 0
-11.834430 11.375515 7.683786 18.124477 -0.765628 1.132999 0.004064 -0.014346 -118359.000000 1 0 0
0.630570 -9.482485 15.381386 18.080436 -1.504396 0.553443 -0.014589 0.003053 374166.000000 1 0 0
-2.391630 -3.610485 18.859386 19.350244 0.985745 0.225721 0.024504 -0.015399 2121540.000000 1 0 0
-12.754930 2.297615 13.896186 19.001876 -0.178224 0.750561 0.015394 -0.011885 -176227.000000 1 0 0
-5.258730 -0.642885 15.712886 16.581988 0.121647 0.325198 0.010788 -0.002171 -117508.000000 1 0 0
-4.453130 -5.873685 11.699986 13.828240 0.922100 0.562183 0.004304 -0.002656 -600322.000000 1 0 0
2.494370 1.843515 13.935086 14.276101 0.636469 0.219011 -0.005149 0.002942 22493.400000 1 0 0
0.127770 3.360215 14.228886 14.620827 1.532790 0.232067 0.003210 0.001284 451122.000000 1 0 0
-12.897330 7.099315 12.342586 19.211477 -0.503187 0.873094 0.010335 0.004004 1119410.000000 1 0 0
0.994470 1.440315 18.238886 18.322676 0.966507 0.095671 0.008830 0.004343 1489830.000000 1 0 0
-2.019830 6.520015 12.449686 14.198063 -1.270383 0.501509 -0.005363 0.004657 246484.000000 1 0 0
-13.430830 -2.698685 10.883786 17.496483 0.198292 0.899431 0.017442 -0.002437 457683.000000 1 0 0
-2.528830 3.733415 13.404186 14.142333 -0.975434 0.324514 -0.000589 0.005141 197392.000000 1 0 0
3.481670 6.217415 16.290586 17.780930 1.060318 0.412346 -0.007353 0.001601 13614.100000 1 0 0
-3.761730 12.480515 12.270786 17.902125 -1.278048 0.815592 0.009358 -0.015036 -645758.000000 1 0 0
3.825370 -1.389985 16.986886 17.467679 -0.348526 0.235168 0.000540 -0.001080 -504336.000000 1 0 0
-15.801530 0.424515 9.145386 18.262165 -0.026859 1.046293 0.021245 -0.000807 808609.000000 1 0 0
-4.669930 4.582115 15.243486 16.588186 -0.775907 0.405421 0.000765 0.002151 -831813.000000 1 0 0
-7.983230 -8.202285 10.580286 15.586914 0.798931 0.824679 0.008922 -0.003779 3772710.000000 1 0 0
-2.512530 -0.455485 14.683886 14.904254 0.179338 0.172175 0.007163 0.000850 2274710.000000 1 0 0
-1.765930 0.872215 17.273586 17.385513 -0.458766 0.113533 0.009183 0.002396 1826590.000000 1 0 0
-0.594630 -2.546485 14.389586 14.625265 1.341397 0.179766 0.005200 -0.003478 975904.000000 1 0 0
5.159870 -8.202185 16.369286 19.022451 -1.009265 0.534498 0.006841 -0.003113 -380809.000000 1 0 0
-4.517830 10.080015 10.661786 15.352237 -1.149443 0.803103 0.002148 -0.005909 448731.000000 1 0 0
-6.099230 2.025915 15.203686 16.506272 -0.320693 0.399937 0.004020 0.002589 -654466.000000 1 0 0
-4.950030 6.798915 17.334386 19.266785 -0.941484 0.451707 0.011286 0.004140 -268819.000000 1 0 0
-4.144330 9.179215 15.781186 18.721093 -1.146703 0.568029 0.005883 -0.000432 463906.000000 1 0 0
-4.582930 -9.815185 18.425786 21.374066 1.133959 0.531470 0.031575 -0.017134 -1384350.000000 1 0 0
-6.821030 -4.122185 11.054386 13.627851 0.543601 0.624661 0.003737 -0.000700 1487390.000000 1 0 0
-2.221530 -0.832085 19.601986 19.745010 0.358380 0.120435 0.021783 -0.004018 -889260.000000 1 0 0
-5.671530 -4.558385 15.235486 16.883873 0.677012 0.445561 0.013909 -0.010381 2187250.000000 1 0 0
-12.831430 -0.021085 9.729886 16.103314 0.001643 0.922014 0.009962 0.001155 1143820.000000 1 0 0
-14.474430 8.766515 10.510686 19.920729 -0.544567 1.014993 0.007077 -0.001129 -2035080.000000 1 0 0
-8.391730 10.637915 12.803886 18.642046 -0.902891 0.813680 0.002757 -0.013437 323549.000000 1 0 0
-10.457230 7.183015 10.752586 16.630318 -0.601876 0.867723 0.006700 0.000288 -961063.000000 1 0 0
-9.862830 -6.491985 14.875386 18.992062 0.582137 0.670932 0.026431 -0.006045 653411.000000 1 0 0
-0.767530 -13.522985 14.416186 19.780967 1.514100 0.754242 -0.018627 -0.002261 1219020.000000 1 0 0
3.936870 -5.720785 16.881886 18.254435 -0.968054 0.390260 0.004379 -0.003382 2006340.000000 1 0 0
-7.324930 9.487815 10.398586 15.868328 -0.913341 0.856211 -0.001669 -0.008440 855855.000000 1 0 0
-10.338730 -6.768185 11.889586 17.148176 0.579633 0.804677 0.021601 -0.007437 1412740.000000 1 0 0
-10.877730 -3.979885 10.682686 15.757039 0.350746 0.825809 0.010485 0.000121 -1513520.000000 1 0 0
-10.099530 -10.215585 9.912486 17.453254 0.791111 0.966790 0.014601 -0.004338 573055.000000 1 0 0
-9.772530 -3.647985 15.238686 18.466935 0.357270 0.600262 0.018620 -0.009101 1807730.000000 1 0 0
5.676670 -3.308085 16.123586 17.410860 -0.527640 0.386948 -0.000787 0.000000 546568.000000 1 0 0
-11.145730 0.414015 15.321586 18.951246 -0.037129 0.629242 0.015950 -0.008267 -29190.700000 1 0 0
-3.079430 3.051215 18.825986 19.318659 -0.780796 0.226325 0.014209 0.001220 -717441.000000 1 0 0
0.490670 7.471715 13.818786 15.717065 1.505220 0.496570 0.003793 -0.003038 1345820.000000 1 0 0
-13.095030 -7.521885 12.238986 19.438399 0.521389 0.889720 0.024221 -0.003727 -255020.000000 1 0 0
-1.470830 -1.231185 12.079486 12.230828 0.696938 0.157476 0.002901 -0.002257 329095.000000 1 0 0
2.082170 -4.845785 13.028086 14.055180 -1.164963 0.384665 -0.002940 -0.005804 -41609.200000 1 0 0
-14.596430 -4.136585 8.647886 17.462905 0.276156 1.052714 0.021283 -0.007102 -1161310.000000 1 0 0
8.162770 1.060715 16.249486 18.215426 0.129221 0.468885 0.003036 0.003086 249946.000000 1 0 0
-1.324930 11.493515 13.291486 17.621576 -1.456027 0.716250 0.000562 -0.005280 1335160.000000 1 0 0
2.900670 -12.311485 -13.688714 18.637795 -1.339409 2.395667 -0.005065 0.008081 -518988.000000 1 0 0
0.756870 -10.716085 -13.962714 17.617170 -1.500284 2.485797 -0.001250 0.008830 -2700860.000000 1 0 0
3.267570 -14.367785 -12.268314 19.173465 -1.347176 2.265111 -0.002339 0.003029 -2086080.000000 1 0 0
-5.132230 -10.237885 -16.179214 19.822235 1.106111 2.525626 0.015719 -0.009849 -450285.000000 1 0 0
-1.108630 -12.301785 -14.985714 19.419953 1.480920 2.452252 0.005285 0.000355 -236710.000000 1 0 0
5.723970 -15.053085 -11.872214 20.007715 -1.207429 2.206050 0.001753 0.005018 720931.000000 1 0 0
1.918570 -12.000185 -16.039914 20.123722 -1.412260 2.493216 0.001124 0.011868 -714366.000000 1 0 0
1.378370 -14.483885 -13.893014 20.117123 -1.475916 2.333123 0.008454 0.011605 -413385.000000 1 0 0
-1.098530 -10.761185 -15.862914 19.200049 1.469066 2.543110 0.006725 0.000235 -294310.000000 1 0 0
-5.721630 -5.532385 -15.138614 17.103273 0.768584 2.657569 0.009803 -0.005786 -115880.000000 1 0 0
-6.442630 -7.664185 -16.437714 19.246964 0.871776 2.594503 0.012584 -0.008939 -226530.000000 1 0 0
5.040170 -12.628385 -11.276614 17.664694 -1.191054 2.263175 -0.003322 0.007682 165964.000000 1 0 0
-1.829630 -15.573385 -13.097414 20.430861 1.453848 2.266675 0.008667 -0.000007 43043.000000 1 0 0
15.435770 -7.428785 -8.666814 19.198007 -0.448552 2.039179 0.020670 -0.007540 281107.000000 1 0 0
19.202070 -3.737385 -4.107914 19.989059 -0.192231 1.777779 0.023899 -0.006294 633409.000000 1 0 0
14.827170 -11.624585 -8.621614 20.719753 -0.664912 1.999955 0.032516 -0.016498 -244796.000000 1 0 0
18.074170 -3.752385 -6.369814 19.527686 -0.204702 1.903071 0.067887 -0.002878 784907.000000 1 0 0
9.516770 -9.309885 -15.339514 20.311168 -0.774410 2.426795 0.030659 -0.006204 169931.000000 1 0 0
1.243670 1.828215 -15.349514 15.507955 0.973439 2.998525 0.013283 -0.005757 177261.000000 1 0 0
4.873970 -4.438185 -13.865914 15.353066 -0.738635 2.697816 -0.003659 0.002138 279589.000000 1 0 0
13.050370 -5.596785 -8.592114 16.597005 -0.405136 2.114946 0.025717 -0.007015 -1422500.000000 1 0 0
2.952470 0.926215 -12.216114 12.601920 0.303986 2.893510 0.004627 -0.004256 -2000450.000000 1 0 0
0.559070 6.352015 -13.011614 14.490091 1.483008 2.685922 0.013235 -0.002997 -145446.000000 1 0 0
3.083170 -1.158785 -16.758314 17.078928 -0.359509 2.947523 0.014759 -0.008250 -106903.000000 1 0 0
13.294970 4.119515 -11.297914 17.926781 0.300474 2.252640 0.007215 -0.005130 712580.000000 1 0 0
-3.937230 9.232115 -16.610814 19.407547 -1.167680 2.598074 0.010252 -0.007226 381265.000000 1 0 0
-0.221130 -5.054985 -17.663914 18.374319 1.527079 2.862613 0.011124 -0.009328 93546.800000 1 0 0
-0.335930 -8.827285 -17.539214 19.638172 1.532759 2.675027 0.013336 0.001135 -1682120.000000 1 0 0
5.614470 -10.159885 -12.057414 16.736987 -1.065950 2.375183 -0.002681 0.005594 338251.000000 1 0 0
2.109770 -9.708585 -17.892414 20.465733 -1.356814 2.634710 0.016271 -0.003942 -516892.000000 1 0 0
10.910470 8.785215 -14.750514 20.341977 0.677909 2.382015 0.033425 -0.013566 -1739410.000000 1 0 0
10.918470 -3.811085 -12.895714 17.321570 -0.335828 2.410565 0.008640 -0.003625 513904.000000 1 0 0
4.895470 7.507315 -12.299514 15.218523 0.992951 2.511875 0.000577 -0.000631 -552112.000000 1 0 0
9.545070 -5.992485 -12.677814 16.963054 -0.560617 2.414903 0.001648 0.001894 -1016730.000000 1 0 0
-3.268930 0.273715 -15.806214 16.143024 -0.083538 2.936961 0.014029 -0.005396 -1523450.000000 1 0 0
-0.786130 10.832615 -12.886414 16.852988 -1.498353 2.441274 0.006242 0.000522 -423233.000000 1 0 0
6.652470 -5.517885 -12.297214 15.030764 -0.692442 2.528959 -0.004227 0.002434 124466.000000 1 0 0
17.714970 -6.207285 -8.034014 20.418029 -0.337029 1.975206 0.033135 -0.010443 -382450.000000 1 0 0
13.042870 4.630215 -13.864914 19.590589 0.341122 2.357081 0.009759 -0.014695 608618.000000 1 0 0
14.239370 0.672215 -11.426114 18.269308 0.047173 2.246475 0.022467 -0.004208 463444.000000 1 0 0
15.187870 5.999915 -11.168014 19.783703 0.376229 2.170631 0.025584 -0.010286 632844.000000 1 0 0
8.313070 1.422215 -11.755314 14.467800 0.169441 2.519251 -0.001477 0.000984 467537.000000 1 0 0
9.839270 1.206715 -8.951914 13.356802 0.122033 2.305293 0.003806 0.000801 734171.000000 1 0 0
-0.133930 -5.686285 -12.819014 14.024225 1.547248 2.723986 0.001884 -0.002525 451099.000000 1 0 0
10.441570 -5.749985 -8.968514 14.917203 -0.503367 2.215823 0.009386 -0.008008 -412748.000000 1 0 0
10.340670 8.526415 -11.260314 17.504967 0.689533 2.269550 0.022025 -0.009031 746594.000000 1 0 0
8.362070 8.083315 -14.813414 18.833519 0.768449 2.475991 0.023409 -0.002142 1297120.000000 1 0 0
8.659570 10.515215 -10.808914 17.389379 0.881873 2.241556 0.021293 -0.005138 -752533.000000 1 0 0
7.162070 1.684715 -18.043614 19.486034 0.231027 2.754411 0.019869 0.003281 -1166930.000000 1 0 0
12.087670 2.516015 -12.724014 17.729710 0.205217 2.371242 0.006936 -0.007428 -1598110.000000 1 0 0
2.538570 -0.802085 -19.233014 19.416397 -0.306033 3.004045 0.021830 -0.016156 -430954.000000 1 0 0
10.265670 -2.082385 -15.584114 18.777244 -0.200134 2.549809 0.014280 -0.000778 559295.000000 1 0 0
8.322470 -0.921285 -13.047714 15.503390 -0.110250 2.571042 0.002791 -0.003042 714471.000000 1 0 0
0.580670 4.361315 -14.729014 15.372121 1.438434 2.851314 0.012065 -0.003202 261036.000000 1 0 0
4.054170 -7.715985 -15.671214 17.932084 -1.087016 2.634007 0.001068 0.006210 270736.000000 1 0 0
11.374670 -5.786385 -14.531514 19.339862 -0.470590 2.420942 0.019896 0.001065 -892968.000000 1 0 0
-5.909230 4.234015 -16.913014 18.409126 -0.621720 2.735648 0.006223 0.000896 -312749.000000 1 0 0
11.414970 7.745615 -9.002214 16.472278 0.596184 2.148984 0.017746 -0.006540 -2488370.000000 1 0 0
9.537670 6.057015 -13.576614 17.662928 0.565802 2.447525 0.014464 -0.000161 469890.000000 1 0 0
12.008270 0.502415 -10.122114 15.713311 0.041815 2.270740 0.011216 -0.001713 -947977.000000 1 0 0
5.488770 -7.380685 -13.599814 16.418162 -0.931361 2.546934 -0.004636 0.005249 -1223090.000000 1 0 0
8.570570 -10.224485 -10.643814 17.067089 -0.873169 2.244194 0.009492 0.000353 -145274.000000 1 0 0
10.270670 4.402715 -15.793514 19.346980 0.404974 2.525824 0.033718 -0.012294 -641415.000000 1 0 0
9.885570 -0.524285 -11.069414 14.850296 -0.052986 2.411931 0.001729 -0.001280 -913194.000000 1 0 0
-1.705530 5.314515 -13.944214 15.019787 -1.260260 2.760852 0.009670 -0.001708 611157.000000 1 0 0
1.400870 -0.748685 -14.794414 14.879437 -0.490821 3.034639 0.010684 -0.006869 -1026300.000000 1 0 0
11.467270 -10.662785 -14.031614 21.025685 -0.749062 2.301449 0.039528 -0.007600 56226.000000 1 0 0
9.367870 -7.794185 -10.779814 16.269932 -0.693958 2.295028 0.005109 -0.002934 -420290.000000 1 0 0
13.955170 -1.056985 -9.636314 16.991837 -0.075597 2.173794 0.012551 0.001168 954835.000000 1 0 0
4.015870 11.040415 -12.239514 16.965367 1.221931 2.376678 0.007168 -0.009523 -1118080.000000 1 0 0
-1.383030 2.845515 -16.979114 17.271364 -1.118380 2.957370 0.012414 -0.004508 -150562.000000 1 0 0
5.684870 -0.360885 -17.814514 18.703071 -0.063397 2.832110 -0.001995 0.002649 30055.000000 1 0 0
6.566870 -6.633485 -16.017914 18.539160 -0.790445 2.613966 0.010331 0.009092 745205.000000 1 0 0
-1.806530 -5.225485 -19.587814 20.353174 1.237944 2.866485 0.023914 -0.026362 -983214.000000 1 0 0
-0.096930 -4.420185 -15.109114 15.742704 1.548871 2.856919 0.004896 -0.006053 -277153.000000 1 0 0
0.467770 0.919915 -12.973014 13.013998 1.100378 3.062209 0.008407 -0.005227 988187.000000 1 0 0
15.511170 0.427715 -13.663314 20.675238 0.027568 2.292752 0.016103 -0.006034 570681.000000 1 0 0
-0.136630 6.966415 -16.398414 17.817339 -1.551186 2.739803 0.015943 -0.003091 -161931.000000 1 0 0
-5.039030 -0.473885 -18.236614 18.925920 0.093767 2.870873 0.013176 -0.010317 -101691.000000 1 0 0
10.422570 -8.461885 -13.081714 18.744724 -0.681943 2.343240 0.010064 -0.006261 436429.000000 1 0 0
4.398070 8.424715 -17.437214 19.858884 1.089670 2.642581 0.017567 -0.014438 -293406.000000 1 0 0
9.337970 0.849415 -16.818214 19.255428 0.090714 2.632993 0.017913 -0.003946 47158.900000 1 0 0
3.370770 4.750515 -18.642914 19.531710 0.953684 2.838757 0.018751 -0.005707 -517190.000000 1 0 0
1.515070 -8.269985 -15.800814 17.898430 -1.389605 2.652596 0.001814 -0.001104 -473952.000000 1 0 0
4.529270 7.759115 -14.937114 17.430878 1.042422 2.600088 0.006079 -0.004714 737091.000000 1 0 0
-5.668730 -0.466885 -15.193214 16.223015 0.082176 2.783372 0.005557 -0.005026 -360291.000000 1 0 0
2.824370 3.275615 -13.872214 14.530830 0.859239 2.839361 0.010215 -0.002399 760570.000000 1 0 0
-2.362830 -10.355785 -18.037814 20.932940 1.346471 2.609397 0.017567 -0.001783 -11005.400000 1 0 0
6.204770 -9.138985 -15.385314 18.940118 -0.974349 2.518904 -0.002256 0.007740 134500.000000 1 0 0
-1.779730 5.377515 -17.385814 18.285284 -1.251185 2.826634 0.011849 -0.001631 -222962.000000 1 0 0
10.042070 -12.227385 -11.469314 19.542192 -0.883216 2.198021 0.034335 -0.004433 51832.900000 1 0 0
10.858970 3.556315 -9.440314 14.821745 0.316492 2.261297 0.003766 0.000020 -380088.000000 1 0 0
4.850170 -0.464085 -10.976814 12.009578 -0.095394 2.723845 -0.003897 -0.004826 408046.000000 1 0 0
6.290670 9.528115 -11.361414 16.107117 0.987269 2.353736 0.008848 -0.006280 183124.000000 1 0 0
10.789370 -9.541885 -9.421714 17.211239 -0.724117 2.150070 0.015858 -0.007334 -1350880.000000 1 0 0
3.451770 -2.446585 -14.465014 15.071069 -0.616602 2.857038 0.001882 -0.004689 -294831.000000 1 0 0
9.172070 -4.436785 -14.738014 17.917058 -0.450545 2.536710 0.009027 -0.000034 211454.000000 1 0 0
-3.953330 -6.817585 -16.608814 18.383715 1.045308 2.698552 0.005300 -0.006124 -685457.000000 1 0 0
5.933770 -7.805185 -11.070214 14.787838 -0.920777 2.416748 -0.004883 0.003901 515904.000000 1 0 0
5.482670 6.158615 -16.792614 18.707755 0.843398 2.685155 0.015926 -0.020948 -542393.000000 1 0 0
9.359970 1.360015 -19.385314 21.569633 0.144291 2.687665 0.044258 -0.010404 341988.000000 1 0 0
13.159470 5.724015 -9.383114 17.145811 0.410288 2.149876 0.006591 -0.002609 1709330.000000 1 0 0
-1.659030 -0.870785 -17.265614 17.366982 0.483350 3.033495 0.016751 -0.011688 -40161.900000 1 0 0
-0.595730 -0.426785 -19.537214 19.550953 0.621652 3.104101 0.020600 -0.016845 -266186.000000 1 0 0
2.887070 6.437415 -16.665814 18.097647 1.149205 2.741136 0.014582 -0.000880 -544753.000000 1 0 0
7.699370 3.808615 -15.691214 17.888545 0.459371 2.640723 0.010040 0.000115 -162381.000000 1 0 0
3.063470 -9.995585 -14.820114 18.136492 -1.273403 2.527234 -0.003614 0.007708 471825.000000 1 0 0
9.017170 -10.648685 -13.256614 19.246861 -0.868170 2.330584 0.023309 0.000493 -724174.000000 1 0 0
3.866370 0.098915 -14.791114 15.288415 0.025578 2.885835 0.007519 -0.005782 -1354730.000000 1 0 0
-1.165230 -2.863185 -18.830414 19.082454 1.184296 2.978883 0.023237 -0.011799 575961.000000 1 0 0
9.227070 9.972015 -13.192514 18.937326 0.824180 2.341501 0.030439 -0.013913 412958.000000 1 0 0
4.606670 2.005015 -10.654814 11.779921 0.410513 2.700977 -0.003906 0.002190 1930.850000 1 0 0
-0.414430 7.000315 -18.944714 20.200949 -1.511664 2.787072 0.025406 -0.008565 -35328.200000 1 0 0
0.737270 -1.758885 -17.597814 17.700855 -1.173875 3.033639 0.017697 -0.013723 -2218070.000000 1 0 0
-4.471330 -2.320885 -14.039114 14.915630 0.478778 2.797065 0.011250 -0.007175 -3271140.000000 1 0 0
9.915970 6.035015 -10.403314 15.587713 0.546731 2.301515 0.009308 0.001003 295766.000000 1 0 0
8.621670 5.767615 -17.187114 20.074747 0.589594 2.598580 0.034884 -0.013142 -313947.000000 1 0 0
11.468670 0.139515 -13.459614 17.683638 0.012164 2.435856 0.008906 0.000644 449109.000000 1 0 0
6.779570 12.015015 -11.890814 18.213034 1.057072 2.282169 0.016630 -0.008255 39717.100000 1 0 0
-0.881830 0.367915 -15.097914 15.128119 -0.395261 3.078390 0.013319 -0.006366 -660349.000000 1 0 0
-4.388330 -2.895085 -18.997214 19.711242 0.583180 2.871610 0.010258 -0.012146 211373.000000 1 0 0
5.816270 -12.171785 -13.809114 19.304739 -1.125026 2.367882 0.000283 0.004996 -185123.000000 1 0 0
2.169170 -4.782485 -14.018114 14.969468 -1.144981 2.783158 0.001087 0.000683 218729.000000 1 0 0
11.997370 1.824715 -15.218914 19.464886 0.150936 2.468448 0.030174 -0.007878 563243.000000 1 0 0
9.737670 2.074515 -13.733714 16.962922 0.209902 2.514320 0.008762 -0.002558 -405430.000000 1 0 0
-2.307030 -4.283985 -16.321314 17.031153 1.076806 2.851863 0.005752 -0.013786 -744380.000000 1 0 0
-2.852830 10.009515 -14.379614 17.751122 -1.293146 2.515064 0.010732 -0.007784 456101.000000 1 0 0
3.483070 5.754415 -13.649814 15.217177 1.026499 2.683732 0.009030 -0.002328 276895.000000 1 0 0
-5.106130 -2.590985 -16.579914 17.540790 0.469571 2.809066 0.008423 -0.007618 477612.000000 1 0 0
-4.343930 6.121215 -13.631714 15.561575 -0.953622 2.638271 0.000425 0.000525 579130.000000 1 0 0
5.928370 -1.157185 -13.992914 15.240941 -0.192771 2.734090 0.004559 -0.004182 -2741870.000000 1 0 0
6.796070 -3.064185 -12.664814 14.696030 -0.423582 2.609574 -0.002395 -0.001409 1173460.000000 1 0 0
2.777070 -3.278085 -18.197714 18.697987 -0.867952 2.909749 0.019135 -0.012347 -21852.700000 1 0 0
7.436270 -12.116285 -11.943814 18.567637 -1.020334 2.269545 0.007099 0.005643 172889.000000 1 0 0
-5.925330 -5.544085 -17.704914 19.475892 0.752170 2.711838 0.023915 -0.007433 418554.000000 1 0 0
0.394570 8.667715 -11.977514 14.790058 1.525306 2.514668 0.007889 -0.000131 169226.000000 1 0 0
0.454170 8.631815 -14.531114 16.907625 1.518229 2.604972 0.012360 -0.002300 265677.000000 1 0 0
7.678670 -2.404785 -15.166514 17.168812 -0.303502 2.653813 0.004349 -0.002880 -464946.000000 1 0 0
14.275370 1.443515 -8.903614 16.886215 0.100777 2.126182 0.009746 0.002501 448990.000000 1 0 0
2.891670 10.641715 -14.671914 18.354098 1.305473 2.497060 0.007537 -0.007762 -1145590.000000 1 0 0
6.256370 0.934515 -15.568714 16.804771 0.148274 2.755655 0.011292 -0.003499 955107.000000 1 0 0
16.528670 -5.614585 -10.224214 20.230053 -0.327458 2.100639 0.057474 -0.016148 489559.000000 1 0 0
4.848470 -4.176085 -11.115614 12.825919 -0.711029 2.619249 -0.007309 0.000529 -1618520.000000 1 0 0
8.848870 -3.433885 -17.171614 19.620356 -0.370170 2.636633 0.007648 0.002117 411285.000000 1 0 0
13.246870 -9.685685 -8.811914 18.626376 -0.631339 2.063589 0.034790 -0.010860 273930.000000 1 0 0
2.387870 -7.741885 -13.527014 15.767650 -1.271619 2.601958 -0.002748 0.004190 258079.000000 1 0 0
-6.918130 -2.278485 -18.510414 19.891893 0.318161 2.766710 0.011079 -0.011295 -644845.000000 1 0 0
-1.362130 -6.531885 -15.791314 17.143118 1.365207 2.741811 0.006757 -0.002850 785940.000000 1 0 0
1.698870 -7.247685 -18.114614 19.584543 -1.340551 2.751686 0.019721 -0.012356 38287.400000 1 0 0
5.419570 11.015615 -14.601414 19.076603 1.113577 2.442474 0.014907 -0.015807 484909.000000 1 0 0
5.401270 -3.384885 -17.400514 18.531299 -0.559809 2.790448 0.010367 -0.001705 286756.000000 1 0 0
3.976970 12.934715 -14.032814 19.494692 1.272505 2.374350 0.008871 -0.015033 -281802.000000 1 0 0
9.091770 10.419115 -15.691714 20.915260 0.853325 2.419239 0.032886 -0.020526 310644.000000 1 0 0
2.534670 3.837715 -16.369814 17.003629 0.987101 2.867698 0.014928 -0.004362 220356.000000 1 0 0
16.711670 1.642815 -11.605314 20.412302 0.097989 2.175533 0.023787 0.000959 640401.000000 1 0 0
9.888870 -3.808085 -10.600314 14.988592 -0.367585 2.356362 0.005087 -0.001314 209191.000000 1 0 0
14.644370 -2.289585 -11.885014 18.998771 -0.155090 2.246655 0.030268 -0.005448 360864.000000 1 0 0
-2.613730 -8.769385 -16.056114 18.480597 1.281128 2.623589 0.010254 0.000071 -318070.000000 1 0 0
14.002570 8.080315 -9.082414 18.543293 0.523381 2.082651 0.032230 -0.005497 880053.000000 1 0 0
-8.274930 -0.040285 -16.662614 18.604268 0.004868 2.680651 -0.004526 -0.002641 -505811.000000 1 0 0
-3.549530 3.933015 -15.988814 16.843691 -0.836604 2.821628 0.007135 0.000920 -559.707000 1 0 0
15.186570 3.865215 -9.662114 18.410004 0.249224 2.123311 0.015919 0.000059 721799.000000 1 0 0
5.483870 1.109615 -13.008814 14.160978 0.199646 2.735416 0.000698 -0.003575 592624.000000 1 0 0
7.855270 -7.896885 -12.733114 16.917394 -0.788040 2.422895 0.003315 0.003261 -1145560.000000 1 0 0
3.216370 -6.096385 -11.719214 13.595989 -1.085324 2.609922 -0.003836 0.001869 -588721.000000 1 0 0
-3.281930 3.794315 -18.663014 19.325526 -0.857681 2.878992 0.015287 0.004639 384572.000000 1 0 0
0.921770 5.146215 -17.874414 18.623315 1.393560 2.857038 0.020917 -0.008898 -379840.000000 1 0 0
6.319370 7.097615 -10.208714 13.947344 0.843338 2.391971 -0.000297 0.002328 238207.000000 1 0 0
9.690470 3.752215 -11.730014 15.670914 0.369429 2.416626 0.009067 -0.001730 189064.000000 1 0 0
4.731870 1.994015 -17.454514 18.194140 0.398818 2.855480 0.019761 -0.004249 -597244.000000 1 0 0
2.565570 8.126815 -13.211014 15.721264 1.265006 2.568684 0.008337 -0.005427 737806.000000 1 0 0
14.297670 -3.646585 -9.722114 17.670326 -0.249724 2.153393 0.028471 -0.004184 213715.000000 1 0 0
-1.341230 9.213015 -16.338614 18.805022 -1.426232 2.623657 0.013858 -0.004538 -964858.000000 1 0 0
-5.253230 1.894715 -15.870814 16.824657 -0.346154 2.803252 0.008113 -0.001593 361522.000000 1 0 0
4.574270 4.170715 -11.957014 13.464360 0.739284 2.663881 0.001739 0.000121 500636.000000 1 0 0
9.177370 3.267615 -17.742214 20.240740 0.342056 2.639463 0.015215 0.001538 907444.000000 1 0 0
-4.552430 14.297415 -13.401414 20.118116 -1.262537 2.299813 0.028943 -0.012924 -368971.000000 1 0 0
15.369270 -5.036485 -7.868014 17.985724 -0.316671 2.023567 0.032348 -0.005275 -873184.000000 1 0 0
1.222970 9.093215 -16.965114 19.287232 1.437106 2.645824 0.011045 -0.005588 -525307.000000 1 0 0
0.597770 -3.147585 -12.937814 13.328602 -1.383118 2.898842 0.002968 -0.003547 496560.000000 1 0 0
7.488870 3.444915 -13.117214 15.492318 0.431143 2.580532 0.002105 0.000885 185111.000000 1 0 0
-2.853530 7.470015 -15.125214 17.108941 -1.205905 2.655261 0.006202 -0.001079 193237.000000 1 0 0
12.071770 -5.211185 -10.975214 17.127154 -0.407518 2.266346 0.021688 -0.007880 -524165.000000 1 0 0
0.720470 -4.422285 -19.952114 20.449022 -1.409297 2.920690 0.028258 -0.017600 -91912.400000 1 0 0
3.505070 -4.559385 -16.089114 17.086049 -0.915397 2.798302 0.007584 -0.001998 883595.000000 1 0 0
-5.636430 3.985115 -14.389714 15.959773 -0.615427 2.694306 0.000388 0.002357 378417.000000 1 0 0
12.211870 -7.570285 -9.828814 17.408175 -0.554932 2.170756 0.018566 -0.006220 14977.900000 1 0 0
-2.006430 -1.992285 -14.999014 15.263203 0.781861 2.955265 0.013392 -0.005207 470686.000000 1 0 0
7.007170 5.785715 -14.181814 16.843360 0.690208 2.571744 0.010664 -0.006520 457732.000000 1 0 0
4.212670 -5.425685 -18.460214 19.696805 -0.910593 2.785364 0.018218 -0.002857 326727.000000 1 0 0
7.577070 7.440415 -12.396914 16.323457 0.776299 2.433270 0.009285 -0.002442 424853.000000 1 0 0
12.206270 -2.594185 -10.948414 16.600921 -0.209413 2.290958 0.016908 -0.005412 -864023.000000 1 0 0
7.449370 -0.825085 -10.681514 13.048701 -0.110309 2.529745 -0.005958 -0.002880 -1618100.000000 1 0 0
5.318270 3.983315 -14.464514 15.917693 0.642853 2.710972 0.005602 -0.000828 -709884.000000 1 0 0
14.723270 2.826415 -12.944114 19.806902 0.189662 2.283016 0.014592 -0.012178 -401679.000000 1 0 0
-6.684030 6.634915 -15.894714 18.475397 -0.781711 2.606689 -0.000484 0.007926 413326.000000 1 0 0
-11.023430 3.702215 -16.726914 20.371844 -0.324014 2.534097 0.005344 -0.007236 441390.000000 1 0 0
-5.153230 6.381815 -18.081014 19.854632 -0.891507 2.715699 0.000784 0.013481 -398391.000000 1 0 0
-10.048230 1.505515 -15.653214 18.661634 -0.148723 2.565855 0.006489 -0.001793 114315.000000 1 0 0
-7.649530 5.645915 -18.098314 20.443596 -0.635824 2.657893 -0.007818 0.003014 -337414.000000 1 0 0
-8.599230 3.732815 -15.560714 18.166356 -0.409542 2.599378 -0.010119 0.005705 -814527.000000 1 0 0
8.913370 13.519415 -12.116914 20.224795 0.987910 2.213188 0.043810 -0.011295 -942524.000000 1 0 0
13.796070 8.943215 -11.560114 20.098479 0.575140 2.183613 0.026033 -0.008903 307829.000000 1 0 0
8.198970 15.997915 -9.098014 20.147711 1.097197 2.039316 0.032656 -0.002196 284460.000000 1 0 0
6.999570 13.606115 -13.937614 20.697281 1.095661 2.309599 0.025896 -0.012256 9022.180000 1 0 0
4.564070 15.812215 -12.732914 20.808267 1.289792 2.229277 0.025796 -0.015098 222949.000000 1 0 0
11.079970 11.042015 -11.728714 19.551331 0.783682 2.214164 0.045027 -0.008551 652006.000000 1 0 0
15.651670 9.863715 -9.997614 21.029026 0.562331 2.066237 0.050642 -0.000093 -1337700.000000 1 0 0
13.184570 10.551815 -9.523014 19.387147 0.674933 2.084266 0.054917 -0.010475 710682.000000 1 0 0
10.074870 11.940315 -8.439614 17.756723 0.869931 2.066091 0.018660 0.001799 217824.000000 1 0 0
5.109970 16.267615 -10.330614 19.936617 1.266437 2.115510 0.019774 -0.003563 92719.000000 1 0 0
6.651770 14.636915 -11.562114 19.803227 1.144247 2.194259 0.018085 -0.000706 -1904020.000000 1 0 0
10.674570 14.067615 -9.924614 20.256905 0.921684 2.082814 0.040222 0.006430 -137378.000000 1 0 0
8.126470 -18.754785 -1.385314 20.486594 -1.161916 1.638468 0.029834 0.003860 -171722.000000 1 0 0
7.188670 -17.388085 -3.406514 19.121370 -1.178770 1.749905 0.021411 -0.002140 -9809.230000 1 0 0
4.476870 -18.396085 5.755886 19.788596 -1.332077 1.275661 0.027869 0.006061 91843.200000 1 0 0
9.652170 -17.154385 -2.702214 19.868046 -1.058282 1.707227 0.027488 -0.002758 -1099240.000000 1 0 0
-9.733030 -12.438185 -9.971114 18.677886 0.906810 2.133939 0.020836 -0.002854 384939.000000 1 0 0
-5.108730 -7.166785 -12.222414 15.061518 0.951509 2.517510 0.005697 -0.001249 482008.000000 1 0 0
-10.918830 -9.408885 -5.618014 15.469649 0.711254 1.942457 0.004438 -0.006718 -1289370.000000 1 0 0
-4.509630 -11.531085 -14.022614 18.706586 1.197999 2.418267 0.017539 -0.005516 124326.000000 1 0 0
-2.888430 -15.370585 7.463586 17.329253 1.385043 1.125536 0.000373 -0.004255 21381.300000 1 0 0
-4.810630 -11.996485 -11.530514 17.320813 1.189425 2.299232 0.016128 -0.005700 218259.000000 1 0 0
-14.546530 -12.618585 -4.173414 19.703999 0.714546 1.784218 0.021059 -0.006597 431995.000000 1 0 0
-3.200830 -12.194485 -3.244314 13.018308 1.314105 1.822662 0.010648 -0.007063 806728.000000 1 0 0
-2.539530 -17.322785 -1.435414 17.566687 1.425233 1.652600 0.003946 -0.009123 353403.000000 1 0 0
-5.836830 -12.203085 3.704586 14.025257 1.124653 1.303487 -0.000552 -0.001278 -38077.700000 1 0 0
-8.986130 -10.995385 -11.929214 18.546028 0.885617 2.269495 0.016679 -0.001530 611259.000000 1 0 0
-10.142430 -11.969985 -7.462714 17.373587 0.867859 2.014784 0.016661 -0.008694 -44968.200000 1 0 0
-10.880030 -15.101385 6.308686 19.652644 0.946467 1.244001 0.013474 -0.008125 -1186040.000000 1 0 0
-9.544530 -15.691685 0.616486 18.376808 1.024330 1.537243 0.000000 -0.001156 -1847290.000000 1 0 0
-14.905930 -7.707985 -8.037214 18.606359 0.477241 2.017462 0.006439 -0.015319 251741.000000 1 0 0
-2.423530 -16.520285 5.231786 17.497568 1.425135 1.267151 0.010773 -0.001254 261757.000000 1 0 0
4.565470 -15.807885 6.009586 17.517073 -1.289637 1.220613 0.019583 -0.001579 -216045.000000 1 0 0
4.174770 -14.688785 -9.893314 18.195240 -1.293884 2.145672 -0.001501 0.003498 -279907.000000 1 0 0
-7.665730 -14.036985 -0.314614 15.996854 1.070945 1.590465 0.003112 -0.001584 713359.000000 1 0 0
3.011470 -14.858485 9.712086 18.004670 -1.370828 1.001048 0.013238 -0.005252 -78314.500000 1 0 0
2.407870 -17.371085 10.355986 20.366612 -1.433060 1.037379 0.026002 -0.002944 -201612.000000 1 0 0
-8.292630 -16.860285 -5.893614 19.691917 1.113695 1.874746 0.024999 -0.013914 -429126.000000 1 0 0
-6.685130 -9.239085 -7.757014 13.792132 0.944426 2.168110 0.014326 -0.009254 436107.000000 1 0 0
-6.153530 -12.984685 -4.770814 15.140298 1.128240 1.891366 0.009465 -0.012554 342928.000000 1 0 0
2.276070 -19.450585 -4.712814 20.142402 -1.454308 1.806960 0.013147 -0.011893 292899.000000 1 0 0
-5.478630 -12.801085 8.404886 16.264233 1.166403 1.027721 -0.000426 -0.003039 985035.000000 1 0 0
2.155370 -17.487185 3.541786 17.971964 -1.448161 1.372425 0.013979 -0.006961 411613.000000 1 0 0
-17.746730 -9.816285 -2.577014 20.443749 0.505245 1.697186 0.021178 -0.007333 305399.000000 1 0 0
-3.533830 -15.387885 2.624886 16.005155 1.345060 1.406050 0.002354 -0.001885 189007.000000 1 0 0
-10.154830 -10.410185 -14.156614 20.295374 0.797814 2.342740 0.022637 -0.010901 -121052.000000 1 0 0
6.117870 -14.676985 -5.552114 16.842452 -1.175862 1.906729 -0.001362 -0.002148 352116.000000 1 0 0
-7.273930 -12.485685 -10.794314 18.036618 1.043283 2.212382 0.013087 -0.006858 -1253750.000000 1 0 0
-7.340630 -14.251385 3.812286 16.477874 1.095156 1.337323 -0.004777 0.001760 799505.000000 1 0 0
3.168270 -15.003185 -3.073814 15.639112 -1.362681 1.768631 0.007396 -0.006783 -1727070.000000 1 0 0
-7.566330 -11.369785 7.866586 15.760855 0.983618 1.048211 -0.000094 -0.006835 -2017960.000000 1 0 0
-12.818730 -12.252485 -1.023414 17.762055 0.762817 1.628446 0.003220 0.002892 -749166.000000 1 0 0
-1.910130 -13.534085 4.046486 14.254617 1.430588 1.282967 0.004711 -0.001148 -2069980.000000 1 0 0
-3.168830 -13.858885 5.348686 15.189424 1.346011 1.210948 0.000894 -0.000852 278480.000000 1 0 0
-14.437730 -10.082185 -4.431414 18.158632 0.609599 1.817325 0.004651 -0.007733 451962.000000 1 0 0
-6.346730 -8.782585 -10.523414 15.104867 0.945031 2.341570 0.013067 -0.003985 471788.000000 1 0 0
0.802070 -19.460485 2.450486 19.630554 -1.529604 1.445640 0.022862 -0.010244 295947.000000 1 0 0
6.378770 -14.176485 -8.154714 17.554509 -1.147980 2.053908 0.002268 0.000004 -2194800.000000 1 0 0
-3.927630 -16.681885 -5.858714 18.111766 1.339565 1.900197 0.001635 -0.012460 -82752.100000 1 0 0
-3.637730 -13.735285 -13.065414 19.302750 1.311895 2.314296 0.018678 -0.004969 -502230.000000 1 0 0
-8.284330 -14.551485 -4.549214 17.351403 1.053247 1.836078 0.012231 -0.011522 -2165910.000000 1 0 0
-4.440330 -14.361285 10.040986 18.077180 1.270932 0.981891 0.000185 -0.004935 -1191890.000000 1 0 0
-0.293030 -12.174985 -9.991214 15.752475 1.546733 2.257851 0.007985 0.001457 42058.300000 1 0 0
2.442270 -17.169885 6.860286 18.650286 -1.429503 1.194113 0.012082 -0.006281 -891308.000000 1 0 0
-2.968230 -19.011085 -3.351114 19.531044 1.415915 1.743228 0.007272 -0.016651 -678046.000000 1 0 0
0.572670 -15.343685 -3.048614 15.654094 -1.533491 1.766798 0.006592 -0.007569 -1056370.000000 1 0 0
5.919970 -17.957785 0.568086 18.916945 -1.252355 1.540761 0.021705 -0.008568 -5117.660000 1 0 0
-7.096630 -16.665685 3.793186 18.506633 1.168229 1.364370 -0.011094 0.000868 734698.000000 1 0 0
-5.314730 -13.590985 -9.523714 17.425910 1.198031 2.149007 0.016825 -0.007498 -428832.000000 1 0 0
5.598170 -15.251285 -2.128414 16.385095 -1.219003 1.701064 0.010817 -0.004853 184162.000000 1 0 0
-8.803230 -10.224285 -0.444214 13.499266 0.859944 1.603709 0.006107 -0.002318 -1418870.000000 1 0 0
-7.901430 -18.229785 -3.146614 20.116133 1.161803 1.727864 0.021054 -0.016141 -53329.200000 1 0 0
7.874870 -16.057885 -1.125214 17.920249 -1.114854 1.633628 0.013998 -0.002353 376108.000000 1 0 0
-8.268130 -10.270085 -9.567314 16.290184 0.892972 2.198522 0.013763 -0.005489 174492.000000 1 0 0
-9.258530 -14.763885 -6.946914 18.760391 1.010684 1.950125 0.029200 -0.013535 -293146.000000 1 0 0
-11.609830 -10.585285 -12.046914 19.798094 0.739270 2.224951 0.027285 0.001076 -729595.000000 1 0 0
6.453970 -16.315185 2.502786 17.722949 -1.194106 1.429105 0.016298 -0.008972 1352290.000000 1 0 0
-2.225630 -11.180185 -6.039414 12.900561 1.374296 2.057994 0.009235 -0.003646 353772.000000 1 0 0
-12.259530 -15.338085 -3.246414 19.902063 0.896490 1.734648 0.004275 -0.003950 -240780.000000 1 0 0
-0.522830 -19.608285 -2.798114 19.813824 1.544139 1.712490 0.020510 -0.018160 -535117.000000 1 0 0
-5.930230 -15.494885 -4.710814 17.246763 1.205273 1.847454 0.003654 -0.011533 -1030660.000000 1 0 0
1.866670 -15.852885 -0.938414 15.989966 -1.453586 1.629518 0.011942 -0.010553 -566535.000000 1 0 0
-13.224330 -11.934985 5.248486 18.570767 0.734196 1.284271 0.015605 -0.008733 443673.000000 1 0 0
2.069970 -15.406185 -8.770514 17.848171 -1.437237 2.084488 0.001307 0.004846 -2466330.000000 1 0 0
-11.991730 -16.607185 0.208686 20.485207 0.945404 1.560609 0.015538 -0.010153 161145.000000 1 0 0
-7.888930 -16.521485 -1.213814 18.348515 1.125314 1.636998 0.001051 -0.005452 326649.000000 1 0 0
-3.087830 -14.350985 -1.668814 14.773977 1.358862 1.683994 0.008027 -0.007605 174688.000000 1 0 0
-1.787630 -10.583985 -13.124814 16.955149 1.403476 2.456073 0.006955 -0.001562 -44524.300000 1 0 0
1.375670 -19.422185 4.977586 20.097017 -1.500085 1.320514 0.023642 -0.012724 157906.000000 1 0 0
-17.620730 -9.272685 2.467686 20.063955 0.484416 1.447493 0.037960 -0.005291 232202.000000 1 0 0
-2.656130 -15.546985 -7.988014 17.679709 1.401585 2.039599 0.006024 -0.009809 -1001480.000000 1 0 0
-10.456430 -12.178685 0.243786 16.053558 0.861340 1.555610 0.000367 0.001557 168345.000000 1 0 0
-6.891330 -11.516285 -6.632814 14.970286 1.031555 2.029811 0.012839 -0.008387 -180747.000000 1 0 0
-2.159930 -13.606085 -6.582614 15.268321 1.413363 2.016540 0.002068 -0.004949 744002.000000 1 0 0
-14.402930 -14.423885 -0.978414 20.407110 0.786125 1.618759 0.024276 0.000914 264072.000000 1 0 0
-9.643530 -11.302985 -4.485114 15.520031 0.864456 1.863967 0.010457 -0.006705 971293.000000 1 0 0
9.491270 -15.141385 -5.110514 18.586637 -1.010873 1.849341 0.013397 -0.002207 -47159.900000 1 0 0
-5.697230 -10.981185 -9.336314 15.498761 1.092208 2.217289 0.016352 -0.006776 -34720.200000 1 0 0
-10.493030 -15.889885 -4.946714 19.673894 0.987173 1.824959 0.024160 -0.005520 -1775970.000000 1 0 0
2.159070 -17.349685 -3.111014 17.758140 -1.446988 1.746893 0.015282 -0.009286 711440.000000 1 0 0
-0.213630 -14.525485 -8.081814 16.623810 1.556090 2.078485 0.008082 -0.002311 -676404.000000 1 0 0
-0.485230 -18.279385 -7.045014 19.596009 1.544257 1.938542 0.011322 -0.006950 2401.130000 1 0 0
-1.809830 -10.068685 -10.527414 14.679248 1.392947 2.370519 0.007792 0.000975 396359.000000 1 0 0
-5.114630 -17.312485 2.075786 18.171143 1.283537 1.456311 -0.005715 -0.002176 109044.000000 1 0 0
0.201770 -12.761985 -2.614514 13.028609 -1.554987 1.772843 0.005827 -0.005239 -2354000.000000 1 0 0
2.558270 -15.009885 3.094886 15.537687 -1.401980 1.370269 0.011730 -0.002015 -718759.000000 1 0 0
-9.370230 -13.081085 6.932986 17.520910 0.949202 1.163969 -0.004789 -0.005827 -535132.000000 1 0 0
-0.964730 -17.746185 -4.517314 18.337500 1.516487 1.819701 0.012924 -0.015274 12761.700000 1 0 0
-10.099730 -17.774885 -2.078814 20.549271 1.054086 1.672132 0.018216 -0.002174 1613580.000000 1 0 0
1.146070 -16.145285 1.497886 16.255072 -1.499930 1.478517 0.013664 -0.013316 864531.000000 1 0 0
-0.469030 -17.862185 4.020286 18.315030 1.544544 1.349487 0.020374 -0.013417 -431800.000000 1 0 0
-17.468330 -9.134685 -0.109014 19.712861 0.481822 1.576326 0.007064 -0.003782 1147770.000000 1 0 0
-14.949330 -7.251485 -10.551614 19.682557 0.451633 2.136594 0.025810 -0.015377 868062.000000 1 0 0
2.797370 -12.790585 -8.722114 15.732120 -1.355481 2.158455 -0.008407 0.004247 472212.000000 1 0 0
-11.527230 -14.537685 1.717186 18.632499 0.900387 1.478505 -0.003396 -0.005088 -120114.000000 1 0 0
-2.275530 -15.653885 10.671086 19.081253 1.426442 0.977322 -0.001552 0.000862 -237317.000000 1 0 0
-7.110130 -15.846785 1.186286 17.409245 1.149041 1.502602 -0.002905 0.000200 -1657600.000000 1 0 0
-12.685330 -14.892885 -5.867414 20.424058 0.865275 1.862182 0.026381 -0.001621 -118155.000000 1 0 0
0.831070 -13.671885 -5.005414 14.583047 -1.510084 1.921155 0.005579 -0.004126 594118.000000 1 0 0
6.048770 -16.525585 -7.308714 19.055179 -1.219918 1.964439 0.009916 -0.005453 -44225.200000 1 0 0
-6.555830 -12.903585 5.924486 15.639084 1.100719 1.182269 -0.001991 -0.002253 151209.000000 1 0 0
-2.596030 -13.531685 0.631886 13.792938 1.381251 1.524968 0.010042 -0.008123 2555510.000000 1 0 0
-4.377430 -15.465485 0.247386 16.074959 1.294966 1.555406 0.001758 -0.005460 72074.000000 1 0 0
-17.453530 -7.295485 -2.024614 19.024954 0.395922 1.677417 -0.012515 -0.005845 143001.000000 1 0 0
1.242170 -12.753685 -11.853814 17.456012 -1.473706 2.317288 0.001416 0.003938 399586.000000 1 0 0
1.332070 -17.065285 -5.614914 18.014594 -1.492897 1.887764 0.017380 -0.009643 -562739.000000 1 0 0
-12.863530 -6.419585 -9.123414 17.026983 0.462890 2.136276 0.005328 -0.006036 1610150.000000 1 0 0
-11.910230 -13.482185 -8.798914 20.026077 0.847226 2.025697 0.043571 -0.008823 399098.000000 1 0 0
-4.379330 -9.945085 3.518586 11.422070 1.155995 1.257652 0.002949 -0.002493 -5355780.000000 1 0 0
-6.996630 -14.379985 9.820186 18.766269 1.117964 1.020090 -0.003532 -0.001738 -531800.000000 1 0 0
-5.220130 -15.872185 -8.093014 18.565368 1.253054 2.021857 0.010012 -0.011378 -214025.000000 1 0 0
-0.275330 -13.399285 2.112786 13.567627 1.550251 1.414437 0.008962 -0.007292 690421.000000 1 0 0
-11.068030 -13.399085 -4.598114 17.977191 0.880384 1.829445 0.014980 -0.003915 -1243950.000000 1 0 0
-9.666930 -10.578685 6.659286 15.802032 0.830402 1.135786 0.006281 -0.005152 -538845.000000 1 0 0
-15.339230 -7.744985 -4.708314 17.816986 0.467571 1.838233 0.006628 -0.010857 -818158.000000 1 0 0
-14.483530 -7.279785 5.411986 17.089690 0.465745 1.248568 0.022957 -0.004070 594271.000000 1 0 0
-1.684430 -19.335685 -0.069014 19.409038 1.483901 1.574352 0.012450 -0.010673 -665686.000000 1 0 0
-15.429930 -12.123785 -1.304314 19.666472 0.665980 1.637167 0.012281 0.004258 711297.000000 1 0 0
-4.391930 -12.128085 -6.666614 14.519753 1.223357 2.047824 0.010278 -0.006658 146419.000000 1 0 0
-7.417930 -18.399485 1.905586 19.929826 1.187569 1.475035 -0.003896 0.001749 -470591.000000 1 0 0
-2.467530 -11.868685 -8.603914 14.865454 1.365814 2.188035 0.009499 -0.001993 1029630.000000 1 0 0
-1.438630 -20.212485 -5.087814 20.892583 1.499741 1.816792 0.018647 -0.008944 -5374.110000 1 0 0
-5.375930 -9.053785 -13.845614 17.394616 1.034965 2.491407 0.013153 -0.004034 1270430.000000 1 0 0
-8.133530 -19.173485 -0.825714 20.843671 1.169597 1.610421 -0.008607 0.007641 -209383.000000 1 0 0
-17.037530 -7.201085 5.682086 19.349914 0.399887 1.272754 0.047117 -0.007648 -33676.300000 1 0 0
-3.553530 -14.616385 -4.246814 15.630154 1.332304 1.845962 0.006531 -0.009099 -1949300.000000 1 0 0
-2.918530 -14.968585 -10.763714 18.666384 1.378235 2.185402 0.010597 -0.007296 -170636.000000 1 0 0
-0.086130 -16.665585 6.287786 17.812506 1.565628 1.210022 0.019242 -0.006172 -868942.000000 1 0 0
-11.137130 -11.594885 3.765686 16.512341 0.805532 1.340719 0.003073 -0.003575 -732429.000000 1 0 0
-0.239530 -14.554785 -0.172314 14.557775 1.554341 1.582633 0.006985 -0.007864 694241.000000 1 0 0
-7.366130 -9.520385 -2.478814 12.289919 0.912285 1.773884 0.007884 -0.003277 -670202.000000 1 0 0
-11.213130 -14.358385 -0.865714 18.238612 0.907782 1.618280 -0.000301 -0.007229 -114204.000000 1 0 0
0.353970 -14.682185 -10.550914 18.083518 -1.546692 2.193772 0.003678 0.002733 -14283.800000 1 0 0
-1.441630 -14.165885 -3.780914 14.732477 1.469378 1.830338 0.008212 -0.007120 -4081740.000000 1 0 0
-11.295330 -8.002285 -7.518014 15.752510 0.616381 2.068328 0.003311 -0.009859 544795.000000 1 0 0
-0.258430 -17.218685 -0.327714 17.223742 1.555789 1.589824 0.013375 -0.011124 519750.000000 1 0 0
-12.856730 -9.495985 4.566886 16.623047 0.636165 1.292485 0.013818 -0.004863 -59445.000000 1 0 0
3.847970 -16.715985 1.591386 17.226826 -1.344541 1.478286 0.017181 -0.015390 2221050.000000 1 0 0
-3.625230 -17.948485 -8.098414 20.021855 1.371498 1.987205 0.007378 -0.007222 64063.100000 1 0 0
-13.375930 -11.137385 2.645486 17.605551 0.694331 1.419961 0.004195 -0.004983 171054.000000 1 0 0
-8.567330 -12.260485 4.201286 15.536069 0.960892 1.296966 -0.002257 -0.002641 247935.000000 1 0 0
-8.318630 -9.371185 -5.933614 13.864576 0.844829 2.013041 0.012458 -0.007625 579619.000000 1 0 0
3.864070 -17.501085 -5.114414 18.638032 -1.353492 1.848770 0.003418 -0.002033 -1023820.000000 1 0 0
-2.581530 -13.073585 11.326586 17.489267 1.375843 0.866326 -0.009486 -0.005142 606001.000000 1 0 0
0.014970 -16.847285 -9.408414 19.296359 -1.569908 2.080106 0.006657 0.000083 -147977.000000 1 0 0
-7.035330 -10.992685 -14.640714 19.613400 1.001482 2.413530 0.023225 0.000253 -727878.000000 1 0 0
-4.832730 -18.735285 -1.448814 19.402712 1.318351 1.645537 0.012759 -0.016442 181213.000000 1 0 0
-2.569030 -17.227485 1.198886 17.459194 1.422763 1.502074 0.009079 -0.009296 1054110.000000 1 0 0
4.056970 -14.765385 -7.321214 16.972795 -1.302651 2.016785 -0.003800 0.000539 1329060.000000 1 0 0
-0.981130 -15.874785 -6.111214 17.038730 1.509071 1.937635 0.008667 -0.007271 -391417.000000 1 0 0
-9.308930 -15.286885 8.364586 19.756298 1.023823 1.133614 -0.001085 -0.005136 -467639.000000 1 0 0
-7.232430 -11.992185 -1.773214 14.116119 1.028104 1.696745 0.002819 -0.004866 615353.000000 1 0 0
-7.352730 -15.169085 -9.306814 19.255663 1.119449 2.075249 0.019120 -0.007226 -264950.000000 1 0 0
-5.103930 -13.125085 -0.638014 14.096986 1.199923 1.616071 0.006299 -0.004551 2819680.000000 1 0 0
-6.395730 -13.824885 -7.260814 16.874603 1.137494 2.015600 0.011414 -0.009426 145013.000000 1 0 0
5.744870 -15.334285 0.339486 16.378616 -1.212339 1.550067 0.011951 -0.006697 73704.200000 1 0 0
-14.406530 -12.731685 0.978186 19.250994 0.723761 1.519962 -0.001240 -0.005565 1023020.000000 1 0 0
0.958570 -15.379185 11.153686 19.022169 -1.508548 0.944248 0.008612 -0.003170 -303854.000000 1 0 0
-9.218630 -10.991685 1.970586 14.480452 0.872904 1.434287 0.001943 -0.000753 71905.400000 1 0 0
-9.475730 -8.956585 -3.566014 13.517630 0.757241 1.837761 0.010112 -0.006129 -1146000.000000 1 0 0
-12.251530 -7.429785 -12.015114 18.699322 0.545139 2.268608 0.017948 -0.015677 -62338.100000 1 0 0
-13.232230 -8.421385 -0.450214 15.691218 0.566776 1.599492 0.006270 -0.006028 -66129.500000 1 0 0
-11.221330 -9.709885 0.638286 14.852862 0.713313 1.527809 0.003370 -0.001502 1825950.000000 1 0 0
-15.765930 -12.151285 3.038486 20.135806 0.656637 1.419318 0.021938 -0.003760 -7079.010000 1 0 0
-10.501230 -12.340485 -2.249714 16.359236 0.865747 1.708753 0.008301 -0.007893 658199.000000 1 0 0
-3.373730 -9.001085 -12.154214 15.496015 1.212189 2.472435 0.009909 0.000598 -145412.000000 1 0 0
-0.331530 -15.459385 3.947686 15.958907 1.549354 1.320836 0.016375 -0.007270 -641645.000000 1 0 0
-15.777130 -7.765885 1.234386 17.628117 0.457408 1.500715 0.004774 -0.003881 102704.000000 1 0 0
-6.154930 -13.537485 -13.367714 19.996060 1.144075 2.303010 0.021892 -0.003587 612920.000000 1 0 0
-15.541130 -10.342185 1.201586 18.706451 0.587175 1.506518 0.013223 -0.003309 356815.000000 1 0 0
-9.981330 -8.541385 -12.325414 18.013829 0.707815 2.324329 0.015147 -0.010560 -9698.760000 1 0 0
-13.316730 -11.600585 -6.264514 18.739077 0.716633 1.911661 0.016408 -0.003644 -216877.000000 1 0 0
-12.277030 -11.294385 -3.780614 17.105018 0.743734 1.793660 0.004694 -0.003462 -982214.000000 1 0 0
-11.799230 -10.961685 -9.153814 18.524920 0.748617 2.087636 0.015184 -0.010193 803346.000000 1 0 0
-13.058330 -8.279885 -5.723814 16.487526 0.565094 1.925338 -0.001106 -0.012258 -3476430.000000 1 0 0
-13.385830 -8.158685 -3.066714 15.973394 0.547377 1.763985 0.007550 -0.008637 131043.000000 1 0 0
-4.438130 -16.872485 -3.212014 17.739638 1.313583 1.752865 0.002244 -0.014589 326263.000000 1 0 0
-15.460630 -8.940185 -1.667714 17.937092 0.524277 1.663907 0.008298 -0.003648 -772122.000000 1 0 0
-9.490530 -15.654585 3.642986 18.665678 1.025797 1.374365 -0.006837 -0.001360 -640404.000000 1 0 0
4.778370 -17.257885 8.076286 19.644180 -1.300683 1.147104 0.030205 -0.016680 240922.000000 1 0 0
-8.355730 -15.384085 5.957486 18.492699 1.073234 1.242793 -0.010863 -0.000061 -492508.000000 1 0 0
0.907970 -16.000985 8.600986 18.188812 -1.514112 1.078249 0.013074 -0.005144 156207.000000 1 0 0
-10.769230 -7.889785 -9.946414 16.648008 0.632287 2.211118 0.008695 -0.012960 777767.000000 1 0 0
-4.862330 -15.862785 5.977586 17.635241 1.273365 1.224988 -0.005695 -0.002544 -346351.000000 1 0 0
-1.380330 -13.308085 -11.982714 17.960954 1.467445 2.301177 0.009434 -0.003007 -1000420.000000 1 0 0
-6.464030 -14.289585 -2.572314 15.893166 1.145982 1.733362 0.006253 -0.008036 309029.000000 1 0 0
-17.792230 -7.006385 -7.050714 20.380516 0.375141 1.924051 0.023063 -0.017977 383231.000000 1 0 0
-17.279930 -4.124385 -10.256714 20.513574 0.234297 2.094391 0.014248 -0.007594 554274.000000 1 0 0
-15.302430 -5.270085 -8.981514 18.509612 0.331673 2.077428 0.009699 -0.014018 1017160.000000 1 0 0
-16.120630 -5.386685 -5.758914 17.945924 0.322484 1.897480 0.013974 -0.015506 443762.000000 1 0 0
-15.071630 -4.722185 -12.146814 19.924812 0.303628 2.226393 0.014110 -0.010625 519962.000000 1 0 0
-18.693830 -5.165985 -5.480414 20.153948 0.269618 1.846192 0.018879 -0.015945 234485.000000 1 0 0
-17.508330 -4.518985 -7.758914 19.676473 0.252592 1.976129 0.014688 -0.012748 640858.000000 1 0 0
12.061970 -7.919385 8.840686 16.922338 -0.580972 1.021102 0.014917 -0.007042 266569.000000 1 0 0
16.109970 -3.434685 1.848286 16.575414 -0.210057 1.459056 0.025083 -0.008084 4447.480000 1 0 0
11.977570 -1.881685 12.547686 17.448420 -0.155827 0.768246 0.002899 -0.000376 75166.500000 1 0 0
9.611870 -10.078085 5.233986 14.877851 -0.809072 1.211306 0.005712 -0.003126 93318.600000 1 0 0
17.059070 -2.059685 7.199386 18.630226 -0.120157 1.174032 0.047607 -0.015732 -752597.000000 1 0 0
5.064770 -12.793985 9.164286 16.532455 -1.193854 0.983249 0.010772 -0.000552 -97925.300000 1 0 0
15.186370 -9.199685 -2.152914 17.885611 -0.544663 1.691460 0.022611 -0.008709 -154956.000000 1 0 0
11.021270 -8.659785 6.571086 15.480292 -0.665981 1.132408 0.010218 -0.004472 -2734260.000000 1 0 0
20.126770 -3.143885 3.785086 20.719502 -0.154952 1.387082 0.047135 -0.017185 1132820.000000 1 0 0
13.530570 -8.569585 6.887286 17.434128 -0.564581 1.164678 0.015539 -0.009067 -734973.000000 1 0 0
8.225870 -11.042285 8.794986 16.338567 -0.930540 1.002382 0.009325 -0.002137 -980920.000000 1 0 0
16.709870 0.084515 -0.611514 16.721269 0.005058 1.607375 0.020270 0.000268 521922.000000 1 0 0
12.413670 -12.365585 2.227486 17.662632 -0.783458 1.444347 0.019954 -0.006908 -1435440.000000 1 0 0
10.474270 -11.737085 3.671586 16.153948 -0.842191 1.341505 0.013405 -0.002441 -222090.000000 1 0 0
16.483670 2.831315 2.402086 16.896678 0.170105 1.428150 0.017878 0.000077 -795733.000000 1 0 0
18.300470 -3.317085 0.481386 18.604891 -0.179310 1.544919 0.022662 -0.008399 655922.000000 1 0 0
13.419070 -11.696785 -0.225814 17.802730 -0.716932 1.583481 0.025251 -0.004942 -202367.000000 1 0 0
16.978570 -7.666385 -0.794914 18.646104 -0.424128 1.613441 0.034251 -0.008187 690756.000000 1 0 0
10.140270 -5.572285 9.815886 15.173235 -0.502475 0.867256 0.003324 -0.006189 -489025.000000 1 0 0
11.443870 -13.530185 6.185686 18.769411 -0.868744 1.234957 0.032012 -0.005042 -1145340.000000 1 0 0
13.151770 -1.806885 10.357586 16.837859 -0.136532 0.908237 0.018032 -0.004754 1512550.000000 1 0 0
15.542670 -2.012485 -1.407214 15.735467 -0.128765 1.660345 0.014543 -0.004626 1213420.000000 1 0 0
10.370370 -12.397485 9.225986 18.610777 -0.874198 1.052117 0.031137 -0.008274 -56594.700000 1 0 0
14.644570 1.172915 3.385286 15.076449 0.079922 1.344324 0.017433 -0.001944 250351.000000 1 0 0
14.842570 -5.919085 5.236686 16.815479 -0.379464 1.254109 0.018324 -0.008088 -424627.000000 1 0 0
14.344170 -3.416685 -2.965914 15.040797 -0.233836 1.769288 0.016119 -0.004065 1003320.000000 1 0 0
14.073970 0.559915 9.620186 17.056908 0.039763 0.971568 0.026500 -0.008561 738680.000000 1 0 0
15.445170 -3.528085 4.429686 16.450616 -0.224573 1.298160 0.025224 -0.006438 -317446.000000 1 0 0
18.472870 4.934415 -4.410514 19.622640 0.261023 1.797500 -0.001365 0.011344 680483.000000 1 0 0
18.214270 -5.977085 -4.981214 19.806505 -0.317082 1.825020 0.060634 -0.012973 432664.000000 1 0 0
17.468370 0.019415 6.076986 18.495245 0.001111 1.236007 0.052275 -0.007918 428934.000000 1 0 0
17.028370 -6.780985 4.054986 18.772055 -0.378968 1.353068 0.028921 -0.009185 167520.000000 1 0 0
9.611770 -6.622485 14.340986 18.490736 -0.603303 0.683168 -0.001920 -0.000048 -1002710.000000 1 0 0
8.654570 -12.446185 5.213486 16.030893 -0.963192 1.239557 0.010692 -0.003415 -763517.000000 1 0 0
16.882370 -10.231485 -0.544414 19.748268 -0.544853 1.598367 0.036687 -0.006039 462768.000000 1 0 0
14.888570 -8.826085 0.370186 17.312028 -0.535116 1.549412 0.023869 -0.009061 -235730.000000 1 0 0
9.908970 -13.014785 1.495686 16.425875 -0.920063 1.479613 0.017803 -0.006711 435655.000000 1 0 0
16.835670 -8.313185 8.824186 20.746448 -0.458662 1.131465 0.029432 -0.013418 568871.000000 1 0 0
19.064870 -0.127085 -1.670414 19.138331 -0.006666 1.658189 0.025527 -0.001636 -671079.000000 1 0 0
13.517970 -1.264185 7.773386 15.644782 -0.093248 1.050811 0.018103 -0.009124 -357903.000000 1 0 0
12.802170 -9.827585 -3.018314 16.419111 -0.654702 1.755677 0.018611 -0.008977 -927739.000000 1 0 0
8.815570 -15.332185 1.548486 17.753534 -1.048983 1.483464 0.019961 -0.005025 -798790.000000 1 0 0
11.340570 -8.374985 11.246386 18.034137 -0.636099 0.897436 0.015763 -0.005804 -336294.000000 1 0 0
13.840070 -3.972485 -0.457614 14.406165 -0.279514 1.602567 0.014019 -0.006399 -814082.000000 1 0 0
7.080970 -13.253185 10.864286 18.542377 -1.080099 0.944786 0.018456 0.002682 -595253.000000 1 0 0
15.392470 -6.745185 1.868486 16.909077 -0.413009 1.460068 0.013524 -0.006904 -927918.000000 1 0 0
15.920170 -6.178585 -2.629414 17.278326 -0.370204 1.723570 0.034022 -0.006324 916491.000000 1 0 0
11.213170 -8.563985 3.939086 14.649007 -0.652239 1.298548 0.010306 -0.005347 36345.400000 1 0 0
10.738870 -14.592485 -0.349414 18.121424 -0.936369 1.590079 0.033596 -0.007117 770448.000000 1 0 0
13.355370 -12.971385 4.599586 19.177563 -0.770814 1.328593 0.020106 -0.005989 275563.000000 1 0 0
12.738870 -11.166285 6.470886 18.133866 -0.719708 1.205913 0.017922 -0.008158 161668.000000 1 0 0
10.859270 -10.549985 1.455586 15.210018 -0.770953 1.474950 0.010399 -0.005251 47396.900000 1 0 0
13.754870 -7.736285 11.980886 19.813838 -0.512344 0.921442 0.009222 -0.009179 -971108.000000 1 0 0
15.312270 -1.884185 -4.832314 16.166849 -0.122435 1.874339 0.024944 -0.000946 393791.000000 1 0 0
12.878470 -11.397685 -6.981014 18.560624 -0.724476 1.956401 0.034581 -0.009361 -512723.000000 1 0 0
17.671970 -5.498185 1.862986 18.601056 -0.301631 1.470473 0.031628 -0.005314 431816.000000 1 0 0
10.582270 -9.889685 9.190786 17.154033 -0.751580 1.005365 0.012028 -0.004736 -1561650.000000 1 0 0
16.420770 1.732415 10.161986 19.388371 0.105113 1.019106 0.047032 -0.003130 613563.000000 1 0 0
18.196270 3.771115 0.610286 18.592956 0.204354 1.537967 0.015588 0.005605 183612.000000 1 0 0
13.239470 -4.059985 5.766486 15.000647 -0.297553 1.176221 0.015585 -0.008261 -685021.000000 1 0 0
12.005270 -6.211285 6.779286 15.121683 -0.477455 1.105916 0.011974 -0.006565 -45913.100000 1 0 0
16.597270 -10.289985 3.721186 19.879647 -0.554982 1.382500 0.024006 -0.005562 -550338.000000 1 0 0
16.312570 -8.223685 -5.306014 19.023215 -0.466948 1.853469 0.044074 -0.014142 331068.000000 1 0 0
14.134570 -0.492485 5.336786 15.116544 -0.034828 1.209975 0.016091 -0.004454 1413200.000000 1 0 0
18.406570 -4.443385 5.188986 19.633417 -0.236870 1.303325 0.049904 -0.010237 179743.000000 1 0 0
13.850370 -13.537885 7.073086 20.618817 -0.773989 1.220645 0.047771 -0.012541 481696.000000 1 0 0
14.946470 -13.636585 -0.948414 20.254700 -0.739603 1.617638 0.027046 -0.006918 214489.000000 1 0 0
17.842170 -6.074485 7.907886 20.439595 -0.328148 1.173539 0.048714 -0.010692 -439327.000000 1 0 0
14.381170 3.285415 9.285886 17.430998 0.224598 1.008982 0.027111 -0.003538 327470.000000 1 0 0
18.810270 3.567215 3.108686 19.396268 0.187416 1.409830 0.036788 -0.001829 -79300.700000 1 0 0
14.657270 -10.681985 8.129086 19.875171 -0.629784 1.149431 0.018854 -0.008825 -346422.000000 1 0 0
14.675770 -4.881085 10.328386 18.597816 -0.321086 0.982007 0.023674 -0.017332 235281.000000 1 0 0
17.725770 -8.028885 1.886186 19.550540 -0.425304 1.474169 0.037048 -0.013601 302591.000000 1 0 0
18.498870 -5.906285 -1.856114 19.507372 -0.309048 1.666090 0.038120 -0.007987 -376699.000000 1 0 0
14.219570 -13.062985 -5.353314 20.037358 -0.743031 1.841248 0.042184 -0.010773 -694144.000000 1 0 0
15.520870 -1.560685 9.294386 18.158160 -0.100217 1.033451 0.041385 -0.016557 253628.000000 1 0 0
12.959770 -10.079585 10.235386 19.347268 -0.661032 1.013333 0.011454 -0.011965 -929034.000000 1 0 0
16.540870 2.085415 4.923886 17.383728 0.125415 1.283618 0.029538 -0.003948 -408087.000000 1 0 0
14.973670 2.383215 -0.042814 15.162201 0.157837 1.573620 0.007703 0.003056 -1001210.000000 1 0 0
15.008870 -9.780885 -6.913714 19.202378 -0.577551 1.939112 0.041251 -0.016749 993931.000000 1 0 0
16.188870 -0.041285 -3.244914 16.510926 -0.002550 1.768615 0.016926 0.003302 200620.000000 1 0 0
12.116370 2.648415 13.522186 18.348571 0.215197 0.742233 0.023227 -0.002614 -327257.000000 1 0 0
17.578470 -3.162585 9.522386 20.240563 -0.178008 1.080984 0.040308 -0.017487 345329.000000 1 0 0
7.663270 -18.180585 4.572586 20.252603 -1.171887 1.343055 0.038441 -0.014293 382300.000000 1 0 0
6.881870 -11.129285 6.572686 14.643132 -1.016988 1.105309 0.005157 -0.001916 -65738.600000 1 0 0
18.017570 2.204615 -1.451114 18.209857 0.121754 1.650569 0.017124 0.005262 405416.000000 1 0 0
17.623270 -2.337085 3.706686 18.159877 -0.131844 1.365238 0.032453 -0.006208 306526.000000 1 0 0
12.516070 -13.410185 -1.976514 18.449706 -0.819871 1.678132 0.028172 -0.006225 470718.000000 1 0 0
14.969270 -8.348785 4.376586 17.689990 -0.508757 1.320796 0.019227 -0.006060 -327017.000000 1 0 0
11.706670 -2.881685 14.758686 19.056995 -0.241359 0.684951 -0.002639 -0.004707 32368.400000 1 0 0
11.979670 -13.791685 -6.396314 19.355513 -0.855594 1.907592 0.020187 -0.008917 -365177.000000 1 0 0
10.506770 -12.132585 -1.129214 16.089343 -0.857089 1.641038 0.021546 -0.007242 -958447.000000 1 0 0
13.126370 -7.984585 2.136086 15.511868 -0.546490 1.432651 0.008010 -0.002439 -26783.100000 1 0 0
8.768270 -7.782885 9.991686 15.404209 -0.725933 0.865009 0.013378 -0.004522 -1135490.000000 1 0 0
15.679570 -3.918385 8.059786 18.059978 -0.244888 1.108194 0.038026 -0.017899 -788952.000000 1 0 0
10.147270 -17.454085 5.258586 20.863003 -1.044188 1.315995 0.049622 -0.015182 -794625.000000 1 0 0
15.229170 -6.423385 8.292786 18.492101 -0.399142 1.105766 0.032022 -0.008998 -1073660.000000 1 0 0
16.531270 -5.027885 -0.370214 17.282927 -0.295254 1.592219 0.016276 -0.008645 -411631.000000 1 0 0
13.960470 -10.610585 3.468986 17.874929 -0.649899 1.375487 0.021984 -0.007453 585253.000000 1 0 0
14.885870 -10.151185 -4.452914 18.559744 -0.598498 1.813083 0.036524 -0.016514 -47972.500000 1 0 0
13.706470 -6.566685 -0.085814 15.198554 -0.446783 1.576443 0.012582 -0.006459 29110.100000 1 0 0
17.911870 -1.112685 -4.870014 18.595434 -0.062040 1.835779 0.028332 0.004525 181362.000000 1 0 0
14.340470 0.236015 -1.540514 14.424908 0.016457 1.677796 0.012279 0.000962 -2460370.000000 1 0 0
4.741070 -12.846085 11.790986 18.070058 -1.217237 0.859898 0.006168 -0.000887 -1214950.000000 1 0 0
11.804870 -7.664985 13.633286 19.595240 -0.575888 0.801340 0.004164 -0.005650 -742195.000000 1 0 0
11.987270 -5.859585 11.743186 17.774470 -0.454661 0.849076 0.005361 -0.000802 707994.000000 1 0 0
13.230770 -4.657985 8.339386 16.318562 -0.338506 1.034406 0.016750 -0.012612 -1001010.000000 1 0 0
15.419470 -1.204085 3.176786 15.789295 -0.077930 1.368215 0.024163 -0.003985 -53025.800000 1 0 0
15.127470 -10.373685 5.749586 19.222680 -0.601099 1.267042 0.022838 -0.011198 107646.000000 1 0 0
13.648270 -8.048985 -5.532514 16.783031 -0.532844 1.906728 0.032528 -0.012580 642163.000000 1 0 0
9.488270 -2.111585 13.561786 16.685566 -0.218978 0.621879 -0.010651 0.000675 2306570.000000 1 0 0
9.777470 -9.196685 13.752986 19.217767 -0.754798 0.773258 0.020878 -0.001665 -490896.000000 1 0 0
20.245370 6.250915 -3.004214 21.400333 0.299472 1.711643 0.028389 0.012281 -737797.000000 1 0 0
11.380870 -3.633485 10.798286 16.103708 -0.309034 0.835851 0.006755 0.001513 706477.000000 1 0 0
10.168070 -14.104785 -2.842214 17.618535 -0.946184 1.732824 0.017098 -0.005723 -322558.000000 1 0 0
14.848570 -12.951985 2.509686 19.862841 -0.717283 1.444107 0.024721 -0.000500 323222.000000 1 0 0
11.211070 -0.335685 14.581486 18.396209 -0.029933 0.655677 0.007291 0.000590 180215.000000 1 0 0
19.131070 -2.066385 5.854486 20.113249 -0.107595 1.275445 0.050794 -0.010945 950774.000000 1 0 0
19.055570 -0.576885 8.085686 20.708111 -0.030265 1.169665 0.066425 -0.011863 302464.000000 1 0 0
18.888270 0.908315 0.715586 18.923632 0.048052 1.532973 0.030180 -0.003975 320376.000000 1 0 0
18.555070 0.689315 3.788186 18.950360 0.037133 1.369540 0.042043 -0.008158 600519.000000 1 0 0
16.672970 -3.998985 -4.147914 17.640436 -0.235402 1.808156 0.028895 -0.005476 -384977.000000 1 0 0
10.854970 -8.232585 15.941186 20.969674 -0.648866 0.707172 0.017016 -0.001373 397923.000000 1 0 0
16.398070 -7.577285 6.401186 19.164737 -0.432857 1.230243 0.016614 -0.007069 272180.000000 1 0 0
18.941570 2.150215 5.957186 19.972345 0.113034 1.267915 0.050715 -0.009007 671743.000000 1 0 0
15.630970 1.543815 7.755286 17.517279 0.098447 1.112164 0.048450 -0.010960 201555.000000 1 0 0
8.706470 -15.769885 3.946086 18.440810 -1.066346 1.355142 0.024197 -0.013295 1194240.000000 1 0 0
11.181270 -15.127385 2.190786 18.938271 -0.934281 1.454856 0.027381 -0.002401 -445251.000000 1 0 0
8.010370 -16.199385 6.214386 19.110329 -1.111570 1.239589 0.031580 -0.010442 -65490.800000 1 0 0
14.505670 -11.759185 -2.568014 18.849074 -0.681208 1.707462 0.024583 -0.007509 367907.000000 1 0 0
13.647670 -4.987485 3.203786 14.879454 -0.350368 1.353781 0.009401 -0.002521 -1805970.000000 1 0 0
-1.099730 10.206815 -5.519414 11.655574 -1.463466 2.064105 -0.005076 0.002949 -2193340.000000 1 0 0
8.212970 -1.819285 -7.974814 11.591390 -0.217994 2.329518 -0.003786 -0.002062 -3270600.000000 1 0 0
2.870470 -10.113585 7.651986 13.002965 -1.294246 0.941619 -0.001476 -0.002796 575788.000000 1 0 0
-6.258830 1.359915 8.243686 10.439382 -0.213954 0.660522 -0.002514 0.002582 -149244.000000 1 0 0
7.124570 -6.326085 -7.168314 11.923236 -0.726104 2.215805 -0.005585 -0.003533 201540.000000 1 0 0
-11.447930 -4.413885 -4.140014 12.949023 0.367998 1.896226 0.006634 -0.006661 273407.000000 1 0 0
2.132370 -3.110785 2.781586 4.686278 -0.969884 0.935321 0.002671 -0.005301 1440120.000000 1 0 0
-3.600030 -4.187685 8.895886 10.470612 0.860715 0.555560 0.000706 -0.004263 -1672600.000000 1 0 0
-4.733230 -1.010385 -2.490814 5.443206 0.210310 2.046091 0.004130 -0.000013 -172358.000000 1 0 0
4.993970 -5.237385 -3.674414 8.116110 -0.809185 2.040622 0.000344 -0.004993 242617.000000 1 0 0
2.693270 14.271515 -8.829714 16.996873 1.384273 2.117051 0.002219 0.000043 -659541.000000 1 0 0
5.387270 -5.446085 13.733686 15.725669 -0.790827 0.508801 -0.000549 -0.003176 -1410690.000000 1 0 0
-4.754630 -0.815985 9.847686 10.965823 0.169963 0.455515 0.004741 0.001022 -2125730.000000 1 0 0
-1.001430 12.056715 -2.612114 12.377010 -1.487927 1.783441 -0.003312 -0.000647 -1320930.000000 1 0 0
3.092970 9.455715 -10.516914 14.476964 1.254666 2.383951 0.001516 0.000934 141086.000000 1 0 0
-10.696230 2.638815 1.171486 11.079037 -0.241875 1.464859 -0.004043 0.002884 173104.000000 1 0 0
5.612970 -9.019485 -0.694214 10.646054 -1.014129 1.636051 0.000184 -0.005208 213620.000000 1 0 0
-6.948930 5.571315 9.468186 12.998990 -0.675808 0.754844 -0.006230 0.004317 331570.000000 1 0 0
-5.521830 -1.880485 5.155886 7.785242 0.328236 0.846960 0.000128 -0.002800 628795.000000 1 0 0
6.605970 -3.847585 -7.299814 10.570242 -0.527408 2.333115 -0.005684 -0.003859 348302.000000 1 0 0
6.254870 4.807615 11.032786 13.563146 0.655312 0.620757 0.000070 0.000279 441587.000000 1 0 0
3.786070 -9.821585 3.203386 11.002706 -1.202865 1.275373 -0.002260 -0.002372 896751.000000 1 0 0
-6.583630 6.618415 -5.878414 11.031924 -0.788033 2.132767 -0.001459 -0.001371 -1246770.000000 1 0 0
-11.118430 8.529715 5.265486 14.969999 -0.654399 1.211371 -0.003202 -0.000720 218813.000000 1 0 0
-9.149130 -5.495385 5.047586 11.806099 0.540894 1.129026 -0.000180 -0.001897 -792811.000000 1 0 0
3.175970 9.818315 -7.967614 13.037215 1.257945 2.228301 0.001354 0.001300 648954.000000 1 0 0
-8.066030 -8.547685 5.980986 13.186961 0.814381 1.100048 0.001906 -0.001833 -2459220.000000 1 0 0
-7.833930 -5.740185 -7.462814 12.248011 0.632359 2.225984 0.009996 -0.002911 693606.000000 1 0 0
9.186770 -1.533985 7.013886 11.659522 -0.165451 0.925345 0.004927 -0.005878 2377080.000000 1 0 0
-4.034730 -0.329385 -4.942014 6.388352 0.081457 2.455295 0.006978 -0.004865 -1087920.000000 1 0 0
9.020170 1.214515 -4.599014 10.197521 0.133839 2.038674 0.002414 0.001730 -3887040.000000 1 0 0
-1.836830 -10.641885 10.776686 15.256494 1.399877 0.786444 -0.013315 -0.002331 21039.300000 1 0 0
-12.771430 0.224115 -2.680014 13.051518 -0.017546 1.777609 0.008868 -0.001450 -695670.000000 1 0 0
-9.813230 -4.980285 -6.011714 12.539674 0.469635 2.070785 0.008685 -0.006293 -1671760.000000 1 0 0
-5.529430 8.366815 -0.164914 10.030224 -0.986813 1.587239 0.000274 0.000527 -23577.400000 1 0 0
6.445270 9.666015 0.348686 11.623035 0.982704 1.540792 0.004544 -0.003379 85710.200000 1 0 0
-0.648930 -11.962385 -0.036114 11.980028 1.516602 1.573811 0.008042 -0.004181 -400299.000000 1 0 0
6.129970 4.816115 2.352386 8.142802 0.665940 1.277728 -0.000350 0.000353 267999.000000 1 0 0
3.384770 -7.450685 -8.130614 11.535868 -1.144381 2.352954 -0.006040 -0.000736 511359.000000 1 0 0
-6.543530 -9.859485 4.503986 12.661482 0.984865 1.207108 0.003397 -0.001229 -3240520.000000 1 0 0
-0.088730 6.639015 -9.196714 11.343013 -1.557432 2.516284 0.006969 -0.002610 -1881030.000000 1 0 0
-17.354030 -2.674885 4.265586 18.069660 0.152933 1.332484 0.042422 -0.007608 802035.000000 1 0 0
-8.320330 0.927915 -9.316414 12.525354 -0.111065 2.409541 0.007893 -0.003486 53113.500000 1 0 0
-10.023430 -6.026085 -11.863514 16.659106 0.541301 2.363329 0.010735 0.001082 281630.000000 1 0 0
2.203070 9.544415 6.316386 11.655304 1.343946 0.998062 0.002479 -0.000100 270925.000000 1 0 0
-11.308530 1.677815 -1.192014 11.494295 -0.147293 1.674688 0.003998 0.000314 -1419840.000000 1 0 0
-6.104130 -5.443785 -3.001814 8.712410 0.728277 1.922550 0.011837 -0.002692 668876.000000 1 0 0
-6.925830 -8.279985 1.229086 10.864434 0.874219 1.457424 0.007254 -0.003700 -1958.960000 1 0 0
-0.003930 10.776315 -7.893714 13.358132 -1.570432 2.203007 0.000104 0.002355 638481.000000 1 0 0
-2.944730 9.262415 -4.216514 10.594468 -1.262979 1.980123 -0.001035 -0.000000 73173.000000 1 0 0
3.530270 -4.826585 9.271786 11.032894 -0.939292 0.572819 -0.002723 -0.003887 -1155350.000000 1 0 0
-8.849830 1.653115 -0.389314 9.011318 -0.184668 1.614013 0.001324 0.001520 -989607.000000 1 0 0
2.503870 3.579015 -10.432114 11.309629 0.960341 2.745071 0.000665 -0.000703 915416.000000 1 0 0
-13.659030 0.575015 1.228086 13.726177 -0.042073 1.481206 0.008595 -0.000208 -97765.500000 1 0 0
9.471170 -12.611985 -4.869514 16.506889 -0.926677 1.870251 0.014620 -0.005638 -1570620.000000 1 0 0
-4.726130 9.342415 -8.385814 13.414131 -1.102457 2.246117 -0.001468 -0.000374 -320324.000000 1 0 0
-2.355230 7.267715 8.373686 11.335141 -1.257408 0.739602 0.002555 0.000111 -481002.000000 1 0 0
-10.716230 -1.221885 -4.528314 11.697701 0.113532 1.968293 0.007726 -0.002882 -2441910.000000 1 0 0
2.678570 -7.126985 9.641486 12.285231 -1.211294 0.668418 -0.007656 -0.000828 -1494040.000000 1 0 0
-16.185730 -6.570985 3.314886 17.780443 0.385646 1.383265 0.027950 -0.006614 -103757.000000 1 0 0
-10.771030 -0.205085 6.191286 12.425344 0.019038 1.049184 -0.000608 -0.000488 -2188520.000000 1 0 0
-8.405030 10.045415 9.387686 16.114700 -0.874073 0.948929 0.001149 -0.008714 1301720.000000 1 0 0
0.243070 -6.050985 -3.781114 7.139350 -1.530648 2.128944 -0.001948 -0.000657 -23983.200000 1 0 0
4.901270 1.415515 -2.897414 5.866953 0.281156 2.087312 -0.003317 0.000853 501389.000000 1 0 0
0.382370 5.498715 3.853486 6.725432 1.501370 0.960668 0.001640 0.000695 -2264970.000000 1 0 0
5.935470 -11.320885 -1.487514 12.868758 -1.087903 1.686646 -0.000187 -0.006542 -1121420.000000 1 0 0
6.169970 -13.354985 5.330386 15.647273 -1.138010 1.223178 0.005413 -0.007040 73829.100000 1 0 0
8.226870 -8.248885 -5.891614 13.055137 -0.786734 2.039003 0.001033 -0.005995 359214.000000 1 0 0
-13.202830 -1.356885 -4.671714 14.070564 0.102413 1.909241 0.007841 -0.001919 -1703190.000000 1 0 0
-6.736130 -1.429785 -7.172014 9.942711 0.209152 2.376523 0.013450 -0.004122 -1340380.000000 1 0 0
-5.537830 12.935015 -4.489814 14.769584 -1.166280 1.879675 -0.000310 0.000463 -39387.400000 1 0 0
-4.268230 6.988015 -6.730314 10.599399 -1.022479 2.258768 0.001117 -0.001305 -3811640.000000 1 0 0
-9.328630 -3.642685 -8.083814 12.870141 0.372276 2.249913 0.008275 -0.003310 492238.000000 1 0 0
-2.170730 -6.393185 9.261186 11.460997 1.243472 0.629943 -0.001585 -0.004944 -588737.000000 1 0 0
7.521770 -5.931285 10.128986 13.941073 -0.667720 0.757498 -0.000511 -0.003751 728502.000000 1 0 0
9.607770 -4.971985 12.327686 16.401272 -0.477546 0.720267 -0.000005 0.005052 -245535.000000 1 0 0
-6.509330 2.840815 -9.065114 11.515984 -0.411505 2.477014 0.004717 -0.005018 227300.000000 1 0 0
7.446370 5.514915 8.896286 12.845491 0.637470 0.805763 -0.001225 0.002311 -245518.000000 1 0 0
12.634970 3.250815 11.097386 17.127821 0.251825 0.865951 0.016184 -0.000212 -410392.000000 1 0 0
-7.594730 -7.253285 -3.945814 11.218712 0.762406 1.930201 0.011286 -0.005156 -1106660.000000 1 0 0
2.305370 1.439215 -5.712114 6.325687 0.558087 2.697505 -0.001717 -0.001383 -44958.500000 1 0 0
12.835270 6.907015 -7.117514 16.220666 0.493683 2.025051 0.010808 -0.001678 16979.900000 1 0 0
0.740370 -7.769585 1.101686 7.882151 -1.475792 1.430567 0.002390 -0.003953 758744.000000 1 0 0
-10.325930 -5.915985 -8.478314 14.611828 0.520274 2.189815 0.007804 -0.006712 -587845.000000 1 0 0
-6.739730 0.261515 3.057586 7.405484 -0.038783 1.145181 0.000884 -0.002865 -51437.700000 1 0 0
10.735370 -7.967185 1.337686 13.435535 -0.638454 1.471068 0.004047 -0.003718 -188685.000000 1 0 0
6.246770 1.041615 10.522786 12.281536 0.165225 0.541770 -0.001261 0.002655 -134132.000000 1 0 0
-12.894830 5.368915 1.906886 14.097451 -0.394531 1.435116 0.001835 0.002933 288820.000000 1 0 0
2.092570 7.467515 3.624386 8.560304 1.297581 1.133607 0.001174 0.000173 209075.000000 1 0 0
10.044970 -9.490885 -0.747114 13.839671 -0.757043 1.624806 0.006260 -0.005238 860176.000000 1 0 0
6.913770 -11.780085 -8.916314 16.311691 -1.040062 2.149120 -0.001800 -0.000005 -84678.400000 1 0 0
10.159470 3.531715 12.060586 16.160000 0.334560 0.728275 0.007842 0.001928 605006.000000 1 0 0
-11.072030 -3.055985 -1.926914 11.646540 0.269304 1.737010 0.005751 -0.002843 -400811.000000 1 0 0
12.509370 0.912815 6.909886 14.320059 0.072841 1.067253 0.010918 -0.004211 -166484.000000 1 0 0
-9.480030 9.120315 3.098786 13.514940 -0.766061 1.339452 0.000750 -0.004842 1496560.000000 1 0 0
-6.673430 7.670515 -8.887514 13.504050 -0.854799 2.289138 -0.001999 -0.001953 -1037830.000000 1 0 0
8.483270 5.527315 12.113586 15.787845 0.577467 0.696218 0.003743 0.001771 -1733170.000000 1 0 0
1.237870 4.791015 -2.658814 5.617423 1.317953 2.063847 0.001794 -0.000307 721285.000000 1 0 0
1.290170 0.515415 9.511586 9.612516 0.380070 0.145040 0.000527 0.000287 705805.000000 1 0 0
2.478770 12.630015 -3.989614 13.475111 1.376999 1.871375 0.003975 -0.003731 542069.000000 1 0 0
2.143570 0.650515 13.017786 13.209119 0.294640 0.170411 -0.003447 0.000690 -207461.000000 1 0 0
-12.354330 -1.743285 0.891886 12.508556 0.140182 1.499434 0.005100 -0.002222 -84409.700000 1 0 0
3.280370 8.771615 -1.249014 9.447862 1.212924 1.703385 0.004815 -0.000536 501036.000000 1 0 0
3.718270 -2.778085 -5.838614 7.458733 -0.641671 2.469931 -0.006591 -0.001782 -1484020.000000 1 0 0
-7.771230 -7.288685 9.256186 14.113608 0.753367 0.855509 0.004716 -0.000407 61577.300000 1 0 0
-7.001630 10.934915 -3.574314 13.467402 -1.001270 1.839420 0.003495 0.001460 227647.000000 1 0 0
0.423470 0.543015 2.582186 2.672429 0.908464 0.260614 -0.001612 -0.001448 -1891120.000000 1 0 0
-7.038830 4.605315 -1.976614 8.640663 -0.579373 1.801597 0.000518 -0.000613 -604627.000000 1 0 0
-6.946930 -3.812385 -6.014014 9.947988 0.501911 2.219992 0.008947 -0.003297 -543471.000000 1 0 0
2.931670 -6.120785 13.324486 14.953282 -1.124114 0.471089 -0.005110 -0.004004 -1009810.000000 1 0 0
-5.406730 -0.570385 -11.734514 12.932783 0.105107 2.707724 0.010753 -0.006315 -490656.000000 1 0 0
11.830670 2.466015 -0.662114 12.103073 0.205500 1.625530 0.004402 0.000423 -1156660.000000 1 0 0
6.044870 -10.908985 10.775486 16.482036 -1.064797 0.858238 0.004286 -0.001564 382328.000000 1 0 0
-8.239430 6.421415 -10.511414 14.819332 -0.662023 2.359307 -0.001088 -0.002416 462526.000000 1 0 0
2.737970 7.915915 11.034786 13.853689 1.237795 0.649273 0.003298 -0.002231 693867.000000 1 0 0
-6.192330 -10.047685 -0.534814 11.814692 1.018482 1.616079 0.009714 -0.002137 -625293.000000 1 0 0
11.341270 4.207815 6.119586 13.556528 0.355275 1.102449 0.006113 0.001118 -254965.000000 1 0 0
-7.920430 10.584915 1.531686 13.308633 -0.928400 1.455451 0.002011 -0.004234 53893.700000 1 0 0
4.256670 -2.663085 -3.421714 6.076132 -0.559050 2.168977 -0.003310 -0.003895 -4559830.000000 1 0 0
6.410970 6.639615 6.340186 11.197455 0.802916 0.968888 0.000291 0.002366 -5320250.000000 1 0 0
-0.459430 10.362815 -10.271114 14.597767 -1.526491 2.351259 0.002363 0.001498 14831.400000 1 0 0
14.199270 6.520915 -2.529114 15.828393 0.430514 1.731268 0.016841 0.003978 718771.000000 1 0 0
1.404770 9.465615 -6.053814 11.323423 1.423464 2.134863 0.002102 -0.000714 -854441.000000 1 0 0
0.611270 7.419415 7.186286 10.347178 1.488594 0.803049 -0.000839 0.000182 407275.000000 1 0 0
12.300970 6.251215 1.821486 13.917951 0.470177 1.439547 0.003297 0.002605 -787836.000000 1 0 0
-6.864530 6.737015 -3.243214 10.150250 -0.776023 1.896020 -0.000891 -0.002673 629359.000000 1 0 0
1.058670 9.915115 11.062486 14.893250 1.464426 0.733576 0.001866 -0.004576 -1034530.000000 1 0 0
-3.645430 13.584215 -11.001814 17.856651 -1.308616 2.234602 0.006593 -0.005060 3226.080000 1 0 0
-10.157230 -5.504185 -2.311014 11.781602 0.496602 1.768231 0.003372 -0.004913 -732811.000000 1 0 0
-3.996330 3.916115 -12.528214 13.720887 -0.775261 2.721561 0.003758 -0.004289 -23247.400000 1 0 0
-3.183530 8.607115 2.575086 9.531441 -1.216529 1.297229 0.003048 0.000333 -2488360.000000 1 0 0
7.258470 9.012915 7.180086 13.618798 0.892807 1.015472 0.003854 0.002656 -1563990.000000 1 0 0
-1.285630 -2.315885 -8.175414 8.593809 1.064019 2.828269 0.004121 -0.004670 -1701350.000000 1 0 0
0.812870 -1.300485 4.881286 5.116539 -1.012160 0.304420 0.002232 -0.002572 -728045.000000 1 0 0
2.650470 -8.883985 -6.020514 11.054264 -1.280861 2.146747 -0.005702 -0.002625 296147.000000 1 0 0
5.403570 3.915715 8.714486 10.976050 0.627081 0.653510 -0.002066 0.002260 193164.000000 1 0 0
6.122370 -7.510385 -2.834014 10.095589 -0.886863 1.855338 -0.000681 -0.006088 927309.000000 1 0 0
1.857370 2.238715 -8.240614 8.738958 0.878231 2.802252 0.000355 -0.001499 118670.000000 1 0 0
-5.409730 10.987715 -0.659014 12.264965 -1.113293 1.624554 -0.002539 0.002969 387393.000000 1 0 0
-5.420330 3.351915 -3.441314 7.242786 -0.553837 2.065916 0.000790 0.000396 -667427.000000 1 0 0
2.093970 13.733815 -6.310814 15.258727 1.419493 1.997187 -0.008547 0.000079 336943.000000 1 0 0
-5.263230 -2.660285 2.688286 6.481172 0.467996 1.143091 -0.001718 -0.001392 -104658.000000 1 0 0
10.369570 -3.301485 -1.846814 11.038048 -0.308235 1.738900 0.003404 -0.002389 -112099.000000 1 0 0
2.308070 -3.305185 6.993986 8.072625 -0.961200 0.522883 -0.001474 -0.002829 -1910550.000000 1 0 0
-2.969830 9.766815 -11.857814 15.646671 -1.275607 2.430806 0.007361 0.000786 -2616660.000000 1 0 0
0.518870 -2.091785 9.271686 9.518874 -1.327653 0.228391 -0.000876 -0.002285 392789.000000 1 0 0
9.475170 2.648715 5.016186 11.043399 0.272585 1.099294 0.003222 -0.000292 94640.900000 1 0 0
13.442870 2.037815 -5.073114 14.512061 0.150445 1.927918 0.014259 -0.000237 -794139.000000 1 0 0
-6.412730 3.834615 7.608986 10.664148 -0.538925 0.776300 -0.002564 0.003454 180779.000000 1 0 0
10.554270 0.028715 1.878086 10.720105 0.002721 1.394695 0.004848 0.000639 1300320.000000 1 0 0
15.420370 6.639015 -4.740414 17.445224 0.406550 1.845988 0.025925 0.003056 -491314.000000 1 0 0
7.933470 -5.008785 -9.318214 13.223350 -0.563152 2.352767 -0.005268 -0.000876 1056720.000000 1 0 0
4.489570 5.770915 -2.167814 7.626213 0.909637 1.859029 0.001231 -0.001121 269561.000000 1 0 0
-1.648830 -10.440385 1.457586 10.669809 1.414162 1.433759 0.004294 -0.003979 -1097410.000000 1 0 0
-3.016830 12.135915 -13.095814 18.107513 -1.327148 2.379258 0.009283 -0.004938 173572.000000 1 0 0
8.306770 4.164615 -9.652514 13.398413 0.464729 2.375207 0.003558 0.000960 -1209150.000000 1 0 0
4.118170 7.573415 -8.984314 12.451258 1.072751 2.376847 0.001951 0.000515 -878382.000000 1 0 0
-1.670230 -5.004285 -2.457114 5.819789 1.248662 2.006667 0.003213 -0.002203 -624316.000000 1 0 0
-3.254730 -8.986885 6.968086 11.828423 1.223326 0.940856 -0.001203 -0.001384 59890.100000 1 0 0
1.127470 7.147715 -1.363614 7.363455 1.414347 1.757058 0.001728 -0.001252 689868.000000 1 0 0
0.248470 -0.982185 -2.190414 2.413366 -1.323018 2.708370 0.003845 0.000144 -2041120.000000 1 0 0
4.136870 -6.730185 7.443586 10.854311 -1.019657 0.815132 -0.003210 -0.000001 750673.000000 1 0 0
-13.916030 3.742415 6.002486 15.610618 -0.262713 1.176116 0.002075 0.001411 -1363920.000000 1 0 0
4.286870 6.537115 12.481686 14.727648 0.990373 0.559538 0.004311 -0.004318 -1395610.000000 1 0 0
8.295070 10.059415 -7.122614 14.857040 0.881230 2.070779 0.010085 0.000511 325878.000000 1 0 0
12.451770 5.287215 9.533586 16.549637 0.401545 0.956896 0.017062 0.001293 -224456.000000 1 0 0
7.568770 4.026715 0.437286 8.584401 0.488932 1.519835 0.002319 0.002750 -2406490.000000 1 0 0
-10.814130 -7.552585 -0.963314 13.225540 0.609651 1.643698 0.009064 -0.005877 -1814330.000000 1 0 0
10.523170 6.879215 0.138486 12.572982 0.578986 1.559781 0.005538 0.002859 -1036670.000000 1 0 0
14.698070 3.594415 4.031786 15.659131 0.239843 1.310391 0.018646 -0.003246 156894.000000 1 0 0
2.145970 5.757515 8.200386 10.246976 1.214022 0.643045 -0.003213 0.002345 789005.000000 1 0 0
4.252870 0.214015 11.722286 12.471756 0.050280 0.348440 -0.005239 0.002489 -4025540.000000 1 0 0
-1.635330 -1.430485 -0.432514 2.215324 0.718681 1.767296 0.005953 -0.004700 -1141010.000000 1 0 0
3.036770 -5.163385 -9.406614 11.151990 -1.039146 2.574548 -0.005639 -0.001215 -393525.000000 1 0 0
-3.958430 -5.274585 -1.404014 6.742527 0.926993 1.780564 0.004795 -0.003327 -70778.000000 1 0 0
-1.407230 -8.739485 8.717186 12.423696 1.411147 0.793074 -0.003945 -0.004538 70028.700000 1 0 0
3.900970 8.569015 -5.954914 11.140314 1.143592 2.134757 0.003515 -0.000019 -3860.360000 1 0 0
-14.393730 -1.751885 -2.694514 14.748185 0.121116 1.754530 0.008952 -0.004494 -1348470.000000 1 0 0
8.894470 -10.613185 -6.528514 15.309238 -0.873276 2.011353 -0.000026 -0.003477 196288.000000 1 0 0
14.878170 6.033615 1.500586 16.125018 0.385269 1.477602 0.003287 0.003275 -441810.000000 1 0 0
-5.769030 0.443815 -8.570614 10.340894 -0.076779 2.547770 0.012561 -0.005974 -168980.000000 1 0 0
-7.947830 -4.674885 -12.963014 15.907931 0.531695 2.523314 0.006442 -0.004174 910208.000000 1 0 0
0.860370 -10.690385 12.071286 16.147462 -1.490489 0.726407 -0.010589 -0.000165 -328815.000000 1 0 0
0.331870 11.791615 3.356686 12.264570 1.542659 1.293569 0.008616 -0.004504 -1407430.000000 1 0 0
5.106770 -13.284785 -3.646314 14.692182 -1.203804 1.821598 0.000950 -0.003826 147360.000000 1 0 0
-7.520830 1.517915 -7.067114 10.431253 -0.199153 2.315147 0.004636 -0.001592 714407.000000 1 0 0
1.521170 2.886415 4.122986 5.257791 1.085775 0.669444 0.000479 0.000867 -1599390.000000 1 0 0
17.273470 5.393015 2.310586 18.242702 0.302624 1.443797 0.011980 0.000852 -761894.000000 1 0 0
2.320170 -8.213385 -3.523914 9.233680 -1.295483 1.962363 -0.003096 -0.003200 678459.000000 1 0 0
-0.438730 -9.263285 -0.663114 9.297346 1.523469 1.642180 0.005342 -0.002774 -1048710.000000 1 0 0
0.748970 11.879315 -5.677214 13.187488 1.507831 2.015843 -0.002760 0.002065 -1095980.000000 1 0 0
6.099070 -4.967185 7.793386 11.072870 -0.683470 0.790026 -0.003069 -0.000848 -668182.000000 1 0 0
-5.970330 -1.919285 -9.498814 11.382265 0.311036 2.558071 0.014318 -0.005099 -344585.000000 1 0 0
2.155570 -1.190385 11.218286 11.485358 -0.504559 0.216074 -0.004624 -0.001721 -228723.000000 1 0 0
17.986570 2.113515 -5.794014 19.014580 0.116969 1.880435 0.008846 0.008577 -1357300.000000 1 0 0
-8.825630 4.862115 7.825386 12.758079 -0.503541 0.910479 -0.001492 0.002142 677724.000000 1 0 0
11.297270 -7.114485 -4.731614 14.164476 -0.562010 1.911391 0.015960 -0.009961 47335.800000 1 0 0
10.794170 0.601015 8.924186 14.018432 0.055622 0.880710 0.007119 -0.002954 140620.000000 1 0 0
-8.487530 -7.375185 -1.582214 11.354951 0.715389 1.710593 0.008553 -0.004601 -708169.000000 1 0 0
10.214070 -10.506585 -3.151814 14.988311 -0.799514 1.782663 0.013847 -0.007020 929829.000000 1 0 0
7.669670 -13.982485 -3.728514 16.377898 -1.069090 1.800465 0.009132 -0.004768 -852081.000000 1 0 0
1.777270 -1.060985 -11.677714 11.859737 -0.538192 2.966165 0.002134 -0.005181 435212.000000 1 0 0
-11.747630 -2.526085 -6.540014 13.680632 0.211804 2.069229 0.009287 -0.002259 307550.000000 1 0 0
2.759770 -12.166485 -6.326714 13.988101 -1.347737 2.040130 -0.001484 -0.002066 967533.000000 1 0 0
-5.497730 1.435215 1.130886 5.793426 -0.255357 1.374333 -0.000923 -0.001736 600523.000000 1 0 0
0.147970 6.872415 -3.977314 7.941726 1.549269 2.095333 0.003466 -0.000905 1235090.000000 1 0 0
5.406270 -11.773585 3.636686 13.456245 -1.140329 1.297133 -0.003803 -0.004165 -1900450.000000 1 0 0
-4.353030 -9.310485 1.142886 10.341189 1.133452 1.460052 0.008553 -0.003577 -716203.000000 1 0 0
7.098670 -6.288285 -4.650314 10.562152 -0.724936 2.026708 -0.000646 -0.005531 -1203040.000000 1 0 0
-6.930130 -6.047685 2.153386 9.446601 0.717506 1.340821 0.004567 -0.002376 -443133.000000 1 0 0
-6.158130 -0.748185 7.114586 9.439263 0.120903 0.717088 -0.001093 -0.000151 -1063000.000000 1 0 0
4.081170 -5.019085 3.205486 7.219578 -0.888100 1.110739 -0.000421 -0.002944 -525844.000000 1 0 0
-2.506630 10.448015 -8.893414 13.947653 -1.335332 2.262211 0.000089 -0.000856 -770765.000000 1 0 0
-2.314230 -4.882985 2.787486 6.080237 1.128215 1.094546 0.000730 -0.003414 -298319.000000 1 0 0
15.102970 4.950415 6.290786 17.093283 0.316742 1.193910 0.023716 -0.005723 -291153.000000 1 0 0
6.842070 0.395615 0.202186 6.856480 0.057757 1.541304 0.002743 -0.000753 4276050.000000 1 0 0
-9.787230 9.300315 0.392286 13.507021 -0.759894 1.541749 -0.001027 -0.001004 -2098740.000000 1 0 0
7.155570 10.520715 -2.608914 12.988228 0.973523 1.773040 0.005150 -0.003155 -595440.000000 1 0 0
1.624670 -4.228885 -5.370814 7.026283 -1.203998 2.440889 -0.003014 -0.003192 132516.000000 1 0 0
0.944070 -8.249085 -7.887514 11.452141 -1.456847 2.330542 -0.001602 -0.000171 -1128270.000000 1 0 0
-10.444830 0.185515 -10.504914 14.814928 -0.017760 2.358984 0.007128 -0.002825 -2849470.000000 1 0 0
5.810970 -2.481685 0.443286 6.334243 -0.403622 1.500757 0.002181 -0.001911 -80504.900000 1 0 0
-3.357730 5.361115 -1.029514 6.409041 -1.011254 1.732130 0.000980 -0.001859 1263360.000000 1 0 0
-0.383030 4.618415 -5.118114 6.904459 -1.488050 2.405767 0.002165 -0.003099 -722052.000000 1 0 0
3.923970 -9.668485 9.981586 14.439848 -1.185256 0.807575 -0.007053 -0.000535 -3243100.000000 1 0 0
7.270270 -13.501885 -0.726314 15.352044 -1.076854 1.618125 0.010770 -0.006877 518204.000000 1 0 0
12.898770 -0.012585 0.511486 12.908913 -0.000976 1.531163 0.005430 -0.003291 62726.600000 1 0 0
9.290070 2.419515 -0.622914 9.620160 0.254781 1.635593 0.003924 0.000585 -639868.000000 1 0 0
-0.730730 -5.697885 4.521186 7.310334 1.443247 0.904008 -0.000525 -0.002016 -394287.000000 1 0 0
11.440570 -3.811585 3.340186 12.512860 -0.321598 1.300580 0.005914 -0.003155 -2602080.000000 1 0 0
1.562170 -8.118585 11.737486 14.356893 -1.380701 0.613652 -0.007377 -0.000467 291066.000000 1 0 0
9.346170 -5.820685 -5.830014 12.458745 -0.557007 2.057761 -0.000310 -0.007639 -1951690.000000 1 0 0
3.237770 6.341115 -0.100514 7.120604 1.098705 1.584913 0.001026 0.000569 -1022540.000000 1 0 0
6.396970 -1.293785 11.485486 13.210280 -0.199558 0.516738 -0.003561 0.000933 224042.000000 1 0 0
-4.971630 -7.550985 -3.858614 9.829719 0.988533 1.974194 0.010862 -0.001775 -254509.000000 1 0 0
-3.419630 -8.414485 -5.733414 10.741017 1.184787 2.133869 0.013377 -0.000805 57702.900000 1 0 0
9.755470 5.444415 2.106686 11.368772 0.509032 1.384414 0.004259 0.000380 -55188.800000 1 0 0
8.899870 -1.442685 0.344286 9.022614 -0.160704 1.532629 0.004964 -0.000809 1362670.000000 1 0 0
-3.944430 9.702115 9.196186 13.937698 -1.184653 0.850235 0.002940 -0.002594 384914.000000 1 0 0
-14.332530 -3.445785 -6.082014 15.946339 0.235939 1.962112 0.008933 -0.007969 765005.000000 1 0 0
10.616970 6.277115 -5.968014 13.701803 0.533949 2.021461 0.005811 0.000894 -770772.000000 1 0 0
-1.758630 4.524715 2.797986 5.603085 -1.200093 1.047930 0.002603 -0.002849 211403.000000 1 0 0
7.016870 -3.727985 2.574186 8.352291 -0.488364 1.257495 0.000989 -0.003745 -1320560.000000 1 0 0
8.275570 -11.210685 -1.564414 14.021836 -0.934899 1.682599 0.009661 -0.006673 -2166780.000000 1 0 0
4.520770 0.445315 1.831486 4.897960 0.098188 1.187555 0.001845 0.000221 11446.100000 1 0 0
-10.743930 2.278315 3.824286 11.629614 -0.208961 1.235721 -0.003487 -0.000045 20621.300000 1 0 0
-0.886930 -2.994685 4.432786 5.422580 1.282859 0.613795 0.001659 -0.002715 304976.000000 1 0 0
8.536070 -8.752485 -8.486314 14.882473 -0.797915 2.177572 0.000159 -0.004509 -338035.000000 1 0 0
12.071670 -4.782885 1.026386 13.025155 -0.377233 1.491914 0.004514 -0.002746 206396.000000 1 0 0
2.988670 4.917115 3.581186 6.777541 1.024654 1.014093 -0.001631 0.000373 -533425.000000 1 0 0
6.093870 7.560315 1.980386 9.910376 0.892387 1.369612 0.001786 0.001061 -241753.000000 1 0 0
-1.634230 -1.462485 -10.369014 10.598397 0.729994 2.933162 0.008379 -0.006083 106592.000000 1 0 0
-0.853030 -8.459385 6.081886 10.453621 1.470298 0.949860 -0.001484 -0.003811 -92163.300000 1 0 0
-4.303430 -0.342685 2.358386 4.919241 0.079463 1.070802 -0.000701 -0.001814 296629.000000 1 0 0
-8.460230 6.294115 -7.918014 13.186596 -0.639628 2.214872 -0.003663 -0.002921 -1029490.000000 1 0 0
6.494870 11.191915 -9.389614 15.987719 1.044975 2.198517 0.005932 -0.001311 461900.000000 1 0 0
-11.228330 -5.743885 3.098586 12.987257 0.472847 1.329886 0.007389 -0.002090 1569430.000000 1 0 0
1.456470 -6.197685 2.980286 7.029559 -1.339982 1.132978 0.000394 -0.003716 573984.000000 1 0 0
10.213370 2.165915 7.194086 12.679077 0.208971 0.967453 0.004818 -0.000378 -1723330.000000 1 0 0
-4.056230 -2.642285 -10.606714 11.659204 0.577369 2.713427 0.012071 -0.003937 -2183380.000000 1 0 0
-8.360630 11.882515 5.816686 15.650180 -0.957653 1.189990 0.006106 -0.003792 -594116.000000 1 0 0
6.922270 5.885815 -2.993014 9.566545 0.704652 1.889002 0.004319 0.000418 -2489510.000000 1 0 0
3.835670 -9.817685 -2.205114 10.768557 -1.198342 1.777028 -0.001240 -0.005718 -1601870.000000 1 0 0
8.560970 -13.016585 -7.236214 17.178023 -0.989029 2.005618 0.005217 -0.002119 253182.000000 1 0 0
-1.149030 9.536915 3.697486 10.292931 -1.450892 1.203358 0.005910 -0.002794 43637.900000 1 0 0
0.532570 -13.189385 4.717586 14.017814 -1.530440 1.227554 0.007964 -0.004367 -824694.000000 1 0 0
-11.104430 -6.846885 -4.972114 13.961021 0.552529 1.934933 0.004709 -0.006765 154725.000000 1 0 0
3.620370 10.257915 -3.387214 11.393205 1.231510 1.872661 0.006710 -0.003146 -475105.000000 1 0 0
11.595570 -8.265185 -7.202314 15.957564 -0.619257 2.039065 0.022654 -0.009670 204093.000000 1 0 0
11.697770 -4.817085 -5.822414 13.926328 -0.390633 2.002134 0.012805 -0.006678 -1211020.000000 1 0 0
1.244970 -10.346185 -2.593014 10.738585 -1.451041 1.814674 -0.001255 -0.001605 -1365250.000000 1 0 0
2.382170 -12.060285 -3.767414 12.857628 -1.375785 1.868170 0.000761 -0.003293 -1660390.000000 1 0 0
-7.617630 -5.744685 7.221786 11.965947 0.646139 0.922878 -0.000523 0.000134 -1931060.000000 1 0 0
-7.240530 -0.740285 9.447986 11.926347 0.101888 0.656400 -0.001027 0.000696 -332868.000000 1 0 0
16.214170 2.503115 -7.603014 18.082331 0.153169 2.004756 0.016324 0.004680 573124.000000 1 0 0
-2.029930 6.337615 -5.490614 8.627446 -1.260822 2.260635 0.001797 -0.000677 -1158510.000000 1 0 0
7.723570 1.274615 8.344486 11.441531 0.163555 0.753475 0.002439 0.001489 -755822.000000 1 0 0
7.929170 8.321815 -3.704314 12.076684 0.809555 1.882555 0.005232 0.001177 -454790.000000 1 0 0
8.065370 0.682215 3.946886 9.005194 0.084385 1.117101 0.001874 -0.002407 1136320.000000 1 0 0
-7.009330 5.905915 5.351386 10.613571 -0.700170 1.042338 0.001792 -0.003185 28848.000000 1 0 0
-6.039930 -1.984085 -4.655114 7.879558 0.317389 2.202826 0.009032 -0.003174 -775633.000000 1 0 0
-15.186930 -2.107185 3.116486 15.645944 0.137870 1.370267 0.023593 -0.004644 45076.700000 1 0 0
1.149170 1.234415 -10.446214 10.581482 0.821146 2.981525 0.006608 -0.006631 557742.000000 1 0 0
1.446070 -9.239585 9.395386 13.256483 -1.415548 0.783087 -0.004572 -0.002858 -1314290.000000 1 0 0
-0.157030 -6.683685 -1.143114 6.782552 1.547306 1.740142 0.001580 -0.001916 821116.000000 1 0 0
-0.423130 -10.310485 -8.393914 13.301989 1.529781 2.253673 0.003999 0.000511 -475932.000000 1 0 0
-4.300130 6.585815 3.773886 8.723893 -0.992358 1.123431 0.002871 -0.001695 -430501.000000 1 0 0
10.622470 -1.243985 -8.621614 13.737416 -0.116578 2.249264 0.020201 -0.002120 377286.000000 1 0 0
3.082170 -0.986485 6.313786 7.094845 -0.309759 0.473644 -0.000153 -0.000061 860423.000000 1 0 0
2.006670 -12.334185 6.763386 14.209230 -1.409518 1.074712 0.001465 -0.002739 -180227.000000 1 0 0
2.812470 -4.933185 -1.333114 5.832966 -1.052643 1.801382 0.006110 -0.004839 -1163180.000000 1 0 0
-1.020730 9.573815 -1.613114 9.762273 -1.464581 1.736797 0.002538 -0.000813 343903.000000 1 0 0
4.601170 -2.553285 2.610586 5.874112 -0.506613 1.110267 0.002087 -0.001871 -2316710.000000 1 0 0
17.691370 6.743915 -2.770214 19.134760 0.364193 1.716081 0.010752 0.014211 -127627.000000 1 0 0
-7.094830 3.527115 -5.463014 9.624015 -0.461356 2.174437 0.002487 -0.002506 573032.000000 1 0 0
-13.905530 -5.967385 2.147986 15.283563 0.405370 1.429787 0.012419 -0.005214 544869.000000 1 0 0
6.696470 -6.061185 3.201386 9.582773 -0.735643 1.230170 0.000007 -0.004230 1993810.000000 1 0 0
-4.661130 1.946715 3.516086 6.154567 -0.395628 0.962711 0.001821 -0.001981 205532.000000 1 0 0
6.947670 -12.120585 -5.326814 14.951710 -1.050306 1.935067 0.002893 -0.003235 737029.000000 1 0 0
2.859170 -12.293885 3.273386 13.039536 -1.342290 1.317046 0.003495 -0.005243 -310571.000000 1 0 0
3.275870 11.263715 -6.064614 13.205383 1.287770 2.047951 0.000991 0.000364 -490983.000000 1 0 0
-5.608030 -8.377985 6.363486 11.922021 0.980920 1.007757 0.002886 0.000172 -831111.000000 1 0 0
-3.996730 6.543515 6.291286 9.918252 -1.022479 0.883675 0.003992 -0.000701 392979.000000 1 0 0
4.312670 4.441115 -7.052214 9.383834 0.800070 2.421171 -0.001625 0.001844 -2223760.000000 1 0 0
-0.310230 -2.667785 1.594486 3.123412 1.455029 1.035036 0.001328 -0.003313 -1064650.000000 1 0 0
-13.158530 -0.972085 6.605886 14.755663 0.073741 1.106622 0.008484 0.000380 -619971.000000 1 0 0
-0.566330 -9.240685 -5.960914 11.011061 1.509586 2.142846 0.002250 -0.000562 65826.800000 1 0 0
1.989270 -1.662985 -3.936014 4.713270 -0.696297 2.559096 -0.001055 -0.000998 -1237780.000000 1 0 0
11.384670 -2.031485 1.146286 11.621171 -0.176582 1.471998 0.004649 -0.000716 933964.000000 1 0 0
0.540770 -4.238485 -2.007414 4.720900 -1.443896 2.010000 0.001731 -0.001959 -2064650.000000 1 0 0
1.134570 -7.427985 -11.280914 13.554380 -1.419225 2.553988 -0.002094 0.002370 -1319570.000000 1 0 0
-4.367030 4.156915 -9.994114 11.671898 -0.760753 2.598771 0.004198 -0.004822 -222666.000000 1 0 0
-1.019030 5.768915 -2.078414 6.215996 -1.395958 1.911728 0.000836 -0.001460 -69507.600000 1 0 0
-11.347830 1.699915 -3.931014 12.129131 -0.148695 1.900853 0.004232 0.000330 -534981.000000 1 0 0
-1.797530 -11.186785 4.225286 12.092490 1.411475 1.213851 0.007015 -0.003182 -443480.000000 1 0 0
-3.565930 -5.540985 -9.680014 11.709869 0.998965 2.543932 0.007766 0.000846 -1319940.000000 1 0 0
-12.886830 -3.782485 -8.362314 15.821058 0.285497 2.127695 0.013971 -0.003077 -45797.000000 1 0 0
11.386570 4.442015 0.408386 12.229156 0.371952 1.537396 0.005567 0.002487 492206.000000 1 0 0
-8.921930 -2.318085 -3.079114 9.718811 0.254198 1.893171 0.005786 -0.002587 172529.000000 1 0 0
-2.510730 -6.102085 -6.430014 9.213266 1.180455 2.343269 0.005565 -0.001494 928558.000000 1 0 0
-0.067930 2.732915 -1.793614 3.269632 -1.545945 2.151446 -0.001052 -0.001925 -1549280.000000 1 0 0
8.058070 6.079415 -5.156414 11.334919 0.646343 2.043072 0.003268 0.000980 -367891.000000 1 0 0
-9.778330 -0.818085 -1.020714 9.865438 0.083469 1.674445 0.002904 -0.000012 103977.000000 1 0 0
6.200470 0.500015 -8.877914 10.840350 0.080467 2.530409 -0.005392 -0.000084 441507.000000 1 0 0
-3.995530 2.494915 7.766286 9.083175 -0.558187 0.545209 -0.002232 0.003262 1301320.000000 1 0 0
-10.224730 -3.317585 1.352586 10.834250 0.313749 1.445626 0.002675 -0.002482 3280700.000000 1 0 0
-1.829430 -8.175985 -7.835814 11.471422 1.350666 2.322758 0.006824 -0.001993 91880.200000 1 0 0
-9.356530 -9.921485 4.185386 14.265272 0.814695 1.273018 0.001491 -0.001009 -494881.000000 1 0 0
-0.985930 -10.650785 7.281486 12.939525 1.478491 0.973109 0.001217 -0.003359 194656.000000 1 0 0
9.414770 3.771815 -3.839214 10.844540 0.381047 1.932665 0.002750 0.001908 -543712.000000 1 0 0
12.876170 -0.780485 3.023886 13.249483 -0.060541 1.340540 0.007734 -0.002412 -101284.000000 1 0 0
6.432070 11.865915 -6.890414 15.154183 1.074067 2.042817 0.005238 -0.000242 66925.900000 1 0 0
-11.953830 0.037915 -6.553214 13.632318 -0.003172 2.072262 0.004918 0.002314 623352.000000 1 0 0
-7.577030 -6.712385 -11.546114 15.355137 0.724962 2.421794 0.009517 -0.002448 -1766540.000000 1 0 0
4.264470 5.966215 6.666186 9.910574 0.950226 0.833034 -0.001741 0.003327 -4065720.000000 1 0 0
-4.199330 -1.350985 -7.448214 8.656525 0.311257 2.606882 0.009130 -0.005607 -829753.000000 1 0 0
9.578070 9.290215 0.822086 13.368745 0.770143 1.509264 0.008320 0.001897 -1477060.000000 1 0 0
-8.880130 3.989615 4.867686 10.884306 -0.422250 1.107141 -0.001999 -0.000273 -92925.800000 1 0 0
-7.036930 7.808315 -12.252014 16.143110 -0.837313 2.432514 -0.004131 -0.003124 -1085100.000000 1 0 0
11.165070 -3.598785 7.266086 13.798770 -0.311811 1.016230 0.007915 -0.003377 585230.000000 1 0 0
11.912170 6.860115 6.344386 15.139756 0.522504 1.138392 0.009914 0.002964 78074.500000 1 0 0
-9.921030 -0.861985 -14.827014 17.860856 0.086667 2.550155 0.007644 -0.000018 598958.000000 1 0 0
1.798870 -13.075285 11.979886 17.824609 -1.434077 0.833758 -0.005609 -0.000971 -301804.000000 1 0 0
2.955970 3.059815 13.011286 13.689186 0.802659 0.316022 -0.008378 0.001371 -1283050.000000 1 0 0
-2.635730 -1.444485 11.028286 11.430517 0.501337 0.266073 0.004312 -0.001031 -329887.000000 1 0 0
2.643370 -10.130485 -8.217914 13.309704 -1.315555 2.236278 -0.009195 0.002778 -935045.000000 1 0 0
13.934670 3.619615 -7.454914 16.212723 0.254140 2.048587 0.014674 0.000384 -2097690.000000 1 0 0
7.370970 -1.558285 4.933786 9.005648 -0.208341 0.990999 0.000410 -0.001464 207494.000000 1 0 0
-1.093230 8.764615 10.091986 13.411257 -1.446705 0.718945 0.004908 -0.001422 247712.000000 1 0 0
-12.302130 -4.673385 0.892886 13.190154 0.363046 1.503051 0.006286 -0.004516 210196.000000 1 0 0
-4.893930 4.897615 -5.386614 8.772274 -0.785775 2.231978 0.002631 -0.003663 -247264.000000 1 0 0
-11.180830 0.262115 2.074986 11.374763 -0.023439 1.387349 -0.001723 0.001544 -3489670.000000 1 0 0
-1.378830 2.337815 -4.050114 4.875446 -1.037915 2.551190 0.001093 -0.003666 974429.000000 1 0 0
3.127970 -9.750385 13.059586 16.595391 -1.260364 0.664961 -0.005925 -0.000028 -1754620.000000 1 0 0
8.950170 4.683715 -1.503914 10.212957 0.482121 1.718589 0.004158 -0.000354 -1792940.000000 1 0 0
4.073470 2.285915 3.734186 5.980194 0.511380 0.896400 -0.001750 0.001401 338952.000000 1 0 0
-5.523630 -3.331085 7.423186 9.834140 0.542667 0.715389 0.000782 -0.003328 132424.000000 1 0 0
1.796670 -5.794585 7.680586 9.787576 -1.270136 0.668539 -0.003139 -0.003686 -1552000.000000 1 0 0
-5.845630 -6.382685 -9.764514 13.048210 0.829289 2.416354 0.011960 -0.004287 -724616.000000 1 0 0
-11.685730 -5.847885 5.440886 14.154762 0.463991 1.176254 0.008707 -0.001394 -1112230.000000 1 0 0
10.561370 6.107615 4.452786 12.987410 0.524309 1.220843 0.003821 0.002000 -1087390.000000 1 0 0
1.408170 -3.605485 0.358086 3.887247 -1.198451 1.478547 0.007615 -0.004177 -729884.000000 1 0 0
8.796570 4.321415 6.980286 12.032401 0.456632 0.951915 0.002484 0.004086 122016.000000 1 0 0
-7.996630 12.117315 3.456786 14.923967 -0.987469 1.337047 0.004515 -0.007092 105630.000000 1 0 0
-6.107730 13.187615 -6.987114 16.125673 -1.137068 2.018938 0.005409 -0.007490 418269.000000 1 0 0
4.469270 -6.926085 -0.974414 8.300271 -0.997746 1.688463 0.003200 -0.007211 -1191140.000000 1 0 0
-1.881630 -8.123285 11.192886 13.957399 1.343176 0.640274 -0.005323 -0.004133 -347017.000000 1 0 0
11.591670 8.818715 -5.798314 15.676638 0.650365 1.949665 0.014956 -0.000817 439001.000000 1 0 0
-3.311230 -2.895785 -1.933414 4.804987 0.718566 1.984908 0.005625 -0.002523 -1543070.000000 1 0 0
-2.053730 6.025615 4.814086 7.981308 -1.242311 0.923327 0.003985 -0.000550 -398722.000000 1 0 0
0.381270 -11.371785 -5.557414 12.662847 -1.537281 2.025143 0.001406 -0.001925 -460147.000000 1 0 0
-8.870930 6.230615 -1.529314 10.947729 -0.612310 1.710947 0.000713 0.002898 -1001750.000000 1 0 0
2.958170 -0.033685 3.937886 4.925328 -0.011386 0.644305 -0.000051 -0.000737 -231596.000000 1 0 0
-10.097930 4.025415 -0.982614 10.915021 -0.379331 1.660942 0.001288 0.001648 70296.200000 1 0 0
6.472270 5.545115 13.623286 16.069615 0.708400 0.559036 0.003202 0.000218 -883715.000000 1 0 0
-8.783230 -1.697685 5.630386 10.570171 0.190933 1.009047 -0.002005 -0.001460 -32150.300000 1 0 0
12.879770 -1.784585 -1.475714 13.086288 -0.137681 1.683805 0.011689 -0.002812 -1301190.000000 1 0 0
5.243870 -5.382185 5.352186 9.225616 -0.798414 0.951891 -0.001984 -0.002902 30374.500000 1 0 0
-8.988330 -1.333985 3.134386 9.612178 0.147337 1.238637 -0.001198 -0.000906 722099.000000 1 0 0
2.072970 5.549615 5.602086 8.153454 1.213312 0.813332 0.001309 0.000098 -516518.000000 1 0 0
9.210970 2.965315 -7.459014 12.217690 0.311455 2.227500 0.004470 0.001878 -1137690.000000 1 0 0
2.282170 -2.327185 -1.585414 3.624586 -0.795164 2.023508 0.000993 -0.002332 -428681.000000 1 0 0
-6.169530 0.425415 -3.961814 7.344389 -0.068845 2.140561 0.004252 -0.000175 -1651830.000000 1 0 0
-4.030630 4.179015 4.989686 7.655529 -0.803471 0.860873 0.001253 0.000341 444212.000000 1 0 0
-6.413430 1.738015 -12.394614 14.063400 -0.264640 2.649484 0.004844 -0.003103 -2666900.000000 1 0 0
-0.204530 3.075715 6.162486 6.890435 -1.504396 0.463812 0.000623 0.001190 1358170.000000 1 0 0
-8.677430 9.462015 -2.088814 13.007331 -0.828624 1.732082 -0.000094 0.001289 1026720.000000 1 0 0
-1.330730 -3.757985 -6.150114 7.329201 1.230467 2.566468 0.000781 -0.002034 227817.000000 1 0 0
-3.457330 6.957115 -2.919014 8.299110 -1.109593 1.930211 0.000464 0.002194 1207270.000000 1 0 0
7.034270 -0.323785 -4.261514 8.230813 -0.045997 2.115017 -0.002331 0.000282 -285541.000000 1 0 0
-5.186530 -10.835285 6.855186 13.831018 1.124358 1.052226 -0.001641 -0.001618 538966.000000 1 0 0
9.687270 8.407615 -1.541414 12.919255 0.714797 1.690393 0.007537 0.001630 -76347.700000 1 0 0
13.882770 4.590215 -4.287414 15.237562 0.319326 1.856019 0.012270 -0.000395 653647.000000 1 0 0
4.696970 1.085115 -6.791114 8.328159 0.227041 2.524285 -0.007063 0.001054 -974622.000000 1 0 0
9.032870 -4.851585 3.705086 10.902214 -0.492888 1.224042 0.002908 -0.003066 -184119.000000 1 0 0
-8.793930 -3.235685 -0.816714 9.405843 0.352571 1.657736 0.002872 -0.001339 19309.900000 1 0 0
-8.608430 -4.430085 -10.405714 14.213008 0.475276 2.392234 0.006508 -0.005207 178285.000000 1 0 0
10.437170 -1.203485 10.599286 14.924067 -0.114801 0.780994 0.000123 0.001770 904739.000000 1 0 0
2.141170 -11.569185 9.822286 15.326707 -1.387792 0.875177 -0.006440 -0.003686 333909.000000 1 0 0
-6.398530 -10.608985 1.932586 12.539004 1.028083 1.416054 0.007488 -0.002386 -1230410.000000 1 0 0
-3.699030 -1.512485 6.680586 7.784643 0.388144 0.539092 0.003603 -0.001959 -1793850.000000 1 0 0
4.726470 -7.504685 3.889886 9.684577 -1.008751 1.157470 -0.002038 -0.001964 267034.000000 1 0 0
11.526170 -9.531385 -5.176314 15.827006 -0.690950 1.903983 0.018049 -0.011005 189775.000000 1 0 0
11.267270 1.137915 11.528586 16.160276 0.100652 0.776472 0.003508 0.001328 -161202.000000 1 0 0
-10.222130 -3.515485 4.335686 11.646834 0.331238 1.189350 0.003845 -0.002230 1143780.000000 1 0 0
2.076870 8.824715 8.844586 12.665532 1.339656 0.797749 0.001216 -0.000801 -198005.000000 1 0 0
6.665470 8.912215 4.152486 11.878519 0.928639 1.213674 0.002817 0.001412 621035.000000 1 0 0
-4.338930 3.627915 0.446186 5.673373 -0.696387 1.492069 0.001695 -0.001956 -1257000.000000 1 0 0
4.952670 7.027415 4.222086 9.578075 0.956880 1.114298 0.001040 0.001041 -1244090.000000 1 0 0
-8.350530 13.100515 1.070686 15.572451 -1.003316 1.501987 0.006514 -0.005390 -495777.000000 1 0 0
8.865570 8.205715 -9.154614 15.157145 0.746765 2.219282 0.006948 -0.004434 -220170.000000 1 0 0
7.124770 1.934415 6.065186 9.554622 0.265115 0.883059 -0.001400 0.002057 -715256.000000 1 0 0
11.468370 -6.230685 3.112086 13.417527 -0.497679 1.336723 0.005774 -0.000551 -335163.000000 1 0 0
11.382470 4.753515 -2.156514 12.522263 0.395601 1.743874 0.006802 0.003055 417273.000000 1 0 0
-3.942530 14.340915 -5.994114 16.035423 -1.302509 1.953904 -0.000283 0.001169 -1344520.000000 1 0 0
7.152070 -3.005985 6.890186 10.376065 -0.397879 0.844579 0.001622 -0.003552 -819713.000000 1 0 0
-7.996430 -0.508285 0.846686 8.057178 0.063479 1.465517 0.000476 -0.001027 425944.000000 1 0 0
-3.132230 1.081715 10.700786 11.202134 -0.332526 0.300308 0.000899 0.005649 191834.000000 1 0 0
7.098570 -1.328385 -1.843314 7.453328 -0.184994 1.820704 0.001570 -0.001218 -3045640.000000 1 0 0
-7.744830 5.467015 2.962386 9.932089 -0.614670 1.267923 0.000129 0.000345 758913.000000 1 0 0
9.462870 -2.230385 2.914086 10.149504 -0.231474 1.279581 0.002643 -0.002258 -1667980.000000 1 0 0
0.224570 3.461715 1.641286 3.837672 1.506015 1.128874 0.000737 -0.000810 -4611340.000000 1 0 0
-7.546230 -3.208385 4.033386 9.138245 0.402009 1.113667 -0.001456 -0.001207 -1054630.000000 1 0 0
-2.227230 8.417815 -6.699214 10.986338 -1.312138 2.226575 -0.001031 -0.000099 -605113.000000 1 0 0
4.613970 9.777815 7.164486 12.970129 1.129896 0.985575 0.001683 0.003425 1711270.000000 1 0 0
-11.764430 -3.138885 6.846986 13.969096 0.260738 1.058532 0.007290 -0.001377 -1932460.000000 1 0 0
-4.688430 2.366715 -5.705714 7.754862 -0.467480 2.397584 0.007563 -0.004309 -600559.000000 1 0 0
-2.733230 2.937715 -1.778514 4.389058 -0.821441 1.988011 0.000729 -0.001522 1047270.000000 1 0 0
2.378270 5.278315 11.383186 12.770815 1.147465 0.470495 -0.000596 -0.001790 297625.000000 1 0 0
-0.596730 1.633515 4.513786 4.837223 -1.220553 0.367758 0.001403 -0.001512 81846.800000 1 0 0
5.103670 1.604215 7.638486 9.325633 0.304547 0.610982 -0.002896 0.001988 869694.000000 1 0 0
3.364370 -8.076985 1.832686 8.939542 -1.176115 1.364323 -0.000068 -0.003565 2571840.000000 1 0 0
5.011370 6.397115 -4.682114 9.378651 0.906272 2.093507 0.003884 -0.000708 -2191840.000000 1 0 0
-4.098330 3.023015 -7.985114 9.470848 -0.635532 2.573866 0.008907 -0.010161 689430.000000 1 0 0
-8.817830 -2.278285 -12.966114 15.845025 0.252843 2.529258 0.009120 -0.005202 1988680.000000 1 0 0
-7.833030 8.193215 1.131586 11.391472 -0.807869 1.471296 0.000743 -0.001056 -2837240.000000 1 0 0
7.320070 0.915415 -6.531014 9.852692 0.124410 2.295436 -0.004055 0.001561 -350107.000000 1 0 0
9.089770 8.971515 5.455586 13.887960 0.778851 1.167091 -0.001672 0.004034 562123.000000 1 0 0
9.363270 -1.047285 -1.378014 9.521898 -0.111387 1.716027 0.004508 -0.002052 1586860.000000 1 0 0
5.463270 0.099915 4.195786 6.889262 0.018287 0.915956 0.000661 0.000719 -1408370.000000 1 0 0
-4.240930 -7.294585 -7.964814 11.603220 1.044180 2.327366 0.012429 -0.003774 -407559.000000 1 0 0
-2.252330 7.480615 -0.587414 7.834389 -1.278341 1.645846 0.002028 -0.001595 137562.000000 1 0 0
13.299370 -3.405385 -7.277814 15.538226 -0.250670 2.058254 0.019048 -0.004493 1354650.000000 1 0 0
-4.757430 -5.072385 1.667586 7.151438 0.817428 1.335448 0.004117 -0.003797 2328030.000000 1 0 0
-8.917730 1.262515 2.555886 9.362287 -0.140639 1.294288 -0.002352 -0.000469 -1098300.000000 1 0 0
-1.082130 11.247615 10.108486 15.161179 -1.474882 0.840977 0.001499 -0.005186 338817.000000 1 0 0
-8.485930 0.337415 7.301086 11.199586 -0.039741 0.860700 -0.002065 -0.001780 -477499.000000 1 0 0
-6.059330 12.877815 -2.033514 14.376675 -1.131006 1.712718 -0.002213 0.001978 -304759.000000 1 0 0
-13.019030 -0.802085 3.316186 13.458662 0.061531 1.321834 0.008536 -0.003839 551225.000000 1 0 0
-6.709030 12.791015 8.642786 16.832080 -1.087733 1.031571 0.015642 -0.013569 1056860.000000 1 0 0
-8.007030 0.819215 -14.119214 16.252256 -0.101957 2.623477 -0.004378 0.001173 -306180.000000 1 0 0
7.318970 2.954015 3.685786 8.710829 0.383615 1.133903 0.000706 0.001331 -662453.000000 1 0 0
-1.649330 0.700415 -1.982214 2.672086 -0.401588 2.406580 0.001167 -0.003081 567798.000000 1 0 0
-6.349430 9.626215 -10.474414 15.578595 -0.987704 2.308188 -0.002431 -0.000502 -73605.900000 1 0 0
-10.173730 13.747315 5.213486 17.879427 -0.933692 1.274906 0.003753 -0.003652 846387.000000 1 0 0
-5.680830 8.397515 2.425486 10.424638 -0.976024 1.335976 0.001222 -0.001933 -583197.000000 1 0 0
-2.503830 -10.662485 -1.238314 11.022303 1.340149 1.683380 0.007432 -0.002723 405504.000000 1 0 0
-2.274430 -12.217785 8.869286 15.267991 1.386746 0.950953 -0.005205 0.000110 722843.000000 1 0 0
-14.727930 -6.448385 -1.594014 16.156561 0.412691 1.669618 0.011442 -0.006515 217457.000000 1 0 0
-2.815930 -9.325685 3.482286 10.345249 1.277548 1.227485 0.002957 -0.004413 -259168.000000 1 0 0
4.627470 -2.701285 7.578986 9.281781 -0.528385 0.615397 -0.003194 -0.000625 -326103.000000 1 0 0
-15.049030 -1.244585 -0.283114 15.103061 0.082514 1.589543 0.008910 -0.005749 83554.400000 1 0 0
5.464170 8.789515 -2.899414 10.747992 1.014596 1.843944 0.003004 -0.000091 -519905.000000 1 0 0
-5.638130 -5.744285 8.547686 11.740880 0.794724 0.755356 0.002720 -0.002398 -1618390.000000 1 0 0
3.437070 3.640515 7.111686 8.697292 0.814135 0.613410 -0.000985 0.001559 307879.000000 1 0 0
3.314870 2.231515 9.347686 10.165986 0.592501 0.403974 -0.000752 0.000081 311780.000000 1 0 0
9.979270 -3.265485 5.245986 11.737529 -0.316245 1.107453 0.004488 -0.003983 -246533.000000 1 0 0
6.563070 9.992415 -5.064914 12.983667 0.989652 1.971535 0.003113 -0.000993 -54067.900000 1 0 0
-4.555230 11.933715 -8.655214 15.429725 -1.206155 2.166322 0.000500 -0.002109 -36688.400000 1 0 0
-3.433230 -7.272985 2.212886 8.341477 1.129756 1.302295 0.003008 -0.006080 683858.000000 1 0 0
-7.406230 -3.927285 1.169686 8.464276 0.487568 1.432162 0.004609 -0.001664 2585780.000000 1 0 0
-1.985030 -4.089185 -10.969014 11.873543 1.118869 2.748737 0.009230 -0.003096 -375903.000000 1 0 0
-5.235030 8.299215 -4.458314 10.777712 -1.008047 1.997267 0.000744 -0.001569 -1796950.000000 1 0 0
-10.965630 -3.378785 -10.024614 15.236604 0.298894 2.288863 0.015901 -0.001795 -191790.000000 1 0 0
4.745070 -11.535585 -7.635714 14.624962 -1.180551 2.120109 -0.001513 -0.000820 -2410090.000000 1 0 0
-9.340930 -3.940385 7.227286 12.450433 0.399192 0.951472 -0.000686 -0.000406 -1640780.000000 1 0 0
-5.804830 -9.673885 -5.167114 12.408834 1.030339 2.000285 0.011727 -0.006882 963027.000000 1 0 0
4.997070 4.306215 -9.566514 11.620343 0.711275 2.537919 -0.002393 0.006361 324058.000000 1 0 0
-3.325430 -7.287385 -14.123514 16.236936 1.142693 2.625671 0.007947 -0.001398 108142.000000 1 0 0
0.657970 -0.862885 -8.804514 8.871130 -0.919328 3.018965 0.003251 -0.005919 432394.000000 1 0 0
-7.692330 2.218415 -2.894614 8.513054 -0.280775 1.917735 0.001722 -0.000158 -284617.000000 1 0 0
-2.344730 7.369215 -12.603614 14.786959 -1.262746 2.591252 0.007117 -0.003277 -17423.900000 1 0 0
-9.854530 8.848015 7.635586 15.287293 -0.731633 1.047806 -0.000267 -0.003712 -313514.000000 1 0 0
-10.665130 -3.170785 -14.412014 18.207279 0.288981 2.484141 0.019918 0.004248 -196774.000000 1 0 0
-3.146230 4.907715 7.985386 9.886902 -1.000719 0.630601 0.000978 0.001611 -259764.000000 1 0 0
8.624170 -2.344885 -3.607014 9.637704 -0.265479 1.954396 0.001897 -0.001122 -4959550.000000 1 0 0
1.925270 -8.373985 -1.121914 8.665389 -1.344813 1.700631 0.001843 -0.002178 -549297.000000 1 0 0
-13.529930 -2.941685 5.051386 14.738691 0.214089 1.220975 0.019333 -0.003802 435650.000000 1 0 0
6.996070 2.747815 -1.871414 7.745816 0.374254 1.814814 0.001803 0.000824 847037.000000 1 0 0
-11.016030 4.406015 8.903086 14.833436 -0.380475 0.927040 0.004013 0.001140 -1480230.000000 1 0 0
-1.729530 -2.602585 7.973086 8.563576 0.984265 0.373526 0.002351 -0.004597 -1726490.000000 1 0 0
2.874470 11.983515 -9.937914 15.831277 1.335376 2.249442 -0.003951 -0.001080 577047.000000 1 0 0
3.574670 -4.961285 -7.047114 9.330296 -0.946436 2.426898 -0.007628 -0.004516 -363874.000000 1 0 0
8.282870 -13.951085 -9.659714 18.882499 -1.035016 2.107807 0.010627 0.006211 329557.000000 1 0 0
-6.306430 -5.682785 -0.371114 8.497225 0.733428 1.614485 0.008286 -0.002328 334879.000000 1 0 0
-1.133730 -4.059085 9.847886 10.711787 1.298431 0.404370 -0.000905 -0.003352 548132.000000 1 0 0
2.758470 3.475315 1.859986 4.811083 0.899889 1.173849 -0.000650 0.001861 -505044.000000 1 0 0
-9.193230 13.368415 7.699886 17.958793 -0.968385 1.127684 0.009392 -0.019860 750358.000000 1 0 0
3.957770 -11.087085 0.094086 11.772690 -1.227925 1.562804 0.001804 -0.004393 -120850.000000 1 0 0
-12.498730 -1.387385 -9.137914 15.544921 0.110549 2.199182 0.012154 -0.002682 123720.000000 1 0 0
-4.271330 1.069115 -13.531914 14.230248 -0.245261 2.827012 0.008817 -0.004746 245850.000000 1 0 0
3.918970 -3.015285 4.925586 6.979374 -0.655807 0.787337 -0.000243 -0.001258 -229852.000000 1 0 0
1.788570 -1.126685 1.040186 2.355926 -0.562141 1.113505 0.001090 -0.002007 487609.000000 1 0 0
8.134870 -8.882385 7.417586 14.145439 -0.829297 1.018809 0.006498 -0.002297 -600342.000000 1 0 0
0.009270 2.388115 -6.383714 6.815789 1.566915 2.783613 0.001071 -0.004364 -2161820.000000 1 0 0
-3.781030 -9.699985 -3.430414 10.961461 1.199116 1.889096 0.013052 -0.003467 163364.000000 1 0 0
-9.438730 2.208215 -5.484014 11.137336 -0.229819 2.085640 0.003622 -0.000140 -614490.000000 1 0 0
8.945170 -7.653585 5.330886 12.923303 -0.707742 1.145598 0.001731 -0.001771 1285740.000000 1 0 0
-5.526630 -4.369685 4.726786 8.484120 0.669020 0.979867 0.000189 -0.002701 -605873.000000 1 0 0
-0.150830 -12.573085 10.321786 16.267897 1.558801 0.883450 -0.002266 -0.000430 -741476.000000 1 0 0
-14.233730 -8.310785 3.053686 16.762852 0.528482 1.387604 0.009735 -0.007419 -1839760.000000 1 0 0
10.800470 -1.173185 -3.677414 11.469520 -0.108199 1.897185 0.012094 -0.003277 235870.000000 1 0 0
-13.671030 3.125915 2.782586 14.297244 -0.224788 1.374922 0.002773 -0.000068 432495.000000 1 0 0
-6.333430 6.231615 0.998086 8.941003 -0.777295 1.458933 0.000721 -0.001308 1403870.000000 1 0 0
7.046570 -6.856185 -0.461314 9.842471 -0.771705 1.617683 0.000627 -0.005820 -28938.200000 1 0 0
-6.819030 7.996415 10.022986 14.522468 -0.864702 0.809071 -0.002460 0.000923 221025.000000 1 0 0
-12.729630 -5.070985 -2.057714 13.856138 0.379092 1.719853 0.011332 -0.009026 -3765740.000000 1 0 0
-9.384530 -5.554785 0.212286 10.907342 0.534449 1.551332 0.005932 -0.003150 -501013.000000 1 0 0
-1.874330 1.860615 2.155786 3.409167 -0.781726 0.886213 -0.000250 -0.001373 1005910.000000 1 0 0
-7.216230 7.345815 7.552986 12.770379 -0.794297 0.937946 0.002009 0.000316 -230392.000000 1 0 0
5.627670 7.220615 -0.406014 9.163668 0.908750 1.615118 0.001969 0.000721 -1845910.000000 1 0 0
-0.030030 -4.205885 7.475086 8.577137 1.563656 0.512517 0.000671 -0.004645 -1487760.000000 1 0 0
6.317270 0.771215 13.105186 14.568754 0.121479 0.452079 -0.005176 0.002400 507558.000000 1 0 0
5.827370 6.121315 -7.930814 11.589933 0.809994 2.324419 -0.002041 0.003017 -324568.000000 1 0 0
9.987070 5.205415 9.060286 14.454297 0.480476 0.893327 0.003403 0.001709 -1237450.000000 1 0 0
-1.189730 -4.997985 -8.529614 9.957390 1.337104 2.599462 0.007316 -0.001171 1120200.000000 1 0 0
9.844370 -3.652285 -7.950114 13.170236 -0.355261 2.218858 0.006980 -0.005143 563875.000000 1 0 0
8.396970 -5.531085 1.234186 10.130411 -0.582467 1.448663 0.002501 -0.002864 1045170.000000 1 0 0
15.832670 2.943015 -4.929014 16.841317 0.183785 1.867818 0.021872 0.003579 -626353.000000 1 0 0
-6.870030 3.627815 1.207886 7.862401 -0.485846 1.416557 0.000132 -0.000916 606769.000000 1 0 0
-1.780430 3.855715 0.366586 4.262729 -1.138203 1.484692 0.000673 -0.002412 -1541800.000000 1 0 0
-2.614330 10.111115 6.878386 12.505262 -1.317778 0.988385 0.004966 -0.001337 -331924.000000 1 0 0
5.370970 -5.823485 -8.681914 11.753124 -0.825799 2.401921 -0.008005 -0.001601 -437446.000000 1 0 0
-1.206830 -0.928685 6.318586 6.499494 0.655880 0.236492 0.002601 -0.002022 351271.000000 1 0 0
-5.722430 5.094915 -7.846314 10.966723 -0.727453 2.368087 0.002369 -0.002635 107738.000000 1 0 0
6.746570 -1.232085 2.517686 7.305682 -0.180633 1.218962 0.001190 -0.000747 -1095820.000000 1 0 0
8.961570 7.611915 3.270886 12.204495 0.704143 1.299473 0.002238 0.001471 686237.000000 1 0 0
-5.302930 -4.852185 -7.782814 10.594194 0.741041 2.395918 0.012894 -0.004401 1922620.000000 1 0 0
-2.251830 7.888815 -10.141314 13.044171 -1.292745 2.461413 0.007647 -0.001409 601722.000000 1 0 0
-2.863530 -2.371185 1.648586 4.066959 0.691620 1.153423 -0.002320 0.001035 -113893.000000 1 0 0
5.938970 -2.119885 -9.182714 11.139457 -0.342848 2.539834 -0.007559 -0.000017 894845.000000 1 0 0
1.209670 -7.514485 5.005886 9.109867 -1.411187 0.989029 -0.002663 -0.003081 84767.800000 1 0 0
1.782870 11.914415 1.247886 12.111529 1.422259 1.467580 0.008533 -0.007749 231896.000000 1 0 0
-1.084830 7.066315 2.522786 7.581169 -1.418464 1.231557 0.004682 -0.002069 706490.000000 1 0 0
8.688270 7.861615 -6.651514 13.473443 0.735490 2.087108 0.007268 0.000583 125105.000000 1 0 0
3.682870 -11.013985 5.383686 12.800604 -1.248103 1.136711 0.003583 -0.000370 642877.000000 1 0 0
7.933270 -7.058685 12.378186 16.308933 -0.727127 0.709048 0.005522 -0.002721 45645.600000 1 0 0
-8.676730 0.097915 -3.899514 9.513224 -0.011284 1.993146 0.005666 -0.001891 -542013.000000 1 0 0
-3.211030 -4.956485 11.288986 12.740434 0.995938 0.481987 0.003149 -0.003547 787553.000000 1 0 0
-8.248530 0.053715 -11.661914 14.284305 -0.006512 2.525971 0.004031 -0.002940 -877186.000000 1 0 0
1.506670 -4.990285 5.294186 7.429765 -1.277578 0.777650 0.001369 -0.003481 -856023.000000 1 0 0
6.688470 3.736615 -7.654914 10.830311 0.509472 2.355767 -0.001434 0.002694 -348683.000000 1 0 0
16.295870 4.195915 -1.219014 16.871487 0.252009 1.643112 0.008179 0.009415 -1129810.000000 1 0 0
7.952170 7.342215 0.223186 10.825661 0.745538 1.550178 0.004767 -0.000001 -1207830.000000 1 0 0
5.411470 -10.408885 13.901486 18.190113 -1.091364 0.700945 0.007281 -0.004337 137125.000000 1 0 0
-5.207630 -8.987985 8.910986 13.686086 1.045662 0.861766 -0.003232 -0.006298 254020.000000 1 0 0
-12.590430 -3.161285 2.869786 13.294673 0.246001 1.353224 0.009434 -0.002804 -326428.000000 1 0 0
-2.142630 -1.332185 -5.884814 6.402860 0.556260 2.736565 0.003576 -0.004604 -821885.000000 1 0 0
-2.395330 13.041015 -4.308514 13.941627 -1.389144 1.884979 -0.003997 0.003834 493503.000000 1 0 0
3.927670 -0.485685 -4.925514 6.318478 -0.123033 2.464729 -0.003458 -0.001112 -123725.000000 1 0 0
-8.854630 3.786315 -7.452414 12.176992 -0.404078 2.229393 0.001364 -0.001423 326857.000000 1 0 0
-4.603130 7.862915 -11.418814 14.608338 -1.041164 2.468126 0.002194 -0.001142 -728724.000000 1 0 0
-10.099530 -6.408485 7.326486 14.026638 0.565425 1.021219 0.001960 -0.001221 -2149220.000000 1 0 0
8.102770 5.300315 4.076786 10.505637 0.579277 1.172274 -0.001708 0.001836 -1782790.000000 1 0 0
-6.679030 -7.538985 3.966886 10.825060 0.845808 1.195601 0.006318 -0.002855 -624305.000000 1 0 0
-4.082630 11.896815 8.022786 14.918686 -1.240219 1.003009 0.005727 -0.004757 -72610.500000 1 0 0
-7.271230 9.934115 -7.932914 14.645428 -0.938951 2.143213 0.000042 -0.003550 -599550.000000 1 0 0
13.069170 5.341315 4.560486 14.836809 0.387980 1.258361 0.003582 0.000020 151898.000000 1 0 0
5.291670 3.945615 -3.644914 7.540229 0.640697 2.075326 0.000521 0.000908 430569.000000 1 0 0
-2.833930 -4.182485 5.070286 7.157663 0.975283 0.783608 0.001859 -0.003682 -839539.000000 1 0 0
12.335770 -2.406085 -5.052914 13.545937 -0.192631 1.953059 0.014502 -0.003491 -2118450.000000 1 0 0
-5.226430 9.860515 7.011086 13.179555 -1.083409 1.009875 0.005222 -0.000449 -835076.000000 1 0 0
1.706170 3.894315 -0.410014 4.271395 1.157867 1.666935 0.001574 -0.000770 567518.000000 1 0 0
-0.075830 9.690915 7.669386 12.358765 -1.562972 0.901336 0.002116 -0.001682 -128671.000000 1 0 0
-5.598530 2.166415 5.778986 8.332681 -0.369216 0.804415 -0.000624 0.000193 638795.000000 1 0 0
8.870870 0.883915 10.698486 13.925920 0.099315 0.694705 0.001635 0.003355 -461327.000000 1 0 0
0.465370 -2.916685 -10.239714 10.657174 -1.412576 2.860772 0.001512 -0.003904 -2112480.000000 1 0 0
1.181870 10.644415 -2.818914 11.074596 1.460217 1.828167 0.004806 -0.002779 412964.000000 1 0 0
2.312570 -4.320085 11.520086 12.518926 -1.079304 0.402170 -0.004101 -0.004043 -139133.000000 1 0 0
6.667270 -3.011785 9.435686 11.939661 -0.424289 0.659529 -0.003041 -0.000576 1082590.000000 1 0 0
-10.572230 -8.316985 5.668386 14.597085 0.666567 1.171985 0.005000 -0.002726 -1459510.000000 1 0 0
-2.959430 0.933215 -6.950814 7.612025 -0.305467 2.721708 0.007084 -0.004755 564325.000000 1 0 0
11.080870 2.622315 -5.100814 12.477200 0.232377 1.991947 0.007478 0.000854 -2607510.000000 1 0 0
-1.954330 -4.042885 -0.015614 4.490497 1.120517 1.574273 0.001219 -0.002760 1311430.000000 1 0 0
-1.269530 -6.566485 -10.577914 12.514898 1.379818 2.577784 0.006547 -0.000098 1084330.000000 1 0 0
0.408370 6.894315 -6.544314 9.514536 1.511633 2.329282 0.003538 -0.000576 -1937420.000000 1 0 0
2.047570 3.846315 -6.195614 7.574451 1.081608 2.528656 -0.000103 -0.000388 -1790340.000000 1 0 0
1.668370 -14.748885 6.476486 16.194380 -1.458157 1.159365 0.007156 -0.004310 8863.630000 1 0 0
-1.664530 5.375315 -10.529014 11.938375 -1.270499 2.650773 0.009486 -0.002787 -263148.000000 1 0 0
13.693470 4.349915 -0.850314 14.392912 0.307582 1.629909 0.005964 0.002594 -1215300.000000 1 0 0
-2.322730 3.389815 -6.167514 7.411083 -0.970067 2.553863 0.006238 -0.005345 -427707.000000 1 0 0
5.711370 7.955815 14.102386 17.169509 0.948167 0.607001 0.003675 -0.007556 405473.000000 1 0 0
16.086970 0.433315 -5.859514 17.126362 0.026929 1.919984 0.024129 0.002638 520738.000000 1 0 0
6.142770 -8.275785 10.566586 14.760589 -0.932268 0.772934 -0.001702 -0.000046 1925610.000000 1 0 0
0.099170 -5.849185 -6.422314 8.687284 -1.553843 2.402793 0.000443 -0.002194 -579747.000000 1 0 0
8.680670 5.493115 -7.541914 12.743971 0.564188 2.204089 0.002816 0.004446 -312363.000000 1 0 0
-15.933230 -0.680685 5.307586 16.807785 0.042695 1.249516 0.020275 -0.006343 -36921.100000 1 0 0
-0.189030 4.044815 -12.218614 12.872093 -1.524096 2.821584 0.009380 -0.004338 692296.000000 1 0 0
-11.298130 3.653815 5.896786 13.257835 -0.312784 1.109871 0.003312 -0.000389 361085.000000 1 0 0
5.248870 -9.763585 -9.465514 14.576494 -1.077526 2.277550 -0.008401 0.004749 -165227.000000 1 0 0
1.527870 11.110115 -11.874314 16.333045 1.434133 2.384756 0.000997 0.000628 -2676380.000000 1 0 0
5.836470 2.430815 1.268486 6.448434 0.394638 1.372793 0.000147 0.001727 -369027.000000 1 0 0
5.776970 4.601415 4.934886 8.882540 0.672609 0.981746 -0.000387 0.001264 -48627.000000 1 0 0
0.389670 -1.529685 -6.369514 6.562201 -1.321363 2.898660 -0.001990 -0.002903 714666.000000 1 0 0
12.785070 6.829915 -4.579814 15.201331 0.490640 1.876828 0.012036 -0.002381 -483901.000000 1 0 0
7.380970 3.236215 12.668686 15.014907 0.413211 0.566582 -0.002032 0.000513 -713451.000000 1 0 0
-2.450630 -0.250385 8.642386 8.986608 0.101818 0.277672 0.000108 0.000498 755774.000000 1 0 0
2.305170 -15.220985 13.328886 20.362991 -1.420492 0.857190 0.007190 -0.000794 89879.500000 1 0 0
18.761370 4.534915 -1.816914 19.386997 0.237166 1.664652 0.000611 0.009264 -148680.000000 1 0 0
-0.356430 -13.183585 7.220786 15.035747 1.543767 1.069867 0.000283 -0.002609 84409.500000 1 0 0
4.351070 1.585515 -0.528714 4.661031 0.349442 1.684474 -0.000416 -0.001021 710561.000000 1 0 0
2.751070 -0.467985 -7.385614 7.895232 -0.168497 2.780333 -0.004912 -0.001416 -56723.100000 1 0 0
7.236870 -11.280185 0.905486 13.432601 -1.000380 1.503336 0.001874 -0.002253 326019.000000 1 0 0
-11.871030 -7.365685 1.356986 14.036242 0.555339 1.473968 0.005779 -0.003432 200284.000000 1 0 0
0.172170 -7.035985 9.948986 12.186757 -1.546331 0.615687 -0.006133 -0.003911 -2719900.000000 1 0 0
-4.629630 -7.137685 10.676586 13.651722 0.995393 0.672818 0.001501 -0.001073 -1045920.000000 1 0 0
11.832470 0.782715 -1.612414 11.967450 0.066054 1.705941 0.008068 -0.001568 217201.000000 1 0 0
6.512770 -9.716285 -7.206814 13.739015 -0.980287 2.122984 -0.006039 -0.003934 120649.000000 1 0 0
-10.936030 4.893315 3.651286 12.524902 -0.420730 1.274979 -0.002309 -0.000043 449241.000000 1 0 0
6.058670 -9.058085 1.993986 11.078464 -0.981271 1.389822 0.000298 -0.002346 4195310.000000 1 0 0
11.605070 -1.274585 5.962486 13.109289 -0.109392 1.098616 0.010632 -0.005058 1222290.000000 1 0 0
-6.455430 3.719115 4.084786 8.496463 -0.522677 1.069271 -0.000997 0.000563 -1230490.000000 1 0 0
9.502770 6.305915 -3.173014 11.837872 0.585868 1.842153 0.005866 0.001712 -673173.000000 1 0 0
-2.420330 6.709415 10.946086 13.064879 -1.224589 0.577509 -0.006185 0.000295 -225885.000000 1 0 0
1.914770 9.859815 2.964786 10.472453 1.378984 1.283768 0.005095 -0.003386 -435567.000000 1 0 0
2.813270 6.081615 -5.596414 8.730428 1.137525 2.266628 0.000818 0.000716 -1962260.000000 1 0 0
11.829270 0.055615 -5.791014 13.170822 0.004701 2.026044 0.015478 -0.001079 262611.000000 1 0 0
-2.650530 -12.393585 6.297986 14.152416 1.360107 1.109609 0.001988 -0.000546 -141564.000000 1 0 0
10.834570 1.781215 -2.822514 11.336984 0.162944 1.822408 0.008201 -0.001000 778069.000000 1 0 0
-8.873330 5.336915 0.870086 10.391136 -0.541489 1.486965 -0.002065 0.001516 -1646150.000000 1 0 0
1.181470 -10.098485 5.538886 11.578192 -1.454331 1.071976 -0.001359 -0.003031 -204532.000000 1 0 0
9.419170 -5.749285 -1.191914 11.099356 -0.548018 1.678390 0.006860 -0.005541 331331.000000 1 0 0
-7.819330 8.640315 -4.513514 12.496751 -0.835236 1.940324 -0.001039 -0.000686 -149563.000000 1 0 0
-7.366930 -0.068085 -1.615214 7.542228 0.009242 1.786624 0.002246 0.000338 -1361550.000000 1 0 0
4.196870 8.966715 2.688286 10.258781 1.133034 1.305653 0.005035 -0.003605 2379640.000000 1 0 0
-1.357030 -10.335585 -3.683414 11.055920 1.440246 1.910452 0.007260 -0.000585 -166696.000000 1 0 0
3.055170 7.838515 -3.704014 9.192176 1.199145 1.985537 0.005940 -0.002093 -251375.000000 1 0 0
-4.304030 1.717315 -11.055614 11.987512 -0.379645 2.744685 0.008518 -0.006340 -117895.000000 1 0 0
1.335970 2.854915 10.951486 11.396070 1.133112 0.280244 -0.002601 0.001451 291026.000000 1 0 0
2.050470 5.586715 -8.103914 10.054314 1.219035 2.508182 0.001870 0.000035 -940.065000 1 0 0
15.484570 6.086315 4.029986 17.118876 0.374507 1.333154 0.008280 0.000652 -337359.000000 1 0 0
-4.518730 9.007615 4.694086 11.117127 -1.105824 1.134882 0.006415 -0.003543 43764.900000 1 0 0
-0.844530 -8.289585 -12.406114 14.944634 1.469268 2.550152 0.004120 0.000304 181586.000000 1 0 0
14.202670 -4.200185 -5.153814 15.681810 -0.287537 1.905669 0.022045 -0.004238 658063.000000 1 0 0
-5.964630 -6.082185 -5.614914 10.202796 0.795156 2.153557 0.012742 -0.003353 636037.000000 1 0 0
-8.991430 2.490115 -12.335014 15.466061 -0.270172 2.494025 -0.001404 -0.001604 -1138730.000000 1 0 0
10.503570 5.370215 13.903886 18.234096 0.472627 0.703595 0.014015 -0.000024 966223.000000 1 0 0
-0.346030 11.002115 5.603686 12.351825 -1.539355 1.099914 0.005119 -0.001948 535152.000000 1 0 0
0.430270 11.198015 -0.576114 11.221078 1.532391 1.622161 0.007102 -0.003909 -97427.400000 1 0 0
-1.547630 -0.569185 3.709986 4.059942 0.352424 0.418246 -0.000040 -0.001492 801193.000000 1 0 0
-4.830630 6.828615 8.781686 12.127778 -0.955115 0.761072 -0.000281 0.003433 -1005800.000000 1 0 0
3.509570 -8.727885 -11.255214 14.668772 -1.188472 2.445402 -0.012137 0.008072 1378410.000000 1 0 0
6.691070 -3.759785 12.032986 14.272321 -0.511942 0.567775 -0.001722 0.001140 -363798.000000 1 0 0
-2.433430 -1.957685 -12.483414 12.868167 0.677476 2.896440 0.008577 -0.006993 950388.000000 1 0 0
-16.009430 -4.890885 5.052386 17.485686 0.296495 1.277673 0.030099 -0.007396 762149.000000 1 0 0
-9.026630 7.275215 5.751286 12.941642 -0.678372 1.110290 -0.004209 0.001095 -3865590.000000 1 0 0
-12.707030 1.474815 6.081386 14.164284 -0.115546 1.127027 0.000637 -0.001643 428825.000000 1 0 0
-3.508030 3.549015 10.088386 11.255102 -0.791206 0.459354 -0.000727 0.006726 567998.000000 1 0 0
2.029470 -12.235785 -1.053014 12.447570 -1.406429 1.655493 0.001110 -0.004204 -3009640.000000 1 0 0
10.224470 -5.130085 -3.590114 11.989432 -0.465043 1.874902 0.011969 -0.003739 605406.000000 1 0 0
3.168670 -13.436185 1.037486 13.843695 -1.339197 1.495783 0.005645 -0.004493 374059.000000 1 0 0
9.957670 -1.785185 -6.099714 11.813068 -0.177393 2.113383 0.013194 -0.000960 424028.000000 1 0 0
11.919770 -5.319485 -1.576914 13.147794 -0.419751 1.691023 0.012343 -0.006291 -548654.000000 1 0 0
1.566170 0.988015 5.919086 6.201987 0.562794 0.303202 0.000877 -0.001379 465373.000000 1 0 0
-10.837230 11.688815 6.517686 17.220749 -0.823185 1.182644 -0.000920 -0.005582 -811859.000000 1 0 0
4.721370 -14.069985 3.192686 15.180548 -1.247040 1.358900 0.005203 -0.003492 -3740830.000000 1 0 0
5.278870 -3.451685 -1.768814 6.550519 -0.579090 1.844217 0.001745 -0.004204 -1356440.000000 1 0 0
1.983370 -2.903485 -7.654414 8.423421 -0.971503 2.710970 -0.003312 -0.001689 -479843.000000 1 0 0
-2.830230 14.699215 -8.876814 17.403303 -1.380581 2.106057 0.005084 -0.007334 -2465100.000000 1 0 0
-2.375130 6.144915 -8.103214 10.443337 -1.201965 2.458971 0.007284 -0.004257 -56771.100000 1 0 0
2.644170 -3.420285 -11.325914 12.122966 -0.912684 2.776954 -0.003095 -0.000013 -1794130.000000 1 0 0
14.624070 2.792815 -2.680014 15.127647 0.188702 1.748896 0.013052 0.003381 645133.000000 1 0 0
-3.695430 13.010915 2.414486 13.739355 -1.294059 1.394144 0.000327 -0.001732 -1230850.000000 1 0 0
7.812170 -4.944185 14.052586 16.821122 -0.564247 0.581912 -0.006914 0.001497 -1812120.000000 1 0 0
-11.433930 7.314715 2.991586 13.899259 -0.569127 1.353865 -0.003712 0.000192 862523.000000 1 0 0
-2.265330 11.944315 4.165386 12.851025 -1.383365 1.240706 0.005972 -0.001991 773229.000000 1 0 0
1.788070 1.488515 0.675086 2.422522 0.694229 1.288386 -0.002467 -0.000842 -1186940.000000 1 0 0
-6.889630 8.598915 5.286186 12.220970 -0.895311 1.123477 0.002959 -0.003330 -866492.000000 1 0 0
-1.115230 9.193915 1.113786 9.328040 -1.450085 1.451109 0.005170 -0.001612 589751.000000 1 0 0
4.767370 12.784515 -8.403114 16.024480 1.213866 2.122798 0.005240 -0.008968 -566434.000000 1 0 0
9.045670 6.930815 7.160086 13.458350 0.653790 1.009814 0.000046 0.002159 -1321010.000000 1 0 0
7.177770 -13.744085 2.863386 15.767664 -1.089512 1.388184 0.011963 -0.006218 84110.100000 1 0 0
4.085170 -13.457085 -1.228314 14.117029 -1.276067 1.657916 0.001594 0.001146 -2904570.000000 1 0 0
12.112170 -11.835485 -4.550114 17.535304 -0.773845 1.833283 0.023237 -0.006927 -1349350.000000 1 0 0
2.851570 0.032315 -1.931614 3.444362 0.011332 2.166154 0.000381 -0.003100 1422580.000000 1 0 0
-13.552330 -3.193085 -10.662214 17.536939 0.231391 2.224318 0.015173 -0.006905 305162.000000 1 0 0
-6.623830 13.739715 5.014186 16.056057 -1.121576 1.253191 0.011187 -0.007311 342646.000000 1 0 0
7.356670 -4.238885 -0.620614 8.513160 -0.522733 1.643762 0.001918 -0.004090 -1123860.000000 1 0 0
11.697070 2.087715 -7.304714 13.947718 0.176622 2.122009 0.014064 0.000843 -317948.000000 1 0 0
-7.561030 -4.615785 9.715686 13.147973 0.548083 0.739287 0.001747 -0.000983 437703.000000 1 0 0
1.073370 2.891715 8.446686 8.992255 1.215372 0.350127 -0.001441 0.001583 -1263380.000000 1 0 0
1.579370 8.046815 -8.811214 12.036741 1.376987 2.392088 0.003200 -0.000273 -860457.000000 1 0 0
-8.587130 -1.912385 -5.631514 10.445571 0.219128 2.140199 0.011227 -0.003067 -252795.000000 1 0 0
6.685870 -0.481085 7.204986 9.840941 -0.071832 0.749332 -0.000369 -0.000545 -99279.900000 1 0 0
-10.910830 6.476815 7.089086 14.534459 -0.535710 1.061293 0.001588 0.000629 381955.000000 1 0 0
-6.074730 11.093915 4.906586 13.566573 -1.069818 1.200741 0.003341 -0.002793 419035.000000 1 0 0
6.074470 -1.210885 -6.872614 9.251932 -0.196761 2.408084 -0.005898 -0.001272 -594091.000000 1 0 0
4.594370 -5.709385 11.359886 13.518592 -0.893193 0.572931 -0.004160 -0.001489 -1584880.000000 1 0 0
-8.971430 -7.375085 2.677486 11.918362 0.688050 1.344210 0.006216 -0.003384 -1803070.000000 1 0 0
-1.309330 12.676215 -9.325714 15.791444 -1.467871 2.202543 0.006775 -0.000948 652827.000000 1 0 0
-4.585230 9.317415 -2.280214 10.631930 -1.113477 1.786944 -0.001658 -0.000599 704520.000000 1 0 0
-3.235330 9.704415 -0.166614 10.230875 -1.248997 1.587082 0.001570 -0.000224 -1569990.000000 1 0 0
-3.521230 10.627315 -6.520114 12.955724 -1.250843 2.098165 -0.001620 0.002099 552513.000000 1 0 0
4.903770 -4.888285 0.293486 6.930254 -0.783817 1.528435 0.001348 -0.004622 -1771290.000000 1 0 0
-2.238530 3.023315 -10.908014 11.538467 -0.933453 2.809496 0.010241 -0.005455 -1903750.000000 1 0 0
-3.616130 12.084115 -2.274714 12.817042 -1.280031 1.749217 -0.002640 0.002946 173998.000000 1 0 0
-0.190630 0.404615 0.074686 0.453466 -1.130503 1.405341 -0.003351 -0.000875 -2422450.000000 1 0 0
-4.857030 -1.716685 0.149486 5.153649 0.339739 1.541786 0.000342 0.000326 340113.000000 1 0 0
2.592370 2.528015 -2.390014 4.338595 0.772831 2.154206 -0.005811 -0.002114 1547850.000000 1 0 0
5.964270 -9.795985 8.512186 14.282547 -1.023896 0.932304 -0.001787 0.001438 -823910.000000 1 0 0
-4.088030 -5.487585 6.633486 9.530410 0.930529 0.800938 0.005002 -0.004659 339684.000000 1 0 0
-6.346830 5.204315 -12.139614 14.653920 -0.686810 2.547079 -0.001204 -0.000270 1271730.000000 1 0 0
-12.969630 3.039815 8.020186 15.549121 -0.230224 1.028859 0.004409 -0.001785 861858.000000 1 0 0
4.682970 -7.577885 -4.892914 10.163422 -1.017262 2.073075 -0.004749 -0.005305 1188330.000000 1 0 0
-5.900530 2.590515 -1.073714 6.532984 -0.413695 1.735898 -0.000109 -0.000785 -883906.000000 1 0 0
-6.841630 -2.795285 -14.595914 16.360385 0.387872 2.672878 0.004543 -0.005588 -814440.000000 1 0 0
2.698070 -5.986985 0.862286 6.623225 -1.147397 1.440234 0.002302 -0.004740 117399.000000 1 0 0
4.883570 -7.874285 13.018986 15.979600 -1.015662 0.618541 -0.001393 -0.002448 -52973.500000 1 0 0
-9.924830 -1.742885 8.070286 12.910051 0.173836 0.895516 0.000079 0.001698 -12698.500000 1 0 0
-4.425430 13.330715 -0.010114 14.046085 -1.250271 1.571516 -0.002168 0.001036 549709.000000 1 0 0
6.754070 2.271815 -4.446414 8.399357 0.324474 2.128661 -0.001259 0.002665 -1197020.000000 1 0 0
5.093270 4.534215 -0.024314 6.819171 0.727395 1.574362 -0.000846 0.000855 -679285.000000 1 0 0
-5.997330 12.258115 1.849486 13.771346 -1.115783 1.436090 0.000804 -0.000994 -1135390.000000 1 0 0
6.587870 -7.195685 6.444186 11.692110 -0.829467 0.987046 -0.003108 -0.001468 -1271460.000000 1 0 0
-0.247730 4.991015 7.592686 9.089581 -1.521202 0.582086 0.000291 0.001295 -986151.000000 1 0 0
-5.793230 -3.359785 -1.553214 6.874747 0.525546 1.798694 0.005624 -0.001952 -233860.000000 1 0 0
2.362670 -6.450285 -5.151114 8.586172 -1.219684 2.214212 -0.002730 -0.001953 -438626.000000 1 0 0
-14.459830 -4.811785 -3.750014 15.694029 0.321243 1.812076 0.007357 -0.010991 -123845.000000 1 0 0
-12.411730 -5.035285 -6.325314 14.812654 0.385400 2.011992 0.004125 -0.011331 -1601390.000000 1 0 0
-14.866130 -3.777985 -1.279314 15.391934 0.248865 1.654008 0.012216 -0.007531 480618.000000 1 0 0
11.897170 2.922615 8.624086 14.981962 0.240886 0.957420 0.013861 -0.004001 -1796980.000000 1 0 0
8.773170 -6.382185 7.641186 13.269835 -0.628923 0.957176 0.002322 -0.002511 -122703.000000 1 0 0
-8.819130 -1.767485 -9.811014 13.310035 0.197794 2.399586 0.004510 -0.001949 -37952.200000 1 0 0
-8.804330 5.126515 -3.901214 10.909485 -0.527282 1.936491 0.001447 -0.000089 -634830.000000 1 0 0
-4.014130 -6.229285 4.122886 8.480296 0.998370 1.063092 0.004857 -0.003408 -1035280.000000 1 0 0
-0.226330 -9.212585 3.598786 9.893139 1.546234 1.198489 -0.000232 -0.005108 57874.000000 1 0 0
7.954070 -10.490885 3.346986 13.584116 -0.922075 1.321843 0.001266 -0.002645 773982.000000 1 0 0
-0.120230 6.486015 9.636286 11.616405 -1.552262 0.592511 0.000709 -0.000701 1047270.000000 1 0 0
-0.012230 3.480415 -9.671314 10.278509 -1.567282 2.796150 0.007888 -0.003050 751944.000000 1 0 0
4.515370 -3.116085 10.914186 12.215483 -0.604055 0.465780 -0.002715 -0.002375 -1340120.000000 1 0 0
8.552270 -9.198885 1.255786 12.622908 -0.821809 1.471147 0.001547 -0.004104 -845424.000000 1 0 0
-0.285830 -0.532085 11.290486 11.306631 1.077842 0.053445 0.002063 0.000107 -2118080.000000 1 0 0
10.904870 5.920315 11.384286 16.839486 0.497380 0.828411 0.014868 0.000997 -45535.600000 1 0 0
-6.379930 -2.971185 -11.888414 13.815420 0.435840 2.607081 0.009018 -0.003610 605954.000000 1 0 0
-1.543330 2.891015 8.408286 9.024362 -1.080447 0.371643 0.003135 0.001084 -2090100.000000 1 0 0
-1.653230 13.494715 -6.887614 15.240726 -1.448894 2.039715 0.003620 0.000882 880247.000000 1 0 0
7.728170 3.101315 9.760986 12.830418 0.381627 0.706299 -0.000290 0.002762 118243.000000 1 0 0
6.469070 8.519915 -7.990914 13.352622 0.921377 2.212365 0.002195 0.002542 -71603.100000 1 0 0
6.630070 -2.965885 -4.000914 8.292262 -0.420638 2.074289 0.000612 -0.004232 -1907650.000000 1 0 0
2.027970 8.188915 1.058086 8.502385 1.328032 1.446027 0.003733 -0.000887 984016.000000 1 0 0
-17.557330 6.238215 6.395286 19.699616 -0.341393 1.240165 0.020208 0.001602 -54582.600000 1 0 0
-14.624030 3.027515 -10.510514 18.261955 -0.204140 2.184063 0.019857 0.000355 -929704.000000 1 0 0
-18.431930 0.165615 -4.415014 18.954045 -0.008985 1.805888 0.039736 -0.006510 840774.000000 1 0 0
-12.996930 8.101915 0.079386 15.315597 -0.557427 1.565613 0.000344 0.005007 -957421.000000 1 0 0
-12.410430 -4.529285 -12.587114 18.247428 0.349938 2.332012 0.014409 -0.000925 -324908.000000 1 0 0
-17.444330 -0.762685 -8.563014 19.447662 0.043693 2.026741 0.024256 -0.010058 1073500.000000 1 0 0
-16.764430 -2.160485 -2.047014 17.026570 0.128167 1.691313 0.018865 -0.008397 -311799.000000 1 0 0
-15.315030 4.164915 1.808886 15.974002 -0.265528 1.457314 0.013288 0.003152 -1093570.000000 1 0 0
-13.219030 5.904415 4.410886 15.134755 -0.420073 1.275064 0.000544 -0.001093 446204.000000 1 0 0
-10.059930 14.233315 2.750886 17.645306 -0.955529 1.414259 0.019349 -0.008532 -63776.000000 1 0 0
-11.753330 2.468915 -6.468614 13.641088 -0.207051 2.064852 0.001390 0.001460 24043.100000 1 0 0
-15.894530 10.728115 3.810586 19.551192 -0.593720 1.374638 0.009157 -0.005995 -138749.000000 1 0 0
-12.936030 1.164615 -8.588714 15.571230 -0.089787 2.155049 0.008890 -0.000589 666705.000000 1 0 0
-12.358930 14.478415 4.002586 19.452207 -0.864210 1.363551 0.015131 -0.006889 -360515.000000 1 0 0
-10.506930 11.214515 -1.169714 15.411981 -0.817962 1.646766 0.007709 -0.002646 609729.000000 1 0 0
-17.306130 5.673615 8.921886 20.280338 -0.316797 1.115278 0.033495 -0.002041 335388.000000 1 0 0
-11.774330 12.501115 -9.276314 19.518267 -0.815328 2.066059 0.006193 -0.009154 -1271780.000000 1 0 0
-17.142330 -0.388485 3.056286 17.416983 0.022658 1.394406 0.025988 -0.006251 659400.000000 1 0 0
-13.306230 14.809415 -0.513614 19.915781 -0.838812 1.596588 0.041786 -0.014140 -10451.400000 1 0 0
-16.436230 4.711515 -10.675914 20.157459 -0.279168 2.128956 0.031101 -0.003294 408055.000000 1 0 0
-11.952430 7.506215 -9.108014 16.797612 -0.560759 2.143874 -0.007691 -0.002170 -206366.000000 1 0 0
-14.921630 13.577015 -2.157214 20.289011 -0.738251 1.677322 0.041397 -0.014668 960557.000000 1 0 0
-11.868830 10.545615 -5.519414 16.809017 -0.726433 1.905363 0.008103 -0.009314 -580315.000000 1 0 0
-17.666530 2.888515 -0.624614 17.912006 -0.162068 1.605675 0.020292 0.001133 -290704.000000 1 0 0
-9.385630 15.451715 0.711486 18.092865 -1.024941 1.531462 0.020079 -0.008957 83602.000000 1 0 0
-8.002130 13.280915 -3.784814 15.960627 -1.028520 1.810211 0.001096 -0.001889 -1564460.000000 1 0 0
-17.831130 11.603515 2.170386 21.384605 -0.576899 1.469128 0.052069 0.004116 -180802.000000 1 0 0
-8.037030 15.672015 -7.320814 19.073548 -1.096940 1.964726 0.027204 -0.023560 183213.000000 1 0 0
-6.170130 15.281215 -5.413814 17.346338 -1.187042 1.888200 0.001286 -0.006330 108757.000000 1 0 0
-17.288030 5.302315 -0.012114 18.082884 -0.297596 1.571466 0.028970 0.004839 736401.000000 1 0 0
-5.510330 12.249115 -12.221914 18.159839 -1.148063 2.309079 0.004100 -0.007785 -556180.000000 1 0 0
-11.150830 3.644815 -11.521714 16.443101 -0.315918 2.347177 0.001764 -0.001749 466820.000000 1 0 0
-11.833330 11.145115 1.097086 16.292480 -0.755457 1.503408 0.008926 -0.001546 -71377.600000 1 0 0
-12.986730 0.151415 -10.976814 17.004956 -0.011659 2.272483 0.015349 -0.006125 179117.000000 1 0 0
-13.976630 -2.495285 -13.038214 19.276090 0.176671 2.313651 0.009222 0.001380 70342.200000 1 0 0
-18.822430 -2.250685 -3.550514 19.286151 0.119010 1.755949 0.028419 -0.009392 1302830.000000 1 0 0
-18.341530 4.902015 -4.957614 19.621912 -0.261159 1.826222 0.040655 -0.000830 431221.000000 1 0 0
-8.349030 15.421115 -2.207414 17.674552 -1.074578 1.696016 0.022244 -0.008498 805064.000000 1 0 0
-15.967830 9.215215 -5.500114 19.239102 -0.523420 1.860723 0.015974 0.001410 -344004.000000 1 0 0
-18.317930 1.818015 2.158586 18.534056 -0.098924 1.454065 0.034269 -0.008037 1076520.000000 1 0 0
-15.732130 -2.705985 -8.580014 18.122883 0.170337 2.063983 0.013196 -0.010025 413607.000000 1 0 0
-9.682630 10.540615 -7.088714 15.972093 -0.827798 2.030652 0.001980 -0.007556 -157230.000000 1 0 0
-13.906930 11.734815 -7.747014 19.776876 -0.700890 1.973297 0.016191 -0.020692 63735.700000 1 0 0
-11.011830 6.541315 -3.848914 13.373980 -0.536015 1.862716 -0.000439 0.004089 -536380.000000 1 0 0
-13.053630 4.975915 -12.723514 18.895629 -0.364187 2.309537 0.016043 -0.009661 -19922.400000 1 0 0
-17.630330 9.060515 2.648386 19.998386 -0.474719 1.437976 0.026485 -0.004953 842831.000000 1 0 0
-13.301430 8.674515 -6.658614 17.219535 -0.577885 1.967835 -0.002083 -0.003618 -677305.000000 1 0 0
-15.722530 7.086715 -3.856814 17.671856 -0.423466 1.790813 0.009409 0.009600 -1125170.000000 1 0 0
-14.937230 -0.390585 -9.231814 17.564162 0.026142 2.124223 0.018379 -0.008215 -789613.000000 1 0 0
-10.085930 5.763215 -6.100514 13.120858 -0.519133 2.054372 -0.006849 0.003889 318712.000000 1 0 0
-12.812630 12.293615 -1.048314 17.787508 -0.764728 1.629766 0.020431 -0.005331 -385201.000000 1 0 0
-10.678230 3.396015 -14.083914 17.997615 -0.307916 2.469537 0.000213 0.002467 192048.000000 1 0 0
-10.907830 6.216215 -12.033314 17.390306 -0.517982 2.334990 -0.009770 -0.002264 -1017900.000000 1 0 0
-5.933230 11.626815 -14.775214 19.715298 -1.098938 2.417995 0.007310 -0.008500 -249983.000000 1 0 0
-15.598930 13.407215 3.367386 20.842729 -0.709981 1.408523 0.007198 -0.004924 539243.000000 1 0 0
-15.159330 11.146915 -3.125214 19.074223 -0.634038 1.735383 0.033245 -0.003058 400796.000000 1 0 0
-18.033730 7.867515 -4.833614 20.260233 -0.411375 1.811696 0.025504 0.002627 531364.000000 1 0 0
-3.859330 16.220215 -10.599314 19.756904 -1.337206 2.137065 0.020476 -0.007327 38966.300000 1 0 0
-15.758430 4.467015 -4.334214 16.943074 -0.276222 1.829482 0.014624 0.003701 -156298.000000 1 0 0
-18.587030 -1.761385 -6.177114 19.665627 0.094482 1.890312 0.018549 -0.009317 72606.300000 1 0 0
-10.655830 8.599815 -5.869814 14.898263 -0.679027 1.975768 -0.003273 0.000153 1217370.000000 1 0 0
-11.272330 13.351315 -6.819014 18.756919 -0.869629 1.942868 0.012795 -0.013942 280105.000000 1 0 0
-9.416030 10.513815 -4.403914 14.785006 -0.840425 1.873250 -0.004437 -0.002057 -315445.000000 1 0 0
-11.050130 6.395215 -0.167414 12.768406 -0.524645 1.583908 -0.001551 0.005320 78025.300000 1 0 0
-14.764530 9.552915 -1.293214 17.632979 -0.574276 1.644203 0.022303 0.003927 -102849.000000 1 0 0
-18.663830 3.322215 4.768586 19.547764 -0.176158 1.324364 0.030833 -0.002729 449544.000000 1 0 0
-14.927630 13.029715 0.369286 19.817770 -0.717616 1.552161 0.020610 -0.009010 -4085.690000 1 0 0
-16.901330 2.428815 -9.338314 19.461711 -0.142728 2.071257 0.030045 -0.000577 1164410.000000 1 0 0
-9.189930 8.444515 -8.863414 15.307670 -0.743153 2.188320 -0.004137 0.000028 -1782160.000000 1 0 0
-17.633630 4.724615 -2.527614 18.429751 -0.261783 1.708379 0.021280 0.004001 1309710.000000 1 0 0
-13.572530 5.878015 -4.460514 15.448651 -0.408696 1.863698 0.004037 0.008700 -891139.000000 1 0 0
-12.063530 9.759515 3.201786 15.843874 -0.680211 1.367311 -0.004799 -0.000338 1158610.000000 1 0 0
-17.521530 2.583115 -4.045914 18.167166 -0.146371 1.795384 0.024184 0.002051 1140190.000000 1 0 0
-11.399530 1.409715 -12.598214 17.048506 -0.123040 2.402326 0.013096 -0.001845 315849.000000 1 0 0
-11.285730 12.094015 3.529786 16.914263 -0.819956 1.360564 0.004681 -0.005618 -784459.000000 1 0 0
-16.358230 13.095415 -4.373614 21.405842 -0.675070 1.776564 0.038084 -0.009710 324734.000000 1 0 0
-11.069030 4.095915 -4.491114 12.628145 -0.354410 1.934398 -0.003724 0.004237 -311312.000000 1 0 0
-11.239430 15.025015 -8.833014 20.738804 -0.928546 2.010772 0.031765 -0.015314 406038.000000 1 0 0
-15.496430 7.252415 -0.295414 17.112105 -0.437726 1.588061 0.020000 0.008039 57845.300000 1 0 0
-12.765830 8.326115 -4.201614 15.809623 -0.577933 1.839792 0.003211 0.001178 726684.000000 1 0 0
-19.308330 2.118315 -5.885314 20.296201 -0.109273 1.864993 0.046379 -0.003802 940590.000000 1 0 0
-12.562830 10.068415 -9.073414 18.480382 -0.675621 2.084005 -0.000181 -0.008592 474606.000000 1 0 0
-16.910030 10.899115 -1.074814 20.146837 -0.572524 1.624171 0.038600 -0.003962 611619.000000 1 0 0
-10.682930 6.409215 -14.680514 19.254104 -0.540382 2.437905 -0.001241 -0.006837 -90712.700000 1 0 0
-13.766830 12.855415 -4.417714 19.346925 -0.751176 1.801171 0.026393 -0.012076 608016.000000 1 0 0
-18.043030 7.704515 -0.031914 19.619162 -0.403570 1.572423 0.043439 0.004179 607336.000000 1 0 0
-12.803830 6.691915 -2.089814 14.597504 -0.481603 1.714452 0.000259 0.006088 550368.000000 1 0 0
-13.729730 8.322415 -10.798914 19.349021 -0.544937 2.162905 0.004760 -0.007378 -611941.000000 1 0 0
-14.922130 1.396315 -0.878814 15.013060 -0.093302 1.629366 0.007957 0.002479 -32264.100000 1 0 0
-13.315230 2.721915 -2.451714 13.809963 -0.201643 1.749275 0.002850 0.003532 -299533.000000 1 0 0
-11.294630 9.135815 -11.067414 18.262514 -0.680122 2.221841 -0.007071 -0.006859 -336034.000000 1 0 0
-15.329830 4.285515 -8.307914 17.955243 -0.272595 2.051836 0.011486 -0.003582 674084.000000 1 0 0
-18.330130 10.623415 4.537986 21.666655 -0.525255 1.359788 0.042207 -0.012814 292761.000000 1 0 0
-15.382930 6.106915 -6.299214 17.709010 -0.377911 1.934466 0.014170 0.003312 737047.000000 1 0 0
-7.819830 11.302915 -12.944014 18.879966 -0.965567 2.326217 -0.006197 -0.002178 -646949.000000 1 0 0
-16.815830 9.240015 -2.977614 19.416905 -0.502446 1.724755 0.026091 0.001998 924846.000000 1 0 0
-20.705730 -1.051385 -4.834114 21.288526 0.050734 1.799871 0.040975 -0.014085 14402.600000 1 0 0
-15.480830 4.428015 4.298286 16.665494 -0.278594 1.309932 0.014342 0.001384 245317.000000 1 0 0
-6.918030 12.539515 -9.460814 17.164078 -1.066650 2.154596 0.005044 -0.008980 -299488.000000 1 0 0
-17.248230 1.551815 5.951186 18.311914 -0.089728 1.239795 0.027832 -0.003867 112928.000000 1 0 0
-10.327630 14.221315 -3.247214 17.873168 -0.942697 1.753492 0.026814 -0.014936 -935118.000000 1 0 0
-9.955130 8.427315 -13.136314 18.511807 -0.702476 2.359752 -0.017967 -0.002125 -211213.000000 1 0 0
-13.666130 11.778115 2.672686 18.238157 -0.711332 1.423723 0.005298 -0.004461 -1269370.000000 1 0 0
-16.526530 6.901015 1.979186 18.018529 -0.395562 1.460733 0.010537 0.004973 758586.000000 1 0 0
-9.353930 13.280015 -8.477214 18.322608 -0.957149 2.051794 0.018185 -0.014779 -703819.000000 1 0 0
-5.616730 9.781415 -13.022214 17.227936 -1.049545 2.427790 0.004787 -0.000292 -512482.000000 1 0 0
-15.938930 1.920615 3.243686 16.378637 -0.119920 1.371435 0.015964 -0.001248 -356183.000000 1 0 0
-18.685530 -4.872085 4.529186 19.834308 0.255062 1.340413 0.049725 -0.005835 994949.000000 1 0 0
-5.248430 14.444115 -9.128014 17.874538 -1.222268 2.106762 0.005986 -0.007070 -1031210.000000 1 0 0
-15.414830 -0.748685 -6.747514 16.843588 0.048531 1.982966 0.014636 -0.005349 855768.000000 1 0 0
-9.014330 10.913115 -9.445414 17.016759 -0.880396 2.159238 0.000978 -0.009963 452584.000000 1 0 0
-16.782730 1.317015 -6.063114 17.892901 -0.078314 1.916497 0.019249 0.000928 -54789.700000 1 0 0
-11.125930 8.673315 -1.615114 14.199342 -0.662152 1.684789 0.001232 -0.000675 -413638.000000 1 0 0
-10.820330 10.927215 -12.883214 20.061425 -0.790313 2.268146 0.000557 -0.006335 -262934.000000 1 0 0
-14.032230 11.709015 -10.401814 21.028605 -0.695389 2.088229 0.021055 -0.013669 336140.000000 1 0 0
-13.185530 5.638815 -7.764414 16.307684 -0.404115 2.067033 0.001785 0.002447 -572517.000000 1 0 0
-8.819130 15.417215 -4.840214 18.409108 -1.051196 1.836849 0.020008 -0.013609 731308.000000 1 0 0
-8.583430 6.128715 -13.128014 16.839868 -0.620072 2.464790 -0.011598 -0.000492 106559.000000 1 0 0
-16.353130 7.533015 4.470686 18.551502 -0.431672 1.327413 0.020411 0.002922 660098.000000 1 0 0
-12.652630 5.363215 -10.280914 17.162468 -0.400923 2.213091 0.002357 -0.002422 672688.000000 1 0 0
-12.444230 9.029915 -13.486814 20.452197 -0.627721 2.290858 0.017228 -0.011154 -1573660.000000 1 0 0
-10.765130 5.165315 -8.501214 14.657392 -0.447373 2.189519 -0.006277 0.000575 -1143560.000000 1 0 0
-17.849930 -4.411585 -2.622514 18.573090 0.242293 1.712469 0.019560 -0.010074 738519.000000 1 0 0
-8.952130 13.021815 -10.979914 19.242318 -0.968528 2.178048 0.020110 -0.016113 -60364.200000 1 0 0
-14.945030 6.122115 6.275686 17.326813 -0.388791 1.200175 0.005317 -0.000682 67447.500000 1 0 0
-16.424530 -3.207285 -4.438614 17.313381 0.192847 1.830060 0.012978 -0.009955 594369.000000 1 0 0
-11.280530 -1.137585 -12.635714 16.976623 0.100505 2.410284 0.015143 0.001551 408727.000000 1 0 0
-15.358330 6.895215 -8.644714 18.924940 -0.421985 2.045179 0.007624 -0.000716 203700.000000 1 0 0
-14.925030 9.398215 1.170386 17.676334 -0.561968 1.504536 0.012735 0.001184 -338882.000000 1 0 0
-19.554830 5.431815 7.710686 21.710612 -0.270943 1.207714 0.041362 -0.004795 -1062750.000000 1 0 0
-16.301330 0.758515 0.882786 16.342828 -0.046497 1.516753 0.020571 -0.005218 -467808.000000 1 0 0
-17.562730 3.767815 7.172486 19.341419 -0.211331 1.190888 0.025455 0.001376 563945.000000 1 0 0
-15.408530 3.970215 -1.380714 15.971593 -0.252178 1.657352 0.013563 0.005328 -145708.000000 1 0 0
-10.800730 13.372715 0.295086 17.192218 -0.891397 1.553632 0.020795 -0.009716 -74644.500000 1 0 0
-13.409830 3.367115 0.130586 13.826715 -0.246007 1.561352 0.004430 0.004508 -412527.000000 1 0 0
-14.997730 0.263615 -4.327414 15.611787 -0.017575 1.851663 0.007681 -0.000056 541826.000000 1 0 0
-18.720230 6.727715 3.462686 20.191567 -0.345008 1.398453 0.019878 0.000582 1279640.000000 1 0 0
-14.170530 1.566915 -6.282514 15.579766 -0.110128 1.985860 0.008251 0.004894 53774.000000 1 0 0
-14.276930 12.192815 5.153986 19.469439 -0.706825 1.302881 0.001678 -0.010830 -166008.000000 1 0 0
17.614970 5.284215 6.025186 19.352338 0.291442 1.254192 0.029265 -0.007402 -343425.000000 1 0 0
18.595970 7.571115 -0.416814 20.082470 0.386644 1.591553 0.027740 0.011172 700078.000000 1 0 0
16.654170 5.090715 8.427286 19.346729 0.296652 1.120100 0.043457 -0.004477 346630.000000 1 0 0
11.734570 12.287015 10.943086 20.209454 0.808392 0.998596 0.028029 -0.012349 529601.000000 1 0 0
-2.432330 16.312015 -0.568914 16.502174 -1.422774 1.605278 -0.003695 -0.000957 100138.000000 1 0 0
14.972070 12.565315 3.469286 19.851599 0.698220 1.395133 0.018484 -0.000841 310466.000000 1 0 0
13.594970 11.760115 6.623386 19.157055 0.713158 1.217768 0.027788 0.002196 628699.000000 1 0 0
-0.634030 16.006615 8.542886 18.154741 -1.531207 1.080872 0.002707 -0.003220 51763.400000 1 0 0
0.714670 12.877215 9.364986 15.938519 1.515354 0.942745 0.002572 -0.008664 -1598140.000000 1 0 0
0.693170 15.474715 -3.880214 15.968825 1.526033 1.816240 -0.003585 -0.003421 126147.000000 1 0 0
5.551070 10.467015 13.494686 17.957710 1.083173 0.720508 0.011882 -0.012138 119076.000000 1 0 0
-1.387330 16.514415 -2.877614 16.820561 -1.486986 1.742719 -0.003087 -0.001246 -1186610.000000 1 0 0
8.683270 10.158715 3.251286 13.753892 0.863545 1.332147 0.005010 0.001833 284504.000000 1 0 0
12.627970 13.622315 -4.989514 19.233521 0.823259 1.833215 0.050685 -0.011284 -119889.000000 1 0 0
2.645570 11.616615 7.812686 14.247205 1.346875 0.990387 0.012183 -0.005873 690226.000000 1 0 0
-0.306530 14.828515 -8.774114 17.232640 -1.550128 2.105001 0.000222 0.001181 -1652410.000000 1 0 0
2.435970 15.822115 0.245286 16.010417 1.418036 1.555475 0.013327 -0.011770 -530780.000000 1 0 0
1.915070 13.441315 5.242186 14.553933 1.429272 1.202324 0.008340 -0.004762 167248.000000 1 0 0
17.765070 9.211615 -2.098914 20.121059 0.478357 1.675301 0.030729 0.011355 755102.000000 1 0 0
-7.231630 14.973315 7.246686 18.138663 -1.120867 1.159807 0.015314 -0.013261 -795621.000000 1 0 0
8.573770 15.835915 -0.216214 18.009234 1.074570 1.582802 0.005815 -0.010361 91518.800000 1 0 0
15.678170 10.389715 2.152286 18.931020 0.585242 1.456859 0.017924 0.003061 213620.000000 1 0 0
14.161670 7.407715 8.602586 18.150252 0.481942 1.077008 0.027889 -0.003679 -1072440.000000 1 0 0
4.134170 18.580615 -2.194414 19.161056 1.351864 1.685573 0.018385 -0.008854 -1125110.000000 1 0 0
-0.446430 17.552115 -5.027914 18.263515 -1.545367 1.849696 0.005139 -0.003146 327327.000000 1 0 0
1.323870 13.694415 -0.736814 13.777973 1.474424 1.624299 0.005606 -0.005852 468515.000000 1 0 0
10.362370 14.911215 4.122086 18.620275 0.963476 1.347571 0.010118 -0.006699 518816.000000 1 0 0
-1.674030 15.377715 -5.171014 16.309994 -1.462363 1.893409 -0.000786 -0.001892 -792518.000000 1 0 0
15.088070 8.860115 -6.200114 18.563214 0.530974 1.911340 0.032796 -0.001996 210925.000000 1 0 0
-2.267830 18.526015 0.797586 18.681339 -1.448989 1.528089 0.002906 -0.006613 -346263.000000 1 0 0
-3.797030 19.269215 3.375986 19.927804 -1.376237 1.400564 0.018452 -0.012708 -54350.400000 1 0 0
1.799770 17.610015 -2.684014 17.904071 1.468948 1.721274 0.003051 -0.007541 -287940.000000 1 0 0
2.978370 12.294215 3.296286 13.072258 1.333118 1.315886 0.008411 -0.005045 978918.000000 1 0 0
-2.599830 16.172115 1.855486 16.484516 -1.411400 1.457998 0.004866 -0.006699 -975463.000000 1 0 0
11.818870 12.800715 -2.675514 17.626752 0.825258 1.723172 0.018079 -0.000011 428580.000000 1 0 0
7.262370 11.666815 4.691986 14.521410 1.014011 1.241784 0.004015 -0.002105 -65704.300000 1 0 0
7.200070 15.655215 1.940486 17.340480 1.139728 1.458656 0.006693 -0.008443 -2305580.000000 1 0 0
5.530770 12.177915 10.233886 16.841124 1.144485 0.917670 0.010729 -0.007292 434523.000000 1 0 0
-1.458730 14.115015 2.958986 14.495418 -1.467816 1.365219 0.007175 -0.005703 -629104.000000 1 0 0
4.660870 15.797515 1.532286 16.541859 1.283898 1.478032 0.009804 -0.013831 -2052380.000000 1 0 0
7.352670 13.194815 11.926086 19.245686 1.062412 0.902467 0.017312 -0.008581 63396.000000 1 0 0
0.728170 17.157615 -9.477014 19.614479 1.528382 2.075061 0.006530 -0.001428 344264.000000 1 0 0
10.006470 9.652015 15.164586 20.573175 0.767370 0.742020 0.032840 -0.021791 -281138.000000 1 0 0
13.518270 7.531115 -0.217214 15.476062 0.508283 1.584832 0.000668 0.004237 438035.000000 1 0 0
12.386170 13.581115 -0.089914 18.381294 0.831383 1.575688 0.016712 -0.004905 287185.000000 1 0 0
9.339570 12.556115 3.487486 16.032659 0.931258 1.351519 0.002732 0.000920 236521.000000 1 0 0
-0.664330 12.864715 0.744086 12.903329 -1.519202 1.513098 0.008739 -0.004265 -1573150.000000 1 0 0
16.049170 7.579015 -0.937414 17.773465 0.441192 1.623563 0.017483 0.009686 -1956120.000000 1 0 0
-4.407730 18.606415 -2.365114 19.267084 -1.338191 1.693861 0.010991 -0.003731 156328.000000 1 0 0
11.584270 9.250515 -3.249714 15.176560 0.673851 1.786594 0.011871 0.001551 287190.000000 1 0 0
14.708070 9.658115 7.829586 19.258996 0.581039 1.152131 0.027740 0.000307 238682.000000 1 0 0
4.532970 13.905115 4.627686 15.339998 1.255667 1.264348 0.008027 -0.002338 299497.000000 1 0 0
2.142070 15.959215 5.590186 17.045093 1.437372 1.236648 0.005712 -0.004601 340816.000000 1 0 0
6.152970 18.511915 5.277786 20.209035 1.249905 1.306573 0.021453 -0.015076 -80337.200000 1 0 0
10.818970 17.077215 -0.837514 20.233211 1.006085 1.612201 0.024723 -0.013354 -1321500.000000 1 0 0
9.971470 13.628815 -4.455614 17.465031 0.939146 1.828764 0.028131 -0.005861 547079.000000 1 0 0
16.591170 7.859115 2.314986 18.503831 0.442381 1.445359 0.007855 0.003034 2880.200000 1 0 0
4.026570 13.997715 -0.576514 14.576751 1.290700 1.610357 0.009326 -0.008579 947927.000000 1 0 0
5.568270 13.151115 -2.518414 14.501720 1.170276 1.745344 0.004442 -0.006444 -223042.000000 1 0 0
-6.208130 16.828515 -3.000114 18.186272 -1.217380 1.736520 0.008286 -0.008952 -298008.000000 1 0 0
18.224970 9.811815 2.503686 20.849213 0.493872 1.450420 0.029542 0.000382 -372.510000 1 0 0
7.960970 12.975115 9.375686 17.878315 1.020468 1.018766 0.014511 -0.006553 -7613.490000 1 0 0
-2.632130 15.889715 6.741686 17.460283 -1.406637 1.174380 0.007330 -0.003470 495702.000000 1 0 0
11.213470 16.022915 6.324586 20.554224 0.960178 1.258019 0.018231 -0.006108 127283.000000 1 0 0
13.615370 11.888615 1.335086 18.124567 0.717796 1.497068 0.021154 -0.001736 99301.100000 1 0 0
17.462370 7.900515 -5.518214 19.945004 0.424874 1.851125 0.024484 0.012710 -326159.000000 1 0 0
9.633270 9.300115 7.962286 15.578512 0.767804 1.034324 0.006425 0.001316 -785047.000000 1 0 0
-2.015930 14.269915 -1.931214 14.540428 -1.430454 1.704007 -0.003966 -0.000055 788636.000000 1 0 0
10.963970 11.606315 0.726886 15.982602 0.813850 1.525301 0.007467 0.001463 906108.000000 1 0 0
11.703570 9.798015 -0.634714 15.276698 0.697005 1.612356 0.005002 0.003514 -673057.000000 1 0 0
-0.145030 16.035215 11.063186 19.481870 -1.561752 0.966879 0.001418 -0.014884 -282864.000000 1 0 0
2.046570 20.106015 -1.930214 20.301872 1.469357 1.666016 0.017782 -0.010247 -134774.000000 1 0 0
9.459770 14.416715 1.651286 17.322115 0.990098 1.475323 0.006821 -0.003078 -85577.300000 1 0 0
8.428670 11.668915 -5.176114 15.297000 0.945248 1.915985 0.013950 -0.001542 -406640.000000 1 0 0
10.622970 10.101515 10.201386 17.859350 0.760242 0.962821 0.006330 -0.004215 -97091.600000 1 0 0
-5.075330 15.747615 5.885786 17.561004 -1.259016 1.229019 0.000711 -0.007942 -242495.000000 1 0 0
14.478670 9.109215 -2.102714 17.234590 0.561576 1.693106 0.027991 0.004623 -234266.000000 1 0 0
12.233470 9.522415 6.910386 16.973144 0.661425 1.151480 0.011420 0.001096 -1640740.000000 1 0 0
3.190370 13.006215 9.696886 16.533896 1.330250 0.944084 0.006006 -0.010163 -669975.000000 1 0 0
8.539170 12.693815 -2.660814 15.528371 0.978626 1.742998 0.009647 -0.004777 -844048.000000 1 0 0
9.483370 16.951115 1.952586 19.521455 1.060724 1.470606 0.004289 -0.004790 -209709.000000 1 0 0
9.577870 14.431915 -7.629214 18.926719 0.984879 1.985690 0.032827 -0.002099 49734.800000 1 0 0
6.429770 11.517615 7.283186 15.067920 1.061637 1.066311 0.004415 -0.001575 -885222.000000 1 0 0
5.368170 16.957515 -5.581214 18.642010 1.264212 1.874849 0.017855 -0.002378 -1090260.000000 1 0 0
-4.155630 17.320415 -4.649414 18.408778 -1.335321 1.826127 -0.003867 -0.002867 249710.000000 1 0 0
-0.016230 18.450615 -0.543514 18.458626 -1.569917 1.600246 0.010471 -0.010923 -118777.000000 1 0 0
6.513770 15.713615 -2.757214 17.232212 1.177827 1.731490 0.011102 -0.003861 592451.000000 1 0 0
-0.699330 20.637115 0.695586 20.660674 -1.536922 1.537123 0.011164 -0.007200 74959.700000 1 0 0
-1.406230 18.745115 4.133886 19.246970 -1.495918 1.354329 0.010021 -0.012575 -1523580.000000 1 0 0
7.219870 13.855215 -4.426214 16.238377 1.090416 1.846867 0.015317 -0.003021 194650.000000 1 0 0
-1.010330 12.103115 7.613886 14.334484 -1.487513 1.010829 0.003556 0.000165 492223.000000 1 0 0
7.678270 10.947315 10.965286 17.292688 0.959142 0.883953 0.006830 -0.004771 185790.000000 1 0 0
1.422870 15.999515 -7.278414 17.634749 1.482098 1.996247 -0.001606 -0.003571 10881.200000 1 0 0
8.936270 7.264515 14.847386 18.790290 0.682572 0.659722 0.016291 -0.002115 -86344.400000 1 0 0
11.351070 11.385715 -4.866014 16.797601 0.786922 1.864694 0.027912 -0.003560 -81818.200000 1 0 0
-3.315330 16.964015 4.482786 17.856780 -1.377796 1.317041 0.004392 -0.008706 -453504.000000 1 0 0
3.908770 15.366515 -6.783314 17.245916 1.321710 1.975046 0.010564 -0.006528 -373047.000000 1 0 0
-4.409730 14.137515 9.343786 17.510608 -1.268443 1.007936 0.013172 -0.013467 318914.000000 1 0 0
6.166070 17.527015 0.309986 18.582593 1.232515 1.554114 0.005486 -0.017755 -530773.000000 1 0 0
9.796970 10.766415 -2.219414 14.724881 0.832508 1.722098 0.009610 -0.000515 -1962210.000000 1 0 0
7.331070 18.120715 -2.405114 19.694910 1.186358 1.693220 0.017370 -0.003588 102500.000000 1 0 0
3.547970 10.410115 10.342086 15.096932 1.242323 0.816130 0.005491 -0.006758 1425800.000000 1 0 0
0.132870 18.591015 2.031586 18.702162 1.563649 1.461953 0.010954 -0.009643 630176.000000 1 0 0
-1.007730 17.054115 -7.567714 18.684985 -1.511775 1.987792 0.008017 -0.000031 332771.000000 1 0 0
10.024770 8.534115 12.896786 18.429711 0.705250 0.795704 0.016624 -0.014906 -2927.760000 1 0 0
3.841170 11.576015 5.524186 13.389375 1.250407 1.145512 0.005378 -0.002865 699022.000000 1 0 0
13.144970 13.869715 8.144686 20.772461 0.812220 1.167893 0.030004 -0.009557 -411246.000000 1 0 0
-0.605230 17.479215 6.616786 18.699496 -1.536184 1.209114 0.008553 -0.009872 -578639.000000 1 0 0
12.137870 13.694415 5.707886 19.168851 0.845581 1.268442 0.015195 -0.004847 484307.000000 1 0 0
4.864970 14.598315 -4.512714 16.035689 1.249116 1.856067 0.005398 -0.006398 -611044.000000 1 0 0
3.828170 17.556315 4.658286 18.562832 1.356106 1.317138 0.010895 -0.009101 -981582.000000 1 0 0
7.135770 11.800115 1.964986 13.929218 1.026913 1.429255 0.008665 -0.002472 727424.000000 1 0 0
6.502370 8.757915 11.698086 15.994597 0.932141 0.750457 0.009945 -0.006855 323520.000000 1 0 0
-5.384530 14.979315 1.792486 16.018304 -1.225715 1.458659 0.003578 0.000585 -80518.300000 1 0 0
6.766770 13.789815 6.069286 16.516187 1.114610 1.194504 0.008726 -0.007227 -412909.000000 1 0 0
6.012570 16.000815 5.013486 17.813257 1.211354 1.285495 0.012953 -0.009434 710692.000000 1 0 0
1.205270 17.998015 4.254486 18.533264 1.503929 1.339171 0.013160 -0.008007 1212470.000000 1 0 0
7.242870 18.161615 -7.039214 20.781096 1.191324 1.916365 0.021756 0.001790 312930.000000 1 0 0
-2.367130 18.752015 -6.008614 19.832923 -1.445227 1.878595 0.009727 -0.004613 -840199.000000 1 0 0
13.506270 10.089315 -4.562614 17.465138 0.641585 1.835104 0.026035 0.001538 -1132980.000000 1 0 0
-1.311530 18.144615 10.010286 20.764224 -1.498640 1.067754 0.006064 -0.007821 -194999.000000 1 0 0
3.417270 11.807415 -1.586914 12.393994 1.289077 1.699188 0.007419 -0.008177 1113250.000000 1 0 0
4.300770 13.860415 -10.831614 18.108881 1.269925 2.211972 0.004302 -0.014682 -601846.000000 1 0 0
11.698370 13.426715 2.405986 17.969900 0.854080 1.436503 0.014998 -0.002761 895395.000000 1 0 0
15.858970 6.608115 -7.209514 18.631994 0.394802 1.968110 0.012060 0.003721 -269976.000000 1 0 0
2.491670 16.068415 2.956286 16.527009 1.416955 1.390952 0.013889 -0.009328 193622.000000 1 0 0
13.401970 10.589215 3.547186 17.444965 0.668690 1.366033 0.008397 0.006606 -241753.000000 1 0 0
-4.889530 19.485815 -6.025214 20.973977 -1.324945 1.862173 -0.001157 -0.009031 655647.000000 1 0 0
5.571770 12.062515 -0.037814 13.287224 1.138084 1.573642 0.007552 -0.007970 467336.000000 1 0 0
4.402170 15.461715 9.545286 18.696423 1.293422 1.034983 0.006583 -0.006557 -539032.000000 1 0 0
7.794070 9.505815 13.937686 18.584056 0.884023 0.722763 0.010411 -0.009846 -1699300.000000 1 0 0
-5.075530 13.556215 7.023886 16.089343 -1.212546 1.119030 0.007810 -0.005616 -944884.000000 1 0 0
-4.594230 17.253015 0.603886 17.864439 -1.310550 1.536986 0.004769 -0.000434 -2154940.000000 1 0 0
-0.664530 16.466915 3.532486 16.854654 -1.530463 1.359646 0.011664 -0.009934 -1475030.000000 1 0 0
7.738770 17.052815 -4.753514 19.320532 1.144777 1.819383 0.013871 -0.003105 102011.000000 1 0 0
2.992970 16.371015 -4.583314 17.261946 1.389972 1.839535 0.001056 -0.007192 -543341.000000 1 0 0
9.472770 14.443715 8.061786 19.061655 0.990326 1.134118 0.013934 -0.009327 241536.000000 1 0 0
12.807670 10.956215 9.048586 19.129871 0.707645 1.078094 0.030167 -0.008727 -189787.000000 1 0 0
3.639970 12.380615 12.175486 17.741801 1.284848 0.814462 0.010216 -0.008265 743892.000000 1 0 0
-3.357730 19.168815 5.907686 20.337615 -1.397389 1.276067 0.012820 -0.010868 69148.500000 1 0 0
-2.583830 15.834015 10.171986 18.996356 -1.409040 1.005732 0.003367 -0.012939 -565637.000000 1 0 0
2.036970 14.234415 7.652986 16.289138 1.428660 1.081708 0.006345 -0.007985 -19270.100000 1 0 0
4.594470 17.334215 7.846686 19.574337 1.311702 1.158334 0.017433 -0.011910 23229.000000 1 0 0
-1.814430 13.592815 9.405186 16.628720 -1.438096 0.969637 0.003939 -0.005521 -312906.000000 1 0 0
5.895170 17.563015 2.978386 18.763883 1.246955 1.411392 0.005350 -0.018630 416440.000000 1 0 0
7.242370 15.482515 -6.732014 18.370634 1.133258 1.945993 0.018809 -0.000697 -64296.900000 1 0 0
11.025070 7.647315 9.508386 16.445152 0.606438 0.954290 0.008715 0.002316 610127.000000 1 0 0
9.101470 16.345015 -2.699914 18.902006 1.062721 1.714124 0.016961 -0.010207 -391891.000000 1 0 0
14.636470 11.407015 -6.611314 19.699130 0.662026 1.913054 0.060452 -0.005488 603514.000000 1 0 0
11.040970 6.395915 16.100686 20.543682 0.525052 0.670149 0.027149 -0.009381 -169707.000000 1 0 0
8.555570 8.593815 10.206886 15.850299 0.787628 0.871139 0.004066 -0.001769 -222170.000000 1 0 0
16.489170 9.438815 4.470186 19.518364 0.519897 1.339721 0.028699 0.005022 -6351.000000 1 0 0
-3.307830 14.311715 4.740586 15.435028 -1.343657 1.258619 0.001841 -0.002436 -773224.000000 1 0 0
4.863570 14.561815 12.653986 19.895330 1.248451 0.881456 0.017116 -0.009272 -1007330.000000 1 0 0
16.118470 10.617815 -4.612914 19.844950 0.582492 1.805390 0.050426 -0.008062 1124560.000000 1 0 0
14.774770 14.028515 6.026786 21.246534 0.759495 1.283188 0.027756 -0.001982 341560.000000 1 0 0
6.224870 9.553815 9.226986 14.668390 0.993326 0.890480 0.004808 -0.003367 1021590.000000 1 0 0
10.515870 12.244615 8.660786 18.317296 0.861206 1.078308 0.022467 -0.007451 451651.000000 1 0 0
8.116870 11.497915 -0.415114 14.080410 0.956093 1.600282 0.007604 -0.003060 -110271.000000 1 0 0
7.243970 13.639615 -8.621814 17.687563 1.082581 2.079964 0.019495 0.001501 -970719.000000 1 0 0
2.799970 15.412215 -2.280114 15.829565 1.391084 1.715341 0.004876 -0.006801 342571.000000 1 0 0
12.014270 13.555515 -7.906614 19.763836 0.845601 1.982373 0.034594 -0.012538 -1086160.000000 1 0 0
-8.096830 14.727715 9.693786 19.401901 -1.068131 1.047624 0.033149 -0.024169 239746.000000 1 0 0
11.499570 9.510915 2.213086 15.086264 0.691029 1.423570 0.011690 0.003088 -2340680.000000 1 0 0
12.092570 8.555015 4.431986 15.461599 0.615715 1.280074 0.008032 0.003946 399196.000000 1 0 0
14.147570 8.008515 5.971786 17.319131 0.515097 1.218761 0.013129 0.000424 -2065620.000000 1 0 0
16.249070 7.280615 7.101886 19.169675 0.421242 1.191276 0.042373 -0.002619 -73074.700000 1 0 0
13.692470 8.258715 2.292886 16.153868 0.542738 1.428375 0.004748 0.005911 -1955040.000000 1 0 0
-4.196430 17.326715 -7.284414 19.258447 -1.333178 1.958696 0.001683 -0.011522 183121.000000 1 0 0
2.769870 19.421015 -4.332014 20.090156 1.429129 1.788132 0.010463 -0.011158 386835.000000 1 0 0
-0.152230 14.904315 6.260986 16.166686 -1.560583 1.173120 0.008193 -0.003935 855109.000000 1 0 0
6.737970 15.982815 8.492186 19.312376 1.171829 1.115501 0.023702 -0.013674 -190534.000000 1 0 0
12.859270 15.098115 -2.087114 19.941664 0.865308 1.675649 0.041564 -0.014238 -263859.000000 1 0 0
12.897570 15.833015 4.436386 20.897684 0.887216 1.356878 0.026928 -0.001770 815137.000000 1 0 0
3.129770 17.993615 1.266386 18.307632 1.398581 1.501568 0.022659 -0.012430 -784575.000000 1 0 0
10.404270 14.523815 -1.362914 17.917801 0.949175 1.646935 0.015849 0.000048 -1368540.000000 1 0 0
-6.240930 15.777715 -0.596814 16.977682 -1.194129 1.605956 0.001456 -0.005281 465245.000000 1 0 0
-3.910630 15.865815 -2.647514 16.553744 -1.329132 1.731421 -0.001666 -0.002082 -2346790.000000 1 0 0
-6.933630 17.091615 1.646086 18.517779 -1.185408 1.481787 0.014424 -0.003147 42947.300000 1 0 0
0.155370 19.307715 -6.649314 20.421199 1.562749 1.902451 0.012876 -0.009609 384615.000000 1 0 0
4.741770 14.920415 7.071286 17.178657 1.263087 1.146552 0.011782 -0.008978 -558381.000000 1 0 0
8.755170 12.316115 6.815286 16.576725 0.952812 1.147097 0.010474 -0.004942 -529275.000000 1 0 0
-7.487530 17.443715 -5.653714 19.806837 -1.165340 1.860264 0.022327 -0.016912 342681.000000 1 0 0
-7.816430 17.795315 -1.333514 19.481994 -1.156926 1.639298 0.032599 -0.009351 -64283.400000 1 0 0
-13.669030 -9.274085 9.232686 18.923359 0.596133 1.061115 0.032642 -0.007584 583129.000000 1 0 0
-12.443130 -12.969985 7.534186 19.488867 0.806127 1.173866 0.017996 -0.008182 -392337.000000 1 0 0
-4.029530 -14.926785 12.472986 19.865080 1.307128 0.891963 0.001368 -0.006386 43392.300000 1 0 0
-2.167430 -14.165285 14.821086 20.615956 1.418964 0.768559 0.001092 -0.005543 -1117360.000000 1 0 0
-7.095630 -13.701685 12.697286 19.982623 1.092959 0.882249 0.014182 -0.009220 208780.000000 1 0 0
-9.887030 -11.564885 9.053986 17.705214 0.863454 1.034013 0.008247 -0.004769 507113.000000 1 0 0
-10.730430 -10.676185 11.285886 18.881056 0.782864 0.930122 0.036386 -0.008350 506146.000000 1 0 0
-5.883530 -12.230485 10.899286 17.406755 1.122420 0.894187 0.007689 -0.004610 584090.000000 1 0 0
-12.428630 -10.448085 7.288086 17.797458 0.699039 1.148889 0.014791 -0.005108 -507593.000000 1 0 0
-7.466330 -11.125185 12.828186 18.549345 0.979717 0.807135 0.008031 -0.002287 26931.700000 1 0 0
-14.723330 -11.602485 7.287886 20.112369 0.667402 1.199999 0.040460 -0.006844 687366.000000 1 0 0
-11.066530 -9.233585 9.120086 17.055883 0.695350 1.006622 0.015462 -0.004679 -1293400.000000 1 0 0
-5.186530 -12.073685 13.410086 18.775100 1.165059 0.775247 0.007933 -0.003190 -1187860.000000 1 0 0
3.838270 -12.493485 14.671586 19.648789 -1.272727 0.727722 0.001328 -0.002129 296286.000000 1 0 0
6.430470 -12.829685 14.280986 20.245946 -1.106175 0.787844 0.014610 0.001924 -298300.000000 1 0 0
6.663370 -8.467385 15.907486 19.213152 -0.904066 0.595358 0.004361 -0.003878 -966843.000000 1 0 0
0.840470 -1.825885 14.341586 14.481759 -1.139403 0.139247 0.004587 -0.003033 -1560670.000000 1 0 0
-0.050330 -6.402585 15.485686 16.757151 1.562936 0.392060 0.003055 -0.005295 -65595.000000 1 0 0
-1.413830 -4.759985 18.318086 18.979164 1.282072 0.264711 0.020042 -0.017945 -468716.000000 1 0 0
-5.176730 12.833315 12.901786 18.919530 -1.187378 0.820399 0.013866 -0.013268 -896190.000000 1 0 0
-3.970730 9.021615 11.744386 15.332542 -1.156176 0.698235 -0.003471 0.002285 -154863.000000 1 0 0
-0.582730 -3.961285 15.118086 15.639306 1.424738 0.258899 0.005380 -0.003915 166272.000000 1 0 0
-4.587430 9.247715 14.241886 17.589658 -1.110305 0.627200 0.003226 -0.003905 366111.000000 1 0 0
-13.360530 -2.301885 16.834286 21.614709 0.170615 0.677990 0.030839 -0.004905 110565.000000 1 0 0
-0.164930 0.705915 17.376786 17.391901 -1.341274 0.041694 0.003102 0.006051 227846.000000 1 0 0
-3.150430 -7.257585 15.416386 17.328090 1.161253 0.474161 0.013699 -0.009812 267856.000000 1 0 0
-7.404030 5.541615 12.576586 15.610884 -0.642514 0.634059 -0.008075 0.003739 -791269.000000 1 0 0
-9.854930 10.305215 13.485386 19.625819 -0.807730 0.813272 0.006850 -0.005439 1493080.000000 1 0 0
-5.425730 2.279515 11.152786 12.610289 -0.397739 0.485547 -0.001049 0.006212 -2606300.000000 1 0 0
-7.134330 -7.302385 16.949486 19.786576 0.797038 0.542123 0.023774 -0.013896 -117775.000000 1 0 0
-4.606230 2.589815 18.663586 19.397267 -0.512193 0.275916 0.010889 0.000333 -570804.000000 1 0 0
0.985370 -8.435085 16.537986 18.591036 -1.454505 0.474398 -0.002221 0.001617 595150.000000 1 0 0
-14.884930 -3.725285 13.869086 20.683096 0.245235 0.835844 0.032452 -0.009097 -11254.300000 1 0 0
-14.186130 2.162915 13.185286 19.487849 -0.151302 0.827674 0.016932 -0.007280 -411886.000000 1 0 0
-5.370230 0.910715 16.039986 16.939597 -0.167988 0.327365 0.008673 -0.001552 141715.000000 1 0 0
4.519270 5.871615 15.117786 16.835888 0.914818 0.455707 -0.005254 0.001973 30849.100000 1 0 0
-1.160130 -12.084085 13.807986 18.385633 1.475085 0.721190 -0.012368 -0.000399 -33312.200000 1 0 0
-5.813730 -3.972085 16.728586 18.150000 0.599379 0.398394 0.020619 -0.014943 -239883.000000 1 0 0
-12.942830 -1.607785 9.834586 16.334654 0.123589 0.924707 0.010608 0.001260 -603092.000000 1 0 0
-14.503330 10.382715 10.384586 20.639452 -0.621308 1.043565 0.001415 0.007538 474849.000000 1 0 0
-3.528230 -3.352385 17.784386 18.438310 0.759847 0.267122 0.022144 -0.011370 -1206700.000000 1 0 0
-7.991430 9.467615 11.820986 17.124089 -0.869749 0.808874 -0.000458 -0.009140 85483.900000 1 0 0
-4.186030 10.684415 16.356486 19.980346 -1.197389 0.611777 0.002746 -0.003698 374417.000000 1 0 0
-12.719830 12.676015 8.048786 19.678882 -0.783673 1.149432 0.012107 -0.017414 505830.000000 1 0 0
-12.468130 3.055615 10.482586 16.573342 -0.240337 0.886024 0.007367 -0.000171 474980.000000 1 0 0
-10.148130 -3.511985 13.653386 17.370479 0.333171 0.666467 0.013415 -0.004427 -321323.000000 1 0 0
-4.259430 -6.411685 17.730086 19.328953 0.984418 0.409597 0.020005 -0.011675 -288247.000000 1 0 0
0.936070 -3.676385 17.769986 18.170428 -1.321477 0.210331 0.011806 -0.010413 -641055.000000 1 0 0
-5.802430 1.846315 13.639086 14.936591 -0.308066 0.419893 0.001561 0.005442 -899013.000000 1 0 0
-10.575630 8.708015 10.243186 17.105448 -0.688850 0.928762 0.004140 -0.008541 59733.500000 1 0 0
4.563670 2.607515 17.228886 18.012794 0.519097 0.296104 -0.010906 0.003908 -244925.000000 1 0 0
0.605870 -5.396885 13.162786 14.239115 -1.459002 0.391309 -0.000106 -0.004645 -1012350.000000 1 0 0
-4.231530 5.513415 20.742786 21.876169 -0.916191 0.323304 0.041476 -0.000488 285666.000000 1 0 0
-10.908130 10.913315 8.897886 17.811798 -0.785636 1.047717 0.010844 -0.012618 640189.000000 1 0 0
0.767470 4.230615 13.081186 13.769697 1.391339 0.317566 0.003151 0.002528 -2134320.000000 1 0 0
-3.088630 7.226615 13.367786 15.506815 -1.166898 0.531478 -0.003781 0.005649 166524.000000 1 0 0
0.646570 9.026415 13.974086 16.648403 1.499288 0.574682 0.004265 -0.004454 50779.300000 1 0 0
-4.132330 -6.592485 13.114586 15.248914 1.010886 0.535460 0.009252 -0.007230 199518.000000 1 0 0
-5.086430 8.250615 16.710386 19.317905 -1.018339 0.525605 0.009400 0.008392 286330.000000 1 0 0
1.524370 -10.768385 15.662986 19.068586 -1.430171 0.606930 -0.011977 0.002667 -709615.000000 1 0 0
-15.127730 -1.040385 14.290686 20.836371 0.068665 0.815021 0.030657 -0.008424 421335.000000 1 0 0
-13.596530 -5.397185 8.493886 16.915713 0.377877 1.044736 0.023752 -0.001956 -259632.000000 1 0 0
-14.079030 -1.969285 12.154886 18.703968 0.138972 0.863401 0.020134 -0.004212 754651.000000 1 0 0
9.356970 1.668515 17.060586 19.529476 0.176463 0.508283 0.011329 0.004530 -1283440.000000 1 0 0
5.154470 -6.673885 16.592486 18.612359 -0.913154 0.470202 0.005473 -0.007283 -126293.000000 1 0 0
-6.187030 -2.644385 10.897886 12.807656 0.403908 0.553122 0.002172 -0.000455 163955.000000 1 0 0
0.720370 -6.270985 17.958986 19.036002 -1.456424 0.337993 0.012231 -0.006861 -224486.000000 1 0 0
-8.427930 12.085715 12.093786 19.061852 -0.961854 0.883500 0.007092 -0.014295 249103.000000 1 0 0
-6.610030 -5.813085 14.861786 17.273018 0.721336 0.534733 0.019946 -0.010292 -495068.000000 1 0 0
-4.236530 -8.969985 17.136186 19.800447 1.129553 0.524760 0.020852 -0.011056 -19308.800000 1 0 0
2.565670 -6.248085 16.189086 17.541600 -1.181157 0.395259 0.001552 -0.003816 393755.000000 1 0 0
2.220870 5.378315 15.885986 16.918129 1.179193 0.351109 -0.003053 0.002718 -2642230.000000 1 0 0
0.883470 -8.889585 13.959486 16.573246 -1.471739 0.569278 -0.012447 -0.000561 -674876.000000 1 0 0
-9.940730 -2.773685 11.261686 15.275373 0.272102 0.741813 0.000065 -0.000309 401418.000000 1 0 0
-1.268030 10.211215 12.321286 16.052754 -1.447249 0.695787 0.001304 -0.002867 -655083.000000 1 0 0
-12.305930 -3.768685 11.296186 17.124331 0.297180 0.850434 0.014607 -0.001425 -2019800.000000 1 0 0
-1.795030 6.369815 19.991586 21.058495 -1.296117 0.319680 0.014180 0.003427 435036.000000 1 0 0
0.165570 -13.549785 15.764886 20.788355 -1.558578 0.710015 -0.015351 0.000644 46919.500000 1 0 0
4.068170 -8.641585 15.292086 18.029834 -1.130808 0.558304 -0.001435 -0.001151 -371262.000000 1 0 0
4.430170 -4.362385 16.193786 17.346340 -0.777689 0.366586 0.000085 -0.000359 322924.000000 1 0 0
8.009170 1.848315 14.824486 16.950766 0.226804 0.506266 -0.002404 0.004966 -390672.000000 1 0 0
-6.341730 -0.040985 11.815986 13.410323 0.006463 0.492589 0.000453 0.003050 273495.000000 1 0 0
-3.464330 -10.941785 18.660286 21.907317 1.264167 0.551416 0.019152 -0.008649 -323187.000000 1 0 0
3.342070 -1.485385 13.539986 14.025228 -0.418229 0.263815 -0.005382 0.000765 -107835.000000 1 0 0
-2.590830 8.683615 15.859086 18.265492 -1.280846 0.519124 0.006885 0.000048 -96827.200000 1 0 0
-3.262730 4.076215 14.819586 15.712450 -0.895792 0.338738 -0.000542 0.005816 -1494140.000000 1 0 0
-4.718030 -8.940385 19.806386 22.236979 1.085219 0.471923 0.042333 -0.018208 26723.800000 1 0 0
-5.649130 -2.897085 19.112286 20.139148 0.473865 0.320710 0.028166 -0.016219 -898537.000000 1 0 0
-6.566030 -8.661685 11.219486 15.620961 0.922160 0.769537 0.010230 -0.005863 -83668.800000 1 0 0
-11.561930 2.389415 12.818486 17.427023 -0.203793 0.744315 0.011673 -0.006653 140965.000000 1 0 0
-11.592630 -7.752785 11.767386 18.247359 0.589456 0.869928 0.025364 -0.000967 -835498.000000 1 0 0
-11.073630 -7.175685 15.696786 20.506215 0.574966 0.699033 0.041889 -0.017945 159447.000000 1 0 0
0.416170 5.852815 17.618386 18.569765 1.499810 0.321485 0.001904 0.006329 -299730.000000 1 0 0
-2.028830 -0.147385 13.178886 13.334951 0.072518 0.153143 0.006867 0.002021 438595.000000 1 0 0
-5.997330 -10.502985 18.221886 21.870478 1.051964 0.585976 0.038232 -0.017305 -916595.000000 1 0 0
0.437570 2.619215 19.165986 19.349077 1.405264 0.137677 0.009809 0.003925 -631256.000000 1 0 0
-0.817730 11.036015 14.721386 18.416882 -1.496835 0.644597 0.004357 -0.003947 -754523.000000 1 0 0
-12.766830 -2.194185 14.355786 19.336365 0.170203 0.734114 0.022315 -0.003411 -141554.000000 1 0 0
-13.736330 8.391115 11.850586 19.988346 -0.548374 0.936172 0.012947 -0.002143 419493.000000 1 0 0
-18.037630 -0.769985 6.877186 19.319541 0.042662 1.206844 0.046286 -0.006459 -307970.000000 1 0 0
-2.012530 -7.863785 17.777986 19.543444 1.320250 0.428320 0.015923 -0.008955 -20124.700000 1 0 0
5.693570 2.822215 14.563586 15.889609 0.460189 0.411435 -0.008264 0.004811 -2454930.000000 1 0 0
-13.979930 -6.827585 11.095486 19.109269 0.454312 0.951289 0.027602 -0.009083 817106.000000 1 0 0
3.205270 7.784215 16.257886 18.308103 1.180189 0.477784 -0.001240 -0.004054 -98404.800000 1 0 0
1.063170 2.138215 14.553486 14.748094 1.109373 0.162632 0.000927 0.000490 -1825960.000000 1 0 0
-14.305330 0.564215 9.704786 17.295771 -0.039420 0.975073 0.013642 -0.001839 -1227520.000000 1 0 0
-9.419330 -5.147485 15.565186 18.907549 0.500137 0.603726 0.017439 -0.006943 -595112.000000 1 0 0
-2.470730 -0.187985 18.219886 18.387607 0.075938 0.135169 0.017409 -0.001241 -71099.400000 1 0 0
6.752170 3.820015 17.760686 19.381081 0.514852 0.411822 0.003569 0.007141 -581035.000000 1 0 0
-4.063130 -0.902585 14.682886 15.261417 0.218591 0.276224 0.008802 -0.000488 -103916.000000 1 0 0
4.778970 -8.803685 17.806886 20.431070 -1.073469 0.512423 0.003707 0.002216 -84327.100000 1 0 0
1.942770 6.986215 13.349786 15.192049 1.299563 0.497591 0.005257 -0.000067 -1168990.000000 1 0 0
-3.565330 -0.807685 20.473686 20.797494 0.222778 0.176693 0.025708 -0.008184 -949289.000000 1 0 0
-10.390030 1.500615 16.203286 19.306762 -0.143437 0.574886 0.016869 -0.019162 -738990.000000 1 0 0
-3.919030 6.990415 18.562086 20.218204 -1.059829 0.407567 0.014595 0.006670 132290.000000 1 0 0
-12.560130 1.090515 14.920386 19.533664 -0.086606 0.701571 0.026882 -0.010723 659493.000000 1 0 0
-16.049830 -4.730685 8.412686 18.728313 0.286633 1.104931 0.043489 -0.007613 -1392100.000000 1 0 0
-2.278130 0.752915 15.744386 15.926157 -0.319196 0.151229 0.007325 0.005142 9408.350000 1 0 0
-13.760330 -8.973085 12.576486 20.688909 0.577849 0.917402 0.042731 -0.012502 589302.000000 1 0 0
6.120470 -3.154285 14.585686 16.129225 -0.475865 0.441055 -0.001773 0.000093 742184.000000 1 0 0
-15.785430 0.388215 7.566486 17.509490 -0.024588 1.123936 0.024981 -0.000980 416320.000000 1 0 0
-13.872830 5.888015 12.783786 19.762321 -0.401386 0.867315 0.007278 0.002363 186619.000000 1 0 0
0.319870 9.432815 16.478586 18.990106 1.536899 0.520147 0.003268 -0.006633 -709753.000000 1 0 0
-10.404230 -5.512085 10.893586 16.040614 0.487197 0.824226 0.014497 -0.005307 78604.700000 1 0 0
-3.085430 -11.132485 15.201486 19.092859 1.300427 0.649829 0.003531 -0.000888 -1975200.000000 1 0 0
-3.400130 2.722015 12.582186 13.314716 -0.675084 0.333252 0.000562 0.006704 -1842010.000000 1 0 0
-12.273730 -7.762085 7.476286 16.333685 0.563913 1.095365 0.019261 -0.003487 304276.000000 1 0 0
-8.170830 -1.813385 13.219486 15.646266 0.218394 0.564423 0.005994 -0.000038 -127509.000000 1 0 0
-9.817930 6.516415 9.488086 15.128754 -0.585964 0.892900 0.002517 0.001378 -545891.000000 1 0 0
-17.724030 -3.611185 6.527486 19.229924 0.200994 1.224470 0.043555 -0.012161 218106.000000 1 0 0
-1.135330 -0.061585 20.456786 20.488360 0.054191 0.055523 0.018953 -0.004201 -1218400.000000 1 0 0
-2.576530 2.630115 20.307186 20.638261 -0.795690 0.179359 0.020513 0.006121 -452604.000000 1 0 0
-3.829630 11.449215 11.100186 16.400144 -1.248007 0.827342 0.004441 -0.009241 -705078.000000 1 0 0
-4.088430 -4.776985 14.923986 16.194450 0.862910 0.398744 0.012457 -0.011446 1249220.000000 1 0 0
-0.163530 -14.422285 13.247586 19.583860 1.559458 0.827859 -0.010983 -0.007620 -758063.000000 1 0 0
-12.085130 0.418815 8.404686 14.726321 -0.034642 0.963407 0.002889 0.001405 -595945.000000 1 0 0
-7.675130 1.937715 15.402886 17.317947 -0.247299 0.474727 -0.001898 -0.002424 -1512300.000000 1 0 0
3.645770 -2.198585 18.387586 18.874023 -0.542660 0.227527 0.003607 -0.001250 -298614.000000 1 0 0
-2.097230 4.946915 12.475186 13.583101 -1.169818 0.406692 -0.002657 0.006446 -100858.000000 1 0 0
-10.285730 -6.265685 13.378586 18.001156 0.547130 0.732945 0.013805 -0.007035 -330643.000000 1 0 0
2.450770 -3.826685 14.183586 14.893754 -1.001170 0.310052 -0.002119 -0.004828 -525276.000000 1 0 0
6.791170 1.254115 17.084086 18.427121 0.182611 0.384152 -0.005043 0.005271 -598638.000000 1 0 0
-1.865130 -5.639085 13.842586 15.063040 1.251372 0.405318 0.004316 -0.007480 -2532810.000000 1 0 0
-12.746030 3.671115 14.668886 19.776618 -0.280430 0.735152 0.011679 -0.011274 321630.000000 1 0 0
-13.216730 -6.517085 13.494386 19.981312 0.458107 0.829357 0.024644 -0.009812 -598202.000000 1 0 0
-9.500630 6.904815 11.929686 16.740844 -0.628470 0.777585 -0.000139 -0.000753 -1102120.000000 1 0 0
-1.062230 -2.600585 12.838786 13.142519 1.183020 0.215408 0.002689 -0.002163 484962.000000 1 0 0
0.094670 6.786215 15.183086 16.630929 1.556847 0.420358 0.004898 0.001053 271160.000000 1 0 0
-16.350930 -0.945785 9.814986 19.094014 0.057778 1.030914 0.032289 0.000358 50425.000000 1 0 0
-1.290230 2.824615 13.783486 14.128965 -1.142318 0.221595 0.000989 0.004563 -1953410.000000 1 0 0
-11.100030 -3.445085 16.115886 19.869602 0.300941 0.624796 0.020264 -0.007252 362331.000000 1 0 0
-5.119730 -1.405485 17.102786 17.907884 0.267923 0.300994 0.023584 -0.004751 311324.000000 1 0 0
-11.894930 6.605815 11.161586 17.598499 -0.506939 0.883778 0.011525 0.002488 -758322.000000 1 0 0
-2.988930 4.586515 18.596086 19.385156 -0.993243 0.286301 0.019855 0.001752 206303.000000 1 0 0
5.221470 -1.838685 16.441586 17.348495 -0.338579 0.324770 -0.001548 0.001693 -1475590.000000 1 0 0
-8.057530 -4.157785 12.117086 15.133894 0.476375 0.642402 0.010881 -0.002608 -950498.000000 1 0 0
-11.430430 -0.889685 16.163486 19.816775 0.077678 0.616950 0.026061 -0.008857 229602.000000 1 0 0
2.055570 2.031915 17.234886 17.475565 0.779611 0.166157 -0.002396 0.001702 -1957660.000000 1 0 0
-8.923630 -7.461385 11.645986 16.460025 0.696391 0.784797 0.012622 -0.006260 149409.000000 1 0 0
-7.141330 6.955015 14.825386 17.865131 -0.772182 0.591957 -0.007814 -0.000717 -357886.000000 1 0 0
-5.541830 3.410615 15.811386 17.098074 -0.551689 0.390427 0.001127 0.002043 7696.080000 1 0 0
-9.349030 4.278815 11.499586 15.425729 -0.429218 0.729540 -0.005016 0.000545 -223167.000000 1 0 0
-10.278830 0.077315 13.975186 17.348376 -0.007522 0.634174 0.012628 -0.005571 -338613.000000 1 0 0
8.280770 -0.536385 16.043786 18.062722 -0.064684 0.477326 -0.004104 0.006337 75943.800000 1 0 0
-8.609430 -7.489585 14.875886 18.748551 0.715950 0.654353 0.024906 -0.005498 -610400.000000 1 0 0
-0.051830 4.175615 15.604286 16.153396 -1.558384 0.261487 0.001329 0.000738 259268.000000 1 0 0
-7.998430 3.131715 9.598286 12.880591 -0.373193 0.730000 -0.006059 0.007561 -273689.000000 1 0 0
-2.283530 -9.711785 13.237286 16.575857 1.339861 0.645850 -0.008057 0.000435 712099.000000 1 0 0
-6.091030 10.463515 10.595986 16.089149 -1.043627 0.851867 0.007129 -0.008914 -969516.000000 1 0 0
-8.509530 -2.714485 15.588486 17.966119 0.308790 0.520320 0.015311 -0.011095 57360.700000 1 0 0
4.039670 5.671715 17.723586 19.042395 0.951897 0.374355 -0.008040 0.004174 89192.300000 1 0 0
-6.626930 -1.014885 15.076086 16.499533 0.151965 0.418430 0.006860 -0.004341 -1501550.000000 1 0 0
-0.874930 -10.050085 15.508586 18.500972 1.483958 0.576716 -0.011904 0.002312 -201220.000000 1 0 0
-4.378730 5.755315 16.281386 17.815175 -0.920409 0.417993 0.005574 0.001507 47861.500000 1 0 0
3.906170 0.149915 17.333986 17.769292 0.038360 0.221803 -0.005002 0.002154 -877547.000000 1 0 0
1.663770 0.337115 19.233686 19.308456 0.199915 0.088033 0.008647 0.002791 -398775.000000 1 0 0
-6.420530 6.421215 17.834286 20.012920 -0.785452 0.470948 0.013215 0.000108 -840352.000000 1 0 0
-12.115330 0.510715 11.056286 16.409861 -0.042130 0.831513 0.012536 -0.002193 -28717.800000 1 0 0
-5.363130 5.167815 13.969086 15.830504 -0.766854 0.489824 -0.007769 0.006635 -1439620.000000 1 0 0
-8.684930 -9.533485 10.094086 16.376994 0.831941 0.906687 0.012762 -0.000882 -829047.000000 1 0 0
6.928970 -3.690185 17.068986 18.787719 -0.489365 0.431072 -0.005424 0.002964 -71324.100000 1 0 0
-16.668730 1.669015 9.636986 19.326243 -0.099796 1.048758 0.026975 -0.005293 263868.000000 1 0 0
-4.126130 -9.533585 11.315186 15.360587 1.162338 0.742711 -0.000435 -0.003900 -751735.000000 1 0 0
-11.001230 -3.999185 9.117786 14.837607 0.348670 0.909038 0.006293 0.001579 -55049.900000 1 0 0
3.785270 -5.360685 18.467486 19.598808 -0.955977 0.341432 0.001650 -0.002307 -95756.300000 1 0 0
2.625170 -1.903485 16.046986 16.371333 -0.627367 0.199387 0.002511 0.000264 -78017.900000 1 0 0
-3.123030 -4.303085 20.131986 20.822265 0.942987 0.258208 0.025879 -0.018639 -462197.000000 1 0 0
-6.270030 -3.412485 14.343386 16.021581 0.498420 0.461795 0.012934 -0.005826 868226.000000 1 0 0
-9.641030 5.214015 13.905586 17.705952 -0.495764 0.667515 0.006641 -0.006252 98037.400000 1 0 0
-5.868830 -5.228185 11.684786 14.082305 0.727731 0.592137 0.008452 -0.001042 -1823850.000000 1 0 0
5.759170 1.936215 19.401886 20.331015 0.324326 0.303488 -0.009164 -0.002367 323804.000000 1 0 0
-2.877630 11.916415 13.449886 18.198383 -1.333848 0.739107 0.008052 -0.020282 -270114.000000 1 0 0
3.425070 1.357215 15.138486 15.580337 0.377277 0.238724 -0.005818 0.005462 -764262.000000 1 0 0
-5.709930 7.479515 12.823186 15.905363 -0.918768 0.633065 -0.013057 -0.001585 -829621.000000 1 0 0
-1.671230 -1.698985 15.210886 15.396448 0.793633 0.155413 0.008005 -0.003609 128627.000000 1 0 0
-7.219030 10.695715 13.910086 18.973751 -0.977084 0.747894 0.014482 -0.017919 169317.000000 1 0 0
-10.079430 2.005315 10.611286 14.772122 -0.196387 0.769395 -0.004629 0.003988 -685846.000000 1 0 0
-13.639830 5.092415 9.330086 17.292431 -0.357322 1.000897 0.000625 0.004863 381980.000000 1 0 0
0.598670 -4.873385 20.011586 20.605142 -1.448564 0.240606 0.024824 -0.013988 -225226.000000 1 0 0
-14.317230 -3.041185 7.523286 16.456966 0.209303 1.096009 0.018497 -0.004031 420903.000000 1 0 0
-2.226230 2.332415 17.720086 18.011045 -0.808687 0.179989 0.007305 0.005286 -566220.000000 1 0 0
-6.092430 -8.433685 14.779986 18.074644 0.945199 0.613359 0.014796 -0.004273 628064.000000 1 0 0
-7.874030 2.169615 12.043886 14.552071 -0.268869 0.595905 -0.005103 0.003574 115847.000000 1 0 0
-14.588630 -3.495085 10.113086 18.091939 0.235144 0.977638 0.023395 -0.006050 532705.000000 1 0 0
-0.560030 7.082215 12.695586 14.548172 -1.491885 0.510176 0.004591 0.001855 -1409410.000000 1 0 0
-1.628430 -2.323185 19.385786 19.592286 0.959435 0.145316 0.022907 -0.005896 253630.000000 1 0 0
-12.806530 10.226715 7.155486 17.882782 -0.673859 1.159135 -0.001429 -0.013415 -80792.000000 1 0 0
-19.615830 2.180115 6.920186 20.914652 -0.110686 1.233563 0.042815 -0.008778 1070140.000000 1 0 0
-16.144030 8.341615 6.858186 19.422847 -0.476918 1.209915 0.010730 0.001748 612213.000000 1 0 0
-12.132830 7.629915 13.651686 19.793679 -0.561374 0.809723 0.010624 -0.005739 -425397.000000 1 0 0
-15.928230 8.149115 10.487586 20.738999 -0.472896 1.040610 0.005903 -0.001711 -1086070.000000 1 0 0
1.825570 11.031515 14.908386 18.635639 1.406796 0.643512 0.004301 -0.014208 271154.000000 1 0 0
2.235970 14.632415 12.606686 19.443140 1.419160 0.865332 0.004857 -0.003279 -231121.000000 1 0 0
-3.132430 13.819115 11.663186 18.352384 -1.347889 0.882123 -0.001791 -0.012485 20870.300000 1 0 0
8.935970 4.841315 15.914786 18.883070 0.496509 0.568319 0.012443 0.007259 203219.000000 1 0 0
-0.431830 12.715115 12.771086 18.026683 -1.536847 0.783490 0.001106 -0.008164 -308341.000000 1 0 0
3.536270 13.486615 14.514686 20.126354 1.314363 0.765295 0.008224 -0.005493 -229441.000000 1 0 0
-2.959930 -4.158385 -13.741914 14.659248 0.952196 2.785950 0.005950 -0.007060 -15977.500000 1 0 0
5.544370 -11.483185 16.227286 20.638033 -1.120983 0.666030 -0.001184 -0.003952 90459.500000 1 0 0
7.600570 -13.563185 7.343586 17.194677 -1.060017 1.129530 0.002034 -0.005985 -144066.000000 1 0 0
-0.172230 15.665915 1.161986 15.709894 -1.559803 1.496763 0.006441 -0.005988 -1972190.000000 1 0 0
-13.637530 8.248815 9.234186 18.419972 -0.543986 1.045680 -0.001492 0.005278 500461.000000 1 0 0
-15.486730 -9.652985 4.941286 18.905958 0.557381 1.306364 0.034232 -0.008237 -119853.000000 1 0 0
9.332870 -11.042785 11.145486 18.255613 -0.869121 0.914075 0.018337 -0.007058 76539.900000 1 0 0
-5.767830 -10.437285 -16.856514 20.648168 1.065945 2.525891 0.021954 -0.003776 28086.800000 1 0 0
-1.880330 -12.722685 -14.625614 19.475906 1.424065 2.420310 0.007716 -0.001938 -73174.200000 1 0 0
5.552270 -15.982785 -11.779014 20.616068 -1.236448 2.178948 0.005463 0.002491 213936.000000 1 0 0
2.626570 -11.813785 -16.645314 20.579865 -1.352024 2.512931 0.005104 0.006844 265727.000000 1 0 0
1.796770 -15.303285 -14.129514 20.906029 -1.453921 2.312925 0.056111 0.038827 218259.000000 1 0 0
-6.357230 -5.928685 -14.554314 16.952632 0.750531 2.603189 0.009331 -0.006247 -32274.700000 1 0 0
-6.129430 -8.265885 -17.102814 19.959985 0.932736 2.599935 0.006170 -0.011416 45130.700000 1 0 0
-2.359830 -16.355285 -12.997614 21.023846 1.427500 2.237288 0.011386 -0.004727 257515.000000 1 0 0
15.885970 -8.260285 -8.759114 19.932848 -0.479498 2.025762 0.026640 -0.010617 -128336.000000 1 0 0
18.885370 -3.096685 -3.482214 19.451798 -0.162526 1.750784 0.007124 -0.005060 -28457.400000 1 0 0
15.635170 -11.314385 -9.013314 21.300555 -0.626422 2.007715 0.031424 -0.019286 195862.000000 1 0 0
18.791870 -3.144885 -6.505014 20.133054 -0.165817 1.899801 0.163883 -0.004473 -318400.000000 1 0 0
8.893070 -9.975485 -15.604914 20.545323 -0.842701 2.433396 0.032661 0.005226 262138.000000 1 0 0
-4.498830 9.937015 -16.310514 19.621840 -1.145671 2.552136 0.005385 0.000734 466846.000000 1 0 0
2.843370 -9.407485 -18.415614 20.873915 -1.277281 2.651376 0.013536 0.001145 36870.600000 1 0 0
11.036570 7.847615 -14.837114 20.088078 0.618107 2.401792 0.038596 -0.042915 299501.000000 1 0 0
18.402970 -6.109985 -8.681914 21.245631 -0.320560 1.991765 0.036213 -0.006352 54368.900000 1 0 0
13.163170 5.519215 -13.552514 19.682515 0.397026 2.330292 0.041380 -0.015644 -49274.600000 1 0 0
16.079470 5.969315 -10.841414 20.290843 0.355469 2.134477 0.024931 -0.014396 94227.100000 1 0 0
3.405070 -0.418385 -19.165914 19.470536 -0.122258 2.964470 0.026392 -0.011682 154272.000000 1 0 0
10.326470 -1.670485 -14.730214 18.066701 -0.160378 2.524085 0.011224 -0.002701 44459.400000 1 0 0
12.145570 -5.887485 -13.985514 19.436356 -0.451368 2.373957 0.021643 0.000031 -2831.970000 1 0 0
10.284070 6.507215 -13.198714 17.953049 0.564151 2.396728 0.020486 0.002036 471377.000000 1 0 0
10.693970 5.251215 -15.852514 19.830241 0.456458 2.497111 0.038810 -0.032266 338883.000000 1 0 0
12.102370 -10.219485 -14.581714 21.529784 -0.701246 2.314857 0.058701 -0.011119 264731.000000 1 0 0
-1.702430 1.966015 -17.143114 17.339257 -0.857127 2.991037 0.005945 -0.013582 252372.000000 1 0 0
6.462370 -0.906285 -17.840314 18.996325 -0.139332 2.790931 0.015134 0.022717 87274.000000 1 0 0
6.687470 -5.799585 -15.579114 17.918321 -0.714413 2.624888 -0.013493 0.001924 292231.000000 1 0 0
-2.208230 -4.654185 -20.231814 20.877356 1.127788 2.892268 0.029162 -0.029241 211583.000000 1 0 0
16.130870 -0.282285 -13.543614 21.064523 -0.017498 2.269151 0.025222 0.003067 -160419.000000 1 0 0
-4.108230 -0.309785 -18.332614 18.789844 0.075263 2.920535 0.013029 -0.016968 169830.000000 1 0 0
3.618870 8.654615 -17.929514 20.235267 1.174748 2.659556 0.017623 -0.018410 -9931.200000 1 0 0
8.862270 0.953815 -16.002514 18.317479 0.107214 2.633389 0.012079 -0.047256 -147499.000000 1 0 0
4.174570 4.302315 -18.407114 19.358688 0.800467 2.826750 0.021227 -0.009664 384320.000000 1 0 0
-2.875830 -11.054685 -17.649514 21.023363 1.316292 2.567194 0.026661 -0.021296 198895.000000 1 0 0
6.092470 -9.492585 -16.259814 19.789110 -1.000198 2.535104 0.007938 0.010541 272379.000000 1 0 0
10.062970 -12.452985 -10.546714 19.172203 -0.891150 2.153286 0.010330 -0.001171 221903.000000 1 0 0
6.291370 6.627215 -16.962814 19.267547 0.811389 2.647465 0.024690 -0.024690 294744.000000 1 0 0
8.731070 1.266715 -20.091314 21.943041 0.144076 2.727824 0.043858 -0.014095 134367.000000 1 0 0
-0.840530 -0.817185 -20.368014 20.401722 0.771316 3.084100 0.022963 -0.010039 68329.200000 1 0 0
-1.174930 6.812715 -19.482314 20.672544 -1.400015 2.800604 0.018543 -0.014084 33855.300000 1 0 0
8.897070 6.072015 -18.043814 21.014434 0.598866 2.603405 0.038298 -0.019529 -27524.900000 1 0 0
12.369470 -0.160085 -13.496014 18.307698 -0.012941 2.399679 0.018273 0.007167 63099.500000 1 0 0
-4.160630 -2.461385 -19.811214 20.392485 0.534212 2.902258 0.001971 -0.017187 391826.000000 1 0 0
6.110570 -11.537285 -14.451914 19.475775 -1.083721 2.406913 0.000428 0.005452 142794.000000 1 0 0
11.630870 2.469715 -15.812414 19.784061 0.209234 2.496843 0.036838 -0.003698 -209301.000000 1 0 0
-2.783830 -4.194585 -17.138114 17.862228 0.984870 2.855880 0.001926 -0.010793 247188.000000 1 0 0
-6.758830 -5.090785 -17.655914 19.578794 0.645549 2.694684 0.018487 -0.010021 44249.000000 1 0 0
3.177870 10.431515 -15.553014 18.995041 1.275087 2.530102 0.004770 -0.011975 205989.000000 1 0 0
16.749870 -6.310285 -10.832114 20.921580 -0.360292 2.115013 0.046800 -0.015317 -19605.700000 1 0 0
9.650770 -3.545485 -17.668614 20.442302 -0.352072 2.614586 0.009312 -0.004105 -7249.170000 1 0 0
-7.435730 -1.489385 -18.619714 20.104778 0.197685 2.754827 0.011690 -0.011070 620950.000000 1 0 0
1.576070 -7.412285 -19.042114 20.494586 -1.361287 2.762846 0.022475 -0.015305 200866.000000 1 0 0
5.657170 10.100715 -14.506914 18.560134 1.060250 2.468050 0.014816 -0.013303 413183.000000 1 0 0
6.108170 -4.018085 -17.357314 18.834306 -0.581854 2.742927 0.016280 -0.018703 455234.000000 1 0 0
4.375670 13.174915 -14.861014 20.336534 1.250137 2.390223 0.013248 -0.015914 56806.400000 1 0 0
9.603870 11.193015 -15.488514 21.387192 0.861663 2.380664 0.053167 -0.025485 -127085.000000 1 0 0
17.146070 0.856015 -11.297514 20.551260 0.049883 2.152830 0.031722 -0.001720 173203.000000 1 0 0
14.647470 -3.073985 -12.421014 19.449404 -0.206862 2.263516 0.022082 -0.001724 96690.900000 1 0 0
-8.846930 -0.015385 -17.420714 19.538415 0.001739 2.671692 0.007555 -0.007792 411502.000000 1 0 0
-3.352630 4.541115 -19.245914 20.056596 -0.934836 2.856303 0.019100 0.004728 120549.000000 1 0 0
3.961670 1.858415 -16.915114 17.471966 0.438623 2.888445 0.014985 -0.007398 394915.000000 1 0 0
-5.248930 14.049215 -13.997914 20.515197 -1.213245 2.321727 0.029971 -0.017143 287189.000000 1 0 0
0.975770 9.671715 -17.677014 20.173523 1.470248 2.638817 0.013905 -0.008375 256903.000000 1 0 0
1.361370 -5.102085 -19.780214 20.472944 -1.310045 2.880714 0.025689 -0.004844 595137.000000 1 0 0
3.978070 -6.219185 -17.993514 19.449160 -1.001735 2.752244 0.017750 -0.008991 86748.500000 1 0 0
-7.157030 7.455315 -15.969714 19.022002 -0.805809 2.567231 -0.003614 0.005081 95769.300000 1 0 0
-11.677130 3.184815 -17.182414 21.017463 -0.266263 2.527906 0.023819 -0.012013 288624.000000 1 0 0
-4.723530 7.156715 -17.738514 19.702415 -0.987414 2.691305 -0.000277 0.027512 334555.000000 1 0 0
-7.982130 4.756415 -18.073314 20.321972 -0.537387 2.666714 -0.007804 0.003952 239151.000000 1 0 0
-8.455430 4.295115 -14.808614 17.585146 -0.470004 2.571979 -0.017000 -0.016479 368282.000000 1 0 0
9.343970 13.980915 -12.826914 21.149598 0.981638 2.222429 0.039048 -0.012869 334586.000000 1 0 0
14.252370 9.425715 -12.239414 21.018501 0.584308 2.192371 0.060581 -0.014857 -55258.600000 1 0 0
8.510070 15.688215 -9.940514 20.429273 1.073768 2.078969 0.025160 -0.003814 -15686.000000 1 0 0
7.083370 12.785015 -14.407914 20.523614 1.064859 2.349021 0.043027 -0.030801 -36981.800000 1 0 0
4.161670 15.198615 -13.336314 20.643998 1.303528 2.273147 0.017822 -0.014527 129077.000000 1 0 0
10.856570 11.965315 -11.728114 19.964532 0.833943 2.198697 0.044906 -0.003968 153826.000000 1 0 0
15.884570 10.359715 -9.221614 21.087471 0.577911 2.023394 0.050889 -0.035530 303593.000000 1 0 0
12.961970 11.163115 -10.215314 19.924368 0.710972 2.109128 0.047375 -0.013107 26877.700000 1 0 0
10.412570 11.417915 -7.721514 17.274611 0.831418 2.034190 0.022460 -0.006741 -964.429000 1 0 0
5.873770 16.830215 -10.279414 20.577261 1.235011 2.093878 0.041024 -0.004274 155955.000000 1 0 0
11.487570 13.972315 -10.406814 20.868436 0.882685 2.092879 0.061120 -0.011051 186107.000000 1 0 0
8.619070 -19.413685 -1.860314 21.322295 -1.152969 1.658155 0.036230 -0.002600 207567.000000 1 0 0
7.377170 -16.773785 -4.106314 18.778826 -1.156454 1.791245 0.020275 -0.008382 151882.000000 1 0 0
4.091570 -18.457985 4.889786 19.528137 -1.352654 1.317706 0.030118 -0.025848 104872.000000 1 0 0
10.229270 -17.801085 -2.313214 20.660773 -1.049230 1.682993 0.029530 -0.008761 467886.000000 1 0 0
-3.417730 -14.701685 7.881786 17.027712 1.342381 1.089555 0.019956 -0.030421 87765.600000 1 0 0
-15.461130 -12.477385 -4.388114 20.346676 0.679005 1.788172 0.020716 -0.003504 24303.600000 1 0 0
-9.414530 -12.527885 -7.215214 17.252263 0.926345 2.002279 0.017986 -0.009817 158091.000000 1 0 0
-11.523730 -15.295185 6.979986 20.382817 0.925109 1.221279 0.015856 -0.006919 304993.000000 1 0 0
-15.141930 -7.363285 -7.184114 18.305942 0.452615 1.974087 0.044371 -0.029812 -175483.000000 1 0 0
5.238670 -15.402185 6.543286 17.535266 -1.242946 1.188394 0.024617 -0.009978 295622.000000 1 0 0
2.778270 -14.035585 9.298786 17.064110 -1.375378 0.994488 0.007956 -0.002789 309362.000000 1 0 0
3.282470 -17.561985 10.037786 20.492805 -1.386021 1.058913 0.026664 0.000796 218260.000000 1 0 0
-7.839430 -17.303785 -5.186214 19.691989 1.145411 1.837307 -0.008817 -0.011921 119870.000000 1 0 0
1.789470 -19.833985 -3.992614 20.310837 -1.480818 1.768660 0.022346 -0.009803 14556.400000 1 0 0
-18.649130 -9.942485 -2.308114 21.259596 0.489802 1.679579 0.036732 -0.013954 -99984.900000 1 0 0
-4.182230 -14.702685 2.736386 15.528934 1.293663 1.393659 0.000827 -0.000750 174945.000000 1 0 0
-10.834330 -9.910985 -14.594414 20.702832 0.740919 2.353146 0.028216 -0.005494 247611.000000 1 0 0
0.551270 -20.359185 2.628886 20.535612 -1.543726 1.442428 0.026981 -0.009420 246382.000000 1 0 0
5.423270 -18.705785 0.878186 19.495883 -1.288608 1.525736 0.009069 0.002944 127167.000000 1 0 0
-8.071130 -19.141985 -3.350114 21.042385 1.171770 1.730685 0.017800 -0.014864 128817.000000 1 0 0
-9.175030 -15.443485 -7.605514 19.507082 1.034724 1.971303 0.034719 -0.008748 -63397.500000 1 0 0
-11.856930 -11.398585 -12.471214 20.640874 0.765692 2.219558 0.021082 0.006493 346131.000000 1 0 0
-13.198130 -15.196585 -3.209214 20.381999 0.855664 1.728908 0.006851 0.000205 139719.000000 1 0 0
-0.543630 -20.549185 -2.669314 20.728959 1.544347 1.699927 0.024774 -0.013303 349113.000000 1 0 0
-11.889130 -17.131285 -0.577014 20.860615 0.964108 1.598460 0.003757 0.005345 -152970.000000 1 0 0
0.643270 -19.890185 5.360986 20.610032 -1.538467 1.307655 0.023656 -0.018375 135301.000000 1 0 0
-18.527330 -9.088685 2.251486 20.758982 0.456064 1.462124 0.056491 0.003892 45440.700000 1 0 0
-14.992730 -14.934685 -0.436514 21.166419 0.783459 1.591421 0.023355 -0.006875 -195390.000000 1 0 0
10.366470 -15.046385 -5.467714 19.072317 -0.967513 1.861559 0.019158 -0.006181 -633351.000000 1 0 0
-0.051230 -19.108585 -6.882114 20.310197 1.568115 1.916491 0.016818 -0.008199 168780.000000 1 0 0
-10.252630 -17.201485 -2.820614 20.222842 1.033300 1.710729 0.016195 0.006662 568731.000000 1 0 0
-14.440830 -6.952585 -11.296314 19.608231 0.448700 2.184746 0.011854 -0.012762 -391642.000000 1 0 0
-12.378530 -14.676285 2.115386 19.315698 0.870124 1.461060 0.010508 -0.018702 306525.000000 1 0 0
-2.558430 -16.176185 9.929686 19.152368 1.413935 1.025750 0.000326 -0.014398 300392.000000 1 0 0
-12.248030 -14.782385 -6.703514 20.333967 0.878884 1.906751 0.009125 0.010579 208226.000000 1 0 0
5.422770 -17.159185 -6.978314 19.301319 -1.264701 1.940722 0.014148 -0.005882 107070.000000 1 0 0
-17.045630 -7.072385 -2.853014 18.673827 0.393292 1.724178 -0.036500 -0.010859 -301568.000000 1 0 0
-12.774730 -13.146385 -8.592914 20.244983 0.799735 2.009147 0.065077 -0.034525 215745.000000 1 0 0
-7.754430 -14.100685 10.320486 19.117346 1.068005 1.000538 0.008386 0.000592 459742.000000 1 0 0
-15.873430 -8.032985 -5.439214 18.603217 0.468488 1.867511 0.023223 -0.009333 318089.000000 1 0 0
-0.780330 -19.580985 0.088786 19.596728 1.530966 1.566266 0.017408 -0.012839 244587.000000 1 0 0
-15.115830 -11.326285 -1.714014 18.966046 0.643053 1.661293 0.013218 0.001506 191210.000000 1 0 0
-7.444830 -19.030585 2.615086 20.601634 1.197896 1.443517 0.004986 0.000426 295432.000000 1 0 0
-2.314330 -20.426885 -5.387314 21.251750 1.457979 1.827093 0.020230 -0.010878 56523.700000 1 0 0
-8.469430 -20.041885 -1.014214 21.781575 1.170972 1.617376 -0.021993 0.020972 273055.000000 1 0 0
-17.662230 -7.632985 5.111486 19.908393 0.407923 1.311138 0.044721 -0.005638 -29910.200000 1 0 0
-2.772130 -15.906085 -10.716814 19.378811 1.398248 2.156777 0.011610 -0.001768 34145.500000 1 0 0
-2.827530 -18.418985 -7.886714 20.234974 1.418474 1.971164 0.008787 -0.002239 94303.800000 1 0 0
4.465770 -17.840985 -4.462514 18.925059 -1.325526 1.808837 0.011420 -0.003364 503074.000000 1 0 0
0.696470 -17.432885 -9.716814 19.970153 -1.530866 2.078952 0.008390 0.006775 58553.800000 1 0 0
-7.558830 -10.535285 -13.993214 19.077163 0.948437 2.394262 0.011927 -0.034768 184706.000000 1 0 0
-5.663830 -18.846685 -1.895414 19.770409 1.278861 1.666815 0.011484 -0.026744 -16234.800000 1 0 0
-10.007930 -15.886085 8.598986 20.651124 1.008623 1.141322 0.005160 -0.009875 50293.900000 1 0 0
-7.190530 -15.260085 -10.238414 19.733196 1.130454 2.116292 0.015854 -0.006929 367863.000000 1 0 0
-12.427930 -8.144385 -12.615714 19.492067 0.580112 2.274732 0.013730 -0.006154 94567.600000 1 0 0
-15.580230 -13.061285 3.238186 20.587049 0.697677 1.412848 0.027140 -0.005560 66543.700000 1 0 0
-6.046930 -14.472985 -13.242914 20.528210 1.175033 2.271961 -0.000611 0.005650 386012.000000 1 0 0
-13.804030 -11.060585 -6.875614 18.977930 0.675507 1.941526 0.012155 -0.018521 85151.500000 1 0 0
-11.341530 -10.175885 -8.879114 17.635691 0.731279 2.098411 0.003103 -0.007266 202566.000000 1 0 0
-9.996230 -14.853285 3.575586 18.257314 0.978423 1.373678 -0.008674 0.000093 459838.000000 1 0 0
5.064370 -18.133985 8.306986 20.579001 -1.298460 1.155279 0.039563 -0.013451 283468.000000 1 0 0
-5.017330 -16.513285 5.302786 18.054964 1.275824 1.272699 -0.005162 0.004466 476593.000000 1 0 0
-18.707630 -7.248285 -6.972814 21.239896 0.369641 1.905287 0.030889 -0.018438 13002.700000 1 0 0
-17.081430 -4.909285 -10.753814 20.773080 0.279862 2.114934 0.025006 0.000188 -381055.000000 1 0 0
-15.810930 -4.209685 -12.452014 20.561119 0.260215 2.221328 0.018493 -0.021846 131919.000000 1 0 0
-19.405330 -4.687985 -5.890114 20.814357 0.237041 1.857699 0.029660 -0.016546 121551.000000 1 0 0
5.397770 -13.565885 8.721786 17.007019 -1.192108 1.032313 0.024179 -0.003293 227846.000000 1 0 0
19.971170 -3.327585 2.866086 20.448347 -0.165103 1.430171 0.039881 -0.009585 24683.600000 1 0 0
17.968470 -2.593685 -0.037214 18.154738 -0.143356 1.572846 0.024251 -0.011972 287196.000000 1 0 0
14.225570 -11.392885 0.173686 18.226213 -0.675273 1.561267 0.027784 -0.002875 193523.000000 1 0 0
11.154070 -13.977985 5.399586 18.680280 -0.897292 1.277559 0.033017 0.000452 399686.000000 1 0 0
10.687470 -12.396285 8.330486 18.365372 -0.859290 1.099998 0.060516 -0.025244 -13601.100000 1 0 0
18.449270 3.986615 -4.349614 19.369765 0.212813 1.797285 0.029393 0.009337 -58183.300000 1 0 0
18.748170 -6.194985 -4.226314 20.192410 -0.319137 1.781658 0.038016 -0.016950 -122025.000000 1 0 0
17.736070 -9.868385 -0.340214 20.299481 -0.507745 1.587557 0.050378 -0.012509 66622.800000 1 0 0
17.293570 -9.084985 8.512486 21.308846 -0.483713 1.159845 0.045042 -0.013656 -136819.000000 1 0 0
19.916170 0.287715 -1.746314 19.994655 0.014445 1.658247 0.031455 -0.000666 -100279.000000 1 0 0
7.467870 -12.979985 11.687786 18.996143 -1.048709 0.908066 0.019130 -0.007032 419676.000000 1 0 0
16.241670 -6.558685 -3.438514 17.850254 -0.383794 1.764639 0.039948 -0.007877 141101.000000 1 0 0
14.339770 -6.987685 11.977786 19.948035 -0.453431 0.926733 0.017733 -0.022231 310440.000000 1 0 0
16.178270 1.304615 10.974786 19.592968 0.080466 0.976243 0.032493 -0.008893 253271.000000 1 0 0
16.695770 -10.255785 2.776986 19.789934 -0.550849 1.430009 0.027709 -0.006693 -85546.800000 1 0 0
16.302870 -7.380985 -5.744514 18.795264 -0.425131 1.881403 0.046720 -0.011193 333371.000000 1 0 0
17.719670 -4.353785 5.839186 19.158242 -0.240931 1.261081 0.042965 -0.016089 -45763.600000 1 0 0
13.571470 -13.635485 7.975986 20.826128 -0.787751 1.177776 0.050122 -0.011954 173851.000000 1 0 0
15.174870 -14.342685 -1.541514 20.937181 -0.757213 1.644489 0.029248 -0.007857 215534.000000 1 0 0
18.614770 -6.561185 8.169986 21.361355 -0.338875 1.178333 0.049542 -0.016163 -295624.000000 1 0 0
19.392970 2.913415 2.740586 19.801164 0.149115 1.431945 0.032549 -0.004554 155008.000000 1 0 0
15.554470 -10.400485 8.264786 20.455276 -0.589374 1.154865 0.036184 -0.025748 92641.900000 1 0 0
13.945070 -4.396185 10.693686 18.114810 -0.305388 0.939331 0.016207 -0.016002 -199127.000000 1 0 0
18.622970 -7.727585 1.803486 20.243101 -0.393327 1.481587 0.041296 -0.013473 -96066.100000 1 0 0
18.965970 -5.714185 -1.051514 19.835967 -0.292636 1.623832 0.029819 -0.011739 -172466.000000 1 0 0
14.626070 -13.649585 -5.980414 20.880575 -0.750877 1.861274 0.048951 -0.011196 468282.000000 1 0 0
13.841770 -9.764885 10.075686 19.709567 -0.614384 1.034207 0.011779 -0.014143 327553.000000 1 0 0
14.380870 2.459915 0.695586 14.606315 0.169415 1.523156 0.004123 0.000927 -21317.500000 1 0 0
13.033970 2.888415 13.575986 19.040345 0.218082 0.777012 0.024831 -0.007446 -69150.900000 1 0 0
18.327370 -3.549685 9.084386 20.760993 -0.191313 1.117902 0.046764 -0.018016 153853.000000 1 0 0
7.037370 -18.437985 5.239186 20.418936 -1.206184 1.311309 0.030309 -0.019872 348626.000000 1 0 0
12.625170 -2.750785 14.963086 19.770070 -0.214528 0.712308 0.002809 0.003653 325184.000000 1 0 0
12.050070 -13.894085 -7.338114 19.801457 -0.856355 1.950435 0.037292 0.000027 278158.000000 1 0 0
10.542870 -18.042585 4.626486 21.403069 -1.041977 1.352917 0.040546 -0.011123 577903.000000 1 0 0
18.368470 -0.562885 -5.496014 19.181337 -0.030634 1.861399 0.034589 0.002744 74689.000000 1 0 0
4.165070 -13.544985 11.503986 18.252565 -1.272474 0.888899 0.005283 -0.007882 -53159.400000 1 0 0
9.201570 -2.831985 14.110786 17.082252 -0.298572 0.598734 -0.005502 0.002029 301262.000000 1 0 0
9.035270 -9.545185 14.232586 19.373001 -0.812835 0.745630 0.021848 0.001416 311735.000000 1 0 0
20.954170 5.644715 -2.823814 21.884103 0.263137 1.700192 0.031777 0.014094 521581.000000 1 0 0
14.504670 -13.424985 1.761086 19.842305 -0.746760 1.481925 0.019967 -0.007046 112928.000000 1 0 0
10.914770 -0.248685 15.479886 18.942569 -0.022780 0.614259 -0.000269 0.002859 -117473.000000 1 0 0
19.875070 -0.147785 7.869686 21.376908 -0.007436 1.193789 0.107719 -0.021881 29004.900000 1 0 0
19.837670 0.929715 0.688686 19.871382 0.046832 1.536132 0.036863 -0.006850 256346.000000 1 0 0
17.995170 0.182215 3.212086 18.280504 0.010125 1.394168 0.037631 -0.005602 -30387.900000 1 0 0
10.297370 -8.885585 16.347486 21.265694 -0.711935 0.693950 0.019178 0.010169 125113.000000 1 0 0
19.152870 3.007115 5.605886 20.181703 0.155735 1.289324 0.050102 -0.004515 167548.000000 1 0 0
15.778970 2.275415 7.167686 17.479392 0.143218 1.148271 0.044659 -0.012435 -116554.000000 1 0 0
11.361370 -16.048985 2.046786 19.769673 -0.954776 1.467079 0.015995 0.000633 196253.000000 1 0 0
8.664870 -16.050985 6.886686 19.497193 -1.075791 1.209792 0.041299 -0.011214 353935.000000 1 0 0
6.212870 6.696415 7.267586 11.673026 0.822838 0.898740 0.001444 0.002882 -1350560.000000 1 0 0
18.496170 2.486015 -6.503914 19.763336 0.133606 1.906136 0.009034 0.010186 286778.000000 1 0 0
14.206470 4.483315 -7.167214 16.531571 0.305691 2.019222 0.018607 -0.002849 249797.000000 1 0 0
-10.591930 -4.008385 -13.969714 17.983577 0.361781 2.460371 0.018498 0.000238 -330151.000000 1 0 0
7.654470 -14.146285 -10.344914 19.123951 -1.074816 2.142351 0.002738 0.006716 19926.500000 1 0 0
2.273370 -16.143085 13.555186 21.201662 -1.430890 0.877150 0.007911 -0.006157 372833.000000 1 0 0
-9.360130 -8.126185 2.244886 12.597080 0.714949 1.391632 0.009155 -0.003342 404223.000000 1 0 0
-13.744230 3.029015 -10.152014 17.353448 -0.216917 2.195694 0.013781 -0.000247 331155.000000 1 0 0
-12.594930 -5.319685 -13.080914 18.921987 0.399638 2.334093 0.014361 -0.003169 244627.000000 1 0 0
-17.813930 0.003515 -8.140114 19.585647 -0.000197 1.999417 0.041984 -0.020575 412652.000000 1 0 0
-12.537830 15.034915 4.751386 20.145013 -0.875715 1.332694 0.020853 -0.014192 358401.000000 1 0 0
-17.828430 6.327415 9.371586 21.111981 -0.341039 1.110851 0.052406 -0.004439 182263.000000 1 0 0
-13.435430 15.020815 0.403486 20.156847 -0.841054 1.550778 0.031943 -0.035568 115626.000000 1 0 0
-15.749930 5.215015 -11.097914 19.960470 -0.319751 2.160355 0.014376 0.000099 -19652.200000 1 0 0
-18.143530 3.016915 0.186886 18.393596 -0.164773 1.560636 0.039786 -0.000411 -226387.000000 1 0 0
-9.593530 15.481215 -0.215014 18.214008 -1.016026 1.582601 0.015885 -0.013026 -250046.000000 1 0 0
-18.491830 12.244515 2.404886 22.308281 -0.584875 1.462784 0.076885 -0.011910 -392176.000000 1 0 0
-8.584830 16.298015 -7.779614 19.996175 -1.085986 1.970402 0.041673 -0.030733 98252.100000 1 0 0
-14.689730 -2.568785 -13.661614 20.224404 0.173119 2.312441 0.000120 0.009134 204182.000000 1 0 0
-19.225530 4.722715 -4.659314 20.338000 -0.240879 1.801943 0.068189 -0.007477 -122252.000000 1 0 0
-16.080530 8.886015 -6.384114 19.449977 -0.504833 1.905228 0.005392 0.001323 -57164.400000 1 0 0
-19.113230 1.364315 2.411686 19.313031 -0.071260 1.445596 0.044192 -0.011173 366786.000000 1 0 0
-13.518230 12.135415 -6.978414 19.460450 -0.731547 1.937558 0.012296 -0.003246 -119550.000000 1 0 0
-13.704430 5.647215 -12.554914 19.424940 -0.390870 2.273561 0.046035 -0.023599 -163332.000000 1 0 0
-13.823830 9.464115 -6.737014 18.056996 -0.600331 1.953141 0.000574 -0.006866 39314.400000 1 0 0
-6.668530 11.712515 -15.370514 20.442725 -1.053218 2.421708 0.011150 -0.015541 -295353.000000 1 0 0
-14.983030 14.003915 2.958686 20.720875 -0.751633 1.427519 0.011375 -0.012978 25876.400000 1 0 0
-18.693330 8.518415 -5.042814 21.152635 -0.427578 1.811516 0.049752 -0.003088 329282.000000 1 0 0
-3.674830 16.907015 -9.969414 19.968494 -1.356770 2.093538 0.014416 -0.006869 63017.000000 1 0 0
-19.163630 -2.044185 -6.877114 20.462602 0.106268 1.913550 0.013138 -0.012329 -536095.000000 1 0 0
-10.631930 13.775615 -6.260014 18.493060 -0.913493 1.916125 0.015378 -0.015873 47100.700000 1 0 0
-19.430030 2.880715 4.421286 20.133861 -0.147189 1.349397 0.045452 -0.001610 133059.000000 1 0 0
-15.251730 12.137015 0.344586 19.494644 -0.672162 1.553119 0.016615 -0.008970 153537.000000 1 0 0
-17.010930 2.172815 -8.430114 19.109152 -0.127043 2.027683 -0.003290 -0.007299 122642.000000 1 0 0
-16.605530 12.310315 -4.847914 21.231810 -0.637935 1.801161 0.027703 -0.010678 123134.000000 1 0 0
-10.582730 15.693215 -8.675714 20.821604 -0.977493 2.000574 0.028238 -0.017237 32163.900000 1 0 0
-19.342130 2.166815 -6.833414 20.627860 -0.111561 1.908447 0.054122 -0.009294 -35690.500000 1 0 0
-17.416530 10.306515 -0.531914 20.244572 -0.534343 1.597074 0.045409 -0.001441 54075.200000 1 0 0
-11.567830 6.076815 -14.775414 19.724483 -0.483698 2.417484 0.006594 -0.016171 300643.000000 1 0 0
-13.805330 13.522515 -5.093014 19.984603 -0.775050 1.828486 0.035718 0.001253 332143.000000 1 0 0
-18.880630 7.269015 0.074786 20.231717 -0.367508 1.567100 0.047610 -0.000754 160118.000000 1 0 0
-14.530630 8.796315 -10.608014 20.026091 -0.544354 2.129055 0.010623 0.000176 650288.000000 1 0 0
-18.539930 11.530915 4.724686 22.338614 -0.556403 1.357684 0.036796 -0.016721 129239.000000 1 0 0
-8.225430 11.894015 -13.567414 19.829272 -0.965757 2.324318 -0.006716 -0.008289 408517.000000 1 0 0
-21.103430 -1.671385 -5.434014 21.855818 0.079035 1.822062 0.034327 -0.018385 202528.000000 1 0 0
-10.569330 13.380915 -3.618414 17.431367 -0.902256 1.779897 0.023176 -0.004622 470138.000000 1 0 0
-18.532130 -5.186585 3.645886 19.586551 0.272888 1.383562 0.023814 -0.004894 -35289.700000 1 0 0
-11.620730 11.405815 -13.064114 20.875944 -0.776065 2.246950 0.018224 -0.011337 290714.000000 1 0 0
-14.865530 11.272915 -10.268114 21.295463 -0.648808 2.073931 0.022251 -0.013679 260425.000000 1 0 0
-12.458430 9.382315 -14.368914 21.206273 -0.645476 2.315261 0.023300 -0.008794 381150.000000 1 0 0
-18.418730 -4.946685 -3.163514 19.332023 0.262377 1.735177 0.013234 -0.013977 -443936.000000 1 0 0
-9.547030 12.419915 -11.411614 19.381048 -0.915442 2.200373 0.020833 -0.015251 74398.400000 1 0 0
-14.991730 7.724315 -8.360714 18.823351 -0.475764 2.031041 -0.015663 -0.000313 -39162.700000 1 0 0
-14.482630 9.197215 1.986686 17.270850 -0.565795 1.455510 0.012918 0.002039 -122167.000000 1 0 0
-19.759630 6.359415 7.698186 22.139269 -0.311370 1.215662 0.039170 -0.004713 244710.000000 1 0 0
-18.800630 6.094615 4.166386 20.198188 -0.313482 1.363030 0.020370 0.007758 38606.600000 1 0 0
-14.795630 12.771915 5.699986 20.359822 -0.712120 1.287041 0.016016 -0.013805 -40301.900000 1 0 0
18.049470 5.908415 5.455886 19.760046 0.316352 1.291055 0.029056 -0.003825 104310.000000 1 0 0
18.464570 8.079715 0.374686 20.158436 0.412477 1.552208 0.034652 0.013830 48100.900000 1 0 0
17.203670 4.315915 8.411486 19.630244 0.245799 1.127968 0.052185 -0.006610 13085.900000 1 0 0
12.450670 12.908315 10.882986 20.978160 0.803443 1.025377 0.047366 -0.018566 151338.000000 1 0 0
15.450570 12.338915 4.258186 20.226248 0.673890 1.358682 0.025440 -0.002097 77875.600000 1 0 0
5.474170 10.514615 14.440386 18.682838 1.090785 0.687362 0.007572 -0.004764 193475.000000 1 0 0
13.157770 13.111615 -5.590214 19.398244 0.783641 1.863123 0.051696 -0.008921 251902.000000 1 0 0
17.553770 9.201115 -3.025114 20.048608 0.482794 1.722264 0.012456 0.003978 -48885.500000 1 0 0
14.594670 7.638415 9.416086 18.973994 0.482168 1.051508 0.035420 0.000146 153975.000000 1 0 0
4.574470 19.359915 -1.876314 19.981308 1.338766 1.664838 0.010897 -0.004618 557518.000000 1 0 0
-4.741830 19.274915 3.475186 20.151532 -1.329576 1.397477 0.016180 -0.009275 336053.000000 1 0 0
6.844770 12.784315 12.616086 19.221218 1.079228 0.854809 0.025209 -0.006495 -77326.000000 1 0 0
0.268470 17.070215 -10.303714 19.940683 1.555070 2.113810 0.001871 0.007122 22332.900000 1 0 0
10.927770 9.420415 15.173986 20.938248 0.711455 0.760195 0.039163 -0.027410 -270303.000000 1 0 0
-0.998030 12.082615 1.167786 12.179876 -1.488383 1.474770 0.007736 -0.003746 338196.000000 1 0 0
-5.210330 19.114715 -2.369114 19.953260 -1.304679 1.689810 0.012239 -0.002896 74616.100000 1 0 0
6.170270 18.323315 6.208686 20.306745 1.245979 1.260075 0.021558 -0.021019 130358.000000 1 0 0
11.254570 17.354015 -1.635114 20.748513 0.995456 1.649684 0.027926 -0.008582 359065.000000 1 0 0
18.553970 10.407815 3.166286 21.508087 0.511210 1.423046 0.034899 0.004961 242239.000000 1 0 0
11.651770 16.865615 6.335886 21.455912 0.966231 1.271029 0.028009 0.000530 -58158.300000 1 0 0
18.023970 7.182615 -5.785914 20.246734 0.379216 1.860606 0.016467 0.011654 387526.000000 1 0 0
0.646370 15.576715 10.806186 18.969067 1.529324 0.964687 -0.000986 -0.007572 434902.000000 1 0 0
1.154970 20.298515 -2.196014 20.449600 1.513958 1.678390 0.013993 -0.003339 245578.000000 1 0 0
14.349470 9.789715 -1.452514 17.431455 0.598704 1.654220 0.023988 0.001287 37950.200000 1 0 0
10.201070 17.414715 1.537286 20.240983 1.040904 1.494774 0.026697 -0.011439 208028.000000 1 0 0
0.454670 17.634715 -0.420514 17.645587 1.545019 1.594630 0.005097 -0.004963 77908.700000 1 0 0
0.006070 20.879715 1.283886 20.919152 1.570506 1.509384 0.016977 -0.004523 277665.000000 1 0 0
6.066270 17.058015 -0.510114 18.111757 1.229118 1.598965 0.007979 -0.022995 -51570.200000 1 0 0
6.780270 18.772415 -2.822814 20.157974 1.224194 1.711293 0.003080 -0.008807 51384.100000 1 0 0
10.480670 9.351415 12.733386 18.958706 0.728519 0.834379 0.021518 -0.008949 -49315.900000 1 0 0
12.384470 14.437315 8.189286 20.709311 0.861786 1.164250 0.018256 -0.015778 307366.000000 1 0 0
0.236170 17.761615 6.955586 19.076450 1.557500 1.197576 0.003982 -0.005980 253928.000000 1 0 0
6.961470 18.145715 -7.946414 20.997013 1.204470 1.958922 0.021060 -0.001974 183922.000000 1 0 0
-1.135330 18.698815 9.259086 20.896539 -1.510154 1.111752 0.026915 -0.016759 -32532.400000 1 0 0
16.058970 7.049015 -8.026914 19.287573 0.413623 2.000026 0.039146 0.001431 -372092.000000 1 0 0
-5.233530 19.616915 -6.901014 21.443815 -1.310082 1.898446 0.000739 -0.013481 186436.000000 1 0 0
3.528870 15.827115 9.624086 18.856658 1.351421 1.035168 0.009437 -0.010172 236021.000000 1 0 0
9.065370 14.983815 7.394886 19.009997 1.026701 1.171251 0.015015 -0.003163 31922.500000 1 0 0
-2.646530 19.460615 6.465986 20.676766 -1.435631 1.252744 0.015714 -0.009429 117676.000000 1 0 0
4.869570 17.936715 8.527786 20.449000 1.305700 1.140624 0.016609 -0.013401 40717.300000 1 0 0
13.835670 11.382015 -7.121714 19.279389 0.688405 1.949154 -0.025686 -0.025981 -69444.400000 1 0 0
11.683970 6.907415 15.623786 20.696141 0.533914 0.715275 0.031757 -0.008219 213112.000000 1 0 0
17.204670 9.576215 5.079786 20.334916 0.507901 1.318316 0.035044 -0.000003 -93206.600000 1 0 0
5.017570 14.631515 11.719186 19.406096 1.240435 0.922421 0.007657 -0.036108 482382.000000 1 0 0
16.394070 11.505915 -4.807614 20.597688 0.611956 1.806375 0.075976 0.028121 55012.900000 1 0 0
14.811170 14.954115 6.237186 21.952194 0.790201 1.282702 0.019758 0.031860 158754.000000 1 0 0
12.640470 14.182915 -8.248314 20.711621 0.842839 1.980400 0.064520 -0.018519 447098.000000 1 0 0
-8.465430 15.598515 9.602886 20.179014 -1.073569 1.074827 0.041017 -0.017286 154060.000000 1 0 0
-3.661630 16.554315 -7.425614 18.509258 -1.353112 1.983605 -0.009162 -0.005279 -47783.200000 1 0 0
2.107270 20.061715 -4.562014 20.681513 1.466141 1.793210 0.008762 -0.004287 -17690.000000 1 0 0
6.956470 15.792115 9.396886 19.649042 1.155868 1.072151 0.021880 -0.030471 556713.000000 1 0 0
13.369170 15.619515 -1.478314 20.612845 0.862871 1.642576 0.047748 -0.014099 215890.000000 1 0 0
13.011270 16.772015 4.347586 21.667837 0.911004 1.368778 0.031158 -0.010982 244346.000000 1 0 0
3.064170 18.084615 0.323086 18.345213 1.402955 1.553184 0.028727 -0.022271 160265.000000 1 0 0
-6.848730 18.004315 1.396786 19.313505 -1.207305 1.498411 -0.011797 0.019054 244597.000000 1 0 0
0.177170 20.003315 -6.002614 20.885291 1.561940 1.862317 0.014149 0.001883 147377.000000 1 0 0
-7.452530 17.994515 -6.426914 20.509705 -1.178147 1.889525 0.030744 -0.019586 80511.800000 1 0 0
-7.632030 18.630715 -1.746614 20.208961 -1.182001 1.657332 0.033387 -0.010662 18236.000000 1 0 0
-14.537930 -9.081385 8.900686 19.314377 0.558361 1.091864 0.046640 -0.007263 418192.000000 1 0 0
-12.953730 -13.606685 8.020286 20.427089 0.809977 1.167307 0.023349 -0.004248 -49380.900000 1 0 0
-3.684830 -15.756985 12.780386 20.620350 1.341071 0.902315 0.009401 -0.000331 245248.000000 1 0 0
-2.069530 -14.645385 15.634986 21.522617 1.430416 0.757662 -0.003382 -0.001429 498844.000000 1 0 0
-6.547730 -14.209585 13.284086 20.524425 1.139000 0.866847 -0.025424 0.004759 246270.000000 1 0 0
-9.999930 -11.113285 11.707486 18.988653 0.838082 0.906441 0.033056 -0.003133 288929.000000 1 0 0
-7.039530 -10.304685 13.045186 18.053210 0.971476 0.763245 0.008265 -0.009231 341785.000000 1 0 0
-15.074930 -12.463585 7.481386 20.941958 0.690856 1.205481 0.035920 -0.000485 238091.000000 1 0 0
-4.368030 -12.536785 13.275786 18.774908 1.235532 0.785404 0.006655 -0.006709 517005.000000 1 0 0
3.316770 -12.608585 13.885986 19.047257 -1.313567 0.753895 0.001292 0.000228 487388.000000 1 0 0
6.490070 -13.571385 14.871686 21.153500 -1.124726 0.791138 0.016529 0.003970 370392.000000 1 0 0
7.196870 -8.942885 16.533486 20.127749 -0.893160 0.606887 0.015317 -0.004771 486421.000000 1 0 0
-5.174230 13.678215 13.335986 19.791785 -1.209151 0.831438 0.006744 -0.010865 440659.000000 1 0 0
-13.668530 -1.464685 17.160886 21.987952 0.106750 0.675383 0.049147 -0.026738 20538.100000 1 0 0
-10.095830 11.099115 13.948186 20.485801 -0.832699 0.821845 0.001177 0.040165 429004.000000 1 0 0
-7.429930 -8.145185 17.273286 20.491811 0.831289 0.568079 0.027803 -0.011045 194414.000000 1 0 0
-4.708730 1.645815 18.691986 19.346090 -0.336251 0.260779 0.009063 0.007719 526497.000000 1 0 0
-15.817730 -3.752785 14.046586 21.484659 0.232945 0.858206 0.054595 -0.017055 118022.000000 1 0 0
-14.436230 2.912215 12.657486 19.419004 -0.199058 0.860829 0.016382 -0.001771 272499.000000 1 0 0
-13.724030 10.667715 9.921986 20.014869 -0.660747 1.052120 -0.051668 0.018706 -139435.000000 1 0 0
-4.496630 11.320215 15.722586 19.888858 -1.192688 0.659135 0.014418 -0.008745 126822.000000 1 0 0
-13.202430 13.156715 7.386586 20.049064 -0.783664 1.193482 0.010019 -0.027867 151301.000000 1 0 0
-3.889330 -6.376185 18.604386 20.047589 1.023073 0.381758 0.024529 -0.012965 404374.000000 1 0 0
0.407470 -2.902285 17.615986 17.858115 -1.431312 0.164859 0.003602 -0.016066 59138.300000 1 0 0
-4.392830 6.240015 21.333086 22.656905 -0.957406 0.343531 0.031800 0.007436 297786.000000 1 0 0
1.955470 -10.594485 16.491486 19.698632 -1.388276 0.578672 -0.010882 -0.001450 233904.000000 1 0 0
-14.766130 -0.161885 14.297786 20.554598 0.010963 0.801541 0.004237 -0.000291 -183143.000000 1 0 0
-13.859430 -5.996285 7.804986 16.998737 0.408333 1.093757 0.024840 -0.003044 38533.700000 1 0 0
9.682270 2.401615 16.551386 19.325178 0.243136 0.542409 0.001601 0.003657 205456.000000 1 0 0
-7.671430 12.624815 12.292286 19.218145 -1.024773 0.876794 0.014615 -0.005292 25253.200000 1 0 0
-1.739830 7.312715 20.093486 21.453462 -1.337220 0.357975 0.016095 0.000343 525944.000000 1 0 0
0.909770 -14.135085 15.842886 21.251479 -1.506522 0.729518 -0.018962 0.015094 598224.000000 1 0 0
-3.085230 -11.249985 17.845586 21.320079 1.303134 0.578960 0.006884 -0.021191 526313.000000 1 0 0
-2.028330 9.382915 16.170586 18.805347 -1.357900 0.535736 0.006284 -0.003928 -423655.000000 1 0 0
-4.816730 -9.506085 20.563186 23.160552 1.101803 0.478137 0.058878 -0.022417 211903.000000 1 0 0
-6.570830 -3.127185 19.112086 20.450598 0.444198 0.363807 0.025614 -0.017655 138042.000000 1 0 0
-10.710130 -7.777785 16.335386 21.024882 0.628100 0.680982 0.050219 -0.015437 285527.000000 1 0 0
-0.058530 6.659515 17.781186 18.987447 -1.562008 0.358368 0.005478 0.006934 234347.000000 1 0 0
-6.407030 -10.783585 19.031786 22.793522 1.034692 0.582728 0.056153 -0.020855 397251.000000 1 0 0
0.410570 3.414415 18.646886 18.961360 1.451125 0.182379 0.006978 0.000548 80129.200000 1 0 0
-18.440030 -0.494085 7.692286 19.986248 0.026788 1.175720 0.038038 -0.004411 231365.000000 1 0 0
-1.777430 -8.737585 17.488686 19.630558 1.370111 0.471493 0.007897 -0.007617 136282.000000 1 0 0
5.981470 3.591715 15.040586 16.580037 0.540768 0.434334 -0.006267 0.002597 398397.000000 1 0 0
-13.477230 -6.945585 10.298086 18.328324 0.475858 0.974155 0.014899 -0.004076 164551.000000 1 0 0
4.013270 8.266615 16.387886 18.788456 1.118833 0.511050 -0.003010 -0.012427 190966.000000 1 0 0
6.152770 4.515815 17.517686 19.108074 0.633149 0.410882 0.002583 -0.019721 55459.500000 1 0 0
5.288170 -9.577085 18.019286 21.080322 -1.066289 0.545647 0.009287 0.003268 366128.000000 1 0 0
-4.319030 -0.863985 19.898286 20.379948 0.197435 0.217843 0.022087 -0.007530 583601.000000 1 0 0
-10.975330 2.129215 16.609286 20.021484 -0.191620 0.592453 0.036124 -0.025710 12922.500000 1 0 0
-16.749730 -4.146385 8.679386 19.315220 0.242671 1.104753 0.046555 -0.012104 412599.000000 1 0 0
-13.551130 -9.637685 11.930586 20.465996 0.618209 0.948446 0.064106 -0.019539 116653.000000 1 0 0
-14.452930 6.140615 13.492586 20.703725 -0.401760 0.860975 0.005200 0.000588 311520.000000 1 0 0
1.191870 9.170215 16.748886 19.132135 1.441549 0.504467 0.004643 -0.014713 297078.000000 1 0 0
-3.829530 -10.570785 15.018786 18.760883 1.223228 0.642605 0.013062 -0.005298 610959.000000 1 0 0
-18.452730 -3.020485 6.677686 19.854926 0.162249 1.227786 0.101575 -0.016263 -310229.000000 1 0 0
-0.698130 -0.694385 21.014386 21.037443 0.782708 0.046822 0.025388 -0.006690 396091.000000 1 0 0
-1.630630 2.556915 20.356586 20.581239 -1.003093 0.147887 0.012636 -0.002129 -17339.700000 1 0 0
-7.959730 2.146215 16.284886 18.252700 -0.263371 0.468624 -0.000667 0.005939 537184.000000 1 0 0
2.780870 -2.326185 18.759386 19.106516 -0.696601 0.190910 0.001388 -0.000852 800.264000 1 0 0
-12.559730 4.424115 14.120386 19.408888 -0.338674 0.756094 0.014453 -0.012977 38845.400000 1 0 0
-13.575230 -5.669885 13.257286 19.803790 0.395641 0.837353 0.046682 -0.006887 -112634.000000 1 0 0
-16.967430 -0.787285 10.520186 19.979685 0.046367 1.016266 0.023709 0.002367 133852.000000 1 0 0
-7.376330 7.853915 14.627586 18.167568 -0.816746 0.634871 0.000698 -0.004999 -75773.000000 1 0 0
-9.394830 0.349915 14.191586 17.023114 -0.037228 0.585084 0.009205 -0.000446 41431.000000 1 0 0
7.794470 -0.844285 15.287986 17.181068 -0.107898 0.473855 -0.003055 0.004273 177127.000000 1 0 0
3.957870 6.372415 18.359886 19.833251 1.015011 0.387882 -0.004046 0.010306 -77784.600000 1 0 0
2.074170 0.725315 19.997386 20.117747 0.336398 0.109442 0.011206 0.001180 267024.000000 1 0 0
-7.046530 6.638915 17.153686 19.697151 -0.755622 0.513824 0.012926 -0.018282 536158.000000 1 0 0
7.777770 -3.582085 16.656186 18.728416 -0.431596 0.474867 -0.004824 0.009160 389037.000000 1 0 0
-16.452330 2.438615 9.123786 18.970226 -0.147152 1.069055 0.029502 -0.008368 197802.000000 1 0 0
4.105770 -6.072085 19.009286 20.373525 -0.976242 0.368028 0.007842 -0.004335 120336.000000 1 0 0
-3.828530 -3.835385 20.563386 21.265481 0.786293 0.257678 0.029993 -0.017025 357618.000000 1 0 0
-9.535830 5.891615 14.563186 18.377421 -0.553434 0.655981 0.004066 -0.005356 -110459.000000 1 0 0
6.475470 2.244815 19.944286 21.088989 0.333700 0.330992 0.006898 -0.001306 111915.000000 1 0 0
-7.028330 11.552615 14.273286 19.661817 -1.024241 0.758397 0.006152 -0.022472 132685.000000 1 0 0
-14.534630 4.867415 9.103786 17.827679 -0.323146 1.034850 0.004715 -0.004455 415041.000000 1 0 0
1.516570 -5.085785 20.133886 20.821589 -1.280994 0.257728 0.031260 -0.017398 312452.000000 1 0 0
-5.850130 -8.262785 13.877486 17.177959 0.954715 0.630274 0.008608 -0.001591 324335.000000 1 0 0
-13.315630 10.355715 6.363886 18.029029 -0.661002 1.210042 -0.001080 -0.007154 233169.000000 1 0 0
-19.392830 1.831915 7.775486 20.973697 -0.094184 1.191006 0.004488 -0.006490 216126.000000 1 0 0
-16.389030 9.127015 6.383286 19.815374 -0.508124 1.242809 0.029614 -0.005284 26571.400000 1 0 0
-11.418230 8.219015 13.439786 19.456517 -0.623901 0.808257 -0.036835 -0.019054 218488.000000 1 0 0
-16.607230 8.792215 10.654586 21.601466 -0.486906 1.054992 0.013001 -0.011493 364466.000000 1 0 0
2.444270 10.626315 14.312086 17.992467 1.344709 0.651048 0.004357 -0.051388 335574.000000 1 0 0
1.534770 14.722515 13.241286 19.860505 1.466925 0.841004 0.010231 -0.014054 679094.000000 1 0 0
8.604270 5.223115 16.718986 19.515094 0.545578 0.541918 0.006440 0.000731 139831.000000 1 0 0
-0.640330 13.558715 13.154786 18.902306 -1.523605 0.801074 0.000416 0.001111 108371.000000 1 0 0
4.427570 13.399815 14.831786 20.472917 1.251670 0.760547 0.026517 0.006399 105804.000000 1 0 0
-3.782130 -4.601885 -13.914214 15.135626 0.882864 2.737100 0.007137 -0.009499 -38710.800000 1 0 0
4.930770 -11.963685 16.770386 21.182259 -1.179864 0.657179 -0.040970 0.017325 270055.000000 1 0 0
8.530170 -13.739785 7.428386 17.796809 -1.015196 1.140214 0.014216 -0.006185 196135.000000 1 0 0
-0.430930 15.246115 0.349986 15.256219 -1.542539 1.547854 0.005627 -0.004586 -232154.000000 1 0 0
-14.178530 7.817315 8.583186 18.325180 -0.503878 1.083338 0.005940 0.001414 82348.600000 1 0 0
-15.824230 -9.763985 5.822386 19.484400 0.552846 1.267337 0.024710 -0.005474 150245.000000 1 0 0
8.964270 -10.221885 11.449886 17.774841 -0.850853 0.870868 0.009675 -0.005129 102449.000000 1 0 0
-25.455640 5.808415 30.772927 40.357160 -0.224337 0.703605 0.048102 -0.003385 707840.000000 0 0 1
-24.251330 5.003415 30.692757 39.436107 -0.203460 0.678857 0.043196 -0.011867 371985.000000 0 0 1
-23.365330 5.370815 31.704347 39.748584 -0.225938 0.647454 0.028409 -0.002432 -221745.000000 0 0 1
-21.970830 4.737215 31.471877 38.673474 -0.212363 0.620162 0.035705 -0.009615 -46331.800000 0 0 1
-21.852730 3.329615 31.713407 38.657061 -0.151203 0.608724 0.021821 -0.013761 -66300.000000 0 0 1
-20.758030 2.733615 31.030837 37.433692 -0.130936 0.593560 0.027220 -0.014094 145265.000000 0 0 1
-20.392230 1.411715 31.758287 37.768039 -0.069118 0.571894 0.015835 -0.015753 175013.000000 0 0 1
-21.155530 0.237315 31.426347 37.884404 -0.011217 0.592526 0.022100 -0.004855 287598.000000 0 0 1
-20.970530 -0.747885 32.450127 38.643670 0.035648 0.574016 0.019990 -0.003860 -68154.700000 0 0 1
-21.587930 -2.101185 32.104977 38.745106 0.097026 0.594158 0.026421 -0.022151 -376704.000000 0 0 1
-20.699530 -2.976785 31.446787 37.765490 0.142830 0.586856 0.040629 -0.036967 -187.922000 0 0 1
-20.854930 -4.321885 31.828907 38.297338 0.204343 0.589714 0.046956 -0.037828 657989.000000 0 0 1
-22.284930 -4.971585 31.640207 39.018425 0.219497 0.625101 0.044620 -0.027182 1328100.000000 0 0 1
-23.360130 -4.555285 32.499967 40.282678 0.192586 0.632085 0.049065 -0.023453 412554.000000 0 0 1
-23.399730 -5.118585 33.786258 41.415679 0.215353 0.616712 0.032402 -0.013642 613478.000000 0 0 1
-24.657730 -4.562285 -33.874944 42.146529 0.182955 2.504355 0.032836 -0.008620 955301.000000 0 0 1
-24.707530 -5.111985 -32.573344 41.202150 0.204021 2.482542 0.031172 -0.006523 10346.300000 0 0 1
-25.717500 -4.572985 -31.754574 41.117575 0.175977 2.453230 0.032071 -0.003332 -430469.000000 0 0 1
-25.767550 -5.154985 -30.325914 40.127317 0.197451 2.427583 0.020149 0.001255 -1350340.000000 0 0 1
-26.026040 -6.533885 -30.364804 40.522435 0.245968 2.417851 0.022225 -0.000213 499340.000000 0 0 1
-25.895220 -7.020385 -29.052244 39.545936 0.264744 2.395940 0.002100 0.001497 -196937.000000 0 0 1
-26.122850 -8.541185 -28.802814 39.811521 0.316006 2.379625 0.009143 -0.004425 297842.000000 0 0 1
-27.462830 -8.856085 -29.193614 41.047586 0.311947 2.362020 0.021109 -0.000157 463786.000000 0 0 1
-27.733570 -10.170385 -28.694714 41.182208 0.351490 2.341687 0.020346 -0.007299 117725.000000 0 0 1
-29.183620 -10.434485 -28.240784 41.929751 0.343381 2.309765 0.042850 -0.008445 57992.400000 0 0 1
-29.344920 -11.658685 -27.524774 41.888691 0.378175 2.287752 0.044477 -0.013114 222025.000000 0 0 1
-30.679970 -11.721585 -27.021184 42.529995 0.364946 2.259250 0.038049 -0.010978 -1633.600000 0 0 1
-30.847290 -12.216085 -25.624204 41.921210 0.377069 2.228431 0.035876 -0.008905 -156143.000000 0 0 1
-30.175780 -11.488985 -24.610114 40.598426 0.363789 2.222050 0.028780 -0.001334 228799.000000 0 0 1
-30.164560 -12.103485 -23.356614 40.024073 0.381582 2.193907 0.020802 0.001180 -294209.000000 0 0 1
-29.342060 -11.292285 -22.356214 38.578135 0.367378 2.188917 0.025554 0.000239 -198902.000000 0 0 1
-29.338830 -11.899685 -21.085714 38.039148 0.385320 2.158337 0.017569 0.004731 476349.000000 0 0 1
-28.272220 -12.814385 -20.805914 37.368609 0.425553 2.161295 0.019780 -0.001796 1649.720000 0 0 1
-28.201920 -13.198085 -19.267714 36.616697 0.437709 2.124922 0.022100 -0.007011 -14911.500000 0 0 1
-27.607920 -12.148385 -18.480214 35.373702 0.414534 2.120492 0.026283 -0.011466 437876.000000 0 0 1
-27.253960 -12.608085 -17.163414 34.587930 0.433295 2.090042 0.019818 -0.007310 118247.000000 0 0 1
-26.775290 -11.503785 -16.192614 33.338476 0.405796 2.077964 0.023737 -0.013880 -2179.010000 0 0 1
-25.577050 -10.875985 -16.606714 32.376774 0.402061 2.109380 0.034379 -0.018478 256660.000000 0 0 1
-25.443590 -9.650085 -15.930214 31.532081 0.362512 2.100418 0.051767 -0.021399 -441608.000000 0 0 1
-24.080130 -8.949485 -16.012714 30.271322 0.355834 2.128186 0.046105 -0.024093 -287958.000000 0 0 1
-23.051730 -9.550485 -15.276314 29.256790 0.392779 2.120161 0.034445 -0.025924 -160707.000000 0 0 1
-21.969630 -8.676985 -15.127614 28.049945 0.376148 2.140414 0.034740 -0.043336 288176.000000 0 0 1
-20.955430 -9.036185 -13.969214 26.756712 0.407119 2.120087 0.029470 -0.022933 248260.000000 0 0 1
-20.194130 -10.189485 -14.214214 26.714647 0.467302 2.131846 0.037775 -0.008705 465879.000000 0 0 1
-19.062330 -10.266785 -13.357514 25.440174 0.494041 2.123577 0.038537 -0.010177 886040.000000 0 0 1
-17.891630 -11.206885 -13.855814 25.252490 0.559588 2.151594 0.046082 0.002718 804810.000000 0 0 1
-17.294630 -10.795085 -15.104614 25.372967 0.558015 2.208440 0.050602 -0.010044 626069.000000 0 0 1
-17.987530 -11.358385 -16.236014 26.761395 0.563230 2.222693 0.044050 -0.015166 238661.000000 0 0 1
-17.370030 -10.839085 -17.543814 26.962735 0.557888 2.279261 0.048210 -0.015186 -138857.000000 0 0 1
-18.137530 -11.252285 -18.617914 28.323323 0.555275 2.288073 0.028544 -0.005047 -163253.000000 0 0 1
-17.579330 -10.755885 -19.822414 28.594580 0.549086 2.336747 0.033105 -0.016243 364319.000000 0 0 1
-18.502230 -10.967785 -21.077214 30.114345 0.535095 2.346062 0.057130 -0.011781 532761.000000 0 0 1
-19.647030 -10.126085 -21.232514 30.649030 0.475892 2.336110 0.038194 -0.017274 123595.000000 0 0 1
-20.444730 -10.753185 -22.171814 32.018858 0.484202 2.335691 0.056928 -0.003360 -717654.000000 0 0 1
-21.613830 -9.980585 -22.741014 32.922992 0.432597 2.333299 0.034930 -0.007248 -598961.000000 0 0 1
-21.199130 -8.876485 -23.564514 32.916279 0.396539 2.368698 0.021553 -0.012648 767164.000000 0 0 1
-22.267730 -8.287485 -24.314914 33.996312 0.356291 2.367738 0.017639 -0.012241 394733.000000 0 0 1
-21.619430 -7.495385 -25.486854 34.251427 0.333729 2.409999 0.019814 -0.020029 103694.000000 0 0 1
-20.991830 -8.380285 -26.404544 34.757532 0.379831 2.433615 0.038059 -0.019893 143918.000000 0 0 1
-20.164030 -7.627385 -27.263644 34.757321 0.361632 2.472525 0.030935 -0.027650 598268.000000 0 0 1
-18.951630 -8.502785 -27.812634 34.713171 0.421737 2.500115 0.059335 -0.021276 450335.000000 0 0 1
-19.200730 -9.318185 -28.935994 35.955366 0.451822 2.506093 0.059040 -0.012929 66911.700000 0 0 1
-18.053130 -10.027485 -29.343784 35.882079 0.507012 2.528346 0.041781 -0.008756 -188449.000000 0 0 1
-18.254130 -11.233085 -30.310044 37.122691 0.551646 2.526089 0.042488 -0.007395 -233310.000000 0 0 1
-18.911730 -10.906485 -31.529264 38.349699 0.523115 2.535977 0.041301 -0.003783 455212.000000 0 0 1
-18.869430 -12.068985 -32.340354 39.339729 0.569033 2.535849 0.036122 -0.006117 -502364.000000 0 0 1
-19.652530 -11.967985 -33.611314 40.732972 0.546996 2.541286 0.028266 -0.009560 -469411.000000 0 0 1
-19.102330 -11.083585 33.843294 40.411798 0.525750 0.578176 0.023073 -0.009490 263908.000000 0 0 1
-19.728430 -11.327585 32.550749 39.712421 0.521215 0.609976 0.025997 -0.016357 127088.000000 0 0 1
-19.156630 -12.477285 31.677647 39.065745 0.577310 0.625141 0.035988 -0.013202 749690.000000 0 0 1
-17.809330 -12.193685 31.199677 37.937818 0.600370 0.605197 0.039958 -0.014043 1499370.000000 0 0 1
-17.292530 -13.191685 30.285647 37.286359 0.651677 0.622806 0.038044 -0.017530 78584.800000 0 0 1
-17.212130 -14.672685 30.684397 38.119251 0.705922 0.635192 0.030185 -0.006920 562500.000000 0 0 1
-18.518730 -15.325685 30.684567 38.979002 0.691332 0.664529 0.026402 -0.009217 1071050.000000 0 0 1
-18.521630 -16.605585 31.247367 39.939882 0.730906 0.672350 0.032895 -0.013845 -121241.000000 0 0 1
-18.635030 -16.644585 32.809240 41.240184 0.729039 0.650857 0.012960 -0.019231 -956142.000000 0 0 1
-17.492130 -16.239485 33.433733 41.079313 0.748280 0.619993 0.021941 -0.015106 -830694.000000 0 0 1
-17.775630 -16.130185 -33.657474 41.339828 0.736906 2.522087 0.024908 -0.013934 401911.000000 0 0 1
-16.529830 -15.556985 -32.939204 40.003077 0.755088 2.538203 0.020638 -0.010703 13907.300000 0 0 1
-16.266830 -14.251985 -33.432204 39.817597 0.719474 2.567405 0.022590 -0.008582 -150351.000000 0 0 1
-15.153930 -13.591885 -32.851174 38.646870 0.731112 2.586847 0.025258 -0.006186 -14675.100000 0 0 1
-15.263430 -13.220085 -31.392124 37.325706 0.713783 2.569985 0.042173 -0.004812 -419193.000000 0 0 1
-15.249730 -14.371985 -30.579504 37.070396 0.755775 2.540828 0.038330 -0.011226 -181568.000000 0 0 1
-15.574830 -14.056685 -29.259884 36.004257 0.734209 2.519530 0.043025 -0.007447 -199904.000000 0 0 1
-15.749430 -15.342485 -28.431054 35.941079 0.772310 2.483314 0.050655 -0.003785 1094700.000000 0 0 1
-14.543630 -16.028985 -27.999104 35.389198 0.833944 2.483527 0.050864 -0.012074 1011760.000000 0 0 1
-13.735730 -16.687385 -28.971324 36.145217 0.882116 2.500639 0.038761 -0.017247 -556632.000000 0 0 1
-12.346730 -17.019785 -28.473964 35.396065 0.943204 2.505526 0.025011 -0.011678 -70131.400000 0 0 1
-11.366330 -15.972085 -28.533124 34.618493 0.952303 2.539613 0.026097 -0.010659 572815.000000 0 0 1
-10.040230 -16.394385 -28.252764 34.173099 1.021295 2.544110 0.038609 -0.015837 1041450.000000 0 0 1
-8.970630 -15.266285 -28.199844 33.298090 1.039537 2.580907 0.037321 -0.018215 362650.000000 0 0 1
-9.274830 -14.393185 -27.111694 32.066028 0.998375 2.578289 0.032890 -0.017790 836279.000000 0 0 1
-8.140030 -13.531085 -26.792584 31.099725 1.029216 2.609024 0.027548 -0.014123 948887.000000 0 0 1
-8.059030 -12.164885 -27.514214 31.144250 0.985696 2.653960 0.019513 -0.025903 -146396.000000 0 0 1
-7.888230 -12.167585 -28.893574 32.328206 0.995618 2.676450 0.035955 -0.024867 195665.000000 0 0 1
-7.789930 -10.886885 -29.499524 32.394894 0.949721 2.715585 0.024869 -0.024409 -39825.200000 0 0 1
-6.694030 -10.887185 -30.589194 33.151766 1.019526 2.745827 0.020571 -0.012451 878848.000000 0 0 1
-5.313430 -10.893085 -30.145004 32.490200 1.116972 2.759318 0.035747 -0.013195 1844100.000000 0 0 1
-4.262830 -10.724185 -31.093954 33.166456 1.192450 2.786206 0.044779 -0.015093 374453.000000 0 0 1
-4.254030 -9.301685 -31.679384 33.289660 1.141855 2.829289 0.030983 -0.011111 19361.200000 0 0 1
-3.014330 -8.867285 -32.291414 33.622170 1.243113 2.859303 0.028313 -0.014367 760333.000000 0 0 1
-3.022330 -7.506285 -32.602104 33.591308 1.188016 2.898307 0.016040 -0.010995 400736.000000 0 0 1
-1.694930 -6.946885 -33.212134 33.973193 1.331488 2.929527 0.033907 -0.011567 458531.000000 0 0 1
-1.359230 -7.395985 33.988705 34.810633 1.389045 0.217738 0.040017 -0.021473 -836368.000000 0 0 1
-0.178730 -6.818485 33.553124 34.239390 1.544590 0.200552 0.042524 -0.012707 -720795.000000 0 0 1
0.335670 -7.442785 32.278227 33.126902 -1.525727 0.226844 0.027767 -0.009010 -275475.000000 0 0 1
-0.325730 -7.050985 31.104687 31.895517 1.524633 0.223148 0.024365 -0.006051 149991.000000 0 0 1
0.341270 -7.640985 30.008787 30.968184 -1.526163 0.249565 0.014536 -0.005394 184482.000000 0 0 1
-0.046930 -6.925085 28.699247 29.522970 1.564020 0.236778 0.018653 -0.007687 35980.900000 0 0 1
0.569870 -5.660785 28.574437 29.135334 -1.470465 0.196538 0.015329 -0.005375 -79753.100000 0 0 1
0.353470 -5.153385 27.293637 27.778138 -1.502314 0.187044 0.020820 0.004511 -707552.000000 0 0 1
-0.819730 -4.207385 27.045077 27.382663 1.378376 0.157187 0.021932 0.011704 -178941.000000 0 0 1
-2.016630 -4.968085 27.175617 27.699509 1.185200 0.194799 0.018475 0.007354 -651804.000000 0 0 1
-3.074930 -4.090885 26.893487 27.376088 0.926237 0.188046 0.021871 -0.007847 240070.000000 0 0 1
-4.510330 -4.636385 27.173577 27.932820 0.799179 0.233688 0.024520 -0.003973 659324.000000 0 0 1
-4.907730 -5.759185 26.370887 27.434972 0.865051 0.279425 0.020660 -0.001699 1010770.000000 0 0 1
-6.267930 -6.136385 26.733367 28.135655 0.774794 0.317048 0.019206 -0.002870 1658900.000000 0 0 1
-6.420930 -7.695485 26.718467 28.536386 0.875443 0.358869 0.023282 -0.003735 249359.000000 0 0 1
-5.721830 -8.294185 27.791897 29.562178 0.966908 0.347824 0.020422 -0.003291 -100425.000000 0 0 1
-5.662330 -9.681785 27.530277 29.727346 1.041596 0.386875 0.014308 -0.010861 -35529.600000 0 0 1
-5.109730 -10.401585 28.785137 31.030411 1.114177 0.382745 0.019829 -0.015373 -106443.000000 0 0 1
-5.341730 -11.774585 28.756857 31.529855 1.144898 0.422537 0.036944 -0.022709 -19352.600000 0 0 1
-4.895730 -12.374285 29.910967 32.737700 1.194056 0.418609 0.048024 -0.028782 -475589.000000 0 0 1
-4.793330 -13.889685 29.903207 33.318180 1.238493 0.456719 0.056913 -0.036175 -669565.000000 0 0 1
-6.084530 -14.387285 29.767937 33.617637 1.170697 0.483258 0.073791 -0.035835 -757017.000000 0 0 1
-6.149330 -15.813285 29.840327 34.326656 1.199920 0.517002 0.059462 -0.037522 54203.700000 0 0 1
-6.369130 -16.394785 31.266187 35.873796 1.200256 0.512420 0.066859 -0.031895 -254620.000000 0 0 1
-7.700230 -16.482485 31.685937 36.537165 1.133751 0.521195 0.068380 -0.032727 -529287.000000 0 0 1
-7.730430 -16.939085 33.005505 37.895323 1.142661 0.513633 0.068729 -0.032964 -519309.000000 0 0 1
-9.157130 -17.122885 33.521884 38.739681 1.079706 0.525025 0.064250 -0.027874 -212131.000000 0 0 1
-9.699630 -18.375385 33.149789 39.123472 1.085110 0.559893 0.054989 -0.023668 581019.000000 0 0 1
-10.578830 -18.308485 31.988637 38.345601 1.046853 0.584081 0.053540 -0.027165 -7577.160000 0 0 1
-11.015530 -19.759185 31.602687 38.865114 1.062222 0.621274 0.051673 -0.028578 -6513.520000 0 0 1
-12.133430 -20.175785 32.383977 40.037537 1.029358 0.628619 0.055139 -0.024462 412544.000000 0 0 1
-12.335530 -21.590185 32.429405 40.865238 1.051710 0.654143 0.048335 -0.025816 209098.000000 0 0 1
-11.455530 -22.453885 33.409172 41.851868 1.099038 0.646376 0.048355 -0.021338 804323.000000 0 0 1
-10.065830 -22.690385 33.185140 41.441863 1.153264 0.642227 0.047970 -0.019205 757407.000000 0 0 1
-9.350430 -23.355985 -34.223521 42.475663 1.189993 2.507688 0.044762 -0.023126 320901.000000 0 0 1
-9.724830 -24.860585 -33.995814 43.224256 1.197921 2.475915 0.041293 -0.014056 -365860.000000 0 0 1
-9.372730 -25.687065 33.448130 43.202439 1.220926 0.685317 0.052435 -0.010220 -163290.000000 0 0 1
-9.339030 -27.069075 33.753417 44.263364 1.238576 0.703537 0.049154 -0.007859 -944487.000000 0 0 1
-8.822130 -27.800055 32.495242 43.664789 1.263506 0.731463 0.040491 -0.013693 791606.000000 0 0 1
-7.446430 -27.519085 32.242347 43.038567 1.306533 0.724018 0.035595 -0.020035 408690.000000 0 0 1
-6.507330 -28.167045 33.065636 43.921111 1.343753 0.718428 0.039998 -0.021350 -404852.000000 0 0 1
-5.064330 -27.640475 33.210233 43.503596 1.389585 0.702250 0.048444 -0.027270 315848.000000 0 0 1
-5.058930 -26.518325 34.029482 43.437541 1.382290 0.670660 0.039907 -0.024166 26087.500000 0 0 1
-4.921030 -25.346835 33.204825 42.062322 1.379034 0.660933 0.055223 -0.024937 -29844.100000 0 0 1
-4.643930 -24.086085 34.053597 41.968477 1.380328 0.624238 0.055761 -0.027501 -403668.000000 0 0 1
-3.384230 -24.108385 -33.826834 41.676395 1.431332 2.517775 0.040041 -0.030346 -596802.000000 0 0 1
-3.138930 -22.808285 -33.281374 40.468760 1.434033 2.536407 0.042016 -0.033497 -269487.000000 0 0 1
34.949651 -14.708185 1.980086 37.970114 -0.398341 1.518624 0.095069 -0.033319 53327.500000 0 0 1
35.446441 -15.015385 3.285286 38.635542 -0.400691 1.485661 0.078050 -0.031841 678263.000000 0 0 1
34.773851 -16.196185 3.721286 38.540694 -0.435880 1.474091 0.086863 -0.022363 241416.000000 0 0 1
35.276671 -16.562785 5.133686 39.308067 -0.438960 1.439821 0.083411 -0.012181 9210.980000 0 0 1
-35.636497 -17.320785 5.166686 39.958280 0.452418 1.441131 0.090753 -0.017002 -67946.900000 0 0 1
-35.085924 -17.319185 6.494886 39.663078 0.458532 1.406304 0.082556 -0.012640 142716.000000 0 0 1
-33.766100 -18.110285 6.527186 38.868189 0.492299 1.402066 0.053917 -0.011892 -100943.000000 0 0 1
-33.992910 -19.481085 6.264686 39.677158 0.520400 1.412241 0.060355 -0.010207 649153.000000 0 0 1
-32.919970 -20.242385 6.840786 39.246336 0.551301 1.395598 0.033330 -0.004776 425234.000000 0 0 1
-33.273300 -21.727085 7.020786 40.354308 0.578473 1.395928 0.036850 -0.008297 -205298.000000 0 0 1
-33.064790 -22.498285 5.857886 40.419896 0.597471 1.425358 0.050556 -0.010189 193037.000000 0 0 1
-33.531330 -23.773785 6.097286 41.553819 0.616742 1.423532 0.051803 -0.022147 -365779.000000 0 0 1
-32.916340 -24.760385 5.138186 41.508590 0.644921 1.446692 0.053944 -0.013579 29866.000000 0 0 1
-33.314700 -24.592585 3.783886 41.581032 0.635900 1.479670 0.063319 -0.014325 33097.800000 0 0 1
-32.460620 -25.291655 2.906686 41.252981 0.661897 1.500278 0.049052 -0.004117 -64874.700000 0 0 1
-32.886840 -25.254685 1.439386 41.489941 0.654876 1.536097 0.057839 -0.008260 -596591.000000 0 0 1
-34.041393 -25.952655 1.044586 42.818780 0.651381 1.546398 0.066117 -0.012231 3189.470000 0 0 1
-34.580361 -25.389915 -0.138114 42.900678 0.633331 1.574016 0.055066 -0.007532 165942.000000 0 0 1
-35.584919 -24.197185 0.033086 43.032445 0.597166 1.570027 0.066979 -0.014222 -560514.000000 0 0 1
35.192521 -24.621485 0.229686 42.950947 -0.610473 1.565449 0.055204 -0.012620 -541163.000000 0 0 1
34.354501 -23.531785 0.496386 41.644004 -0.600567 1.558876 0.063801 -0.012695 587888.000000 0 0 1
32.825051 -23.790185 0.318386 40.540822 -0.627149 1.562943 0.042422 -0.002823 680991.000000 0 0 1
32.457521 -23.798985 -1.066614 40.261893 -0.632685 1.597291 0.043514 -0.017168 727288.000000 0 0 1
31.055751 -23.484385 -1.152914 38.952602 -0.647458 1.600399 0.039848 -0.004882 1033460.000000 0 0 1
30.553741 -23.112385 -2.576314 38.397276 -0.647616 1.637943 0.032238 0.001687 83441.800000 0 0 1
31.101541 -21.869585 -3.038114 38.142034 -0.612848 1.650533 0.051430 -0.011997 132899.000000 0 0 1
30.714281 -21.472585 -4.341114 37.726440 -0.610127 1.686120 0.048179 -0.028670 109336.000000 0 0 1
30.935351 -19.974785 -4.671814 37.118915 -0.573343 1.696992 0.063710 -0.030714 809038.000000 0 0 1
29.994581 -19.204485 -3.887614 35.827373 -0.569501 1.679520 0.074492 -0.038637 611664.000000 0 0 1
30.173361 -17.830085 -4.174114 35.295423 -0.533717 1.689336 0.082035 -0.031159 545736.000000 0 0 1
29.156481 -17.005485 -3.266214 33.910987 -0.528011 1.667263 0.089797 -0.029180 306171.000000 0 0 1
29.339611 -16.833585 -1.837414 33.875632 -0.520894 1.625063 0.090393 -0.021042 -185521.000000 0 0 1
29.787361 -17.898685 -1.019014 34.766193 -0.541068 1.600111 0.075158 -0.013365 -316662.000000 0 0 1
28.984551 -19.211285 -0.820114 34.782902 -0.585329 1.594377 0.066948 -0.016215 -510674.000000 0 0 1
27.743281 -19.090285 -0.194914 33.677390 -0.602698 1.576584 0.063544 0.001986 -437486.000000 0 0 1
27.340691 -20.326485 0.331386 34.070357 -0.639297 1.561070 0.048899 0.000929 548834.000000 0 0 1
25.977951 -20.167285 1.114886 32.906174 -0.660136 1.536909 0.035912 0.006933 -323453.000000 0 0 1
25.572651 -21.341385 1.781986 33.355519 -0.695450 1.517347 0.028397 0.010864 -530979.000000 0 0 1
24.547351 -21.206485 2.687886 32.550149 -0.712509 1.488125 0.025562 0.002638 631579.000000 0 0 1
23.109051 -20.691485 2.249386 31.100250 -0.730259 1.498406 0.015807 0.000961 287790.000000 0 0 1
23.014851 -19.292585 1.924386 30.093030 -0.697643 1.506805 0.035936 -0.013520 83020.200000 0 0 1
23.000351 -18.404485 3.061486 29.616109 -0.674852 1.467239 0.046226 -0.013319 -239239.000000 0 0 1
22.846751 -16.935985 2.625986 28.560417 -0.637901 1.478721 0.044754 -0.007096 -755496.000000 0 0 1
21.572051 -16.734185 2.141486 27.385622 -0.659769 1.492519 0.049940 -0.010120 -994751.000000 0 0 1
21.498451 -15.397585 1.628186 26.493773 -0.621528 1.509302 0.058331 -0.017281 433446.000000 0 0 1
20.164751 -14.922985 0.969086 25.104816 -0.637105 1.532185 0.049047 -0.010303 -37637.600000 0 0 1
19.071051 -14.918585 1.851586 24.283689 -0.663832 1.494474 0.042220 -0.011960 444623.000000 0 1 0
18.090151 -13.906285 1.563786 22.871024 -0.655375 1.502369 0.040233 -0.012133 101204.000000 0 1 0
18.396051 -12.491185 2.007186 22.326513 -0.596502 1.480773 0.052159 -0.012978 -1101860.000000 0 1 0
19.434951 -11.933185 1.274086 22.841662 -0.550655 1.514988 0.051291 -0.014226 -19043.100000 0 1 0
19.702951 -10.689785 1.799286 22.488113 -0.497103 1.490700 0.037933 -0.015376 -329644.000000 0 1 0
20.735051 -9.872585 1.023786 22.988224 -0.444370 1.526246 0.048581 -0.015857 -39927.300000 0 1 0
20.113451 -9.400685 -0.186414 22.202670 -0.437215 1.579192 0.056466 -0.012447 1337680.000000 0 1 0
21.069251 -8.915985 -1.144114 22.906705 -0.400324 1.620764 0.064333 -0.001906 -73001.800000 0 1 0
20.402351 -8.717185 -2.507514 22.327850 -0.403786 1.683338 0.071493 -0.006202 -199605.000000 0 1 0
21.160951 -8.085585 -3.534814 22.927221 -0.364980 1.725589 0.069767 -0.005140 782759.000000 0 1 0
22.299651 -8.780485 -4.044114 24.304860 -0.375107 1.737965 0.069532 -0.000672 -76619.800000 0 1 0
21.953651 -9.949285 -5.068814 24.630143 -0.425508 1.778075 0.073017 -0.009744 -151105.000000 0 1 0
21.458051 -9.481485 -6.351314 24.304027 -0.416065 1.835194 0.070609 -0.016827 560494.000000 0 1 0
20.054451 -9.267985 -6.284014 22.968792 -0.432904 1.847919 0.067452 -0.010990 -425074.000000 0 1 0
19.412151 -9.384885 -7.657414 22.881077 -0.450324 1.912042 0.062640 -0.005446 -580961.000000 0 1 0
19.424751 -10.577385 -8.342614 23.638977 -0.498635 1.931484 0.066435 -0.008216 769898.000000 0 1 0
20.650251 -11.060785 -8.892214 25.056841 -0.491740 1.933584 0.070342 -0.004995 27156.000000 0 0 1
20.503751 -12.478885 -9.556614 25.835155 -0.546730 1.949706 0.057464 -0.012289 -753201.000000 0 0 1
19.458451 -12.522185 -10.453114 25.391022 -0.571817 1.995099 0.072631 -0.015006 -218243.000000 0 0 1
19.349551 -13.839885 -10.912414 26.173046 -0.620892 2.000865 0.066857 -0.014116 -212993.000000 0 0 1
18.203951 -14.139885 -11.910814 25.945860 -0.660401 2.047738 0.064799 -0.016559 27923.000000 0 0 1
17.962351 -15.526085 -12.156614 26.673744 -0.712777 2.044013 0.062646 -0.020649 150004.000000 0 0 1
16.937451 -15.661885 -13.106214 26.531957 -0.746290 2.087456 0.064722 -0.020981 -313154.000000 0 0 1
16.765851 -17.112885 -13.597414 27.546946 -0.795641 2.087031 0.060635 -0.020159 -111135.000000 0 0 1
16.210451 -17.956085 -12.566214 27.260034 -0.836446 2.049891 0.054491 -0.018417 366717.000000 0 0 1
16.088751 -19.302185 -13.014114 28.298223 -0.875948 2.048669 0.060710 -0.015556 -320523.000000 0 0 1
15.168751 -20.137585 -12.119614 27.973172 -0.925215 2.018901 0.059963 -0.014302 -692748.000000 0 0 1
13.833851 -19.782585 -12.221114 27.057009 -0.960544 2.039444 0.063113 -0.011494 -1195370.000000 0 0 1
12.976351 -20.657185 -11.538314 26.985879 -1.009916 2.012598 0.056748 -0.011821 -293188.000000 0 0 1
11.508051 -20.383085 -11.865914 26.243195 -1.056822 2.039973 0.039246 -0.013878 -741341.000000 0 0 1
10.679851 -21.192485 -11.128914 26.211321 -1.103998 2.009299 0.041722 -0.010324 -746413.000000 0 0 1
9.332251 -20.917685 -11.451114 25.607976 -1.151156 2.034395 0.026245 -0.007403 831641.000000 0 0 1
8.249451 -21.633585 -10.533914 25.436760 -1.206491 1.997774 0.025391 -0.003643 492941.000000 0 0 1
8.277251 -23.031685 -10.573814 26.660400 -1.225785 1.978619 0.032951 -0.016330 -66952.900000 0 0 1
7.421351 -23.632685 -9.611514 26.569935 -1.266519 1.940934 0.029396 -0.023180 143541.000000 0 0 1
7.423451 -25.133925 -9.766114 27.967817 -1.283606 1.927504 0.042564 -0.017517 364855.000000 0 0 1
8.727851 -25.592575 -9.475514 28.652061 -1.242134 1.907852 0.042420 -0.011456 -279073.000000 0 0 1
8.922951 -26.900865 -9.894214 30.019511 -1.250519 1.906669 0.034500 -0.013527 -22478.100000 0 0 1
10.340851 -27.340785 -9.519514 30.742037 -1.209205 1.885630 0.037700 -0.006255 4761.000000 0 0 1
10.429051 -27.503065 -8.085014 30.504936 -1.208352 1.839041 0.045963 -0.012286 1461640.000000 0 0 1
11.836251 -27.692205 -7.704114 31.085502 -1.166876 1.821242 0.069434 -0.005415 1754200.000000 0 0 1
12.237751 -27.758195 -6.180414 30.959287 -1.155561 1.771777 0.064011 -0.017017 228411.000000 0 0 1
11.761551 -28.912845 -5.463814 31.688167 -1.184447 1.744087 0.062202 -0.019655 1398030.000000 0 0 1
10.320551 -28.954665 -5.267214 31.187015 -1.228397 1.740501 0.058800 -0.023072 1271360.000000 0 0 1
9.879651 -30.111285 -4.332014 31.985361 -1.253759 1.706651 0.063110 -0.033303 -6408.800000 0 0 1
10.146251 -31.451305 -4.765914 33.389293 -1.258735 1.714023 0.078740 -0.031647 -254416.000000 0 0 1
9.396351 -31.884695 -5.869014 33.754563 -1.284211 1.745558 0.082168 -0.029244 -99145.900000 0 0 1
9.622951 -33.296985 -6.241414 35.217121 -1.289458 1.748964 0.074774 -0.024797 -66234.000000 0 0 1
9.104951 -34.222414 -5.318614 35.810074 -1.310768 1.719871 0.066755 -0.019157 -101447.000000 0 0 1
9.383651 33.117425 -5.652314 34.882164 1.294689 1.733554 0.070810 -0.014726 -24837.000000 0 0 1
8.977351 32.139200 -4.576314 33.681800 1.298412 1.707087 0.037875 -0.006347 628295.000000 0 0 1
7.569451 31.927260 -4.497914 33.119145 1.338010 1.707027 0.035235 -0.009569 -109753.000000 0 0 1
7.239251 30.804630 -3.727314 31.862593 1.339979 1.688046 0.019868 -0.005956 272320.000000 0 0 1
5.846251 30.195150 -4.032514 31.019138 1.379547 1.701166 0.029905 -0.012502 195591.000000 0 0 1
5.692951 29.509320 -5.271814 30.512320 1.380217 1.744444 0.039693 -0.012902 -57260.000000 0 0 1
5.284651 30.275910 -6.365414 31.385932 1.397988 1.775024 0.037086 -0.018130 -139701.000000 0 0 1
5.380451 29.611760 -7.763814 31.081866 1.391057 1.823256 0.049153 -0.025617 -113385.000000 0 0 1
4.558651 28.461790 -7.909714 29.890105 1.411978 1.838613 0.042592 -0.025840 -202154.000000 0 0 1
5.109751 27.233080 -7.499314 28.705224 1.385322 1.835116 0.045339 -0.016681 -583347.000000 0 0 1
4.274951 25.990810 -7.716514 27.447076 1.407777 1.855780 0.051689 -0.025529 78604.600000 0 0 1
3.025351 25.787340 -7.012414 26.894490 1.454011 1.834583 0.041574 -0.024170 488645.000000 0 0 1
1.886651 26.243200 -7.688714 27.411335 1.499029 1.855105 0.041284 -0.027742 -19791.500000 0 0 1
1.379751 25.487430 -8.974914 27.056642 1.516715 1.908910 0.049845 -0.027923 -712678.000000 0 0 1
2.318451 25.581540 -10.007914 27.567168 1.480413 1.942322 0.043481 -0.028032 -167181.000000 0 0 1
1.942751 24.888160 -11.199514 27.360992 1.492895 1.992509 0.041462 -0.022012 -579233.000000 0 0 1
1.918751 23.288450 -11.218514 25.920813 1.488591 2.018392 0.044922 -0.020288 -323801.000000 0 0 1
0.780651 22.849750 -10.532314 25.172408 1.536645 2.002487 0.053883 -0.019504 -266117.000000 0 0 1
0.885851 21.513550 -10.176014 23.815306 1.529643 2.012288 0.027855 -0.016172 -329894.000000 0 1 0
-0.336649 20.981350 -9.413014 22.998591 -1.554753 1.992468 0.040066 -0.012337 -4570.930000 0 1 0
-1.518549 20.846050 -10.181914 23.249412 -1.498079 2.024105 0.046206 -0.015494 203049.000000 0 1 0
-2.470149 20.112350 -9.352014 22.317446 -1.448591 2.003190 0.037673 -0.016007 -141354.000000 0 1 0
-3.803849 20.016950 -10.069614 22.727619 -1.383004 2.029801 0.036858 -0.021081 -749656.000000 0 1 0
-4.735249 19.279350 -9.311114 21.927443 -1.329951 2.009353 0.025659 -0.028055 -46290.600000 0 1 0
-5.804149 18.923850 -10.170814 22.254116 -1.273194 2.045450 0.035279 -0.028890 -567404.000000 0 1 0
-6.820249 17.960250 -9.517214 21.439770 -1.207875 2.030748 0.036331 -0.027413 172802.000000 0 1 0
-7.855449 18.570050 -8.767014 21.986708 -1.170606 1.980940 0.043831 -0.018866 -58156.800000 0 1 0
-9.072749 18.787250 -9.434314 22.897201 -1.120905 1.995476 0.050450 -0.022838 288564.000000 0 1 0
-10.203149 19.187650 -8.414914 23.304097 -1.082068 1.940235 0.066669 -0.027439 440907.000000 0 1 0
-10.439549 18.078150 -7.565614 22.204553 -1.047109 1.918483 0.060926 -0.026678 -368051.000000 0 1 0
-11.310449 18.380450 -6.505214 22.540741 -1.019165 1.863559 0.066150 -0.023395 -208343.000000 0 1 0
-11.703549 17.156850 -5.662214 21.526523 -0.972151 1.836962 0.052338 -0.023651 -349359.000000 0 1 0
-12.685749 17.408050 -4.705614 22.047930 -0.941048 1.785877 0.063140 -0.027064 -393648.000000 0 1 0
-13.230149 16.234450 -4.251414 21.369808 -0.887010 1.771077 0.062846 -0.022277 -759805.000000 0 1 0
-14.462049 16.468150 -3.409614 22.180538 -0.850166 1.725129 0.048188 -0.028987 -807660.000000 0 1 0
-15.642249 16.680450 -4.126114 23.236656 -0.817507 1.749312 0.074715 -0.036157 -54472.400000 0 1 0
-16.727949 16.956650 -3.256714 24.040766 -0.792188 1.706680 0.068187 -0.032678 582169.000000 0 1 0
-18.111349 17.204850 -3.935314 25.288624 -0.759736 1.727047 0.069372 -0.032964 321600.000000 0 0 1
-18.092349 18.184850 -4.966414 26.128282 -0.787948 1.762038 0.075802 -0.032886 796698.000000 0 0 1
-19.406949 18.448750 -5.495414 27.334696 -0.760092 1.773218 0.060773 -0.031562 920382.000000 0 0 1
-19.355749 19.437950 -6.679614 28.232891 -0.787517 1.809651 0.051643 -0.018714 -28991.100000 0 0 1
-18.970649 20.744850 -6.358414 28.821237 -0.830041 1.793242 0.058032 -0.026825 124537.000000 0 0 1
-18.467549 21.405250 -7.528414 29.255975 -0.858942 1.831054 0.048820 -0.013112 -68566.600000 0 0 1
-18.372249 22.884150 -7.174914 30.210978 -0.894328 1.810581 0.049382 -0.010880 275253.000000 0 0 1
-17.268849 23.158150 -6.309414 29.568932 -0.930058 1.785829 0.049695 -0.017116 384990.000000 0 0 1
-17.306449 24.421470 -5.770614 30.483132 -0.954284 1.761251 0.038672 -0.012737 1107620.000000 0 0 1
-15.882849 24.868120 -5.223814 29.966256 -1.002418 1.746015 0.043171 -0.014494 1055220.000000 0 0 1
-16.017049 26.043030 -4.452814 30.896809 -1.019404 1.715419 0.036064 -0.013296 -666191.000000 0 0 1
-14.825449 26.399940 -3.834014 30.519672 -1.059113 1.696753 0.047891 -0.017399 -534727.000000 0 0 1
-14.275649 27.741880 -4.440214 31.513831 -1.095546 1.712164 0.061717 -0.013092 -368428.000000 0 0 1
-15.043349 28.902370 -4.307214 32.866418 -1.090893 1.702227 0.065904 -0.017009 -193820.000000 0 0 1
-14.445549 30.006760 -5.003814 33.676663 -1.122131 1.719933 0.056963 -0.015268 -466211.000000 0 0 1
-15.222749 31.305150 -4.763614 35.134548 -1.118193 1.706797 0.063940 -0.033304 9744.040000 0 0 1
-16.484249 31.377530 -5.388114 35.851243 -1.087073 1.721659 0.071774 -0.021454 292316.000000 0 0 1
-17.330349 32.371870 -4.780014 37.028738 -1.079269 1.700247 0.089099 -0.033812 116847.000000 0 0 1
12.687770 -8.612985 19.202667 24.574487 -0.596384 0.673880 0.038815 0.006634 -84426.900000 0 1 0
12.970370 -9.932885 19.549267 25.476784 -0.653545 0.696119 0.045499 0.001686 63661.100000 0 0 1
13.379270 -10.681985 18.381067 25.119181 -0.673763 0.749904 0.046170 -0.001662 45101.400000 0 0 1
13.739870 -12.150085 18.661067 26.165703 -0.724070 0.776761 0.071640 -0.013109 17638.900000 0 0 1
14.961370 -12.262985 19.390067 27.389744 -0.686604 0.784231 0.065338 -0.010307 445953.000000 0 0 1
15.222570 -13.473585 20.094667 28.584257 -0.724525 0.791193 0.073165 -0.017527 -154212.000000 0 0 1
15.748270 -14.618685 19.173167 28.797991 -0.748217 0.842256 0.070685 -0.020981 -449400.000000 0 0 1
14.909070 -14.974285 18.100467 27.823308 -0.787580 0.862487 0.071570 -0.020628 208003.000000 0 0 1
15.377770 -16.166385 17.549167 28.386635 -0.810393 0.904321 0.076257 -0.021672 -158351.000000 0 0 1
14.468670 -16.466585 16.320567 27.328588 -0.849892 0.930794 0.071034 -0.025677 -213657.000000 0 0 1
13.140870 -16.628985 16.801567 27.046224 -0.902036 0.900502 0.092849 -0.025184 15632.200000 0 0 1
12.281170 -16.664385 15.641567 25.945856 -0.935686 0.923723 0.095039 -0.023509 200003.000000 0 0 1
11.957670 -17.986285 14.988267 26.289550 -0.984072 0.964141 0.084171 -0.014134 -121398.000000 0 0 1
13.068770 -18.611185 14.333467 26.881540 -0.958596 1.008408 0.077560 -0.019545 375515.000000 0 0 1
12.712270 -19.768885 13.558667 27.133891 -0.999326 1.047550 0.073057 -0.017235 -722100.000000 0 0 1
13.877170 -20.515585 12.964567 27.956127 -0.976071 1.088577 0.075763 -0.019945 -353347.000000 0 0 1
14.823270 -21.085485 13.859567 29.264562 -0.958054 1.077428 0.063069 -0.017941 270769.000000 0 0 1
15.271370 -22.365685 13.381967 30.207874 -0.971705 1.111859 0.043289 -0.019532 18840.200000 0 0 1
16.093670 -23.146685 14.452767 31.680557 -0.963238 1.097073 0.037834 -0.014338 -127620.000000 0 0 1
17.407870 -22.664285 14.545367 32.066672 -0.915827 1.099998 0.019695 -0.015216 -454076.000000 0 0 1
18.097370 -23.469785 15.507067 33.448688 -0.913932 1.088734 0.012144 -0.014292 -1204990.000000 0 0 1
19.515370 -23.027585 15.698167 34.022812 -0.867768 1.091222 -0.008087 -0.004956 -847570.000000 0 0 1
20.334870 -23.595785 14.669667 34.430613 -0.859491 1.130658 -0.008524 -0.003337 1015330.000000 0 0 1
21.646470 -22.960485 14.677567 34.802076 -0.814847 1.135428 -0.009536 0.000565 1479990.000000 0 0 1
22.831670 -23.780585 14.102167 35.856275 -0.805753 1.166581 -0.018589 -0.002502 108579.000000 0 0 1
23.094970 -24.790985 15.005267 37.055750 -0.820801 1.153886 -0.016410 -0.002497 -555190.000000 0 0 1
23.998870 -25.644555 14.435367 37.973264 -0.818536 1.180843 -0.012767 -0.010046 -705874.000000 0 0 1
24.334970 -26.913585 15.325367 39.387798 -0.835672 1.171154 0.000960 -0.007855 140.118000 0 0 1
24.901170 -26.534505 16.592067 39.993060 -0.817142 1.142992 0.000425 0.001689 295303.000000 0 0 1
25.395670 -27.642545 17.362867 41.358427 -0.827736 1.137555 0.025077 0.008943 115923.000000 0 0 1
25.890870 -27.127915 18.691867 41.900439 -0.808726 1.108391 0.021067 0.011768 -140913.000000 0 0 1
24.787570 -26.845445 19.524167 41.428186 -0.825233 1.080058 0.022478 0.014470 120184.000000 0 0 1
25.194270 -26.340505 20.788467 41.961098 -0.807636 1.052475 0.031295 0.009127 -403560.000000 0 0 1
24.031470 -26.059345 21.729567 41.578541 -0.825860 1.020881 0.027576 0.003220 -101129.000000 0 0 1
23.356170 -27.257775 22.118167 42.162901 -0.862332 1.018565 0.037773 0.005335 -48049.400000 0 0 1
22.419270 -27.131795 23.150267 42.127103 -0.880217 0.988990 0.047603 0.003178 146381.000000 0 0 1
21.606170 -28.444025 23.372667 42.686891 -0.921177 0.991378 0.068549 0.005675 764382.000000 0 0 1
22.519870 -29.500615 23.761667 44.068669 -0.918793 1.001314 0.068865 0.003810 1202820.000000 0 0 1
21.813270 -30.719215 23.716347 44.519142 -0.953334 1.008982 0.066922 0.001420 -50275.800000 0 0 1
22.751270 -31.907415 24.034097 45.971091 -0.951372 1.020654 0.063970 0.009258 103862.000000 0 0 1
23.037270 -31.870175 25.409037 46.819259 -0.944901 0.997142 0.053401 0.000656 1378310.000000 0 0 1
24.236170 -32.590305 25.845767 48.140664 -0.931364 1.004062 0.052500 -0.003707 926295.000000 0 0 1
24.078070 -32.997985 27.377397 49.174610 -0.940425 0.980342 0.046224 -0.015795 557243.000000 0 0 1
23.329170 -34.198827 27.639837 49.777209 -0.972142 0.982108 0.036507 -0.008465 1708790.000000 0 0 1
21.887970 -34.231388 27.454797 49.037098 -1.001900 0.976558 0.045044 -0.007263 1243760.000000 0 0 1
21.360870 33.127739 28.048047 48.377958 0.998083 0.952351 0.058058 -0.015383 -130501.000000 0 0 1
20.886570 33.247016 29.372337 49.034142 1.009882 0.928522 0.041853 -0.011540 25684.500000 0 0 1
20.436170 32.038020 29.857557 48.327481 1.002994 0.904832 0.046958 -0.018855 -392171.000000 0 0 1
20.131170 32.109850 31.366027 49.194858 1.010798 0.879434 0.038540 -0.019205 -224247.000000 0 0 1
21.219770 32.377910 32.213007 50.361548 0.990650 0.876773 0.023953 -0.009268 -29527.000000 0 0 1
20.784270 32.553110 33.568528 51.171642 1.002567 0.855291 0.007437 -0.011996 337757.000000 0 0 1
22.022170 32.315520 -33.986084 51.810449 0.972613 2.286263 -0.000964 -0.002212 344887.000000 0 0 1
22.486770 31.001460 -34.021154 51.226792 0.943262 2.297123 -0.003923 -0.000265 -705348.000000 0 0 1
23.645670 30.839280 -33.279994 51.163824 0.916668 2.278986 -0.009268 0.012265 -597093.000000 0 0 1
23.964670 29.332570 -33.383434 50.489194 0.885776 2.293213 -0.002769 0.005395 -133820.000000 0 0 1
24.257570 28.901470 33.748276 50.622829 0.872536 0.841076 0.004224 -0.001555 260898.000000 0 0 1
23.984270 27.506650 33.824153 49.758761 0.853700 0.823357 0.003834 -0.012485 -39306.300000 0 0 1
24.311970 26.729270 32.492353 48.592991 0.832723 0.838387 0.038729 -0.021977 379068.000000 0 0 1
25.663970 26.306830 32.403959 48.996992 0.797767 0.848185 0.041258 -0.028556 599998.000000 0 0 1
25.667570 25.406510 31.285307 47.781642 0.780287 0.856937 0.062362 -0.034112 534871.000000 0 0 1
26.991370 24.555440 31.268067 48.054091 0.738177 0.862310 0.061112 -0.028133 554256.000000 0 0 1
27.178670 23.617050 32.343237 48.399691 0.715396 0.838938 0.073602 -0.043540 260818.000000 0 0 1
27.991670 24.061390 33.409239 49.786156 0.710036 0.835166 0.068159 -0.039732 -748364.000000 0 0 1
27.510270 23.638850 -33.646164 49.473978 0.709853 2.318665 0.057013 -0.041218 -1059800.000000 0 0 1
26.363570 24.152260 -33.077434 48.708173 0.741651 2.317324 0.042384 -0.029618 1086120.000000 0 0 1
25.058070 23.743660 -33.597894 48.171430 0.758471 2.342650 0.043791 -0.029825 1215590.000000 0 0 1
24.715670 22.219950 -33.570084 47.239189 0.732275 2.361205 0.042393 -0.036561 -1073720.000000 0 0 1
24.388470 21.706750 -32.275694 45.909703 0.727286 2.350439 0.021310 -0.035324 375966.000000 0 0 1
24.264670 20.322450 -32.431784 45.316628 0.697211 2.368380 0.022601 -0.022067 -106739.000000 0 0 1
24.391470 19.597250 -31.101504 44.116885 0.676839 2.353191 0.017627 -0.020853 112944.000000 0 0 1
23.247670 19.719450 -30.263334 42.955561 0.703468 2.352552 0.008637 -0.011538 438085.000000 0 0 1
23.410570 18.927150 -29.097314 41.868191 0.679895 2.339180 0.012509 -0.006478 -105832.000000 0 0 1
22.163670 18.978250 -28.186804 40.569670 0.708127 2.338904 0.026003 -0.014553 -96736.600000 0 0 1
22.223670 18.409150 -26.866314 39.428253 0.691795 2.320467 0.035425 -0.010495 -73172.800000 0 0 1
23.031770 19.099150 -25.933804 39.595481 0.692325 2.284938 0.023580 -0.002345 -237881.000000 0 0 1
23.089170 18.341050 -24.620414 38.414433 0.671291 2.266487 0.040600 -0.001868 -404946.000000 0 0 1
23.839670 17.197150 -24.740114 38.420633 0.624923 2.270417 0.042131 -0.021119 -135875.000000 0 0 1
23.774270 16.412950 -23.578614 37.290104 0.604231 2.255318 0.052907 -0.019961 -514494.000000 0 0 1
24.789770 15.290350 -23.536414 37.447166 0.552682 2.250449 0.066207 -0.027447 86901.500000 0 0 1
26.155970 15.648850 -23.264414 38.343894 0.539161 2.222737 0.086014 -0.032029 702328.000000 0 0 1
27.042870 14.567650 -23.223714 38.508104 0.494116 2.218161 0.084451 -0.037891 -137868.000000 0 0 1
26.978570 13.649550 -21.963414 37.370376 0.468389 2.199037 0.078541 -0.033224 -1647090.000000 0 0 1
25.712470 13.128750 -21.880514 36.225020 0.472090 2.219328 0.063551 -0.028353 -1089420.000000 0 0 1
25.442270 12.350350 -20.727214 35.063622 0.451921 2.203257 0.049640 -0.032369 183956.000000 0 0 1
23.967070 11.864550 -20.686814 33.810239 0.459668 2.229194 0.049909 -0.029050 164791.000000 0 0 1
23.088870 12.934150 -20.580114 33.525054 0.510633 2.231753 0.072911 -0.030627 -11168.300000 0 0 1
21.758370 12.597850 -20.977614 32.744355 0.524827 2.266139 0.077002 -0.035009 544741.000000 0 0 1
20.733970 13.721650 -20.831014 32.436281 0.584623 2.268179 0.077387 -0.030080 -621923.000000 0 0 1
21.038970 14.837050 -21.650214 33.637896 0.614219 2.270023 0.063076 -0.021902 277440.000000 0 0 1
20.158170 15.967350 -21.628414 33.602029 0.669907 2.270073 0.048035 -0.015594 361109.000000 0 0 1
18.835570 15.797750 -22.439314 33.284687 0.697908 2.310628 0.050902 -0.001074 -781161.000000 0 0 1
17.802370 15.229950 -21.746914 31.965669 0.707679 2.318997 0.052288 -0.017009 -250839.000000 0 0 1
16.699570 15.175550 -22.678414 31.991927 0.737622 2.358704 0.059712 -0.023037 234833.000000 0 0 1
15.493970 14.383450 -22.181114 30.642267 0.748246 2.380196 0.036010 -0.021283 -579704.000000 0 0 1
14.407470 14.256450 -23.050014 30.694050 0.780130 2.420311 0.041872 -0.019356 -447475.000000 0 0 1
13.462670 13.373550 -22.464814 29.406856 0.782077 2.440180 0.047930 -0.019474 -733117.000000 0 0 1
12.164770 13.354050 -23.230814 29.427589 0.831968 2.480665 0.039460 -0.016344 -928635.000000 0 0 1
11.464870 14.570150 -23.166114 29.671558 0.904111 2.466664 0.034152 -0.012807 33617.800000 0 0 1
11.234670 15.093850 -24.469414 30.867366 0.930940 2.486067 0.039581 -0.012826 -572679.000000 0 0 1
11.049670 16.624950 -24.528414 31.624788 0.984195 2.458473 0.041294 -0.013780 -519130.000000 0 0 1
12.138070 17.460850 -24.316114 32.303056 0.963327 2.423025 0.041402 -0.009466 -203175.000000 0 0 1
13.301070 17.402350 -25.139904 33.343290 0.918189 2.424884 0.053358 -0.018639 126710.000000 0 0 1
13.085870 17.593650 -26.675564 34.530598 0.931286 2.453596 0.061691 -0.020440 -223648.000000 0 0 1
14.202070 17.368850 -27.549974 35.529942 0.885371 2.458147 0.049219 -0.021557 305375.000000 0 0 1
13.797270 17.144750 -28.869714 36.301067 0.893165 2.490275 0.058018 -0.027829 -51953.200000 0 0 1
14.885970 17.371050 -29.947264 37.685330 0.862286 2.489254 0.050616 -0.021276 211309.000000 0 0 1
16.008670 16.505150 -29.941324 37.751561 0.800667 2.486703 0.026316 -0.017580 -85927.100000 0 0 1
16.986470 16.966850 -30.818394 39.066450 0.784820 2.479766 0.024811 -0.011737 -520488.000000 0 0 1
18.234170 16.110250 -30.914764 39.341425 0.723635 2.474796 0.034988 -0.009500 -690535.000000 0 0 1
19.171070 16.044350 -29.785454 38.886043 0.696842 2.443342 0.029888 -0.004743 1317400.000000 0 0 1
20.218270 15.114650 -30.143164 39.317189 0.641947 2.444429 0.038365 -0.003097 804156.000000 0 0 1
21.380270 15.789650 -30.951064 40.797026 0.636110 2.432050 0.034342 -0.007005 -632760.000000 0 0 1
21.017770 16.231950 -32.283634 41.802582 0.657619 2.453231 0.026913 -0.002072 206733.000000 0 0 1
22.171870 16.807950 -32.847824 43.047398 0.648649 2.438833 0.021747 -0.001447 105495.000000 0 0 1
21.886070 17.241150 34.208337 44.118790 0.667238 0.683497 0.020494 0.002751 -470495.000000 0 0 1
22.842970 18.165550 33.866267 44.706963 0.671829 0.711296 0.030475 -0.005858 -192147.000000 0 0 1
22.596370 18.611950 32.565510 43.789417 0.689008 0.732231 0.052319 -0.011905 -629318.000000 0 0 1
23.552970 19.713550 32.156367 44.467948 0.696891 0.762465 0.060730 -0.019172 70343.600000 0 0 1
24.910370 19.297950 31.992297 44.904838 0.659120 0.777818 0.063783 -0.023903 399194.000000 0 0 1
25.649570 20.483650 31.767037 45.679590 0.673884 0.801776 0.083469 -0.037433 585227.000000 0 0 1
27.204770 20.398250 31.655817 46.457280 0.643376 0.821128 0.065463 -0.040746 710085.000000 0 0 1
27.947170 19.954250 32.759586 47.459529 0.620060 0.808943 0.053620 -0.036257 -20074.400000 0 0 1
29.329870 20.123450 32.537285 48.206529 0.601341 0.829891 0.049829 -0.031780 62236.600000 0 0 1
30.249870 19.606750 33.668655 49.326034 0.575080 0.819518 0.037042 -0.020841 -161187.000000 0 0 1
30.184770 20.320250 -33.558724 49.499705 0.592509 2.315778 0.028738 -0.020326 67106.100000 0 0 1
29.144570 19.997150 -32.655214 48.121252 0.601361 2.316655 0.031808 -0.021230 -168613.000000 0 0 1
29.388470 20.371950 -31.142684 47.419039 0.606144 2.287304 0.037860 -0.018878 502350.000000 0 0 1
30.341770 19.406550 -30.599224 47.260445 0.569028 2.275042 0.037201 -0.015070 628923.000000 0 0 1
30.838070 19.977850 -29.389274 47.051360 0.574849 2.245443 0.032368 -0.019603 -1239280.000000 0 0 1
32.176170 19.404950 -29.039614 47.488495 0.542684 2.228762 0.048069 -0.009337 -1102580.000000 0 0 1
33.195270 20.061650 -29.760294 48.888350 0.543614 2.225268 0.013175 -0.008379 -214211.000000 0 0 1
34.456570 19.810050 -29.167884 49.299683 0.521780 2.203893 0.028835 -0.002170 -157350.000000 0 0 1
35.569070 20.719850 -29.681404 50.748957 0.527471 2.195513 0.024901 0.000375 -320128.000000 0 0 1
-36.000912 20.339450 -30.944034 51.645833 -0.514264 2.213246 0.010293 0.000892 -318247.000000 0 0 1
-34.939112 21.206650 -31.205944 51.422509 -0.545522 2.222892 0.010235 -0.007287 -720215.000000 0 0 1
-34.077112 20.812050 -32.396224 51.418929 -0.548275 2.252407 0.008087 -0.014125 -140521.000000 0 0 1
-33.253712 19.668850 -32.152054 50.263581 -0.534130 2.264864 0.032458 -0.007963 448630.000000 0 0 1
-32.576112 19.216750 -33.319364 50.405025 -0.532962 2.292990 0.041599 -0.002529 -488604.000000 0 0 1
-31.661612 18.009750 -33.096154 49.215487 -0.517177 2.308343 0.031189 -0.002677 -486362.000000 0 0 1
-32.318712 16.747550 -32.837824 49.023486 -0.478101 2.304788 0.038940 -0.006274 188423.000000 0 0 1
-31.566312 15.516450 -32.975954 48.214165 -0.456866 2.323956 0.030990 -0.001793 282042.000000 0 0 1
-32.507212 14.278750 -33.140714 48.568595 -0.413877 2.321767 0.034370 -0.000105 258800.000000 0 0 1
-31.820212 13.047650 -33.337214 47.897149 -0.389134 2.340631 0.044448 -0.002850 -28902.500000 0 0 1
-32.741112 11.994150 -33.427024 48.303270 -0.351151 2.335085 0.054102 -0.003793 -97323.900000 0 0 1
-32.091812 10.574350 -33.367104 47.487523 -0.318299 2.349911 0.058273 0.004335 -70417.100000 0 0 1
-31.411012 10.263550 33.914040 47.351391 -0.315814 0.772425 0.029674 0.001290 -81518.300000 0 0 1
-31.842312 8.994550 33.406356 47.019351 -0.275299 0.780615 0.058691 0.001366 -75983.300000 0 0 1
-30.914912 8.293650 32.393955 45.539924 -0.262102 0.779406 0.061507 0.002673 391046.000000 0 0 1
-29.740712 7.764150 33.002785 45.099620 -0.255362 0.749873 0.048411 0.014546 -431106.000000 0 0 1
-28.804312 7.348650 32.101727 43.751707 -0.249795 0.747008 0.048231 0.009181 -625706.000000 0 0 1
20.455570 -4.366785 -32.179654 38.380063 -0.210320 2.565224 0.065643 -0.030196 -613273.000000 0 0 1
21.784270 -4.525685 -32.597874 39.467171 -0.204836 2.542680 0.057320 -0.035430 -596677.000000 0 0 1
22.611070 -3.578285 -32.014184 39.356989 -0.156952 2.520822 0.059187 -0.031399 -253447.000000 0 0 1
22.742070 -2.174785 -32.725174 39.910756 -0.095338 2.532135 0.050073 -0.029703 -174299.000000 0 0 1
23.512670 -1.181985 -32.009444 39.734710 -0.050228 2.507448 0.054913 -0.022851 469441.000000 0 0 1
23.542470 0.029615 -32.712524 40.303325 0.001258 2.517782 0.039616 -0.025831 -248266.000000 0 0 1
24.482170 1.077515 -32.070374 40.361449 0.043984 2.489111 0.043426 -0.016730 -642347.000000 0 0 1
25.805470 0.904315 -32.464784 41.481348 0.035029 2.469685 0.041868 -0.016586 -1328380.000000 0 0 1
26.545370 1.864215 -31.777204 41.447830 0.070112 2.444450 0.046276 -0.008704 941811.000000 0 0 1
28.102870 1.843815 -32.091554 42.697058 0.065516 2.421296 0.051196 -0.013259 1367380.000000 0 0 1
28.538270 2.377715 -33.367854 43.971582 0.083125 2.432342 0.056758 -0.021269 101805.000000 0 0 1
28.361070 1.525415 33.995487 44.298649 0.053734 0.695995 0.045557 -0.025175 -645983.000000 0 0 1
28.939370 1.878015 32.589060 43.624086 0.064804 0.727194 0.033730 -0.025315 -137583.000000 0 0 1
28.169370 2.841115 31.892407 42.646348 0.100518 0.726002 0.028619 -0.017274 259933.000000 0 0 1
28.591870 4.170915 32.158057 43.232305 0.144856 0.731994 0.038985 -0.008257 539112.000000 0 0 1
27.574870 5.226215 31.566447 42.238932 0.187307 0.726761 0.037777 -0.011367 259310.000000 0 0 1
28.127670 6.460515 31.716857 42.881967 0.225770 0.738274 0.036002 -0.011521 -115780.000000 0 0 1
27.506470 7.457415 30.923537 42.053348 0.264751 0.744627 0.030180 -0.011693 -19772.700000 0 0 1
27.961670 8.900415 31.287907 42.895285 0.308167 0.753349 0.018612 0.000703 749355.000000 0 0 1
29.308470 9.196915 30.911237 43.578369 0.304066 0.782256 0.018335 -0.005430 236503.000000 0 0 1
29.590070 10.593715 30.995467 44.142021 0.343798 0.792347 0.020979 0.000550 -338801.000000 0 0 1
30.980570 10.988015 30.469587 44.821066 0.340833 0.823300 0.010653 0.003496 -637491.000000 0 0 1
31.942770 10.405515 31.345457 45.947285 0.314915 0.820022 0.021196 0.000141 1155770.000000 0 0 1
33.318470 10.633915 30.960377 46.709159 0.308941 0.846200 0.024017 0.000738 938435.000000 0 0 1
33.838570 12.030215 31.263327 47.614814 0.341582 0.854510 0.029977 -0.001491 -1217810.000000 0 0 1
33.936070 12.278215 32.677346 48.684909 0.347152 0.834969 0.040752 -0.007508 23408.800000 0 0 1
34.290270 13.573715 33.021875 49.502652 0.376921 0.840524 0.041209 -0.001675 -245434.000000 0 0 1
33.226570 14.662715 32.815863 48.947738 0.415591 0.836013 0.044432 -0.006805 -784528.000000 0 0 1
32.970370 14.959015 31.443997 47.953544 0.425936 0.855663 0.041497 -0.016332 404645.000000 0 0 1
32.131870 16.104815 31.188737 47.587388 0.464615 0.856085 0.049376 -0.022148 51602.300000 0 0 1
30.630870 15.893815 31.477617 46.708714 0.478639 0.831304 0.043071 -0.018532 -686974.000000 0 0 1
30.043470 15.168215 30.441877 45.380532 0.467540 0.835491 0.044996 -0.009469 -327613.000000 0 0 1
28.771470 14.694415 30.802367 44.637531 0.472194 0.809231 0.035673 -0.013653 118137.000000 0 0 1
27.875670 14.175315 29.624007 43.076378 0.470440 0.812468 0.035567 -0.006579 149768.000000 0 0 1
28.199770 12.860415 29.102907 42.515838 0.427871 0.816852 0.021522 -0.002081 10174.800000 0 0 1
27.309170 12.369415 28.112517 41.098745 0.425296 0.817532 0.022359 -0.008800 -169982.000000 0 0 1
27.048070 10.871715 27.905227 40.354603 0.382178 0.807232 0.023029 0.000996 -96841.100000 0 0 1
28.119870 10.140615 27.328247 40.501756 0.346105 0.830181 0.022150 0.000327 -32488.600000 0 0 1
27.783070 8.780715 27.181457 39.847604 0.306112 0.820118 0.035870 -0.000059 -478769.000000 0 0 1
28.888970 7.820215 26.785597 40.164618 0.264363 0.840762 0.025475 -0.004560 -533592.000000 0 0 1
29.250270 7.969115 25.445677 39.579888 0.265990 0.872526 0.023273 -0.003671 102068.000000 0 0 1
30.232470 7.039015 25.043577 39.883966 0.228754 0.891930 0.027744 0.003547 169122.000000 0 0 1
30.885970 7.286815 23.659737 39.583127 0.231690 0.930139 0.028564 0.006149 -14537.600000 0 0 1
31.505870 8.544715 23.314167 40.114616 0.264840 0.950607 0.017231 0.000332 411561.000000 0 0 1
30.580970 9.559815 22.958567 39.416768 0.302982 0.949048 0.014082 0.003173 -89520.200000 0 0 1
30.163170 9.680215 21.481567 38.275072 0.310545 0.974911 0.019636 0.002495 267617.000000 0 0 1
31.253370 10.006515 20.615267 38.754261 0.309861 1.009896 0.018006 -0.002920 619095.000000 0 0 1
30.805270 10.050815 19.253367 37.691852 0.315380 1.034670 0.027110 -0.010367 -1025080.000000 0 0 1
31.723170 10.820615 18.317067 38.196337 0.328720 1.070654 0.036856 -0.025173 114071.000000 0 0 1
32.956570 10.177415 18.005867 38.909209 0.299522 1.089683 0.037684 -0.019595 895938.000000 0 0 1
33.982870 10.344515 19.002367 40.285660 0.295492 1.079589 0.047735 -0.014434 366625.000000 0 0 1
35.327970 9.657515 18.562167 41.059556 0.266848 1.101701 0.073787 -0.021338 324229.000000 0 0 1
35.241070 8.256215 18.541867 40.668156 0.230128 1.097379 0.077908 -0.016058 1005970.000000 0 0 1
-35.763212 7.627815 17.813867 40.675849 -0.210138 1.117483 0.090804 -0.015336 379860.000000 0 0 1
-35.899612 6.141215 17.377667 40.354429 -0.169426 1.125610 0.077285 -0.011908 -52062.600000 0 0 1
35.249570 5.895515 16.329567 39.293053 0.165717 1.142211 0.057827 -0.003167 535359.000000 0 0 1
35.371770 4.547215 15.903067 39.048006 0.127854 1.151334 0.058940 -0.009878 367765.000000 0 0 1
34.012470 3.767315 16.040067 37.793181 0.110313 1.132478 0.031704 0.000108 508522.000000 0 0 1
33.989270 2.873515 17.117967 38.164805 0.084341 1.105679 0.027791 0.009214 46219.000000 0 0 1
32.692270 2.408015 17.426067 37.124801 0.073524 1.082195 0.022208 0.010867 74761.400000 0 0 1
32.641070 1.494015 18.763467 37.679427 0.045739 1.049533 0.027316 -0.003456 259398.000000 0 0 1
33.344870 0.256315 18.576367 38.171029 0.007687 1.062532 0.025752 0.003728 251237.000000 0 0 1
33.202570 -0.506485 19.732267 38.626798 -0.015253 1.034630 0.029907 0.001245 73499.500000 0 0 1
33.637170 -1.955785 19.576267 38.968122 -0.058078 1.044463 0.032863 0.011402 -23336.500000 0 0 1
33.307770 -2.708185 20.754467 39.338146 -0.081129 1.015034 0.039565 0.008410 54212.800000 0 0 1
33.726570 -4.046585 20.812667 39.837463 -0.119411 1.021087 0.027627 0.000466 -279241.000000 0 0 1
33.164270 -4.791285 22.051667 40.113604 -0.143479 0.988755 0.023078 0.003876 75112.000000 0 0 1
33.764370 -4.343485 23.278267 41.240469 -0.127938 0.971027 0.020072 -0.001458 338729.000000 0 0 1
33.189970 -4.920285 24.432837 41.505985 -0.147174 0.941398 0.024220 -0.004468 138321.000000 0 0 1
33.880670 -4.422585 25.737397 42.777011 -0.129800 0.925213 0.018114 -0.004334 -186901.000000 0 0 1
33.138170 -4.692585 26.895597 42.936369 -0.140671 0.893862 0.030114 -0.012694 -159817.000000 0 0 1
33.578570 -4.014385 28.051197 43.937516 -0.118987 0.878335 0.032264 -0.012942 -481578.000000 0 0 1
32.657970 -4.293085 29.258927 44.057444 -0.130706 0.844495 0.046313 -0.018090 73833.000000 0 0 1
32.595370 -5.596885 29.725147 44.467602 -0.170050 0.838650 0.040471 -0.019990 -22418.800000 0 0 1
31.606670 -5.604385 30.735417 44.441608 -0.175492 0.807107 0.044944 -0.023810 -340219.000000 0 0 1
31.251270 -6.969985 31.297897 44.774780 -0.219439 0.796788 0.049484 -0.018815 -139748.000000 0 0 1
32.265170 -7.576885 32.060267 46.111941 -0.230652 0.802000 0.049172 -0.024574 -583168.000000 0 0 1
32.948170 -8.573285 31.372417 46.295914 -0.254560 0.826234 0.049806 -0.020618 -843989.000000 0 0 1
34.298370 -8.880685 31.975857 47.725257 -0.253360 0.836589 0.044027 -0.014379 -725950.000000 0 0 1
34.270070 -9.385685 33.319557 48.710591 -0.267319 0.817522 0.039798 -0.015415 -1036750.000000 0 0 1
35.468470 -9.861885 33.771898 49.958085 -0.271196 0.828469 0.037466 -0.015589 -943287.000000 0 0 1
35.315870 -10.164485 -33.159994 49.498612 -0.280242 2.304894 0.045728 -0.021640 83390.100000 0 0 1
35.024070 -9.048285 -32.329184 48.515287 -0.252817 2.300127 0.028140 -0.017377 293552.000000 0 0 1
-36.022212 -8.107485 -32.255374 49.027953 0.221380 2.288820 0.035401 -0.009852 -117838.000000 0 0 1
35.719070 -6.771285 -31.528204 48.122031 -0.187347 2.285206 0.030564 -0.015958 -423628.000000 0 0 1
35.670570 -6.845785 -30.076724 47.157859 -0.189611 2.262419 0.034603 -0.009736 329651.000000 0 0 1
35.153970 -5.609385 -29.609574 46.303279 -0.158232 2.264605 0.038886 -0.011925 -112142.000000 0 0 1
35.352370 -5.453485 -28.058124 45.461949 -0.153054 2.235948 0.032724 -0.013439 356175.000000 0 0 1
-35.414212 -5.059985 -27.757134 45.279447 0.141920 2.230672 0.022892 -0.008838 119152.000000 0 0 1
-35.209412 -5.105985 -26.379814 44.290725 0.144014 2.208816 0.029339 -0.005265 -546401.000000 0 0 1
-33.930812 -4.403785 -26.014124 42.981716 0.129066 2.220860 0.048391 -0.002035 -1649760.000000 0 0 1
-33.670912 -4.276985 -24.615114 41.927636 0.126347 2.198250 0.055314 -0.004338 417206.000000 0 0 1
-32.299212 -4.450485 -24.288414 40.656770 0.136927 2.211053 0.070917 -0.003562 260308.000000 0 0 1
-31.260312 -3.428785 -24.728414 40.005726 0.109248 2.237148 0.083241 -0.000749 -902401.000000 0 0 1
-31.022812 -3.528585 -26.114074 40.703938 0.113255 2.267328 0.075422 0.003647 -382910.000000 0 0 1
-29.917012 -2.779085 -26.543544 40.091278 0.092627 2.294384 0.074846 -0.006017 54998.000000 0 0 1
-29.179412 -3.468285 -27.716024 40.393626 0.118306 2.326978 0.071880 0.003606 172188.000000 0 0 1
-29.979912 -3.455185 -28.881854 41.771939 0.114744 2.334246 0.069617 0.006399 61722.800000 0 0 1
-29.328712 -4.163685 -29.934024 42.113601 0.141024 2.361420 0.062776 0.000068 -1267550.000000 0 0 1
-30.118912 -4.391585 -31.254724 43.626742 0.144788 2.369442 0.043438 0.005392 846295.000000 0 0 1
-31.199012 -5.376185 -31.095904 44.376085 0.170643 2.347224 0.030075 0.002874 1786070.000000 0 0 1
-32.282912 -5.071785 -30.187134 44.487891 0.155831 2.316579 0.040215 -0.003898 -158972.000000 0 0 1
-33.479412 -4.310285 -30.822334 45.710675 0.128040 2.310802 0.055145 -0.006947 -438230.000000 0 0 1
-33.274912 -2.984485 -31.284564 45.769540 0.089452 2.323376 0.064549 -0.001756 -6401.280000 0 0 1
-32.985712 -1.978285 -30.341034 44.861443 0.059902 2.313562 0.074514 0.006010 -221790.000000 0 0 1
-32.416612 -0.710785 -30.964034 44.834287 0.021923 2.333160 0.077708 0.006103 -532695.000000 0 0 1
-33.374512 0.040115 -31.619694 45.974609 -0.001202 2.329201 0.083288 0.006765 -284430.000000 0 0 1
-32.872512 1.208215 -32.283304 46.089842 -0.036738 2.346814 0.080763 0.020960 574020.000000 0 0 1
-34.082312 2.084015 -32.748044 47.311536 -0.061071 2.335300 0.090334 0.013547 514799.000000 0 0 1
-34.812112 1.529415 -33.819664 48.559158 -0.043905 2.341253 0.080462 0.017435 -447249.000000 0 0 1
-35.988412 2.279115 -33.941004 49.521226 -0.063245 2.325926 0.071555 0.012619 -192695.000000 0 0 1
35.097870 1.798815 33.448903 48.517268 0.051207 0.810105 0.049044 0.008893 -2427.020000 0 0 1
35.328370 2.071615 32.092587 47.773627 0.058572 0.834209 0.042551 0.011802 -67945.500000 0 0 1
-35.752712 1.299915 31.500387 47.667814 -0.036343 0.848870 0.036265 0.010587 -315555.000000 0 0 1
-35.572912 1.463915 29.994667 46.553787 -0.041129 0.870687 0.034178 0.003288 -220174.000000 0 0 1
-34.826412 2.594815 29.648887 45.811227 -0.074370 0.866895 0.040441 0.000824 23471.600000 0 0 1
-34.709012 2.818415 28.209247 44.815405 -0.081023 0.889946 0.029254 -0.003388 129984.000000 0 0 1
-34.371712 4.267015 27.773167 44.395617 -0.123511 0.894917 0.043503 -0.000583 -185678.000000 0 0 1
-33.738512 4.377215 26.523537 43.138674 -0.129019 0.908609 0.046970 -0.000350 148237.000000 0 0 1
-33.176512 5.656515 26.475757 42.821055 -0.168874 0.904233 0.058546 -0.000594 -460946.000000 0 0 1
-32.314412 5.989915 25.224637 41.429248 -0.183283 0.916173 0.055998 -0.008666 489186.000000 0 0 1
-31.019212 5.366115 25.287677 40.378872 -0.171298 0.894050 0.060932 -0.006700 597741.000000 0 0 1
-30.207812 5.495615 24.159457 39.069080 -0.179959 0.904119 0.061337 -0.007574 -115390.000000 0 0 1
-30.748412 5.002715 22.787267 38.597299 -0.161285 0.939261 0.074816 -0.012956 -353285.000000 0 0 1
-31.031212 3.634215 22.677067 38.605608 -0.116584 0.942950 0.056237 -0.008027 217990.000000 0 0 1
-31.808012 3.478015 21.475767 38.536408 -0.108911 0.979684 0.064514 -0.005671 21597.900000 0 0 1
-31.924412 2.007115 20.960467 38.243140 -0.062788 0.990724 0.054671 0.000659 -104824.000000 0 0 1
-30.756312 1.455015 20.386467 36.927981 -0.047273 0.985963 0.069325 0.001473 97950.000000 0 0 1
-30.632412 1.787815 18.993167 36.087135 -0.058297 1.016537 0.069588 -0.005866 -378523.000000 0 0 1
-29.405212 1.214715 18.298067 34.654888 -0.041286 1.014543 0.054821 -0.010753 -560492.000000 0 0 1
-29.582812 -0.163185 17.987267 34.622408 0.005516 1.024499 0.073484 -0.004356 897127.000000 0 0 1
-28.399912 -0.912585 17.607067 33.427483 0.032122 1.016054 0.083371 -0.002186 729202.000000 0 0 1
-27.947912 -0.689985 16.171467 32.296721 0.024683 1.046371 0.075529 0.007175 -14160.500000 0 0 1
-27.392312 0.607215 15.928767 31.692792 -0.022164 1.044194 0.086423 0.003206 188262.000000 0 0 1
-27.631212 1.042515 14.619867 31.277967 -0.037712 1.084429 0.101368 0.000926 107466.000000 0 0 1
-27.011312 2.456115 14.355767 30.687644 -0.090680 1.083993 0.097310 -0.008187 -469472.000000 0 0 1
-25.659612 2.497715 14.022467 29.347637 -0.097035 1.072641 0.083783 -0.016637 -476599.000000 0 0 1
-25.287512 3.791515 13.594267 28.959246 -0.148828 1.082154 0.079726 -0.019275 -1034740.000000 0 0 1
-23.811312 3.897915 13.285667 27.544169 -0.162261 1.067472 0.058028 -0.016497 -473501.000000 0 0 1
-22.970512 4.059215 14.422667 27.425079 -0.174908 1.017031 0.043626 -0.011611 296993.000000 0 0 1
-21.623912 4.380815 14.176967 26.225398 -0.199886 0.999668 0.045342 -0.016022 -30478.400000 0 0 1
-20.908212 5.038015 15.362067 26.429680 -0.236451 0.950541 0.036699 -0.017918 -396077.000000 0 0 1
-21.072112 6.430915 15.516767 26.947367 -0.296208 0.957193 0.027867 -0.017310 442515.000000 0 0 1
-20.420712 6.866415 16.713367 27.267009 -0.324371 0.911005 0.031751 -0.012698 -90400.800000 0 0 1
-20.513012 8.366715 16.998467 27.923708 -0.387275 0.916316 0.017597 -0.013753 -493594.000000 0 0 1
-19.700112 9.047615 16.066867 26.983290 -0.430534 0.932986 0.026932 -0.018958 434672.000000 0 0 1
-19.942212 10.428815 16.008967 27.617730 -0.481840 0.952482 0.026433 -0.017863 -165743.000000 0 0 1
-19.256412 11.272215 17.120867 28.124657 -0.529596 0.916313 0.034245 -0.018144 -372625.000000 0 0 1
-19.854412 10.994515 18.381067 29.205148 -0.505723 0.890044 0.030398 -0.019629 459055.000000 0 0 1
-19.327812 11.764815 19.436167 29.828506 -0.546791 0.861108 0.048982 -0.007864 -194084.000000 0 0 1
-12.524130 -34.074019 -21.078314 41.978422 1.218567 2.096848 0.089082 -0.030384 59339.400000 0 0 1
-13.363230 -34.285419 -19.956914 41.861011 1.199145 2.067741 0.104943 -0.031653 -660264.000000 0 0 1
-14.244130 -33.231819 -19.846914 41.244988 1.165856 2.072815 0.082103 -0.045965 -755927.000000 0 0 1
-15.467930 -33.677019 -19.023514 41.656843 1.140234 2.045047 0.071059 -0.035690 -761478.000000 0 0 1
-16.249230 34.040415 -19.789014 42.595685 -1.125431 2.053954 0.069063 -0.039414 315064.000000 0 0 1
-16.706630 32.992315 -18.935414 41.547013 -1.102058 2.044021 0.055527 -0.037464 319290.000000 0 0 1
-17.995630 33.329215 -18.122414 41.989298 -1.075713 2.017058 0.060877 -0.039299 -233334.000000 0 0 1
-17.833630 -34.332119 -17.072314 42.287074 1.091714 1.986380 0.072969 -0.031578 -226499.000000 0 0 1
-19.134230 -33.927019 -16.750814 42.399896 1.057282 1.976937 0.044048 -0.021414 -116082.000000 0 0 1
-19.629430 34.196015 -15.405314 42.332088 -1.049694 1.943265 0.053484 -0.020740 -642893.000000 0 0 1
-19.536330 32.781515 -15.404814 41.153423 -1.033356 1.954467 0.057681 -0.027939 117491.000000 0 0 1
-19.912530 32.223215 -14.176114 40.445107 -1.017278 1.928904 0.053394 -0.021223 -14639.400000 0 0 1
-20.055030 30.651115 -14.145014 39.265462 -0.991404 1.939322 0.046283 -0.018148 831419.000000 0 0 1
-18.816330 29.946415 -13.943914 38.016770 -1.009804 1.946345 0.059241 -0.027056 628451.000000 0 0 1
-19.052530 28.556415 -14.091414 37.108432 -0.982432 1.960307 0.068687 -0.022748 -266575.000000 0 0 1
-17.894230 27.663615 -13.665414 35.668230 -0.996638 1.963974 0.062420 -0.021905 -515499.000000 0 0 1
-16.700230 27.907915 -14.355314 35.550309 -1.031551 1.986466 0.087035 -0.032125 213575.000000 0 0 1
-15.636930 27.016615 -13.890914 34.166776 -1.046119 1.989484 0.093233 -0.037851 337502.000000 0 0 1
-14.310530 27.485815 -14.447714 34.190609 -1.090764 2.007069 0.075743 -0.038452 -814925.000000 0 0 1
-14.195930 27.474715 -15.847714 34.749596 -1.093885 2.044353 0.055121 -0.032573 375328.000000 0 0 1
-12.979530 28.142415 -16.226314 34.982238 -1.138660 2.053126 0.076015 -0.039893 232608.000000 0 0 1
-13.011630 28.319015 -17.768214 35.874483 -1.140098 2.088963 0.097458 -0.048791 -68452.700000 0 0 1
-12.837430 27.099015 -18.512814 35.240325 -1.128390 2.123900 0.067219 -0.050831 -43214.600000 0 0 1
-13.263530 27.174815 -19.830114 36.161101 -1.116729 2.151225 0.057949 -0.049597 -292940.000000 0 0 1
-12.595530 26.083015 -20.661114 35.578824 -1.120921 2.190402 0.021605 -0.024615 -332836.000000 0 0 1
-11.321630 26.473415 -21.089114 35.689939 -1.166674 2.202968 0.025317 -0.025939 -125446.000000 0 0 1
-10.592830 25.470215 -21.819814 35.171639 -1.176666 2.240025 0.027032 -0.022447 724364.000000 0 0 1
-9.372630 25.871715 -22.681714 35.660230 -1.223230 2.260166 0.051743 -0.026785 172685.000000 0 0 1
-9.743230 26.728615 -23.767414 37.070735 -1.221241 2.266775 0.052028 -0.027946 -302651.000000 0 0 1
-8.720530 26.969215 -24.676014 37.580472 -1.258056 2.287122 0.051977 -0.029922 -510819.000000 0 0 1
-9.317930 27.584415 -25.938514 38.993977 -1.245034 2.298548 0.070185 -0.031485 204919.000000 0 0 1
-10.098230 26.640615 -26.691454 39.040112 -1.208476 2.323608 0.055566 -0.030748 -201878.000000 0 0 1
-10.553830 27.360715 -27.756904 40.378680 -1.202652 2.328720 0.085819 -0.029887 173125.000000 0 0 1
-11.881730 26.765615 -28.354714 40.762280 -1.153012 2.340067 0.067983 -0.020798 332676.000000 0 0 1
-12.039230 26.911615 -29.731964 41.870846 -1.150138 2.360419 0.076914 -0.020099 -376769.000000 0 0 1
-13.212830 26.187715 -30.005094 41.960469 -1.103521 2.367535 0.058413 -0.020849 -209340.000000 0 0 1
-13.629430 26.435215 -31.449144 43.285455 -1.094764 2.384087 0.061650 -0.021143 -23328.200000 0 0 1
-12.648030 26.032115 -32.401584 43.445441 -1.118523 2.412530 0.057131 -0.016477 131982.000000 0 0 1
-12.519130 24.624615 -32.610634 42.738200 -1.100452 2.438788 0.046113 -0.020101 411403.000000 0 0 1
-11.524930 24.185715 -33.735374 43.079557 -1.126110 2.470423 0.033906 -0.011002 448023.000000 0 0 1
-12.091630 24.505415 33.465897 43.205199 -1.112421 0.684745 0.030544 -0.009338 -116233.000000 0 0 1
-11.417730 23.830115 32.438702 41.839077 -1.123983 0.683574 0.028112 -0.009312 -962109.000000 0 0 1
-12.024930 23.849015 31.051247 40.957959 -1.103786 0.710364 0.024007 0.001591 -487137.000000 0 0 1
-13.278430 23.222415 30.932647 40.895304 -1.051375 0.713026 0.034307 -0.010361 -81666.600000 0 0 1
-13.839730 23.270815 29.629287 40.136811 -1.034265 0.740387 0.038126 -0.007084 118214.000000 0 0 1
-15.060730 22.326415 29.519137 39.958402 -0.977342 0.739587 0.041337 -0.014959 159746.000000 0 0 1
-14.704430 20.953815 29.614707 39.144776 -0.958894 0.712786 0.014618 -0.013900 -384281.000000 0 0 1
-15.815030 20.135415 29.810227 39.296307 -0.905001 0.709633 0.020803 -0.023202 -383777.000000 0 0 1
-15.542430 18.631915 29.852647 38.469416 -0.875557 0.682482 0.004426 -0.024991 -260072.000000 0 0 1
-15.030630 18.107915 28.643167 37.070844 -0.877994 0.687775 0.013756 -0.027274 247710.000000 0 0 1
-14.744030 16.692315 28.740297 36.359655 -0.847295 0.659262 0.001771 -0.027586 -153533.000000 0 0 1
-14.366330 16.105115 27.424157 34.897716 -0.842399 0.666737 0.011839 -0.023842 -174656.000000 0 0 1
-13.492630 16.884415 26.653247 34.315159 -0.896594 0.681356 -0.006107 -0.020468 -20134.300000 0 0 1
-12.874630 16.147615 25.593607 32.886689 -0.897699 0.678944 -0.014092 -0.013136 496745.000000 0 0 1
-11.711030 16.845215 24.804027 32.189272 -0.963290 0.691064 -0.007881 -0.010036 267851.000000 0 0 1
-11.999630 17.935815 23.924347 32.218923 -0.981158 0.733918 -0.006273 -0.010082 -375617.000000 0 0 1
-12.303330 19.236215 24.484557 33.479806 -1.001773 0.750536 0.000150 -0.014823 142844.000000 0 0 1
-11.238230 19.991315 25.334837 34.173154 -1.058669 0.735692 -0.011335 -0.015583 278286.000000 0 0 1
-10.882830 19.524715 26.645387 34.779694 -1.062299 0.698016 -0.017971 -0.012228 762339.000000 0 0 1
-12.009930 19.670315 27.537587 35.909308 -1.022647 0.696854 0.000756 -0.003454 662824.000000 0 0 1
-11.674630 19.239515 28.995657 36.704278 -1.025388 0.660019 0.001373 -0.008014 -200748.000000 0 0 1
-10.623630 19.965715 29.588127 37.241758 -1.081805 0.652632 -0.009600 -0.010500 -218301.000000 0 0 1
-10.751330 20.108715 30.966837 38.456424 -1.079807 0.634708 -0.004843 -0.015200 -738916.000000 0 0 1
-9.632730 20.861515 31.645687 39.108079 -1.138217 0.628032 -0.002879 -0.010147 -675203.000000 0 0 1
-8.525130 20.058315 31.958147 38.682516 -1.168911 0.598529 0.001167 -0.011606 -269017.000000 0 0 1
-7.440830 20.848515 32.380777 39.224243 -1.227988 0.599656 0.004638 -0.006828 -159269.000000 0 0 1
-6.177430 20.106515 32.825273 38.986294 -1.272715 0.569873 -0.001051 -0.001912 -611436.000000 0 0 1
-6.261930 19.418115 34.037436 39.684027 -1.258846 0.539995 0.004747 -0.007438 318989.000000 0 0 1
-5.026830 18.991715 -33.843614 39.132396 -1.312045 2.615646 0.003195 -0.002090 708211.000000 0 0 1
-4.314130 17.819215 33.852978 38.498835 -1.333261 0.496354 -0.002427 -0.002492 -129061.000000 0 0 1
-4.996230 16.579615 33.901064 38.067415 -1.278104 0.472236 -0.000142 -0.003732 -7644.540000 0 0 1
-4.607230 15.790115 32.789587 36.683938 -1.286898 0.464958 0.002236 0.001918 -121410.000000 0 0 1
-5.344430 14.453415 32.555688 36.018564 -1.216619 0.442092 0.015462 -0.011617 -130932.000000 0 0 1
-4.989930 13.538815 33.595101 36.562682 -1.217679 0.405676 0.019192 -0.009559 708368.000000 0 0 1
-5.739230 12.289015 33.428575 36.075314 -1.133878 0.385440 0.027650 -0.006891 168544.000000 0 0 1
-4.851430 11.138315 33.847422 35.961735 -1.160013 0.344612 0.047670 -0.016713 64614.900000 0 0 1
-4.573030 11.097515 -33.262134 35.361518 -1.179922 2.795280 0.043398 -0.013201 -49832.200000 0 0 1
-3.628530 10.075915 -32.969254 34.664997 -1.225135 2.827516 0.056419 -0.014587 221546.000000 0 0 1
-3.653730 9.711015 -31.491924 33.157123 -1.210934 2.823324 0.055819 -0.013983 378416.000000 0 0 1
-4.861730 9.096415 -31.069064 32.736339 -1.079957 2.821066 0.058478 -0.012798 365717.000000 0 0 1
-4.516130 8.315915 -29.944964 31.404629 -1.073289 2.835508 0.065338 -0.006627 88448.100000 0 0 1
-5.756130 7.619815 -29.366104 30.879810 -0.923838 2.827188 0.054057 -0.009904 -155542.000000 0 0 1
-5.523630 6.579515 -28.462174 29.730386 -0.872418 2.848458 0.053523 -0.007214 -277749.000000 0 0 1
-6.699030 5.860115 -28.210554 29.581300 -0.718700 2.835976 0.060950 -0.021685 -574271.000000 0 0 1
-6.695430 5.304215 -26.750814 28.081480 -0.669975 2.832514 0.057497 -0.025849 -248315.000000 0 0 1
-6.959330 6.080715 -25.638014 27.252800 -0.718122 2.795625 0.035421 -0.013942 505739.000000 0 0 1
-5.921830 7.000215 -25.278684 26.890201 -0.868658 2.793633 0.032449 -0.012303 322687.000000 0 0 1
-6.421630 7.903015 -24.123014 26.184247 -0.888447 2.742155 0.006197 -0.005093 188674.000000 0 0 1
-6.645830 7.295315 -22.919214 24.953538 -0.831952 2.735005 0.001101 -0.001384 -10908.200000 0 1 0
-7.783130 7.882015 -22.320014 24.917590 -0.791711 2.680919 0.003152 0.004069 -289584.000000 0 1 0
-7.683030 7.910815 -20.804314 23.546325 -0.800005 2.654181 -0.003160 0.001787 -314508.000000 0 1 0
-6.854830 8.974815 -20.455514 23.365873 -0.918531 2.637150 -0.016870 0.003599 -140623.000000 0 1 0
-6.671430 9.084915 -19.034014 22.120971 -0.937392 2.606951 -0.008182 -0.003508 1021.160000 0 1 0
-7.816130 9.866015 -18.290614 22.203078 -0.900813 2.538856 -0.021258 0.015863 -237220.000000 0 1 0
-7.676330 9.781515 -16.855114 20.945141 -0.905405 2.506011 -0.023206 0.006633 196578.000000 0 1 0
-8.880930 9.872415 -16.095614 20.866343 -0.838219 2.451783 -0.010870 -0.003316 354144.000000 0 1 0
-9.626330 11.217115 -16.286814 21.994322 -0.861571 2.404612 0.005980 -0.008661 -1302430.000000 0 1 0
-8.795630 12.240515 -15.868214 21.885921 -0.947718 2.381892 0.001471 -0.008214 -370441.000000 0 1 0
-9.292930 13.562515 -16.005914 22.945362 -0.970078 2.342792 0.018995 -0.020101 216150.000000 0 1 0
-8.120230 14.573415 -15.786814 22.968371 -1.062446 2.328601 0.042027 -0.018315 552496.000000 0 1 0
-7.558630 14.692915 -14.455014 21.953635 -1.095663 2.289532 0.040089 -0.019547 227484.000000 0 1 0
-8.415030 15.196415 -13.455814 21.972772 -1.065078 2.229871 0.039149 -0.033147 -306754.000000 0 1 0
-7.570230 15.894715 -12.336414 21.497383 -1.126310 2.182004 0.032440 -0.031419 521311.000000 0 1 0
-7.006530 17.150415 -12.657414 22.437431 -1.182955 2.170164 0.043940 -0.034575 -98659.600000 0 1 0
-5.828630 17.187015 -13.427114 22.575513 -1.243838 2.207769 0.046692 -0.034176 -341519.000000 0 1 0
-5.584730 18.579815 -14.172214 24.026036 -1.278807 2.201693 0.059624 -0.021032 148619.000000 0 1 0
-5.106330 19.598115 -13.323014 24.241770 -1.315911 2.152669 0.059523 -0.026292 -155828.000000 0 1 0
-5.166530 20.841915 -13.984114 25.624869 -1.327803 2.148050 0.059985 -0.015373 -20153.200000 0 0 1
-4.674530 21.958515 -13.034214 25.959937 -1.361047 2.096810 0.056749 -0.016220 -989277.000000 0 0 1
-4.845330 23.260315 -13.517414 27.335690 -1.365424 2.088052 0.042435 -0.015505 719778.000000 0 0 1
-6.150030 23.880615 -13.500714 28.113625 -1.318741 2.071701 0.043209 -0.019417 748946.000000 0 0 1
-6.890830 23.871415 -12.160814 27.662491 -1.289771 2.025965 0.026963 -0.019518 -798351.000000 0 0 1
-7.368030 22.593315 -11.782314 26.524869 -1.255556 2.031076 0.031149 -0.021392 52899.000000 0 0 1
-8.292730 22.511415 -10.695114 26.266303 -1.217843 1.990161 0.034965 -0.017853 473377.000000 0 0 1
-7.722830 22.937815 -9.272114 25.918286 -1.246032 1.936647 0.034169 -0.013955 57636.400000 0 0 1
-7.589630 24.334615 -9.251514 27.117642 -1.268471 1.918949 0.021359 -0.009385 -31606.300000 0 0 1
-7.324530 24.782515 -7.913214 27.026668 -1.283425 1.867943 0.021947 -0.011432 -141525.000000 0 0 1
-7.485630 26.339315 -7.847114 28.484582 -1.293897 1.849892 0.047160 -0.006967 48043.700000 0 0 1
-6.366430 27.099515 -8.294714 29.046815 -1.340053 1.860391 0.021543 -0.007260 144160.000000 0 0 1
-6.247330 27.129615 -9.673714 29.472460 -1.344465 1.905224 0.017020 -0.003629 846981.000000 0 0 1
-5.186230 28.248015 -10.088614 30.440556 -1.389222 1.908605 0.015374 -0.006458 1067380.000000 0 0 1
-5.840830 29.515915 -10.168514 31.760089 -1.375433 1.896701 0.006482 -0.002071 184211.000000 0 0 1
-6.641530 29.646815 -11.327514 32.424623 -1.350413 1.927673 0.007940 -0.008031 -719432.000000 0 0 1
-7.647130 30.771915 -11.294714 33.659470 -1.327220 1.912994 0.015186 -0.005339 -542281.000000 0 0 1
-8.688930 30.336715 -10.438514 33.238176 -1.291848 1.890254 0.036583 -0.005670 -618903.000000 0 0 1
-9.808630 31.147415 -10.580814 34.326729 -1.265717 1.884137 0.032549 -0.019680 -520015.000000 0 0 1
-10.990230 30.866315 -9.659614 34.158787 -1.228734 1.857493 0.053998 -0.014594 101889.000000 0 0 1
-11.776530 29.745915 -10.076814 33.541740 -1.193826 1.875936 0.052863 -0.020110 215983.000000 0 0 1
-12.975230 29.677615 -9.306114 33.700463 -1.158633 1.850574 0.084342 -0.012338 987273.000000 0 0 1
-14.014730 28.592815 -9.786014 33.312577 -1.115061 1.868958 0.082661 -0.012189 593773.000000 0 0 1
-13.689030 27.274215 -9.441514 31.943928 -1.105627 1.870843 0.049668 -0.010695 184771.000000 0 0 1
-14.848930 26.466715 -9.608614 31.832424 -1.059515 1.877429 0.071210 -0.010180 226646.000000 0 0 1
-14.875930 25.039115 -8.934514 30.464342 -1.034721 1.868450 0.064192 -0.010059 -413105.000000 0 0 1
-13.867530 24.142815 -9.359514 29.373192 -1.049416 1.895092 0.045023 -0.007032 165609.000000 0 0 1
-14.079330 22.826315 -8.885914 28.252923 -1.018114 1.890740 0.055289 -0.011422 -246121.000000 0 0 1
-13.121330 21.744515 -9.394014 27.078418 -1.027857 1.925080 0.055604 -0.011948 -247247.000000 0 0 1
-13.432430 21.335315 -10.717714 27.395168 -1.008906 1.972760 0.053762 -0.011064 103225.000000 0 0 1
-12.565930 20.311515 -11.144614 26.356454 -1.016769 2.007375 0.056333 -0.013379 -339146.000000 0 0 1
-12.667230 19.740815 -12.586314 26.619050 -1.000294 2.063297 0.053523 -0.008991 -467624.000000 0 0 1
-13.973530 19.353915 -12.918214 27.142473 -0.945457 2.066830 0.055209 -0.001771 -596317.000000 0 0 1
-14.083930 18.835515 -14.224114 27.485617 -0.928748 2.114736 0.054931 -0.004100 483575.000000 0 0 1
-15.554730 18.679515 -14.712714 28.413691 -0.876423 2.115078 0.045255 0.005912 434727.000000 0 0 1
-16.115830 19.883515 -15.070914 29.701963 -0.889678 2.102967 0.024936 0.002269 -230669.000000 0 0 1
-17.464530 19.727615 -15.467514 30.552129 -0.846172 2.101646 0.028503 0.008009 262424.000000 0 0 1
-18.211930 20.951815 -16.050014 32.066429 -0.855244 2.095000 0.031421 0.004079 45224.200000 0 0 1
-18.563430 22.011315 -15.212414 32.565572 -0.870171 2.056840 0.034363 -0.009749 138349.000000 0 0 1
-19.042730 23.137015 -15.899414 33.922535 -0.882163 2.058612 0.047448 -0.014090 7302.460000 0 0 1
-19.556930 24.203415 -14.863114 34.484648 -0.891182 2.016404 0.039673 -0.000518 577258.000000 0 0 1
-20.711530 23.790115 -14.129214 34.562577 -0.854467 1.991936 0.049140 -0.001260 535381.000000 0 0 1
-21.335030 24.805515 -13.328114 35.328964 -0.860472 1.957629 0.055729 -0.012673 241375.000000 0 0 1
-25.628290 -0.343685 3.005686 25.806230 0.013410 1.454060 0.077026 -0.036894 -320888.000000 0 0 1
-25.978860 0.458915 4.128586 26.308877 -0.017663 1.413217 0.075314 -0.033612 652686.000000 0 0 1
-27.083240 -0.093885 4.844386 27.513247 0.003467 1.393799 0.078863 -0.018304 301212.000000 0 0 1
-27.348100 0.675915 6.229086 28.056674 -0.024710 1.346913 0.075944 -0.004062 -221183.000000 0 0 1
-27.936470 1.945215 6.018386 28.643519 -0.069518 1.359105 0.089252 -0.007835 88294.500000 0 0 1
-28.262600 2.727615 7.149786 29.280265 -0.096212 1.324118 0.108134 -0.005091 111850.000000 0 0 1
-27.003530 3.238015 7.911586 28.324346 -0.119341 1.287709 0.101360 -0.005010 121293.000000 0 0 1
-26.585810 2.213615 8.797286 28.090882 -0.083071 1.252265 0.099222 -0.008793 38659.700000 0 0 1
-25.455550 2.581615 9.545186 27.308613 -0.101071 1.213727 0.090029 -0.015817 -198905.000000 0 0 1
-24.770530 1.374415 10.248986 26.842315 -0.055429 1.179029 0.082421 -0.012012 2483.050000 0 0 1
-23.977130 0.565515 9.399686 25.759982 -0.023581 1.197276 0.080802 -0.017886 761256.000000 0 0 1
-24.710030 -0.591985 8.960886 26.291320 0.023953 1.222996 0.073913 -0.008771 311372.000000 0 0 1
-23.741230 -1.566885 8.235286 25.177789 0.065903 1.237579 0.081274 -0.014345 433923.000000 0 0 1
-22.771930 -2.216085 9.057886 24.607258 0.097011 1.193834 0.077211 -0.015763 509214.000000 0 1 0
-21.690530 -2.633385 8.247586 23.354582 0.120816 1.209864 0.090311 -0.017478 785218.000000 0 1 0
-20.282230 -2.667385 8.949186 22.328720 0.130763 1.158414 0.075359 -0.011263 646504.000000 0 1 0
-19.708530 -1.455285 9.448686 21.904832 0.073707 1.124806 0.064885 -0.012829 308011.000000 0 1 0
-20.324630 -0.892085 10.586686 22.933912 0.043864 1.090979 0.068611 -0.015208 -555015.000000 0 1 0
-19.808130 0.467515 11.010186 22.667263 -0.023598 1.063597 0.039357 -0.007147 -319374.000000 0 1 0
-20.208030 1.486415 10.118786 22.648703 -0.073423 1.107643 0.032095 0.001783 360482.000000 0 1 0
-20.492330 2.678115 10.798786 23.317840 -0.129952 1.089292 0.035955 -0.000855 -583457.000000 0 1 0
-21.155130 3.652515 9.896286 23.639308 -0.170968 1.138852 0.022227 -0.003677 -644062.000000 0 1 0
-21.439530 4.809715 10.675086 24.428350 -0.220685 1.118540 0.015655 -0.007128 813765.000000 0 1 0
-22.202630 5.786515 9.971786 25.017535 -0.254951 1.160815 0.017097 -0.013199 -132183.000000 0 0 1
-22.335430 7.033815 10.829686 25.799769 -0.305086 1.137617 0.022438 -0.018471 104486.000000 0 0 1
-23.215630 6.839615 11.941086 26.987689 -0.286507 1.112452 0.023969 -0.017439 591434.000000 0 0 1
-23.170030 7.939515 12.873286 27.669617 -0.330124 1.086879 0.029016 -0.018874 85186.100000 0 0 1
-23.921530 7.494715 14.176186 28.798865 -0.303617 1.056126 0.053472 -0.021565 142686.000000 0 0 1
-25.325270 7.512115 14.092786 29.940070 -0.288358 1.080713 0.066218 -0.025326 -7104.790000 0 0 1
-25.977750 7.008815 15.272786 30.939053 -0.263526 1.054525 0.064010 -0.022802 615477.000000 0 0 1
-27.492300 6.717515 15.055986 32.056736 -0.239646 1.081883 0.069342 -0.021588 281504.000000 0 0 1
-27.655800 5.684715 14.133786 31.574090 -0.202729 1.106673 0.083076 -0.012790 157452.000000 0 0 1
-28.764220 5.888715 13.262186 32.217121 -0.201933 1.146532 0.104199 -0.004300 63879.200000 0 0 1
-29.199440 4.696915 12.360186 32.053744 -0.159490 1.174929 0.113629 -0.003080 -299263.000000 0 0 1
-29.940250 3.663315 12.961686 32.830531 -0.121749 1.164940 0.099808 -0.007284 134070.000000 0 0 1
-30.409770 2.771015 11.942286 32.787968 -0.090872 1.197993 0.092055 0.006845 -557926.000000 0 0 1
-31.564460 1.904115 12.386786 33.961350 -0.060252 1.197452 0.084498 0.014132 -765401.000000 0 0 1
-31.259060 0.785015 13.249186 33.960065 -0.025108 1.170012 0.073157 0.021280 -15268.400000 0 0 1
-32.405970 0.155915 13.811886 35.226970 -0.004811 1.167902 0.072038 0.016476 85319.700000 0 0 1
-32.186890 -1.007385 14.796686 35.439422 0.031288 1.140081 0.055859 0.005686 -77643.600000 0 0 1
-31.865850 -2.214885 14.157686 34.939637 0.069395 1.153594 0.051912 0.009679 186697.000000 0 0 1
-32.071990 -3.330185 15.036486 35.578063 0.103464 1.134447 0.045535 0.011595 -2283.140000 0 0 1
-31.934220 -4.665485 14.293886 35.296974 0.145070 1.153861 0.046067 0.009206 428636.000000 0 0 1
-33.043710 -4.939885 13.427086 36.007998 0.148396 1.188673 0.037446 0.005158 565272.000000 0 0 1
-33.088720 -6.283885 13.022886 36.110195 0.187675 1.201839 0.046955 0.000103 -1078340.000000 0 0 1
-34.242939 -6.638485 12.078986 36.912739 0.191489 1.237425 0.053411 0.004934 484737.000000 0 0 1
-35.532853 -6.745885 12.692986 38.330178 0.187616 1.233276 0.040078 -0.001835 750905.000000 0 0 1
35.959381 -5.504685 13.093986 38.663046 -0.151901 1.225294 0.049466 0.000458 -30273.200000 0 0 1
34.451151 -5.422585 12.671086 37.105831 -0.156118 1.222300 0.059508 -0.006991 906772.000000 0 0 1
33.592141 -6.338085 13.361286 36.703232 -0.186485 1.198199 0.056438 -0.003980 34094.500000 0 0 1
32.254061 -6.115985 12.992886 35.306442 -0.187394 1.193936 0.060087 -0.007066 -109143.000000 0 0 1
31.207951 -7.160385 13.419986 34.717479 -0.225537 1.173910 0.044310 -0.007148 -62937.100000 0 0 1
30.940351 -7.080585 14.794286 35.018723 -0.224972 1.134630 0.053088 -0.004262 160525.000000 0 0 1
29.949821 -8.050685 15.099986 34.493694 -0.262598 1.117690 0.056326 -0.004877 90150.100000 0 0 1
29.427761 -8.089085 16.539586 34.712884 -0.268254 1.074163 0.039185 -0.000900 -144015.000000 0 0 1
30.365541 -8.550785 17.479886 36.065613 -0.274487 1.064812 0.017484 0.003042 -198128.000000 0 0 1
29.777821 -8.750485 18.719386 36.245069 -0.285813 1.028076 0.019852 -0.004927 -299907.000000 0 0 1
30.766681 -9.459785 19.679386 37.727370 -0.298294 1.022047 0.018086 -0.001274 423197.000000 0 0 1
31.790961 -8.627485 20.172686 38.626882 -0.264999 1.021315 0.026298 -0.003388 577846.000000 0 0 1
33.029251 -8.734085 19.456086 39.316091 -0.258518 1.053119 0.008993 0.005369 605087.000000 0 0 1
34.302151 -8.139185 20.105086 40.584460 -0.232971 1.052514 0.010961 0.003250 331361.000000 0 0 1
34.614051 -8.751085 21.362686 41.606230 -0.247630 1.031597 0.016917 -0.006579 -1081740.000000 0 0 1
35.867291 -8.369085 21.760586 42.778818 -0.229233 1.037149 0.019510 -0.006646 -1233160.000000 0 0 1
-35.912382 -8.888285 23.134886 43.633975 0.242624 1.011956 0.019494 -0.007977 -324624.000000 0 0 1
35.720161 -8.127185 24.235386 43.924196 -0.223715 0.986329 0.022187 -0.007003 140908.000000 0 0 1
35.496211 -9.069285 25.251686 44.495849 -0.250148 0.967322 0.020387 -0.007890 -522636.000000 0 0 1
35.005361 -8.410685 26.509586 44.708759 -0.235799 0.936092 0.034064 -0.011464 -186750.000000 0 0 1
36.031531 -8.007385 27.377986 45.955888 -0.218679 0.932604 0.014226 -0.014972 -155264.000000 0 0 1
35.550391 -7.091885 28.384086 46.041085 -0.196903 0.906513 0.015948 -0.018563 786911.000000 0 0 1
-35.318182 -6.563285 29.207886 46.298502 0.183737 0.888135 0.028139 -0.015493 882131.000000 0 0 1
-34.894033 -7.515385 30.161086 46.730779 0.212137 0.869220 0.028290 -0.011592 -615194.000000 0 0 1
-33.568220 -7.378985 30.574986 46.001137 0.216379 0.843761 0.030058 -0.011877 -250505.000000 0 0 1
-33.207110 -8.069485 31.928286 46.767983 0.238384 0.819351 0.017018 -0.006417 -149841.000000 0 0 1
-33.202440 -9.501485 31.864886 46.989906 0.278719 0.825592 0.019054 -0.005908 569.495000 0 0 1
-32.403520 -10.065785 32.835186 47.217132 0.301188 0.801808 0.022236 -0.004433 -535281.000000 0 0 1
-32.632800 -11.585885 32.844186 47.727067 0.341156 0.811837 0.031825 -0.010494 -329988.000000 0 0 1
-33.944940 -11.868085 33.255886 48.980245 0.336343 0.824444 0.027463 -0.009799 -271406.000000 0 0 1
-34.249391 -13.226985 33.120286 49.446206 0.368550 0.836824 0.031836 -0.012541 -109757.000000 0 0 1
-35.747805 -13.525685 33.286886 50.683987 0.361717 0.854291 0.029220 -0.011664 -40501.300000 0 0 1
-36.041410 -14.929385 33.483686 51.410379 0.392712 0.861497 0.018446 -0.012317 240461.000000 0 0 1
34.707291 -15.216685 33.821486 50.794060 -0.413190 0.842157 0.002551 -0.003813 265135.000000 0 0 1
34.350461 -16.681385 33.963086 51.104932 -0.452080 0.843871 -0.010536 0.001163 -184391.000000 0 0 1
34.957071 -17.132485 -33.301294 51.229826 -0.455697 2.278430 -0.005376 -0.006869 263113.000000 0 0 1
34.754151 -18.495585 -33.114594 51.444281 -0.489062 2.270117 -0.014712 -0.006242 -483992.000000 0 0 1
35.321731 -19.072085 -31.777994 51.197754 -0.495097 2.240420 -0.012448 -0.006158 -118774.000000 0 0 1
34.601531 -18.736885 -30.592394 49.842064 -0.496297 2.231644 -0.011185 -0.003805 -61840.700000 0 0 1
35.043041 -19.440985 -29.462994 49.739669 -0.506501 2.204761 -0.015376 0.003282 -236802.000000 0 0 1
33.917901 -19.491585 -28.340094 48.306385 -0.521586 2.197742 -0.007897 0.001369 752569.000000 0 0 1
32.839611 -20.313585 -28.692294 48.107479 -0.553962 2.209831 -0.003748 -0.000608 -309395.000000 0 0 1
31.786321 -19.666185 -29.346594 47.522117 -0.554056 2.236402 -0.006415 0.001165 -1018110.000000 0 0 1
30.664261 -20.558385 -29.857094 47.480419 -0.590607 2.250843 0.001753 0.007977 -380840.000000 0 0 1
29.695691 -19.800985 -30.535994 46.971907 -0.588093 2.278500 0.003652 0.006319 -166365.000000 0 0 1
28.554071 -20.586385 -30.830894 46.793998 -0.624656 2.290104 0.017060 0.005636 63535.900000 0 0 1
27.555661 -19.778485 -31.687294 46.417535 -0.622549 2.322190 0.014402 0.009577 -112692.000000 0 0 1
27.943801 -19.662985 -32.988694 47.494662 -0.613179 2.338628 0.000669 0.009132 -576517.000000 0 0 1
26.856751 -19.594785 -33.853394 47.447792 -0.630319 2.365259 0.035240 0.005426 -330894.000000 0 0 1
27.207091 -19.650885 33.118086 47.150724 -0.625517 0.792050 0.034990 0.009740 -74056.800000 0 0 1
28.140461 -18.665985 32.730686 47.027677 -0.585678 0.801002 0.005692 0.008878 -16217.800000 0 0 1
28.406301 -18.609885 31.330086 46.204113 -0.579975 0.825649 0.013473 0.008119 -815614.000000 0 0 1
27.258581 -18.128085 30.435086 44.698459 -0.586877 0.821808 0.008169 0.009418 -366843.000000 0 0 1
26.890651 -16.855885 30.756886 44.195181 -0.559915 0.801078 0.014956 0.002602 -455451.000000 0 0 1
26.015251 -16.244385 29.904886 42.836615 -0.558181 0.798035 0.019665 0.006668 -679637.000000 0 0 1
25.745451 -14.764985 30.299786 42.413560 -0.520705 0.775046 0.028959 0.000347 535976.000000 0 0 1
26.863951 -13.865585 30.204986 42.734851 -0.476477 0.785832 0.033441 -0.001484 792387.000000 0 0 1
26.521451 -12.649685 30.818786 42.581680 -0.445047 0.761565 0.040472 -0.003816 438900.000000 0 0 1
27.874121 -11.940485 31.079286 43.421928 -0.404723 0.773098 0.050720 -0.004216 181421.000000 0 0 1
28.343851 -11.147085 30.023186 42.767080 -0.374700 0.792572 0.050510 -0.012119 -1196140.000000 0 0 1
29.653171 -10.781485 30.225986 43.693950 -0.348727 0.806865 0.055513 -0.008848 -906003.000000 0 0 1
30.331521 -10.393885 28.893986 43.161284 -0.330135 0.837339 0.061543 -0.009243 -8299.330000 0 0 1
29.783561 -9.169185 28.409786 42.169307 -0.298653 0.831582 0.055039 -0.014928 54960.500000 0 0 1
30.399931 -8.783985 27.207786 41.732216 -0.281286 0.860628 0.055137 -0.010278 134788.000000 0 0 1
30.521121 -7.231185 26.923886 41.336721 -0.232634 0.861459 0.054595 -0.011330 335930.000000 0 0 1
29.253271 -6.679485 26.609786 40.105488 -0.224484 0.845316 0.064724 -0.009746 -162235.000000 0 0 1
29.269371 -5.271285 26.499986 39.833803 -0.178186 0.842949 0.061960 -0.012661 -71169.500000 0 0 1
27.916491 -4.552585 26.368986 38.670143 -0.161656 0.820446 0.062137 -0.012772 11125.500000 0 0 1
27.282051 -4.712985 25.076786 37.354622 -0.171062 0.834812 0.067194 -0.008089 -627087.000000 0 0 1
26.007851 -4.163085 25.111286 36.391157 -0.158724 0.809255 0.073581 -0.014876 -1095870.000000 0 0 1
25.309051 -4.711985 23.891486 35.121987 -0.184070 0.822702 0.065689 -0.004242 -675824.000000 0 0 1
25.520451 -3.922985 22.737486 34.404601 -0.152525 0.848799 0.074171 0.000365 203977.000000 0 0 1
25.123151 -4.557085 21.505486 33.383015 -0.179439 0.870814 0.077372 -0.002176 23794.800000 0 0 1
25.386351 -3.745085 20.255786 32.692344 -0.146467 0.902579 0.084480 -0.003845 -22607.000000 0 0 1
24.530451 -2.619585 20.189086 31.877962 -0.106386 0.884955 0.084501 0.003383 22442.700000 0 0 1
24.997751 -1.610485 19.380786 31.671693 -0.064336 0.912301 0.088498 -0.007773 -480536.000000 0 0 1
23.841451 -0.672285 18.991286 30.488288 -0.028191 0.898347 0.078424 -0.016226 -517806.000000 0 0 1
22.941351 -1.399385 18.234786 29.338904 -0.060923 0.900112 0.084012 -0.019303 -1156070.000000 0 0 1
21.913251 -0.611985 17.756186 28.210765 -0.027920 0.890000 0.083018 -0.019177 405876.000000 0 0 1
20.691351 -1.473885 17.224086 26.962446 -0.071112 0.877836 0.072631 -0.019181 705705.000000 0 0 1
21.033951 -2.147985 15.999486 26.514609 -0.101767 0.923011 0.092535 -0.028109 514508.000000 0 0 1
19.948751 -2.959985 15.551486 25.466899 -0.147305 0.913909 0.079328 -0.032510 -23369.400000 0 0 1
20.132751 -3.538285 14.132186 24.850872 -0.173971 0.965896 0.089616 -0.042763 -441886.000000 0 1 0
19.176851 -4.441585 13.626286 23.940655 -0.227599 0.965301 0.070726 -0.034311 365413.000000 0 1 0
19.376251 -4.635185 12.218086 23.371044 -0.234807 1.020679 0.064298 -0.032628 -2091.350000 0 1 0
18.286151 -5.584285 11.640486 22.384559 -0.296388 1.023918 0.035159 -0.034217 55515.700000 0 1 0
18.441051 -6.884085 12.175786 23.145470 -0.357281 1.016841 0.059338 -0.035082 343914.000000 0 1 0
17.308451 -7.668185 11.942286 22.383068 -0.417044 1.008014 0.034062 -0.022030 -606601.000000 0 1 0
17.444751 -9.104885 12.428886 23.274353 -0.481035 1.007452 0.049255 -0.031816 -360144.000000 0 1 0
18.409151 -9.822985 11.695386 23.920074 -0.490159 1.059927 0.039060 -0.034192 408610.000000 0 1 0
18.049651 -11.193485 11.559086 24.180498 -0.555104 1.072382 0.045312 -0.029360 -125531.000000 0 1 0
18.863151 -11.918085 10.458586 24.642266 -0.563487 1.132479 0.051532 -0.025438 -61586.900000 0 1 0
18.353251 -11.593385 9.168286 23.564929 -0.563389 1.171180 0.054334 -0.019037 409673.000000 0 1 0
19.161451 -12.020585 8.104686 24.027934 -0.560274 1.226746 0.064150 -0.032789 -256646.000000 0 1 0
18.580751 -11.478785 6.781286 22.869033 -0.553389 1.269742 0.051338 -0.021610 42426.300000 0 1 0
18.723151 -10.045585 6.706086 22.280973 -0.492445 1.265078 0.034248 -0.017627 784256.000000 0 1 0
19.485251 -9.728085 5.538886 22.471981 -0.463050 1.321750 0.038452 -0.017939 -67491.300000 0 1 0
19.698751 -8.238585 5.355986 22.013670 -0.396121 1.325027 0.029968 -0.015865 -865454.000000 0 1 0
20.418851 -7.961985 4.205486 22.316111 -0.371798 1.381212 0.054237 -0.018021 479343.000000 0 1 0
20.733051 -6.604585 4.115186 22.145309 -0.308390 1.383883 0.057946 -0.019579 -629538.000000 0 1 0
21.396951 -6.188885 2.801186 22.449465 -0.281558 1.445693 0.065618 -0.022272 39968.300000 0 1 0
20.510551 -6.259985 1.686686 21.510812 -0.296228 1.492305 0.035857 -0.021560 807063.000000 0 1 0
21.223651 -5.736485 0.608486 21.993656 -0.263980 1.543126 0.057940 -0.010955 36397.800000 0 1 0
-25.401750 -15.252385 -0.254414 29.630202 0.540748 1.579383 0.050636 -0.018850 -395575.000000 0 0 1
-24.346430 -14.752485 -1.033914 28.486022 0.544776 1.607100 0.038848 -0.008990 746894.000000 0 0 1
-23.083130 -15.424585 -0.845414 27.775230 0.589076 1.601239 0.041650 -0.010291 1343970.000000 0 0 1
-22.190330 -14.952485 0.354186 26.760288 0.592945 1.557560 0.037175 -0.014721 -144576.000000 0 0 1
-22.809430 -15.300285 1.622286 27.513644 0.590850 1.511799 0.048693 -0.006835 352509.000000 0 0 1
-21.986330 -14.980985 2.727786 26.744521 0.598118 1.468624 0.042196 0.005794 355102.000000 0 0 1
-22.696130 -15.450685 4.061386 27.754870 0.597698 1.423938 0.062950 0.013783 167890.000000 0 0 1
-22.555730 -16.872685 4.092886 28.464015 0.642248 1.426505 0.080906 0.001434 153908.000000 0 0 1
-23.003130 -17.486785 5.257286 29.369554 0.649992 1.390822 0.070042 -0.004145 -227306.000000 0 0 1
-23.043230 -19.019885 5.131286 30.316276 0.690038 1.400719 0.044005 0.001733 18142.600000 0 0 1
-23.592530 -19.628285 6.279386 31.325832 0.693933 1.368975 0.034825 0.001812 93095.400000 0 0 1
-23.657330 -21.025885 6.132686 32.239214 0.726575 1.379406 0.035107 -0.003189 57255.500000 0 0 1
-24.322930 -21.832785 7.301886 33.490192 0.731499 1.351000 0.024408 -0.006183 604691.000000 0 0 1
-23.405730 -22.354785 8.268286 33.405526 0.762436 1.320684 0.026395 -0.002627 119335.000000 0 0 1
-24.176230 -23.052785 9.233986 34.658152 0.761615 1.301109 0.026994 -0.009990 88742.700000 0 0 1
-23.402630 -23.623685 10.407086 34.843493 0.790099 1.267486 0.020684 -0.013952 -125345.000000 0 0 1
-23.103630 -22.686185 11.392686 34.325413 0.776282 1.232477 0.032294 -0.012061 -58812.100000 0 0 1
-22.264530 -23.243985 12.384286 34.487138 0.806917 1.203494 0.032363 -0.012761 -330398.000000 0 0 1
-22.450130 -22.563485 13.767286 34.679351 0.787916 1.162563 0.025957 -0.011581 -353938.000000 0 0 1
-23.754230 -22.786785 14.223986 35.858371 0.764614 1.162909 0.034310 -0.018805 -373933.000000 0 0 1
-24.065730 -21.889685 15.290086 35.945854 0.738082 1.131432 0.030182 -0.004533 637921.000000 0 0 1
-25.461490 -22.250185 15.913086 37.370905 0.718193 1.130934 0.015320 -0.000748 911558.000000 0 0 1
-26.671830 -21.983885 15.210486 37.762900 0.689345 1.156234 0.015657 -0.006392 597810.000000 0 0 1
-27.002590 -22.883985 14.111886 38.104619 0.703026 1.191415 0.007445 -0.006902 293595.000000 0 0 1
-28.065930 -23.983285 14.529286 39.673600 0.707120 1.195852 0.005176 -0.004912 646415.000000 0 0 1
-27.519900 -24.990885 15.392186 40.234421 0.737274 1.178228 0.008517 0.003434 166372.000000 0 0 1
-28.566740 -25.838635 15.820886 41.641255 0.735296 1.181072 0.004883 0.005785 50299.700000 0 0 1
-28.570940 -27.231925 15.195186 42.293853 0.761407 1.203304 0.024768 0.006723 -190104.000000 0 0 1
-29.128470 -27.129595 13.910886 42.166283 0.749883 1.234593 0.027110 -0.005895 -92492.700000 0 0 1
-30.402060 -27.747075 13.969286 43.466382 0.739772 1.243608 0.041627 -0.007989 -149618.000000 0 0 1
-30.938790 -28.136925 12.565186 43.666683 0.738005 1.278917 0.061993 -0.022234 -157136.000000 0 0 1
-30.197630 -29.176055 11.935286 43.653065 0.768194 1.293858 0.061232 -0.025779 11667.200000 0 0 1
-30.595550 -29.557845 10.627986 43.848694 0.768149 1.325979 0.065509 -0.020449 -227368.000000 0 0 1
-29.884340 -30.770635 10.011986 44.047084 0.800009 1.341490 0.050094 -0.033331 -495113.000000 0 0 1
-30.130710 -32.035305 10.659286 45.251970 0.816026 1.333008 0.059930 -0.016317 -9638.860000 0 0 1
-29.450620 -33.096925 10.031786 45.424467 0.843629 1.348115 0.066468 -0.019136 -236710.000000 0 0 1
-29.506320 34.347026 10.919586 46.578734 -0.861063 1.334161 0.078000 -0.008601 1108110.000000 0 0 1
-30.833450 33.773073 10.946686 47.022888 -0.830867 1.335846 0.087456 -0.013219 614383.000000 0 0 1
-30.809860 32.507640 11.562286 46.256682 -0.812205 1.318158 0.077963 -0.015375 455560.000000 0 0 1
-32.198880 32.153080 12.263486 47.127291 -0.784686 1.307546 0.085118 -0.019273 1526080.000000 0 0 1
-33.324980 32.066050 11.401786 47.631781 -0.766148 1.329076 0.058526 -0.027785 110046.000000 0 0 1
-33.799390 33.320994 11.020386 48.725110 -0.778271 1.342648 0.064919 -0.018488 -1286170.000000 0 0 1
-35.307741 33.314156 10.700186 49.708787 -0.756355 1.353841 0.052262 -0.000710 -2491.820000 0 0 1
-35.599955 32.611310 9.495486 49.203847 -0.741612 1.376595 0.035920 -0.009785 -148857.000000 0 0 1
35.109431 32.617130 9.253886 48.807620 0.748615 1.380042 0.026791 -0.007541 -132750.000000 0 0 1
34.671451 32.103660 7.876386 47.903987 0.746963 1.405626 0.035355 -0.013597 -147400.000000 0 0 1
34.730871 30.694370 7.671386 46.981144 0.723780 1.406775 0.051326 -0.016838 -57030.800000 0 0 1
34.579381 30.310770 6.336386 46.417951 0.719711 1.433862 0.066229 -0.011229 66011.100000 0 0 1
34.794371 28.780290 6.136686 45.569862 0.691080 1.435720 0.063843 0.000357 273943.000000 0 0 1
33.832141 27.928910 6.754086 44.387560 0.690106 1.418041 0.061394 -0.004472 -38208.500000 0 0 1
34.432841 27.075710 7.704286 44.475506 0.666352 1.396693 0.051354 -0.013204 -410581.000000 0 0 1
33.522721 25.975160 8.255886 43.204646 0.659218 1.378526 0.042700 -0.019739 -321053.000000 0 0 1
33.337891 24.948770 7.281486 42.271458 0.642451 1.397678 0.057059 -0.024394 -231934.000000 0 0 1
32.161401 24.240730 7.552886 40.975783 0.645878 1.385411 0.056022 -0.024956 -533886.000000 0 0 1
32.199241 22.850250 6.811286 40.066428 0.617174 1.399967 0.056139 -0.017851 790162.000000 0 0 1
33.249051 21.945250 7.207786 40.485128 0.583391 1.391807 0.056561 -0.016155 1025090.000000 0 0 1
34.571371 22.176150 6.727686 41.619984 0.570348 1.408438 0.073381 -0.017836 122282.000000 0 0 1
35.489411 20.983650 6.721686 41.773113 0.533972 1.409184 0.050038 -0.013994 -491084.000000 0 0 1
35.363761 20.066850 5.708286 41.059209 0.516135 1.431319 0.064040 -0.014447 176500.000000 0 0 1
-35.994514 18.896050 6.038486 41.099015 -0.483424 1.423337 0.062392 -0.016037 -51018.100000 0 0 1
35.823411 17.645050 5.111886 40.259110 0.457675 1.443478 0.051201 -0.011021 -325602.000000 0 0 1
-35.531100 17.586450 3.943686 39.840870 -0.459607 1.471648 0.051711 -0.012905 -153566.000000 0 0 1
36.046001 16.475450 3.273586 39.767713 0.428716 1.488385 0.044214 -0.010113 -1104940.000000 0 0 1
-35.380146 15.980950 1.989686 38.872926 -0.424261 1.519590 0.058877 0.000668 109178.000000 0 0 1
-34.208735 15.178150 2.074186 37.482210 -0.417596 1.515430 0.054790 -0.007574 644366.000000 0 0 1
-33.083180 15.955750 2.466586 36.812590 -0.449381 1.503742 0.065138 -0.012971 -1384280.000000 0 0 1
-31.772840 15.252550 2.682786 35.346159 -0.447561 1.494823 0.052516 -0.016052 -706230.000000 0 0 1
-31.752570 14.615450 3.924386 35.174393 -0.431380 1.458994 0.060345 -0.017444 415990.000000 0 0 1
-30.449780 14.126350 4.189086 33.827375 -0.434372 1.446640 0.057075 -0.017815 -130942.000000 0 0 1
-30.254240 13.241250 5.403386 33.464105 -0.412550 1.408618 0.059333 -0.008846 -205110.000000 0 0 1
-30.816850 11.954750 5.356286 33.485580 -0.370057 1.410148 0.062695 -0.003946 356805.000000 0 0 1
-30.348070 11.197450 6.464186 32.987482 -0.353471 1.373561 0.050832 0.008807 -68551.800000 0 0 1
-30.410900 9.655650 6.297886 32.522574 -0.307439 1.375919 0.060160 -0.004043 -752825.000000 0 0 1
-31.669640 9.106950 6.432986 33.575079 -0.280006 1.378004 0.065059 0.008820 -748893.000000 0 0 1
-31.614680 7.732150 6.669886 33.222907 -0.239866 1.368661 0.077795 -0.002316 71679.800000 0 0 1
-33.037540 7.125650 6.654286 34.446095 -0.212429 1.376394 0.077902 -0.003038 -640524.000000 0 0 1
-33.769140 7.416350 7.743786 35.430542 -0.216187 1.350455 0.079506 -0.003333 -684514.000000 0 0 1
-35.098783 7.021650 7.469986 36.565405 -0.197447 1.365057 0.048356 -0.001780 91144.200000 0 0 1
-35.759499 6.183050 8.622786 37.300460 -0.171214 1.337515 0.048650 -0.005126 -163823.000000 0 0 1
35.816951 6.866750 9.758386 37.752250 0.189419 1.309343 0.051238 -0.006543 293516.000000 0 0 1
-35.332703 7.463250 10.628986 37.644061 -0.208168 1.284548 0.069431 -0.012464 -199083.000000 0 0 1
-36.019736 8.522350 11.509686 38.762414 -0.232330 1.269321 0.049270 -0.011082 474834.000000 0 0 1
35.130071 7.990250 12.489686 38.130805 0.223643 1.237089 0.045780 -0.016998 1148010.000000 0 0 1
34.763881 8.951350 13.418886 38.323891 0.252016 1.213071 0.060468 -0.019300 -422495.000000 0 0 1
34.158991 8.367450 14.687086 38.112484 0.240226 1.175197 0.045975 -0.019639 243571.000000 0 0 1
32.813611 7.889950 14.623186 36.780728 0.235968 1.161921 0.054250 -0.022804 672175.000000 0 0 1
32.404641 7.474050 15.904886 36.863093 0.226683 1.124688 0.037525 -0.013793 377395.000000 0 0 1
30.870711 7.163350 15.892386 35.452537 0.228008 1.105965 0.049299 -0.008307 563056.000000 0 0 1
30.082611 8.381250 16.020686 35.098023 0.271717 1.096789 0.030262 -0.007096 256331.000000 0 0 1
28.689851 8.277150 15.898586 33.828743 0.280877 1.081536 0.040097 0.000924 32498.000000 0 0 1
27.924201 7.597850 17.058186 33.592709 0.265657 1.038174 0.040006 0.001810 -628190.000000 0 0 1
27.772981 8.520250 18.129486 34.243414 0.297667 1.012868 0.047309 -0.009776 306157.000000 0 0 1
27.022251 8.072750 19.258386 34.150502 0.290305 0.971663 0.048799 -0.005861 78222.800000 0 0 1
27.694861 7.002050 20.188186 34.979950 0.247639 0.955579 0.047511 -0.000561 -248019.000000 0 0 1
26.909051 6.693950 21.314386 34.974406 0.243813 0.915457 0.035295 0.001461 130997.000000 0 0 1
27.484601 5.705250 22.160486 35.763674 0.204673 0.902517 0.046969 0.002236 -426917.000000 0 0 1
26.707751 5.565150 23.529786 36.026736 0.205433 0.859099 0.052321 0.007800 1639360.000000 0 0 1
25.358451 5.022450 23.447486 34.900726 0.195528 0.834115 0.038004 -0.001912 893285.000000 0 0 1
24.447651 6.050250 23.210386 34.249310 0.242603 0.826181 0.040673 0.002120 -662142.000000 0 0 1
22.942951 5.687650 23.284686 33.179889 0.243005 0.792916 0.053385 -0.008892 298809.000000 0 0 1
22.384151 4.863550 22.294386 31.964731 0.213951 0.798938 0.059066 -0.008631 -689750.000000 0 0 1
21.011051 4.794850 22.488586 31.147895 0.224364 0.764117 0.047102 -0.013420 -2227570.000000 0 0 1
20.316451 3.643050 21.708486 29.954772 0.177430 0.760185 0.056124 -0.013740 489140.000000 0 0 1
19.029951 3.987550 21.198886 28.765125 0.206552 0.742227 0.045181 -0.013043 488576.000000 0 0 1
18.033651 4.264450 22.139986 28.871736 0.232206 0.696894 0.060368 -0.017812 -2510530.000000 0 0 1
16.642651 4.065450 21.632486 27.594749 0.239587 0.669818 0.079797 -0.017236 -1011670.000000 0 0 1
16.136851 2.679750 21.606986 27.100570 0.164562 0.648006 0.067957 -0.015059 620210.000000 0 0 1
15.103251 2.602950 20.608886 25.682869 0.170667 0.639428 0.069338 -0.018114 -414395.000000 0 0 1
14.110751 1.500350 20.921986 25.280306 0.105929 0.595978 0.059011 -0.014885 -804677.000000 0 0 1
14.561651 0.178350 21.035086 25.584143 0.012247 0.605544 0.036846 -0.012367 311371.000000 0 0 1
13.562951 -0.496550 21.800486 25.679981 -0.036594 0.556840 0.032628 -0.009771 379316.000000 0 0 1
13.722151 -2.037350 21.915086 25.936832 -0.147395 0.564342 0.004133 0.000499 53335.300000 0 0 1
13.487451 -2.651650 20.629586 24.789563 -0.194125 0.587754 0.002877 0.007875 139433.000000 0 1 0
13.830151 -4.045850 20.652086 25.182348 -0.284597 0.609208 0.010653 0.016021 -4403.820000 0 0 1
13.602051 -4.618350 19.263986 24.030109 -0.327320 0.640729 0.013695 0.007884 170807.000000 0 1 0
12.216951 -4.580250 18.982186 23.033801 -0.358691 0.602182 0.009361 0.004692 -62122.300000 0 1 0
11.937651 -5.039150 17.653086 21.898219 -0.399431 0.633193 0.013692 0.004219 -84166.800000 0 1 0
10.423751 -5.171150 17.443586 20.968407 -0.460517 0.588276 0.011413 0.004567 -93606.000000 0 1 0
9.917751 -6.251150 18.166786 21.621073 -0.562401 0.573079 0.016574 0.007191 -674049.000000 0 1 0
8.517151 -6.269650 18.253786 21.096234 -0.634559 0.525122 0.011295 0.002413 -59144.000000 0 1 0
7.945551 -7.359050 19.175286 22.022239 -0.747095 0.514124 0.022112 -0.005439 -229211.000000 0 1 0
7.925651 -8.681150 18.617286 22.017758 -0.830860 0.563187 0.021895 -0.010343 532799.000000 0 1 0
8.989451 -9.443150 19.230886 23.233818 -0.810007 0.595780 0.039217 -0.012256 676490.000000 0 1 0
9.093151 -10.830150 18.654986 23.409102 -0.872363 0.648631 0.049047 -0.017846 163337.000000 0 1 0
9.424051 -10.928650 17.299086 22.527906 -0.859190 0.695246 0.049897 -0.017532 11139.900000 0 1 0
9.813051 -12.186950 16.857786 23.000059 -0.892887 0.748155 0.055096 -0.016867 216310.000000 0 1 0
9.938351 -12.234950 15.288086 21.958835 -0.888605 0.800684 0.051414 -0.013333 121369.000000 0 1 0
10.604151 -13.355050 14.808586 22.585385 -0.899714 0.855725 0.057426 -0.010799 -237639.000000 0 1 0
10.425051 -13.478750 13.402886 21.679386 -0.912459 0.904305 0.055641 -0.010878 -231129.000000 0 1 0
11.403651 -14.529050 12.819886 22.483017 -0.905339 0.964043 0.087890 -0.013625 958989.000000 0 1 0
12.765051 -14.185650 12.564686 22.848426 -0.838060 0.988534 0.083133 -0.018062 406626.000000 0 1 0
12.847451 -13.285550 11.462086 21.747236 -0.802161 1.015660 0.057497 -0.016335 -1108970.000000 0 1 0
14.175851 -13.113550 10.738086 22.095847 -0.746491 1.063315 0.054346 -0.022118 -231105.000000 0 1 0
14.781251 -14.252050 10.149886 22.904727 -0.767173 1.111704 0.070547 -0.018924 609917.000000 0 1 0
16.078851 -13.959550 9.609486 23.361094 -0.714962 1.146866 0.051104 -0.023960 392949.000000 0 1 0
16.870051 -15.255250 9.230986 24.546535 -0.735175 1.185255 0.061296 -0.025278 75352.800000 0 1 0
17.179151 -16.024850 10.356886 25.674582 -0.750648 1.155577 0.063602 -0.023785 206764.000000 0 0 1
16.159951 -16.953750 10.728586 25.761915 -0.809365 1.141258 0.089221 -0.025910 248691.000000 0 0 1
16.390851 -17.640250 12.071986 26.936431 -0.822095 1.106084 0.066761 -0.019792 -363978.000000 0 0 1
17.487751 -18.488050 11.983886 28.129042 -0.813196 1.130693 0.082442 -0.027314 -490774.000000 0 0 1
17.859751 -19.050850 13.208386 29.263750 -0.817657 1.102511 0.046770 -0.025143 -245146.000000 0 0 1
19.216251 -19.773850 13.295086 30.610926 -0.799698 1.121508 0.013172 -0.027578 146290.000000 0 0 1
20.267751 -18.830750 13.055886 30.591421 -0.748661 1.129864 0.005947 -0.026234 -1141740.000000 0 0 1
21.485551 -19.488850 13.109886 31.832583 -0.736706 1.146326 -0.015841 -0.021194 -581376.000000 0 0 1
22.368851 -19.091850 11.893886 31.722686 -0.706523 1.186472 -0.007333 -0.015493 -668631.000000 0 0 1
21.991951 -19.486350 10.562186 31.223766 -0.725064 1.225714 -0.005890 -0.013909 530382.000000 0 0 1
20.835751 -18.840850 9.971186 29.808233 -0.735161 1.229710 0.005222 -0.017612 808284.000000 0 0 1
20.840651 -17.293950 9.954386 28.853133 -0.692660 1.218555 0.038885 -0.017771 -122855.000000 0 0 1
21.856651 -16.691850 9.150686 28.983894 -0.652209 1.249585 0.034021 -0.015940 66707.700000 0 0 1
21.737451 -15.275250 9.128886 28.092466 -0.612546 1.239828 0.055010 -0.028966 -250139.000000 0 0 1
-34.604939 25.160915 8.035186 43.533179 -0.628677 1.385156 0.067891 -0.012237 702018.000000 0 0 1
-33.520170 24.407815 8.640786 42.355713 -0.629372 1.365349 0.075521 -0.025251 1512790.000000 0 0 1
-32.482680 25.272515 9.169086 42.165112 -0.661201 1.351588 0.088339 -0.024575 196929.000000 0 0 1
-31.448640 24.422215 9.942686 41.040451 -0.660293 1.326096 0.087804 -0.039391 -498865.000000 0 0 1
-30.683100 23.639615 9.055786 39.778026 -0.656457 1.341124 0.087337 -0.035273 -173057.000000 0 0 1
-29.806000 22.888315 9.874486 38.855863 -0.654865 1.313847 0.081391 -0.037718 -85937.900000 0 0 1
-29.044780 21.864815 8.978786 37.447136 -0.645289 1.328665 0.082503 -0.043226 -316602.000000 0 0 1
-29.831680 20.838015 8.464786 37.360469 -0.609732 1.342241 0.078248 -0.039331 -240612.000000 0 0 1
-29.203130 20.137815 7.440186 36.245148 -0.603697 1.364053 0.066760 -0.039280 -625937.000000 0 0 1
-30.196640 19.589815 6.435586 36.565212 -0.575490 1.393872 0.061921 -0.034338 -633624.000000 0 0 1
-30.755870 18.361515 6.777486 36.455495 -0.538217 1.383797 0.064590 -0.025021 -139367.000000 0 0 1
-31.807390 18.052215 5.925586 37.050035 -0.516216 1.410172 0.047702 -0.018167 -522127.000000 0 0 1
-32.507160 16.712415 6.208286 37.075101 -0.474876 1.402552 0.046345 -0.007553 -247345.000000 0 0 1
-33.291940 16.707715 7.382286 37.973664 -0.465130 1.375145 0.039879 -0.011135 298231.000000 0 0 1
-34.086604 15.545615 7.525686 38.212546 -0.427884 1.372558 0.040053 -0.008802 -157348.000000 0 0 1
-35.070107 15.647115 8.704586 39.376572 -0.419662 1.347895 0.034231 -0.006187 -86298.200000 0 0 1
36.014331 16.603015 8.490886 40.555978 0.431973 1.359874 0.047528 -0.014855 -387239.000000 0 0 1
35.466621 17.074515 9.648186 40.527865 0.448677 1.330425 0.054277 -0.014978 49241.600000 0 0 1
34.484031 18.254915 9.402886 40.134831 0.486869 1.334316 0.035057 -0.015801 1149210.000000 0 0 1
33.142631 17.966415 8.950386 38.747071 0.496753 1.337696 0.035905 -0.019628 802227.000000 0 0 1
32.448861 19.174815 8.837486 38.713090 0.533719 1.340484 0.036993 -0.019111 758414.000000 0 0 1
30.951841 19.045315 8.364386 37.292137 0.551609 1.344578 0.038684 -0.024200 825268.000000 0 0 1
30.224431 20.239215 8.647786 37.388853 0.590052 1.337390 0.032561 -0.024070 266018.000000 0 0 1
28.902121 20.419515 8.177886 36.320339 0.615079 1.343689 0.022189 -0.026703 167037.000000 0 0 1
28.557251 20.362715 6.677686 35.703617 0.619430 1.382657 0.015159 -0.018497 -990838.000000 0 0 1
28.609521 19.010715 6.249286 34.913688 0.586494 1.390834 0.032806 -0.017192 135045.000000 0 0 1
28.359011 18.791315 4.883886 34.368582 0.585197 1.428210 0.032575 -0.011727 643048.000000 0 0 1
26.920151 19.197815 4.395386 33.355211 0.619490 1.438637 0.048767 -0.011477 -259705.000000 0 0 1
25.870551 18.422315 4.960886 32.144634 0.618798 1.415847 0.065362 -0.017997 1733960.000000 0 0 1
24.565751 18.548515 4.305986 31.081588 0.646729 1.431811 0.058595 -0.016689 1482890.000000 0 0 1
23.821951 19.862415 4.700286 31.370266 0.695006 1.420397 0.055181 -0.019493 -988979.000000 0 0 1
24.417051 20.967315 4.108486 32.445344 0.709533 1.443828 0.046312 -0.017294 -58523.000000 0 0 1
23.983151 22.097315 4.759686 32.956600 0.744496 1.425867 0.031564 -0.009223 -104430.000000 0 0 1
24.795251 23.387015 4.384686 34.365425 0.756179 1.442858 0.008670 -0.001214 1242280.000000 0 0 1
26.115651 23.409015 4.985686 35.424092 0.730800 1.429585 0.015060 -0.013353 1067450.000000 0 0 1
26.782851 24.613515 4.749686 36.683863 0.743215 1.440956 0.013990 -0.004980 100814.000000 0 0 1
28.152421 24.707315 5.516286 37.860793 0.720316 1.424577 0.011951 -0.011382 830237.000000 0 0 1
29.165881 23.724815 5.265186 37.963636 0.682885 1.431658 0.005771 -0.011889 696125.000000 0 0 1
29.679401 23.542315 3.946686 38.087843 0.670594 1.466989 0.008358 -0.007675 -672238.000000 0 0 1
30.539531 24.603915 3.289786 39.355283 0.678171 1.487107 0.018964 -0.012783 -698805.000000 0 0 1
29.874171 25.867015 3.143886 39.641552 0.713633 1.491405 0.000330 -0.008471 -195977.000000 0 0 1
30.623981 26.882215 2.492786 40.825185 0.720423 1.509698 0.040516 -0.003101 -1083600.000000 0 0 1
30.157561 28.321215 2.728686 41.461012 0.754007 1.504935 0.031325 0.000489 460804.000000 0 0 1
28.912361 28.670915 2.153686 40.774801 0.781205 1.517953 0.059913 -0.005635 -587115.000000 0 0 1
27.768121 28.124315 2.714986 39.615866 0.791771 1.502210 0.031113 0.003415 -1356220.000000 0 0 1
26.580551 28.901315 2.113986 39.322776 0.827203 1.517011 -0.000314 0.002954 -385762.000000 0 0 1
26.426251 30.222115 2.591686 40.229838 0.852306 1.506330 0.004815 -0.003376 813806.000000 0 0 1
25.162551 30.803615 2.210286 39.835940 0.885853 1.515283 0.008888 0.001936 965065.000000 0 0 1
24.850851 32.215215 2.867286 40.787329 0.913739 1.500440 0.032507 -0.007360 -200398.000000 0 0 1
24.816351 32.248815 4.284186 40.916887 0.914914 1.465899 0.025148 -0.025758 -35753.400000 0 0 1
26.039751 32.090115 4.993086 41.626615 0.889108 1.450557 0.027632 -0.023250 -19026.200000 0 0 1
25.943051 31.932115 6.540986 41.659170 0.888514 1.413132 0.039119 -0.031324 -239717.000000 0 0 1
25.556251 30.659615 6.984286 40.520541 0.875932 1.397567 0.043366 -0.030546 459646.000000 0 0 1
26.452151 29.562715 6.717186 40.234202 0.840872 1.403059 0.024380 -0.026793 271525.000000 0 0 1
25.819051 28.281815 7.269086 38.978508 0.830888 1.383208 0.036561 -0.025991 543768.000000 0 0 1
24.720751 27.836915 6.476086 37.788214 0.844619 1.398568 0.028777 -0.029005 106922.000000 0 0 1
23.958551 26.778115 6.941486 36.595954 0.840914 1.379961 0.039844 -0.020560 139394.000000 0 0 1
22.619651 26.561715 6.165886 35.428682 0.865381 1.395869 0.051902 -0.010867 291513.000000 0 0 1
22.743451 26.256115 4.777286 35.063808 0.856963 1.434126 0.033725 -0.011149 -45569.400000 0 0 1
23.163151 27.228715 3.885186 35.958715 0.865903 1.462539 0.023505 -0.008214 -221181.000000 0 0 1
23.166851 26.760715 2.417086 35.477897 0.857256 1.502614 0.025171 -0.005100 575439.000000 0 0 1
24.309351 25.921315 2.134786 35.600793 0.817478 1.510796 -0.006905 0.014739 710546.000000 0 0 1
24.301251 25.776515 0.730986 35.433232 0.814849 1.550165 0.004653 0.016499 -582322.000000 0 0 1
25.510351 25.234915 -0.013114 35.882853 0.779970 1.571162 0.019024 0.006300 -1523930.000000 0 0 1
26.649151 26.056415 0.117186 37.271005 0.774152 1.567652 0.019894 0.010394 81105.600000 0 0 1
27.802241 25.666215 -0.593014 37.842713 0.745470 1.586467 0.018012 0.020035 223163.000000 0 0 1
28.590161 24.478315 0.042386 37.637575 0.708071 1.569670 0.017705 0.015110 -834312.000000 0 0 1
27.740461 23.348115 0.241286 36.259149 0.699634 1.564142 0.014735 0.009955 229261.000000 0 0 1
28.305951 22.257815 0.989986 36.022456 0.666350 1.543310 0.017393 0.009998 52359.000000 0 0 1
27.197241 21.287915 1.460486 34.568747 0.664117 1.528535 0.026086 0.000180 350798.000000 0 0 1
26.555751 20.539815 0.421186 33.574832 0.658347 1.558251 0.042535 -0.008533 1472300.000000 0 0 1
25.368251 19.866915 0.920286 32.234910 0.664376 1.542243 0.042619 -0.007126 723159.000000 0 0 1
24.796651 18.716915 0.075386 31.067709 0.646576 1.568370 0.058264 -0.011039 -939115.000000 0 0 1
23.674251 18.122515 0.611986 29.820635 0.653344 1.550273 0.056559 -0.013349 -653209.000000 0 0 1
23.189351 17.074015 -0.247114 28.798074 0.634667 1.579377 0.067227 -0.024599 -852806.000000 0 0 1
21.838551 16.611015 0.213986 27.438913 0.650268 1.562998 0.078531 -0.017818 -1405470.000000 0 0 1
21.333251 15.475815 -0.498614 26.360142 0.627591 1.589713 0.079536 -0.022714 1574940.000000 0 0 1
19.906451 15.270915 -0.346814 25.091591 0.654377 1.584619 0.084430 -0.025233 914853.000000 0 0 1
18.907151 16.189115 -1.021414 24.912068 0.708107 1.611809 0.087276 -0.031785 -859149.000000 0 1 0
18.803351 17.515915 -0.527514 25.703143 0.749965 1.591321 0.061257 -0.019251 341204.000000 0 0 1
17.662951 18.248115 -0.976614 25.415101 0.801692 1.609232 0.042360 -0.024994 451385.000000 0 0 1
17.711051 19.686515 -0.474514 26.485192 0.838172 1.588713 0.039175 -0.012534 -94593.300000 0 0 1
17.396351 19.901215 0.918586 26.448728 0.852456 1.536059 0.034306 -0.009668 109796.000000 0 0 1
17.377451 21.281215 1.336286 27.507301 0.886037 1.522198 0.044600 -0.011151 -543572.000000 0 0 1
16.285251 22.186215 0.770286 27.532361 0.937597 1.542815 0.035280 -0.021270 -793157.000000 0 0 1
15.123051 22.090915 1.539786 26.815782 0.970493 1.513344 0.019221 -0.014237 -471886.000000 0 0 1
14.220251 23.104915 1.143186 27.154365 1.019084 1.528684 0.008806 -0.009518 208005.000000 0 0 1
12.806951 23.109915 1.758886 26.479801 1.064753 1.504324 0.002652 -0.001054 270624.000000 0 0 1
12.904851 23.532715 3.086186 27.015707 1.069198 1.456310 -0.001826 0.015999 -482314.000000 0 0 1
11.634251 23.646715 3.648086 26.605103 1.113567 1.433243 -0.017005 0.015938 -252107.000000 0 0 1
11.641351 23.902515 5.137286 27.078460 1.117575 1.379921 -0.008739 0.008190 -196113.000000 0 0 1
12.109151 22.826915 5.863186 26.496727 1.083066 1.347670 0.003544 -0.013333 425801.000000 0 0 1
11.133651 22.594915 6.893486 26.115293 1.112965 1.303667 0.006603 -0.004950 -161792.000000 0 0 1
11.575451 21.487415 7.854986 25.639830 1.076664 1.259431 0.012135 -0.009020 122444.000000 0 0 1
12.665751 21.781415 8.693786 26.653953 1.044096 1.238545 0.019223 -0.004558 689921.000000 0 0 1
13.955651 21.803815 8.059586 27.113161 1.001444 1.268977 0.030004 -0.000403 710456.000000 0 0 1
15.183651 21.883415 9.039286 28.127137 0.964215 1.243618 0.037953 -0.003222 143795.000000 0 0 1
15.411151 20.616815 9.699386 27.506995 0.928895 1.210432 0.038919 -0.006492 191370.000000 0 0 1
16.692351 20.468115 10.284786 28.343521 0.886658 1.199459 0.041264 -0.004524 161731.000000 0 0 1
16.871351 21.339215 11.557886 29.556545 0.901797 1.169032 0.034922 -0.001618 -747360.000000 0 0 1
16.229951 20.928715 12.693186 29.369022 0.911182 1.123869 0.033241 0.000451 -392937.000000 0 0 1
16.495851 21.686315 13.833886 30.557909 0.920509 1.100993 0.044388 0.003141 1225300.000000 0 0 1
17.758151 21.372715 14.789386 31.478101 0.877508 1.081697 0.058150 0.001428 1468630.000000 0 0 1
19.027851 21.671915 14.241286 32.164348 0.850272 1.112115 0.069593 0.001535 135743.000000 0 0 1
20.050551 21.092915 15.061886 32.768828 0.810728 1.093206 0.058901 -0.003124 130058.000000 0 0 1
21.449351 21.556515 14.633586 33.747591 0.787890 1.122292 0.066524 -0.005841 -73770.800000 0 0 1
21.940051 20.954915 13.412286 33.171731 0.762436 1.154551 0.072508 -0.011291 479831.000000 0 0 1
23.251251 21.453215 13.150686 34.260789 0.745199 1.176844 0.066784 -0.013405 437888.000000 0 0 1
23.919051 21.043715 11.807286 33.976036 0.721536 1.215873 0.060278 -0.012862 -155374.000000 0 0 1
23.587051 21.654015 10.594386 33.726642 0.742697 1.251261 0.064247 -0.012768 -108847.000000 0 0 1
24.352351 21.306815 9.473486 33.715936 0.718795 1.285982 0.073328 -0.021497 -551320.000000 0 0 1
24.087051 22.251115 8.299386 33.825700 0.745798 1.322908 0.068179 -0.027080 -94812.600000 0 0 1
24.404851 23.603915 8.580286 35.019465 0.768717 1.323261 0.053437 -0.024480 1381470.000000 0 0 1
25.816451 23.896315 8.422586 36.172683 0.746793 1.335795 0.035973 -0.027688 658106.000000 0 0 1
26.400951 24.993315 9.291986 37.523553 0.758016 1.320562 0.048316 -0.028537 -1164730.000000 0 0 1
27.726011 25.205915 8.965686 38.528605 0.737824 1.335941 0.027889 -0.024373 -752434.000000 0 0 1
28.333541 26.125815 9.834386 39.775155 0.744881 1.320956 0.031434 -0.019112 -98992.600000 0 0 1
29.628481 26.689215 9.219786 40.928787 0.733255 1.343582 0.036188 -0.027688 -133694.000000 0 0 1
29.395621 27.615215 8.177286 41.153016 0.754179 1.370761 0.045146 -0.026907 422020.000000 0 0 1
30.630581 28.011915 7.599586 42.197792 0.740773 1.389714 0.051356 -0.021437 -119600.000000 0 0 1
30.441931 28.961415 6.394586 42.501359 0.760480 1.419767 0.066315 -0.013700 25274.300000 0 0 1
30.146401 30.285315 6.740086 43.260081 0.787697 1.414355 0.075568 -0.017930 94658.600000 0 0 1
30.107161 31.121515 5.611186 43.663203 0.801963 1.441929 0.077662 0.000248 123337.000000 0 0 1
30.379031 32.644615 5.838486 44.973819 0.821331 1.440609 0.043013 -0.002951 576182.000000 0 0 1
29.171911 33.308815 6.214486 44.711267 0.851513 1.431353 0.048617 -0.018559 529057.000000 0 0 1
29.270221 -33.954519 6.222886 45.259027 -0.859353 1.432864 0.045734 -0.015089 -320030.000000 0 0 1
27.980271 -33.341619 6.773086 44.050356 -0.872606 1.416426 0.077593 -0.029175 -128162.000000 0 0 1
26.940451 -33.362819 5.840986 43.277971 -0.891499 1.435419 0.071068 -0.032171 -774338.000000 0 0 1
25.728951 -32.818519 6.291286 42.173622 -0.905902 1.421062 0.060838 -0.037533 65393.700000 0 0 1
24.592451 -33.032419 5.273886 41.517987 -0.930828 1.443426 0.069116 -0.036695 -108404.000000 0 0 1
24.911551 -32.409819 4.025586 41.075383 -0.915471 1.472634 0.056990 -0.021430 -250193.000000 0 0 1
23.837951 -32.523619 3.109986 40.443859 -0.938302 1.493824 0.061311 -0.021257 -31962.800000 0 0 1
24.128851 -31.809019 1.755086 39.963677 -0.921843 1.526865 0.057287 -0.007510 -162592.000000 0 0 1
24.307551 -30.399419 1.965986 38.972386 -0.896296 1.520329 0.065900 -0.002183 -262250.000000 0 0 1
25.140251 -29.871819 0.997686 39.055770 -0.871197 1.545248 0.052984 -0.000791 -790150.000000 0 0 1
25.328851 -28.340819 1.339986 38.033516 -0.841460 1.535557 0.040440 0.005372 475317.000000 0 0 1
24.253251 -27.373419 1.229286 36.592833 -0.845762 1.537196 0.037748 0.002458 220478.000000 0 0 1
23.758051 -27.269519 -0.092814 36.167393 -0.854105 1.573363 0.033407 0.006606 18264.600000 0 0 1
22.570751 -26.246719 -0.189114 34.617407 -0.860557 1.576259 0.023482 0.011670 104809.000000 0 0 1
22.786251 -24.852619 -0.038814 33.717465 -0.828747 1.571947 0.022511 -0.000673 -303965.000000 0 0 1
22.862551 -24.370619 1.314486 33.441758 -0.817315 1.531479 0.015505 0.006156 -342799.000000 0 0 1
21.556051 -24.338219 2.096786 32.579269 -0.845945 1.506392 0.019067 0.002946 -462468.000000 0 0 1
21.640251 -23.515319 3.259186 32.123092 -0.826899 1.469162 0.018991 0.000783 -522352.000000 0 0 1
20.389051 -23.237419 3.824686 31.149948 -0.850596 1.447703 0.018141 -0.000513 -225211.000000 0 0 1
20.447351 -22.513219 5.256586 30.863748 -0.833449 1.399646 0.013736 -0.003537 -90416.900000 0 0 1
20.755051 -21.148019 5.348186 30.110031 -0.794776 1.392227 0.030198 -0.003615 -38913.000000 0 0 1
19.647551 -20.345519 4.983486 28.719359 -0.802849 1.396390 0.024675 -0.007049 -308259.000000 0 0 1
19.626051 -18.861919 5.531986 27.776911 -0.765547 1.370298 0.029102 -0.003784 54764.300000 0 0 1
19.177851 -18.696419 6.888086 27.654869 -0.772688 1.319073 0.042478 -0.014761 584858.000000 0 0 1
17.759651 -18.820519 7.020886 26.812497 -0.814391 1.305856 0.040690 -0.005440 445309.000000 0 0 1
18.590870 -26.269405 -12.194714 34.415303 -0.954921 1.933004 0.101559 -0.026275 55807.500000 0 0 1
18.948270 -24.972885 -12.577614 33.776889 -0.921716 1.952361 0.105943 -0.026629 610128.000000 0 0 1
17.804770 -24.297685 -13.149614 32.867912 -0.938410 1.982394 0.076637 -0.022699 764407.000000 0 0 1
18.128270 -22.814785 -13.409614 32.077505 -0.899366 2.002081 0.075548 -0.027603 149004.000000 0 0 1
18.227870 -21.950885 -12.285214 31.064820 -0.877796 1.977376 0.080781 -0.025264 -1107100.000000 0 0 1
19.417870 -22.006985 -11.602614 31.559178 -0.847818 1.947273 0.076227 -0.029423 -1699440.000000 0 0 1
19.384470 -22.677285 -10.185914 31.524114 -0.863524 1.899816 0.075433 -0.019943 -239481.000000 0 0 1
18.479470 -22.150985 -9.241014 30.291142 -0.875517 1.880812 0.073836 -0.015815 231549.000000 0 0 1
17.122970 -22.488385 -9.506814 29.821185 -0.920030 1.895253 0.072980 -0.003717 76754.300000 0 0 1
16.152370 -21.791285 -8.494614 28.423891 -0.932931 1.874289 0.068256 -0.005907 -480878.000000 0 0 1
16.069670 -20.412485 -8.647414 27.380314 -0.903880 1.892123 0.059209 -0.016512 195493.000000 0 0 1
15.182370 -19.748085 -7.761114 26.090728 -0.915370 1.872834 0.050350 -0.021459 1063150.000000 0 0 1
13.639970 -19.895285 -8.015414 25.418851 -0.969808 1.891604 0.044605 0.000313 603585.000000 0 0 1
13.058170 -21.129685 -7.773514 26.027041 -1.017246 1.874096 0.041831 0.000035 -272480.000000 0 0 1
11.698370 -21.241785 -8.146714 25.581912 -1.067397 1.894897 0.039243 -0.002751 674258.000000 0 0 1
11.095870 -22.706485 -7.915514 26.483167 -1.116258 1.874324 0.036880 0.000403 346578.000000 0 0 1
11.379070 -23.117085 -6.579914 26.592820 -1.113379 1.820825 0.040860 -0.001324 -174895.000000 0 0 1
10.601470 -24.175685 -6.145514 27.103915 -1.157532 1.799524 0.025243 -0.003275 -281315.000000 0 0 1
10.971370 -24.612485 -4.746314 27.361887 -1.151470 1.745143 0.045063 -0.010127 -79792.400000 0 0 1
10.300770 -25.757615 -4.246614 28.064111 -1.190366 1.722698 0.055785 -0.007602 -57587.700000 0 0 1
10.854570 -26.142135 -2.983514 28.462857 -1.177244 1.675811 0.050528 -0.014082 15184.600000 0 0 1
9.885470 -27.022035 -2.131814 28.852340 -1.220089 1.644751 0.057943 -0.010694 41023.000000 0 0 1
8.804870 -26.339725 -1.582314 27.817450 -1.248193 1.627709 0.032191 -0.002873 -762269.000000 0 0 1
8.207470 -27.123555 -0.592114 28.344318 -1.276960 1.591688 0.036207 -0.008323 56707.700000 0 0 1
7.510770 -26.267205 0.510586 27.324685 -1.292291 1.552109 0.043705 -0.001649 -525608.000000 0 0 1
6.228470 -25.888785 0.144286 26.627877 -1.334698 1.565378 0.047526 -0.006517 -806895.000000 0 0 1
5.597470 -25.307235 1.307686 25.951837 -1.353120 1.520386 0.053177 -0.008760 67405.100000 0 0 1
4.171170 -24.828385 1.010186 25.196583 -1.404351 1.530693 0.053135 -0.014921 257872.000000 0 0 1
3.222170 -25.846795 0.743986 26.057488 -1.446772 1.542241 0.050343 -0.014480 141218.000000 0 0 1
1.894770 -25.379425 0.639286 25.458084 -1.496277 1.545682 0.040746 -0.010584 768712.000000 0 0 1
0.749770 -26.318635 0.118586 26.329579 -1.542316 1.566292 0.043329 -0.007951 769860.000000 0 0 1
0.300670 -27.232685 1.081286 27.255801 -1.559756 1.531114 0.041400 -0.005641 -178595.000000 0 0 1
0.864270 -28.482485 0.790386 28.506554 -1.540462 1.543066 0.041426 -0.009972 150969.000000 0 0 1
0.267870 -29.544825 1.762086 29.598537 -1.561730 1.511228 0.040672 -0.010115 503834.000000 0 0 1
0.781970 -29.384785 3.094486 29.557620 -1.544191 1.465911 0.044985 -0.004795 -80365.400000 0 0 1
0.383870 -30.490335 3.769486 30.724858 -1.558207 1.447801 0.041389 0.001006 -94073.800000 0 0 1
0.591470 -30.525315 5.274886 30.983368 -1.551422 1.399714 0.053217 -0.005152 88008.700000 0 0 1
1.949170 -30.479925 5.683086 31.066421 -1.506934 1.386827 0.037337 0.005334 92790.100000 0 0 1
1.933370 -30.438595 7.085086 31.312049 -1.507364 1.342546 0.048415 0.002817 10956.900000 0 0 1
3.281570 -30.900635 7.658886 32.004319 -1.464995 1.329143 0.042089 0.001794 24406.700000 0 0 1
3.542370 -32.193895 7.238386 33.187188 -1.461205 1.350921 0.036066 -0.002680 -1234290.000000 0 0 1
4.735770 -32.618665 7.754386 33.860527 -1.426618 1.339736 0.021142 0.001799 -935126.000000 0 0 1
4.962270 -34.171874 7.589686 35.354553 -1.426589 1.354439 0.026233 0.008578 -207799.000000 0 0 1
5.243170 34.001785 6.301386 34.975987 1.417799 1.389644 0.012065 0.002627 67366.300000 0 0 1
4.934470 32.601370 6.154086 33.542079 1.420579 1.386277 0.002255 0.000241 -569671.000000 0 0 1
5.239470 32.183350 4.714486 32.946114 1.409412 1.427207 0.004231 -0.005109 -828418.000000 0 0 1
6.546370 32.327340 4.286086 33.260824 1.370996 1.441574 0.013981 -0.006700 -1101910.000000 0 0 1
7.204070 31.084780 4.458986 32.218701 1.343061 1.431953 0.003852 -0.001391 646879.000000 0 0 1
8.663770 31.056410 3.852086 32.471527 1.298744 1.451887 -0.014428 0.005521 257349.000000 0 0 1
9.585670 31.811820 4.526786 33.531608 1.278125 1.435382 -0.012257 -0.002210 -1099900.000000 0 0 1
10.856070 31.518000 3.981486 33.572173 1.239083 1.451922 -0.004800 -0.001855 -463338.000000 0 0 1
11.938270 31.942430 4.980086 34.462188 1.213128 1.425780 0.001687 -0.007059 -348792.000000 0 0 1
12.213370 31.006220 5.973886 33.856157 1.195559 1.393419 0.010969 -0.008300 -570333.000000 0 0 1
13.420370 31.354250 6.576086 34.733848 1.166367 1.380319 0.033447 -0.010473 -390599.000000 0 0 1
14.039170 30.326070 7.490186 34.247214 1.137233 1.350305 0.045092 -0.015133 65385.800000 0 0 1
13.382170 30.150810 8.750986 34.128193 1.153076 1.311485 0.030192 -0.014811 255025.000000 0 0 1
14.073470 29.127520 9.422886 33.693705 1.120705 1.287353 0.036582 -0.015737 224619.000000 0 0 1
13.836170 29.153590 10.897186 34.060535 1.127678 1.245135 0.024721 -0.012884 -10002.500000 0 0 1
14.579570 30.136000 11.538886 35.410284 1.120199 1.238872 0.043056 -0.018876 -131841.000000 0 0 1
14.101470 30.207850 12.831486 35.721320 1.134048 1.203374 0.042248 -0.016381 28699.500000 0 0 1
14.985170 31.116110 13.718486 37.161330 1.121986 1.192691 0.039852 -0.015846 1085410.000000 0 0 1
16.274070 30.613200 14.118086 37.434392 1.082187 1.184088 0.044300 -0.017064 544178.000000 0 0 1
16.816770 31.404290 15.103586 38.693042 1.079159 1.169791 0.042418 -0.009909 -76578.800000 0 0 1
18.094070 30.796360 15.770486 39.045094 1.039590 1.155015 0.050626 -0.016732 29730.500000 0 0 1
19.194870 30.747440 14.927186 39.200370 1.012718 1.180144 0.037345 -0.005282 -561663.000000 0 0 1
19.410070 29.396480 14.590286 38.128471 0.987224 1.178121 0.031450 0.002476 -391830.000000 0 0 1
20.845970 29.140900 14.103686 38.505330 0.949842 1.195790 0.059426 -0.004049 -391231.000000 0 0 1
21.811870 29.279160 15.088886 39.505713 0.930527 1.178900 0.065099 -0.007831 -17815.600000 0 0 1
23.132670 29.241550 14.533686 40.017705 0.901513 1.199116 0.062554 -0.001541 1372000.000000 0 0 1
24.267970 29.332770 15.654386 41.163158 0.879610 1.180675 0.056083 -0.002372 680227.000000 0 0 1
24.393270 28.137550 16.492086 40.727659 0.856556 1.153888 0.054942 0.001265 5574.100000 0 0 1
25.179470 28.287590 17.670486 41.790424 0.843464 1.134224 0.033863 0.001817 -251314.000000 0 0 1
26.042370 27.057130 18.048086 41.665654 0.804506 1.122795 0.013920 0.000437 -494932.000000 0 0 1
25.525670 25.864920 18.506786 40.780572 0.791999 1.099756 0.029355 -0.001412 -499634.000000 0 0 1
25.136070 25.907480 19.848986 41.194682 0.800510 1.068050 0.041056 -0.007542 -325148.000000 0 0 1
24.780570 24.469710 20.229186 40.274847 0.779086 1.044565 0.049802 -0.012147 26978.100000 0 0 1
25.873870 23.551550 20.227286 40.413807 0.738446 1.046615 0.055353 -0.012318 56337.800000 0 0 1
25.467970 22.220950 20.532586 39.547126 0.717416 1.024890 0.057452 -0.011482 688724.000000 0 0 1
26.669270 21.205550 20.627086 39.829662 0.671765 1.026422 0.045281 -0.006936 600250.000000 0 0 1
26.144970 19.873850 20.660086 38.799079 0.649959 1.009258 0.029597 0.004649 557664.000000 0 0 1
27.106170 18.819050 20.823786 39.019625 0.606871 1.007856 0.040441 -0.000800 320602.000000 0 0 1
27.618270 18.513750 22.273486 40.020444 0.590544 0.980566 0.039280 -0.000654 -368454.000000 0 0 1
26.704570 17.813950 23.053086 39.521079 0.588285 0.947997 0.041965 0.006807 -167641.000000 0 0 1
27.160670 17.543850 24.352686 40.478908 0.573508 0.925276 0.045603 0.005500 -216443.000000 0 0 1
26.107070 16.884450 25.267486 40.063819 0.574079 0.888366 0.019388 0.001622 -62154.600000 0 0 1
25.718070 15.641450 24.763586 38.978318 0.546419 0.882377 0.025200 0.005527 641936.000000 0 0 1
24.578270 15.157750 25.479986 38.510757 0.552618 0.847802 0.029138 -0.001251 408236.000000 0 0 1
24.027870 13.762150 24.992486 37.300934 0.520148 0.836556 0.027782 -0.001097 119584.000000 0 0 1
22.747170 13.459850 25.520286 36.740799 0.534306 0.802928 0.015320 -0.006457 340886.000000 0 0 1
22.199270 12.460150 24.661986 35.443991 0.511467 0.801261 0.032466 -0.009707 -717325.000000 0 0 1
20.978870 11.694250 25.143686 34.771733 0.508530 0.762506 0.031810 -0.014259 -839070.000000 0 0 1
19.852470 12.492050 24.926086 34.226914 0.561645 0.755017 0.040285 -0.017546 -688535.000000 0 0 1
18.678570 11.725650 25.059086 33.381696 0.560581 0.721700 0.046012 -0.020833 54768.300000 0 0 1
17.383570 12.560450 25.179286 33.074913 0.625699 0.705511 0.043980 -0.030030 45344.900000 0 0 1
17.477970 13.295850 26.400786 34.340364 0.650327 0.693838 0.061255 -0.018945 -307197.000000 0 0 1
16.393670 14.154450 26.497286 34.222902 0.712228 0.685258 0.079598 -0.025617 -723521.000000 0 0 1
16.055770 14.423450 27.993686 35.347845 0.731894 0.656802 0.055385 -0.012828 -161093.000000 0 0 1
15.456370 13.289050 28.602386 35.122567 0.710143 0.619172 0.067568 -0.008418 49385.100000 0 0 1
15.451870 13.332550 30.052486 36.327250 0.711903 0.596563 0.050217 -0.008155 -739489.000000 0 0 1
16.787570 13.006550 30.743586 37.365237 0.659168 0.604501 0.048691 -0.000034 -202518.000000 0 0 1
17.678370 14.087250 30.589586 38.035486 0.672826 0.636404 0.058728 -0.008465 448962.000000 0 0 1
19.031570 13.654050 30.447386 38.414542 0.622336 0.655734 0.048992 0.000654 -46165.400000 0 0 1
20.036070 14.750950 30.158786 39.097148 0.634623 0.689788 0.040947 -0.003344 -630848.000000 0 0 1
19.897470 15.459750 28.916786 38.354839 0.660540 0.716776 0.058163 -0.011340 225765.000000 0 0 1
20.127570 14.689950 27.717786 37.271831 0.630475 0.732259 0.052959 -0.007178 -583675.000000 0 0 1
20.010170 15.417650 26.392086 36.532904 0.656487 0.763501 0.055910 -0.013075 -928967.000000 0 0 1
21.069770 16.242550 26.057086 37.238789 0.656739 0.795777 0.058663 -0.005689 -417627.000000 0 0 1
20.845170 16.957250 24.893886 36.630247 0.682910 0.823580 0.054044 -0.011832 154864.000000 0 0 1
22.150370 17.559650 24.274886 37.259231 0.670303 0.861219 0.049569 -0.007325 155779.000000 0 0 1
21.914770 18.200750 23.050186 36.644720 0.693078 0.890507 0.046615 -0.014936 419291.000000 0 0 1
23.090570 18.787250 22.475686 37.300022 0.682999 0.924085 0.036821 -0.005578 450846.000000 0 0 1
23.333770 20.226450 22.994486 38.500916 0.714185 0.930734 0.051189 -0.014359 -128695.000000 0 0 1
22.293970 21.132650 22.677086 38.181936 0.758662 0.934871 0.061886 -0.015107 200491.000000 0 0 1
22.387970 22.301850 23.452286 39.352299 0.783471 0.932339 0.065331 -0.017731 -460696.000000 0 0 1
21.450570 23.360350 22.932986 39.137639 0.827991 0.944735 0.063277 -0.020602 -431444.000000 0 0 1
21.815270 23.981200 21.727486 39.026755 0.832658 0.980348 0.069680 -0.018663 -369708.000000 0 0 1
20.897570 24.984540 21.433286 38.991299 0.874239 0.988798 0.057824 -0.018896 -630371.000000 0 0 1
21.351670 26.066660 20.444986 39.412714 0.884506 1.025419 0.059940 -0.016314 -537832.000000 0 0 1
21.367470 25.507590 19.172486 38.402997 0.873492 1.048070 0.057788 -0.019054 107285.000000 0 0 1
21.740770 26.414500 18.158686 38.731444 0.882151 1.082824 0.055501 -0.019643 -186890.000000 0 0 1
21.686370 25.688600 16.796986 37.581133 0.869678 1.107440 0.044540 0.001503 -452014.000000 0 0 1
20.396270 25.615640 16.261186 36.559472 0.898351 1.109860 0.038843 0.000766 -369714.000000 0 0 1
20.508870 25.407350 14.868886 35.878001 0.891679 1.143481 0.043589 0.002009 321566.000000 0 0 1
19.187670 24.987260 14.140386 34.532309 0.915938 1.148909 0.048997 0.005108 1520260.000000 0 0 1
18.104770 25.912230 13.834786 34.505473 0.960946 1.158248 0.046390 0.011728 800966.000000 0 0 1
17.344670 26.279860 14.988486 34.872960 0.987424 1.126522 0.050586 0.006887 -839088.000000 0 0 1
15.897170 26.731490 14.570486 34.345184 1.034284 1.132678 0.031782 0.008046 86451.100000 0 0 1
15.001270 25.715030 14.245786 33.003686 1.042698 1.124484 0.036059 0.004611 -223446.000000 0 0 1
14.842370 24.645170 15.181386 32.529292 1.028730 1.085242 0.044604 -0.009372 -1226260.000000 0 0 1
13.966370 24.984770 16.410486 32.993973 1.061073 1.050222 0.054528 -0.014874 -503677.000000 0 0 1
14.489470 26.006660 17.180986 34.372626 1.062484 1.047376 0.047325 -0.010515 16840.800000 0 0 1
13.562570 26.439760 18.158586 34.824395 1.096834 1.022267 0.045433 -0.015810 -45306.500000 0 0 1
14.010070 27.734670 18.736586 36.284344 1.103040 1.028176 0.059983 -0.023847 -341218.000000 0 0 1
14.032070 28.814120 17.794486 36.657826 1.117614 1.063951 0.054252 -0.023718 205184.000000 0 0 1
14.605470 29.877420 18.544186 38.077117 1.116111 1.062126 0.050985 -0.026721 -56874.200000 0 0 1
14.331270 31.270540 17.887386 38.771001 1.141062 1.091269 0.042091 -0.028377 -1196430.000000 0 0 1
13.078470 31.743990 18.149586 38.834711 1.179990 1.084500 0.037723 -0.024680 -1184370.000000 0 0 1
12.890670 32.982567 17.474586 39.488989 1.198218 1.112392 0.026753 -0.015885 -20314.600000 0 0 1
11.581870 33.768355 17.766486 39.875927 1.240389 1.109014 0.045820 -0.022632 -272723.000000 0 0 1
11.278870 -33.712985 17.161586 39.475287 -1.247946 1.121044 0.049572 -0.011083 -709775.000000 0 0 1
12.120770 -32.629435 17.331586 38.884148 -1.215126 1.108814 0.038600 -0.015854 -616431.000000 0 0 1
12.212470 -32.053755 18.731486 39.082684 -1.206776 1.070964 0.047445 -0.018023 -453550.000000 0 0 1
12.949770 -32.884145 19.567186 40.397256 -1.195646 1.065154 0.050503 -0.016750 -104609.000000 0 0 1
12.772770 -32.600815 20.965686 40.810743 -1.197385 1.031270 0.037096 -0.018734 -417963.000000 0 0 1
13.694570 -33.450515 21.870486 42.246850 -1.182215 1.026655 0.041661 -0.016248 686769.000000 0 0 1
15.044770 -33.010575 21.607986 42.224971 -1.143166 1.033594 0.045350 -0.011994 487485.000000 0 0 1
15.928670 -33.577915 22.576186 43.484285 -1.127854 1.024905 0.046938 -0.018055 318493.000000 0 0 1
17.292770 -32.852145 22.517186 43.420352 -1.086267 1.025600 0.063996 -0.012355 105621.000000 0 0 1
17.135270 -31.507815 23.087386 42.654276 -1.072693 0.998852 0.051762 -0.006511 367454.000000 0 0 1
18.202470 -30.667965 22.674986 42.261199 -1.035145 1.004460 0.060302 -0.008661 10363.700000 0 0 1
-4.665030 13.435415 18.509067 23.342203 -1.236601 0.655170 0.005084 0.013562 -219148.000000 0 1 0
-4.600330 14.349715 17.430867 23.041538 -1.260561 0.712855 0.006709 -0.004758 344858.000000 0 1 0
-5.823030 15.052815 17.266267 23.635120 -1.201686 0.751692 0.003483 -0.007311 -94826.400000 0 1 0
-5.585930 16.591915 17.083867 24.461251 -1.246050 0.797629 0.011813 -0.015137 24313.600000 0 1 0
-5.107730 17.240215 18.267467 25.632290 -1.282767 0.777494 0.016402 0.000941 174583.000000 0 0 1
-4.753030 18.562815 18.063467 26.333595 -1.320131 0.814891 0.022365 -0.001547 -750484.000000 0 0 1
-4.110830 19.074915 19.358267 27.486248 -1.358533 0.789375 0.023887 -0.004308 -558602.000000 0 0 1
-4.869530 19.042815 20.552667 28.438587 -1.320446 0.763090 0.002318 -0.005950 176683.000000 0 0 1
-4.152730 19.652915 21.642167 29.527371 -1.362556 0.748144 0.008384 -0.003041 525078.000000 0 0 1
-5.132430 20.061015 22.798967 30.799011 -1.320328 0.737354 -0.008293 -0.002160 190420.000000 0 0 1
-5.665330 19.020715 23.551187 30.798409 -1.281313 0.700239 -0.003909 -0.004377 -435271.000000 0 0 1
-6.621230 19.523615 24.432907 31.968409 -1.243829 0.700868 -0.008301 -0.009777 -35981.900000 0 0 1
-5.977630 20.179815 25.700527 33.218581 -1.282813 0.686168 -0.008716 -0.011671 70741.600000 0 0 1
-5.381730 21.454715 25.374447 33.662002 -1.325026 0.716969 -0.009018 -0.010284 563293.000000 0 0 1
-4.485130 21.905715 26.423467 34.614684 -1.368841 0.702298 0.002949 0.000302 2054280.000000 0 0 1
-2.946030 21.554015 26.158647 34.022485 -1.434957 0.693734 0.021633 0.003193 1250500.000000 0 0 1
-2.581530 20.205715 26.363957 33.316564 -1.443722 0.657837 0.029785 0.006484 683670.000000 0 0 1
-1.226430 20.007015 25.931857 32.775692 -1.509573 0.658041 0.028049 0.010259 696016.000000 0 0 1
-0.510530 18.780715 26.498637 32.483129 -1.543619 0.616744 0.027634 0.021737 -479264.000000 0 0 1
-1.033730 17.557215 26.053247 31.433996 -1.511986 0.593794 0.032662 0.009534 -40996.500000 0 0 1
-0.321430 16.374615 26.442127 31.103335 -1.551169 0.554549 0.027939 0.006983 1036760.000000 0 0 1
1.171670 16.185415 25.964697 30.618719 1.498532 0.558595 0.025406 0.014860 546475.000000 0 0 1
1.410370 15.664915 24.662337 29.250805 1.481005 0.567712 0.018221 0.016126 -195798.000000 0 0 1
1.478770 14.256015 24.679667 28.539564 1.467436 0.526138 0.036242 0.018536 -64307.100000 0 0 1
1.583170 13.690615 23.234067 27.014093 1.455669 0.535385 0.032932 0.017245 -136578.000000 0 0 1
2.799770 14.086215 22.665367 26.832425 1.374594 0.564791 0.019399 0.006630 -494949.000000 0 0 1
2.982870 13.266715 21.577667 25.504881 1.349635 0.562319 0.019197 0.000380 -523909.000000 0 0 1
4.427470 13.238315 21.111367 25.308996 1.248047 0.584216 0.019775 -0.002087 -648638.000000 0 0 1
4.834070 14.370615 20.413367 25.428102 1.246301 0.638840 0.011822 0.009614 -450158.000000 0 0 1
6.222270 14.382215 20.232467 25.591356 1.162475 0.659012 0.030745 0.005820 -644612.000000 0 0 1
6.770670 15.406015 19.280667 25.591627 1.156723 0.717583 0.043991 -0.008094 -291587.000000 0 0 1
6.495770 15.008615 17.962167 24.291830 1.162335 0.738569 0.040325 -0.023212 264100.000000 0 1 0
6.879470 16.125715 17.160967 24.532929 1.167559 0.796088 0.043080 -0.010917 25571.600000 0 1 0
6.736970 15.764415 15.667467 23.224407 1.166934 0.830357 0.038735 -0.012530 65807.400000 0 1 0
7.693970 14.892715 15.080467 22.547963 1.093936 0.838180 0.032008 -0.016181 167780.000000 0 1 0
7.747670 13.530715 15.497567 21.983658 1.050769 0.788432 0.026055 -0.021732 -461918.000000 0 1 0
8.889570 13.019915 14.634067 21.510429 0.971730 0.822591 0.026685 -0.028099 249565.000000 0 1 0
10.207070 13.366615 15.089767 22.595392 0.918633 0.839514 0.031129 -0.030659 231081.000000 0 1 0
11.174670 12.829815 14.253767 22.195659 0.854241 0.873448 0.034393 -0.023553 350858.000000 0 1 0
12.573070 13.521715 14.436867 23.438046 0.821736 0.907194 0.037867 -0.010058 54783.200000 0 1 0
13.201670 13.238515 15.714667 24.423209 0.786792 0.871824 0.038285 -0.019401 920670.000000 0 1 0
14.555570 13.674915 15.825467 25.481627 0.754213 0.900710 0.040681 -0.017735 1270190.000000 0 0 1
15.646470 13.081015 14.836067 25.219712 0.696331 0.941875 0.045652 -0.022056 -1319280.000000 0 0 1
16.926570 13.495415 15.136067 26.414684 0.673087 0.960614 0.045706 -0.029605 -689704.000000 0 0 1
17.805770 12.974615 14.156667 26.187732 0.629713 0.999665 0.046423 -0.026154 -214213.000000 0 0 1
19.189470 13.655515 14.116867 27.458966 0.618479 1.030829 0.040338 -0.026657 107537.000000 0 0 1
19.962070 13.317215 15.248067 28.431250 0.588321 1.004733 0.030622 -0.028254 -115518.000000 0 0 1
21.302770 13.734815 15.156667 29.532655 0.572671 1.031867 0.052220 -0.025819 234673.000000 0 0 1
22.165470 13.413915 16.433467 30.680613 0.544214 1.005542 0.058252 -0.022119 100532.000000 0 0 1
22.496570 12.068915 16.667667 30.488777 0.492402 0.992400 0.054317 -0.020103 969651.000000 0 0 1
23.420570 11.808015 17.758967 31.675436 0.466980 0.975621 0.045136 -0.019931 311283.000000 0 0 1
23.613270 10.294915 17.796967 31.309804 0.411134 0.966218 0.054291 -0.014781 169341.000000 0 0 1
22.528970 9.523715 18.354267 30.579973 0.399948 0.927038 0.040105 -0.018933 874548.000000 0 0 1
22.577970 8.169915 18.021767 30.021598 0.347195 0.926928 0.034257 -0.009255 672261.000000 0 0 1
21.230870 7.454815 18.445667 29.095820 0.337682 0.884130 0.056229 -0.006150 771842.000000 0 0 1
21.126770 6.137915 17.959267 28.399818 0.282744 0.886184 0.065058 -0.009046 98078.700000 0 0 1
19.900270 5.599915 18.390067 27.669014 0.274305 0.843778 0.059040 -0.007202 -471152.000000 0 0 1
19.550570 4.184015 17.976567 26.886571 0.210830 0.838462 0.067332 -0.000647 -650017.000000 0 0 1
19.125870 4.131515 16.600167 25.659966 0.212748 0.867247 0.067588 -0.008733 517781.000000 0 0 1
18.818370 2.841015 16.102767 24.929932 0.149839 0.868567 0.053307 -0.016794 97587.000000 0 1 0
17.714770 1.927515 16.721567 24.436432 0.108382 0.817169 0.059695 -0.006240 -216552.000000 0 1 0
18.102870 1.158115 17.854867 25.452925 0.063887 0.793316 0.064336 -0.014607 -56849.700000 0 0 1
17.074770 0.410615 18.480167 25.164120 0.024043 0.746035 0.053157 -0.010192 -340132.000000 0 0 1
17.545570 -0.483885 19.686267 26.374804 -0.027572 0.728154 0.058470 -0.013061 -145921.000000 0 0 1
18.252070 -1.647985 19.342567 26.645615 -0.090046 0.758426 0.066218 -0.007847 56188.200000 0 0 1
17.440570 -2.764585 19.643167 26.413451 -0.157207 0.732237 0.052347 -0.004573 111877.000000 0 0 1
17.702070 -4.014685 18.772967 26.113316 -0.223019 0.768572 0.044630 0.000361 93997.100000 0 0 1
17.000770 -3.990685 17.523367 24.739041 -0.230561 0.783669 0.036279 -0.005630 490157.000000 0 1 0
17.066870 -5.195285 16.827567 24.524193 -0.295496 0.814597 0.050172 -0.010234 -264360.000000 0 1 0
16.609070 -4.953585 15.369767 23.165253 -0.289847 0.845331 0.030084 -0.017829 806859.000000 0 1 0
15.202470 -4.673085 15.157467 21.970471 -0.298223 0.809443 0.013538 -0.019898 1152210.000000 0 1 0
14.900970 -4.482685 13.787767 20.790283 -0.292220 0.845733 0.012548 -0.021059 91782.400000 0 1 0
15.478770 -3.179385 13.171367 20.571478 -0.202585 0.875942 0.018568 -0.021122 -254612.000000 0 1 0
14.850170 -2.030385 13.644867 20.269001 -0.135882 0.832284 0.019815 -0.008597 362949.000000 0 1 0
15.445170 -0.854985 13.041767 20.232942 -0.055300 0.870321 0.025501 -0.012621 257089.000000 0 1 0
14.518270 0.373415 13.243967 19.655082 0.025715 0.831431 0.024609 -0.002859 -519546.000000 0 1 0
14.929170 1.623215 12.794067 19.728231 0.108302 0.865163 0.030861 -0.000981 255834.000000 0 1 0
15.834470 2.302915 13.719067 21.077160 0.144424 0.862030 0.045493 -0.003613 203612.000000 0 1 0
16.121170 3.656815 13.061267 21.068012 0.223059 0.902108 0.048385 -0.006438 -247302.000000 0 1 0
14.965270 4.444015 12.911267 20.258563 0.288661 0.879776 0.039236 -0.013828 256088.000000 0 1 0
15.273970 5.665815 12.361767 20.450157 0.355212 0.921680 0.052360 -0.011572 -196575.000000 0 1 0
14.130270 6.663315 12.576767 20.055906 0.440640 0.892990 0.047464 -0.013452 -421947.000000 0 1 0
14.389270 7.889615 11.920067 20.282631 0.501536 0.942585 0.037486 -0.020229 184179.000000 0 1 0
13.559470 8.950315 12.338067 20.400864 0.583428 0.921305 0.033299 -0.002130 -381035.000000 0 1 0
13.797970 9.604915 13.763267 21.727077 0.608111 0.884778 0.053295 -0.008929 -37336.700000 0 1 0
13.268670 8.916315 14.914667 21.863338 0.591674 0.820060 0.045838 -0.019440 681226.000000 0 1 0
13.505070 9.721515 16.065967 23.130285 0.623919 0.802952 0.051392 -0.020143 -539883.000000 0 1 0
13.031970 9.147915 17.385567 23.574871 0.612040 0.741492 0.056696 -0.025899 -1393490.000000 0 1 0
11.667670 9.213215 17.518267 22.976238 0.668390 0.703703 0.025644 -0.033581 -1097960.000000 0 1 0
11.100670 8.580915 18.679967 23.362323 0.658065 0.644206 0.039266 -0.026024 237060.000000 0 1 0
11.622670 9.045815 20.129567 24.942187 0.661363 0.631659 0.058048 -0.020481 67635.300000 0 1 0
12.920370 8.536015 20.420467 25.628012 0.583835 0.648811 0.076200 -0.025471 208189.000000 0 0 1
13.382970 8.941415 21.695367 27.013732 0.589007 0.638277 0.077290 -0.021966 -843818.000000 0 0 1
14.876170 8.660515 21.672167 27.676484 0.527209 0.671236 0.080405 -0.022907 -1068990.000000 0 0 1
15.615770 9.604915 20.993167 27.871486 0.551433 0.717863 0.068078 -0.020209 -135129.000000 0 0 1
16.770970 8.949915 20.480167 27.942864 0.490208 0.748177 0.064311 -0.026532 91864.100000 0 0 1
17.683070 9.748715 19.533767 28.094420 0.503842 0.801973 0.057105 -0.019119 -114262.000000 0 0 1
18.428270 10.755915 20.166267 29.359311 0.528321 0.813612 0.057399 -0.023086 102569.000000 0 0 1
19.262070 11.499015 19.302767 29.594788 0.538194 0.860267 0.058344 -0.019484 148310.000000 0 0 1
20.441370 12.152615 20.044667 31.101838 0.536374 0.870447 0.049634 -0.019373 -535876.000000 0 0 1
19.913470 13.193815 20.880767 31.727425 0.585152 0.852464 0.043557 -0.018922 544457.000000 0 0 1
20.794770 13.845315 21.807967 33.161765 0.587408 0.853136 0.040368 -0.009682 276759.000000 0 0 1
21.933270 14.690415 21.126767 33.811491 0.590153 0.895870 0.027883 -0.010050 919390.000000 0 0 1
23.114670 13.959015 20.729067 34.041685 0.543284 0.916083 0.001483 -0.000115 1090290.000000 0 0 1
24.241370 14.801015 20.983567 35.313229 0.548154 0.934510 0.006254 0.000850 1142710.000000 0 0 1
25.691970 14.195215 20.947067 36.060520 0.504773 0.950979 0.008267 0.001183 631192.000000 0 0 1
26.060370 13.734215 19.691667 35.433505 0.485026 0.981549 0.018680 -0.002769 -145655.000000 0 0 1
27.209670 12.954815 19.923967 36.126968 0.444354 0.986637 0.023580 -0.006207 -147854.000000 0 0 1
27.625170 12.243315 18.572567 35.468141 0.417180 1.019677 0.035834 -0.013172 -132418.000000 0 0 1
28.163770 13.018415 17.502367 35.623166 0.432986 1.057192 0.042160 -0.014414 260923.000000 0 0 1
28.315570 12.277015 16.308767 34.906625 0.409114 1.084662 0.052410 -0.022546 308917.000000 0 0 1
26.998270 11.743315 15.628867 33.332769 0.410281 1.082781 0.054993 -0.033442 453084.000000 0 0 1
26.392770 12.751715 14.876367 32.870821 0.450078 1.101150 0.066071 -0.028588 489280.000000 0 0 1
25.180270 12.352915 14.227567 31.449391 0.456083 1.101347 0.069073 -0.025763 594794.000000 0 0 1
24.756770 13.354515 13.066267 31.015610 0.494691 1.135940 0.068658 -0.022975 191492.000000 0 0 1
24.122970 14.580715 13.474167 31.242089 0.543673 1.124883 0.056369 -0.025979 448408.000000 0 0 1
23.760770 15.391115 12.371967 30.895407 0.574794 1.158792 0.053320 -0.025137 -68812.000000 0 0 1
22.918370 16.598015 12.869267 31.086393 0.626799 1.143970 0.049147 -0.014714 1130020.000000 0 0 1
21.531370 16.266115 13.192667 30.037191 0.646987 1.116076 0.056853 -0.017900 1453210.000000 0 0 1
20.843170 17.483715 13.418467 30.334358 0.697969 1.112577 0.048976 -0.014124 -672100.000000 0 0 1
20.210870 18.307715 12.208767 29.878181 0.736030 1.149857 0.065191 -0.010456 1382130.000000 0 0 1
18.983670 17.780915 11.592967 28.476965 0.752695 1.151520 0.051353 -0.015134 1678040.000000 0 0 1
17.864770 17.645015 12.449967 28.026742 0.779210 1.110496 0.031320 -0.006190 -1719270.000000 0 0 1
16.694070 16.971815 11.861767 26.597669 0.793648 1.108538 0.033975 -0.002545 -1611050.000000 0 0 1
16.774870 15.626015 11.521667 25.657697 0.749956 1.105091 0.043331 -0.008258 1329460.000000 0 0 1
15.462570 15.166015 11.073267 24.325220 0.775716 1.098180 0.038764 -0.013560 1444390.000000 0 1 0
15.584070 13.793815 10.335067 23.236742 0.724535 1.109876 0.044843 -0.016619 -230005.000000 0 1 0
15.773970 12.771115 11.230667 23.195849 0.680587 1.065385 0.049415 -0.012907 338204.000000 0 1 0
16.209370 11.637315 10.525367 22.560012 0.622663 1.085410 0.052594 0.003324 -289906.000000 0 1 0
16.930070 10.645215 11.421267 23.030267 0.561310 1.051898 0.067645 0.003512 -1236090.000000 0 1 0
17.457970 9.601415 10.635967 22.585209 0.502823 1.080456 0.063433 0.001000 139639.000000 0 1 0
17.963670 8.533915 11.402567 22.924652 0.443502 1.050205 0.067144 0.003539 1346240.000000 0 1 0
19.312570 8.823515 12.224367 24.500305 0.428560 1.048412 0.064792 -0.007874 447231.000000 0 1 0
19.134270 9.700115 13.312267 25.247356 0.469192 1.015408 0.057651 -0.013887 -285093.000000 0 0 1
20.126470 9.551515 14.266367 26.454403 0.443101 1.001213 0.062585 -0.012444 -1602720.000000 0 0 1
19.613870 9.821915 15.703967 26.977555 0.464258 0.949472 0.050550 -0.014403 97809.400000 0 0 1
18.848670 8.853915 16.432567 26.527221 0.439145 0.902741 0.058754 -0.015685 741997.000000 0 0 1
17.592870 8.650915 15.804667 25.182035 0.457009 0.892308 0.062832 -0.019099 -854178.000000 0 0 1
16.830070 7.385115 16.139967 24.459961 0.413505 0.850174 0.051652 -0.005204 -719886.000000 0 1 0
16.334970 7.363815 17.455667 25.015142 0.423520 0.798469 0.075778 -0.013195 189739.000000 0 0 1
15.918270 6.043015 17.860567 24.676086 0.362822 0.761502 0.081182 0.004227 37784.900000 0 1 0
14.562970 5.536615 17.319667 23.296031 0.363308 0.732567 0.085037 -0.018410 -449847.000000 0 1 0
14.240170 4.223315 17.669067 23.082781 0.288314 0.699032 0.094043 -0.010627 110466.000000 0 1 0
13.306870 3.723215 16.732167 21.700243 0.272820 0.690294 0.052022 -0.007144 51326.400000 0 1 0
12.896870 2.251915 16.961367 21.426347 0.172867 0.657353 0.026682 -0.003324 241903.000000 0 1 0
14.070670 1.439915 16.860267 22.007401 0.101980 0.698017 0.030627 -0.003408 601313.000000 0 1 0
13.888970 0.022515 16.658967 21.689287 0.001621 0.694969 0.022056 -0.000210 -424789.000000 0 1 0
13.220970 -0.788085 17.831867 22.212397 -0.059538 0.638838 0.021561 0.001196 1025020.000000 0 1 0
11.835970 -0.450385 18.000967 21.548268 -0.038034 0.581975 0.013269 0.015412 520978.000000 0 1 0
11.087770 -1.506485 18.552867 21.666033 -0.135042 0.542712 0.006725 0.003187 -51320.300000 0 1 0
-25.290870 14.177615 28.706437 40.800642 -0.510932 0.790376 0.072121 -0.002533 -419515.000000 0 0 1
-24.347130 14.331915 29.729657 41.012669 -0.532031 0.759922 0.072054 -0.002476 821438.000000 0 0 1
-23.539030 13.124315 29.918357 40.267129 -0.508625 0.733259 0.056619 0.003076 335493.000000 0 0 1
-22.462830 13.193615 31.005117 40.496512 -0.531068 0.698785 0.076638 -0.015594 -402718.000000 0 0 1
-22.963730 13.227815 32.329767 41.803371 -0.522609 0.686645 0.065635 -0.017528 221160.000000 0 0 1
-21.944830 13.109215 33.312294 41.989714 -0.538485 0.654514 0.057824 -0.017805 34678.400000 0 0 1
-22.510030 13.280915 -33.710234 42.655176 -0.533034 2.482089 0.060054 -0.019069 147400.000000 0 0 1
-23.280930 12.231915 -33.175624 42.334896 -0.483764 2.471312 0.034771 -0.010414 106665.000000 0 0 1
-23.801530 12.524215 -31.900204 41.725194 -0.484382 2.441110 0.026732 -0.018649 213075.000000 0 0 1
-24.707230 11.423815 -31.242534 41.437262 -0.433091 2.424884 0.014844 -0.018609 105949.000000 0 0 1
-24.040830 10.321115 -30.651744 40.299086 -0.405521 2.435043 0.009576 -0.022319 38483.700000 0 0 1
-23.656330 9.330715 -31.580604 40.546501 -0.375694 2.463664 0.006507 -0.016273 243337.000000 0 0 1
-22.767030 8.274915 -30.823874 39.203610 -0.348616 2.475514 0.007847 -0.005192 175316.000000 0 0 1
-23.465830 7.425315 -29.942604 38.760031 -0.306462 2.453585 0.008296 -0.004832 402551.000000 0 0 1
-22.531330 6.613215 -29.243864 37.504653 -0.285494 2.465046 0.002453 0.000688 238638.000000 0 0 1
-23.194730 5.753515 -28.146504 36.923219 -0.243145 2.437653 -0.000490 0.002425 -125649.000000 0 0 1
-24.023430 4.709615 -28.567044 37.621558 -0.193587 2.433074 0.011839 -0.002861 -148354.000000 0 0 1
-24.495030 4.019215 -27.469284 37.023265 -0.162634 2.406765 0.042661 -0.000547 -673634.000000 0 0 1
-25.229150 2.717415 -27.815444 37.650940 -0.107296 2.402042 0.060778 -0.003293 -574729.000000 0 0 1
-26.536060 2.758415 -28.274594 38.874464 -0.103578 2.385221 0.067943 -0.006224 -565836.000000 0 0 1
-26.672410 3.285415 -29.621914 39.995865 -0.122559 2.404796 0.059770 -0.003915 -1394000.000000 0 0 1
-28.063880 3.189415 -30.202924 41.351787 -0.113163 2.389689 0.077163 -0.002423 -1144530.000000 0 0 1
-28.974410 3.905115 -29.441224 41.491590 -0.133971 2.359685 0.069194 -0.001312 1441150.000000 0 0 1
-30.295510 4.112915 -30.074324 42.885883 -0.134935 2.347965 0.072546 0.004191 1985650.000000 0 0 1
-30.482790 5.530915 -30.607284 43.549941 -0.179491 2.350135 0.066078 -0.014908 -574373.000000 0 0 1
-29.605280 5.787915 -31.687844 43.750337 -0.193068 2.380798 0.072178 -0.007132 290566.000000 0 0 1
-29.653680 7.145115 -32.176464 44.336421 -0.236445 2.382898 0.058085 -0.008993 -382759.000000 0 0 1
-29.109010 8.349615 -31.295764 43.548540 -0.279340 2.372642 0.048920 -0.020915 -529808.000000 0 0 1
-27.729200 8.407315 -31.066254 42.481803 -0.294384 2.390999 -0.001789 -0.025800 -154108.000000 0 0 1
-27.280110 7.600515 -29.978644 41.239439 -0.271719 2.384653 0.000918 -0.021858 -565898.000000 0 0 1
-27.389230 8.276915 -28.597614 40.453687 -0.293470 2.355934 0.001102 -0.017689 451423.000000 0 0 1
-28.727950 8.553515 -28.173944 41.136709 -0.289384 2.325243 0.004670 -0.019618 766457.000000 0 0 1
-29.413720 7.492615 -27.509594 40.964423 -0.249427 2.307093 0.015686 -0.016576 280775.000000 0 0 1
-30.840930 7.874315 -27.006254 41.743329 -0.249980 2.274387 0.026571 -0.022543 450814.000000 0 0 1
-30.838710 8.560015 -25.732324 41.066439 -0.270757 2.247982 -0.000153 -0.015613 -33432.800000 0 0 1
-30.708670 7.686615 -24.602414 40.092209 -0.245268 2.231466 -0.002736 -0.017299 -76068.300000 0 0 1
-30.308890 8.521415 -23.332214 39.187186 -0.274077 2.208565 -0.004856 -0.013472 -470114.000000 0 0 1
-31.179840 9.598715 -23.050014 39.945224 -0.298643 2.185897 -0.006323 -0.012021 -129029.000000 0 0 1
-30.518320 10.631615 -22.402514 39.322662 -0.335220 2.176949 -0.001607 -0.015836 -144409.000000 0 0 1
-31.407590 11.636515 -21.555514 39.830709 -0.354820 2.142634 -0.009510 -0.005912 78455.400000 0 0 1
-31.821800 11.047715 -20.320914 39.339783 -0.334155 2.113612 -0.012275 -0.014322 155888.000000 0 0 1
-32.382610 11.800515 -19.275314 39.489534 -0.349453 2.080722 -0.007496 -0.006404 46843.400000 0 0 1
-31.370440 12.671915 -18.463614 38.543313 -0.383902 2.070352 -0.003542 -0.010076 167545.000000 0 0 1
-30.812720 12.063715 -17.300714 37.339947 -0.373172 2.052545 0.011688 -0.007960 320493.000000 0 0 1
-31.739180 11.909015 -16.233214 37.586133 -0.358959 2.017388 0.008179 -0.007439 152095.000000 0 0 1
-32.252160 13.157215 -15.438714 38.100761 -0.387340 1.988002 0.008849 -0.005557 224821.000000 0 0 1
-33.093370 14.061115 -16.171214 39.425807 -0.401779 1.993435 0.003928 -0.008069 483580.000000 0 0 1
-33.828810 14.893415 -15.316214 40.009856 -0.414723 1.963634 0.006419 -0.005139 188282.000000 0 0 1
-34.621282 16.077315 -15.971814 41.378884 -0.434745 1.967076 0.007775 -0.008271 850631.000000 0 0 1
-35.744440 15.644015 -16.768714 42.468694 -0.412547 1.976700 0.004789 -0.010600 819559.000000 0 0 1
35.566871 16.763115 -17.128314 42.888035 0.440435 1.981629 0.004547 -0.014351 -523311.000000 0 0 1
35.100601 16.688915 -18.577014 43.077576 0.443823 2.016669 0.006588 -0.012164 162112.000000 0 0 1
34.116531 15.716515 -18.926414 42.061333 0.431693 2.037530 0.032041 -0.013900 -287056.000000 0 0 1
32.805581 16.111415 -18.747714 41.076278 0.456517 2.044755 0.054824 -0.022100 -1276270.000000 0 0 1
31.820111 14.978915 -19.103714 40.022984 0.439965 2.068397 0.070113 -0.024388 -250002.000000 0 0 1
31.680641 14.666415 -20.486914 40.478147 0.433567 2.101480 0.070415 -0.022005 268004.000000 0 0 1
30.826801 13.560915 -20.727914 39.545373 0.414429 2.122519 0.047183 -0.020660 -123395.000000 0 0 1
31.322181 12.140815 -20.340514 39.271045 0.369781 2.115251 0.042226 -0.006982 -78555.800000 0 0 1
31.477611 11.827615 -18.955814 38.601235 0.359425 2.084111 0.052034 -0.011587 36674.800000 0 0 1
32.332011 10.742415 -18.693714 38.861464 0.320778 2.072631 0.047909 -0.006783 -226448.000000 0 0 1
32.443851 10.409915 -17.195814 38.166292 0.310482 2.038177 0.045430 -0.005148 -725094.000000 0 0 1
31.224641 10.102015 -16.593714 36.774723 0.312899 2.038935 0.054085 -0.009966 -267083.000000 0 0 1
31.390981 9.851615 -15.212814 36.247451 0.304101 2.003904 0.040082 -0.006888 -115723.000000 0 0 1
30.872351 11.021715 -14.360914 35.788492 0.342905 1.983701 0.050934 -0.013680 -386846.000000 0 0 1
29.465581 11.123615 -14.455214 34.654127 0.360971 2.001080 0.038477 -0.009237 216942.000000 0 0 1
29.030041 12.121315 -13.514614 34.239077 0.395538 1.976552 0.050420 -0.010360 -387138.000000 0 0 1
27.515971 12.355315 -13.530014 33.058188 0.422041 1.992460 0.062460 -0.006050 -560931.000000 0 0 1
26.837851 11.310815 -12.850414 31.832969 0.398860 1.986335 0.055486 -0.011900 276951.000000 0 0 1
25.440751 11.197815 -13.047214 30.705906 0.414635 2.009658 0.055865 -0.008036 -36295.000000 0 0 1
25.092551 10.389915 -14.309914 30.697884 0.392571 2.055734 0.054850 -0.014693 -925759.000000 0 0 1
25.481951 9.030315 -14.286014 30.577224 0.340572 2.056930 0.050279 -0.012356 514461.000000 0 0 1
26.842551 8.852015 -14.641814 31.831799 0.318545 2.048763 0.050571 -0.018069 -302425.000000 0 0 1
27.535681 7.638715 -13.980914 31.812414 0.270607 2.025816 0.052321 -0.014130 -248277.000000 0 0 1
27.126961 6.259215 -14.249614 31.274611 0.226769 2.043875 0.047946 -0.020165 429627.000000 0 0 1
26.071951 5.760315 -13.447914 29.896058 0.217446 2.037363 0.062480 -0.020641 -150841.000000 0 0 1
25.858251 4.278415 -13.570114 29.514437 0.163971 2.048542 0.059103 -0.016616 -81059.700000 0 0 1
25.004351 3.798015 -12.549614 28.233585 0.150742 2.031404 0.052738 -0.019378 338936.000000 0 0 1
24.530551 2.473715 -12.757914 27.760252 0.100502 2.048313 0.041450 -0.024016 -252680.000000 0 0 1
23.733451 1.879915 -11.587214 26.477808 0.079044 2.023746 0.028146 -0.014489 -298019.000000 0 0 1
24.354051 1.833015 -10.333114 26.518918 0.075124 1.971049 0.030122 -0.007152 620265.000000 0 0 1
23.386451 2.177915 -9.344814 25.278350 0.092859 1.949457 0.022830 0.003782 63775.900000 0 0 1
23.866351 1.680315 -7.966314 25.216827 0.070289 1.892215 0.015114 0.013976 -108162.000000 0 0 1
23.936051 0.267815 -7.776614 25.169068 0.011188 1.884911 0.001882 0.007478 349002.000000 0 0 1
25.118551 -0.376985 -8.185614 26.421355 -0.015007 1.885790 0.018568 -0.001164 -578478.000000 0 0 1
25.195251 -1.963585 -8.095314 26.536587 -0.077777 1.880800 0.036975 -0.011543 -476322.000000 0 0 1
25.806051 -2.321885 -6.867214 26.804889 -0.089733 1.829878 0.049106 -0.013146 558996.000000 0 0 1
26.082551 -3.687985 -6.727814 27.187574 -0.140465 1.820853 0.053821 -0.011826 -690456.000000 0 0 1
27.104621 -4.048385 -5.651714 27.981990 -0.148265 1.774172 0.058253 -0.015845 -750964.000000 0 0 1
28.391281 -3.806785 -6.144014 29.296849 -0.133288 1.782081 0.065117 -0.016370 -307265.000000 0 0 1
29.371001 -4.488485 -5.395914 30.197982 -0.151647 1.750446 0.082091 -0.012531 -393419.000000 0 0 1
30.679291 -4.649485 -6.184014 31.639827 -0.150407 1.767513 0.087627 -0.021181 -632748.000000 0 0 1
30.674431 -5.603685 -7.240014 32.011558 -0.180690 1.798939 0.064618 -0.020747 556741.000000 0 0 1
31.644701 -5.374485 -8.281514 33.148992 -0.168233 1.823298 0.062093 -0.040038 -368548.000000 0 0 1
31.559801 -6.362985 -9.536014 33.577436 -0.198950 1.858760 0.056526 -0.039139 114862.000000 0 0 1
30.350371 -6.252685 -10.264214 32.643456 -0.203174 1.890657 0.069340 -0.034293 889105.000000 0 0 1
29.249281 -6.934785 -9.609614 31.558776 -0.232794 1.880209 0.069947 -0.030488 867787.000000 0 0 1
27.936531 -6.060185 -9.518914 30.129476 -0.213617 1.892237 0.058568 -0.023318 -334062.000000 0 0 1
27.293471 -5.809185 -10.759914 29.907456 -0.209712 1.938822 0.033988 -0.019331 569856.000000 0 0 1
26.042851 -5.163185 -10.566914 28.575308 -0.195719 1.949581 0.043233 -0.010096 269658.000000 0 0 1
24.843151 -6.055685 -10.225514 27.539329 -0.239094 1.951211 0.062735 0.000704 -1285000.000000 0 0 1
24.883551 -6.629885 -8.895414 27.244722 -0.260387 1.903395 0.057657 -0.003212 1198580.000000 0 0 1
23.650751 -7.160885 -8.342814 26.081389 -0.294002 1.896395 0.060517 -0.009090 729321.000000 0 0 1
22.669551 -6.085885 -7.754814 24.720107 -0.262277 1.889889 0.076111 -0.004001 321725.000000 0 1 0
21.957151 -5.201285 -8.648014 24.165223 -0.232596 1.936782 0.057454 0.001679 804737.000000 0 1 0
21.610351 -3.940285 -8.172514 23.437643 -0.180352 1.926971 0.042261 -0.000408 -181343.000000 0 1 0
21.527051 -2.929685 -9.353314 23.653361 -0.135262 1.977335 0.042585 0.006450 -290582.000000 0 1 0
22.690751 -3.001785 -10.141914 25.034762 -0.131527 1.987899 0.031347 -0.001713 431590.000000 0 0 1
22.551451 -2.197185 -11.269314 25.305988 -0.097123 2.032330 0.035237 -0.000802 -353404.000000 0 0 1
23.788551 -2.093785 -12.183714 26.808991 -0.087790 2.042566 0.032350 -0.014377 -415780.000000 0 0 1
24.838151 -1.387085 -11.593614 27.445758 -0.055787 2.006909 0.032156 -0.019196 427235.000000 0 0 1
26.079751 -1.592585 -12.256314 28.860128 -0.060990 2.009405 0.035711 -0.021433 -143678.000000 0 0 1
27.092801 -0.506585 -11.937414 29.610443 -0.018696 1.985751 0.032949 -0.018692 910054.000000 0 0 1
28.382071 -0.671485 -12.626314 31.071155 -0.023654 1.989272 0.049931 -0.025697 1451250.000000 0 0 1
29.323911 0.294915 -12.294614 31.798369 0.010057 1.967785 0.062268 -0.025442 -273718.000000 0 0 1
29.328901 1.554515 -13.219714 32.208101 0.052953 1.993740 0.069972 -0.027114 -341315.000000 0 0 1
29.578431 1.275815 -14.570514 32.997139 0.043107 2.028143 0.061375 -0.025497 462952.000000 0 0 1
29.340791 2.346615 -15.415014 33.226665 0.079808 2.053228 0.060487 -0.022491 -136765.000000 0 0 1
29.717851 2.040215 -16.863614 34.230025 0.068545 2.085935 0.065728 -0.030123 -193394.000000 0 0 1
28.765881 1.242415 -17.497614 33.692522 0.043164 2.116866 0.056545 -0.020411 -149924.000000 0 0 1
29.143191 1.062115 -18.835814 34.716589 0.036429 2.144277 0.041167 -0.015531 -955971.000000 0 0 1
28.154151 0.395515 -19.720714 34.376143 0.014047 2.181781 0.034294 -0.009878 -1033650.000000 0 0 1
27.873951 -0.952085 -19.376014 33.960176 -0.034144 2.177973 0.047484 -0.006535 343516.000000 0 0 1
27.200011 -1.558285 -20.470814 34.078191 -0.057227 2.215174 0.022390 -0.008872 -136191.000000 0 0 1
27.041751 -3.101685 -20.514014 34.083743 -0.114201 2.216638 0.032934 -0.012305 86893.300000 0 0 1
25.973351 -3.558385 -19.679014 32.780187 -0.136154 2.214713 0.044584 -0.011074 458386.000000 0 0 1
25.872651 -4.931385 -19.509714 32.777150 -0.188343 2.208339 0.049932 -0.012972 112432.000000 0 0 1
26.729051 -5.551785 -18.319014 32.876295 -0.204794 2.161819 0.049077 -0.017540 1795200.000000 0 0 1
28.158801 -5.425485 -18.604414 34.183010 -0.190342 2.146302 0.052553 -0.020018 1129770.000000 0 0 1
28.828941 -5.912785 -17.487414 34.232711 -0.202294 2.106957 0.049317 -0.021325 371570.000000 0 0 1
30.367621 -5.618885 -17.600614 35.546391 -0.182960 2.088798 0.070675 -0.018407 567229.000000 0 0 1
31.034931 -6.430785 -18.545314 36.721256 -0.204320 2.100212 0.065047 -0.024276 1003790.000000 0 0 1
32.369291 -5.898485 -18.775814 37.882639 -0.180247 2.089358 0.067432 -0.018296 1036760.000000 0 0 1
33.215581 -6.954685 -19.515014 39.146880 -0.206398 2.092673 0.063176 -0.017804 -265856.000000 0 0 1
33.545391 -8.046285 -18.678814 39.229250 -0.235415 2.067062 0.065213 -0.015567 295029.000000 0 0 1
34.345801 -9.019685 -19.350614 40.440512 -0.256815 2.069737 0.053145 -0.002104 77523.900000 0 0 1
35.129431 -9.901185 -18.323914 40.839640 -0.274722 2.036084 0.048470 -0.008351 -547142.000000 0 0 1
34.329061 -10.817985 -17.609814 40.070173 -0.305276 2.025810 0.049201 -0.013051 142947.000000 0 0 1
34.971901 -11.682685 -16.690014 40.473146 -0.322404 1.995853 0.057517 -0.014568 134215.000000 0 0 1
35.848731 -11.027385 -15.504014 40.584593 -0.298423 1.962774 0.063360 -0.012446 416462.000000 0 0 1
-35.658487 -11.750885 -14.412514 40.216061 0.318332 1.937325 0.051828 -0.010374 794222.000000 0 0 1
-34.798827 -12.822385 -14.777514 39.921759 0.353035 1.949980 0.037663 -0.013101 763099.000000 0 0 1
-33.325350 -12.550785 -15.248114 38.737658 0.360185 1.975368 0.025955 -0.008303 356648.000000 0 0 1
-33.378910 -12.015085 -16.572014 39.155402 0.345520 2.007811 0.036733 -0.005143 -313390.000000 0 0 1
-32.077850 -11.911485 -17.071614 38.240187 0.355550 2.033569 0.025590 -0.000891 -487968.000000 0 0 1
-31.740710 -10.974185 -18.276014 38.235037 0.332879 2.069163 0.042270 0.000804 143294.000000 0 0 1
-31.873190 -9.592185 -17.998514 37.839883 0.292327 2.066498 0.059600 -0.003184 329889.000000 0 0 1
-33.239630 -9.203185 -17.974614 38.892909 0.270107 2.051222 0.057629 -0.014707 -82954.700000 0 0 1
-33.474920 -7.692985 -17.711014 38.644952 0.225891 2.046879 0.072080 -0.018858 -1485790.000000 0 0 1
-34.781567 -7.314185 -17.675114 39.694639 0.207269 2.032280 0.078015 -0.021269 -1280810.000000 0 0 1
-34.922884 -5.961085 -17.297114 39.425024 0.169063 2.024986 0.085730 -0.024196 -45927.300000 0 0 1
24.641470 27.361415 -27.274854 45.823212 0.837654 2.208335 0.025096 0.018329 8219.770000 0 0 1
25.166270 26.698715 -26.162214 45.062445 0.814936 2.190233 0.022430 0.009066 -461116.000000 0 0 1
26.277670 25.963115 -26.573044 45.505230 0.779377 2.194390 0.016636 0.000598 -311922.000000 0 0 1
26.891670 25.040015 -25.458264 44.702209 0.749758 2.176703 0.017742 -0.009352 42892.900000 0 0 1
27.586770 25.783915 -24.466414 44.993839 0.751631 2.145722 0.035904 -0.003874 187736.000000 0 0 1
27.943170 24.879115 -23.443114 44.151678 0.727456 2.130538 0.044244 -0.005225 -59974.300000 0 0 1
28.350270 25.689315 -22.213714 44.239437 0.736197 2.096850 0.052978 -0.004722 -190470.000000 0 0 1
27.285770 26.405115 -21.659214 43.713441 0.768997 2.089186 0.056737 -0.007870 -429641.000000 0 0 1
27.740370 27.287715 -20.685214 44.068419 0.777172 2.059395 0.040278 -0.009933 -369951.000000 0 0 1
26.712670 28.117115 -19.915814 43.597919 0.811007 2.045198 0.046759 0.001998 -288088.000000 0 0 1
25.915870 27.413915 -18.979514 42.230049 0.813481 2.036925 0.061961 -0.007513 -325703.000000 0 0 1
25.200470 28.419015 -18.336614 42.177429 0.845352 2.020556 0.051750 -0.004176 -336092.000000 0 0 1
24.222170 27.903715 -17.262714 40.783969 0.855909 2.007850 0.050610 -0.005101 -106611.000000 0 0 1
23.163770 27.135615 -17.764914 39.855916 0.864199 2.032784 0.058182 -0.003934 -475329.000000 0 0 1
22.091570 27.041515 -16.854514 38.773130 0.885805 2.020497 0.032030 0.011370 56667.400000 0 0 1
21.009070 26.118615 -17.473914 37.800803 0.893396 2.051342 0.017222 0.006113 -356298.000000 0 0 1
20.537870 26.579415 -18.694214 38.441424 0.912926 2.078651 0.013790 0.008389 -140383.000000 0 0 1
19.746470 25.571615 -19.314014 37.641224 0.913236 2.109598 0.011075 0.013472 46954.300000 0 0 1
19.054570 26.041415 -20.628214 38.298239 0.939109 2.139595 0.003936 0.017373 331258.000000 0 0 1
18.024870 26.979615 -20.429614 38.342727 0.981807 2.132721 -0.004017 0.022929 -34670.600000 0 0 1
16.901870 26.806715 -21.287414 38.176265 1.008245 2.162298 0.000028 0.011383 -148801.000000 0 0 1
15.853270 27.857915 -21.038814 38.340857 1.053426 2.151642 0.009992 0.012681 -537018.000000 0 0 1
15.340670 27.744615 -19.727414 37.339934 1.065711 2.127416 0.014379 0.016702 57322.300000 0 0 1
14.251270 28.592115 -19.389214 37.370434 1.108403 2.116288 0.014490 0.007285 455765.000000 0 0 1
13.808270 28.568515 -17.882214 36.422547 1.120566 2.083994 0.017291 0.010308 -22300.900000 0 0 1
13.064970 27.396815 -17.572314 35.072284 1.125816 2.095586 0.018012 0.014392 -187317.000000 0 0 1
12.623670 27.445315 -16.234814 34.295358 1.139693 2.063923 0.031583 0.012285 199815.000000 0 0 1
11.640170 26.291415 -15.926314 32.869127 1.153999 2.076630 0.038642 0.004971 31130.600000 0 0 1
12.305370 25.095215 -15.793514 32.103380 1.114901 2.085134 0.029783 0.004045 -424602.000000 0 0 1
11.392070 24.041615 -15.863314 30.974558 1.128288 2.108471 0.046681 -0.003264 79761.600000 0 0 1
12.145970 22.727415 -16.065814 30.367258 1.079994 2.128278 0.037709 -0.004516 139346.000000 0 0 1
12.546570 22.576015 -17.394014 31.139117 1.063551 2.163482 0.036951 0.003716 -410697.000000 0 0 1
13.548570 21.576015 -17.500914 30.909063 1.010081 2.172693 0.040560 0.003309 -137145.000000 0 0 1
13.200370 20.054115 -17.646814 29.796432 0.988652 2.204640 0.051796 -0.003236 -54599.700000 0 0 1
12.596970 19.516815 -16.458414 28.468739 0.997632 2.187222 0.053080 -0.009553 95391.100000 0 0 1
12.087370 18.201115 -16.669914 27.482197 0.984572 2.222537 0.046128 -0.011407 194768.000000 0 0 1
13.164670 17.079915 -16.783714 27.326271 0.914135 2.232164 0.055644 -0.011561 -146206.000000 0 0 1
13.745070 16.726415 -15.564214 26.663546 0.882928 2.194107 0.061621 -0.015856 52084.000000 0 0 1
14.855770 15.879615 -15.852114 26.909953 0.818697 2.200716 0.066818 -0.012794 -735225.000000 0 0 1
15.373870 15.196715 -14.591614 26.080859 0.779603 2.164550 0.095685 -0.006105 -297768.000000 0 0 1
16.206970 15.975815 -13.687514 26.556366 0.778216 2.112287 0.067790 0.001928 971272.000000 0 0 1
17.414970 16.562915 -14.148814 27.889071 0.760327 2.102874 0.053130 0.001832 -262661.000000 0 0 1
18.496670 15.532115 -14.599214 28.222517 0.698499 2.114477 0.052246 -0.004418 -833361.000000 0 0 1
18.838770 14.465615 -13.676314 27.407934 0.654836 2.093230 0.070613 -0.006844 561455.000000 0 0 1
19.428270 14.958115 -12.462414 27.504811 0.656125 2.041035 0.061824 0.002748 -801567.000000 0 0 1
20.143070 13.794215 -11.780514 27.107271 0.600460 2.020378 0.068538 -0.004015 -616361.000000 0 0 1
19.362970 12.809915 -11.099614 25.733635 0.584464 2.016760 0.100998 -0.016467 227770.000000 0 0 1
20.125870 11.807415 -10.509714 25.591400 0.530567 1.993989 0.109194 -0.008358 -408130.000000 0 0 1
20.283570 10.614415 -11.425714 25.585855 0.482114 2.033717 0.086075 -0.010253 -565157.000000 0 0 1
21.303570 10.804515 -12.417014 26.921402 0.469367 2.050180 0.071878 -0.003531 977246.000000 0 0 1
21.729870 9.642815 -13.160514 27.172969 0.417651 2.076386 0.063109 -0.005421 -148606.000000 0 0 1
22.482070 8.562315 -12.355614 27.044739 0.363890 2.045256 0.063658 0.001553 -479103.000000 0 0 1
21.555470 7.923215 -11.507014 25.687098 0.352244 2.035288 0.061264 -0.007069 845545.000000 0 0 1
22.184170 6.835815 -10.857514 25.627161 0.298907 2.008292 0.056876 0.005001 -685528.000000 0 0 1
22.171670 5.496315 -11.650314 25.642196 0.242999 2.042429 0.045335 -0.000638 326668.000000 0 0 1
20.933770 4.784715 -11.716414 24.462023 0.224705 2.070270 0.031487 -0.008694 1286240.000000 0 1 0
19.939470 5.296215 -12.614514 24.181776 0.259620 2.119584 -0.002275 -0.021405 -441886.000000 0 1 0
19.016570 4.200415 -13.034914 23.434641 0.217391 2.160632 0.002214 -0.028474 -674598.000000 0 1 0
19.676670 3.316615 -13.913514 24.326059 0.166986 2.179689 0.006736 -0.021135 639745.000000 0 1 0
18.998570 2.058015 -13.993414 23.685369 0.107904 2.202851 0.015669 -0.014332 -260867.000000 0 1 0
19.797470 0.946115 -14.761414 24.713039 0.047753 2.210943 0.034649 -0.013852 911743.000000 0 1 0
20.975070 0.527815 -14.005514 25.226703 0.025159 2.159383 0.048261 -0.013032 2060360.000000 0 0 1
22.118570 0.138415 -14.800114 26.613787 0.006258 2.160491 0.036013 -0.020571 472411.000000 0 0 1
22.053970 -1.287185 -15.412814 26.936764 -0.058299 2.179964 0.035327 -0.017628 -504185.000000 0 0 1
21.029270 -1.567685 -16.332414 26.672749 -0.074410 2.229795 0.028099 -0.011915 210029.000000 0 0 1
21.524070 -2.604385 -17.146614 27.641902 -0.120413 2.239937 0.036358 -0.017568 -69133.100000 0 0 1
20.406370 -3.309485 -17.934714 27.368350 -0.160779 2.285387 0.029793 -0.016928 79953.500000 0 0 1
19.739470 -4.233885 -17.012914 26.400979 -0.211287 2.271041 0.040297 -0.018763 464704.000000 0 0 1
18.854370 -5.079285 -17.716814 26.366112 -0.263148 2.307640 0.042213 -0.016914 -238251.000000 0 0 1
18.233570 -6.129285 -16.815314 25.549677 -0.324287 2.289145 0.044241 -0.025164 -285119.000000 0 0 1
19.185370 -7.115485 -16.450114 26.254805 -0.355154 2.247923 0.049115 -0.018589 276637.000000 0 0 1
18.644270 -8.173585 -15.716614 25.718247 -0.413163 2.228255 0.048049 -0.011089 -22474.200000 0 0 1
19.606670 -9.361285 -15.326414 26.588609 -0.445449 2.185147 0.065623 -0.007074 97802.500000 0 0 1
20.212170 -9.942885 -16.456114 27.896173 -0.457167 2.201738 0.065940 -0.012128 138082.000000 0 0 1
21.165670 -10.842385 -15.968914 28.645228 -0.473410 2.162134 0.061654 -0.022867 -618503.000000 0 0 1
21.764270 -11.739085 -17.106714 30.068741 -0.494649 2.175989 0.053632 -0.017487 -118474.000000 0 0 1
22.711170 -11.078085 -17.921214 30.978881 -0.453825 2.187682 0.053838 -0.020227 120308.000000 0 0 1
23.119270 -11.878485 -19.028814 32.213270 -0.474620 2.202739 0.055805 -0.024364 -216950.000000 0 0 1
22.257070 -11.819485 -20.361014 32.398275 -0.488173 2.250368 0.066846 -0.028588 165650.000000 0 0 1
20.928070 -12.257085 -20.194014 31.559759 -0.529821 2.265120 0.062456 -0.029975 -85138.100000 0 0 1
20.620770 -13.627285 -20.139714 31.883022 -0.583967 2.254509 0.044773 -0.017446 -1005010.000000 0 0 1
19.107770 -13.757885 -20.031814 30.913748 -0.624033 2.275739 0.050585 -0.007152 -353854.000000 0 0 1
18.460570 -13.492285 -21.287314 31.240744 -0.631145 2.320464 0.052149 -0.004045 848648.000000 0 0 1
17.029270 -13.595685 -21.170414 30.381328 -0.673747 2.341755 0.050825 0.010055 908535.000000 0 0 1
16.314570 -13.112585 -22.451014 30.694512 -0.677014 2.391219 0.049997 0.005572 -566872.000000 0 0 1
16.511170 -13.995785 -23.555214 31.989823 -0.703131 2.398433 0.045405 0.008726 260746.000000 0 0 1
15.865770 -13.537485 -24.705114 32.331545 -0.706378 2.440469 0.053500 -0.001308 -191643.000000 0 0 1
16.079570 -14.486685 -25.877084 33.734849 -0.733333 2.445062 0.050994 -0.010611 120117.000000 0 0 1
15.121670 -15.561085 -25.896054 33.784876 -0.799718 2.444167 0.046124 -0.011515 394565.000000 0 0 1
15.193170 -16.421585 -27.033864 35.090321 -0.824234 2.450277 0.054048 -0.016106 157876.000000 0 0 1
16.307870 -17.535085 -27.120604 36.179455 -0.821644 2.418274 0.053686 -0.020796 694032.000000 0 0 1
17.635170 -17.014785 -27.052664 36.501352 -0.767496 2.405565 0.053422 -0.016236 417251.000000 0 0 1
18.515970 -18.126785 -27.255524 37.606981 -0.774777 2.381463 0.058907 -0.019394 257567.000000 0 0 1
20.026370 -17.835585 -27.141444 38.155229 -0.727600 2.362203 0.041520 -0.016339 -22039.900000 0 0 1
20.418370 -17.336785 -25.878774 37.244931 -0.703958 2.338975 0.043987 -0.016440 463396.000000 0 0 1
21.842870 -17.318985 -25.784114 37.972078 -0.670390 2.317234 0.050793 -0.014091 363402.000000 0 0 1
22.294270 -16.294485 -24.690714 37.042895 -0.631153 2.300359 0.045922 -0.011278 -100409.000000 0 0 1
21.872070 -14.970385 -24.729314 36.249673 -0.600215 2.321556 0.050875 -0.020257 -649144.000000 0 0 1
20.521770 -14.741985 -24.464714 35.170888 -0.622941 2.340045 0.066289 -0.013847 -554934.000000 0 0 1
20.362570 -13.406985 -23.810814 34.078385 -0.582267 2.344385 0.067094 -0.006599 -133252.000000 0 0 1
20.567970 -12.333385 -24.632114 34.378697 -0.540155 2.369559 0.083309 -0.024599 117509.000000 0 0 1
20.317270 -11.142685 -23.897914 33.287552 -0.501640 2.371611 0.080163 -0.026571 -30497.100000 0 0 1
20.615370 -9.833285 -24.600314 33.568771 -0.445069 2.393273 0.093395 -0.026110 -180743.000000 0 0 1
20.220870 -8.705185 -23.827014 32.440567 -0.406524 2.395699 0.086669 -0.025381 177395.000000 0 0 1
19.952770 -7.617285 -24.706814 32.658271 -0.364689 2.428780 0.068899 -0.018958 -126794.000000 0 0 1
19.363570 -6.360285 -23.998014 31.485008 -0.317364 2.437508 0.055128 -0.018576 626187.000000 0 0 1
18.032570 -6.608685 -23.520414 30.365410 -0.351286 2.456846 0.058459 -0.021402 425081.000000 0 0 1
17.592370 -5.720585 -22.547314 29.165012 -0.314389 2.454502 0.041232 -0.015135 -414375.000000 0 0 1
18.315670 -5.711585 -21.172114 28.571741 -0.302285 2.405378 0.043129 -0.021451 -368565.000000 0 0 1
18.161170 -6.809485 -20.254514 28.043582 -0.358725 2.377848 0.049309 -0.022581 237686.000000 0 0 1
18.289270 -8.129485 -20.746714 28.827279 -0.418266 2.374152 0.060638 -0.015999 -169024.000000 0 0 1
17.884070 -9.135185 -19.611014 28.069261 -0.472250 2.344326 0.052050 -0.011986 -126783.000000 0 0 1
16.537970 -8.966585 -19.242714 26.910706 -0.496821 2.367503 0.043578 -0.010325 -539898.000000 0 0 1
16.157470 -10.145385 -18.533514 26.598567 -0.560687 2.341703 0.049847 -0.005094 948888.000000 0 0 1
14.600970 -10.255385 -18.230014 25.508717 -0.612319 2.366932 0.044797 0.000678 1426290.000000 0 0 1
14.051170 -9.389485 -17.219214 24.126730 -0.589088 2.365561 0.053953 -0.001608 175452.000000 0 1 0
14.159270 -7.990685 -17.532314 23.910625 -0.513788 2.393876 0.061359 -0.020497 -576025.000000 0 1 0
12.928970 -7.194985 -17.025014 22.556089 -0.507821 2.426124 0.056168 -0.005870 -408288.000000 0 1 0
11.776470 -7.604685 -17.684214 22.566521 -0.573383 2.471313 0.047582 -0.013764 -204008.000000 0 1 0
10.699370 -6.692585 -17.420714 21.511589 -0.558967 2.514657 0.025045 -0.005805 1589250.000000 0 1 0
9.317370 -6.988285 -18.154314 21.569159 -0.643519 2.571182 0.020182 0.006847 1261580.000000 0 1 0
9.278670 -6.600285 -19.463914 22.549976 -0.618296 2.612263 0.032021 -0.002867 -582162.000000 0 1 0
7.927870 -6.417085 -19.735214 22.215057 -0.680467 2.664581 0.030808 -0.004356 -560477.000000 0 1 0
7.439070 -6.046985 -21.110014 23.184876 -0.682538 2.715307 0.035736 -0.016054 -39743.100000 0 1 0
7.411870 -7.166085 -21.982514 24.280022 -0.768540 2.703057 0.034464 -0.015650 -12940.200000 0 1 0
6.816470 -6.890885 -23.209514 25.152139 -0.790827 2.745991 0.044167 -0.018180 -206350.000000 0 0 1
6.827770 -8.146085 -24.143914 26.380025 -0.873213 2.726886 0.043298 -0.017100 -204736.000000 0 0 1
6.016070 -9.191785 -23.661414 26.087248 -0.991261 2.706927 0.042791 -0.017781 88093.200000 0 0 1
5.938470 -10.224285 -24.608914 27.302015 -1.044599 2.693693 0.044248 -0.010406 93135.500000 0 0 1
4.987970 -11.373585 -24.197714 27.198669 -1.157499 2.667408 0.053025 -0.019510 -46490.700000 0 0 1
5.667570 -12.299885 -23.397414 27.034191 -1.139012 2.616894 0.042418 -0.016069 -340822.000000 0 0 1
4.992470 -13.527985 -23.234114 27.345112 -1.217254 2.586141 0.051030 -0.016372 -1122880.000000 0 0 1
5.717770 -14.732185 -22.634014 27.604868 -1.200578 2.532082 0.047520 -0.017951 -677060.000000 0 0 1
6.848470 -15.227285 -23.350014 28.705311 -1.148150 2.520836 0.057034 -0.021476 954179.000000 0 0 1
8.067470 -14.460185 -23.347314 28.623034 -1.061901 2.524705 0.067407 -0.023718 427658.000000 0 0 1
8.660670 -13.950185 -22.043714 27.487091 -1.015202 2.501375 0.051760 -0.011836 -833264.000000 0 0 1
9.236970 -14.985185 -21.216914 27.568729 -1.018400 2.449012 0.057881 -0.005525 156137.000000 0 0 1
8.283970 -15.527085 -20.346814 26.901809 -1.080696 2.428491 0.060696 -0.013666 -337304.000000 0 0 1
8.816470 -15.732785 -18.890214 26.116869 -1.060012 2.379359 0.058865 -0.006822 308748.000000 0 0 1
9.782270 -16.776385 -18.885214 27.088580 -1.042898 2.342232 0.067181 -0.004053 -330094.000000 0 0 1
10.222870 -17.238085 -17.628614 26.691322 -1.035510 2.292231 0.064030 -0.002950 313053.000000 0 0 1
9.181070 -17.978285 -16.689014 26.192250 -1.098645 2.261622 0.045489 -0.012273 73308.100000 0 0 1
8.707070 -19.319585 -16.825614 27.058468 -1.147372 2.241866 0.059949 -0.013144 110920.000000 0 0 1
7.870570 -19.598785 -17.927914 27.703218 -1.188925 2.274626 0.055129 -0.011161 -39564.700000 0 0 1
6.402070 -19.111785 -17.843714 26.919230 -1.247564 2.295430 0.056381 -0.004989 -260548.000000 0 0 1
6.229470 -17.710785 -17.815814 25.882067 -1.232578 2.330003 0.047127 -0.011078 -111433.000000 0 0 1
4.866370 -17.455185 -18.115514 25.622975 -1.298908 2.356047 0.027821 -0.007968 342825.000000 0 0 1
4.429870 -16.036685 -17.713914 24.301887 -1.301284 2.387526 0.010349 -0.000736 -10726.800000 0 1 0
4.322770 -15.943885 -16.261414 23.180323 -1.306037 2.348322 -0.009439 0.002016 107958.000000 0 1 0
4.404870 -14.604285 -15.840814 21.991348 -1.277859 2.375060 -0.002656 0.006498 -84312.200000 0 1 0
10.650170 30.186915 -18.062914 36.755201 1.231623 2.084537 0.039537 -0.015212 208533.000000 0 0 1
9.534870 29.825015 -18.896514 36.572169 1.261371 2.113778 0.054637 -0.017138 80977.900000 0 0 1
8.685170 28.902715 -18.254814 35.270914 1.278884 2.114793 0.056792 -0.019672 378619.000000 0 0 1
7.640870 28.429715 -19.340314 35.223278 1.308237 2.152057 0.053900 -0.019138 -48560.900000 0 0 1
6.706370 29.384115 -19.731414 36.024024 1.346409 2.150444 0.066992 -0.029925 -370769.000000 0 0 1
6.010370 28.844515 -20.868614 36.105812 1.365365 2.187053 0.047301 -0.024122 895461.000000 0 0 1
4.878670 29.793015 -21.426214 37.020370 1.408485 2.188014 0.048971 -0.029635 114478.000000 0 0 1
3.702770 29.962515 -20.708814 36.610351 1.447840 2.172023 0.047569 -0.021995 -554534.000000 0 0 1
2.839470 30.834715 -21.458014 37.673447 1.478969 2.176790 0.041616 -0.023197 -71087.700000 0 0 1
1.410170 30.750515 -20.788214 37.144752 1.524970 2.164765 0.036514 -0.016199 513596.000000 0 0 1
0.846670 29.472815 -20.926614 36.156422 1.542077 2.188028 0.046011 -0.030696 -187080.000000 0 0 1
0.525470 29.098315 -22.311414 36.671341 1.552740 2.224859 0.067891 -0.039682 -920318.000000 0 0 1
-0.024730 27.672815 -22.547214 35.695408 -1.569903 2.254484 0.071620 -0.032244 -36340.500000 0 0 1
-1.250530 27.513615 -21.882814 35.176987 -1.525376 2.242190 0.074486 -0.031289 -359991.000000 0 0 1
-1.797230 26.256115 -22.171014 34.411735 -1.502453 2.270886 0.088012 -0.043696 350774.000000 0 0 1
-2.948630 25.848115 -21.198614 33.558914 -1.457212 2.254519 0.065136 -0.034800 388834.000000 0 0 1
-4.131030 26.610515 -21.260814 34.310452 -1.416785 2.239106 0.068319 -0.031942 437543.000000 0 0 1
-5.116030 26.198315 -20.314714 33.544196 -1.377942 2.221329 0.055893 -0.031629 639430.000000 0 0 1
-6.388430 27.102115 -20.223414 34.413996 -1.339305 2.198949 0.066641 -0.045842 -304571.000000 0 0 1
-7.382230 26.375715 -19.604614 33.682585 -1.297892 2.192032 0.064492 -0.036579 -1047700.000000 0 0 1
-8.342130 27.305315 -19.111714 34.357372 -1.274289 2.160678 0.069960 -0.045754 688364.000000 0 0 1
-9.561930 26.654415 -18.370514 33.754468 -1.226359 2.146279 0.066896 -0.038836 162876.000000 0 0 1
-9.231330 25.854815 -17.248114 32.422004 -1.227859 2.131743 0.073227 -0.040251 -382880.000000 0 0 1
-10.371830 25.305615 -16.618614 32.001990 -1.181817 2.116827 0.039375 -0.032725 158845.000000 0 0 1
-10.000730 24.463915 -15.345114 30.560927 -1.182731 2.096840 0.044095 -0.024183 -21075.500000 0 0 1
-9.577630 23.121215 -15.454314 29.413558 -1.178078 2.123999 0.048523 -0.026596 -189589.000000 0 0 1
-9.582030 22.483715 -14.193814 28.262999 -1.167930 2.096943 0.050444 -0.018353 -548649.000000 0 0 1
-9.309130 20.921915 -14.111414 26.898298 -1.152153 2.123066 0.071663 -0.014118 -210329.000000 0 0 1
-10.280230 20.086815 -14.671414 26.914934 -1.097761 2.147308 0.054065 -0.012927 -644682.000000 0 0 1
-10.595230 20.104115 -16.077914 27.837630 -1.085769 2.186533 0.067429 -0.009152 548006.000000 0 0 1
-9.373630 20.013815 -17.074214 27.927523 -1.132781 2.228594 0.059267 -0.009797 482657.000000 0 0 1
-8.652230 18.836215 -17.009314 26.813818 -1.140202 2.257962 0.048250 -0.011402 -367633.000000 0 0 1
-7.539630 18.836315 -17.886714 27.047871 -1.190056 2.293345 0.058875 -0.007080 303750.000000 0 0 1
-6.869430 17.433915 -17.874114 25.896224 -1.195450 2.332591 0.061134 -0.008494 125313.000000 0 0 1
-7.712330 16.360215 -18.272714 25.710479 -1.130283 2.361304 0.048372 -0.014693 -175631.000000 0 0 1
-7.452730 15.831015 -19.576414 26.256432 -1.130807 2.412209 0.045146 -0.017184 672143.000000 0 0 1
-6.247330 14.834715 -19.673614 25.419461 -1.172209 2.455865 0.040294 -0.009782 391370.000000 0 0 1
-6.590430 13.535115 -19.141614 24.352299 -1.117673 2.475155 0.027740 -0.007934 1478730.000000 0 1 0
-5.381430 12.759015 -18.813014 23.359832 -1.171661 2.507074 0.027503 -0.004338 1632670.000000 0 1 0
-4.640430 13.198215 -17.497314 22.402733 -1.232701 2.467117 0.035355 -0.008005 -97164.900000 0 1 0
-3.839830 14.321115 -17.721814 23.106305 -1.308834 2.444900 0.039275 -0.013429 -729363.000000 0 1 0
-3.379830 14.821715 -16.494114 22.431279 -1.346598 2.396931 0.033430 -0.007828 -91046.700000 0 1 0
-2.389330 15.978115 -16.552114 23.129668 -1.422359 2.368311 0.046310 -0.011436 -333014.000000 0 1 0
-3.023930 17.217215 -16.848614 24.278642 -1.396935 2.337783 0.060170 -0.010672 -140666.000000 0 1 0
-2.171430 18.328015 -17.025414 25.109679 -1.452870 2.315892 0.068813 -0.011807 123431.000000 0 0 1
-3.008930 19.585815 -17.470914 26.417620 -1.418360 2.293394 0.065471 -0.016692 642906.000000 0 0 1
-3.369430 19.590715 -18.872914 27.410510 -1.400472 2.330254 0.085734 -0.018259 -155929.000000 0 0 1
-3.838630 20.822915 -19.394014 28.713353 -1.388497 2.312351 0.090925 -0.014645 -576322.000000 0 0 1
-2.835330 21.926815 -19.526114 29.497346 -1.442201 2.294229 0.073565 -0.018009 -1178340.000000 0 0 1
-1.862930 21.769615 -20.519714 29.974077 -1.485430 2.324826 0.089736 -0.018457 -247071.000000 0 0 1
-0.852030 22.755215 -20.615314 30.716721 -1.533371 2.306546 0.076124 -0.019416 1096780.000000 0 0 1
0.332270 22.480715 -19.577914 29.812542 1.556017 2.287232 0.070210 -0.018670 217229.000000 0 0 1
-0.043430 22.633015 -18.218214 29.054407 -1.568877 2.248541 0.063903 -0.015625 -325357.000000 0 0 1
0.910970 21.989815 -17.398014 28.054816 1.529393 2.239722 0.049927 -0.011205 -82250.200000 0 0 1
0.617570 22.014515 -15.850714 27.134211 1.542751 2.194641 0.045980 -0.013859 -476699.000000 0 0 1
-0.494930 21.249215 -15.485914 26.298054 -1.547509 2.200446 0.044028 -0.004880 -299098.000000 0 0 1
-0.437630 20.939115 -14.112614 25.254780 -1.549899 2.163746 0.048740 -0.007355 -55887.200000 0 0 1
-1.471830 19.954815 -13.595814 24.191054 -1.497172 2.167620 0.038929 -0.003753 -195483.000000 0 1 0
-1.017830 18.627315 -13.803214 23.206498 -1.516209 2.207813 0.029624 -0.004895 74972.500000 0 1 0
-1.841530 17.763215 -13.051814 22.119514 -1.467494 2.201928 0.030512 -0.006040 -4765.090000 0 1 0
-1.421230 16.268615 -13.099214 20.935070 -1.483657 2.246834 0.016648 -0.002412 -821946.000000 0 1 0
-0.315730 16.114115 -12.277414 20.260782 -1.551205 2.221780 0.007177 -0.000789 -315378.000000 0 1 0
0.204770 14.762115 -12.100114 19.088602 1.556926 2.257372 0.013336 -0.001714 639839.000000 0 1 0
1.008470 14.117615 -13.264114 19.397443 1.499484 2.323764 0.002500 -0.001773 -222161.000000 0 1 0
0.175670 13.874515 -14.391714 19.991360 1.558136 2.374450 0.007493 -0.013417 304499.000000 0 1 0
0.779470 12.952915 -15.243414 20.018672 1.510692 2.436358 0.011238 -0.019282 -865263.000000 0 1 0
-0.164930 12.702715 -16.407814 20.750964 -1.557813 2.482750 0.025938 -0.020163 -153830.000000 0 1 0
-0.287530 13.888115 -17.249114 22.147107 -1.550096 2.463615 0.031354 -0.024497 -132740.000000 0 1 0
-0.286530 13.569815 -18.631414 23.051064 -1.549684 2.511999 0.042648 -0.026707 -165755.000000 0 1 0
-0.825230 14.737315 -19.572014 24.513939 -1.514859 2.495435 0.051220 -0.012522 299529.000000 0 1 0
-0.032730 15.936515 -19.621614 25.278080 -1.568743 2.459461 0.041827 -0.018728 425850.000000 0 0 1
-0.844230 17.020215 -20.078214 26.335055 -1.521235 2.437832 0.070749 -0.019203 521562.000000 0 0 1
0.067570 18.287115 -20.217014 27.260792 1.567101 2.406271 0.074523 -0.022599 426290.000000 0 0 1
0.838370 18.110315 -21.384714 28.035555 1.524537 2.438384 0.081952 -0.026184 -489439.000000 0 0 1
1.612670 19.237215 -21.619814 28.984263 1.487161 2.412705 0.078903 -0.023141 -243161.000000 0 0 1
2.341970 19.209615 -22.972814 30.037382 1.449478 2.441539 0.090466 -0.027667 -339551.000000 0 0 1
3.315970 18.209215 -23.024714 29.541642 1.390666 2.464502 0.071438 -0.021694 -333752.000000 0 0 1
3.690870 18.013415 -24.369514 30.528329 1.368698 2.495195 0.071769 -0.035291 158060.000000 0 0 1
4.442570 16.761115 -24.874814 30.322067 1.311702 2.532825 0.049681 -0.021709 -590520.000000 0 0 1
5.762170 16.694615 -24.392614 30.114986 1.238447 2.514919 0.039233 -0.013939 -378480.000000 0 0 1
6.518470 15.661415 -24.971214 30.188274 1.176393 2.544872 0.043522 -0.014533 65986.800000 0 0 1
6.999870 15.959615 -26.400134 31.633440 1.157464 2.558137 0.045816 -0.018220 -1410710.000000 0 0 1
8.137170 16.792115 -26.476774 32.391484 1.119558 2.527678 0.032477 -0.014567 250164.000000 0 0 1
8.688770 17.031815 -27.756894 33.704934 1.099062 2.538395 0.043521 -0.026197 219486.000000 0 0 1
9.204570 15.821715 -28.590284 33.947829 1.043890 2.572115 0.041558 -0.027775 -418704.000000 0 0 1
10.477870 15.364415 -28.168394 33.753658 0.972283 2.558073 0.044386 -0.026876 204864.000000 0 0 1
10.803070 14.074015 -28.614594 33.668668 0.916132 2.586569 0.038523 -0.021931 -234819.000000 0 0 1
10.372370 12.999115 -27.547924 32.178427 0.897320 2.598470 0.037219 -0.016450 893140.000000 0 0 1
8.935470 12.921415 -27.626704 31.781132 0.965782 2.624540 0.050188 -0.031198 660400.000000 0 0 1
8.384570 12.452915 -26.421454 30.388638 0.978214 2.624888 0.048372 -0.024846 413752.000000 0 0 1
6.958170 11.839715 -26.521494 29.866111 1.039472 2.663802 0.041835 -0.030964 592673.000000 0 0 1
5.936370 12.790515 -26.740854 30.230961 1.136260 2.656329 0.045448 -0.032412 -254214.000000 0 0 1
4.661770 12.197415 -26.583774 29.617665 1.205734 2.685011 0.063414 -0.034835 571634.000000 0 0 1
3.488070 13.109415 -27.064694 30.274099 1.310748 2.676965 0.072289 -0.035766 26062.300000 0 0 1
3.473370 13.132115 -28.504734 31.575886 1.312223 2.696887 0.086750 -0.044708 254395.000000 0 0 1
4.164870 14.278715 -29.035684 32.623592 1.286986 2.668188 0.099100 -0.053501 206125.000000 0 0 1
4.251870 14.171715 -30.590124 33.980459 1.279317 2.691087 0.109253 -0.053079 47167.400000 0 0 1
5.312970 13.361515 -31.070394 34.236342 1.192333 2.708153 0.108087 -0.048479 -121812.000000 0 0 1
5.364870 13.368515 -32.427694 35.483156 1.189164 2.723561 0.105194 -0.051518 -230204.000000 0 0 1
6.579070 12.497515 -32.902654 35.805819 1.086229 2.736128 0.089774 -0.045509 -773318.000000 0 0 1
7.844270 12.910715 -32.631004 35.958331 1.024823 2.708012 0.094122 -0.038657 -1137760.000000 0 0 1
8.347270 13.046515 -31.299554 34.922064 1.001619 2.682080 0.085461 -0.036098 -927743.000000 0 0 1
8.252870 11.753415 -30.362834 33.588008 0.958617 2.699781 0.090268 -0.039207 -761155.000000 0 0 1
9.250170 10.796015 -30.478684 33.631380 0.862360 2.705141 0.065206 -0.030727 -493502.000000 0 0 1
9.073470 9.776615 -29.501624 32.376780 0.822683 2.716977 0.056828 -0.034068 290888.000000 0 0 1
9.977970 8.518715 -29.654074 32.426725 0.706668 2.725054 0.041665 -0.031798 458133.000000 0 0 1
11.313970 8.598515 -29.184144 32.460046 0.649865 2.688457 0.039477 -0.030574 39319.200000 0 0 1
11.836870 7.304315 -29.120214 32.271525 0.552885 2.695988 0.033571 -0.012935 -683843.000000 0 0 1
13.364870 7.305315 -29.020914 32.775003 0.500234 2.658277 0.045049 -0.022940 -210293.000000 0 0 1
13.936870 6.044615 -28.663154 32.439946 0.409228 2.654240 0.063684 -0.022901 -373877.000000 0 0 1
15.080570 5.737215 -29.390484 33.528193 0.363529 2.639527 0.044215 -0.019759 -643748.000000 0 0 1
15.853970 4.564215 -28.794814 33.186167 0.280311 2.621303 0.075708 -0.020572 148552.000000 0 0 1
16.543570 4.811215 -27.549254 32.493059 0.283014 2.582714 0.035459 -0.025242 393192.000000 0 0 1
17.445670 3.752115 -27.301284 32.615791 0.211847 2.562678 0.036767 -0.007405 183400.000000 0 0 1
18.319770 3.974015 -26.020184 32.069561 0.213615 2.517283 0.022384 -0.004396 146755.000000 0 0 1
19.344770 4.932915 -26.133264 32.886186 0.249679 2.489240 0.046124 -0.017590 46515.800000 0 0 1
19.874270 5.295015 -24.855814 32.261979 0.260377 2.450322 0.055140 -0.014957 -34371.600000 0 0 1
20.915770 6.423115 -25.036014 33.249478 0.297953 2.423367 0.042471 -0.009065 -94491.200000 0 0 1
20.339070 7.667215 -25.373624 33.410847 0.360497 2.433252 0.057194 -0.013550 618813.000000 0 0 1
21.244470 8.419815 -26.195954 34.762750 0.377338 2.424263 0.065401 -0.018204 -435322.000000 0 0 1
21.354770 8.039615 -27.699704 35.887814 0.360066 2.452529 0.051480 -0.010546 -677384.000000 0 0 1
20.357670 8.358015 -28.627344 36.108392 0.389575 2.486214 0.057686 -0.009751 -671545.000000 0 0 1
19.228870 7.571615 -28.388684 35.114045 0.375118 2.512346 0.054780 -0.006839 -421543.000000 0 0 1
17.920770 8.081015 -29.090894 35.110353 0.423627 2.547320 0.050094 -0.010749 87453.200000 0 0 1
17.795370 8.015915 -30.445624 36.164431 0.423228 2.571529 0.045842 -0.009351 71935.500000 0 0 1
16.709070 8.822715 -30.848734 36.175650 0.485811 2.592021 0.021951 -0.006129 -548346.000000 0 0 1
16.345970 8.558915 -32.333764 37.227920 0.482357 2.623036 0.010519 0.002077 131375.000000 0 0 1
15.449970 7.482315 -32.543994 36.793996 0.451003 2.656200 0.028085 -0.004449 -869482.000000 0 0 1
14.123370 7.850315 -32.643884 36.424170 0.507315 2.681959 0.018990 0.000928 -650950.000000 0 0 1
13.253570 6.613915 -33.141094 36.300593 0.462870 2.721284 0.019541 -0.004242 131803.000000 0 0 1
12.981470 5.618215 -32.169314 35.141822 0.408448 2.727331 0.031333 -0.009339 462651.000000 0 0 1
12.219970 4.575315 -32.850664 35.347239 0.358256 2.763499 0.026071 -0.015774 550516.000000 0 0 1
11.559770 3.544115 -31.929704 34.142276 0.297492 2.779607 0.032387 -0.022141 70496.000000 0 0 1
12.549270 2.753915 -31.297134 33.831624 0.216024 2.752056 0.048433 -0.031319 160916.000000 0 0 1
12.045370 1.803115 -30.402344 32.751254 0.148590 2.760558 0.040367 -0.026526 -64389.100000 0 0 1
11.348570 0.553215 -31.033894 33.048429 0.048709 2.790632 0.037993 -0.018912 -331624.000000 0 0 1
12.161270 -0.353185 -31.707924 33.961944 -0.029034 2.775215 0.029707 -0.020521 -237851.000000 0 0 1
12.943970 -1.146585 -30.798884 33.428016 -0.088350 2.742334 0.027501 -0.021454 261224.000000 0 0 1
13.689170 -2.210485 -31.588784 34.498273 -0.160095 2.727950 0.026356 -0.026301 -293414.000000 0 0 1
12.933270 -3.377685 -31.737484 34.437568 -0.255457 2.742966 0.038045 -0.024160 -148687.000000 0 0 1
13.709870 -4.482185 -32.198974 35.282069 -0.315978 2.720434 0.054155 -0.021777 -176275.000000 0 0 1
12.993470 -5.833085 -32.403724 35.395712 -0.421959 2.727472 0.050596 -0.014505 -189693.000000 0 0 1
12.877670 -6.493385 -31.131044 34.309478 -0.467031 2.707756 0.048045 -0.015965 135834.000000 0 0 1
12.438170 -7.823785 -31.374504 34.645045 -0.561481 2.703585 0.065699 -0.016035 4035.810000 0 0 1
12.362170 -8.537985 -29.956174 33.512576 -0.604426 2.676720 0.057410 -0.014724 -814781.000000 0 0 1
13.613170 -8.740485 -29.408354 33.564352 -0.570774 2.638671 0.052036 -0.010876 -659388.000000 0 0 1
13.516070 -9.245285 -28.071084 32.498387 -0.599922 2.613498 0.053781 -0.011963 6973.200000 0 0 1
13.655070 -10.720885 -27.994374 32.940602 -0.665602 2.586486 0.059637 -0.016489 440614.000000 0 0 1
12.519170 -11.417785 -28.539484 33.190323 -0.739419 2.605818 0.043514 -0.014838 487336.000000 0 0 1
12.856170 -12.683885 -29.041834 34.199271 -0.778653 2.585254 0.040593 -0.016979 -37849.700000 0 0 1
-9.901830 -3.492085 -17.668514 20.552792 0.339052 2.605410 0.012633 -0.002465 100486.000000 0 1 0
-10.639830 -2.896785 -18.704314 21.712869 0.265816 2.608893 0.014588 -0.012556 687671.000000 0 1 0
-11.761130 -3.687585 -19.137914 22.763616 0.303832 2.569415 0.019127 -0.009404 1133740.000000 0 1 0
-12.628030 -3.183785 -20.406914 24.208382 0.246973 2.573575 0.021895 -0.020686 653097.000000 0 1 0
-13.439830 -2.029585 -20.097214 24.262033 0.149880 2.546934 0.011943 -0.017945 249038.000000 0 1 0
-14.162230 -1.612385 -21.246114 25.584485 0.113363 2.550675 0.012580 -0.014662 436162.000000 0 0 1
-15.026030 -0.345185 -20.971014 25.800855 0.022968 2.519744 0.026373 -0.008520 573487.000000 0 0 1
-14.217830 0.840815 -21.026214 25.395971 -0.059069 2.546212 0.030318 -0.015588 367832.000000 0 0 1
-15.063830 1.952515 -20.852014 25.798019 -0.128897 2.512021 0.031761 -0.006745 74905.600000 0 0 1
-14.611230 3.231615 -21.614214 26.288888 -0.217669 2.536028 0.047727 -0.012093 -552828.000000 0 0 1
-13.402430 3.816515 -21.275214 25.432767 -0.277420 2.561711 0.044169 -0.016305 -456477.000000 0 0 1
-13.209430 5.108015 -21.897114 26.078045 -0.368984 2.567483 0.050378 -0.022582 -852948.000000 0 0 1
-11.987230 5.743915 -21.300614 25.107815 -0.446845 2.583687 0.031187 -0.015490 -999295.000000 0 0 1
-12.123430 6.288215 -20.011114 24.227337 -0.478482 2.542721 0.037500 -0.019667 324280.000000 0 1 0
-10.846430 6.401315 -19.410714 23.138662 -0.533166 2.566031 0.015672 -0.006914 -71376.100000 0 1 0
-10.783630 7.024415 -17.976114 22.108138 -0.577356 2.520253 0.003104 -0.006060 -89054.900000 0 1 0
-11.322430 8.328415 -17.775414 22.661096 -0.634200 2.472528 0.002850 -0.014277 435670.000000 0 1 0
-12.542230 8.337915 -17.036914 22.739499 -0.586700 2.417682 0.043149 -0.012427 228390.000000 0 1 0
-13.311530 9.672715 -17.144914 23.763550 -0.628384 2.376733 0.054881 -0.012034 -228206.000000 0 1 0
-12.707730 10.690115 -16.426814 23.358193 -0.699380 2.350765 0.026853 0.000281 -92461.200000 0 1 0
-13.563330 11.819815 -16.446814 24.375595 -0.716818 2.311388 0.039890 -0.011842 87924.000000 0 1 0
-13.022130 13.094115 -15.704214 24.241577 -0.788154 2.275518 0.035789 -0.004345 -343939.000000 0 1 0
-12.981130 13.039815 -14.265614 23.282059 -0.787653 2.230307 0.050831 -0.005431 13485.800000 0 1 0
-12.576830 14.238215 -13.672714 23.406122 -0.847276 2.194630 0.041719 -0.008913 -982360.000000 0 1 0
-13.075230 14.470115 -12.204114 23.006222 -0.835995 2.129951 0.031898 -0.008690 2027120.000000 0 1 0
-14.464830 14.946315 -12.138314 24.082407 -0.801768 2.099058 0.030262 -0.000410 1517680.000000 0 1 0
-15.445730 14.013315 -12.465414 24.296710 -0.736812 2.109530 0.033946 0.000658 -1145890.000000 0 1 0
-16.850030 14.353015 -11.939914 25.149435 -0.705544 2.065486 0.024353 0.007176 -51622.200000 0 0 1
-17.848430 13.536115 -12.476614 25.640959 -0.648851 2.078978 0.024798 0.002445 493100.000000 0 0 1
-19.175130 13.845915 -12.061114 26.549302 -0.625389 2.042373 0.049521 -0.001923 1002180.000000 0 0 1
-20.365030 13.176415 -12.823714 27.437201 -0.574272 2.057126 0.043897 -0.003495 313185.000000 0 0 1
-20.607930 11.838115 -12.457314 26.833047 -0.521417 2.053587 0.056606 -0.004710 357483.000000 0 0 1
-21.784730 11.352215 -13.073614 27.827444 -0.480392 2.059872 0.065116 -0.004752 -161932.000000 0 0 1
-22.274730 10.048015 -12.411614 27.407560 -0.423764 2.040760 0.060635 -0.011338 -264531.000000 0 0 1
-21.401630 8.959215 -12.553014 26.379451 -0.396457 2.066742 0.067401 -0.023602 170190.000000 0 0 1
-21.792430 7.921315 -11.680614 25.963320 -0.348641 2.037437 0.065666 -0.017395 -560787.000000 0 0 1
-20.787330 6.802715 -11.536014 24.727912 -0.316268 2.056146 0.076060 -0.024221 -682129.000000 0 1 0
-20.770830 6.093715 -12.739514 25.116846 -0.285371 2.102741 0.088118 -0.032325 392574.000000 0 0 1
-19.665230 5.230615 -12.827514 24.054640 -0.259964 2.133253 0.087914 -0.036844 -197803.000000 0 1 0
-19.890330 4.215715 -13.906114 24.632854 -0.208857 2.170666 0.095750 -0.044065 -348025.000000 0 1 0
-20.621230 3.099015 -13.492014 24.836937 -0.149166 2.145068 0.083439 -0.046869 147643.000000 0 1 0
-20.395430 1.983415 -14.361814 25.023373 -0.096943 2.182101 0.068330 -0.047978 -855750.000000 0 0 1
-21.201830 0.764615 -14.146814 25.499697 -0.036048 2.158899 0.079688 -0.035288 60250.800000 0 0 1
-22.551030 0.826515 -14.626814 26.891927 -0.036634 2.145887 0.057261 -0.036384 688411.000000 0 0 1
-23.032430 -0.450785 -14.810914 27.387209 0.019569 2.142180 0.056629 -0.037067 -329546.000000 0 0 1
-24.420030 -0.634585 -15.459414 28.909065 0.025980 2.135020 0.060800 -0.033928 479149.000000 0 0 1
-25.482970 -0.127885 -14.634814 29.386662 0.005018 2.092097 0.082470 -0.044566 -272099.000000 0 0 1
-26.702740 -0.253485 -15.270214 30.761665 0.009493 2.090248 0.076708 -0.040243 -1028790.000000 0 0 1
-27.919260 0.261415 -14.522014 31.471293 -0.009363 2.050410 0.082436 -0.034856 -819596.000000 0 0 1
-28.201580 -0.452385 -13.327814 31.195583 0.016040 2.012228 0.097281 -0.037080 1935330.000000 0 0 1
-29.544630 -0.126085 -12.797314 32.197396 0.004268 1.979548 0.101443 -0.039620 1939900.000000 0 0 1
-29.834930 -0.651685 -11.381014 31.938616 0.021840 1.935144 0.105135 -0.044722 -203215.000000 0 0 1
-30.087530 -2.008585 -11.121914 32.140175 0.066659 1.924148 0.116940 -0.042826 856858.000000 0 0 1
-29.108110 -2.944785 -11.633914 31.484945 0.100824 1.949275 0.110977 -0.046845 355272.000000 0 0 1
-29.082100 -4.283985 -10.946814 31.368038 0.146255 1.927279 0.115217 -0.043926 613419.000000 0 0 1
-30.353360 -4.950285 -11.133514 32.707597 0.161665 1.918134 0.113372 -0.046716 1072370.000000 0 0 1
-30.371620 -6.311685 -10.734414 32.825300 0.204899 1.903941 0.111561 -0.045699 -258835.000000 0 0 1
-29.578410 -7.354785 -11.526014 32.585644 0.243711 1.932336 0.102174 -0.038704 -72228.900000 0 0 1
-28.181750 -7.294685 -11.389714 31.259383 0.253285 1.943743 0.089604 -0.035866 45645.000000 0 0 1
-27.475920 -8.308485 -12.117214 31.157406 0.293649 1.970237 0.090028 -0.035044 701429.000000 0 0 1
-25.965330 -8.451385 -11.776314 29.737280 0.314673 1.977966 0.078021 -0.038662 193019.000000 0 0 1
-25.114880 -7.367085 -12.185414 28.870667 0.285331 2.006523 0.063654 -0.031268 646728.000000 0 0 1
-23.790930 -7.415485 -11.707914 27.533126 0.302150 2.010012 0.058295 -0.036364 -324750.000000 0 0 1
-23.537230 -7.297485 -10.183914 26.663957 0.300642 1.962686 0.056092 -0.034755 -722155.000000 0 0 1
-23.949830 -6.052885 -9.537914 26.480249 0.247548 1.939268 0.065703 -0.032353 -166198.000000 0 0 1
-25.294580 -5.707885 -9.598914 27.650224 0.221939 1.925332 0.069973 -0.033355 -1051660.000000 0 0 1
-25.635510 -4.328985 -8.943514 27.493743 0.167289 1.902118 0.081907 -0.038863 -395427.000000 0 0 1
-25.696610 -4.359785 -7.527714 27.129135 0.168063 1.851963 0.083121 -0.038043 449047.000000 0 0 1
-25.965830 -3.083885 -7.030814 27.077057 0.118213 1.833466 0.098132 -0.040901 -131934.000000 0 0 1
-25.805170 -2.910685 -5.521814 26.549375 0.112320 1.780309 0.090135 -0.036050 25824.400000 0 0 1
-24.438430 -3.065385 -5.202714 25.173432 0.124781 1.778971 0.060262 -0.022802 254026.000000 0 0 1
-24.231230 -2.956785 -3.811214 24.706688 0.121423 1.725673 0.040527 -0.018948 577505.000000 0 1 0
-22.784830 -3.273285 -3.293414 23.253160 0.142684 1.712907 0.030272 -0.014390 492824.000000 0 1 0
-22.578530 -4.662685 -3.082714 23.260133 0.203647 1.703719 0.040506 -0.013864 1282900.000000 0 1 0
-21.279130 -5.006185 -2.550714 22.008394 0.231061 1.686955 0.028916 -0.011959 466865.000000 0 1 0
-21.101630 -6.505885 -2.478814 22.220483 0.299065 1.682584 0.030410 -0.011765 42059.000000 0 1 0
-21.966830 -7.071185 -1.494314 23.125230 0.311428 1.635460 0.046657 -0.007607 676728.000000 0 1 0
-22.242030 -8.382785 -1.875814 23.843189 0.360426 1.649551 0.029604 -0.009855 -83821.900000 0 1 0
-22.713130 -9.360085 -0.759214 24.577914 0.390894 1.601691 0.035563 -0.013681 -58257.500000 0 1 0
-21.719930 -9.807585 0.141886 23.832000 0.424140 1.564843 0.020638 -0.004014 112269.000000 0 1 0
-22.164330 -10.772285 1.027286 24.664853 0.452400 1.529134 0.011373 0.002281 180495.000000 0 1 0
-20.950830 -11.329685 1.832686 23.888444 0.495733 1.494002 0.022951 -0.004690 213048.000000 0 1 0
-20.197430 -12.165785 1.005186 23.599850 0.542141 1.528191 0.024369 0.000310 517885.000000 0 1 0
-19.112930 -12.736685 1.778086 23.036684 0.587812 1.493534 0.008699 -0.001743 708367.000000 0 1 0
-18.294330 -13.785085 0.943686 22.926003 0.645748 1.529622 0.011070 -0.000037 95479.300000 0 1 0
-18.944130 -15.075885 0.891586 24.227201 0.672179 1.533987 0.016810 0.004569 241545.000000 0 1 0
-18.278030 -16.051685 0.136686 24.326151 0.720637 1.565177 0.014097 -0.007797 -355455.000000 0 1 0
-17.177030 -16.823985 0.874686 24.059549 0.775015 1.534433 0.026679 -0.002384 -565707.000000 0 1 0
-16.039930 -16.033685 1.115386 22.706882 0.785203 1.521655 0.024707 -0.005552 94713.300000 0 1 0
-15.058130 -16.825085 1.825186 22.653081 0.840761 1.490138 0.030689 -0.005435 422670.000000 0 1 0
-15.080930 -16.695585 3.358986 22.747742 0.836167 1.422592 0.042172 -0.011242 -216028.000000 0 1 0
-14.815430 -15.301685 3.696386 21.617164 0.801542 1.398959 0.027360 -0.013916 401620.000000 0 1 0
-13.896030 -15.098985 4.769086 21.067111 0.826863 1.342441 0.002102 -0.011393 199831.000000 0 1 0
-14.418830 -15.597585 6.154486 22.114814 0.824648 1.288776 0.048132 -0.006658 -591195.000000 0 1 0
-15.190830 -14.657885 6.901886 22.209253 0.767545 1.254797 0.039778 -0.002882 325343.000000 0 1 0
-15.494630 -15.141185 8.215786 23.169769 0.773862 1.208320 0.045484 -0.004738 -438806.000000 0 1 0
-16.548130 -16.232285 8.432486 24.666465 0.775763 1.221901 0.046429 -0.003317 -513823.000000 0 1 0
-16.103930 -17.540485 8.118586 25.157834 0.828070 1.242209 0.049741 0.001087 318545.000000 0 0 1
-16.966830 -18.576085 8.624986 26.595763 0.830644 1.240525 0.046090 -0.001149 387522.000000 0 0 1
-16.798630 -18.879185 10.227886 27.262194 0.843647 1.186219 0.048150 -0.005757 171284.000000 0 0 1
-15.549830 -19.475785 10.508386 27.046804 0.897020 1.171765 0.058096 -0.005616 -22749.600000 0 0 1
-15.347030 -19.590985 11.908786 27.589078 0.906277 1.124477 0.057773 -0.010430 965192.000000 0 0 1
-13.937930 -20.271885 12.135686 27.431553 0.968475 1.112525 0.054153 -0.009226 1623560.000000 0 0 1
-12.804130 -19.390085 11.986486 26.145688 0.987184 1.094546 0.047248 -0.018554 341549.000000 0 0 1
-11.617930 -20.134485 12.188286 26.247440 1.047448 1.087883 0.034134 -0.014270 861403.000000 0 0 1
-10.334830 -19.354685 12.634686 25.318922 1.080343 1.048327 0.036645 -0.015273 991504.000000 0 0 1
-9.601030 -18.768385 11.560486 24.043230 1.097949 1.069206 0.029034 -0.011772 381270.000000 0 1 0
-8.414430 -18.122885 12.056686 23.336779 1.136116 1.027876 0.019457 -0.005027 446453.000000 0 1 0
-7.612730 -17.396885 11.008086 21.949561 1.158309 1.045445 0.006434 -0.006985 -636506.000000 0 1 0
-6.774130 -18.153385 10.234186 21.912845 1.213639 1.084855 0.005373 -0.006502 -600853.000000 0 1 0
-6.067730 -17.364885 9.300186 20.611891 1.234634 1.102681 0.004732 -0.005815 108712.000000 0 1 0
-4.947630 -18.098785 8.498586 20.597840 1.303948 1.145494 0.002011 -0.010147 -119946.000000 0 1 0
-3.822230 -18.414185 9.233886 20.951284 1.366133 1.114383 0.018366 -0.000934 -1241980.000000 0 1 0
-2.808230 -18.943985 8.436686 20.926978 1.423629 1.155841 0.026425 -0.004860 -159266.000000 0 1 0
-1.554730 -19.276685 9.268386 21.445530 1.490317 1.123885 0.022000 -0.002617 -275739.000000 0 1 0
-0.496930 -19.647385 8.441386 21.389803 1.545509 1.165114 0.032642 -0.002752 -707565.000000 0 1 0
0.688170 -19.875385 9.162886 21.896643 -1.536186 1.139046 0.041667 -0.006561 -191523.000000 0 1 0
1.830370 -20.434985 8.320286 22.139693 -1.481464 1.185527 0.048019 -0.017865 -229554.000000 0 1 0
1.689570 -21.813085 7.967286 23.283964 -1.493494 1.221561 0.041481 -0.009700 -221625.000000 0 1 0
2.124970 -22.727885 8.993286 24.534699 -1.477571 1.195494 0.049397 -0.011398 -104291.000000 0 1 0
1.995870 -24.206585 8.578786 25.759228 -1.488531 1.231273 0.053793 -0.008422 206149.000000 0 0 1
2.099870 -25.091455 9.653986 26.966461 -1.487302 1.204672 0.060997 -0.009995 -141702.000000 0 0 1
1.817670 -26.370035 9.140286 27.968330 -1.501976 1.237872 0.061095 -0.012499 -824092.000000 0 0 1
1.994470 -27.477715 10.251986 29.395679 -1.498338 1.214550 0.061547 -0.018464 714402.000000 0 0 1
0.995970 -27.547245 11.296486 29.790154 -1.534657 1.181863 0.063494 -0.020057 -421492.000000 0 0 1
-0.311630 -27.662145 10.871086 29.723255 1.559531 1.196365 0.029711 -0.014721 -1561230.000000 0 0 1
-1.289930 -27.947045 11.983186 30.435144 1.524673 1.166112 0.035005 -0.017335 -356459.000000 0 0 1
-0.987030 -29.125615 12.701486 31.789989 1.536921 1.159777 0.027506 -0.017247 -179876.000000 0 0 1
-1.005830 -28.840305 14.091886 32.114734 1.535935 1.116536 0.028078 -0.015556 21958.000000 0 0 1
-0.645830 -30.087915 14.954686 33.605689 1.549335 1.109617 0.005494 -0.002524 204032.000000 0 0 1
-0.521530 -29.718045 16.341086 33.918509 1.553249 1.068117 0.013720 -0.002617 -113914.000000 0 0 1
-0.435830 -30.806145 17.197186 35.283873 1.556650 1.061692 0.002867 0.002545 -45451.300000 0 0 1
-0.833830 -30.518975 18.674786 35.788975 1.543481 1.021833 0.005506 0.002066 -617406.000000 0 0 1
-2.206330 -30.460925 18.886586 35.908759 1.498491 1.016952 -0.000727 0.002409 -661439.000000 0 0 1
-2.552730 -30.208905 20.236686 36.450210 1.486494 0.982208 0.017308 -0.007257 -857400.000000 0 0 1
-4.019730 -30.483615 20.509586 36.960142 1.439687 0.982540 0.040908 -0.011024 -941608.000000 0 0 1
-4.810830 -29.507915 19.877686 35.902417 1.409183 0.984045 0.039391 -0.014380 561600.000000 0 0 1
-6.088030 -29.211035 20.467586 36.183847 1.365322 0.969569 0.044642 -0.021424 879790.000000 0 0 1
-6.001430 -28.273395 21.743586 36.168848 1.361637 0.925833 0.050820 -0.026681 -443816.000000 0 0 1
-5.266330 -28.733015 22.837786 37.079440 1.389523 0.907249 0.046937 -0.025751 -169869.000000 0 0 1
-5.289330 -27.730045 23.808286 36.929215 1.382317 0.870165 0.048236 -0.025723 124959.000000 0 0 1
-4.317730 -27.966835 25.020286 37.773024 1.417618 0.846798 0.053225 -0.023164 252926.000000 0 0 1
-4.659830 -29.053795 25.818586 39.146346 1.411764 0.850590 0.056834 -0.023667 208292.000000 0 0 1
-4.070030 -30.250265 25.299886 39.645024 1.437054 0.878690 0.053547 -0.024433 57495.500000 0 0 1
-4.385830 -31.521235 26.148986 41.189722 1.432545 0.882992 0.065060 -0.023001 -103589.000000 0 0 1
-3.791130 -31.403365 27.418986 41.861018 1.450654 0.856613 0.068768 -0.035433 18353.800000 0 0 1
-4.035730 -32.557175 28.181586 43.248798 1.447467 0.861084 0.075284 -0.043805 -272074.000000 0 0 1
-3.545130 -32.524465 29.622586 44.135092 1.462226 0.834997 0.080604 -0.038232 131552.000000 0 0 1
-2.134630 -32.701765 29.607386 44.165138 1.505613 0.836077 0.078998 -0.042342 132733.000000 0 0 1
-1.601130 -32.824495 30.883086 45.097407 1.522056 0.816455 0.081902 -0.039448 -150954.000000 0 0 1
-28.286440 2.857815 -10.192514 30.202270 -0.100690 1.915030 0.084172 -0.027699 -352322.000000 0 0 1
-29.162910 2.619715 -11.264114 31.372257 -0.089590 1.938043 0.072276 -0.039178 -1646.860000 0 0 1
-29.850700 3.787615 -11.680214 32.277511 -0.126211 1.941068 0.050519 -0.037441 -15458.800000 0 0 1
-30.729120 3.485315 -12.922914 33.517577 -0.112938 1.966607 0.054351 -0.041077 -29139.600000 0 0 1
-31.681340 2.440315 -12.699414 34.218965 -0.076875 1.951013 0.079552 -0.041465 359341.000000 0 0 1
-32.580890 2.395815 -13.791914 35.460841 -0.073402 1.970270 0.075811 -0.036805 -116710.000000 0 0 1
-33.828420 1.537515 -13.503114 36.456276 -0.045419 1.950227 0.072498 -0.037994 -167666.000000 0 0 1
-33.528340 0.190115 -13.279814 36.062989 -0.005670 1.947911 0.099985 -0.039423 -514909.000000 0 0 1
-34.579936 -0.553885 -12.793514 36.874826 0.016016 1.925107 0.082065 -0.040345 -680711.000000 0 0 1
-34.035037 -1.911185 -12.377514 36.266227 0.056095 1.919092 0.098544 -0.043196 86768.800000 0 0 1
-33.754830 -2.758785 -13.485614 36.453549 0.081549 1.949740 0.095952 -0.040479 96058.900000 0 0 1
-33.123510 -3.891185 -12.947814 35.776446 0.116939 1.941111 0.109093 -0.044190 -146119.000000 0 0 1
-33.663610 -5.208885 -13.535814 36.655005 0.153516 1.949026 0.096681 -0.031467 96328.100000 0 0 1
-33.147220 -6.390585 -12.981914 36.167774 0.190457 1.937924 0.096994 -0.040903 20867.400000 0 0 1
-33.751410 -7.437685 -13.647414 37.158158 0.216900 1.946878 0.092949 -0.029893 -617635.000000 0 0 1
-33.295600 -8.813985 -13.080214 36.842575 0.258783 1.933742 0.075236 -0.030030 437086.000000 0 0 1
-31.892190 -9.077985 -13.151414 35.671855 0.277312 1.948382 0.079974 -0.032199 783477.000000 0 0 1
-31.411700 -9.390085 -14.436914 35.823080 0.290480 1.985595 0.067919 -0.021897 -379332.000000 0 0 1
-30.165210 -10.301285 -14.365014 34.962980 0.329078 1.994197 0.056759 -0.021042 -127161.000000 0 0 1
-30.533670 -11.525285 -13.843014 35.450899 0.360927 1.971954 0.042669 -0.014346 286450.000000 0 0 1
-29.409380 -12.341785 -13.587114 34.667578 0.397334 1.973520 0.033039 -0.011379 -223067.000000 0 0 1
-29.661190 -13.764985 -14.023414 35.579729 0.434496 1.975929 0.032273 -0.009451 -97913.600000 0 0 1
-29.947580 -13.857285 -15.375214 36.404383 0.433380 2.006827 0.030132 -0.008889 -135090.000000 0 0 1
-30.274790 -15.158985 -15.857814 37.387538 0.464218 2.008816 0.024255 -0.009533 -955827.000000 0 0 1
-29.377920 -16.383485 -15.920014 37.214615 0.508721 2.012842 0.007962 0.002219 -254718.000000 0 0 1
-28.100730 -16.141585 -16.491914 36.361862 0.521397 2.041541 0.007079 -0.002577 -319475.000000 0 0 1
-27.391670 -17.319185 -16.647114 36.433283 0.563817 2.045326 0.002949 -0.003044 385952.000000 0 0 1
-25.889160 -17.071085 -16.997114 35.363433 0.582949 2.072182 0.010892 -0.015388 548900.000000 0 0 1
-25.745500 -16.363885 -18.187014 35.515841 0.566187 2.108403 0.017674 -0.010909 368071.000000 0 0 1
-24.396030 -16.082485 -18.578514 34.626201 0.582833 2.137134 0.023860 -0.003686 97022.000000 0 0 1
-24.360830 -15.420485 -20.035714 35.109418 0.564334 2.178112 0.030227 -0.004163 136807.000000 0 0 1
-24.841930 -16.165185 -21.174114 36.424961 0.576882 2.191131 0.027457 -0.010851 1042700.000000 0 0 1
-26.273760 -16.197985 -21.269114 37.484135 0.552469 2.174161 0.035591 -0.015575 445408.000000 0 0 1
-26.767160 -17.495685 -21.823014 38.714645 0.578919 2.169641 0.032562 -0.013025 -245700.000000 0 0 1
-26.241340 -17.681385 -23.158014 39.211387 0.592924 2.202591 0.030467 -0.002400 168740.000000 0 0 1
-26.783830 -18.773385 -23.837514 40.472714 0.611345 2.200589 0.025888 0.000062 -700115.000000 0 0 1
-26.194080 -19.009985 -25.242944 41.045287 0.627790 2.233185 0.038048 -0.004472 820577.000000 0 0 1
-24.837530 -19.463785 -25.367904 40.487928 0.664688 2.247921 0.058891 -0.009915 688886.000000 0 0 1
-24.706630 -20.829785 -24.996214 40.854721 0.700466 2.229171 0.052147 -0.007062 -636332.000000 0 0 1
-23.220230 -21.176485 -24.878214 40.081768 0.739397 2.240414 0.053806 -0.001123 74042.700000 0 0 1
-22.543130 -21.415685 -26.105964 40.599823 0.759756 2.269214 0.064257 -0.005251 -496714.000000 0 0 1
-21.172030 -21.636785 -25.980254 39.892090 0.796254 2.280044 0.054205 -0.004433 -194785.000000 0 0 1
-20.417830 -21.428085 -27.308444 40.271599 0.809536 2.315980 0.051816 -0.004683 -117395.000000 0 0 1
-20.796930 -22.413485 -28.247894 41.627156 0.822792 2.316642 0.084402 -0.003436 20002.300000 0 0 1
-20.966430 -21.850785 -29.577574 42.330613 0.806049 2.344414 0.085779 -0.009283 -331930.000000 0 0 1
-19.712430 -21.965085 -30.441964 42.399976 0.839395 2.371680 0.079061 -0.015919 -107208.000000 0 0 1
-19.632430 -23.342385 -30.771794 43.326695 0.871513 2.360617 0.074226 -0.020582 -351995.000000 0 0 1
-19.066530 -23.485285 -32.009304 44.041874 0.888871 2.384437 0.064563 -0.023746 -231493.000000 0 0 1
-18.848530 -24.975485 -32.441984 45.072433 0.924306 2.374274 0.068161 -0.025058 360388.000000 0 0 1
-18.108930 -25.168165 -33.659964 45.764211 0.947091 2.397213 0.066596 -0.026285 402624.000000 0 0 1
-18.914530 -24.775685 33.668861 45.882308 0.918755 0.746884 0.066203 -0.024402 353775.000000 0 0 1
-18.226630 -24.677885 32.244257 44.507304 0.934643 0.760529 0.056952 -0.019146 -119491.000000 0 0 1
-17.473830 -23.505685 32.032427 43.404243 0.931541 0.740691 0.054415 -0.018794 -343645.000000 0 0 1
-16.963730 -23.620385 30.706487 42.291595 0.947972 0.758213 0.056594 -0.010324 -192979.000000 0 0 1
-16.171130 -22.399785 30.284547 40.992799 0.945502 0.739542 0.036297 -0.002766 274075.000000 0 0 1
-16.967630 -21.198685 30.132507 40.561714 0.895806 0.733433 0.032778 -0.006439 566800.000000 0 0 1
-16.132030 -20.049285 29.948537 39.485834 0.893245 0.709845 0.032678 -0.009625 421466.000000 0 0 1
-15.579530 -19.269885 31.185877 39.832262 0.890899 0.671434 0.036236 -0.015617 127148.000000 0 0 1
-15.172830 -17.959885 30.878207 38.810255 0.869319 0.650766 0.043316 -0.016171 143987.000000 0 0 1
-14.449630 -17.421185 32.007547 39.201691 0.878367 0.615502 0.042302 -0.018960 134502.000000 0 0 1
-13.766730 -16.063285 31.875527 38.257041 0.862235 0.585938 0.048173 -0.020087 -181636.000000 0 0 1
-12.672530 -16.154085 30.985027 37.170141 0.905592 0.585203 0.056795 -0.027355 -333129.000000 0 0 1
-12.259830 -14.853885 30.698317 36.239867 0.880781 0.560317 0.057963 -0.028031 -967670.000000 0 0 1
-10.763730 -14.728085 30.554247 35.585620 0.939677 0.538240 0.070528 -0.033132 -832859.000000 0 0 1
-10.388230 -13.389885 30.252977 34.676317 0.910970 0.510625 0.087689 -0.027018 -597925.000000 0 0 1
-9.030830 -13.158585 30.490417 34.414674 0.969319 0.482212 0.068230 -0.024351 -402871.000000 0 0 1
-8.670930 -11.657385 30.336777 33.636285 0.931266 0.446634 0.061525 -0.023551 3505.230000 0 0 1
-9.377430 -10.889885 31.318037 34.457876 0.859885 0.430208 0.062367 -0.022677 267075.000000 0 0 1
-9.118930 -9.467985 31.207667 33.863197 0.804176 0.398663 0.040058 -0.012454 -64620.900000 0 0 1
-9.871130 -8.502785 32.180247 34.717501 0.711063 0.384684 0.028441 -0.017773 1694130.000000 0 0 1
-11.283530 -8.305385 31.874307 34.817652 0.634521 0.414137 0.033454 -0.018756 1686580.000000 0 0 1
-12.163630 -7.672185 32.803094 35.817025 0.562722 0.413172 0.023449 -0.019108 206861.000000 0 0 1
-11.909330 -6.221485 33.268832 35.879718 0.481410 0.383843 0.001926 -0.015791 -465275.000000 0 0 1
-12.046330 -5.273285 32.237947 34.816761 0.412621 0.387301 0.012361 -0.019254 216282.000000 0 0 1
-12.286730 -4.013485 32.797690 35.252805 0.315725 0.375411 0.007240 -0.019953 -495443.000000 0 0 1
-11.993930 -2.805285 31.829217 34.129504 0.229762 0.369242 0.014736 -0.007709 -282703.000000 0 0 1
-10.606130 -2.586285 31.883617 33.700800 0.239180 0.329887 0.016021 -0.008154 -129923.000000 0 0 1
-10.201730 -1.473085 31.124237 32.786634 0.143404 0.319806 0.011647 -0.007325 -173957.000000 0 0 1
-8.685930 -1.208585 31.185917 32.395485 0.138255 0.274125 0.029639 -0.005568 -35148.000000 0 0 1
-8.213730 -0.814085 32.452448 33.485661 0.098790 0.249060 0.030345 -0.015951 8948.160000 0 0 1
-6.965330 -0.145985 32.311597 33.054144 0.020956 0.212364 0.048283 -0.009143 269374.000000 0 0 1
-6.607730 0.572415 33.660807 34.308012 -0.086412 0.194546 0.067414 -0.019118 -581024.000000 0 0 1
-7.248630 1.803815 33.817339 34.632482 -0.243895 0.217393 0.060668 -0.017968 -503598.000000 0 0 1
-6.740630 2.886115 33.094381 33.896959 -0.404550 0.218041 0.068532 -0.013911 55284.800000 0 0 1
-7.643430 4.154315 33.110337 34.234117 -0.497850 0.256934 0.067523 -0.012203 230294.000000 0 0 1
-8.830430 4.124715 32.359777 33.795635 -0.436985 0.292543 0.035627 -0.002143 1101.630000 0 0 1
-9.582030 5.313515 32.555743 34.350038 -0.506314 0.324644 0.018940 0.002948 681462.000000 0 0 1
-10.913130 5.328915 31.716177 33.961885 -0.454246 0.365694 0.001924 0.013385 878457.000000 0 0 1
-11.709730 6.465815 32.034837 34.715347 -0.504511 0.395547 -0.000835 0.011641 69848.200000 0 0 1
-12.960330 6.499415 31.365447 34.554360 -0.464835 0.432995 -0.007826 0.016218 271165.000000 0 0 1
-13.726530 7.773815 31.813717 35.510033 -0.515298 0.460326 0.003198 0.004924 76568.000000 0 0 1
-14.302830 7.763115 33.138235 36.918553 -0.497274 0.456493 0.004544 -0.000533 296343.000000 0 0 1
-14.837530 9.030315 33.469648 37.708305 -0.546729 0.478702 0.014168 -0.001982 3200.960000 0 0 1
-15.475930 9.290915 -33.644384 38.180755 -0.540674 2.649163 0.013826 0.008974 -251590.000000 0 0 1
-14.560230 9.256815 -32.609084 36.892293 -0.566300 2.654932 0.012398 -0.000069 -168505.000000 0 0 1
-15.256630 9.592515 -31.420634 36.222056 -0.561287 2.620840 0.014668 0.000353 -58044.000000 0 0 1
-14.282630 9.779115 -30.154124 34.769179 -0.600374 2.620480 0.019749 -0.002885 1375030.000000 0 0 1
-13.477930 10.993115 -30.037834 34.709864 -0.684204 2.616740 0.034099 -0.002347 727256.000000 0 0 1
-12.313430 10.896715 -30.857174 34.964612 -0.724435 2.652003 0.028875 -0.011150 -74817.400000 0 0 1
-11.715030 12.261315 -31.194534 35.506066 -0.808179 2.643654 0.025862 -0.008353 188184.000000 0 0 1
-12.437930 12.969115 -32.204434 36.878525 -0.806302 2.632644 0.020019 -0.009813 514603.000000 0 0 1
-11.656630 14.076815 -32.672254 37.436745 -0.879171 2.631567 0.020381 -0.018282 340989.000000 0 0 1
-11.824330 15.335615 -31.796424 37.229134 -0.913967 2.594564 0.018640 -0.019867 -597304.000000 0 0 1
-13.020730 16.025915 -31.829654 37.940693 -0.888492 2.566114 0.021485 -0.015285 -680067.000000 0 0 1
-12.866430 17.224115 -31.182594 37.875709 -0.929217 2.537975 0.009268 -0.001602 -149044.000000 0 0 1
-14.227030 17.875815 -30.850414 38.388816 -0.898572 2.504167 0.000903 -0.017001 -416874.000000 0 0 1
-14.734630 18.335615 -32.076544 39.776988 -0.893860 2.508852 0.011949 -0.026522 915609.000000 0 0 1
-16.039730 18.974915 -32.117104 40.605772 -0.869030 2.483155 0.016360 -0.028819 1229120.000000 0 0 1
-16.380830 20.152615 -31.163684 40.566423 -0.888276 2.446843 0.003840 -0.029162 -657086.000000 0 0 1
-15.769030 21.410215 -31.403124 41.148704 -0.935979 2.438988 0.010027 -0.024165 497525.000000 0 0 1
-16.495430 22.538415 -30.874214 41.632877 -0.938993 2.406223 -0.004560 -0.023103 702929.000000 0 0 1
-17.847530 23.061015 -31.478394 42.909603 -0.912157 2.394397 0.016081 -0.022731 410126.000000 0 0 1
-18.931530 22.278215 -31.024844 42.629363 -0.866431 2.385877 0.020518 -0.025992 -201887.000000 0 0 1
-19.963530 22.325115 -31.993064 43.823617 -0.841185 2.389179 0.047100 -0.028747 -662170.000000 0 0 1
-21.174530 21.441015 -31.531454 43.615484 -0.791651 2.378847 0.063382 -0.032259 341923.000000 0 0 1
-22.022330 22.066915 -30.535304 43.638705 -0.786409 2.345816 0.086240 -0.025217 534314.000000 0 0 1
-22.831630 23.112815 -31.001424 44.906278 -0.791518 2.332781 0.082330 -0.024469 -267471.000000 0 0 1
-24.224930 22.695815 -31.576824 45.815315 -0.752820 2.331208 0.087640 -0.037955 21517.400000 0 0 1
-24.101130 22.116015 -32.863224 46.367813 -0.742473 2.358522 0.105062 -0.035275 838919.000000 0 0 1
-25.329290 21.587415 -33.398064 47.148914 -0.705811 2.357958 0.121026 -0.038324 501954.000000 0 0 1
-25.012430 20.530815 33.968834 46.915005 -0.687310 0.761139 0.117469 -0.033500 -19162.600000 0 0 1
-24.659130 19.213215 -34.162882 46.306833 -0.661899 2.400528 0.115707 -0.036365 244064.000000 0 0 1
-24.365130 18.448015 33.172157 45.104111 -0.648060 0.744455 0.102995 -0.038244 -356459.000000 0 0 1
-23.897230 17.044915 33.500541 44.540914 -0.619569 0.719509 0.091441 -0.030306 -732676.000000 0 0 1
-24.922130 16.149715 33.922980 45.085413 -0.574973 0.719074 0.091817 -0.024898 482912.000000 0 0 1
-25.310470 15.369415 32.827354 44.209433 -0.545723 0.733939 0.083103 -0.020049 -548995.000000 0 0 1
-26.251490 14.230715 33.206727 44.658042 -0.496751 0.732391 0.049996 -0.008964 252245.000000 0 0 1
-27.547420 14.658015 33.667198 45.904226 -0.488998 0.747453 0.054691 -0.011260 894673.000000 0 0 1
-28.647490 13.798415 33.414027 46.125613 -0.448870 0.760613 0.047904 -0.002984 265871.000000 0 0 1
-28.684960 12.402115 34.104680 46.257633 -0.408085 0.741766 0.032939 0.000965 -1078950.000000 0 0 1
-27.560290 11.588115 33.999345 45.274821 -0.398023 0.721290 0.022415 -0.002188 -590762.000000 0 0 1
-27.897470 10.227715 -34.200648 45.305180 -0.351402 2.426290 0.038182 0.002842 -643512.000000 0 0 1
-26.678810 9.331315 -34.059604 44.259337 -0.336465 2.448926 0.023013 -0.003215 -45668.700000 0 0 1
-25.855640 9.132915 33.251230 43.099519 -0.339547 0.689603 0.019357 0.003370 1049280.000000 0 0 1
-24.849930 10.093715 32.873274 42.427046 -0.385828 0.684368 0.005892 0.003227 827471.000000 0 0 1
-23.585530 9.572315 32.117777 40.981191 -0.385544 0.670164 0.019914 0.000654 321415.000000 0 0 1
-23.799730 9.305215 30.732057 39.968406 -0.372706 0.693664 0.036228 0.000455 1564190.000000 0 0 1
-22.540230 9.034115 30.016947 38.609511 -0.381196 0.680196 0.037649 0.001758 1694200.000000 0 0 1
-22.723030 9.012115 28.480687 37.532704 -0.377578 0.709292 0.061668 -0.008074 122624.000000 0 0 1
-23.263430 10.218315 27.897857 37.734488 -0.413873 0.738737 0.056268 -0.011609 406939.000000 0 0 1
-23.393630 10.194515 26.525197 36.807284 -0.410967 0.766056 0.052615 -0.013287 -789352.000000 0 0 1
-23.614030 11.618915 25.979857 36.980732 -0.457255 0.791858 0.057323 -0.008385 526163.000000 0 0 1
-24.823630 12.284115 26.315957 38.205257 -0.459524 0.810958 0.066797 -0.006722 700970.000000 0 0 1
-26.022360 11.789715 25.718317 38.439465 -0.425397 0.837853 0.075745 -0.006845 -128869.000000 0 0 1
-27.235020 12.684915 25.960177 39.706223 -0.435880 0.858192 0.068270 -0.004023 -364126.000000 0 0 1
-27.113350 13.934915 25.310477 39.622416 -0.474745 0.877869 0.077343 -0.010912 -56436.400000 0 0 1
-28.201740 14.791715 25.568117 40.839461 -0.483052 0.894301 0.051948 -0.011187 -43791.600000 0 0 1
-28.213480 16.184515 24.894827 40.959631 -0.520815 0.917523 0.046671 -0.012102 -249519.000000 0 0 1
-27.492780 17.183115 25.538027 41.271094 -0.558603 0.903598 0.056952 -0.013052 4251.250000 0 0 1
-27.363260 18.373615 24.729087 41.205163 -0.591321 0.927114 0.040282 -0.024749 -110068.000000 0 0 1
-22.377330 -8.679285 32.113037 40.091421 0.369998 0.641841 0.027741 -0.005590 -165887.000000 0 0 1
-21.563930 -8.499785 30.970907 38.683931 0.375468 0.642477 0.026110 -0.018198 -441686.000000 0 0 1
-22.099030 -8.847485 29.765707 38.113546 0.380813 0.674572 0.023950 -0.018650 -608435.000000 0 0 1
-21.143030 -8.609085 28.580547 36.578569 0.386683 0.673975 0.037930 -0.017316 -726889.000000 0 0 1
-20.829030 -7.213585 28.402227 35.952341 0.333396 0.659993 0.039494 -0.021043 773365.000000 0 0 1
-19.627130 -6.745785 29.087647 35.732633 0.331049 0.619729 0.031860 -0.013285 1019480.000000 0 0 1
-18.311430 -7.215285 28.404907 34.557308 0.375351 0.605943 0.035125 -0.010820 -608441.000000 0 0 1
-18.015030 -8.651685 28.481197 34.793268 0.447722 0.611856 0.037525 -0.013644 115153.000000 0 0 1
-17.647030 -9.264985 29.762057 35.819515 0.483460 0.590092 0.049755 -0.018186 529050.000000 0 0 1
-16.185030 -8.976585 30.295107 35.501095 0.506385 0.548405 0.049760 -0.015869 -90596.500000 0 0 1
-15.241330 -9.624685 29.545817 34.610519 0.563250 0.547813 0.039642 -0.013070 -824721.000000 0 0 1
-13.975930 -9.313285 30.110697 34.477789 0.587804 0.508787 0.043663 -0.015149 140240.000000 0 0 1
-12.750630 -10.030785 29.553327 33.713415 0.666572 0.502037 0.049105 -0.019690 -146962.000000 0 0 1
-12.367930 -9.718385 28.174077 32.267496 0.666005 0.509187 0.060341 -0.016651 -439284.000000 0 0 1
-11.254530 -10.479285 27.836107 31.801395 0.749743 0.504718 0.065218 -0.018196 -407304.000000 0 0 1
-10.598230 -10.143485 26.484547 30.276129 0.763477 0.505842 0.057576 -0.020394 360006.000000 0 0 1
-11.424630 -10.558685 25.373957 29.763160 0.746027 0.549991 0.052896 -0.017530 313139.000000 0 0 1
-11.015130 -10.008385 24.148837 28.366656 0.737548 0.552318 0.037650 -0.015553 -49829.600000 0 0 1
-12.013930 -10.501185 23.080367 28.059094 0.718311 0.604893 0.038762 -0.017138 -549279.000000 0 0 1
-11.933030 -11.869485 22.696067 28.255855 0.782728 0.638091 0.036072 -0.015018 -221830.000000 0 0 1
-13.108130 -12.453485 22.222167 28.648509 0.759793 0.682999 0.029014 -0.011971 -181369.000000 0 0 1
-14.284830 -12.598885 23.207267 30.022750 0.722768 0.687257 0.042850 -0.011774 -1774250.000000 0 0 1
-15.391630 -13.228185 22.749367 30.486404 0.709949 0.728440 0.033101 0.000433 -1530500.000000 0 0 1
-16.362030 -13.067385 23.752967 31.665060 0.673912 0.722535 0.030453 0.001816 -446755.000000 0 0 1
-17.699630 -13.677685 23.274967 32.281265 0.657913 0.765544 0.045241 -0.001189 -584782.000000 0 0 1
-17.808530 -15.087985 23.188467 32.901307 0.702886 0.788671 0.044813 -0.001777 1098330.000000 0 0 1
-19.132030 -15.679285 23.010267 33.783826 0.686537 0.821528 0.046830 0.003536 785690.000000 0 0 1
-19.917730 -15.785985 24.278107 35.147400 0.670188 0.808269 0.036709 0.001675 -794903.000000 0 0 1
-19.465330 -16.686885 25.219727 35.963674 0.708695 0.793639 0.036992 0.001845 192222.000000 0 0 1
-20.335130 -16.560585 26.358927 37.182839 0.683450 0.782858 0.032029 0.000399 296718.000000 0 0 1
-19.978230 -17.427585 27.604387 38.273392 0.717315 0.765202 0.031827 -0.003246 -84109.500000 0 0 1
-20.104230 -18.870385 27.421397 38.887074 0.753751 0.788155 0.033833 0.005294 143255.000000 0 0 1
-19.790130 -19.610585 28.579177 39.912324 0.780841 0.772671 0.027374 0.003145 -456152.000000 0 0 1
-19.774130 -21.175385 28.349047 40.534943 0.819604 0.796276 0.040184 0.011702 13214.300000 0 0 1
-21.015130 -21.788085 28.047057 41.267345 0.803455 0.823521 0.034196 0.012473 -189243.000000 0 0 1
-20.931630 -23.171485 27.919197 41.887139 0.836141 0.841247 0.047433 0.018563 84976.700000 0 0 1
-22.230730 -23.916185 27.537297 42.714072 0.821906 0.870180 0.047380 0.022372 -98449.200000 0 0 1
-23.110430 -24.094685 28.593257 43.957026 0.806246 0.862577 0.044020 0.013812 -752728.000000 0 0 1
-24.277530 -24.734985 28.184517 44.671970 0.794731 0.888056 0.034003 0.016523 -491669.000000 0 0 1
-24.956030 -25.567365 29.287187 46.197758 0.797498 0.884143 0.016643 -0.000503 163405.000000 0 0 1
-25.743250 -24.749085 30.211687 46.775829 0.765711 0.868618 0.012735 0.007846 549241.000000 0 0 1
-26.392680 -25.582395 31.146127 48.177938 0.769810 0.867833 0.017394 0.010869 531975.000000 0 0 1
-27.751290 -25.021985 31.703607 49.003597 0.733727 0.867199 0.003945 0.006108 835029.000000 0 0 1
-28.708700 -24.909885 30.647037 48.825533 0.714667 0.892221 0.015663 0.004135 218538.000000 0 0 1
-29.690700 -23.939385 30.908137 49.091188 0.678566 0.889750 0.020314 -0.004807 -151452.000000 0 0 1
-30.860030 -23.736985 29.924237 49.104438 0.655665 0.915493 0.016244 -0.008743 -653636.000000 0 0 1
-31.929780 -24.563385 30.222757 50.361550 0.655735 0.927151 0.018968 -0.004927 -839901.000000 0 0 1
-32.846910 -24.661385 29.161947 50.373828 0.644011 0.953404 0.015568 -0.010332 -575240.000000 0 0 1
-33.973060 -25.617655 29.463757 51.754671 0.646093 0.965146 0.016328 -0.010206 -581415.000000 0 0 1
-33.555720 -26.948815 29.669687 52.273466 0.676632 0.967226 0.015708 -0.013728 82721.800000 0 0 1
-34.524282 -27.664185 30.422487 53.691348 0.675531 0.968401 0.016676 -0.014398 128496.000000 0 0 1
-34.020360 -28.992955 31.030447 54.413831 0.705784 0.963965 0.022378 -0.025174 -150437.000000 0 0 1
-33.209710 -28.870245 32.187747 54.519968 0.715610 0.939261 0.030492 -0.018190 -241854.000000 0 0 1
-32.506900 -30.067385 32.295667 54.806535 0.746432 0.940645 0.033225 -0.029648 -145112.000000 0 0 1
-31.743120 -30.324435 33.628637 55.299930 0.762545 0.917114 0.027686 -0.024619 261318.000000 0 0 1
-32.592860 -30.365555 -33.717914 55.868230 0.750036 2.218712 0.025734 -0.012739 76942.400000 0 0 1
-31.794230 -30.791755 -32.628754 54.987642 0.769382 2.206052 0.023237 -0.014487 476042.000000 0 0 1
-32.387160 -30.261325 -31.273854 54.246934 0.751478 2.185246 0.019591 -0.023232 88831.600000 0 0 1
-32.300620 -28.836465 -31.135304 53.331781 0.728797 2.194202 0.010168 -0.013349 -331722.000000 0 0 1
-31.077360 -28.330095 -30.652794 52.038354 0.739187 2.200670 0.012458 -0.009173 -304439.000000 0 0 1
-30.990140 -26.833595 -30.594174 51.151090 0.713639 2.211942 0.008188 0.010479 -36273.000000 0 0 1
-31.887990 -26.318285 -29.596494 50.847305 0.690000 2.192064 -0.000678 -0.004190 351774.000000 0 0 1
-31.930950 -24.869185 -29.604554 50.144706 0.661706 2.202329 0.005797 0.002086 186636.000000 0 0 1
-30.702780 -24.201185 -28.901354 48.617345 0.667529 2.207398 0.015142 -0.002682 238180.000000 0 0 1
-30.740260 -22.791385 -28.856444 47.928125 0.637986 2.216897 0.014819 0.001164 441005.000000 0 0 1
-29.558860 -22.351585 -28.178724 46.554914 0.647440 2.220913 0.037375 -0.000346 549407.000000 0 0 1
-29.363790 -20.850685 -28.406644 45.868514 0.617460 2.238655 0.042578 -0.006838 -54419.000000 0 0 1
-28.975190 -20.470085 -29.685074 46.257860 0.615055 2.267549 0.063575 -0.004815 170495.000000 0 0 1
-28.889860 -19.080085 -29.920244 45.759093 0.583681 2.283477 0.053027 -0.010976 -226629.000000 0 0 1
-28.490400 -18.781685 -31.429944 46.392843 0.582835 2.315119 0.082245 -0.010607 -218276.000000 0 0 1
-29.467530 -18.680685 -32.424544 47.630393 0.565003 2.319587 0.068921 -0.018992 556.186000 0 0 1
-30.187720 -17.430185 -32.313784 47.531993 0.523631 2.318330 0.042998 -0.019077 -191012.000000 0 0 1
-30.785870 -16.916385 -33.662894 48.653101 0.502448 2.334908 0.041723 -0.024936 426419.000000 0 0 1
-31.838270 -17.655585 34.175507 49.933560 0.506322 0.816989 0.041550 -0.021113 354811.000000 0 0 1
-33.115810 -17.238185 -33.832464 50.383008 0.479946 2.307035 0.040909 -0.011131 -10796.800000 0 0 1
-34.126361 -17.945585 33.671117 51.189810 0.484119 0.852942 0.041832 -0.017282 -490019.000000 0 0 1
-34.181278 -19.331785 33.761736 51.787378 0.514716 0.860670 0.007721 -0.009757 -155866.000000 0 0 1
-34.998831 -19.895085 32.773522 51.911812 0.516898 0.887528 0.010498 -0.008130 -305686.000000 0 0 1
-35.312145 -21.367485 33.108050 52.911813 0.544163 0.894740 -0.005827 -0.006073 -495016.000000 0 0 1
-34.201565 -22.188185 33.006405 52.454603 0.575494 0.890225 0.011088 -0.010559 -593083.000000 0 0 1
-34.507223 -23.515485 33.463473 53.511966 0.598178 0.895222 0.005371 -0.007768 -896426.000000 0 0 1
-33.302290 -24.472485 33.493665 53.195588 0.633740 0.889716 0.006257 -0.001409 115318.000000 0 0 1
-32.288100 -24.215085 -34.010164 52.778622 0.643481 2.271025 -0.014432 -0.005178 567996.000000 0 0 1
-31.494330 -23.011685 -34.161447 51.850119 0.631009 2.290085 -0.001905 -0.008397 -1208850.000000 0 0 1
-30.331190 -22.963685 -33.213344 50.501862 0.648028 2.288512 0.014690 -0.004763 -673708.000000 0 0 1
-29.307390 -23.890885 -33.553394 50.552227 0.683931 2.296601 0.022805 -0.005943 551201.000000 0 0 1
-28.047250 -23.737985 -32.897114 49.318964 0.702375 2.301008 0.047078 -0.007486 596353.000000 0 0 1
-28.028830 -24.198785 -31.400934 48.551160 0.712195 2.274125 0.047366 0.005298 -683575.000000 0 0 1
-27.790320 -25.600185 -31.272374 49.047250 0.744400 2.262171 0.032430 -0.007062 72597.400000 0 0 1
-27.538240 -25.937265 -29.894414 48.215893 0.755469 2.239554 0.030192 -0.011645 -561567.000000 0 0 1
-27.069770 -27.382365 -29.639544 48.590831 0.791139 2.226834 0.021549 -0.017701 64067.200000 0 0 1
-28.026580 -28.450625 -29.711914 49.776752 0.792906 2.210432 0.014471 -0.008724 385611.000000 0 0 1
-27.426380 -29.710525 -29.368704 49.974417 0.825354 2.198978 0.008969 -0.013422 -663637.000000 0 0 1
-28.206550 -30.946195 -29.773734 51.378513 0.831680 2.188909 0.008084 -0.001084 -505127.000000 0 0 1
-28.048760 -31.111145 -31.143094 52.197017 0.837117 2.210110 0.019366 -0.019197 398840.000000 0 0 1
-28.226320 -32.486195 -31.474184 53.316997 0.855448 2.202254 0.025561 -0.009854 -396687.000000 0 0 1
-27.798270 -32.762875 -32.937564 54.139014 0.867192 2.224825 0.029108 -0.024388 377517.000000 0 0 1
-26.397280 -33.046295 -33.022254 53.659512 0.896789 2.233694 0.022166 -0.021076 107066.000000 0 0 1
-26.071840 -33.261345 34.073233 54.286675 0.905982 0.892261 0.034633 -0.021745 -351060.000000 0 0 1
-24.622230 -33.748525 33.977845 53.848965 0.940493 0.887975 0.029792 -0.020579 -253431.000000 0 0 1
-24.318230 -34.127510 32.669140 53.135072 0.951684 0.908623 0.030538 -0.011486 -97777.000000 0 0 1
-23.277130 33.626014 32.606733 52.304232 -0.965300 0.897706 0.019011 -0.002356 -404990.000000 0 0 1
-23.233030 32.815046 31.304437 50.956537 -0.954722 0.909252 0.026410 -0.005996 -681453.000000 0 0 1
-24.367830 32.017410 31.252997 50.947576 -0.920241 0.910394 0.047706 -0.033646 -411606.000000 0 0 1
-24.516030 31.338130 30.024527 49.845625 -0.906937 0.924354 0.043648 -0.026690 -565970.000000 0 0 1
-25.935730 30.805490 29.839267 50.120077 -0.871012 0.933088 0.056523 -0.026691 -473481.000000 0 0 1
-26.158060 29.714440 30.701507 50.097650 -0.848964 0.911155 0.055431 -0.026176 -656963.000000 0 0 1
-27.404160 29.161070 30.473827 50.299206 -0.816448 0.919961 0.053399 -0.027770 -547295.000000 0 0 1
-27.843160 28.203120 31.609927 50.693639 -0.791821 0.897523 0.048967 -0.048983 -431058.000000 0 0 1
-26.971770 27.117910 31.615077 49.622278 -0.788100 0.880047 0.053801 -0.049400 -55499.200000 0 0 1
-27.600330 25.884210 31.816917 49.437706 -0.753323 0.871635 0.047190 -0.037615 -252149.000000 0 0 1
-28.648640 25.357140 30.850267 49.147412 -0.724526 0.892190 0.043844 -0.037772 -88775.100000 0 0 1
-28.151240 24.875100 29.599457 47.826674 -0.723693 0.903467 0.040281 -0.028724 -410214.000000 0 0 1
-29.097000 24.128320 28.859207 47.556966 -0.692316 0.918724 0.034598 -0.014621 202550.000000 0 0 1
-28.545760 23.851660 27.435467 46.221931 -0.696050 0.935322 0.040546 -0.025225 115957.000000 0 0 1
-27.345370 23.102650 27.473537 45.125347 -0.701495 0.916215 0.042185 -0.025362 -109716.000000 0 0 1
-26.973270 22.736550 26.156077 43.916379 -0.700375 0.932799 0.036415 -0.018843 215708.000000 0 0 1
-25.566140 22.067950 26.195347 42.741293 -0.712091 0.911094 0.043295 -0.024045 -95826.800000 0 0 1
-25.601760 20.820750 26.898647 42.573360 -0.682771 0.886899 0.063172 -0.032804 -434359.000000 0 0 1
-24.341930 20.286750 27.089917 41.688672 -0.694782 0.863456 0.068104 -0.022876 -885600.000000 0 0 1
-24.319430 19.147150 28.154207 41.841455 -0.666961 0.832704 0.079584 -0.026485 1150290.000000 0 0 1
-22.982330 18.589150 28.218717 40.866123 -0.680111 0.808594 0.078704 -0.017685 1502780.000000 0 0 1
-23.135630 17.307850 28.807837 40.800864 -0.642286 0.786878 0.078194 -0.017092 -779800.000000 0 0 1
-21.884930 16.497350 28.550187 39.575572 -0.645943 0.764961 0.079216 -0.014863 -1219300.000000 0 0 1
-20.940630 16.891550 29.490617 39.919055 -0.678777 0.739567 0.096106 -0.018010 -361218.000000 0 0 1
-19.909730 15.918050 29.624657 39.081990 -0.674443 0.710535 0.069766 -0.020383 270256.000000 0 0 1
-18.617430 16.420350 30.311497 39.179375 -0.722774 0.686200 0.049469 -0.024620 -403090.000000 0 0 1
-18.703530 16.534850 31.714697 40.361433 -0.723933 0.666861 0.040917 -0.028410 372204.000000 0 0 1
-17.504630 16.677850 32.464119 40.478164 -0.761216 0.640134 0.032950 -0.030694 -651960.000000 0 0 1
-17.670930 16.390450 33.974076 41.655089 -0.747823 0.617023 0.027244 -0.032578 90154.600000 0 0 1
-18.678330 17.156750 -33.863174 42.307784 -0.742963 2.498759 0.049523 -0.036033 -349819.000000 0 0 1
-19.941530 16.588250 -33.936404 42.714332 -0.693859 2.488975 0.068539 -0.028741 -1332010.000000 0 0 1
-21.051630 17.390750 -33.277234 43.046296 -0.690454 2.454442 0.079634 -0.044494 -1118430.000000 0 0 1
-21.072630 17.089450 -31.915754 41.889382 -0.681399 2.437046 0.074793 -0.044573 52634.800000 0 0 1
-21.927530 17.937550 -31.195004 42.139062 -0.685643 2.404294 0.060787 -0.029701 -592448.000000 0 0 1
-21.954330 17.622650 -29.645374 40.882742 -0.676383 2.382022 0.070112 -0.029309 -109637.000000 0 0 1
-22.641330 16.468550 -29.232374 40.476841 -0.628858 2.377774 0.079145 -0.041157 1229220.000000 0 0 1
-24.076630 16.508150 -29.435334 41.456507 -0.601030 2.360336 0.086757 -0.036768 649477.000000 0 0 1
-24.911030 15.588350 -28.583344 40.994678 -0.559146 2.342344 0.076124 -0.026901 -291496.000000 0 0 1
-24.842730 14.234250 -28.866414 40.657655 -0.520311 2.360276 0.043552 -0.019834 67651.200000 0 0 1
-25.608950 13.604050 -27.856444 40.210321 -0.488312 2.336117 0.015406 -0.009470 81773.800000 0 0 1
-25.400750 12.093450 -27.849284 39.585758 -0.444350 2.351132 0.024612 -0.014787 -134181.000000 0 0 1
-24.150830 11.714550 -27.340594 38.314505 -0.451623 2.365396 0.020991 -0.014571 -379363.000000 0 0 1
-23.897830 10.348650 -27.501484 37.875222 -0.408658 2.383440 0.008395 -0.004199 363051.000000 0 0 1
-22.642630 9.728350 -26.819914 36.423032 -0.405801 2.398449 0.034082 -0.001233 386041.000000 0 0 1
-22.999230 8.913150 -25.727354 35.641346 -0.369720 2.377254 0.026447 0.002126 -335444.000000 0 0 1
-21.884130 8.328250 -25.134354 34.351283 -0.363637 2.391588 0.045805 0.005931 -665838.000000 0 0 1
-22.229630 7.222650 -24.186014 33.634601 -0.314151 2.373276 0.052728 0.005609 115460.000000 0 0 1
-22.791330 6.055850 -24.773914 34.203287 -0.259708 2.380835 0.047065 -0.011697 270968.000000 0 0 1
-23.050630 5.006950 -23.857414 33.549624 -0.213893 2.361870 0.056011 -0.008320 -261711.000000 0 0 1
34.485571 24.715615 -10.876614 43.799737 0.621843 1.821748 0.042982 -0.005350 469939.000000 0 0 1
35.625481 24.302715 -10.126114 44.298251 0.598661 1.801425 0.057522 -0.010705 56030.700000 0 0 1
-35.824923 23.234915 -10.718014 44.024564 -0.575368 1.816723 0.072512 -0.008450 274747.000000 0 0 1
-34.711525 22.634915 -9.788414 42.579836 -0.577841 1.802755 0.057108 -0.015230 642523.000000 0 0 1
-35.289810 21.956415 -8.644514 42.452120 -0.556565 1.775860 0.043751 -0.005692 984085.000000 0 0 1
-34.223917 21.282315 -7.957214 41.079565 -0.556335 1.765731 0.036921 0.001343 758175.000000 0 0 1
-34.832782 20.565015 -6.705314 41.002485 -0.533325 1.735068 0.027005 0.007287 467897.000000 0 0 1
-35.580203 19.357715 -6.915714 41.091351 -0.498270 1.739902 0.022771 0.005030 483858.000000 0 0 1
-35.837223 18.631415 -5.761314 40.799864 -0.479433 1.712479 0.022743 -0.000196 -232751.000000 0 0 1
35.494011 17.314115 -6.035214 39.950310 0.453843 1.722445 0.022425 0.008116 1164040.000000 0 0 1
34.208731 17.603615 -6.660514 39.044680 0.475255 1.742222 0.031382 0.000177 1193880.000000 0 0 1
33.675871 16.501715 -7.342114 38.213578 0.455629 1.764132 0.052764 0.004266 45446.000000 0 0 1
32.709621 16.820815 -8.499814 37.750576 0.474980 1.797901 0.043589 -0.006044 18133.000000 0 0 1
32.278651 15.632115 -9.127814 37.007990 0.450998 1.820012 0.054923 -0.008645 90975.600000 0 0 1
31.649271 15.863815 -10.357014 36.886376 0.464637 1.855405 0.053894 -0.013241 -698874.000000 0 0 1
31.011421 14.661215 -11.130414 36.063078 0.441626 1.884556 0.048368 -0.011925 -721928.000000 0 0 1
29.745171 14.299715 -10.718714 34.700834 0.448122 1.884821 0.043659 -0.005243 -537626.000000 0 0 1
29.693071 13.722915 -9.413314 34.038322 0.432919 1.850999 0.057271 -0.005242 -1077050.000000 0 0 1
28.637931 12.631515 -9.224214 32.630851 0.415408 1.857387 0.043473 0.000665 -363525.000000 0 0 1
28.949111 11.463315 -9.921914 32.678785 0.377037 1.879285 0.055323 -0.003044 614740.000000 0 0 1
27.998201 10.429115 -9.731214 31.422321 0.356570 1.885664 0.060719 -0.003075 -298189.000000 0 0 1
28.537251 9.140315 -10.369414 31.708750 0.309970 1.903945 0.071199 -0.008025 862159.000000 0 0 1
29.701301 8.576515 -9.687314 32.397036 0.281112 1.874460 0.064038 -0.008372 1469270.000000 0 0 1
29.725411 7.197315 -9.686314 32.081554 0.237555 1.877511 0.068399 -0.006762 295938.000000 0 0 1
30.875071 6.647115 -8.739414 32.769369 0.212054 1.840758 0.087503 -0.008034 657875.000000 0 0 1
32.170351 7.039315 -9.117214 34.170266 0.215419 1.840885 0.085097 -0.013611 -171317.000000 0 0 1
33.149081 6.463515 -8.297614 34.777709 0.192567 1.811710 0.089144 -0.017403 632525.000000 0 0 1
34.646701 6.714715 -8.706614 36.349504 0.191432 1.812673 0.088969 -0.023806 850202.000000 0 0 1
35.019991 5.918615 -9.829014 36.851585 0.167425 1.840783 0.095512 -0.023108 50158.400000 0 0 1
-35.678225 5.846915 -9.944914 37.496979 -0.162435 1.839227 0.085095 -0.025764 -777163.000000 0 0 1
-35.320712 5.217415 -11.285214 37.445029 -0.146655 1.876937 0.085472 -0.031310 1062980.000000 0 0 1
-33.892840 4.971415 -11.406614 36.104715 -0.145642 1.892235 0.073144 -0.030776 2146180.000000 0 0 1
-33.152240 5.954815 -12.215514 35.829452 -0.177725 1.918708 0.054253 -0.026018 102973.000000 0 0 1
-32.426750 7.090015 -11.466414 35.117532 -0.215260 1.903411 0.054436 -0.012192 -517941.000000 0 0 1
-33.325900 7.927415 -10.754614 35.904335 -0.233535 1.875002 0.065624 -0.018934 337883.000000 0 0 1
-33.402670 9.211115 -11.321014 36.452001 -0.269073 1.886592 0.074171 -0.022679 -308927.000000 0 0 1
-34.334196 10.167115 -10.563914 37.333678 -0.287895 1.857674 0.090759 -0.014000 -132144.000000 0 0 1
-33.826740 10.648415 -9.361514 36.677991 -0.304972 1.828887 0.055421 -0.004065 183645.000000 0 0 1
-34.764110 11.465915 -8.686614 37.622704 -0.318586 1.803786 0.063896 -0.003307 301532.000000 0 0 1
-33.978140 12.458315 -7.782114 37.017360 -0.351436 1.782605 0.067663 0.001128 49823.900000 0 0 1
-33.292200 13.425415 -8.514414 36.893192 -0.383314 1.803681 0.054685 -0.008076 -37460.300000 0 0 1
-32.565760 14.280715 -7.640514 36.370936 -0.413266 1.782445 0.060283 -0.003757 268530.000000 0 0 1
-31.658480 15.337415 -8.342614 36.153767 -0.451142 1.803648 0.045629 -0.003840 267962.000000 0 0 1
-32.459070 16.272515 -9.058914 37.422585 -0.464706 1.815296 0.033629 -0.002959 148828.000000 0 0 1
-31.775750 17.519415 -9.372114 37.476189 -0.503876 1.823561 0.031570 0.005066 240121.000000 0 0 1
-32.501720 18.578715 -10.242514 38.812879 -0.519292 1.837854 0.011168 -0.005278 -134096.000000 0 0 1
-32.317030 18.368615 -11.608814 38.943048 -0.516851 1.873495 0.001828 -0.009460 77959.200000 0 0 1
-33.341620 18.921015 -12.430714 40.301254 -0.516172 1.884354 0.003897 -0.012923 -43866.800000 0 0 1
-32.898370 18.921115 -13.921414 40.424214 -0.521938 1.922378 -0.000548 -0.009207 -211594.000000 0 0 1
-31.963880 19.933915 -14.193314 40.255444 -0.557620 1.931124 0.006175 -0.014400 -7539.000000 0 0 1
-31.886600 20.140615 -15.611114 40.817968 -0.563355 1.963250 -0.003470 -0.012457 -487425.000000 0 0 1
-31.057450 21.455015 -15.763314 40.906784 -0.604536 1.966380 0.027114 -0.022469 871912.000000 0 0 1
-29.688740 21.207215 -15.400314 39.602234 -0.620271 1.970206 0.024936 -0.019087 1229160.000000 0 0 1
-28.791340 22.323115 -15.285814 39.508465 -0.659523 1.968063 0.027866 -0.021082 369306.000000 0 0 1
-28.114080 22.942315 -16.492114 39.859016 -0.684447 1.997378 0.021772 -0.022872 -456953.000000 0 0 1
-29.019180 23.676915 -17.325314 41.265914 -0.684365 2.004072 0.028596 -0.013802 229590.000000 0 0 1
-28.474370 24.339215 -18.436514 41.750356 -0.707260 2.028166 0.016724 -0.017063 -565436.000000 0 0 1
-27.641540 25.562015 -18.178714 41.808336 -0.746332 2.020624 0.019482 -0.009763 -326814.000000 0 0 1
-28.417160 26.613815 -17.696914 42.766937 -0.752640 1.997419 0.031821 -0.004546 -133861.000000 0 0 1
-27.650480 27.787515 -17.593314 42.967659 -0.787870 1.992653 0.033067 -0.005695 93917.600000 0 0 1
-28.440730 29.062315 -17.149514 44.131611 -0.796207 1.969907 0.027757 -0.003285 53206.800000 0 0 1
-28.591900 29.376015 -15.746414 43.913512 -0.798924 1.937540 0.028007 -0.009750 429073.000000 0 0 1
-27.361090 29.692215 -15.125314 43.116494 -0.826234 1.929223 0.028922 -0.006613 90909.200000 0 0 1
-27.601620 30.375815 -13.720614 43.275800 -0.833211 1.893414 0.032118 -0.003896 -113657.000000 0 0 1
-27.486230 31.751915 -13.709314 44.177169 -0.857283 1.886332 0.031180 -0.000474 189661.000000 0 0 1
-28.026640 32.367115 -12.547514 44.615724 -0.857144 1.855877 0.013812 -0.005756 -103116.000000 0 0 1
-27.458360 33.753415 -12.334014 45.225905 -0.887878 1.847016 -0.002322 -0.000642 -56414.900000 0 0 1
-27.724630 -34.123919 -13.473314 45.985075 0.888498 1.868152 -0.013785 -0.012922 -278380.000000 0 0 1
-27.088430 -32.892319 -13.436214 44.679073 0.881860 1.876251 0.011036 -0.011271 -296135.000000 0 0 1
-27.180170 -32.127819 -14.747314 44.591946 0.868628 1.907860 0.011807 -0.013604 -45356.600000 0 0 1
-26.484610 -32.833819 -15.735514 45.023334 0.892028 1.927830 0.009721 -0.018951 -98887.700000 0 0 1
-26.928030 -32.378019 -16.993314 45.411757 0.877037 1.954336 0.013869 -0.010223 -70436.200000 0 0 1
-26.054000 -32.813219 -18.205214 45.683127 0.899719 1.980689 0.013856 -0.009830 -276217.000000 0 0 1
-26.284850 -34.046619 -18.821514 46.950133 0.913347 1.983277 0.015952 -0.001521 -74237.700000 0 0 1
-25.808490 33.543215 -18.089614 46.026727 -0.914988 1.974714 0.004233 -0.013180 -562274.000000 0 0 1
-25.881600 32.254515 -18.943214 45.486881 -0.894583 2.000338 0.012729 -0.016064 452999.000000 0 0 1
-27.110960 31.570815 -19.213314 45.835270 -0.861253 2.003340 0.026250 -0.012230 375409.000000 0 0 1
-27.995880 32.241715 -20.108214 47.197858 -0.855767 2.010908 0.031975 -0.004664 71697.100000 0 0 1
-29.463590 31.886515 -19.774314 47.706147 -0.824871 1.998192 0.035201 -0.017633 83651.100000 0 0 1
-29.844540 30.535515 -20.093214 47.189527 -0.796841 2.010640 0.027012 -0.011141 439839.000000 0 0 1
-31.228370 30.407415 -20.378114 48.115377 -0.772080 2.008130 0.034745 -0.013061 69604.900000 0 0 1
-31.554870 29.090015 -21.034114 47.795112 -0.744776 2.026494 0.033586 -0.014737 -703745.000000 0 0 1
-32.913790 28.981715 -21.334814 48.769167 -0.721956 2.023574 0.038707 -0.018988 -330760.000000 0 0 1
-33.153660 27.664215 -21.700614 48.325879 -0.695382 2.036495 0.035107 -0.011231 306268.000000 0 0 1
-34.634164 27.267215 -21.965514 49.249468 -0.666944 2.033093 0.035671 -0.009612 8774.840000 0 0 1
-35.353376 27.857715 -22.987314 50.540381 -0.667368 2.042978 0.035302 -0.007703 108767.000000 0 0 1
35.758211 26.932615 -23.467414 50.544386 0.645538 2.053633 0.034919 -0.010136 -84185.100000 0 0 1
34.815371 27.492115 -24.537614 50.695374 0.668401 2.076040 0.043223 -0.018021 -331417.000000 0 0 1
35.366841 27.668815 -25.837904 51.807085 0.663878 2.092933 0.060467 -0.017090 -477824.000000 0 0 1
34.394021 27.968515 -26.784034 51.793542 0.682726 2.114292 0.056938 -0.016513 -429732.000000 0 0 1
35.047311 28.284415 -28.178104 53.125584 0.679016 2.129875 0.063275 -0.018661 87487.300000 0 0 1
35.793941 27.212815 -28.620054 53.299634 0.650037 2.137632 0.060386 -0.003433 -745632.000000 0 0 1
-35.777824 27.487215 -29.863294 54.105601 -0.655095 2.155491 0.039417 -0.004627 -607445.000000 0 0 1
-35.304498 26.194415 -30.573444 53.547086 -0.638334 2.178476 0.026616 -0.004125 602751.000000 0 0 1
-34.236446 25.483515 -29.977574 52.155524 -0.639868 2.183123 0.034213 -0.001958 447290.000000 0 0 1
-32.931860 26.043515 -29.945584 51.570438 -0.669125 2.190352 0.011860 0.014831 737385.000000 0 0 1
-31.808530 25.122015 -29.332524 50.032941 -0.668483 2.197236 0.002896 0.012782 395148.000000 0 0 1
-31.609940 23.879215 -29.892654 49.628379 -0.646970 2.217213 0.015677 0.011527 120504.000000 0 0 1
-32.044100 22.922615 -28.976384 48.907070 -0.620951 2.204928 0.018196 0.010638 -94070.700000 0 0 1
-31.788810 21.454515 -29.409684 48.329641 -0.593686 2.224994 0.000536 0.008348 1169240.000000 0 0 1
-30.391560 21.023615 -29.409774 47.228954 -0.605173 2.242993 0.048089 0.005881 1396050.000000 0 0 1
-30.168520 19.693615 -29.844854 46.783473 -0.578332 2.262611 0.043485 -0.006199 -740442.000000 0 0 1
-28.732820 19.196415 -29.843994 45.658967 -0.588995 2.283165 0.074751 -0.013837 -944597.000000 0 0 1
-27.978970 19.814415 -30.894984 46.151206 -0.616201 2.304237 0.091456 -0.023121 -17885.100000 0 0 1
-26.810620 19.048115 -31.138654 45.290791 -0.617718 2.328875 0.096957 -0.035347 -190072.000000 0 0 1
-26.838380 17.672715 -31.805754 45.213156 -0.582318 2.351054 0.096906 -0.031010 -574051.000000 0 0 1
-27.451190 16.612315 -31.081674 44.672221 -0.544204 2.340290 0.067807 -0.028510 262488.000000 0 0 1
-27.354700 15.388815 -31.780054 44.666174 -0.512439 2.362429 0.038752 -0.017867 -116972.000000 0 0 1
-27.604740 14.109215 -30.978484 43.826454 -0.472501 2.355823 0.042267 -0.014417 -1420460.000000 0 0 1
-28.938770 14.047615 -30.672324 44.447490 -0.451920 2.332396 0.027301 -0.013321 -1140700.000000 0 0 1
-29.516490 12.763715 -30.613524 44.399588 -0.408144 2.331595 0.019975 -0.003170 79928.600000 0 0 1
-29.123380 11.916215 -29.387174 43.055469 -0.388381 2.322032 -0.004819 -0.015232 -370768.000000 0 0 1
-29.652190 12.475415 -28.215104 42.789957 -0.398244 2.290798 -0.001094 -0.008909 182613.000000 0 0 1
-29.771520 11.470415 -27.241874 41.952753 -0.367754 2.277521 0.001083 -0.011938 -11759.400000 0 0 1
-29.615940 12.018815 -25.822774 41.089798 -0.385516 2.250352 -0.005515 -0.012012 547784.000000 0 0 1
-28.285310 12.463515 -25.567244 40.113363 -0.415039 2.261883 -0.000641 -0.011385 292861.000000 0 0 1
-28.272030 13.344215 -24.451614 39.689510 -0.440992 2.234543 -0.001851 -0.004588 -205676.000000 0 0 1
-26.882130 13.630215 -23.899114 38.465560 -0.469261 2.241212 0.009183 0.000771 128972.000000 0 0 1
-25.906580 14.401715 -24.670414 38.564097 -0.507369 2.264937 0.029724 -0.002221 1454510.000000 0 0 1
-24.540830 14.412215 -24.276914 37.407657 -0.531010 2.277043 0.045986 -0.004867 641615.000000 0 0 1
-24.251430 14.972615 -22.892714 36.556633 -0.553109 2.247499 0.042641 -0.003971 -1226780.000000 0 0 1
-24.395130 16.399215 -22.772914 37.184166 -0.591846 2.229934 0.059133 -0.010326 233211.000000 0 0 1
-24.655730 16.820215 -21.464414 36.763375 -0.598682 2.194263 0.056297 -0.005125 791340.000000 0 0 1
-26.172780 16.825715 -21.034014 37.557274 -0.571347 2.165244 0.038183 -0.012525 688371.000000 0 0 1
-26.819740 15.579315 -20.882214 37.390913 -0.526249 2.163353 0.032348 -0.005870 594411.000000 0 0 1
-28.104370 15.810715 -20.284114 38.095664 -0.512444 2.132291 0.024683 -0.005517 -488605.000000 0 0 1
-29.064240 14.688015 -20.647614 38.558939 -0.467929 2.135875 -0.000071 -0.011969 -388101.000000 0 0 1
-29.775340 14.721515 -21.873014 39.770876 -0.459173 2.153131 -0.009183 -0.004199 510716.000000 0 0 1
-30.630600 15.832515 -22.103414 40.956844 -0.477065 2.140848 0.001246 -0.006334 -312111.000000 0 0 1
-31.233160 15.892915 -23.548214 42.221007 -0.470701 2.162453 -0.006013 0.001442 601972.000000 0 0 1
-32.211900 14.914915 -23.988414 42.842796 -0.433633 2.165082 0.004981 0.000274 666947.000000 0 0 1
-32.290050 15.013315 -25.341154 43.706076 -0.435218 2.189290 0.019738 -0.005821 79937.300000 0 0 1
-33.472780 14.132915 -25.878474 44.607866 -0.399515 2.189688 0.000920 -0.003627 230116.000000 0 0 1
-33.512980 12.756415 -25.626214 44.074355 -0.363707 2.191283 0.019903 -0.009179 -37189.400000 0 0 1
-33.828800 12.398915 -24.309914 43.463694 -0.351315 2.164356 0.008653 -0.004207 -582070.000000 0 0 1
-34.025245 10.867615 -24.215814 43.153540 -0.309157 2.166577 0.011624 -0.005619 366576.000000 0 0 1
-35.154886 10.398315 -24.983714 44.364140 -0.287586 2.168990 0.022739 -0.016713 556267.000000 0 0 1
-34.779684 9.380615 -25.887734 44.359859 -0.263447 2.193932 0.025886 -0.012790 -99231.200000 0 0 1
-35.987839 8.767215 -26.629984 45.619564 -0.238961 2.194124 0.041646 -0.007330 -338950.000000 0 0 1
35.327501 8.153415 -25.669884 44.423569 0.226823 2.186881 0.023143 -0.003309 355205.000000 0 0 1
34.210131 7.451315 -26.286594 43.781734 0.214461 2.214799 0.033827 -0.001097 885211.000000 0 0 1
33.250501 6.629815 -25.398424 42.363076 0.196809 2.213724 0.034654 -0.006306 64050.900000 0 0 1
33.891891 5.515115 -24.810714 42.363290 0.161313 2.196497 0.026316 -0.013626 -354353.000000 0 0 1
33.021031 4.789215 -24.048414 41.129689 0.144031 2.195303 0.022958 -0.009188 -428182.000000 0 0 1
33.776141 3.681615 -23.347714 41.224965 0.108572 2.172865 0.017049 -0.004780 90494.600000 0 0 1
34.424701 2.634115 -24.070914 42.088092 0.076369 2.179638 0.021637 -0.007400 27190.200000 0 0 1
35.049851 1.847815 -23.130214 42.034668 0.052671 2.153478 0.049104 -0.009075 -552251.000000 0 0 1
35.762711 0.632915 -23.715014 42.915894 0.017696 2.156268 0.067229 -0.009374 -85235.300000 0 0 1
35.008401 -0.511085 -24.012514 42.455273 -0.014598 2.171952 0.019945 -0.009882 25825.500000 0 0 1
35.946271 -1.538385 -24.276114 43.403119 -0.042771 2.164358 0.041284 -0.014581 462402.000000 0 0 1
-22.813930 29.441715 27.386907 46.231295 -0.911558 0.936776 0.026186 -0.015230 -607247.000000 0 0 1
-24.017430 29.944915 26.830337 46.833769 -0.894804 0.960776 0.017488 -0.022034 729318.000000 0 0 1
-24.461530 29.375815 25.592737 46.003186 -0.876426 0.980839 0.015691 -0.015218 -153318.000000 0 0 1
-24.736530 27.889315 25.531247 45.183563 -0.845236 0.970295 0.016603 -0.015550 -971566.000000 0 0 1
-25.919210 27.397515 26.096507 45.863460 -0.813118 0.965502 0.023997 -0.015432 -172584.000000 0 0 1
-26.104760 27.227215 27.555727 46.712930 -0.806442 0.939867 0.031603 -0.021302 -798349.000000 0 0 1
-25.420570 26.025915 28.273997 46.075726 -0.797164 0.910132 0.032944 -0.020963 -54778.500000 0 0 1
-24.020430 26.176515 28.348277 45.451247 -0.828324 0.897320 0.032506 -0.025417 -119611.000000 0 0 1
-23.581430 26.461915 29.680967 46.230689 -0.842895 0.873668 0.028888 -0.026739 681651.000000 0 0 1
-22.098430 26.183215 30.053857 45.575604 -0.869800 0.850738 0.042789 -0.020986 462092.000000 0 0 1
-21.015830 26.840915 29.379987 45.003150 -0.906522 0.859465 0.047481 -0.022589 1228290.000000 0 0 1
-19.728430 26.484715 29.902777 44.551399 -0.930568 0.834974 0.063079 -0.024431 766352.000000 0 0 1
-19.200030 25.062615 29.533207 43.231772 -0.917082 0.818747 0.074164 -0.028549 -705403.000000 0 0 1
-18.702730 25.040615 28.184877 42.085767 -0.929285 0.836990 0.067761 -0.021360 4711.780000 0 0 1
-19.316530 24.117315 27.298827 41.231046 -0.895482 0.847187 0.066073 -0.020444 -326490.000000 0 0 1
-19.079130 22.565815 27.605967 40.439073 -0.868927 0.819405 0.053567 -0.012558 234244.000000 0 0 1
-20.057930 22.007715 28.484337 41.207008 -0.831716 0.807579 0.063669 -0.013330 400060.000000 0 0 1
-19.869630 20.619815 28.631777 40.493921 -0.803924 0.785459 0.064921 -0.012232 -3568.350000 0 0 1
-20.384530 20.056715 29.936947 41.400745 -0.777292 0.762514 0.067477 -0.017188 -274168.000000 0 0 1
-19.596730 20.545415 30.977107 42.020555 -0.809027 0.741895 0.062219 -0.028019 11638.000000 0 0 1
-19.871630 19.901615 32.194437 42.748541 -0.786152 0.718017 0.065893 -0.019956 335674.000000 0 0 1
-18.885330 20.347015 33.356758 43.397350 -0.822638 0.694090 0.067621 -0.019785 -5010.260000 0 0 1
-19.013930 21.737115 33.682794 44.368483 -0.852124 0.708774 0.043628 -0.016653 259893.000000 0 0 1
-18.214330 22.657115 32.931203 43.926880 -0.893674 0.723214 0.054924 -0.011351 384732.000000 0 0 1
-16.718030 22.724715 33.340636 43.674972 -0.936526 0.702265 0.042056 -0.004822 239344.000000 0 0 1
-15.980830 21.518615 33.165693 42.642712 -0.932015 0.679706 0.045112 -0.027690 -33344.400000 0 0 1
-14.620730 21.767815 33.501556 42.543599 -0.979340 0.664113 0.027570 -0.026494 -243480.000000 0 0 1
-13.801130 20.471915 33.271682 41.431574 -0.977631 0.638398 0.015936 -0.026792 -350117.000000 0 0 1
-12.467030 20.381415 33.692174 41.303650 -1.021828 0.616825 0.011571 -0.026432 -233784.000000 0 0 1
-12.253930 20.466715 -33.359814 41.011247 -1.031315 2.520823 0.019117 -0.028494 352113.000000 0 0 1
-10.754430 20.280215 -32.926534 40.138529 -1.083210 2.532771 0.018690 -0.018748 794597.000000 0 0 1
-10.016130 21.458615 -33.095794 40.695535 -1.134088 2.520518 0.025315 -0.020917 -490292.000000 0 0 1
-8.713430 21.307515 -32.585624 39.896829 -1.182610 2.526547 0.017085 -0.012083 230209.000000 0 0 1
-7.829530 22.632015 -32.792104 40.605809 -1.237735 2.510819 0.020391 -0.012648 437226.000000 0 0 1
-7.849030 23.573415 -31.774434 40.335193 -1.249381 2.477960 0.034399 -0.014734 415587.000000 0 0 1
-7.133030 23.202315 -30.557854 39.025760 -1.272539 2.470299 0.035614 -0.015497 194704.000000 0 0 1
-6.894830 24.340215 -29.572194 38.916570 -1.294759 2.433936 0.055292 -0.020250 236327.000000 0 0 1
-5.875630 25.266515 -29.922044 39.601118 -1.342311 2.427344 0.044990 -0.015038 169624.000000 0 0 1
-5.795730 26.246915 -28.913634 39.477706 -1.353468 2.392643 0.061996 -0.016500 -768432.000000 0 0 1
-4.528030 27.026515 -29.112034 39.980571 -1.404798 2.386422 0.045153 -0.022237 -435091.000000 0 0 1
-3.332030 26.241915 -28.962564 39.224618 -1.444499 2.401457 0.044190 -0.008127 1469520.000000 0 0 1
-2.146830 26.745415 -29.621904 39.967278 -1.490699 2.405584 0.046689 -0.011100 1044080.000000 0 0 1
-1.473030 28.059715 -29.200614 40.523984 -1.518348 2.375429 0.044337 -0.013044 -701245.000000 0 0 1
-0.927130 27.903115 -27.921134 39.484593 -1.537582 2.356241 0.055292 -0.024682 376012.000000 0 0 1
-0.064830 29.034715 -27.699954 40.128622 -1.568563 2.332671 0.058141 -0.015087 -298572.000000 0 0 1
0.531370 29.129715 -26.254004 39.218559 1.552557 2.304235 0.064870 -0.027763 651895.000000 0 0 1
1.600470 28.281415 -25.840104 38.342025 1.514266 2.310321 0.085562 -0.034496 403551.000000 0 0 1
2.801270 28.374315 -26.567254 38.971372 1.472390 2.320896 0.075283 -0.033033 58233.000000 0 0 1
4.122370 28.320415 -25.721984 38.479349 1.426250 2.302935 0.073584 -0.035353 488396.000000 0 0 1
4.520370 27.053515 -25.236524 37.272088 1.405236 2.314596 0.077239 -0.030359 -47543.800000 0 0 1
5.503570 27.231215 -24.249014 36.876050 1.371377 2.288401 0.050188 -0.025945 -392202.000000 0 0 1
6.106670 25.956415 -23.676514 35.659560 1.339732 2.296898 0.055055 -0.026118 -529188.000000 0 0 1
7.129470 26.289915 -22.809414 35.528275 1.305979 2.267910 0.051225 -0.030094 -88438.600000 0 0 1
7.980970 25.136015 -22.459314 34.640091 1.263353 2.276227 0.039886 -0.021223 656106.000000 0 0 1
9.371370 25.538215 -21.954214 34.957267 1.219098 2.249815 0.027428 -0.008971 -1030850.000000 0 0 1
9.435670 26.192015 -20.704114 34.694580 1.225020 2.210246 0.037860 -0.003784 1605840.000000 0 0 1
10.841070 26.414315 -20.336014 35.054219 1.181336 2.189685 0.052700 -0.009828 2196320.000000 0 0 1
11.672970 25.140715 -19.889014 34.115783 1.136110 2.193195 0.034897 0.004910 -272443.000000 0 0 1
12.007170 24.286115 -20.999914 34.278038 1.111635 2.230186 0.038027 -0.001486 -179964.000000 0 0 1
12.184370 22.947415 -20.568314 33.137566 1.082681 2.240425 0.022523 0.008472 -520806.000000 0 0 1
12.386170 21.930615 -21.754414 33.280980 1.056670 2.283206 0.035322 0.001966 -879463.000000 0 0 1
11.274070 21.642615 -22.523614 33.208743 1.090553 2.316166 0.038434 -0.007757 -496628.000000 0 0 1
11.419470 20.519015 -23.394814 33.147422 1.062953 2.354321 0.039598 -0.010609 579104.000000 0 0 1
10.447070 20.593515 -24.647314 33.774609 1.101327 2.388765 0.054533 -0.011155 1335990.000000 0 0 1
9.037470 20.440415 -24.504114 33.165314 1.154500 2.402155 0.039890 -0.013648 428914.000000 0 0 1
8.338170 20.134315 -25.661594 33.666498 1.178171 2.437547 0.047768 -0.012279 -483635.000000 0 0 1
6.820670 20.160715 -25.449184 33.175849 1.244569 2.445104 0.043242 -0.019695 -424603.000000 0 0 1
6.185570 21.396715 -25.388974 33.773965 1.289379 2.421481 0.059328 -0.022525 -186667.000000 0 0 1
6.180070 21.937015 -24.098014 33.168361 1.296194 2.384064 0.058033 -0.025832 -679426.000000 0 0 1
4.825570 22.132215 -23.397914 32.566600 1.356122 2.372387 0.071052 -0.027987 -424413.000000 0 0 1
4.231570 23.237515 -23.950414 33.637934 1.390669 2.363147 0.072886 -0.028264 523854.000000 0 0 1
2.801270 23.290715 -23.776614 33.401076 1.451097 2.362928 0.085111 -0.026065 990542.000000 0 0 1
2.224870 24.547115 -24.444614 34.713831 1.480407 2.352057 0.074450 -0.019663 777692.000000 0 0 1
0.793070 24.571615 -24.595414 34.775388 1.538532 2.356418 0.087024 -0.039962 812648.000000 0 0 1
0.501570 25.320615 -25.755754 36.121240 1.550990 2.364616 0.080482 -0.024035 -237424.000000 0 0 1
-0.993230 25.246715 -26.074244 36.307703 -1.531476 2.371931 0.088804 -0.027277 -242931.000000 0 0 1
-1.300030 23.935215 -26.530824 35.755688 -1.516535 2.406849 0.094897 -0.031127 994372.000000 0 0 1
-2.649930 23.875615 -27.064774 36.187969 -1.460260 2.415681 0.090148 -0.019982 1144070.000000 0 0 1
-3.085530 22.440315 -27.368734 35.526551 -1.434154 2.450224 0.068521 -0.013658 309774.000000 0 0 1
-2.170130 21.877315 -28.366004 35.888112 -1.471924 2.482260 0.069887 -0.017774 638145.000000 0 0 1
-2.606130 20.605615 -28.862484 35.558772 -1.444988 2.517826 0.051734 -0.012082 291153.000000 0 0 1
-3.892630 20.616215 -29.759944 36.412019 -1.384179 2.527525 0.048635 -0.013797 369422.000000 0 0 1
-3.761330 21.126015 -31.085104 37.772209 -1.394600 2.537402 0.031448 -0.011550 32959.200000 0 0 1
-3.327830 22.518915 -31.248694 38.660792 -1.424079 2.512019 0.036652 -0.014234 26789.600000 0 0 1
-3.080130 22.779315 -32.766024 40.024951 -1.436395 2.529835 0.023383 -0.007152 -894275.000000 0 0 1
-1.976830 22.121715 -33.242234 39.979048 -1.481672 2.552583 0.027721 -0.007345 -895559.000000 0 0 1
-1.911530 22.152815 33.816107 40.471351 -1.484721 0.581651 0.029686 0.002807 49302.800000 0 0 1
-0.719330 21.407115 33.166633 39.481737 -1.537207 0.573421 0.043003 0.001451 35726.900000 0 0 1
-0.879630 20.053115 33.042460 38.661419 -1.526959 0.545896 0.030895 0.012990 130427.000000 0 0 1
0.167470 19.444415 32.297347 37.699230 1.562184 0.541937 0.038845 0.003334 149051.000000 0 0 1
-0.131730 18.008415 31.910997 36.641945 -1.563482 0.513792 0.035214 0.008461 -123215.000000 0 0 1
-1.063630 17.930015 30.871657 35.716606 -1.511545 0.526939 0.024315 0.012365 -98323.100000 0 0 1
-1.484730 16.622515 30.522327 34.786849 -1.481712 0.500360 0.025401 0.006325 -238847.000000 0 0 1
-2.625330 16.610315 29.513327 33.968094 -1.414039 0.517913 0.025623 0.010628 -765428.000000 0 0 1
-3.847030 17.114715 29.930397 34.692100 -1.349692 0.530125 0.012905 0.003200 -621485.000000 0 0 1
-4.229830 18.208715 29.132457 34.614286 -1.342547 0.570500 0.014542 0.006895 206988.000000 0 0 1
-5.757630 18.487315 29.256497 35.083810 -1.268880 0.584654 -0.007822 0.003627 519603.000000 0 0 1
-6.526930 17.619015 28.444267 34.089688 -1.216022 0.583762 -0.011114 0.000409 -1788970.000000 0 0 1
-7.843830 17.789115 28.722027 34.683326 -1.155507 0.595047 -0.020100 0.004037 -1817630.000000 0 0 1
-8.835930 16.953915 27.839807 33.772233 -1.090354 0.601761 -0.016441 -0.004725 153392.000000 0 0 1
-9.134630 15.635415 28.295507 33.593800 -1.042055 0.569291 -0.006740 -0.012909 -300070.000000 0 0 1
-9.843130 15.648515 29.478387 34.795668 -1.009316 0.560131 -0.009971 -0.014233 -1474190.000000 0 0 1
-10.402130 14.277715 29.857337 34.691757 -0.941161 0.534259 -0.003597 -0.016378 -163744.000000 0 0 1
-9.511730 13.118915 29.871017 33.983181 -0.943462 0.497048 0.012344 -0.015766 707932.000000 0 0 1
-8.589530 13.098115 30.961977 34.698482 -0.990366 0.468348 0.002579 -0.012535 -120358.000000 0 0 1
-9.216430 12.846915 32.370237 36.025242 -0.948485 0.454357 0.019611 -0.018171 -646489.000000 0 0 1
-9.518730 11.483715 32.472252 35.734145 -0.878686 0.430594 0.011284 -0.015409 407667.000000 0 0 1
-9.901830 11.110415 33.843328 36.971048 -0.842853 0.414294 0.006156 -0.006760 -138829.000000 0 0 1
-10.422830 9.660115 33.936748 36.792065 -0.747438 0.396565 0.015234 0.002874 -108403.000000 0 0 1
-9.396430 8.662915 33.832629 36.166086 -0.744804 0.361183 0.020377 0.005326 378139.000000 0 0 1
-9.071330 8.026415 -33.393614 35.522469 -0.724360 2.793632 0.044774 -0.004268 332430.000000 0 0 1
-8.169130 8.893215 -32.423494 34.599233 -0.827810 2.785070 0.047787 -0.009815 123643.000000 0 0 1
-8.870130 10.010315 -31.821014 34.517568 -0.845715 2.743698 0.039783 -0.006477 301094.000000 0 0 1
-8.088530 10.687315 -30.856544 33.641779 -0.922935 2.731814 0.039349 -0.006708 38480.500000 0 0 1
-7.212830 11.847715 -31.363844 34.294081 -1.023935 2.725204 0.023466 -0.001603 155200.000000 0 0 1
-7.963530 12.996515 -31.757484 35.225914 -1.021059 2.694106 0.016057 -0.005420 219946.000000 0 0 1
-7.053030 13.925215 -32.282954 35.858694 -1.101967 2.691214 0.010401 -0.008275 67192.800000 0 0 1
-7.627530 15.357415 -32.608894 36.842494 -1.109818 2.657482 0.006325 -0.004947 391442.000000 0 0 1
-8.419030 15.441815 -33.814514 38.114972 -1.071638 2.661975 0.012546 -0.010193 362112.000000 0 0 1
-8.504630 16.766615 34.181500 39.010551 -1.101377 0.502852 0.019014 -0.010787 -1404630.000000 0 0 1
-8.869230 16.882715 32.704193 37.858335 -1.087080 0.527919 0.014393 -0.016231 1429380.000000 0 0 1
-10.176630 16.334615 32.373857 37.662316 -1.013629 0.536345 -0.009503 -0.018165 918435.000000 0 0 1
-11.274730 16.964115 32.951831 38.739178 -0.984210 0.553657 -0.000947 -0.021236 -712684.000000 0 0 1
-12.659930 16.588815 32.325367 38.475862 -0.918926 0.573243 0.011787 -0.028072 444616.000000 0 0 1
-12.864730 15.172715 32.214637 37.861529 -0.867531 0.553188 -0.000829 -0.026218 -80079.600000 0 0 1
-14.146930 14.674115 32.434781 38.307706 -0.803688 0.561062 0.010579 -0.020782 -524877.000000 0 0 1
-13.965630 13.106915 32.649368 37.852494 -0.753690 0.530524 0.001624 -0.007402 39707.400000 0 0 1
-13.926730 12.307215 31.424737 36.509389 -0.723743 0.534094 -0.012194 -0.014296 524581.000000 0 0 1
-12.636530 11.756215 31.180157 35.638360 -0.749325 0.505558 -0.006280 -0.007659 -9152.150000 0 0 1
-12.702030 11.148915 29.748637 34.214343 -0.720372 0.516651 0.002078 -0.006648 -6356.010000 0 0 1
-13.577930 10.060615 29.582087 34.068696 -0.637686 0.519017 -0.007476 0.001359 77706.500000 0 0 1
-13.495830 9.751115 28.222947 32.768223 -0.625686 0.532993 -0.017767 0.006339 50493.700000 0 0 1
-14.388930 8.574815 27.802957 32.458792 -0.537423 0.542227 0.002733 0.006349 131425.000000 0 0 1
-13.954530 7.313515 28.349887 32.433509 -0.482738 0.507232 -0.023372 0.013633 244027.000000 0 0 1
-14.798130 6.230115 27.967247 32.248502 -0.398484 0.521161 -0.002651 0.017876 -334383.000000 0 0 1
-14.080730 4.911215 28.040197 31.759087 -0.335596 0.488787 0.003642 0.016026 67706.100000 0 0 1
-13.104530 4.777615 27.006637 30.395933 -0.349602 0.476741 -0.000548 0.003016 118444.000000 0 0 1
-13.660130 4.664015 25.686177 29.464078 -0.329022 0.511973 0.015184 -0.001088 -132804.000000 0 0 1
-12.647030 4.321215 24.562807 27.963400 -0.329242 0.498311 0.012374 0.001123 71368.500000 0 0 1
-11.931730 3.088015 24.640537 27.551009 -0.253250 0.463796 0.014335 -0.007304 368715.000000 0 0 1
-11.143830 2.784615 23.510427 26.166375 -0.244865 0.454461 0.021458 -0.016803 100605.000000 0 0 1
-10.090730 1.652715 23.646837 25.762903 -0.162344 0.408132 0.028149 -0.019608 411426.000000 0 0 1
-9.117630 1.930115 24.667717 26.369543 -0.208611 0.361231 0.023000 -0.014009 207516.000000 0 0 1
-8.371830 0.787115 25.010567 26.386276 -0.093744 0.324335 0.017802 -0.010319 -445327.000000 0 0 1
-6.884730 1.114915 24.856067 25.816015 -0.160547 0.273558 0.039238 -0.022039 -1082630.000000 0 0 1
-6.520630 1.209615 23.490317 24.408539 -0.183421 0.275162 0.040163 -0.016894 770476.000000 0 1 0
-5.114530 1.435915 23.315367 23.912896 -0.273706 0.224020 0.033756 -0.012367 925366.000000 0 1 0
-4.374130 2.747615 23.743147 24.298548 -0.560862 0.214219 0.047381 -0.013274 -266565.000000 0 1 0
-4.299530 2.951615 25.135027 25.670364 -0.601606 0.204583 0.049269 -0.016925 -110631.000000 0 0 1
-4.070330 4.295815 25.415927 26.095803 -0.812344 0.228766 0.049860 -0.025700 79819.100000 0 0 1
4.154270 -23.348485 12.907086 27.000048 -1.394714 1.072375 0.068928 -0.012541 216985.000000 0 0 1
3.788770 -24.371785 13.795586 28.260518 -1.416574 1.060819 0.071096 -0.015807 -121654.000000 0 0 1
2.519770 -24.847785 13.383586 28.335173 -1.469734 1.078863 0.063213 -0.012672 127337.000000 0 0 1
2.193170 -26.266395 13.987786 29.839431 -1.487492 1.082900 0.054372 -0.017095 56055.400000 0 0 1
1.879970 -26.218275 15.391586 30.460354 -1.499214 1.041068 0.065367 -0.019264 93761.300000 0 0 1
2.193970 -27.440675 16.004686 31.842646 -1.491013 1.044172 0.057527 -0.012098 -428314.000000 0 0 1
1.879670 -27.580575 17.477486 32.706021 -1.502750 1.007021 0.041167 -0.007534 -664711.000000 0 0 1
2.597670 -26.826415 18.352586 32.607083 -1.474265 0.972978 0.060476 -0.018787 -412472.000000 0 0 1
2.401270 -27.218985 19.765686 33.724199 -1.482804 0.944562 0.043769 -0.010721 -42725.300000 0 0 1
3.262570 -26.426815 20.717286 33.737618 -1.447961 0.909588 0.049335 -0.013083 -202078.000000 0 0 1
2.564570 -25.248625 21.021586 32.954168 -1.469571 0.879023 0.035318 -0.016614 136491.000000 0 0 1
3.379770 -24.257985 21.618186 32.668313 -1.432361 0.847649 0.052143 -0.026497 -64127.000000 0 0 1
2.558270 -23.184485 22.342786 32.299616 -1.460897 0.806907 0.068998 -0.027522 -42634.100000 0 0 1
1.995070 -22.130185 21.535686 30.943677 -1.480888 0.801035 0.058061 -0.029117 652578.000000 0 0 1
2.886470 -21.418785 20.638086 29.883552 -1.436840 0.808455 0.051613 -0.016299 241612.000000 0 0 1
2.033470 -20.421685 19.872586 28.567462 -1.471549 0.801490 0.027053 -0.024432 353574.000000 0 0 1
1.459570 -19.414785 20.741886 28.448024 -1.495759 0.753768 0.027325 -0.023285 240981.000000 0 0 1
0.619070 -18.505285 20.052286 27.293278 -1.537355 0.745577 0.039266 -0.028614 -150246.000000 0 0 1
0.465770 -17.210485 20.920786 27.094225 -1.543740 0.688580 0.025693 -0.029186 -539589.000000 0 0 1
1.637470 -16.443185 20.890886 26.636230 -1.471540 0.669224 0.003781 -0.010426 -309205.000000 0 0 1
1.400670 -15.143885 21.368186 26.227819 -1.478568 0.618560 0.006977 -0.007021 1178530.000000 0 0 1
2.534770 -14.010385 21.036686 25.401931 -1.391812 0.594992 -0.013207 -0.001263 674447.000000 0 0 1
2.817370 -13.723485 19.703386 24.176332 -1.368314 0.618090 -0.020663 0.005601 -141053.000000 0 1 0
1.720570 -13.412485 18.846386 23.195719 -1.443212 0.622378 -0.009999 0.016380 -490225.000000 0 1 0
0.981670 -12.117585 19.203886 22.728590 -1.489961 0.564377 -0.013150 0.008855 -812474.000000 0 1 0
1.684770 -10.941785 19.036886 22.021901 -1.418020 0.526736 -0.010466 0.013020 -648356.000000 0 1 0
1.531770 -9.942385 20.066186 22.446585 -1.417934 0.464707 -0.006242 0.000223 690969.000000 0 1 0
0.185970 -9.127085 20.054586 22.034625 -1.550424 0.427175 0.011840 -0.007428 773610.000000 0 1 0
0.035170 -8.341485 21.190086 22.772821 -1.566580 0.375024 0.018324 -0.009918 -168619.000000 0 1 0
-1.250730 -7.760185 21.248986 22.656218 1.410998 0.354306 0.022681 -0.010595 209252.000000 0 1 0
-1.472030 -7.190085 22.678886 23.836864 1.368856 0.312978 0.026997 -0.004998 -482557.000000 0 1 0
-1.818930 -8.208585 23.602286 25.055085 1.352731 0.342209 0.026129 -0.006691 157870.000000 0 0 1
-2.344830 -7.707985 24.804586 26.080237 1.275484 0.314059 0.021694 0.005842 68418.100000 0 0 1
-2.511030 -8.805385 25.887886 27.459474 1.293000 0.339963 0.026125 0.000220 -303047.000000 0 0 1
-1.240930 -9.255885 26.304486 27.913031 1.437522 0.341143 0.020701 -0.004070 89438.800000 0 0 1
-1.340530 -10.262185 27.263986 29.162209 1.440904 0.362796 0.026889 -0.012029 -230191.000000 0 0 1
-0.037130 -11.051585 27.411286 29.555330 1.567437 0.383244 0.027937 -0.016707 261413.000000 0 0 1
0.905970 -10.587985 28.397486 30.320677 -1.485438 0.358079 0.011783 -0.012992 532972.000000 0 0 1
2.008070 -11.503985 28.453486 30.756705 -1.397983 0.389458 0.032526 -0.018490 252541.000000 0 0 1
2.993270 -11.047785 29.551786 31.691029 -1.306210 0.369531 0.046572 -0.017933 74147.300000 0 0 1
2.406370 -10.984585 30.854786 32.840060 -1.355135 0.349491 0.036373 -0.013177 79193.100000 0 0 1
3.311970 -10.300885 31.694886 33.490942 -1.259713 0.328981 0.049257 -0.010328 -182044.000000 0 0 1
2.826470 -10.130185 33.124586 34.754105 -1.298702 0.307435 0.033542 -0.007302 -329451.000000 0 0 1
3.105470 -11.310185 33.848086 35.822579 -1.302827 0.333564 0.031711 -0.015560 -15794.700000 0 0 1
2.671770 -11.369785 -33.267094 35.257764 -1.339995 2.803954 0.024444 -0.011407 -161117.000000 0 0 1
3.244270 -10.343885 -32.232294 34.006500 -1.266872 2.817147 0.023117 0.000421 51867.500000 0 0 1
2.715070 -9.021385 -32.373994 33.716946 -1.278460 2.858406 0.035243 0.000040 161779.000000 0 0 1
3.385470 -8.131885 -31.496294 32.704824 -1.176300 2.868893 0.036813 -0.000665 -83190.400000 0 0 1
2.827670 -6.721785 -31.334794 32.172153 -1.172597 2.912939 0.018942 -0.006576 -101237.000000 0 0 1
3.210670 -5.910985 -32.417094 33.107645 -1.073212 2.936992 0.049040 -0.003678 72150.000000 0 0 1
3.250070 -4.587585 -31.908194 32.399718 -0.954422 2.967184 0.035663 -0.001696 -1999.920000 0 0 1
3.239570 -3.482585 -32.958594 33.300032 -0.821534 2.998268 0.036176 0.005516 -487112.000000 0 0 1
1.991170 -3.230585 -33.525894 33.739991 -1.018442 3.028879 0.043301 0.003049 -756843.000000 0 0 1
2.106070 -2.317785 33.893286 34.037663 -0.833219 0.092138 0.059994 -0.001441 209129.000000 0 0 1
1.639770 -2.799185 32.465786 32.627466 -1.040881 0.099594 0.042961 -0.008634 -853504.000000 0 0 1
0.279870 -2.917385 32.322486 32.455086 -1.475157 0.090426 0.041524 -0.008401 -1463090.000000 0 0 1
-0.044130 -3.377985 31.009486 31.192964 1.557733 0.108515 0.033106 0.000434 -607079.000000 0 0 1
-1.533930 -3.524385 30.834886 31.073533 1.160290 0.124015 0.040661 -0.007645 -560283.000000 0 0 1
-2.334330 -2.348485 30.707586 30.885601 0.788421 0.107417 0.051083 -0.008874 246448.000000 0 0 1
-3.710130 -2.700285 30.659086 31.000584 0.629150 0.148567 0.035256 -0.006520 269505.000000 0 0 1
-4.488030 -1.635885 29.877186 30.256649 0.349533 0.158542 0.038430 -0.016168 -378005.000000 0 0 1
-4.069330 -1.547985 28.528786 28.859095 0.363499 0.151443 0.042727 -0.012647 24315.300000 0 0 1
-4.892030 -0.751285 27.668186 28.107382 0.152383 0.177011 0.040791 -0.016924 130615.000000 0 0 1
-5.174530 0.710715 28.047386 28.529577 -0.136495 0.184115 0.054445 -0.021430 370327.000000 0 0 1
-6.448430 0.973815 28.625386 29.358871 -0.149883 0.224001 0.045444 -0.017115 -106386.000000 0 0 1
-6.771130 2.309615 28.474886 29.359865 -0.328722 0.246151 0.048782 -0.016590 -723943.000000 0 0 1
-8.070530 2.699815 29.151686 30.368459 -0.322825 0.284033 0.029390 -0.017758 -1310260.000000 0 0 1
-9.135630 2.168315 28.483686 29.991361 -0.233035 0.318425 0.014910 -0.009720 -1487300.000000 0 0 1
-10.366430 2.672615 28.922786 30.840449 -0.252320 0.354501 0.000313 0.001104 -242243.000000 0 0 1
-11.464830 2.004715 28.053286 30.371831 -0.173108 0.393269 -0.003133 0.006539 -236229.000000 0 0 1
-11.715630 0.627915 28.427986 30.753873 -0.053545 0.391413 0.003905 0.003950 80541.700000 0 0 1
-11.904030 -0.118385 27.242186 29.729727 0.009945 0.411984 0.010882 0.005682 -835238.000000 0 0 1
-12.085830 -1.646285 27.444486 30.032938 0.135383 0.418221 0.013784 0.000331 155271.000000 0 0 1
-10.929630 -2.331085 27.931986 30.084658 0.210133 0.380588 0.024285 -0.004076 591762.000000 0 0 1
-9.717130 -2.270885 27.211486 28.983522 0.229579 0.351490 0.020591 -0.007908 -385077.000000 0 0 1
-9.707330 -2.897185 25.792586 27.710710 0.290037 0.374254 0.021821 -0.008488 -890430.000000 0 0 1
-10.532730 -2.171685 24.908786 27.131205 0.203335 0.407571 0.015836 -0.007093 113925.000000 0 0 1
-10.460930 -2.661085 23.616486 25.966341 0.249100 0.428707 0.021774 -0.005881 -242794.000000 0 0 1
-9.274730 -2.187085 22.764986 24.678909 0.231581 0.396426 0.020839 -0.012281 -90980.700000 0 1 0
-8.006730 -2.489285 23.323286 24.784672 0.301426 0.345114 0.025196 -0.015853 -734657.000000 0 1 0
-7.124430 -2.104385 22.311786 23.515989 0.287209 0.321406 0.022858 -0.012530 -1092420.000000 0 1 0
-5.648530 -2.307985 22.640786 23.448622 0.387897 0.263253 0.028958 -0.012136 -407510.000000 0 1 0
-5.144930 -3.653685 22.519786 23.387187 0.617507 0.273204 0.030793 -0.015954 -192868.000000 0 1 0
-5.680430 -4.605385 23.380786 24.497715 0.681259 0.303130 0.030730 -0.013406 -492427.000000 0 1 0
-5.422630 -6.068785 22.971786 24.370844 0.841568 0.340485 0.034599 -0.015450 436219.000000 0 1 0
-6.298230 -6.576385 21.919586 23.735728 0.807000 0.393729 0.035151 -0.023001 595548.000000 0 1 0
-6.058230 -6.066685 20.616786 22.328428 0.786095 0.394100 0.040197 -0.029211 31243.700000 0 1 0
-7.394130 -6.076385 19.815286 22.005481 0.687884 0.449946 0.044371 -0.021752 859268.000000 0 1 0
-8.292530 -4.996885 20.163386 22.367321 0.542312 0.447651 0.040436 -0.018289 113681.000000 0 1 0
-9.196830 -4.671285 19.150686 21.752043 0.469966 0.494073 0.042587 -0.017116 90662.000000 0 1 0
-9.709330 -3.207885 19.253486 21.800421 0.319101 0.488217 0.027412 -0.018546 635442.000000 0 1 0
-8.771230 -2.318785 18.616186 20.709265 0.258450 0.453475 0.024171 -0.024313 606834.000000 0 1 0
-9.212230 -1.006185 18.779486 20.941507 0.108791 0.458406 0.016940 -0.008688 193195.000000 0 1 0
-8.070930 -0.024785 18.377986 20.072143 0.003071 0.413807 -0.000980 -0.009451 303463.000000 0 1 0
-7.053930 0.153115 19.360186 20.605781 -0.021703 0.349479 0.011050 -0.000627 268816.000000 0 1 0
-7.343930 0.841515 20.585986 21.872912 -0.114089 0.344740 0.019737 0.001310 -595813.000000 0 1 0
-7.461030 2.397715 20.411786 21.864515 -0.310941 0.366583 0.025879 -0.005847 350070.000000 0 1 0
-8.634030 2.759715 19.692786 21.678753 -0.309369 0.431376 0.021739 -0.007103 318742.000000 0 1 0
-8.332030 3.904515 18.971386 21.085101 -0.438226 0.451593 0.017458 -0.019732 443898.000000 0 1 0
-9.306430 4.286615 17.801586 20.539747 -0.431640 0.522269 0.017387 -0.014777 -85657.600000 0 1 0
-10.605830 4.620415 18.220186 21.582564 -0.410855 0.565709 0.019640 -0.010038 -311860.000000 0 1 0
-11.403030 5.003415 17.109786 21.161476 -0.413484 0.629139 0.023103 -0.007453 -298576.000000 0 1 0
-11.478230 6.575515 16.816786 21.396062 -0.520231 0.666524 0.027237 -0.005951 -895436.000000 0 1 0
-10.242130 7.206415 16.692086 20.867664 -0.613141 0.643664 0.015013 -0.007381 -469862.000000 0 1 0
-10.437430 8.583715 16.420886 21.266538 -0.688249 0.688584 0.015212 -0.016878 -328933.000000 0 1 0
-9.174230 9.423115 16.338486 20.973978 -0.798780 0.677745 0.008845 -0.015318 -543664.000000 0 1 0
-8.429030 9.612615 17.531786 21.698259 -0.850907 0.630079 0.017931 -0.004467 -43716.100000 0 1 0
-7.496430 10.691215 17.458886 21.801634 -0.959281 0.642156 0.020693 -0.015352 -11041.400000 0 1 0
-7.974430 12.159415 17.186486 22.512624 -0.990338 0.702212 0.016528 -0.010693 -348574.000000 0 1 0
-8.372230 12.496515 15.897086 21.885486 -0.980514 0.757762 0.026699 -0.028427 -59143.000000 0 1 0
-8.895630 13.836015 15.789886 22.801054 -0.999405 0.805838 0.027292 -0.032565 -27996.800000 0 1 0
-8.766330 14.477315 14.430086 22.241146 -1.026327 0.864788 0.019728 -0.024956 -47510.200000 0 1 0
-7.450830 14.834015 14.087486 21.772004 -1.105326 0.867093 0.029321 -0.021128 -411681.000000 0 1 0
-7.423630 15.490815 12.832886 21.441983 -1.123904 0.929177 0.022876 -0.031567 -271399.000000 0 1 0
-6.583330 16.774515 12.975386 22.205523 -1.196807 0.946740 0.003367 -0.013860 -216619.000000 0 1 0
-5.276630 16.524115 13.402386 21.920611 -1.261702 0.912961 0.003266 -0.012107 -591293.000000 0 1 0
-4.511030 17.683715 13.637786 22.782722 -1.321028 0.929041 0.002554 -0.008667 773676.000000 0 1 0
-2.959130 17.496815 13.630786 22.376178 -1.403258 0.915789 0.000313 -0.007259 704760.000000 0 1 0
-2.254430 16.854415 14.713886 22.486712 -1.437827 0.857491 0.007245 -0.009913 93083.700000 0 1 0
-2.448730 15.504615 14.891886 21.636951 -1.414155 0.811706 0.007767 -0.010701 -730257.000000 0 1 0
-1.440030 14.907615 15.856486 21.811438 -1.474498 0.756882 0.006338 -0.000429 -422294.000000 0 1 0
-0.203230 14.632715 15.182386 21.087023 -1.556908 0.767012 0.007345 -0.009766 -33880.300000 0 1 0
0.746570 14.058315 16.042386 21.343659 1.517741 0.720277 0.016916 -0.009097 159075.000000 0 1 0
1.660270 15.163515 16.732686 22.642250 1.461740 0.739207 0.015429 -0.004650 -307192.000000 0 1 0
0.891470 16.024615 17.510386 23.752824 1.515222 0.741892 0.010372 -0.001579 -104950.000000 0 1 0
1.689570 16.766815 18.444186 24.983370 1.470367 0.740311 0.016563 0.003559 521032.000000 0 1 0
0.809970 17.909615 19.093986 26.191424 1.525602 0.753912 0.029243 -0.003298 694944.000000 0 0 1
0.291170 18.928615 18.244286 26.291277 1.555415 0.803865 0.020617 -0.002033 873360.000000 0 0 1
-0.886130 18.633415 17.454286 25.546849 -1.523276 0.818624 0.021427 0.002334 302091.000000 0 0 1
-1.477630 19.808815 16.686086 25.942206 -1.496340 0.872123 0.017729 -0.001184 -276416.000000 0 0 1
-2.065030 20.780915 17.541086 27.272706 -1.471750 0.872161 0.009324 -0.010430 -83640.500000 0 0 1
-2.869030 21.582615 16.709586 27.445417 -1.438639 0.916212 0.020396 -0.018016 -427378.000000 0 0 1
-3.561530 22.739615 17.514586 28.922921 -1.415436 0.920326 0.014014 -0.003593 -253502.000000 0 0 1
-4.654830 22.253515 18.246986 29.151997 -1.364597 0.894478 0.021636 -0.004870 -311696.000000 0 0 1
-5.062030 23.262615 19.102686 30.523533 -1.356533 0.894595 0.021973 0.005126 175175.000000 0 0 1
-6.150330 22.837315 20.149686 31.070555 -1.307727 0.865166 0.013011 0.003122 412483.000000 0 0 1
-7.414830 22.628715 19.561086 30.816790 -1.254148 0.883106 0.008345 0.004939 -548970.000000 0 0 1
-8.338130 22.191215 20.509186 31.346470 -1.211377 0.857574 -0.012452 -0.002518 -1010900.000000 0 0 1
-9.785530 22.382515 20.135486 31.657091 -1.158642 0.881428 0.000473 -0.003834 -1196280.000000 0 0 1
-10.052730 23.769615 20.207386 32.777896 -1.170686 0.906514 0.009801 -0.002130 184738.000000 0 0 1
-11.038630 24.162115 19.243786 32.802172 -1.142255 0.943866 0.010900 -0.007719 60445.700000 0 0 1
-11.608230 25.532815 19.439686 34.125900 -1.144091 0.964721 0.013869 -0.004441 -26186.200000 0 0 1
-12.437230 25.519515 20.607786 35.080069 -1.117311 0.942892 0.012189 -0.003558 217948.000000 0 0 1
-12.819430 26.835915 20.925186 36.364372 -1.125150 0.957665 0.007717 -0.005667 -213054.000000 0 0 1
-13.789830 26.997615 22.143986 37.541800 -1.098562 0.939925 0.035488 -0.014554 -424695.000000 0 0 1
-15.042730 26.442215 21.890186 37.478724 -1.053565 0.947063 0.040615 -0.019225 -322113.000000 0 0 1
-15.885230 26.745715 23.008486 38.691915 -1.034848 0.933955 0.034483 -0.016276 841698.000000 0 0 1
-17.334630 26.161315 22.974286 38.893723 -0.985611 0.938878 0.051736 -0.017304 646492.000000 0 0 1
-17.291330 24.774815 22.933586 37.930607 -0.961454 0.921508 0.056690 -0.017825 -513125.000000 0 0 1
-18.558430 24.187315 22.955686 38.162876 -0.916328 0.925395 0.062078 -0.004210 -326502.000000 0 0 1
26.982070 24.460415 23.477977 43.330814 0.736418 0.998182 0.058500 -0.029814 7197.610000 0 0 1
27.048970 23.529015 24.578837 43.467005 0.715916 0.969806 0.073645 -0.041901 363564.000000 0 0 1
26.679670 22.163015 24.254677 42.323674 0.693187 0.960542 0.075963 -0.031176 -541479.000000 0 0 1
26.398070 21.169615 25.403807 42.312694 0.675922 0.926817 0.085175 -0.026864 -412199.000000 0 0 1
25.248670 21.551015 26.105057 42.230505 0.706552 0.904401 0.077619 -0.026823 -299553.000000 0 0 1
25.303870 21.179915 27.457597 42.927780 0.696912 0.876789 0.080741 -0.030922 219335.000000 0 0 1
23.990470 21.248315 28.291807 42.748800 0.724857 0.847559 0.072244 -0.028443 142767.000000 0 0 1
23.754470 22.506115 28.887407 43.649540 0.758419 0.847575 0.071919 -0.032634 -586983.000000 0 0 1
22.603870 22.346815 29.644577 43.463962 0.779680 0.820235 0.071819 -0.034759 -758341.000000 0 0 1
22.222270 23.702215 30.186067 44.348877 0.817613 0.822147 0.058993 -0.037321 -451296.000000 0 0 1
21.668970 24.585915 29.201207 43.894441 0.848377 0.842955 0.052779 -0.032262 47912.600000 0 0 1
21.416370 25.933015 29.596017 44.800741 0.880500 0.849159 0.059304 -0.038279 106222.000000 0 0 1
20.100170 26.162215 30.394397 44.858641 0.915692 0.826357 0.067034 -0.037701 149402.000000 0 0 1
18.995370 26.338815 29.508557 43.878380 0.945988 0.833204 0.074532 -0.034609 748894.000000 0 0 1
17.737370 26.713915 30.062177 43.954318 0.984660 0.817645 0.070895 -0.030726 1258660.000000 0 0 1
16.838770 25.566815 30.706667 43.360185 0.988386 0.783884 0.064690 -0.020509 -13515.200000 0 0 1
17.244370 25.154015 31.940297 44.161922 0.969833 0.762293 0.055525 -0.026695 -135108.000000 0 0 1
16.171970 24.633815 32.701407 44.019762 0.989869 0.733434 0.040095 -0.018130 16024.800000 0 0 1
16.545170 24.030215 34.104862 44.881349 0.967820 0.707653 0.043409 -0.018909 -228442.000000 0 0 1
16.921570 25.014015 -33.416704 45.041276 0.976028 2.406715 0.049733 -0.014523 34637.700000 0 0 1
17.362370 24.511015 -32.170434 44.013391 0.954489 2.390471 0.023991 -0.004216 -17895.100000 0 0 1
17.742570 25.697415 -31.250254 44.178437 0.966514 2.356559 0.027761 0.013090 -126392.000000 0 0 1
16.661470 26.585015 -31.067994 44.154137 1.010958 2.351284 0.041236 -0.004234 27714.600000 0 0 1
17.090270 27.871215 -30.710124 44.855252 1.020737 2.324919 0.043027 -0.001577 -247176.000000 0 0 1
16.678570 28.353215 -29.384974 44.108459 1.039067 2.299896 0.056724 0.000917 -378003.000000 0 0 1
17.030970 27.528915 -28.303104 42.999544 1.016771 2.289246 0.042353 0.004090 211728.000000 0 0 1
16.759970 28.081215 -27.013284 42.416609 1.032704 2.261210 0.031719 0.006669 -111186.000000 0 0 1
17.330070 27.137215 -25.917004 41.333411 1.002471 2.248522 0.023456 0.013084 329169.000000 0 0 1
18.733070 27.313515 -25.838244 42.006795 0.969628 2.233305 0.030074 0.011097 -53881.100000 0 0 1
19.307870 26.963615 -24.538814 41.255106 0.949366 2.207821 0.029521 0.009503 -170161.000000 0 0 1
20.820370 27.107215 -24.476514 42.040322 0.915827 2.192247 0.022869 0.009088 -487619.000000 0 0 1
21.266670 26.612615 -23.249514 41.243696 0.896592 2.169668 0.015796 0.010670 -401591.000000 0 0 1
22.663570 26.432615 -23.228114 41.855296 0.862016 2.159114 0.019807 0.009255 -111540.000000 0 0 1
23.212170 26.117215 -21.866714 41.219740 0.844221 2.129976 0.024661 0.003486 -44426.800000 0 0 1
22.949470 24.810115 -21.394614 39.999369 0.824337 2.135155 0.026128 0.003780 146486.000000 0 0 1
23.483870 24.828715 -20.084214 39.640041 0.813227 2.102108 0.034944 -0.006594 -275294.000000 0 0 1
22.941470 23.689615 -19.167914 38.143385 0.801441 2.097310 0.030636 -0.009971 -354918.000000 0 0 1
23.492670 22.361715 -19.376614 37.781014 0.760739 2.109317 0.032542 0.001149 435585.000000 0 0 1
23.172870 21.480915 -18.301414 36.515111 0.747526 2.095783 0.031226 0.004875 -600774.000000 0 0 1
23.404070 20.004615 -18.770714 36.059324 0.707245 2.118292 0.049170 -0.004231 414833.000000 0 0 1
22.562470 19.591915 -19.837714 35.867019 0.715046 2.156866 0.043569 -0.009070 -343961.000000 0 0 1
21.179470 19.589815 -19.715914 34.943498 0.746426 2.170288 0.043508 -0.008913 -893241.000000 0 0 1
20.454470 19.468615 -21.070514 35.233207 0.760709 2.211837 0.030348 -0.005243 -71540.700000 0 0 1
20.896370 20.292915 -22.163914 36.601909 0.770748 2.221240 0.022119 0.000609 61019.600000 0 0 1
21.023770 21.674615 -21.827514 37.258935 0.800640 2.196704 0.022424 0.008205 -218210.000000 0 0 1
20.544270 22.700015 -22.880414 38.221343 0.835207 2.212585 0.028575 0.010323 -406437.000000 0 0 1
19.196070 22.506015 -23.188214 37.585943 0.864603 2.235643 0.041072 0.005068 -652492.000000 0 0 1
18.874570 23.161315 -24.396814 38.573312 0.887025 2.255546 0.026962 0.005507 304245.000000 0 0 1
17.348870 23.213015 -24.651114 38.046087 0.928976 2.275657 0.032344 0.003128 306492.000000 0 0 1
16.590470 24.214415 -23.976514 37.900591 0.970108 2.255722 0.031982 -0.002834 829102.000000 0 0 1
15.193670 23.997215 -24.232014 37.335030 1.006363 2.277121 0.041187 0.000784 1003910.000000 0 0 1
14.241070 24.965615 -23.481414 37.114240 1.052405 2.255805 0.033782 0.002835 225964.000000 0 0 1
14.362470 26.253215 -24.063814 38.400247 1.070202 2.248053 0.020526 0.007117 297222.000000 0 0 1
13.262970 27.028915 -23.605014 38.257879 1.114620 2.235718 0.025669 0.007288 418240.000000 0 0 1
13.334670 28.448915 -24.245514 39.686259 1.132482 2.228031 0.021986 0.000146 165258.000000 0 0 1
13.128870 28.527615 -25.668524 40.559403 1.139479 2.256041 0.028421 -0.003598 -220907.000000 0 0 1
12.615870 29.809815 -26.045334 41.546897 1.170441 2.248351 0.042240 -0.011169 132267.000000 0 0 1
13.452570 31.140715 -25.860644 42.655465 1.163018 2.222156 0.051644 -0.010242 -10129.600000 0 0 1
14.496870 31.302415 -26.769264 43.664561 1.137083 2.230732 0.047261 0.006105 -429829.000000 0 0 1
15.247670 32.477415 -26.610364 44.669737 1.131857 2.208950 0.043993 -0.006077 2125220.000000 0 0 1
16.734970 32.331615 -27.266224 45.484498 1.093165 2.213625 0.038735 0.012924 2432320.000000 0 0 1
17.583670 31.496315 -26.446084 44.728052 1.061621 2.203421 0.017899 0.010886 -65745.300000 0 0 1
18.843470 31.326415 -27.041524 45.471581 1.029260 2.207677 0.027194 0.015339 -287063.000000 0 0 1
19.900470 30.705815 -26.074724 44.930691 0.995757 2.189933 0.009575 0.017755 -489526.000000 0 0 1
20.342270 31.549715 -25.015414 45.110569 0.998107 2.158601 0.019497 0.016049 -31206.300000 0 0 1
21.322370 32.505715 -25.329354 46.398719 0.990244 2.148267 0.021483 0.007207 450872.000000 0 0 1
22.787470 31.975515 -25.548904 46.844945 0.951628 2.147654 0.013716 0.019880 203049.000000 0 0 1
22.887970 31.313715 -26.787194 47.137689 0.939616 2.175205 0.016045 0.024030 932290.000000 0 0 1
23.944970 31.906315 -27.615804 48.518112 0.926990 2.176311 0.005590 0.029978 -219707.000000 0 0 1
23.973970 31.281915 -29.062114 48.968520 0.916891 2.206179 0.001865 0.024284 -111783.000000 0 0 1
23.018770 31.936915 -29.893904 49.431526 0.946275 2.220253 0.012683 0.014001 113696.000000 0 0 1
21.722470 31.396015 -29.799714 48.431378 0.965537 2.233560 0.010429 0.018261 -1121160.000000 0 0 1
20.810470 32.181315 -30.681094 49.092181 0.996770 2.245888 0.003855 0.012716 -2174370.000000 0 0 1
20.253970 33.330115 -30.128394 49.283263 1.024751 2.228538 0.018608 0.016943 -178599.000000 0 0 1
19.224570 33.913415 -30.893654 49.740543 1.055092 2.240937 0.022070 0.000596 -106684.000000 0 0 1
17.868670 33.214715 -30.621104 48.581464 1.077233 2.252741 0.029062 -0.003501 -1140020.000000 0 0 1
17.489170 31.929815 -31.016764 47.827020 1.069692 2.276434 0.037114 -0.007078 153577.000000 0 0 1
17.805970 31.547815 -32.364394 48.577476 1.056956 2.299955 0.045422 -0.011572 -426538.000000 0 0 1
17.055770 32.322615 -33.528704 49.596620 1.085256 2.313155 0.050235 -0.020378 22526.000000 0 0 1
17.623870 33.618215 -33.929074 50.911366 1.087949 2.300212 0.036914 -0.016660 162543.000000 0 0 1
17.274170 34.047115 33.244233 50.623927 1.101277 0.854375 0.035354 -0.021683 250591.000000 0 0 1
15.806570 -34.174919 33.055290 50.104141 -1.137580 0.850335 0.047387 -0.022006 756053.000000 0 0 1
14.780370 33.472715 33.060385 49.314005 1.154979 0.836041 0.061052 -0.021125 1868240.000000 0 0 1
13.430470 33.999115 32.931565 49.201680 1.194587 0.837506 0.054381 -0.023392 1387590.000000 0 0 1
12.922370 -34.112919 31.538547 48.221975 -1.208688 0.857899 0.050784 -0.022463 -272708.000000 0 0 1
13.685670 -32.937219 31.196437 47.385395 -1.176993 0.852164 0.044223 -0.013485 425265.000000 0 0 1
13.280570 -32.491619 29.982257 46.162913 -1.182780 0.863885 0.036005 -0.014470 43807.400000 0 0 1
13.921470 -31.099619 29.703827 45.202997 -1.149906 0.853804 0.023599 -0.011756 103439.000000 0 0 1
13.361770 -30.038319 30.466097 44.822099 -1.152255 0.823427 0.023219 -0.010899 325961.000000 0 0 1
13.995870 -28.791419 30.178047 43.994826 -1.118320 0.814894 0.030938 -0.016856 37192.800000 0 0 1
13.514070 -27.692319 31.151487 43.816775 -1.116788 0.779950 0.045592 -0.018113 1653380.000000 0 0 1
12.116370 -27.266619 31.034397 43.051234 -1.152637 0.765738 0.043988 -0.017164 1595080.000000 0 0 1
11.905570 -26.153719 30.152287 41.652371 -1.143614 0.761353 0.040835 -0.013543 -256758.000000 0 0 1
12.152670 -24.766619 30.839147 41.377842 -1.114626 0.729803 0.051335 -0.019741 -147235.000000 0 0 1
11.212170 -24.492719 31.849627 41.713364 -1.141495 0.702026 0.041512 -0.022526 124007.000000 0 0 1
11.473770 -23.198519 32.284457 41.377589 -1.111486 0.675747 0.047145 -0.020995 -95195.800000 0 0 1
10.458570 -22.837419 33.356823 41.756521 -1.141345 0.645430 0.056712 -0.023413 -668503.000000 0 0 1
10.458070 -23.591219 -33.892974 42.598715 -1.153525 2.490849 0.059059 -0.022601 21019.400000 0 0 1
11.641670 -23.741219 -33.130984 42.389103 -1.114893 2.468010 0.061781 -0.020393 224215.000000 0 0 1
12.274370 -22.448719 -32.523864 41.381238 -1.070433 2.475038 0.069071 -0.028773 -162269.000000 0 0 1
12.755370 -21.532819 -33.474544 41.796014 -1.036007 2.499598 0.057274 -0.027577 -32864.200000 0 0 1
13.592070 -20.598119 -32.843364 41.081789 -0.987514 2.497197 0.063590 -0.027311 -287053.000000 0 0 1
13.911370 -19.371619 -33.709524 41.293072 -0.948005 2.525856 0.041149 -0.028350 -511095.000000 0 0 1
14.546970 -19.655919 33.528637 41.498662 -0.933674 0.630140 0.050118 -0.019814 169223.000000 0 0 1
14.640070 -18.551319 32.611835 40.274246 -0.902696 0.627080 0.023189 -0.015590 89884.900000 0 0 1
15.755870 -17.468319 32.741030 40.315811 -0.836895 0.623031 0.025116 -0.018222 -552973.000000 0 0 1
15.386270 -16.541819 33.742633 40.607073 -0.821575 0.589975 0.024031 -0.014426 35221.100000 0 0 1
15.857670 -15.245919 33.620598 40.177710 -0.765733 0.579389 0.042422 -0.015049 -1105570.000000 0 0 1
17.299770 -14.977119 33.991023 40.975429 -0.713562 0.592501 0.048565 -0.014545 -937806.000000 0 0 1
18.138070 -15.642119 33.080397 40.840888 -0.711644 0.626674 0.047276 -0.014605 523224.000000 0 0 1
19.532070 -15.463519 33.426330 41.688628 -0.669659 0.640480 0.058999 -0.011191 728077.000000 0 0 1
20.478970 -16.233419 32.523393 41.721496 -0.670266 0.676872 0.065011 -0.012524 -592604.000000 0 0 1
20.478270 -15.741819 31.238867 40.534321 -0.655367 0.690894 0.055659 -0.005342 130063.000000 0 0 1
21.225470 -16.460619 30.308627 40.497968 -0.659630 0.725152 0.050981 -0.006341 -544975.000000 0 0 1
21.427670 -15.695619 28.989037 39.317448 -0.632202 0.741721 0.044978 0.004686 -307084.000000 0 0 1
22.188470 -14.494919 29.072847 39.340327 -0.578666 0.739198 0.037960 0.005374 450608.000000 0 0 1
22.292570 -13.774519 27.823297 38.220831 -0.553475 0.755452 0.034435 0.002776 16086.500000 0 0 1
23.078470 -12.481119 28.012937 38.381229 -0.495762 0.752679 0.017131 0.005420 194511.000000 0 0 1
22.237570 -11.512019 28.636157 38.040315 -0.477694 0.718514 0.024817 -0.000920 528097.000000 0 0 1
22.944870 -10.295319 28.780997 38.220498 -0.421771 0.718149 0.027964 -0.001693 63366.100000 0 0 1
22.059370 -9.039819 28.839467 37.417228 -0.388922 0.690773 0.044388 -0.001093 -408362.000000 0 0 1
21.224270 -8.990719 29.939227 37.784388 -0.400689 0.656112 0.051556 -0.009887 -152018.000000 0 0 1
20.275770 -7.923019 29.668527 36.798133 -0.372518 0.633009 0.050907 -0.011017 107547.000000 0 0 1
19.119570 -7.801219 30.653197 36.959917 -0.387403 0.592829 0.032408 0.000894 -567912.000000 0 0 1
19.367870 -7.427619 31.996787 38.132378 -0.366204 0.575174 0.046930 -0.008030 -162091.000000 0 0 1
19.651070 -8.608219 32.746785 39.148664 -0.412875 0.579982 0.056851 -0.018498 -438926.000000 0 0 1
19.824170 -8.322719 -34.218698 40.412679 -0.397481 2.580608 0.068635 -0.020812 39243.200000 0 0 1
18.585870 -7.931019 -33.645774 39.247595 -0.403329 2.600739 0.072141 -0.024115 220265.000000 0 0 1
18.653870 -7.497819 -32.277794 38.026834 -0.382181 2.584538 0.077512 -0.027108 884667.000000 0 0 1
17.260470 -7.003719 -31.709854 36.776225 -0.385468 2.610468 0.067763 -0.026170 1053710.000000 0 0 1
17.490070 -6.041019 -30.696494 35.842310 -0.332568 2.599114 0.058576 -0.021948 284263.000000 0 0 1
16.359770 -5.899319 -29.851954 34.548273 -0.346086 2.614086 0.051038 -0.014028 168722.000000 0 0 1
16.522770 -4.826819 -28.750134 33.509257 -0.284222 2.602113 0.037981 -0.008385 -347693.000000 0 0 1
17.202370 -5.255519 -27.580564 32.927640 -0.296505 2.563692 0.044769 -0.003519 -117581.000000 0 0 1
16.647170 -6.196719 -26.710474 32.077671 -0.356348 2.554728 0.050320 -0.008735 206346.000000 0 0 1
15.396670 -5.749319 -25.853424 30.635137 -0.357379 2.575334 0.044053 -0.011733 637188.000000 0 0 1
15.608070 -4.839519 -24.889214 29.774246 -0.300665 2.560623 0.021371 -0.002810 4031.770000 0 0 1
14.331470 -4.571519 -24.322114 28.598165 -0.308782 2.587690 0.024816 -0.017788 416278.000000 0 0 1
14.168470 -3.306519 -23.475214 27.618187 -0.229268 2.586765 0.027570 -0.017089 -95370.800000 0 0 1
14.099970 -2.140519 -24.218314 28.105474 -0.150660 2.609395 0.018056 -0.021295 80664.200000 0 0 1
13.852270 -1.079519 -23.343114 27.165266 -0.077774 2.604696 0.032538 -0.016793 -302934.000000 0 0 1
14.217970 0.252481 -23.931914 27.837940 0.017756 2.605453 0.023209 -0.026765 -673221.000000 0 0 1
13.307670 0.856481 -24.839914 28.193066 0.064271 2.648905 0.042780 -0.029997 200135.000000 0 0 1
13.903870 2.008481 -25.439964 29.061028 0.143462 2.637055 0.042563 -0.015173 -96604.100000 0 0 1
13.105770 2.558481 -26.635314 29.795083 0.192793 2.676879 0.043961 -0.015546 -85711.600000 0 0 1
11.984570 3.362481 -26.329234 29.123268 0.273535 2.699976 0.050438 -0.033754 133784.000000 0 0 1
11.390370 3.769481 -27.561294 30.059515 0.319591 2.731016 0.053289 -0.030604 -49855.800000 0 0 1
10.019270 4.464481 -27.520164 29.625610 0.419180 2.762313 0.052872 -0.031570 -68399.200000 0 0 1
9.983970 5.793481 -27.011444 29.374515 0.525792 2.737739 0.050237 -0.038666 551317.000000 0 0 1
8.608970 6.184481 -26.905054 28.917885 0.622953 2.766285 0.059153 -0.041287 464594.000000 0 0 1
7.687670 5.508215 -30.968424 32.380302 0.621714 2.845202 0.038595 -0.017279 -88851.600000 0 0 1
7.646170 4.399115 -30.041994 31.310342 0.522087 2.855987 0.037942 -0.013910 275804.000000 0 0 1
7.503570 3.237815 -30.840344 31.904761 0.407366 2.882558 0.020616 -0.006883 -131721.000000 0 0 1
7.187670 2.050415 -29.879644 30.800323 0.277887 2.896472 0.021793 -0.011010 -101418.000000 0 0 1
8.331970 1.681115 -29.142314 30.356586 0.199094 2.857797 0.040034 -0.015949 365653.000000 0 0 1
8.033670 0.639215 -28.208584 29.337223 0.079400 2.863311 0.034650 -0.022317 -860230.000000 0 0 1
9.181670 0.332015 -27.314954 28.818744 0.036145 2.817120 0.035838 -0.029201 57788.100000 0 0 1
10.328470 -0.303385 -27.942134 29.791478 -0.029365 2.787391 0.036972 -0.015308 1115330.000000 0 0 1
11.249270 -0.683585 -26.907764 29.172609 -0.060692 2.744952 0.039330 -0.020009 179968.000000 0 0 1
12.229470 -1.808385 -27.339914 30.005017 -0.146807 2.716931 0.017084 -0.014173 145853.000000 0 0 1
11.563470 -3.002885 -27.726894 30.191253 -0.254075 2.734751 0.024844 -0.018750 472850.000000 0 0 1
12.493370 -4.084585 -27.821394 30.770084 -0.315986 2.700230 0.033767 -0.021664 369724.000000 0 0 1
11.842470 -5.454685 -27.406734 30.350070 -0.431637 2.697546 0.033813 -0.018029 37235.900000 0 0 1
11.454070 -5.466485 -26.039294 28.967620 -0.445285 2.688072 0.027454 -0.015046 91854.700000 0 0 1
10.987070 -6.734985 -25.655654 28.710421 -0.549918 2.676100 0.029983 -0.019710 94790.000000 0 0 1
10.625370 -6.804785 -24.144714 27.242811 -0.569617 2.660043 0.039135 -0.020193 -468789.000000 0 0 1
11.795470 -6.848585 -23.415214 27.098126 -0.526041 2.614135 0.027792 -0.013703 -413226.000000 0 0 1
11.447770 -6.634485 -22.053714 25.718361 -0.525242 2.601203 0.040993 -0.014046 -277737.000000 0 0 1
12.647470 -6.641885 -21.118314 25.496202 -0.483569 2.546850 0.035735 -0.012433 -229666.000000 0 0 1
13.252570 -5.353385 -21.081514 25.469974 -0.383907 2.545794 0.028868 -0.010259 -548267.000000 0 0 1
14.437470 -5.513785 -20.355714 25.557727 -0.364813 2.492215 0.023829 -0.007162 -519166.000000 0 0 1
14.967170 -4.283285 -19.643214 25.064288 -0.278729 2.471418 0.034206 -0.009160 189842.000000 0 0 1
15.664970 -3.451385 -20.627414 26.130318 -0.216860 2.480636 0.026301 -0.010958 430512.000000 0 0 1
16.135270 -2.262585 -20.004114 25.799821 -0.139318 2.458079 0.023413 -0.008454 -317632.000000 0 0 1
17.081870 -1.459285 -20.898814 27.031097 -0.085222 2.454573 0.006362 -0.005319 -164372.000000 0 0 1
18.360070 -2.055385 -20.864014 27.867972 -0.111484 2.416855 0.018118 -0.011264 193718.000000 0 0 1
19.342470 -1.264285 -21.534114 28.973222 -0.065270 2.408699 0.023476 -0.004181 125316.000000 0 0 1
20.622770 -1.982885 -21.966514 30.195334 -0.095856 2.385439 0.023706 -0.012642 -415205.000000 0 0 1
21.494370 -2.426985 -20.894414 30.074486 -0.112436 2.338876 0.029068 -0.012765 766377.000000 0 0 1
22.594170 -3.229585 -21.260714 31.192061 -0.141977 2.320752 0.034649 -0.013406 9163.500000 0 0 1
23.729570 -2.579585 -22.054314 32.498300 -0.108282 2.316692 0.040010 -0.015939 -1608030.000000 0 0 1
23.471070 -2.285285 -23.393814 33.217227 -0.097060 2.352187 0.043044 -0.012442 287221.000000 0 0 1
24.387770 -1.377585 -24.011414 34.252139 -0.056427 2.347622 0.045630 -0.010192 25625.400000 0 0 1
25.688670 -1.925885 -24.617114 35.631714 -0.074830 2.333497 0.055748 -0.017189 -622280.000000 0 0 1
26.708570 -2.225485 -23.695914 35.774248 -0.083133 2.294779 0.053121 -0.013407 1405150.000000 0 0 1
27.921970 -2.841785 -24.239414 37.084516 -0.101427 2.283162 0.047413 -0.007143 1626140.000000 0 0 1
28.857170 -2.071085 -25.189984 38.360930 -0.071647 2.287174 0.039446 -0.011847 -766881.000000 0 0 1
28.347270 -2.009285 -26.481344 38.844131 -0.070763 2.320926 0.043411 -0.011754 626344.000000 0 0 1
29.059270 -0.991685 -27.241804 39.843951 -0.034113 2.323634 0.045429 -0.016949 -981028.000000 0 0 1
28.501970 -0.749985 -28.649544 40.419316 -0.026307 2.358604 0.061458 -0.017677 544663.000000 0 0 1
27.109270 -0.440885 -28.728714 39.502479 -0.016262 2.385123 0.056108 -0.013951 482103.000000 0 0 1
26.666970 0.702315 -28.083514 38.733761 0.026330 2.381888 0.043432 -0.010352 -670209.000000 0 0 1
25.157670 0.996015 -28.318244 37.892259 0.039570 2.414840 0.032302 -0.001072 -74425.300000 0 0 1
24.352370 0.718515 -27.221944 36.532019 0.029496 2.411561 0.037894 -0.002500 -160781.000000 0 0 1
23.016370 1.101815 -27.539904 35.908405 0.047834 2.444869 0.031532 0.002967 191161.000000 0 0 1
22.119370 0.847615 -26.280474 34.360563 0.038301 2.441596 0.026153 0.003595 -117187.000000 0 0 1
22.277270 1.705415 -25.129014 33.625177 0.076405 2.414827 0.024485 0.002844 431853.000000 0 0 1
21.351670 1.338715 -24.121814 32.242020 0.062616 2.416063 0.018949 -0.001729 -204050.000000 0 0 1
21.552170 2.069615 -22.792514 31.436889 0.095735 2.381866 0.021635 -0.006628 -474289.000000 0 0 1
21.344270 3.462815 -22.773114 31.403561 0.160835 2.382087 0.029149 -0.013552 450487.000000 0 0 1
21.417070 3.943015 -21.414414 30.542026 0.182067 2.347800 0.023552 -0.013359 -377081.000000 0 0 1
20.949370 5.368815 -21.133714 30.237958 0.250876 2.344673 0.043268 -0.017719 -328772.000000 0 0 1
21.858470 6.369115 -21.543014 31.344214 0.283530 2.328568 0.034632 -0.010380 258082.000000 0 0 1
21.627270 7.664215 -20.965214 31.080849 0.340569 2.311135 0.036910 -0.015816 -451404.000000 0 0 1
22.031470 7.924215 -19.493814 30.466172 0.345270 2.265101 0.042036 -0.021783 -1563330.000000 0 0 1
23.393270 8.050515 -19.346814 31.406290 0.331443 2.234473 0.030839 -0.020513 -863594.000000 0 0 1
23.860670 8.298015 -18.053114 31.050017 0.334686 2.191270 0.044738 -0.026675 -62217.200000 0 0 1
23.736070 9.765815 -17.612914 31.128554 0.390324 2.172214 0.048511 -0.033750 185513.000000 0 0 1
22.388270 10.190415 -17.388714 30.123854 0.427143 2.186142 0.056655 -0.033387 393354.000000 0 0 1
22.250470 11.507815 -17.055314 30.305065 0.477308 2.168551 0.055754 -0.025668 -1446050.000000 0 0 1
20.807270 11.872715 -16.807014 29.263963 0.518524 2.182575 0.043754 -0.026510 -375392.000000 0 0 1
19.930670 11.766715 -17.952914 29.291540 0.533318 2.230527 0.047219 -0.027397 561035.000000 0 0 1
19.366470 10.473415 -18.023414 28.453401 0.495754 2.256782 0.050435 -0.027871 -718975.000000 0 0 1
18.479870 10.227215 -19.263814 28.586641 0.505469 2.310237 0.074282 -0.022203 -201128.000000 0 0 1
19.209870 10.129015 -20.435314 29.819760 0.485234 2.325804 0.085366 -0.027480 -50848.000000 0 0 1
18.400570 9.686915 -21.492314 29.905465 0.484580 2.372691 0.073295 -0.030628 -144413.000000 0 0 1
19.140670 9.867715 -22.845914 31.395427 0.475999 2.385734 0.087059 -0.032731 13818.200000 0 0 1
19.214570 11.254915 -23.022314 32.029670 0.529875 2.372843 0.087866 -0.032927 48547.900000 0 0 1
20.024170 11.500815 -24.134514 33.402259 0.521343 2.378268 0.085638 -0.033341 -129563.000000 0 0 1
20.147170 12.998315 -24.377314 34.192369 0.572971 2.364487 0.089913 -0.025450 50542.900000 0 0 1
21.071270 13.453915 -25.359974 35.610876 0.568245 2.363340 0.075728 -0.023281 246345.000000 0 0 1
20.947870 14.849715 -25.546164 36.220626 0.616667 2.353633 0.076960 -0.019784 259969.000000 0 0 1
19.715770 15.396815 -26.339804 36.325731 0.663010 2.381977 0.072073 -0.017653 -42093.100000 0 0 1
18.490070 14.955315 -25.853864 35.127858 0.680102 2.397929 0.070188 -0.019861 -1272510.000000 0 0 1
17.481570 15.419215 -26.696134 35.440669 0.722796 2.423805 0.062467 -0.018765 36586.100000 0 0 1
16.068070 14.910215 -26.285994 34.226464 0.748039 2.446512 0.062224 -0.020963 237843.000000 0 0 1
15.848570 13.500015 -26.385454 33.609816 0.705546 2.473576 0.061682 -0.019106 -39055.000000 0 0 1
14.513070 13.099915 -26.180124 32.674697 0.734266 2.500153 0.047586 -0.022446 -157906.000000 0 0 1
14.369870 11.554315 -26.191474 32.031058 0.677215 2.528183 0.049925 -0.034219 317877.000000 0 0 1
13.032570 11.214515 -25.834864 31.033102 0.710558 2.554390 0.043579 -0.023737 249293.000000 0 0 1
12.799670 9.830115 -25.764664 30.401984 0.654920 2.581991 0.066958 -0.031097 498010.000000 0 0 1
11.280870 9.458615 -25.640784 29.566420 0.697759 2.620401 0.051681 -0.041529 590890.000000 0 0 1
10.753970 9.902915 -24.418314 28.459966 0.744222 2.602136 0.050009 -0.044257 -346962.000000 0 0 1
9.491570 9.305215 -24.208614 27.617638 0.775484 2.639471 0.047154 -0.041006 -75688.700000 0 0 1
8.773070 10.148815 -23.113414 26.724429 0.857977 2.615707 0.046446 -0.039877 -236991.000000 0 0 1
8.497570 11.478215 -23.643714 27.622153 0.933518 2.598219 0.044535 -0.030113 -398938.000000 0 0 1
7.812970 12.285015 -22.735414 26.997465 1.004343 2.572020 0.044347 -0.014528 -277522.000000 0 0 1
8.603270 13.055615 -21.689914 26.737945 0.988141 2.517004 0.040719 -0.020333 -388074.000000 0 0 1
9.244870 12.221115 -20.778114 25.817693 0.923169 2.506137 0.049972 -0.026797 -59426.900000 0 0 1
10.052470 12.838815 -19.778914 25.633821 0.906523 2.452140 0.057398 -0.029364 308669.000000 0 0 1
11.073170 11.905515 -19.000814 25.007745 0.821605 2.433797 0.069641 -0.036593 1020500.000000 0 0 1
12.197970 11.372215 -19.745214 25.845526 0.750379 2.440240 0.070776 -0.035015 1119090.000000 0 0 1
11.741270 10.481915 -20.785114 26.071995 0.728790 2.493472 0.064958 -0.033678 -138786.000000 0 0 1
12.912670 9.800515 -21.575214 26.986608 0.649226 2.497223 0.069790 -0.034839 613464.000000 0 0 1
13.680870 8.889515 -20.802314 26.437207 0.576218 2.476496 0.086582 -0.043454 1022240.000000 0 0 1
14.778770 8.338015 -21.571114 27.445354 0.513671 2.475053 0.087457 -0.038973 347417.000000 0 0 1
15.563170 7.170215 -21.078114 27.164519 0.431730 2.459005 0.110185 -0.037369 -76436.500000 0 0 1
16.324870 7.501215 -19.907214 26.815420 0.430723 2.407411 0.086470 -0.033618 274959.000000 0 0 1
16.710370 6.243815 -19.250314 26.244928 0.357586 2.394234 0.068604 -0.033670 141117.000000 0 0 1
17.479970 6.517715 -17.935714 25.878945 0.356900 2.336524 0.063966 -0.026815 161564.000000 0 0 1
18.865770 6.813715 -18.106814 27.022226 0.346589 2.305101 0.056297 -0.034065 914163.000000 0 0 1
19.566270 6.905915 -16.839514 26.722646 0.339300 2.252554 0.051386 -0.040716 170197.000000 0 0 1
20.155570 5.642815 -16.208314 26.472586 0.272974 2.229722 0.039676 -0.040111 359522.000000 0 0 1
21.390270 5.246515 -16.848714 27.729925 0.240527 2.223832 0.036353 -0.036073 1154580.000000 0 0 1
21.987970 4.152415 -16.196914 27.623421 0.186651 2.197338 0.048203 -0.036555 119131.000000 0 0 1
23.150170 3.494115 -16.992714 28.929077 0.149802 2.198629 0.028085 -0.011635 116741.000000 0 0 1
23.681270 2.376715 -16.311214 28.853198 0.100028 2.171614 0.027833 -0.015603 -3480.670000 0 0 1
24.970070 2.043715 -16.766814 30.146429 0.081665 2.160577 0.035259 -0.013176 -83505.900000 0 0 1
25.702670 0.962415 -15.966514 30.273471 0.037427 2.126345 0.055057 -0.025706 -290163.000000 0 0 1
25.280170 -0.329585 -16.279114 30.070004 -0.013037 2.142867 0.050664 -0.027581 -276307.000000 0 0 1
26.336470 -1.227985 -16.235014 30.962772 -0.046593 2.122736 0.051240 -0.021561 -618229.000000 0 0 1
25.879370 -2.695185 -16.290514 30.698317 -0.103770 2.130181 0.041587 -0.027169 -258726.000000 0 0 1
25.191870 -3.122285 -15.153414 29.563574 -0.123311 2.108972 0.043289 -0.025878 338150.000000 0 0 1
24.900370 -4.470685 -15.332514 29.582113 -0.177650 2.115662 0.036043 -0.023512 -967136.000000 0 0 1
24.303070 -5.223185 -14.097814 28.577425 -0.211698 2.086699 0.032795 -0.025013 116052.000000 0 0 1
22.982670 -4.972685 -13.672714 27.200621 -0.213082 2.097471 0.045567 -0.014635 17091.700000 0 0 1
22.039270 -5.491085 -14.569914 26.984511 -0.244179 2.141158 0.051352 -0.012741 -1163520.000000 0 0 1
20.595170 -5.485585 -14.061014 25.533601 -0.260309 2.153983 0.057699 -0.013516 -661169.000000 0 0 1
20.245970 -6.401785 -13.007214 24.901200 -0.306253 2.120404 0.058323 -0.012753 371050.000000 0 1 0
20.577970 -6.029485 -11.693514 24.424287 -0.285029 2.070045 0.069057 -0.007036 -630146.000000 0 1 0
20.258670 -7.073085 -10.657014 23.958593 -0.335907 2.031758 0.072271 -0.011830 -1017480.000000 0 1 0
18.954770 -7.544185 -10.611914 22.995885 -0.378790 2.050448 0.075150 -0.014121 -168530.000000 0 1 0
18.792070 -8.703285 -11.446214 23.662309 -0.433724 2.075710 0.068834 -0.021776 -1406850.000000 0 1 0
17.479770 -9.410285 -11.245214 22.815579 -0.493857 2.086186 0.088204 -0.028250 -175829.000000 0 1 0
16.398470 -8.522585 -11.611214 21.825777 -0.479298 2.131752 0.070359 -0.023690 568049.000000 0 1 0
15.186370 -9.184285 -11.931514 21.385461 -0.543921 2.162681 0.064788 -0.020121 283863.000000 0 1 0
14.064070 -8.178385 -12.296714 20.393460 -0.526712 2.218019 0.048041 -0.012509 -417566.000000 0 1 0
14.163270 -7.445085 -13.491814 20.929800 -0.483965 2.271325 0.040383 -0.013074 208816.000000 0 1 0
15.101870 -6.388285 -13.441614 21.202680 -0.400186 2.257457 0.032326 -0.017057 -126035.000000 0 1 0
14.918770 -5.249185 -14.516814 21.467685 -0.338323 2.313412 0.020335 -0.010740 -240692.000000 0 1 0
13.891870 -4.317985 -14.229314 20.349506 -0.301361 2.345139 0.026775 -0.011730 50296.000000 0 1 0
13.577370 -3.437085 -15.302814 20.744508 -0.247939 2.400424 0.016281 -0.009779 -554616.000000 0 1 0
14.549570 -2.286185 -15.607114 21.459232 -0.155856 2.385163 0.027368 -0.010474 32270.800000 0 1 0
15.702770 -2.770085 -16.304114 22.805141 -0.174611 2.367322 0.020541 -0.009576 762423.000000 0 1 0
16.802970 -1.854485 -16.281414 23.470478 -0.109922 2.337406 0.029193 -0.001595 604467.000000 0 1 0
17.913470 -2.113785 -15.236214 23.611495 -0.117457 2.272196 0.036424 -0.008133 -492856.000000 0 1 0
17.533770 -1.920985 -13.879414 22.444629 -0.109124 2.237482 0.033238 -0.003588 -146055.000000 0 1 0
18.478670 -2.533685 -13.032014 22.753333 -0.136264 2.180655 0.033794 -0.004269 -213312.000000 0 1 0
18.045970 -2.779685 -11.604814 21.634587 -0.152832 2.136963 0.033300 0.001230 -357424.000000 0 1 0
18.165970 -1.649385 -10.755914 21.175755 -0.090547 2.103582 0.039067 -0.002007 711075.000000 0 1 0
17.562470 -1.934685 -9.485914 20.054075 -0.109718 2.063508 0.038120 -0.001969 -692750.000000 0 1 0
17.667870 -0.719485 -8.549714 19.641000 -0.040700 2.021167 0.036310 0.001517 259608.000000 0 1 0
18.930870 -0.279785 -8.013814 20.559118 -0.014778 1.971204 0.035886 0.004853 1168420.000000 0 1 0
19.816170 0.347415 -8.945014 21.744299 0.017530 1.994756 0.028619 0.009918 -137465.000000 0 1 0
19.333070 1.675915 -9.623314 21.660666 0.086470 2.031162 0.018871 0.005885 -839868.000000 0 1 0
19.194070 2.723915 -8.695114 21.247048 0.140973 1.992416 0.012296 0.007351 546023.000000 0 1 0
18.651170 3.840515 -9.361214 21.219048 0.203074 2.027699 0.008635 -0.004807 -522311.000000 0 1 0
18.497070 5.070515 -8.436214 20.952838 0.267553 1.985183 0.015053 -0.009341 -242763.000000 0 1 0
17.922270 6.131615 -9.214814 21.064597 0.329640 2.023563 0.027870 -0.020316 549693.000000 0 1 0
18.800170 7.237215 -9.312814 22.193516 0.367469 2.003821 0.077238 -0.012385 -239157.000000 0 1 0
-26.355120 -29.826105 6.182986 40.279253 0.847102 1.416684 0.041307 -0.008551 -66737.900000 0 0 1
-26.425600 -28.589215 6.933686 39.544046 0.824706 1.394544 0.013449 -0.007910 142187.000000 0 0 1
-25.394230 -27.690595 6.498886 38.129667 0.828630 1.399518 0.048032 -0.008195 -103400.000000 0 0 1
-25.390710 -26.329025 7.308386 37.300378 0.803538 1.373587 0.025176 -0.002916 -584381.000000 0 0 1
-26.414320 -25.397455 7.117086 37.328272 0.765775 1.378960 0.019302 -0.012198 42995.800000 0 0 1
-27.711640 -25.757185 7.606786 38.590553 0.748861 1.372382 0.023906 -0.011180 543195.000000 0 0 1
-27.992300 -25.885435 9.121586 39.202397 0.746314 1.335965 0.024175 -0.013338 -415960.000000 0 0 1
-27.131650 -26.851705 9.743686 39.396445 0.780212 1.320879 0.024063 -0.015650 98540.100000 0 0 1
-27.494300 -27.137115 11.094986 40.192764 0.778860 1.291120 0.025661 -0.017040 -185803.000000 0 0 1
-26.415300 -27.935735 11.890286 40.243661 0.813365 1.270862 0.018529 -0.017227 118113.000000 0 0 1
-25.204350 -27.295875 12.151086 39.089294 0.825216 1.254704 0.019426 -0.012692 -575068.000000 0 0 1
-25.315210 -26.411355 13.264086 38.914721 0.806586 1.222975 0.029026 -0.006768 -208317.000000 0 0 1
-23.981430 -25.928665 13.909586 37.958941 0.824393 1.195619 0.028949 -0.010066 117350.000000 0 0 1
-23.183330 -26.963285 14.410186 38.368463 0.860634 1.185781 0.035730 -0.006503 -260348.000000 0 0 1
-22.088330 -26.436895 15.157986 37.637326 0.874774 1.156290 0.040493 -0.010395 313585.000000 0 0 1
-21.314130 -27.648885 15.789286 38.315200 0.914062 1.146050 0.058047 -0.017400 -275273.000000 0 0 1
-22.047130 -28.462415 16.672486 39.675645 0.911733 1.137109 0.068410 -0.007398 542365.000000 0 0 1
-21.235430 -29.595885 17.112986 40.245673 0.948413 1.131599 0.060670 -0.003005 478833.000000 0 0 1
-21.971130 -30.533375 18.087386 41.739323 0.947052 1.122599 0.063282 -0.004017 429900.000000 0 0 1
-23.151830 -31.206165 17.646686 42.675959 0.932500 1.144497 0.048432 0.001104 606653.000000 0 0 1
-23.396330 -32.292515 18.517086 43.966774 0.943808 1.136071 0.039122 0.002243 -606377.000000 0 0 1
-24.578630 -33.123145 18.082186 45.035733 0.932410 1.157634 0.032406 0.003460 -645798.000000 0 0 1
-24.319430 -33.881715 16.903686 45.001554 0.948241 1.185726 0.036604 -0.002513 -93952.100000 0 0 1
-25.361960 33.937954 16.558186 45.488320 -0.929023 1.198227 0.035502 -0.000555 -824859.000000 0 0 1
-25.281390 33.290642 15.172586 44.470472 -0.921297 1.222621 0.029073 -0.005470 605015.000000 0 0 1
-24.137130 32.437870 14.974586 43.116756 -0.931080 1.216103 0.022316 -0.010455 1345430.000000 0 0 1
-22.907030 33.097100 14.678286 42.843928 -0.965381 1.221114 0.025005 -0.001445 -577376.000000 0 0 1
-21.682530 32.227400 14.551686 41.478778 -0.978561 1.212347 0.034789 -0.013571 -630904.000000 0 0 1
-21.650330 31.399680 13.383486 40.420223 -0.967147 1.233318 0.033395 -0.005684 884168.000000 0 0 1
-20.480730 30.549810 13.393986 39.142688 -0.980210 1.221557 0.035735 -0.005362 802672.000000 0 0 1
-20.184930 29.884810 12.044586 38.021117 -0.976755 1.248456 0.035190 0.005032 113350.000000 0 0 1
-19.697930 30.688850 11.000686 38.089750 -1.000165 1.277813 0.026921 0.006891 -108733.000000 0 0 1
-19.634530 29.957590 9.791386 37.132778 -0.990627 1.303955 0.031833 0.004567 193484.000000 0 0 1
-19.222530 30.837140 8.541386 37.328141 -1.013380 1.339932 0.014037 0.005340 105497.000000 0 0 1
-17.860230 31.233010 8.586386 36.989387 -1.051341 1.336528 0.022784 0.003901 -127218.000000 0 0 1
-17.400230 31.758960 7.342086 36.950044 -1.069579 1.370762 0.029983 0.002280 521482.000000 0 0 1
-16.731430 30.679130 6.371286 35.521023 -1.071516 1.390454 0.027573 0.002301 721032.000000 0 0 1
-17.693930 29.689230 5.893086 35.060719 -1.033344 1.401912 0.022957 0.006089 643167.000000 0 0 1
-17.392930 28.457350 6.470986 33.973643 -1.022187 1.379155 0.027798 0.011658 -198312.000000 0 0 1
-18.507430 27.441270 6.187386 33.672422 -0.977433 1.385994 0.028480 0.013585 13436.200000 0 0 1
-18.339330 26.780750 4.974786 32.837297 -0.970348 1.418713 0.029419 0.002803 -232762.000000 0 0 1
-19.400730 25.911170 4.766686 32.718471 -0.928102 1.424588 0.026234 -0.001731 -1113520.000000 0 0 1
-19.285330 25.157190 3.419286 31.882592 -0.916760 1.463343 0.029936 -0.011138 -940779.000000 0 0 1
-19.141530 25.814950 2.140286 32.208549 -0.932764 1.504296 0.031985 -0.015682 1306400.000000 0 0 1
-17.925730 26.579540 1.818786 32.110928 -0.977446 1.514125 0.034159 -0.012803 1734600.000000 0 0 1
-16.543930 25.835580 1.994286 30.743389 -1.001232 1.505882 0.037177 -0.008504 154939.000000 0 0 1
-16.248930 24.710530 1.179386 29.597786 -0.989117 1.530939 0.056665 -0.011979 28704.900000 0 0 1
-16.149630 24.977330 -0.235814 29.744464 -0.996835 1.578724 0.052761 -0.016690 -203447.000000 0 0 1
-15.769230 23.666400 -1.029814 28.457470 -0.983039 1.606992 0.062784 -0.020306 -237845.000000 0 0 1
-16.839330 22.775250 -1.247314 28.351911 -0.934133 1.614805 0.060304 -0.030644 -80350.300000 0 0 1
-16.615630 21.692350 -2.169214 27.410631 -0.917154 1.650017 0.065787 -0.030256 -628992.000000 0 0 1
-15.654530 20.603950 -1.744214 25.935099 -0.921063 1.638100 0.071780 -0.028177 -347729.000000 0 0 1
-16.080330 19.933450 -0.590914 25.617740 -0.891983 1.593865 0.076836 -0.030914 -74344.800000 0 0 1
-15.237830 18.850150 -0.261314 24.240212 -0.890975 1.581577 0.096090 -0.032646 -204298.000000 0 1 0
-15.774330 17.970350 0.885786 23.927966 -0.850384 1.533769 0.070329 -0.019308 -238164.000000 0 1 0
-16.501330 16.969050 0.268486 23.670966 -0.799371 1.559454 0.058617 -0.019212 17893.300000 0 1 0
-17.109930 16.065350 1.209786 23.501250 -0.753922 1.519296 0.064330 -0.033082 57687.400000 0 1 0
-17.709330 14.853650 0.465986 23.118573 -0.697925 1.550639 0.071965 -0.030002 56174.700000 0 1 0
-18.799330 15.081350 -0.421714 24.104766 -0.676098 1.588292 0.080828 -0.036194 387717.000000 0 1 0
-19.424430 13.898450 -0.816214 23.898569 -0.621062 1.604956 0.084789 -0.028272 -425717.000000 0 1 0
-20.589230 14.175850 -1.772314 25.060172 -0.602972 1.641578 0.085874 -0.018464 -798728.000000 0 0 1
-21.378830 13.081350 -2.299614 25.168717 -0.549111 1.662292 0.080558 -0.022112 1522150.000000 0 0 1
-22.449630 12.620550 -1.450714 25.794742 -0.512140 1.627067 0.085878 -0.019017 390798.000000 0 0 1
-23.635730 13.602350 -1.245314 27.298763 -0.522210 1.616430 0.079434 -0.011790 -646796.000000 0 0 1
-23.347130 14.617250 -0.288614 27.546974 -0.559378 1.581274 0.074716 -0.019625 -23446.700000 0 0 1
-24.498230 15.375450 -0.135614 28.923799 -0.560477 1.575485 0.072330 -0.017110 -560673.000000 0 0 1
-24.186630 16.601050 0.703186 29.344206 -0.601522 1.546831 0.063329 -0.021340 42137.400000 0 0 1
-23.762230 16.331850 2.025486 28.904593 -0.602153 1.500664 0.065065 -0.027493 109429.000000 0 0 1
-23.386730 17.457050 2.792986 29.317034 -0.641226 1.475383 0.054107 -0.032436 213600.000000 0 0 1
-24.496730 18.446550 3.338486 30.846563 -0.645432 1.462355 0.059510 -0.037419 -286415.000000 0 0 1
-25.253190 17.794150 4.404886 31.205102 -0.613826 1.429164 0.064625 -0.036992 833211.000000 0 0 1
-26.582580 18.287950 4.531086 32.582410 -0.602605 1.431279 0.058767 -0.043838 625789.000000 0 0 1
-27.555750 18.008150 3.339186 33.087203 -0.578844 1.469703 0.065322 -0.027620 -1073560.000000 0 0 1
-28.811200 18.611250 3.531986 34.480992 -0.573539 1.468183 0.066085 -0.024640 123267.000000 0 0 1
-29.488020 18.668250 2.286886 34.975373 -0.564388 1.505364 0.075263 -0.009482 -524359.000000 0 0 1
-30.729810 19.531150 2.195686 36.477501 -0.566169 1.510567 0.079465 -0.018563 -660552.000000 0 0 1
-31.913060 18.927550 2.679286 37.200459 -0.535329 1.498711 0.085713 -0.017021 -149115.000000 0 0 1
-33.057860 19.685250 2.418386 38.551002 -0.537088 1.508023 0.073730 -0.018353 -363031.000000 0 0 1
-33.518000 20.389650 3.717886 39.408335 -0.546514 1.476313 0.068271 -0.015035 -595742.000000 0 0 1
-32.712220 21.504550 4.109986 39.362762 -0.581550 1.466193 0.076554 -0.019259 434034.000000 0 0 1
-33.030560 21.932950 5.400186 40.015425 -0.586168 1.435431 0.059065 -0.021680 -627482.000000 0 0 1
-32.002060 22.893850 5.957086 39.796320 -0.620978 1.420542 0.073586 -0.022783 -500332.000000 0 0 1
-31.919390 24.057450 5.185186 40.305018 -0.645861 1.441790 0.066343 -0.015800 -166872.000000 0 0 1
-30.930190 24.889220 5.668986 40.103458 -0.677594 1.428962 0.064607 -0.016071 -637402.000000 0 0 1
-31.159920 26.419550 5.458786 41.215672 -0.703256 1.437962 0.062466 -0.008888 -452615.000000 0 0 1
-32.043010 27.042040 6.341886 42.405730 -0.700959 1.420681 0.061286 -0.005826 -145730.000000 0 0 1
-32.266840 28.372880 5.967986 43.379559 -0.721272 1.432783 0.057448 -0.005462 -283413.000000 0 0 1
-33.373580 28.938410 6.847686 44.700316 -0.714341 1.417000 0.051976 -0.007222 -555281.000000 0 0 1
-32.848240 29.200450 8.180486 44.705632 -0.726677 1.386774 0.064426 -0.016870 987832.000000 0 0 1
-33.741000 29.818830 9.176086 45.954524 -0.723768 1.369768 0.067972 -0.015309 356736.000000 0 0 1
-35.018757 29.067030 9.592586 46.510464 -0.692793 1.363060 0.054725 -0.018236 -322111.000000 0 0 1
-34.810428 27.884560 10.287286 45.772730 -0.675375 1.344113 0.062842 -0.028088 -92321.600000 0 0 1
-35.896839 27.446570 11.064086 46.522159 -0.652777 1.330671 0.054360 -0.033311 -250792.000000 0 0 1
-35.593900 26.057720 11.653786 45.626102 -0.631936 1.312515 0.064571 -0.025499 189310.000000 0 0 1
-34.520185 26.112830 12.578186 45.074758 -0.647617 1.287990 0.076130 -0.031932 142315.000000 0 0 1
-34.342707 24.961810 13.360986 44.508757 -0.628516 1.265907 0.082499 -0.030172 443521.000000 0 0 1
-33.139860 25.236370 14.334886 44.052397 -0.650828 1.239356 0.083524 -0.027743 423654.000000 0 0 1
-33.394760 26.314660 15.202586 45.152962 -0.667373 1.227396 0.082848 -0.014423 -29898.300000 0 0 1
-32.343670 26.465800 16.136586 44.798895 -0.685781 1.202313 0.092024 -0.014173 103467.000000 0 0 1
-32.565120 27.646850 17.095286 46.011783 -0.703897 1.190128 0.090316 -0.009489 -38364.200000 0 0 1
-32.629710 28.897220 16.471786 46.594710 -0.724808 1.209474 0.090997 -0.014574 43710.900000 0 0 1
-32.685480 29.974000 17.396886 47.638566 -0.742152 1.196965 0.084558 -0.013849 -101645.000000 0 0 1
-32.156360 31.312530 16.829786 47.934828 -0.772104 1.212054 0.070554 -0.007887 1353000.000000 0 0 1
-30.747780 31.270660 16.478386 46.848878 -0.793829 1.211373 0.066310 -0.005167 1054890.000000 0 0 1
-30.428190 32.457800 15.749086 47.195521 -0.817661 1.230572 0.068123 0.005103 -1142120.000000 0 0 1
-29.045590 32.494750 15.147486 46.141103 -0.841387 1.236308 0.071297 0.002305 -904292.000000 0 0 1
-28.734700 31.528270 14.114486 44.932544 -0.831721 1.251260 0.057835 0.000538 231803.000000 0 0 1
-28.416600 30.214700 14.556386 43.958158 -0.816056 1.233283 0.061402 -0.006916 212514.000000 0 0 1
-29.526650 29.174800 14.144086 43.852562 -0.779404 1.242388 0.075850 -0.013008 613418.000000 0 0 1
-29.565800 28.805900 12.823186 43.224420 -0.772381 1.269597 0.075896 -0.026713 -643546.000000 0 0 1
-30.716500 28.123060 12.447386 43.466623 -0.741350 1.280364 0.081849 -0.024507 -229655.000000 0 0 1
-30.824960 28.054670 10.866186 43.073387 -0.738383 1.315769 0.078256 -0.019785 88239.800000 0 0 1
-29.758390 27.298120 10.335186 41.684112 -0.742305 1.320242 0.067008 -0.007618 -36492.600000 0 0 1
-29.598190 27.606050 8.985686 41.459491 -0.750587 1.352329 0.058734 -0.012894 206372.000000 0 0 1
-28.524590 26.753440 8.239686 39.966126 -0.753368 1.363140 0.051136 -0.009494 440289.000000 0 0 1
-28.114080 27.343230 7.008686 39.839370 -0.771499 1.393952 0.048245 -0.008183 -249530.000000 0 0 1
-27.040980 26.613380 6.459886 38.486578 -0.777429 1.402150 0.039697 -0.007039 -38862.600000 0 0 1
-26.843680 27.030490 4.966386 38.417386 -0.788866 1.441159 0.048774 -0.014315 -94334.300000 0 0 1
-26.051610 28.157550 4.692386 38.646507 -0.824227 1.449078 0.040157 -0.009041 135231.000000 0 0 1
-25.691340 28.284810 3.358286 38.358226 -0.833410 1.483133 0.036203 -0.010635 -83066.500000 0 0 1
-24.729930 29.463680 3.056086 38.587790 -0.872526 1.491515 0.028414 -0.009992 -111764.000000 0 0 1
-23.405530 29.196390 3.449786 37.578572 -0.895045 1.478865 0.022589 -0.008618 -352480.000000 0 0 1
-22.552230 30.223980 2.954086 37.826164 -0.929751 1.492620 0.008244 0.003828 -152041.000000 0 0 1
-21.087930 29.858420 3.267886 36.700206 -0.955879 1.481636 0.004124 0.004479 -453418.000000 0 0 1
-20.232930 30.749410 2.613786 36.901620 -0.988822 1.499906 0.005078 0.005325 -602552.000000 0 0 1
-18.910130 30.283560 2.852186 35.816504 -1.012603 1.491079 0.012580 -0.004188 -53255.900000 0 0 1
-17.831130 31.295160 2.520486 36.106635 -1.052899 1.500933 0.019820 -0.008201 -420027.000000 0 0 1
-17.949630 32.465570 3.263086 37.240437 -1.065743 1.483062 0.019370 -0.004914 -571683.000000 0 0 1
-17.008030 33.373590 2.823586 37.563842 -1.099478 1.495558 0.046603 -0.010780 -371678.000000 0 0 1
-16.834330 -33.969225 3.558486 38.078415 1.110694 1.477208 0.040293 -0.013834 -369750.000000 0 0 1
-17.807530 -33.027885 3.266186 37.664536 1.076309 1.483969 0.043989 -0.013473 -178036.000000 0 0 1
-17.464930 -31.949655 4.155986 36.648007 1.070537 1.457149 0.033011 -0.007319 -147905.000000 0 0 1
-18.566030 -30.904795 4.319086 36.310581 1.029826 1.451566 0.032874 -0.003268 -372570.000000 0 0 1
-18.584830 -30.019315 3.192686 35.450647 1.016454 1.480614 0.046454 -0.011487 -36661.500000 0 0 1
-19.670930 -29.133485 3.304086 35.307540 0.976909 1.477079 0.045395 -0.014938 -750694.000000 0 0 1
-19.866830 -28.258165 2.063586 34.604526 0.958028 1.511127 0.044418 -0.013598 281460.000000 0 0 1
-18.904830 -27.177305 2.045586 33.169005 0.963022 1.509086 0.054601 -0.023941 497413.000000 0 0 1
-19.145230 -26.213195 1.033886 32.476766 0.939980 1.538956 0.043772 -0.025476 116592.000000 0 0 1
-18.096330 -25.048865 1.059786 30.919992 0.945167 1.536514 0.036770 -0.021072 14635.500000 0 0 1
-16.842930 -25.477545 0.627486 30.548049 0.986665 1.550254 0.046297 -0.018097 -838808.000000 0 0 1
-15.856230 -24.495685 0.900086 29.193642 0.996317 1.539960 0.053170 -0.011160 634673.000000 0 0 1
-14.446330 -24.846185 0.315586 28.742459 1.044143 1.559816 0.056658 -0.007893 205145.000000 0 0 1
-14.280830 -24.931485 -1.096814 28.752809 1.050615 1.608952 0.050112 -0.010347 -196247.000000 0 0 1
-14.555530 -23.738385 -1.794814 27.903328 1.020753 1.635163 0.047762 -0.011900 -382757.000000 0 0 1
-14.772130 -24.055185 -3.301114 28.421208 1.020078 1.687209 0.039463 -0.011103 296596.000000 0 0 1
-13.604530 -24.242785 -4.094314 28.099097 1.059411 1.717027 0.035990 -0.008325 -61015.000000 0 0 1
-13.968730 -24.560485 -5.363014 28.759429 1.053673 1.758373 0.047179 -0.012940 -199556.000000 0 0 1
-12.819230 -25.045285 -6.250614 28.821331 1.097720 1.789408 0.048184 -0.008106 -240906.000000 0 0 1
-12.419630 -26.329075 -5.863114 29.695850 1.130038 1.769541 0.027516 -0.010415 147626.000000 0 0 1
-11.194430 -26.730645 -6.480414 29.695764 1.174200 1.790794 0.029253 -0.003357 455385.000000 0 0 1
23.363070 13.106615 28.889727 39.398385 0.511247 0.747675 0.027122 -0.006492 -406343.000000 0 0 1
24.060870 11.933315 28.621907 39.249752 0.460413 0.753607 0.024292 -0.007936 70303.500000 0 0 1
23.480670 10.757815 29.203037 38.985764 0.429616 0.724140 0.029511 -0.012087 -286137.000000 0 0 1
23.379370 10.666115 30.730947 40.059357 0.428014 0.696433 0.035816 -0.005882 123282.000000 0 0 1
22.422070 11.509215 31.347757 40.223042 0.474230 0.677171 0.026578 0.002328 315756.000000 0 0 1
22.913070 11.944515 32.617424 41.612216 0.480540 0.669966 0.034380 -0.003005 -43525.300000 0 0 1
22.025070 13.061515 33.216697 41.941100 0.535278 0.656744 0.022358 0.005783 640843.000000 0 0 1
20.701270 12.603915 33.515431 41.360432 0.546900 0.626088 0.032989 0.006347 462797.000000 0 0 1
20.074070 13.531215 -34.080473 41.803597 0.593107 2.523961 0.031245 0.007878 -268615.000000 0 0 1
18.834070 12.965915 -33.379204 40.459960 0.602918 2.540987 0.029562 0.010349 291680.000000 0 0 1
17.695470 12.788915 34.219277 40.591193 0.625814 0.567919 0.021483 0.008583 407702.000000 0 0 1
16.680470 12.234715 -33.426494 39.309755 0.632841 2.587419 0.021259 0.003577 277312.000000 0 0 1
15.335770 12.039215 -34.205286 39.371692 0.665553 2.623527 0.016547 0.007754 425945.000000 0 0 1
15.313270 11.009115 33.339564 38.304352 0.623316 0.514811 0.024519 0.011545 -665870.000000 0 0 1
14.052570 10.867715 32.766750 37.272535 0.658286 0.496800 0.014835 0.016568 -512341.000000 0 0 1
14.099570 9.796415 31.706127 36.056152 0.607229 0.496292 0.020027 0.018730 -114783.000000 0 0 1
14.306670 8.530215 32.211177 36.263002 0.537651 0.477241 0.006263 0.009654 319724.000000 0 0 1
15.124470 7.788215 31.285127 35.611305 0.475529 0.498048 0.004275 0.000397 374832.000000 0 0 1
15.603470 6.425615 31.802157 36.001861 0.390643 0.487840 0.033982 -0.008528 202769.000000 0 0 1
14.544070 5.464515 31.858657 35.445238 0.359403 0.453741 0.030463 -0.008665 255360.000000 0 0 1
14.895770 4.320515 32.581435 36.084633 0.282303 0.444287 0.050117 -0.020976 417836.000000 0 0 1
13.801270 3.209615 32.429750 35.390187 0.228498 0.411933 0.026188 -0.013248 653138.000000 0 0 1
14.168570 1.978515 33.040294 36.004499 0.138744 0.408617 0.042465 -0.023381 -377461.000000 0 0 1
13.008370 1.195015 33.133299 35.615464 0.091608 0.375549 0.044210 -0.027491 -332285.000000 0 0 1
13.252470 -0.251785 33.672881 36.187764 -0.018997 0.375008 0.022140 -0.027805 -164015.000000 0 0 1
13.906470 -1.059085 32.740216 35.586982 -0.076011 0.402702 0.020780 -0.017961 -122707.000000 0 0 1
14.134770 -2.358285 33.342443 36.291483 -0.165320 0.405918 0.044840 -0.026007 -227056.000000 0 0 1
14.392870 -3.555385 32.338177 35.574614 -0.242176 0.429860 0.048465 -0.026388 -925966.000000 0 0 1
14.734870 -4.860185 32.892806 36.368592 -0.318605 0.440757 0.053717 -0.029467 201290.000000 0 0 1
16.053770 -5.031685 33.383359 37.383018 -0.303729 0.466810 0.045882 -0.022487 175780.000000 0 0 1
17.232370 -4.827685 32.414654 37.026624 -0.273150 0.504447 0.050039 -0.025032 -947398.000000 0 0 1
17.483870 -3.471585 32.302097 36.893944 -0.196010 0.504245 0.059929 -0.030680 177027.000000 0 0 1
18.533470 -3.192385 31.372037 36.577118 -0.170576 0.540025 0.089678 -0.042215 318829.000000 0 0 1
18.926470 -1.682285 31.182247 36.515392 -0.088652 0.547270 0.086687 -0.040426 -233383.000000 0 0 1
19.480870 -1.052785 32.317217 37.749373 -0.053989 0.543122 0.073116 -0.040030 138818.000000 0 0 1
19.171970 0.334215 32.478175 37.716150 0.017431 0.533325 0.068523 -0.032048 21283.200000 0 0 1
20.194570 1.224615 31.743737 37.642863 0.060567 0.567426 0.080946 -0.036102 -227364.000000 0 0 1
20.362670 1.096515 30.331517 36.549167 0.053797 0.591899 0.088256 -0.037217 377980.000000 0 0 1
21.246770 2.043815 29.688587 36.565210 0.095899 0.623336 0.073697 -0.032430 112778.000000 0 0 1
20.633470 3.408715 29.469747 36.136206 0.163724 0.617172 0.062145 -0.023315 -298246.000000 0 0 1
20.543570 4.039015 30.756577 37.206437 0.194131 0.597674 0.066705 -0.030813 212055.000000 0 0 1
19.702270 5.154515 30.814837 36.936468 0.255885 0.583996 0.054836 -0.024034 -355816.000000 0 0 1
19.457070 5.760715 32.228667 38.084779 0.287850 0.561918 0.048704 -0.011294 -241660.000000 0 0 1
18.383270 5.204915 32.939143 38.079166 0.275912 0.525611 0.053905 -0.012091 -75299.800000 0 0 1
18.515070 5.617415 -34.206069 39.299088 0.294570 2.626818 0.055354 -0.010305 170002.000000 0 0 1
17.428170 5.063215 -33.231854 37.864672 0.282736 2.641729 0.062294 -0.014730 63044.700000 0 0 1
17.511470 3.643215 -33.056514 37.585339 0.205121 2.645619 0.063257 -0.018182 -288638.000000 0 0 1
16.304470 3.106515 -32.580584 36.564745 0.188275 2.670423 0.061870 -0.024616 -103983.000000 0 0 1
16.083470 1.677415 -32.931444 36.687487 0.103919 2.685137 0.050382 -0.029789 -286399.000000 0 0 1
17.152670 0.840915 -32.571794 36.821773 0.048986 2.656388 0.045812 -0.024297 -200522.000000 0 0 1
16.905570 -0.488885 -32.960244 37.046119 -0.028910 2.667502 0.050829 -0.024525 161369.000000 0 0 1
18.048470 -1.368185 -32.344984 37.065040 -0.075661 2.631409 0.053035 -0.023402 428020.000000 0 0 1
18.007870 -1.440485 -30.899994 35.793407 -0.079822 2.612543 0.047477 -0.021731 260711.000000 0 0 1
18.212970 -0.191485 -30.202614 35.269630 -0.010513 2.598926 0.042611 -0.012904 -592356.000000 0 0 1
17.974270 -0.228585 -28.695804 33.861125 -0.012717 2.581970 0.031286 -0.000771 575310.000000 0 0 1
16.591070 -0.469985 -28.410564 32.903565 -0.028320 2.612865 0.041460 -0.014249 725581.000000 0 0 1
16.176070 -0.603885 -27.037514 31.512808 -0.037315 2.602130 0.035072 -0.015948 -4697.390000 0 0 1
16.821970 -1.687385 -26.135424 31.126939 -0.099974 2.567416 0.036755 -0.007175 108609.000000 0 0 1
18.182170 -1.523185 -25.701594 31.519570 -0.083578 2.524246 0.035936 -0.006745 619737.000000 0 0 1
18.766270 -2.773285 -25.366464 31.675250 -0.146718 2.499475 0.030390 -0.003543 72556.400000 0 0 1
19.509570 -3.355785 -26.577214 33.139597 -0.170340 2.501395 0.043712 -0.009508 -601438.000000 0 0 1
20.756770 -2.731285 -26.820754 34.024348 -0.130834 2.478807 0.065188 -0.004717 -193591.000000 0 0 1
21.119570 -3.045585 -28.132244 35.309134 -0.143219 2.492680 0.072612 -0.011358 -981004.000000 0 0 1
22.482170 -2.558185 -28.546164 36.426305 -0.113300 2.471347 0.068296 -0.015719 -1069310.000000 0 0 1
23.448570 -3.542885 -28.304324 36.925901 -0.149957 2.444196 0.058838 -0.021370 -358293.000000 0 0 1
24.728570 -2.989885 -28.553064 37.890883 -0.120324 2.424258 0.042630 -0.021582 134915.000000 0 0 1
25.954770 -3.874485 -28.267184 38.570654 -0.148184 2.393324 0.054824 -0.021018 -227102.000000 0 0 1
26.180070 -4.897385 -29.187004 39.512803 -0.184928 2.401894 0.067142 -0.029275 985132.000000 0 0 1
27.391070 -5.663985 -28.966144 40.266474 -0.203908 2.373679 0.062064 -0.026424 875763.000000 0 0 1
27.359770 -6.692585 -27.800754 39.575619 -0.239903 2.349661 0.052184 -0.019996 -241783.000000 0 0 1
27.271070 -6.132385 -26.493764 38.512815 -0.221189 2.329417 0.049842 -0.007280 239208.000000 0 0 1
27.225770 -7.182485 -25.567534 38.033267 -0.257935 2.308028 0.036203 -0.008214 -322218.000000 0 0 1
27.367570 -6.744585 -24.129814 37.104194 -0.241629 2.278810 0.032073 -0.007367 183622.000000 0 0 1
28.697970 -6.361985 -23.816614 37.832254 -0.218159 2.251747 0.029795 -0.003929 341987.000000 0 0 1
28.759570 -6.025285 -22.471514 36.991700 -0.206518 2.223674 0.038711 -0.007834 -382423.000000 0 0 1
30.184170 -5.656385 -22.060714 37.812086 -0.185247 2.193742 0.036046 -0.004236 -406068.000000 0 0 1
30.673870 -4.450785 -22.625314 38.374478 -0.144095 2.201351 0.029267 -0.009409 -249872.000000 0 0 1
31.903470 -4.037085 -22.097814 39.018493 -0.125872 2.172857 0.026013 -0.006509 -147602.000000 0 0 1
32.342370 -2.742885 -22.784614 39.657167 -0.084605 2.182838 0.035081 -0.015772 -54.439900 0 0 1
31.473170 -1.708685 -22.396714 38.666430 -0.054237 2.188579 0.026837 -0.012853 376367.000000 0 0 1
32.004970 -0.461985 -22.813014 39.306044 -0.014434 2.190009 0.019204 -0.014570 130576.000000 0 0 1
31.014270 0.709815 -22.449014 38.292910 0.022883 2.197212 0.022149 -0.004350 -107296.000000 0 0 1
29.948870 0.677115 -23.340914 37.976197 0.022605 2.232700 0.014223 -0.004021 -578667.000000 0 0 1
28.921370 1.555715 -23.027814 37.001974 0.053739 2.242525 0.010084 0.003038 -345702.000000 0 0 1
27.752470 1.586415 -24.055414 36.761110 0.057101 2.284147 0.020211 0.003445 -275514.000000 0 0 1
26.854370 2.549115 -23.576614 35.826134 0.094640 2.289068 0.011054 0.006522 -647869.000000 0 0 1
25.763670 2.609815 -24.459614 35.620928 0.100954 2.327687 0.022164 0.004394 72063.700000 0 0 1
24.745070 3.718515 -23.975314 34.654891 0.149157 2.334818 0.022154 0.003864 -51703.000000 0 0 1
25.307670 5.007115 -23.917014 35.179154 0.195327 2.318372 0.012532 0.007317 87477.200000 0 0 1
24.471570 5.961115 -23.272814 34.293097 0.238940 2.316712 0.028478 -0.010589 -364555.000000 0 0 1
25.214970 7.086915 -22.537414 34.553641 0.273991 2.281338 0.041146 -0.008466 270073.000000 0 0 1
25.985470 7.948715 -23.429514 35.879922 0.296852 2.282332 0.032665 -0.012657 483917.000000 0 0 1
26.231870 9.241515 -22.929214 36.045325 0.338723 2.260258 0.041587 -0.021045 -345852.000000 0 0 1
27.035970 10.156815 -23.905214 37.490850 0.359365 2.262211 0.064713 -0.017968 -283731.000000 0 0 1
26.474970 10.559515 -25.146074 38.009899 0.379514 2.293702 0.059009 -0.013210 300391.000000 0 0 1
25.307070 11.371015 -25.058514 37.385517 0.422290 2.305373 0.069127 -0.017173 521952.000000 0 0 1
24.657870 11.747815 -26.445424 38.018182 0.444617 2.340050 0.058921 -0.015916 -56650.800000 0 0 1
24.158170 10.654415 -27.214764 37.918031 0.415367 2.371328 0.046698 -0.007992 454922.000000 0 0 1
25.053870 9.622715 -27.690934 38.562687 0.366708 2.371830 0.036928 -0.007488 321654.000000 0 0 1
25.968870 10.033115 -28.898524 40.126927 0.368685 2.374855 0.022961 0.002297 -211239.000000 0 0 1
27.030770 10.928915 -28.577244 40.826004 0.384220 2.346161 0.011892 0.008877 642552.000000 0 0 1
27.816070 11.358815 -29.653094 42.214481 0.387688 2.349615 0.000452 0.020128 322505.000000 0 0 1
28.767470 10.330815 -30.346464 43.072043 0.344771 2.352587 0.008061 0.012945 -193200.000000 0 0 1
28.049370 9.417315 -31.187984 42.990037 0.323916 2.382513 0.004927 0.007854 958614.000000 0 0 1
28.944070 8.416015 -31.740484 43.772672 0.282966 2.382006 0.009940 0.007895 514437.000000 0 0 1
28.278870 7.554115 -32.861174 44.006998 0.261034 2.413923 0.019569 0.001459 271851.000000 0 0 1
27.183370 6.787415 -32.365144 42.807793 0.244687 2.428064 0.025388 0.001936 -17771.700000 0 0 1
26.686870 5.910815 -33.384974 43.147227 0.217969 2.455529 0.038732 0.000209 155327.000000 0 0 1
25.369970 5.143715 -33.051744 41.982269 0.200037 2.477179 0.031530 -0.003179 -687371.000000 0 0 1
24.248670 5.929615 -33.034924 41.406093 0.239827 2.494480 0.033686 -0.007335 -1008280.000000 0 0 1
23.925170 6.391715 -31.684864 40.214405 0.261058 2.478185 0.027737 0.005053 -1102510.000000 0 0 1
22.448070 6.713615 -31.707774 39.425517 0.290606 2.505200 0.030642 -0.000901 -878357.000000 0 0 1
22.177470 7.801215 -32.583174 40.179128 0.338245 2.516566 0.036094 0.002165 219458.000000 0 0 1
20.856370 8.279315 -32.314944 39.341973 0.377890 2.534633 0.044030 -0.007003 432729.000000 0 0 1
20.329970 9.320215 -33.295374 40.109301 0.429856 2.550112 0.039374 -0.000721 -192027.000000 0 0 1
19.999070 8.712315 33.923324 40.331863 0.410845 0.571474 0.040691 -0.004337 -3763.470000 0 0 1
19.724370 9.747415 33.009715 39.669940 0.458982 0.587897 0.037629 -0.003344 622647.000000 0 0 1
18.547970 9.470515 31.979577 38.162956 0.472088 0.577236 0.030174 -0.003434 612532.000000 0 0 1
18.824670 8.585815 30.874927 37.166457 0.427910 0.590396 0.038403 -0.009724 890374.000000 0 0 1
19.924970 8.990315 30.009357 37.126698 0.423858 0.629544 0.046893 -0.011426 506354.000000 0 0 1
19.525670 10.087615 28.954227 36.350502 0.476866 0.649264 0.049135 -0.014482 188255.000000 0 0 1
18.562070 9.670915 27.995857 34.954900 0.480309 0.641977 0.031662 -0.009066 698899.000000 0 0 1
17.228070 10.066215 28.302377 34.628884 0.528789 0.614077 0.029097 -0.016853 104304.000000 0 0 1
16.168370 9.385915 27.424797 33.190828 0.525966 0.598332 0.034708 -0.016688 -827234.000000 0 0 1
16.141970 9.730315 26.087577 32.183907 0.542473 0.625657 0.044985 -0.021404 19403.300000 0 0 1
14.914170 9.482815 25.448017 30.983186 0.566346 0.607024 0.057569 -0.023194 -70874.200000 0 0 1
14.541770 8.000115 25.159547 30.140798 0.502956 0.583147 0.051038 -0.017299 -184794.000000 0 0 1
14.484270 7.099115 26.268947 30.826110 0.455717 0.550687 0.030736 -0.011260 -109677.000000 0 0 1
13.893470 5.902515 25.895777 29.974313 0.401736 0.527770 0.037130 -0.010698 -308221.000000 0 0 1
14.043370 4.813815 26.949947 30.768307 0.330230 0.503499 0.051805 -0.008857 -961438.000000 0 0 1
15.291270 4.278415 27.184517 31.482149 0.272818 0.528648 0.027616 -0.012453 -722985.000000 0 0 1
15.532570 4.210115 28.581517 32.800746 0.264691 0.512813 0.022301 -0.015266 -51840.600000 0 0 1
16.622670 3.144215 28.827797 33.425157 0.186944 0.530690 0.052753 -0.028947 -200443.000000 0 0 1
16.284470 1.794315 28.708447 33.054174 0.109743 0.518573 0.048492 -0.020737 -10066.300000 0 0 1
15.517370 1.310515 29.801377 33.624816 0.084255 0.481522 0.037630 -0.012444 53991.600000 0 0 1
15.368870 -0.220385 30.000047 33.708360 -0.014339 0.473477 0.047683 -0.018452 3618.700000 0 0 1
14.632470 -0.902785 28.967367 32.465867 -0.061619 0.468513 0.037166 -0.006747 400173.000000 0 0 1
15.173370 -0.897985 27.626117 31.531569 -0.059113 0.502998 0.045748 -0.007352 -736423.000000 0 0 1
16.293970 -1.967885 27.444607 31.977687 -0.120192 0.538961 0.045790 -0.009353 1132210.000000 0 0 1
17.663270 -1.751285 27.822067 33.001902 -0.098825 0.567878 0.065787 -0.021905 983600.000000 0 0 1
18.247670 -0.529385 27.403577 32.927401 -0.029003 0.587656 0.072411 -0.025003 -1035430.000000 0 0 1
19.733670 -0.288285 27.742487 34.046239 -0.014608 0.618331 0.093056 -0.035505 131780.000000 0 0 1
20.562670 -0.979985 26.813617 33.804642 -0.047622 0.654761 0.073188 -0.026693 -180136.000000 0 0 1
21.918770 -0.877285 27.191107 34.936491 -0.040003 0.678841 0.066728 -0.029458 804228.000000 0 0 1
22.971970 -1.615585 26.258207 34.925849 -0.070213 0.719967 0.063712 -0.018998 403407.000000 0 0 1
22.951570 -1.256485 24.866087 33.862599 -0.054690 0.746127 0.073683 -0.008980 508240.000000 0 0 1
21.990170 -1.983785 24.075337 32.666877 -0.089969 0.742182 0.080803 0.000958 283129.000000 0 0 1
21.863170 -1.272785 22.654667 31.509556 -0.058150 0.768466 0.079262 -0.018975 -468511.000000 0 0 1
21.133470 -0.115885 22.611567 30.950282 -0.005483 0.751630 0.064448 -0.014228 -360095.000000 0 0 1
20.660070 0.188915 21.339667 29.702787 0.009144 0.769239 0.064787 -0.009171 -97958.600000 0 0 1
-30.309500 -27.426519 -10.369014 42.171035 0.735506 1.819224 -0.026485 0.017764 -34929.400000 0 0 1
-30.169930 -26.226319 -9.668714 41.128196 0.715585 1.808105 -0.008966 0.016245 190156.000000 0 0 1
-30.876420 -26.291519 -8.403514 41.415170 0.705369 1.775124 0.006387 0.012157 -533880.000000 0 0 1
-31.132050 -24.960819 -7.660314 40.631606 0.675821 1.760462 0.034945 0.002358 446014.000000 0 0 1
-30.007570 -24.251219 -7.089814 39.228068 0.679703 1.752528 0.024366 -0.005956 328642.000000 0 0 1
-29.436750 -24.958819 -5.963614 39.051627 0.703262 1.724107 0.020059 -0.003843 417136.000000 0 0 1
-28.159720 -24.216719 -5.456014 37.539145 0.710258 1.716655 0.030098 -0.009257 7798.940000 0 0 1
-28.318040 -23.120319 -4.584714 36.843997 0.684692 1.695556 0.037518 -0.014645 -122021.000000 0 0 1
-28.846180 -21.949519 -5.216514 36.620971 0.650451 1.713729 0.035756 -0.018416 -2637.080000 0 0 1
-28.761590 -20.830819 -4.210814 35.761474 0.626822 1.688817 0.035159 -0.021343 1244490.000000 0 0 1
-27.459830 -20.169019 -4.133614 34.320815 0.633502 1.691530 0.045169 -0.032093 1366280.000000 0 0 1
-27.494260 -19.110119 -3.161014 33.632172 0.607402 1.664923 0.050376 -0.025285 150229.000000 0 0 1
-26.330450 -18.086919 -3.311414 32.115334 0.601894 1.674090 0.049899 -0.024762 469819.000000 0 0 1
-26.671600 -17.170819 -4.352614 32.018066 0.571995 1.707161 0.047469 -0.031923 476842.000000 0 0 1
-25.710450 -16.129319 -4.417814 30.670821 0.560284 1.715339 0.048186 -0.031032 24436.100000 0 0 1
-26.055850 -15.138419 -5.560114 30.643008 0.526331 1.753255 0.042113 -0.036983 -1052990.000000 0 0 1
-27.261190 -14.498319 -5.406214 31.346465 0.488786 1.744129 0.036955 -0.034276 -853794.000000 0 0 1
-27.440030 -13.528119 -6.402114 31.256236 0.458037 1.777083 0.062082 -0.050283 669208.000000 0 0 1
-28.823810 -12.783719 -6.244814 32.143945 0.417446 1.766316 0.057251 -0.037436 370706.000000 0 0 1
-29.936710 -13.556019 -6.562714 33.511811 0.425199 1.767903 0.059795 -0.034723 -915907.000000 0 0 1
-31.090080 -12.834019 -6.282414 34.216573 0.391493 1.755451 0.051184 -0.036009 -1250300.000000 0 0 1
-32.306340 -13.422519 -6.946214 35.666700 0.393776 1.766802 0.033619 -0.028824 -926148.000000 0 0 1
-32.907310 -14.526919 -6.324014 36.522809 0.415721 1.744826 0.035773 -0.027215 -60142.500000 0 0 1
-32.656070 -15.627919 -7.135314 36.899369 0.446350 1.765394 0.039606 -0.033086 -684065.000000 0 0 1
-33.485330 -16.878419 -6.710414 38.094330 0.466886 1.747873 0.027524 -0.028572 1106540.000000 0 0 1
-34.918498 -16.772819 -6.770314 39.325133 0.447798 1.743821 0.025854 -0.022263 1029500.000000 0 0 1
-35.456876 -15.992019 -5.726914 39.315802 0.423708 1.716981 0.018522 -0.025820 257042.000000 0 0 1
35.067711 -16.062219 -5.568414 38.971098 -0.429515 1.714173 0.031904 -0.027438 844578.000000 0 0 1
34.311451 -15.369619 -6.543714 38.161775 -0.421143 1.743121 0.041588 -0.026043 1381200.000000 0 0 1
32.880311 -15.366319 -6.317414 36.839494 -0.437181 1.743133 0.056952 -0.030994 1288250.000000 0 0 1
32.275291 -14.520519 -5.142414 35.762890 -0.422767 1.715088 0.081320 -0.035917 -620826.000000 0 0 1
32.356591 -15.150719 -3.901314 35.940417 -0.437920 1.679560 0.076109 -0.030872 432901.000000 0 0 1
31.855501 -14.358219 -2.798014 35.053677 -0.423461 1.650702 0.100557 -0.037532 -629451.000000 0 0 1
32.101781 -15.008519 -1.426814 35.465699 -0.437335 1.611038 0.095148 -0.038251 605840.000000 0 0 1
33.416801 -15.388919 -0.977814 36.802956 -0.431563 1.597368 0.105319 -0.034951 949915.000000 0 0 1
34.169931 -16.314419 -1.760514 37.905724 -0.445445 1.617258 0.087933 -0.027761 -610306.000000 0 0 1
33.631791 -17.780519 -1.848614 38.087552 -0.486329 1.619351 0.082495 -0.029246 -725072.000000 0 0 1
34.033811 -18.720019 -0.843814 38.851660 -0.502875 1.592517 0.079267 -0.026078 278844.000000 0 0 1
33.702961 -20.076219 -1.252014 39.249353 -0.537238 1.602701 0.065668 -0.023733 411919.000000 0 0 1
34.732961 -20.759119 -2.218514 40.524578 -0.538710 1.625569 0.048790 -0.020445 317604.000000 0 0 1
34.728581 -20.098119 -3.485614 40.276026 -0.524625 1.657448 0.028725 -0.024559 134829.000000 0 0 1
35.547241 -20.686119 -4.516714 41.375386 -0.527029 1.680179 0.039009 -0.025051 32396.900000 0 0 1
35.598711 -20.061719 -5.942514 41.292303 -0.513188 1.715211 0.042036 -0.026371 -420850.000000 0 0 1
34.321911 -20.083019 -6.523214 40.297315 -0.529419 1.733389 0.040029 -0.030648 124171.000000 0 0 1
34.324001 -19.079919 -7.575514 39.994610 -0.507344 1.761361 0.042137 -0.034687 118670.000000 0 0 1
33.410491 -19.487419 -8.765714 39.659276 -0.528029 1.793662 0.040928 -0.043871 -30736.600000 0 0 1
33.752401 -20.730419 -9.384714 40.706851 -0.550789 1.803433 0.047238 -0.044369 561737.000000 0 0 1
32.913911 -20.910119 -10.542414 40.394320 -0.565970 1.834841 0.046601 -0.046798 93471.100000 0 0 1
32.833791 -22.381019 -10.951614 41.217784 -0.598301 1.839727 0.045249 -0.039921 -162445.000000 0 0 1
32.094481 -23.130319 -10.007914 40.807177 -0.624480 1.818573 0.041224 -0.036292 -4455.190000 0 0 1
31.878581 -24.476819 -10.396514 41.514409 -0.654805 1.823922 0.028449 -0.021621 -317601.000000 0 0 1
30.992541 -25.217119 -9.356614 41.036410 -0.683010 1.800827 0.024401 -0.021825 908377.000000 0 0 1
29.659521 -24.691119 -9.196014 39.672475 -0.694238 1.804722 0.025217 -0.019931 363535.000000 0 0 1
28.885631 -25.669219 -8.557414 39.579260 -0.726509 1.788727 0.009078 -0.011182 -81498.600000 0 0 1
27.393021 -25.270019 -8.609814 38.250234 -0.745107 1.797834 0.018863 -0.022844 -66912.400000 0 0 1
26.895451 -25.090219 -9.924714 38.097038 -0.750687 1.834348 0.029882 -0.022517 -116904.000000 0 0 1
25.618051 -24.496019 -9.841814 36.785878 -0.763012 1.841639 0.051864 -0.030644 -268598.000000 0 0 1
24.829251 -24.322019 -11.129414 36.495427 -0.775079 1.880686 0.079984 -0.038783 -371341.000000 0 0 1
24.268151 -25.491219 -11.654914 37.075362 -0.809973 1.890576 0.074534 -0.029621 -145937.000000 0 0 1
23.365051 -25.126819 -12.641014 36.566076 -0.821713 1.923785 0.084252 -0.018810 -627482.000000 0 0 1
22.706551 -26.344919 -13.273414 37.226681 -0.859437 1.935376 0.088486 -0.015989 -263749.000000 0 0 1
23.573651 -27.200819 -13.992414 38.618509 -0.856714 1.941556 0.071395 -0.013239 102595.000000 0 0 1
23.222151 -28.567219 -13.863814 39.339035 -0.888242 1.930951 0.088997 -0.023495 -695722.000000 0 0 1
24.079151 -29.598819 -14.572814 40.844369 -0.887867 1.935625 0.078342 -0.027657 -433605.000000 0 0 1
23.925451 -29.534019 -15.972214 41.228596 -0.889928 1.968613 0.073380 -0.017975 374682.000000 0 0 1
24.567551 -30.617619 -16.583714 42.614818 -0.894594 1.970509 0.074411 -0.013067 -555757.000000 0 0 1
24.553451 -30.510219 -18.155814 43.166874 -0.893159 2.004898 0.064751 -0.005278 253872.000000 0 0 1
23.220551 -30.568219 -18.658614 42.682009 -0.921160 2.023228 0.062129 -0.004912 475358.000000 0 0 1
23.034351 -30.566219 -20.038614 43.202096 -0.925003 2.053115 0.049150 0.000805 -753427.000000 0 0 1
21.545651 -30.505219 -20.321614 42.517661 -0.955859 2.069124 0.039910 -0.000023 -733481.000000 0 0 1
21.466851 -30.340019 -21.703414 43.039292 -0.955026 2.099332 0.041257 0.001888 1006340.000000 0 0 1
20.079751 -30.160919 -22.077514 42.429872 -0.983426 2.118033 0.045831 -0.004544 725481.000000 0 0 1
19.861051 -30.276719 -23.585614 43.213681 -0.990226 2.148128 0.042823 -0.005889 -448837.000000 0 0 1
20.344351 -29.175619 -24.293614 43.073066 -0.961880 2.170029 0.050530 -0.004491 261946.000000 0 0 1
20.145151 -29.303819 -25.669924 43.857564 -0.968537 2.196049 0.040899 -0.011638 -165997.000000 0 0 1
20.760551 -28.145919 -26.509114 43.885377 -0.935276 2.219374 0.041262 -0.017136 325613.000000 0 0 1
19.854351 -27.059919 -26.673644 42.870943 -0.937797 2.242327 0.061124 -0.028558 559975.000000 0 0 1
18.886551 -27.307819 -27.706874 43.244533 -0.965719 2.266209 0.083117 -0.034076 -343758.000000 0 0 1
18.053551 -26.104219 -28.037454 42.349259 -0.965734 2.294351 0.083043 -0.035509 -405383.000000 0 0 1
17.248051 -25.710619 -26.913744 41.022930 -0.979901 2.286390 0.066384 -0.015686 -52795.900000 0 0 1
16.680351 -24.472419 -27.237984 40.237311 -0.972528 2.314385 0.054145 -0.001696 -360635.000000 0 0 1
15.480451 -24.149519 -26.336044 38.941377 -1.000756 2.313524 0.058047 0.003445 -544120.000000 0 0 1
14.425351 -25.060719 -26.510274 39.229135 -1.048499 2.312819 0.072704 -0.018710 73777.100000 0 0 1
13.167151 -24.702819 -25.936534 38.161590 -1.081081 2.318082 0.047560 -0.008550 590830.000000 0 0 1
13.092651 -24.807919 -24.355514 37.148909 -1.085187 2.285798 0.040442 -0.007980 -756828.000000 0 0 1
13.826251 -23.827719 -23.658714 36.313361 -1.045019 2.280377 0.045814 -0.002645 -365082.000000 0 0 1
13.980351 -24.202719 -22.312914 35.764339 -1.046984 2.244503 0.050214 -0.011030 -446853.000000 0 0 1
15.214251 -23.544719 -21.735614 35.472019 -0.997107 2.230337 0.020482 -0.013973 -479153.000000 0 0 1
15.055751 -22.256619 -21.201814 34.227907 -0.976043 2.238814 0.015780 -0.012676 180623.000000 0 0 1
16.343551 -21.853519 -20.755314 34.285143 -0.928661 2.221031 0.028066 -0.009251 75260.400000 0 0 1
16.468851 -20.509219 -19.877214 32.968997 -0.894230 2.217935 0.048423 0.004310 -38250.000000 0 0 1
15.819551 -20.608919 -18.618214 31.962848 -0.916122 2.192592 0.052639 -0.008704 -694949.000000 0 0 1
14.515151 -20.167519 -18.788114 31.151431 -0.946952 2.218206 0.040753 -0.009271 -516186.000000 0 0 1
13.613151 -20.250119 -17.489714 30.021247 -0.978938 2.192693 0.049623 -0.013705 518136.000000 0 0 1
13.979951 -19.223419 -16.567814 28.973632 -0.942024 2.179524 0.064431 -0.010178 207140.000000 0 0 1
12.980451 -19.163419 -15.587514 27.905185 -0.975430 2.163479 0.078457 -0.014884 -27152.600000 0 0 1
13.063051 -17.853119 -14.772414 26.600778 -0.939113 2.159565 0.074946 -0.015608 -324534.000000 0 0 1
12.708851 -16.788719 -15.588114 26.198574 -0.922838 2.208060 0.089375 -0.019404 14825.800000 0 0 1
12.833351 -15.539519 -14.927514 25.079917 -0.880489 2.208308 0.086079 -0.019914 -295669.000000 0 0 1
11.560651 -14.937819 -14.299914 23.691235 -0.912162 2.218799 0.070265 -0.011884 -645618.000000 0 1 0
10.572951 -14.613319 -15.206814 23.592024 -0.944462 2.271263 0.068862 -0.004011 -983349.000000 0 1 0
9.508551 -13.940819 -14.623514 22.329490 -0.972209 2.284842 0.068064 -0.009711 -86372.400000 0 1 0
8.405451 -13.510219 -15.624914 22.300573 -1.014245 2.347105 0.048328 -0.000662 100162.000000 0 1 0
8.725251 -12.395819 -16.494714 22.402275 -0.957467 2.398377 0.040204 0.002123 299182.000000 0 1 0
9.713551 -12.589219 -17.513214 23.654897 -0.913628 2.404407 0.047846 0.007579 248556.000000 0 1 0
10.101251 -11.415019 -18.470114 23.947506 -0.846382 2.451638 0.049660 0.003963 131844.000000 0 1 0
9.143051 -11.064819 -19.473214 24.191562 -0.880213 2.506403 0.048108 -0.000963 216563.000000 0 1 0
9.579251 -10.031619 -20.360714 24.636438 -0.808461 2.543564 0.043978 0.004531 -37125.400000 0 1 0
9.107251 -9.995219 -21.818614 25.669015 -0.831849 2.586778 0.043367 -0.000087 468290.000000 0 0 1
10.124251 -10.659419 -22.587114 26.949979 -0.811142 2.564610 0.027634 0.000772 282450.000000 0 0 1
9.922451 -10.484419 -23.971414 27.982258 -0.812929 2.599566 0.022317 0.000391 291849.000000 0 0 1
11.011851 -11.287619 -24.745014 29.342578 -0.797764 2.574217 0.047470 -0.002602 234297.000000 0 0 1
10.878751 -12.720419 -24.605414 29.758741 -0.863280 2.544244 0.039196 -0.003789 -237710.000000 0 0 1
11.917451 -13.373119 -25.288124 30.989598 -0.842892 2.525288 0.035544 -0.007884 -393676.000000 0 0 1
11.965851 -14.909819 -25.120494 31.567760 -0.894503 2.491065 0.028795 -0.011921 -72486.000000 0 0 1
10.846351 -15.559719 -25.673804 31.920094 -0.962034 2.505318 0.034737 -0.015028 -317767.000000 0 0 1
10.855151 -16.854919 -25.106504 32.128790 -0.998626 2.467756 0.037344 -0.016424 668337.000000 0 0 1
9.679751 -17.805119 -25.525684 32.592643 -1.072841 2.470549 0.046377 -0.015821 650344.000000 0 0 1
9.915951 -18.502919 -26.727054 33.985578 -1.078833 2.475793 0.045730 -0.027832 -191076.000000 0 0 1
8.708551 -19.087919 -27.150434 34.312295 -1.142771 2.483686 0.047076 -0.027015 13361.000000 0 0 1
8.930951 -20.027819 -28.358104 35.847698 -1.151334 2.483355 0.051930 -0.025593 -233270.000000 0 0 1
9.650751 -21.186519 -28.014714 36.425675 -1.143367 2.448216 0.047358 -0.023080 -55120.600000 0 0 1
9.435451 -22.182519 -29.000014 37.710644 -1.168625 2.448094 0.051048 -0.019912 289098.000000 0 0 1
10.174751 -23.555119 -28.679904 38.482542 -1.163050 2.411737 0.050022 -0.017385 298217.000000 0 0 1
9.782851 -24.607719 -29.567834 39.692579 -1.192402 2.411213 0.063370 -0.022440 -143284.000000 0 0 1
10.257851 -25.919119 -29.284364 40.430164 -1.193947 2.380843 0.070040 -0.020229 -17781.400000 0 0 1
9.642251 -26.519819 -27.978344 39.737407 -1.222069 2.351924 0.067149 -0.022738 18288.500000 0 0 1
10.462651 -26.461919 -26.839944 39.116273 -1.194275 2.326991 0.054706 -0.015218 -827343.000000 0 0 1
9.811551 -26.495219 -25.631134 38.147322 -1.216140 2.307566 0.044227 -0.017439 -346152.000000 0 0 1
9.052651 -25.248719 -25.193604 36.798994 -1.226535 2.324889 0.035604 -0.012701 232485.000000 0 0 1
9.931451 -24.215919 -24.743314 36.017718 -1.181596 2.328116 0.028331 -0.005428 -11855.100000 0 0 1
9.325651 -22.916119 -24.862814 35.075287 -1.184315 2.358651 0.019594 -0.005424 -227873.000000 0 0 1
10.316151 -21.773719 -24.812714 34.585959 -1.128336 2.370890 0.039220 -0.006667 -336862.000000 0 0 1
10.783251 -21.638219 -23.482314 33.703265 -1.108475 2.341635 0.037546 -0.006802 -293693.000000 0 0 1
11.760151 -20.635019 -23.398814 33.340811 -1.052794 2.348727 0.039504 -0.008168 -395292.000000 0 0 1
12.332851 -20.522519 -21.953714 32.484436 -1.029684 2.312876 0.033457 -0.009438 148967.000000 0 0 1
11.419151 -19.947019 -21.007014 31.138003 -1.050862 2.311276 0.029123 -0.002896 401916.000000 0 0 1
10.910151 -18.614019 -21.254714 30.286564 -1.040641 2.348699 0.035766 -0.001546 124828.000000 0 0 1
11.980451 -17.494119 -21.133914 29.936896 -0.970326 2.354558 0.029391 -0.002130 487455.000000 0 0 1
13.009351 -17.614219 -22.120114 31.125606 -0.934650 2.361250 0.029351 0.006602 -344023.000000 0 0 1
14.183151 -17.014719 -21.652414 30.975627 -0.875912 2.344815 0.035832 0.001392 -909811.000000 0 0 1
15.281651 -17.102719 -22.672814 32.250401 -0.841572 2.350437 0.023178 0.007153 -111595.000000 0 0 1
16.576751 -17.318019 -22.103414 32.607719 -0.807264 2.315642 0.033611 0.009729 126150.000000 0 0 1
17.588251 -17.046719 -23.008114 33.605216 -0.769764 2.324932 0.033642 0.002790 -273363.000000 0 0 1
18.984251 -17.221819 -22.343814 34.003512 -0.736759 2.287766 0.029439 -0.000123 92513.900000 0 0 1
19.300951 -18.608719 -22.348214 34.903493 -0.767140 2.265667 0.036954 -0.001657 255453.000000 0 0 1
20.662951 -18.782819 -21.998214 35.548182 -0.737770 2.238046 0.042405 -0.009956 204593.000000 0 0 1
20.883751 -20.184419 -21.445914 36.103588 -0.768371 2.206832 0.040679 -0.005476 -104762.000000 0 0 1
20.572651 -20.332219 -20.105214 35.225740 -0.779520 2.178220 0.050166 -0.009749 80760.100000 0 0 1
20.686651 -21.702119 -19.666314 35.856428 -0.809350 2.151334 0.056682 0.000888 59707.600000 0 0 1
-15.978630 13.256115 29.077857 35.729021 -0.692540 0.620059 0.029899 -0.015415 -757854.000000 0 0 1
-17.214030 13.720215 28.634057 36.117535 -0.672931 0.655403 0.040559 -0.019999 -223082.000000 0 0 1
-17.193330 13.557315 27.207667 34.923753 -0.667703 0.677633 0.036190 -0.019320 -457128.000000 0 0 1
-18.500730 14.012915 26.577547 35.284626 -0.648236 0.717833 0.055325 -0.015517 -423322.000000 0 0 1
-18.522030 15.418315 26.556497 35.861366 -0.694206 0.736934 0.054362 -0.017420 174121.000000 0 0 1
-19.483930 15.926415 25.653357 35.935622 -0.685269 0.775787 0.069871 -0.017237 -190547.000000 0 0 1
-19.553130 17.496915 25.922787 36.884385 -0.729957 0.791454 0.078356 -0.015176 1077430.000000 0 0 1
-18.379230 18.262515 25.501277 36.354239 -0.782213 0.793343 0.026971 -0.013611 792245.000000 0 0 1
-17.566830 18.676415 26.541027 36.902955 -0.816004 0.768130 0.036001 -0.015498 -457288.000000 0 0 1
-16.423130 19.626815 26.154157 36.591953 -0.874033 0.774527 0.035461 -0.012744 -216812.000000 0 0 1
-16.718030 20.959515 25.973597 37.328562 -0.897500 0.801249 0.043858 -0.013500 56014.300000 0 0 1
-15.577230 21.702815 25.558487 36.971591 -0.948256 0.807509 0.057008 -0.019422 226562.000000 0 0 1
-15.723630 23.274415 25.574867 37.986903 -0.976651 0.832194 0.059835 -0.017094 -230594.000000 0 0 1
-15.455830 23.849915 26.830647 39.084329 -0.995796 0.814158 0.061267 -0.017362 -118356.000000 0 0 1
-15.726830 25.200615 26.698517 39.940143 -1.012869 0.838656 0.063625 -0.015743 -220256.000000 0 0 1
-15.021230 26.068515 27.781607 40.951466 -1.048045 0.825209 0.046585 -0.007099 -197059.000000 0 0 1
-13.621330 26.016015 27.727997 40.388309 -1.088467 0.814083 0.036871 -0.007314 -517318.000000 0 0 1
-13.157230 26.999615 28.678507 41.527686 -1.117351 0.808495 0.047484 -0.000666 485282.000000 0 0 1
-11.626630 27.097315 28.957737 41.327879 -1.165484 0.794442 0.055461 -0.003640 406805.000000 0 0 1
-10.971830 27.550015 27.805157 40.651090 -1.191798 0.817571 0.053237 -0.003137 -588050.000000 0 0 1
-9.606030 27.725215 28.109587 40.633881 -1.237267 0.806849 0.036169 -0.010389 -383372.000000 0 0 1
-8.964330 28.206215 26.805357 39.930902 -1.263078 0.834844 0.044185 -0.008128 769234.000000 0 0 1
-7.516630 28.130115 26.769697 39.552747 -1.309687 0.827376 0.030783 -0.009819 1228790.000000 0 0 1
-7.109130 28.433515 25.480307 38.836202 -1.325793 0.855161 0.047675 -0.012326 -405071.000000 0 0 1
-5.578430 28.275715 25.395047 38.412802 -1.376011 0.848501 0.027385 -0.013694 -1060160.000000 0 0 1
-4.964030 29.136015 26.278227 39.548631 -1.402042 0.844034 0.036933 -0.017852 478187.000000 0 0 1
-3.536430 28.918015 26.254917 39.218345 -1.449109 0.837321 0.022534 -0.013128 1154700.000000 0 0 1
-2.843330 29.871115 25.230527 39.203923 -1.475896 0.871641 0.011880 -0.007463 -637552.000000 0 0 1
-2.996230 29.482315 23.898957 38.070257 -1.469516 0.892125 0.007627 0.002144 -157148.000000 0 0 1
-2.465530 30.511415 23.079867 38.336739 -1.490165 0.924755 0.005285 0.001577 -279638.000000 0 0 1
-2.717930 30.235115 21.530267 37.216955 -1.481144 0.953899 0.004258 0.008422 -62327.800000 0 0 1
-4.063930 30.142115 21.144267 37.042444 -1.436779 0.963302 0.003178 0.010292 -568842.000000 0 0 1
-4.576730 28.878315 21.444567 36.259799 -1.413620 0.937985 0.001681 0.003918 -1149000.000000 0 0 1
-6.076530 28.751015 21.209567 36.240734 -1.362511 0.945619 0.019456 0.001602 -607604.000000 0 0 1
-6.497830 28.905815 19.857067 35.666105 -1.349679 0.980329 0.002220 0.008132 -53105.200000 0 0 1
-7.428330 27.947715 19.414267 34.830570 -1.311009 0.979556 0.001208 0.004006 -1045520.000000 0 0 1
-6.865730 26.482515 19.210167 33.428915 -1.317126 0.958611 -0.006921 0.005458 315990.000000 0 0 1
-6.020630 26.422715 18.046567 32.558969 -1.346763 0.983307 -0.003933 0.000220 -501159.000000 0 0 1
-4.736830 26.883515 18.271067 32.848026 -1.396388 0.980954 0.007850 0.003643 -1498390.000000 0 0 1
-3.892430 26.981815 16.977167 32.115317 -1.427524 1.013809 0.006304 -0.001574 -4488.850000 0 0 1
-3.393730 25.757115 16.474867 30.763089 -1.439792 1.005649 0.019666 -0.008685 -278512.000000 0 0 1
-2.793230 25.991615 15.260067 30.269388 -1.463741 1.042408 0.026693 -0.024708 82479.300000 0 0 1
-1.929830 24.778815 14.723267 28.887515 -1.493071 1.035988 0.027359 -0.026937 509208.000000 0 0 1
-0.792930 24.488015 15.511767 28.998389 -1.538427 1.006385 0.032155 -0.025790 11462.100000 0 0 1
-0.024530 23.424115 15.019067 27.825567 -1.569749 1.000647 0.026960 -0.032420 208474.000000 0 0 1
1.281370 23.193915 15.842167 28.117145 1.515606 0.972259 0.027168 -0.031201 596658.000000 0 0 1
2.357070 24.069715 15.541767 28.748104 1.473181 0.999624 0.033910 -0.035480 313305.000000 0 0 1
3.587770 23.596315 16.057167 28.766140 1.419904 0.978585 0.046392 -0.035784 -62302.400000 0 0 1
4.820470 24.304715 15.517067 29.235860 1.375002 1.011306 0.049076 -0.033718 -674996.000000 0 0 1
6.038870 23.633315 15.710067 29.013923 1.320626 0.998616 0.045526 -0.024043 -432894.000000 0 0 1
7.055770 24.603815 15.482267 29.913746 1.291516 1.026795 0.045822 -0.020327 311508.000000 0 0 1
8.468870 23.919415 15.595867 29.784077 1.230511 1.019689 0.048472 -0.013170 123410.000000 0 0 1
8.798970 23.259215 14.406867 28.739707 1.209135 1.045710 0.040737 -0.013931 -82568.500000 0 0 1
9.646570 23.982315 13.543867 29.182942 1.188363 1.088176 0.033050 -0.017713 -270337.000000 0 0 1
10.263070 23.113115 12.425367 28.176878 1.152913 1.114109 0.031917 -0.011851 -386347.000000 0 0 1
11.167770 22.134415 12.875967 27.936391 1.103521 1.091784 0.037953 -0.011514 -66991.600000 0 0 1
11.672370 21.413215 11.778567 27.083291 1.071722 1.120867 0.051724 -0.016521 1000930.000000 0 0 1
12.923470 20.495715 12.102167 27.084181 1.008220 1.107572 0.032163 -0.005838 613012.000000 0 0 1
12.472970 19.264415 12.640267 26.200554 0.996208 1.067355 0.040546 -0.007110 337457.000000 0 0 1
13.506970 18.308815 12.905367 26.157206 0.935194 1.054828 0.039918 -0.009860 -133819.000000 0 0 1
14.010870 18.340515 14.332367 27.167917 0.918439 1.015085 0.043708 -0.006671 -291138.000000 0 0 1
15.020170 17.372615 14.528367 27.175112 0.857893 1.006738 0.044258 -0.003941 26635.300000 0 0 1
15.712270 17.647415 15.740667 28.391465 0.843342 0.983136 0.040338 -0.012372 242960.000000 0 0 1
16.895070 16.653615 15.931067 28.575955 0.778201 0.979426 0.033846 -0.015099 91604.000000 0 0 1
17.543070 16.868015 17.181767 29.790978 0.765783 0.956059 0.037435 -0.025316 163393.000000 0 0 1
18.682670 16.029715 17.254367 30.061722 0.709120 0.959457 0.039232 -0.023927 -32453.400000 0 0 1
18.958770 15.593015 18.690667 30.853170 0.688293 0.920033 0.046354 -0.028018 -142822.000000 0 0 1
19.634070 16.472015 19.555167 32.237068 0.698044 0.919013 0.064352 -0.023843 52272.500000 0 0 1
18.769370 17.454915 20.057267 32.546233 0.749128 0.906799 0.046136 -0.018968 -84916.100000 0 0 1
19.371670 18.486815 21.058367 34.065800 0.762030 0.904387 0.057269 -0.016760 215986.000000 0 0 1
18.364470 19.409715 21.502567 34.297976 0.813062 0.893185 0.077910 -0.020514 517188.000000 0 0 1
18.899570 20.443115 22.304267 35.673450 0.824611 0.895365 0.074671 -0.013957 -57983.400000 0 0 1
17.804270 21.408815 22.781767 35.976914 0.877063 0.885073 0.081131 -0.018206 183253.000000 0 0 1
16.848870 20.824715 23.654137 35.736135 0.890543 0.847431 0.083166 -0.021247 560888.000000 0 0 1
15.884970 21.830815 24.000817 36.124174 0.941760 0.844109 0.091199 -0.029544 1202870.000000 0 0 1
14.888870 21.607215 25.228697 36.401062 0.967444 0.805049 0.105211 -0.030972 653405.000000 0 0 1
14.001970 20.526015 25.084157 35.307045 0.972146 0.780648 0.091733 -0.032152 -440299.000000 0 0 1
13.192470 20.463315 26.226927 35.786034 0.998164 0.748249 0.081281 -0.020033 -591180.000000 0 0 1
12.098570 19.408215 26.080827 34.688092 1.013367 0.719907 0.067707 -0.023451 -588528.000000 0 0 1
12.459170 18.036115 26.133967 34.110359 0.966278 0.697953 0.089361 -0.032057 -65570.800000 0 0 1
13.424970 17.561715 25.213647 33.531652 0.918114 0.719803 0.092786 -0.033344 -48504.000000 0 0 1
12.932670 17.296315 23.762187 32.110092 0.928761 0.737693 0.100093 -0.030105 -500427.000000 0 0 1
12.643970 18.474115 22.972567 32.076498 0.970607 0.772482 0.095728 -0.027957 -152558.000000 0 0 1
13.713270 19.126315 22.320267 32.435536 0.948762 0.811871 0.093023 -0.025228 122795.000000 0 0 1
14.526370 18.398615 21.222067 31.621205 0.902468 0.835059 0.094673 -0.026826 184002.000000 0 0 1
13.632370 17.856715 20.236767 30.236245 0.918755 0.837546 0.083115 -0.027626 197843.000000 0 0 1
14.196770 16.832115 19.495367 29.409823 0.870127 0.846129 0.064585 -0.025881 -60202.700000 0 0 1
13.112770 16.140215 18.640967 27.927351 0.888523 0.839976 0.062142 -0.013182 -84340.600000 0 0 1
12.608870 16.942315 17.619867 27.504279 0.931002 0.875487 0.065138 -0.010042 384148.000000 0 0 1
11.483370 16.219815 17.097867 26.216164 0.954732 0.860329 0.055748 -0.013761 641438.000000 0 0 1
10.817670 16.906115 15.858167 25.579683 1.001577 0.902115 0.045239 -0.005750 204204.000000 0 0 1
10.241070 18.209815 15.904067 26.256737 1.058488 0.920134 0.047029 -0.009637 267204.000000 0 0 1
9.852970 18.740915 14.668067 25.757622 1.086764 0.964941 0.042302 -0.004748 -332189.000000 0 0 1
8.868570 19.904615 14.792167 26.337301 1.151646 0.974426 0.047129 -0.005164 -367396.000000 0 0 1
7.574070 19.559515 15.193667 25.899589 1.201345 0.943896 0.038878 -0.011075 -642750.000000 0 0 1
6.665870 20.606515 14.962867 26.323937 1.257937 0.966221 0.042426 -0.014510 25806.000000 0 0 1
5.352070 20.339715 15.745367 26.272900 1.313495 0.928169 0.041743 -0.019065 -324560.000000 0 0 1
4.377370 19.765315 14.930867 25.154718 1.352847 0.935320 0.035594 -0.015786 104436.000000 0 0 1
3.171570 19.554715 15.699367 25.276785 1.410007 0.900653 0.021853 -0.009774 1044660.000000 0 0 1
2.028670 18.857115 14.920867 24.131692 1.463627 0.904206 0.015885 -0.012910 110184.000000 0 1 0
1.396570 19.701615 13.976967 24.196274 1.500029 0.954950 0.015199 -0.028556 -846194.000000 0 1 0
0.396770 19.048915 13.317667 23.246050 1.549970 0.960756 0.009864 -0.032105 -1066290.000000 0 1 0
-0.515930 19.890315 12.478067 23.486017 -1.544863 1.010665 0.011305 -0.038637 -485822.000000 0 1 0
-1.435730 20.769015 13.094767 24.594435 -1.501778 1.009330 0.015218 -0.026911 159237.000000 0 1 0
-2.466930 21.014615 12.132767 24.390651 -1.453940 1.050157 0.012192 -0.028104 -20174.800000 0 1 0
-3.602130 21.873915 12.674067 25.535769 -1.407584 1.051435 0.012059 -0.024565 -37116.800000 0 0 1
-4.339430 21.164615 13.695567 25.580073 -1.368567 1.005815 0.017834 -0.022554 71893.000000 0 0 1
-5.474230 21.937515 14.012367 26.600154 -1.326253 1.015991 0.017316 -0.010969 -86743.600000 0 0 1
-6.312430 21.515015 15.250767 27.116942 -1.285409 0.973502 0.011073 -0.008507 -1078400.000000 0 0 1
-6.920130 20.246615 15.002867 26.132349 -1.241452 0.959278 0.015428 -0.007889 331951.000000 0 0 1
-7.683330 19.836715 16.150867 26.709162 -1.201261 0.921415 0.019081 0.005788 -789.053000 0 0 1
-8.907530 20.634815 16.647667 27.969349 -1.163286 0.933268 0.014970 0.011897 217735.000000 0 0 1
-10.067430 20.356815 15.810267 27.671603 -1.111520 0.962642 0.007845 -0.003754 640279.000000 0 0 1
-11.128730 19.801515 16.563067 28.111987 -1.058776 0.940751 0.005466 -0.000361 290997.000000 0 0 1
-12.401630 19.523615 15.715367 27.963275 -1.004887 0.973994 0.024423 -0.011922 359574.000000 0 0 1
-13.121930 20.675215 15.277367 28.862563 -1.005274 1.013004 0.018349 -0.000949 -167495.000000 0 0 1
-14.037530 20.369915 14.275867 28.561969 -0.967403 1.047404 0.022035 -0.013088 -296015.000000 0 0 1
-15.035930 21.552315 14.032367 29.790750 -0.961651 1.080337 0.021165 -0.015788 464581.000000 0 0 1
-16.123230 21.547115 14.969867 30.795026 -0.928398 1.063160 0.015410 -0.018074 788917.000000 0 0 1
-17.089830 22.555515 14.588967 31.837894 -0.922399 1.094797 0.031978 -0.018387 539414.000000 0 0 1
-18.332130 22.618315 15.514967 32.990444 -0.889686 1.081181 0.063019 -0.023414 -542346.000000 0 0 1
-19.125830 21.458015 15.280167 32.553453 -0.842801 1.082200 0.053431 -0.021604 711653.000000 0 0 1
-20.345330 21.400715 16.038767 33.603052 -0.810674 1.073216 0.056833 -0.018578 1164040.000000 0 0 1
-21.453630 22.477215 15.847567 34.880207 -0.808694 1.099162 0.056443 -0.024303 -624139.000000 0 0 1
-22.153530 22.411615 14.626767 34.741930 -0.791189 1.136236 0.061210 -0.019616 490340.000000 0 0 1
-23.112230 23.459515 14.442667 35.959904 -0.792855 1.157498 0.078877 -0.024691 231181.000000 0 0 1
-22.577130 24.806315 13.827467 36.280559 -0.832409 1.179782 0.059663 -0.015572 98178.500000 0 0 1
-21.346730 25.170315 14.450167 36.028253 -0.867411 1.158102 0.048446 -0.014476 355197.000000 0 0 1
-20.894130 26.365615 13.866267 36.386587 -0.900660 1.179830 0.040145 -0.005140 -1592180.000000 0 0 1
-19.460530 26.655815 14.105767 35.891745 -0.940175 1.166895 0.040806 -0.005311 -990382.000000 0 0 1
-18.512130 25.951515 13.279967 34.533138 -0.951177 1.176068 0.039579 0.003803 -335852.000000 0 0 1
-17.247130 26.469115 13.460067 34.340224 -0.993301 1.168033 0.031514 -0.000465 -511965.000000 0 0 1
-16.129230 25.858515 12.534367 32.953380 -1.013097 1.180604 0.029699 -0.000949 333869.000000 0 0 1
-14.850030 26.171515 13.031567 32.791666 -1.054683 1.162109 0.019241 0.006871 -298799.000000 0 0 1
-13.870630 25.766615 12.108267 31.668959 -1.076966 1.178470 0.017218 0.007266 -384264.000000 0 0 1
-12.462030 26.307615 12.417367 31.647809 -1.128406 1.167599 0.007945 0.010036 -1522630.000000 0 0 1
-11.533430 25.620815 11.650867 30.416918 -1.147811 1.177712 0.005895 0.001061 686126.000000 0 0 1
-10.169030 26.032115 11.905067 30.377801 -1.198390 1.168100 0.019958 -0.006084 1049200.000000 0 0 1
-9.852130 27.436515 11.298167 31.264603 -1.226048 1.201057 0.014840 -0.009732 -1207170.000000 0 0 1
-8.539830 27.807915 11.630367 31.328490 -1.272838 1.190453 0.029597 -0.016926 -134371.000000 0 0 1
-8.182630 28.965515 10.965567 32.034359 -1.295475 1.221426 0.032822 -0.020603 -372850.000000 0 0 1
-6.958730 29.703815 11.531967 32.614825 -1.340676 1.209400 0.024568 -0.019934 81792.800000 0 0 1
-5.747930 29.008715 11.279567 31.650796 -1.375185 1.206411 0.035493 -0.023080 41554.100000 0 0 1
-4.737630 29.543415 12.137267 32.288880 -1.411788 1.185433 0.033492 -0.025514 90355.500000 0 0 1
-3.314030 29.117315 11.714667 31.560011 -1.457468 1.190509 0.034753 -0.035139 -145509.000000 0 0 1
-2.831830 29.872115 10.606267 31.825390 -1.476280 1.231033 0.058606 -0.035476 44714.000000 0 0 1
-1.779630 29.343515 9.847467 31.002929 -1.510222 1.247567 0.042222 -0.030853 51621.100000 0 0 1
-1.511130 30.133915 8.557667 31.361920 -1.520691 1.294423 0.042513 -0.026127 277020.000000 0 0 1
-2.589630 29.895115 7.654467 30.967967 -1.484388 1.321034 0.051365 -0.024847 498805.000000 0 0 1
-2.422030 30.564315 6.434167 31.327976 -1.491718 1.363943 0.054269 -0.014627 -7443.710000 0 0 1
11.188070 -33.548419 -26.616534 44.261825 -1.248905 2.215977 0.063723 -0.030148 252176.000000 0 0 1
11.846470 -33.695719 -25.352724 43.800696 -1.232722 2.188077 0.053973 -0.033125 19433.600000 0 0 1
13.023070 -32.930719 -25.317234 43.531539 -1.194202 2.191470 0.058816 -0.030910 198875.000000 0 0 1
13.885970 -33.038519 -24.007714 43.136229 -1.172916 2.161031 0.055087 -0.023269 -466742.000000 0 0 1
13.306070 -32.396319 -22.945714 41.869783 -1.181076 2.150798 0.058907 -0.029399 2395.100000 0 0 1
13.964170 -32.436919 -21.686714 41.442313 -1.164274 2.121514 0.039265 -0.020038 592085.000000 0 0 1
15.469570 -32.042119 -21.471614 41.557613 -1.121012 2.113755 0.026280 -0.009150 706917.000000 0 0 1
16.337170 -33.071719 -21.866114 42.880866 -1.111967 2.105896 0.034338 -0.008504 -277435.000000 0 0 1
17.689070 -32.813519 -21.573714 43.070353 -1.076377 2.095429 0.025015 -0.009452 36471.000000 0 0 1
18.607770 -34.089219 -21.620214 44.449495 -1.071141 2.078761 0.025335 0.001775 841147.000000 0 0 1
20.004070 -33.755319 -21.520314 44.751629 -1.035821 2.072458 0.016897 0.012631 881052.000000 0 0 1
20.708170 33.724215 -21.621014 45.095668 1.020114 2.070822 0.019399 0.018701 -1287860.000000 0 0 1
22.201770 33.813315 -21.493814 45.806581 0.989796 2.059215 0.026762 0.025015 -1022950.000000 0 0 1
22.797270 -34.273019 -22.657114 46.986170 -0.983833 2.073970 0.020139 0.028390 7486.130000 0 0 1
24.193670 -34.191619 -22.491514 47.542283 -0.954994 2.063585 0.020528 0.028236 -50016.700000 0 0 1
24.897670 -33.501919 -23.684614 47.992015 -0.931680 2.086919 0.029250 0.011752 -90455.300000 0 0 1
24.969170 -32.102919 -23.542214 46.992475 -0.909749 2.095525 0.034579 0.010820 -420069.000000 0 0 1
23.797970 -31.390419 -23.828014 46.037767 -0.922113 2.114811 0.025403 0.011546 -412846.000000 0 0 1
23.818270 -29.870719 -23.531414 44.869781 -0.897656 2.122851 0.032615 -0.006930 -527039.000000 0 0 1
24.571270 -29.096119 -24.433414 45.247355 -0.869512 2.141229 0.039430 -0.012866 -213526.000000 0 0 1
24.358670 -27.704619 -24.383514 44.220430 -0.849577 2.154848 0.044185 -0.004863 190038.000000 0 0 1
25.041670 -26.913519 -25.532264 44.758454 -0.821411 2.177845 0.034517 -0.007581 50610.500000 0 0 1
24.183070 -26.666019 -26.592314 44.755431 -0.834189 2.207029 0.035233 -0.013361 -382792.000000 0 0 1
24.928270 -26.298119 -27.730874 45.629059 -0.812133 2.224015 0.030589 -0.012448 -356828.000000 0 0 1
24.008370 -25.873019 -28.893734 45.614283 -0.822762 2.256782 0.029483 -0.017467 34576.500000 0 0 1
23.327170 -24.681119 -28.590094 44.392656 -0.813593 2.270548 0.039678 -0.019573 675134.000000 0 0 1
21.973570 -24.968619 -28.146574 43.571772 -0.849115 2.273105 0.033752 -0.020332 558830.000000 0 0 1
21.238370 -23.662919 -27.731364 42.190409 -0.839343 2.288014 0.037842 -0.014883 -52792.500000 0 0 1
20.856870 -22.859019 -28.826894 42.291058 -0.831165 2.320786 0.051467 -0.023403 -154236.000000 0 0 1
20.090970 -21.782719 -28.432314 41.067388 -0.825777 2.335514 0.046223 -0.010299 -273340.000000 0 0 1
19.073270 -21.331219 -29.527914 41.118222 -0.841224 2.371897 0.070376 -0.027230 -823386.000000 0 0 1
17.891070 -22.034019 -29.519284 40.950903 -0.888796 2.375818 0.073810 -0.025818 -1128990.000000 0 0 1
17.076170 -21.519419 -30.522964 41.064976 -0.900017 2.408763 0.063549 -0.030361 -743934.000000 0 0 1
15.789970 -22.341319 -30.562464 41.018555 -0.955547 2.411464 0.065271 -0.033735 -790609.000000 0 0 1
15.998070 -23.615719 -31.099344 42.199640 -0.975377 2.399355 0.058324 -0.018172 516767.000000 0 0 1
15.020070 -24.568219 -30.659624 42.062007 -1.022064 2.387532 0.071329 -0.026340 281940.000000 0 0 1
15.282670 -25.997919 -31.248944 43.427506 -1.039364 2.373973 0.083735 -0.029536 -64563.900000 0 0 1
14.386170 -26.957119 -30.733104 43.337880 -1.080578 2.359090 0.092512 -0.021768 -11598.500000 0 0 1
14.570170 -28.291819 -31.087744 44.487804 -1.095224 2.344504 0.118856 -0.027765 105.646000 0 0 1
13.786270 -29.227119 -30.117784 44.174275 -1.130048 2.321009 0.101461 -0.035891 -386866.000000 0 0 1
14.311670 -29.571719 -28.857134 43.726932 -1.120059 2.291535 0.117167 -0.040175 -329618.000000 0 0 1
14.316870 -28.474219 -27.909204 42.363635 -1.104910 2.290020 0.093971 -0.032376 -265514.000000 0 0 1
15.289670 -28.634919 -26.741594 42.057644 -1.080358 2.259882 0.062083 -0.015018 -216488.000000 0 0 1
14.986370 -29.691219 -25.806554 42.096769 -1.103363 2.230686 0.074781 -0.023328 -335589.000000 0 0 1
15.806070 -29.546319 -24.694314 41.624824 -1.079574 2.205898 0.072219 -0.026805 -1258390.000000 0 0 1
15.511270 -28.491319 -23.569314 40.098221 -1.072247 2.199120 0.061831 -0.021348 852601.000000 0 0 1
14.361770 -28.655419 -22.710414 39.283029 -1.106198 2.187222 0.048131 -0.023824 1774910.000000 0 0 1
13.094170 -28.715619 -23.439214 39.312095 -1.142968 2.209598 0.052380 -0.020343 592208.000000 0 0 1
11.842970 -28.490919 -22.555614 38.219682 -1.176850 2.202050 0.032609 -0.014775 144976.000000 0 0 1
11.575670 -27.091619 -22.323014 36.963075 -1.166997 2.219216 0.021864 -0.015015 -434378.000000 0 0 1
10.407670 -27.001619 -21.579914 36.098472 -1.202899 2.211559 0.021853 -0.016761 -994181.000000 0 0 1
9.935870 -25.578619 -21.266514 34.716738 -1.200291 2.230107 0.029210 -0.014246 -385713.000000 0 0 1
10.590370 -24.898519 -20.248114 33.794649 -1.168637 2.213237 0.025585 -0.015794 -177204.000000 0 0 1
10.368970 -23.488119 -20.389814 32.786457 -1.155070 2.241960 0.026261 -0.018914 -457418.000000 0 0 1
10.669270 -22.672519 -19.121214 31.519791 -1.130959 2.222625 0.022175 -0.012469 -87966.600000 0 0 1
9.915970 -23.024119 -17.979214 30.849451 -1.164127 2.192973 0.027816 -0.017487 92955.200000 0 0 1
10.179970 -22.137419 -16.893014 29.649132 -1.139778 2.177015 0.032744 -0.021407 -395154.000000 0 0 1
9.571470 -22.638119 -15.595014 29.108451 -1.170788 2.136199 0.037253 -0.021728 17394.000000 0 0 1
10.017970 -23.888919 -15.138514 30.003579 -1.173716 2.099665 0.039682 -0.017070 27421.900000 0 0 1
9.238570 -24.213119 -13.997714 29.454410 -1.206294 2.066025 0.035049 -0.012674 65069.000000 0 0 1
9.350470 -25.687019 -13.546814 30.508530 -1.221691 2.030892 0.044718 -0.013970 -716770.000000 0 0 1
10.614670 -25.973819 -13.052814 30.946509 -1.182840 2.006211 0.037846 -0.010821 -895248.000000 0 0 1
10.844270 -27.299519 -13.418814 32.294372 -1.192678 1.999306 0.040620 -0.021921 -601987.000000 0 0 1
12.156370 -27.860019 -12.819714 32.989438 -1.159362 1.969909 0.048750 -0.022140 911506.000000 0 0 1
13.475870 -27.563819 -13.282414 33.433302 -1.116070 1.979348 0.053629 -0.014136 782568.000000 0 0 1
13.619770 -27.727219 -14.706514 34.213716 -1.114209 2.015115 0.053554 -0.020531 -441189.000000 0 0 1
14.991470 -27.335019 -15.359514 34.754310 -1.069156 2.028563 0.047817 -0.019040 1228380.000000 0 0 1
16.139270 -28.110519 -15.003614 35.718143 -1.049611 2.004303 0.061838 -0.020472 1056910.000000 0 0 1
17.362070 -27.575819 -15.533714 36.099356 -1.008887 2.015626 0.075744 -0.025541 586029.000000 0 0 1
18.616470 -28.382119 -15.230514 37.203309 -0.990269 1.992577 0.075615 -0.029965 -145518.000000 0 0 1
18.599570 -29.670719 -15.798414 38.417255 -1.010856 1.994602 0.065289 -0.022787 302994.000000 0 0 1
19.917870 -30.147319 -16.079214 39.549001 -0.986947 1.989487 0.076247 -0.017732 646681.000000 0 0 1
20.040570 -31.352219 -17.070014 40.938630 -1.002046 2.000901 0.061697 -0.017300 133712.000000 0 0 1
19.580470 -32.604719 -16.570214 41.485353 -1.029979 1.981684 0.052962 -0.004365 88967.700000 0 0 1
19.905570 -33.585319 -17.555014 42.806353 -1.035772 1.993363 0.038587 0.002728 65763.800000 0 0 1
19.849970 33.660815 -17.017314 42.622304 1.037981 1.981504 0.020242 0.012132 119267.000000 0 0 1
20.828370 33.281015 -16.061414 42.419524 1.011598 1.959115 0.039677 0.003308 180398.000000 0 0 1
20.646070 31.944715 -15.694814 41.146716 0.997022 1.962145 0.025730 0.006328 -235253.000000 0 0 1
21.470570 31.440215 -14.502014 40.740409 0.971638 1.934739 0.027993 0.003071 668221.000000 0 0 1
22.851370 31.122615 -14.775914 41.341625 0.937460 1.936290 0.034388 0.004879 1363690.000000 0 0 1
23.654370 30.595915 -13.706214 41.030471 0.912661 1.911393 0.050471 0.000265 435299.000000 0 0 1
23.218470 29.233315 -13.139914 39.577031 0.899573 1.909228 0.051654 0.002053 -872935.000000 0 0 1
23.254870 28.172915 -14.057914 39.142395 0.880738 1.938151 0.060583 0.005880 131122.000000 0 0 1
22.882870 26.885915 -13.512514 37.802992 0.865658 1.936328 0.007381 0.005207 411110.000000 0 0 1
21.439470 26.604615 -12.970214 36.546995 0.892495 1.933594 0.013394 0.007474 445053.000000 0 0 1
20.514470 26.548515 -14.068614 36.381218 0.912915 1.967847 0.015359 0.000501 209057.000000 0 0 1
19.194870 26.860315 -13.653114 35.725720 0.950327 1.962934 0.019596 0.003014 234766.000000 0 0 1
18.781770 28.372615 -13.913514 36.760659 0.986054 1.958960 0.013819 -0.000684 -285088.000000 0 0 1
18.787470 28.968015 -15.240514 37.741068 0.995435 1.986482 0.017116 0.003123 213516.000000 0 0 1
18.039770 28.313515 -16.284614 37.313229 1.003512 2.022423 0.008098 0.008083 129851.000000 0 0 1
18.133470 28.986015 -17.674514 38.488963 1.011770 2.047902 0.005580 0.013336 -309897.000000 0 0 1
17.308470 30.092415 -17.758814 38.993744 1.048829 2.043648 0.009373 0.017864 -125994.000000 0 0 1
17.639070 30.853715 -18.948014 40.275498 1.051446 2.060608 0.006141 0.018573 166203.000000 0 0 1
16.609470 31.992015 -19.219614 40.850423 1.091926 2.060639 0.005889 0.016929 346798.000000 0 0 1
16.755970 33.164815 -18.393314 41.460602 1.102971 2.030445 0.020730 0.004202 347255.000000 0 0 1
15.732070 34.056515 -18.815614 41.968698 1.138057 2.035687 0.023774 0.003862 168711.000000 0 0 1
15.786670 -33.331519 -17.972914 41.027244 -1.128470 2.024250 0.029213 -0.000646 -695624.000000 0 0 1
14.786770 -32.432119 -18.209414 40.025912 -1.143022 2.043102 0.024334 -0.001475 -812975.000000 0 0 1
14.612870 -31.622919 -17.075214 38.795720 -1.137928 2.026541 0.029094 -0.004380 150822.000000 0 0 1
13.564770 -30.511419 -17.432414 37.667476 -1.152459 2.051945 0.035737 -0.014053 226255.000000 0 0 1
12.283270 -31.101619 -17.401814 37.696320 -1.194660 2.050630 0.031055 -0.007884 -584724.000000 0 0 1
11.279870 -30.179519 -17.783714 36.800806 -1.213114 2.075151 0.018734 -0.004328 -590534.000000 0 0 1
10.024070 -30.935019 -18.133914 37.232999 -1.257436 2.079492 0.025259 -0.005243 -2445230.000000 0 0 1
9.482270 -31.588719 -17.048614 37.127023 -1.279175 2.047887 0.034852 -0.001961 -140282.000000 0 0 1
8.353470 -32.353019 -17.398414 37.672312 -1.318117 2.050860 0.047463 -0.000664 579179.000000 0 0 1
7.038070 -31.697019 -17.964714 37.107498 -1.352299 2.076161 0.043175 0.005680 -411851.000000 0 0 1
7.106370 -31.173219 -19.283914 37.338176 -1.346663 2.113516 0.026983 0.007050 -196546.000000 0 0 1
7.050070 -32.257219 -20.224814 38.720469 -1.355622 2.120376 0.037545 -0.013554 -1112100.000000 0 0 1
7.307670 -31.871819 -21.682614 39.234559 -1.345409 2.156326 0.044196 -0.003055 -361723.000000 0 0 1
8.634970 -31.550019 -22.004014 39.422621 -1.303647 2.162959 0.031070 -0.006650 124141.000000 0 0 1
9.630270 -32.570119 -21.993214 40.463023 -1.283309 2.145443 0.037973 -0.017001 -128687.000000 0 0 1
9.557370 -33.647819 -23.103614 41.920115 -1.294044 2.154519 0.046766 -0.026706 -62295.600000 0 0 1
8.388470 34.256115 -22.869614 42.034118 1.330647 2.146080 0.050281 -0.035611 258282.000000 0 0 1
8.127770 33.253015 -23.835914 41.713001 1.331074 2.179039 0.047413 -0.035229 355385.000000 0 0 1
6.941470 32.272215 -23.443814 40.488175 1.358933 2.188333 0.048789 -0.040615 1603660.000000 0 0 1
5.630770 32.864915 -23.485414 40.784469 1.401113 2.184430 0.052767 -0.037109 833085.000000 0 0 1
5.301870 33.706715 -22.333914 40.780586 1.414780 2.150362 0.042414 -0.031661 -412876.000000 0 0 1
4.077170 -34.085419 -22.601214 41.100535 -1.451746 2.153042 0.045217 -0.023882 -36800.600000 0 0 1
2.826270 33.972515 -22.668114 40.938527 1.487795 2.157611 0.046992 -0.024751 -966259.000000 0 0 1
1.867270 -33.842519 -23.087514 41.010195 -1.515677 2.168771 0.042041 -0.018075 -519580.000000 0 0 1
0.501370 34.241115 -22.631014 41.047145 1.556155 2.154768 0.029594 -0.020586 118527.000000 0 0 1
0.208870 34.314615 -21.204714 40.338274 1.564709 2.124302 0.024424 -0.017505 -871713.000000 0 0 1
-1.084730 33.934315 -20.885514 39.861248 -1.538842 2.122284 0.025137 -0.018436 -585019.000000 0 0 1
-1.399330 34.097815 -19.391214 39.250966 -1.529781 2.087517 0.032328 -0.015064 -58412.100000 0 0 1
-0.688930 33.227115 -18.564714 38.067892 -1.550065 2.080220 0.031964 -0.015486 -208769.000000 0 0 1
-1.355430 33.137715 -17.302514 37.407517 -1.529916 2.051655 0.018173 -0.004969 340625.000000 0 0 1
-0.818630 32.039215 -16.308914 35.960564 -1.545251 2.041510 0.010013 0.003493 137484.000000 0 0 1
0.320570 32.457915 -15.602114 36.014511 1.560920 2.018856 -0.000213 0.000721 -453475.000000 0 0 1
0.954970 31.331315 -15.018314 34.757920 1.540326 2.017598 0.000408 0.006613 288999.000000 0 0 1
2.033370 31.759815 -13.995614 34.766329 1.506860 1.985111 0.023789 -0.004637 -135406.000000 0 0 1
3.143870 32.391115 -14.596814 35.667005 1.474040 1.992431 0.043862 -0.008716 -517911.000000 0 0 1
4.014170 32.759215 -13.561914 35.682002 1.448869 1.960676 0.056221 -0.012109 -74002.600000 0 0 1
5.372670 33.281615 -14.117514 36.549086 1.410747 1.967372 0.064407 -0.022262 429199.000000 0 0 1
6.091870 32.208015 -14.711814 35.929161 1.383863 1.992666 0.073828 -0.020505 -291686.000000 0 0 1
7.342070 32.557915 -15.278514 36.706359 1.348998 2.000098 0.068149 -0.011549 483674.000000 0 0 1
8.331970 31.352415 -15.413114 35.916010 1.311048 2.014340 0.054891 -0.014522 16862.300000 0 0 1
8.995470 31.203015 -14.177114 35.433560 1.290118 1.982427 0.043499 -0.021076 -510319.000000 0 0 1
10.002470 30.229615 -14.253814 34.886247 1.251253 1.991694 0.039427 -0.019933 -36905.000000 0 0 1
9.549270 28.738115 -14.077014 33.395062 1.249989 2.005928 0.057393 -0.026075 83618.000000 0 0 1
8.562870 28.320415 -15.016514 33.179276 1.277179 2.040461 0.055870 -0.028517 115727.000000 0 0 1
7.997970 27.097515 -14.606114 31.805368 1.283790 2.047929 0.054030 -0.019444 55991.400000 0 0 1
7.313370 26.180915 -15.697914 31.390288 1.298400 2.094497 0.058897 -0.022943 604432.000000 0 0 1
8.195870 25.513015 -16.613414 31.529221 1.259967 2.125770 0.056199 -0.014767 -103187.000000 0 0 1
7.492670 24.728215 -17.551914 31.236107 1.276589 2.167491 0.040204 -0.005741 313723.000000 0 0 1
8.410870 23.924815 -18.553014 31.422187 1.232738 2.202404 0.043144 -0.000523 -284345.000000 0 0 1
7.757470 22.976615 -19.283814 30.983361 1.245189 2.242592 0.043750 -0.007474 -938104.000000 0 0 1
8.650670 22.121115 -19.936514 31.010360 1.198021 2.269073 0.042061 -0.003209 -561627.000000 0 0 1
8.033370 21.105215 -20.889014 30.762250 1.207095 2.317260 0.031328 -0.005182 -184367.000000 0 0 1
7.667970 19.885815 -20.259114 29.405358 1.202765 2.330849 0.040038 -0.010022 378481.000000 0 0 1
6.795070 19.130215 -21.138214 29.308057 1.229496 2.376391 0.035892 -0.011732 343690.000000 0 0 1
25.472670 -12.793585 -9.596314 30.076934 -0.465444 1.895533 0.074215 -0.011437 -25628.600000 0 0 1
26.036970 -12.384485 -8.347714 30.016389 -0.443979 1.852617 0.077191 -0.014101 695489.000000 0 0 1
25.037770 -12.427385 -7.323614 28.895763 -0.460720 1.827041 0.075541 -0.003909 102227.000000 0 0 1
25.264370 -11.523785 -6.037714 28.417248 -0.427938 1.784895 0.055506 -0.002555 -475455.000000 0 0 1
25.300570 -10.102485 -6.072714 27.911590 -0.379902 1.790120 0.049117 0.000601 369669.000000 0 0 1
26.187870 -9.511085 -6.995814 28.726411 -0.348374 1.816803 0.039794 -0.001787 -965356.000000 0 0 1
26.560670 -8.106385 -6.530114 28.527619 -0.296223 1.801749 0.077730 -0.003329 243.151000 0 0 1
27.351070 -7.968685 -5.331414 28.982839 -0.283501 1.755801 0.085891 -0.009676 1529490.000000 0 0 1
28.701870 -8.472985 -5.328214 30.397017 -0.287054 1.746994 0.084747 -0.011330 581283.000000 0 0 1
29.381270 -8.181185 -3.967814 30.756046 -0.271570 1.700166 0.102845 -0.019311 -363854.000000 0 0 1
29.613470 -6.870485 -3.634914 30.616560 -0.227972 1.689801 0.110778 -0.010457 374467.000000 0 0 1
30.176170 -6.824085 -2.326414 31.025499 -0.222401 1.645851 0.110795 -0.017827 -4533.780000 0 0 1
30.311870 -5.399785 -1.807514 30.842085 -0.176292 1.629435 0.104407 -0.025448 121884.000000 0 0 1
29.041970 -4.832785 -1.524514 29.480773 -0.164896 1.622532 0.108377 -0.014412 392604.000000 0 0 1
29.096270 -3.525485 -0.901614 29.322941 -0.120578 1.601549 0.107144 -0.013853 -73732.600000 0 0 1
29.776970 -3.210385 0.484486 29.953451 -0.107399 1.554621 0.102017 -0.023449 -73799.300000 0 0 1
29.091270 -3.751185 1.611786 29.376372 -0.128238 1.515902 0.092119 -0.028292 176002.000000 0 0 1
29.763170 -3.623485 2.814886 30.114772 -0.121148 1.477188 0.085064 -0.022873 -776619.000000 0 0 1
29.189870 -4.397185 3.974386 29.785558 -0.149517 1.436964 0.087007 -0.024683 -465146.000000 0 0 1
29.679870 -5.731585 4.043686 30.497494 -0.190765 1.437814 0.090441 -0.037857 350809.000000 0 0 1
29.300970 -6.404685 5.233486 30.445955 -0.215198 1.398044 0.094039 -0.042583 -563448.000000 0 0 1
30.155370 -7.624485 5.371386 31.564710 -0.247650 1.399794 0.065524 -0.042417 -643713.000000 0 0 1
31.485470 -7.261785 5.594086 32.792715 -0.226675 1.399369 0.078881 -0.041565 -168917.000000 0 0 1
32.451770 -8.302185 5.426686 33.933649 -0.250460 1.410186 0.073164 -0.043409 632695.000000 0 0 1
33.897570 -7.758985 5.591486 35.220900 -0.225019 1.411367 0.067206 -0.036383 28683.900000 0 0 1
34.438870 -7.308185 4.377386 35.476849 -0.209105 1.447094 0.078356 -0.040661 873295.000000 0 0 1
35.855670 -7.097585 4.564486 36.835300 -0.195422 1.446561 0.088765 -0.043809 826439.000000 0 0 1
-35.433512 -6.862985 3.308286 36.243331 0.191317 1.479389 0.085530 -0.043035 -290992.000000 0 0 1
-35.162812 -8.032385 2.539486 36.157869 0.224581 1.500505 0.097109 -0.040761 182591.000000 0 0 1
-34.066212 -7.795085 1.695286 34.987771 0.224949 1.522324 0.103151 -0.039598 -485984.000000 0 0 1
-33.535612 -8.984385 0.836186 34.728311 0.261759 1.546716 0.089208 -0.037749 -177104.000000 0 0 1
-33.316412 -10.144185 1.562886 34.861589 0.295562 1.525950 0.093783 -0.036023 262730.000000 0 0 1
-32.890312 -11.141585 0.707086 34.733377 0.326617 1.550437 0.085674 -0.036693 -532978.000000 0 0 1
-32.593212 -12.506785 1.371586 34.937349 0.366397 1.531528 0.063446 -0.031967 -110459.000000 0 0 1
-31.332512 -12.581485 1.976886 33.822006 0.381840 1.512313 0.069731 -0.024360 -168646.000000 0 0 1
-30.439512 -13.357885 1.198186 33.263082 0.413529 1.534767 0.065152 -0.019310 -259362.000000 0 0 1
-29.155412 -13.789585 1.935186 32.309992 0.441789 1.510866 0.063578 -0.016089 -152141.000000 0 0 1
-28.292812 -12.701585 2.155486 31.087933 0.421966 1.501406 0.064478 -0.014781 -501548.000000 0 0 1
-27.032912 -13.161585 2.530186 30.172959 0.453091 1.486842 0.065011 -0.010127 -596751.000000 0 0 1
-26.158712 -12.069185 3.149686 28.980406 0.432280 1.461898 0.056479 -0.000797 -427551.000000 0 0 1
-24.972812 -12.537685 3.736886 28.192183 0.465289 1.437855 0.046971 0.007624 -18840.400000 0 0 1
-24.490212 -11.521285 4.624486 27.457173 0.439725 1.401564 0.054434 0.010968 -485677.000000 0 0 1
-23.215712 -11.952985 5.326486 26.649851 0.475470 1.369572 0.057244 0.019870 -497718.000000 0 0 1
-23.422712 -12.963885 6.281986 27.498165 0.505507 1.340310 0.064215 0.013936 128596.000000 0 0 1
-22.241512 -13.179685 7.031786 26.792442 0.534939 1.305232 0.070147 0.017354 74965.200000 0 0 1
-22.069412 -12.474485 8.416386 26.711557 0.514467 1.250251 0.091022 0.005624 -320052.000000 0 0 1
-21.869812 -11.031285 8.381486 25.888747 0.467167 1.241106 0.093507 0.002290 559348.000000 0 0 1
-23.063612 -10.294285 8.551886 26.665281 0.419809 1.244315 0.088095 -0.004520 -490599.000000 0 0 1
-23.512912 -9.997485 10.005286 27.439250 0.402033 1.197557 0.055502 0.000100 -83340.800000 0 0 1
-23.889412 -11.107685 10.813386 28.478307 0.435227 1.181318 0.049048 -0.002128 852612.000000 0 0 1
-25.236712 -11.570385 10.661686 29.739485 0.429879 1.204133 0.047862 0.004492 1086090.000000 0 0 1
-26.259512 -11.318885 11.844486 30.951106 0.406975 1.178097 0.051107 -0.002617 492508.000000 0 0 1
-26.108612 -12.119185 12.970486 31.571629 0.434586 1.147435 0.042110 -0.002255 531823.000000 0 0 1
-27.259412 -11.963985 13.817886 32.819909 0.413580 1.136225 0.030465 -0.005969 652981.000000 0 0 1
-27.214912 -12.762385 15.125986 33.650042 0.438499 1.104581 0.031335 -0.007900 -139873.000000 0 0 1
-27.236712 -14.125785 14.931386 34.122171 0.478441 1.117884 0.016240 -0.003738 298163.000000 0 0 1
-26.810212 -14.791985 16.106586 34.597867 0.504170 1.086555 0.006014 -0.003462 -536200.000000 0 0 1
-26.497112 -16.237585 15.956886 34.933913 0.549782 1.096431 0.008844 -0.002177 -514030.000000 0 0 1
-27.665312 -16.970985 15.716186 36.060814 0.550243 1.119842 -0.004788 0.004394 -184023.000000 0 0 1
-27.410012 -18.356885 15.525386 36.459862 0.590110 1.130927 -0.003943 0.007325 728327.000000 0 0 1
-28.634012 -19.276285 15.952986 38.026038 0.592509 1.137871 -0.016014 0.009818 737150.000000 0 0 1
-28.873712 -19.210385 17.373186 38.788629 0.587073 1.106388 0.010192 0.009706 -40799.500000 0 0 1
-29.328612 -20.418585 17.971086 40.000575 0.608171 1.104847 0.012550 0.009339 283029.000000 0 0 1
-28.241412 -21.568885 18.147086 39.901264 0.652232 1.098649 0.002549 0.014260 392084.000000 0 0 1
-27.322612 -21.285985 19.209686 39.605938 0.661842 1.064410 0.011881 0.012869 140433.000000 0 0 1
-26.532612 -22.471485 19.306386 39.770387 0.702714 1.063923 0.015671 0.012706 -910427.000000 0 0 1
-25.207712 -22.260885 19.981286 39.118123 0.723398 1.034689 0.034863 0.012480 -402397.000000 0 0 1
-24.066512 -21.971985 19.176786 37.811562 0.739934 1.038902 0.034494 0.001512 -455022.000000 0 0 1
-22.922812 -21.984685 19.940886 37.502275 0.764511 1.010161 0.038292 0.012559 -555194.000000 0 0 1
-21.660012 -21.550485 19.145586 36.057357 0.782863 1.011045 0.041827 0.008104 132614.000000 0 0 1
-21.262212 -22.555385 18.203886 35.947302 0.814902 1.039786 0.040491 0.005085 382218.000000 0 0 1
-20.022312 -22.254385 17.582686 34.717452 0.838146 1.039732 0.036893 -0.002491 225598.000000 0 0 1
-19.718412 -23.177785 16.372986 34.555754 0.865869 1.077180 0.039198 -0.010190 -636415.000000 0 0 1
-19.606112 -24.572685 16.737386 35.613994 0.897348 1.081543 0.046078 -0.012169 -265508.000000 0 0 1
-18.451912 -25.152925 17.279086 35.661036 0.937881 1.064963 0.043105 -0.006009 -229405.000000 0 0 1
-17.157412 -25.216915 16.426786 34.642587 0.973351 1.076765 0.031872 -0.003924 145989.000000 0 0 1
-16.734312 -23.946885 16.136886 33.374984 0.960870 1.066145 0.031819 -0.008343 23146.600000 0 0 1
-15.411612 -23.981785 15.571686 32.482629 0.999614 1.070842 0.038450 -0.013308 587447.000000 0 0 1
-14.750912 -22.593385 15.602486 31.168702 0.992395 1.046526 0.048512 -0.013963 -294891.000000 0 0 1
-15.297512 -21.535085 14.824186 30.290762 0.953156 1.059399 0.051355 -0.010056 -419581.000000 0 0 1
-16.385712 -20.828585 15.336286 30.619000 0.904222 1.046187 0.052742 -0.006857 -176278.000000 0 0 1
-15.974112 -19.580385 16.178286 30.005010 0.886482 1.001326 0.053068 -0.007320 -249804.000000 0 0 1
-15.276012 -18.564885 15.486686 28.598058 0.882280 0.998541 0.050951 -0.001405 19882.500000 0 0 1
-15.156712 -17.421485 16.367486 28.304216 0.854805 0.954189 0.036917 0.000653 -210743.000000 0 0 1
-14.516412 -16.158085 15.750286 26.830606 0.838866 0.943415 0.051243 0.001277 384853.000000 0 0 1
-15.347912 -15.448485 14.823286 26.342815 0.788664 0.973140 0.055922 -0.009535 323506.000000 0 0 1
-15.264612 -16.088485 13.561286 25.995311 0.811669 1.021975 0.065623 -0.015174 -386141.000000 0 0 1
-16.242112 -15.473685 12.569486 25.714453 0.761174 1.060071 0.060632 -0.009878 -666759.000000 0 0 1
-17.567112 -15.738185 12.925586 26.895439 0.730539 1.069473 0.049055 -0.009708 -750437.000000 0 0 1
-18.399912 -14.681485 12.536186 26.669434 0.673466 1.081440 0.071392 -0.009664 -163619.000000 0 0 1
-19.909312 -14.954785 12.782486 27.989609 0.644234 1.096529 0.055507 -0.009819 701786.000000 0 0 1
-20.565312 -15.975685 11.923886 28.641467 0.660450 1.141407 0.058260 -0.007143 450949.000000 0 0 1
-20.640712 -15.739385 10.507686 28.003190 0.651479 1.186150 0.065807 0.000150 -305859.000000 0 0 1
-21.458112 -16.755685 9.698686 28.901004 0.662958 1.228572 0.056813 0.003262 173475.000000 0 0 1
-20.768512 -18.009985 9.633586 29.128965 0.714382 1.233728 0.054343 0.009216 -114322.000000 0 0 1
-21.547512 -19.074385 9.112286 30.185446 0.724592 1.264136 0.045205 0.011686 -171363.000000 0 0 1
-21.022212 -20.514685 9.075686 30.743353 0.773180 1.271123 0.045447 0.009493 -378593.000000 0 0 1
-19.920912 -20.794385 8.243686 29.953422 0.806848 1.291981 0.053961 0.010358 -346130.000000 0 0 1
-19.740912 -22.152785 7.969286 30.723915 0.842906 1.308412 0.037729 -0.001943 -106398.000000 0 0 1
-18.440412 -22.356485 7.172186 29.854672 0.881094 1.328187 0.044015 -0.006161 178511.000000 0 0 1
-17.303512 -22.047085 7.971086 29.138011 0.905366 1.293701 0.037992 -0.001111 406734.000000 0 0 1
-16.067212 -22.297485 7.305286 28.437657 0.946389 1.310996 0.054987 -0.004409 96651.300000 0 0 1
-14.828512 -21.944685 8.104986 27.697378 0.976551 1.273824 0.044677 0.000432 -371968.000000 0 0 1
-13.607812 -22.284385 7.470286 27.158268 1.022588 1.292139 0.049544 0.002986 -442609.000000 0 0 1
-12.540812 -21.871285 8.292886 26.540479 1.050172 1.253013 0.054969 0.000116 -111234.000000 0 0 1
-11.228912 -22.338485 7.625986 26.139090 1.105014 1.274744 0.050948 0.004139 -14256.500000 0 0 1
-10.933512 -23.729685 7.837086 27.277455 1.139037 1.279379 0.057850 0.009916 54294.200000 0 0 1
-9.649812 -24.045585 7.304386 26.919567 1.189158 1.296010 0.057712 0.002638 596631.000000 0 0 1
-9.441012 -25.584565 7.443086 28.268395 1.217286 1.304354 0.051453 0.016528 368887.000000 0 0 1
-10.356512 -26.343645 6.623786 29.070939 1.196225 1.340928 0.053859 0.007761 164760.000000 0 0 1
-10.300412 -27.765195 6.804386 30.385921 1.215552 1.344949 0.067604 0.003303 154376.000000 0 0 1
-9.169912 -28.545965 6.070586 30.591035 1.259975 1.371027 0.066663 -0.000714 406692.000000 0 0 1
-7.871612 -28.136965 6.455886 29.922057 1.298010 1.353330 0.056350 0.002608 1088950.000000 0 0 1
-6.665512 -28.656915 5.829186 29.993786 1.342263 1.375205 0.046975 0.007027 1597220.000000 0 0 1
-6.392512 -30.154805 6.052486 31.413517 1.361899 1.376912 0.047639 0.000346 -411738.000000 0 0 1
-6.318512 -30.355785 7.457186 31.890545 1.365578 1.334774 0.050516 0.006878 117008.000000 0 0 1
-6.638512 -31.705625 7.845086 33.329594 1.364398 1.333188 0.063043 -0.003000 52726.200000 0 0 1
-6.919512 -31.782945 9.344286 33.843033 1.356430 1.291055 0.055480 -0.003636 -637486.000000 0 0 1
-5.810512 -31.559955 10.108786 33.644916 1.388725 1.265627 0.048638 0.007126 -431135.000000 0 0 1
-6.318512 -31.634645 11.475786 34.239860 1.373657 1.229023 0.049206 0.002777 228712.000000 0 0 1
-5.444512 -31.006545 12.585186 33.903325 1.396976 1.190487 0.048246 0.001192 -46328.500000 0 0 1
-5.352512 -29.607245 12.367986 32.530069 1.391944 1.180782 0.051603 -0.003992 102773.000000 0 0 1
-4.757512 -28.793745 13.377986 32.104270 1.407048 1.140980 0.026118 -0.007800 434781.000000 0 0 1
-5.780512 -28.325705 14.497286 32.340859 1.369488 1.105972 0.031411 -0.013243 371679.000000 0 0 1
-6.278512 -29.253135 15.436486 33.666760 1.359377 1.094480 0.030475 -0.011119 -110727.000000 0 0 1
-5.356512 -29.761665 16.382186 34.392222 1.392723 1.074316 0.023452 -0.007924 164230.000000 0 0 1
-5.892512 -31.086625 17.025286 35.929936 1.383467 1.077142 0.030412 -0.007745 25492.800000 0 0 1
-5.625512 -32.165845 16.189386 36.447005 1.397657 1.110527 0.031197 -0.000159 -315114.000000 0 0 1
-6.418512 -33.255535 16.419386 37.639396 1.380135 1.119393 0.028120 -0.003095 -573986.000000 0 0 1
-5.903512 34.226098 15.688686 38.110525 -1.399991 1.146518 0.016564 -0.006095 -139757.000000 0 0 1
-6.009512 34.343716 14.277486 37.675611 -1.397569 1.182126 0.031204 -0.011523 145213.000000 0 0 1
-5.463512 33.176531 13.618786 36.276763 -1.407581 1.185953 0.027146 -0.014457 509388.000000 0 0 1
-4.171512 33.536533 12.833286 36.149603 -1.447045 1.207877 0.031659 -0.023311 53571.700000 0 0 1
-4.536512 34.003708 11.533486 36.191897 -1.438167 1.246464 0.035130 -0.022168 518043.000000 0 0 1
-3.435512 -34.234451 10.761086 36.049984 1.470779 1.267671 0.041420 -0.023881 -488027.000000 0 0 1
-3.847512 -34.072175 9.301586 35.527960 1.458350 1.305899 0.036522 -0.017456 -711682.000000 0 0 1
-4.048512 33.501044 8.469086 34.791318 -1.450532 1.324901 0.042325 -0.027247 523505.000000 0 0 1
-4.885512 32.365800 8.818886 33.899646 -1.420981 1.307622 0.051849 -0.030893 127207.000000 0 0 1
-6.352512 32.726262 9.096586 34.555904 -1.379070 1.304414 0.054830 -0.014684 -636255.000000 0 0 1
-7.004512 33.295738 7.993986 34.951011 -1.363447 1.340034 0.060772 -0.013089 90585.000000 0 0 1
-8.401212 33.514167 8.235986 35.519167 -1.325181 1.336792 0.053347 -0.009874 676574.000000 0 0 1
-9.174712 33.751978 6.959886 35.662464 -1.305382 1.374376 0.061642 -0.016156 -346876.000000 0 0 1
-9.088012 -33.643525 6.408986 35.433795 1.306966 1.388923 0.081060 -0.010814 -124349.000000 0 0 1
-9.799312 -33.542075 5.211286 35.330649 1.286557 1.422756 0.078542 -0.008683 -433208.000000 0 0 1
-9.828812 -32.117935 4.578586 33.898831 1.273823 1.435316 0.077514 -0.004960 403604.000000 0 0 1
-10.702112 -31.139755 5.153586 33.328351 1.239763 1.415543 0.090117 -0.008656 -663262.000000 0 0 1
-12.025712 -31.172095 4.775986 33.750960 1.202604 1.428813 0.080963 -0.008146 -359666.000000 0 0 1
-13.073212 -30.284335 5.542086 33.447937 1.163279 1.404336 0.079180 -0.008757 403978.000000 0 0 1
-13.456912 -30.869525 6.777486 34.350405 1.159706 1.372189 0.074624 -0.006240 276989.000000 0 0 1
-14.379812 -30.001275 7.470186 34.097788 1.123840 1.349924 0.057942 -0.005842 380964.000000 0 0 1
33.510641 -12.499685 -12.573414 37.911686 -0.357022 1.908848 0.048703 -0.015363 358472.000000 0 0 1
32.328341 -12.899085 -11.851614 36.769128 -0.379646 1.898981 0.057143 -0.017702 637345.000000 0 0 1
32.248321 -14.279385 -11.490914 37.093074 -0.416846 1.885764 0.054676 -0.021951 -197762.000000 0 0 1
33.139381 -14.838185 -10.348014 37.755420 -0.420982 1.848429 0.040440 -0.020027 32575.800000 0 0 1
34.472761 -15.022485 -10.771314 39.116077 -0.410965 1.849769 0.049646 -0.024235 -777655.000000 0 0 1
35.182421 -15.660385 -9.790414 39.735408 -0.418788 1.819750 0.035833 -0.022825 -1144270.000000 0 0 1
-35.497013 -15.916085 -10.241514 40.227457 0.421504 1.828220 0.019600 -0.022856 -645488.000000 0 0 1
-34.725581 -14.743885 -10.431414 39.141570 0.401517 1.840561 0.013769 -0.015677 -939426.000000 0 0 1
-33.370430 -14.906785 -10.560614 38.043717 0.420112 1.852083 0.025797 -0.019613 -1000920.000000 0 0 1
-32.637790 -13.598785 -10.863414 36.988729 0.394783 1.868887 0.035833 -0.022736 -122991.000000 0 0 1
-32.827910 -12.503585 -9.957714 36.512565 0.363918 1.847016 0.054242 -0.032096 862231.000000 0 0 1
-32.066360 -11.344485 -10.435914 35.578885 0.340040 1.868492 0.058391 -0.029844 291528.000000 0 0 1
-32.565540 -10.080685 -9.715114 35.447398 0.300196 1.848420 0.065247 -0.037589 -2783.690000 0 0 1
-32.050870 -9.905785 -8.381114 34.577824 0.299752 1.815619 0.072053 -0.036656 202613.000000 0 0 1
-32.739220 -8.888485 -7.760414 34.800657 0.265103 1.795683 0.080226 -0.037657 -393834.000000 0 0 1
-32.238500 -8.683385 -6.316214 33.979650 0.263104 1.757766 0.071386 -0.030918 316791.000000 0 0 1
-30.916210 -8.132185 -6.331614 32.588860 0.257213 1.766328 0.074488 -0.042826 669826.000000 0 0 1
-30.320140 -8.151885 -5.023714 31.796255 0.262649 1.729458 0.075068 -0.038990 -51259.000000 0 0 1
-29.515780 -9.449585 -4.548514 31.323552 0.309842 1.716522 0.070535 -0.034241 -443963.000000 0 0 1
-30.246230 -10.604185 -4.238214 32.330259 0.337205 1.702266 0.071819 -0.027334 271417.000000 0 0 1
-30.880270 -10.523985 -2.959414 32.758258 0.328455 1.661261 0.055240 -0.030412 46874.300000 0 0 1
-31.442850 -11.879585 -2.367514 33.695437 0.361236 1.641116 0.054946 -0.019840 -99481.700000 0 0 1
-32.699890 -12.171985 -2.942814 35.015713 0.356343 1.654938 0.055281 -0.028003 265317.000000 0 0 1
-33.134100 -13.493585 -2.653514 35.874595 0.386734 1.644830 0.061964 -0.029707 1158070.000000 0 0 1
-34.698955 -13.515485 -2.380014 37.314210 0.371428 1.634623 0.049978 -0.027012 1211070.000000 0 0 1
-35.130191 -12.875785 -1.166814 37.433643 0.351312 1.601972 0.066086 -0.028912 -686670.000000 0 0 1
35.606801 -12.650285 -1.225514 37.807088 -0.341368 1.603217 0.094171 -0.040032 -1023970.000000 0 0 1
35.249871 -11.469785 -0.328114 37.070434 -0.314580 1.579648 0.083383 -0.037367 -347689.000000 0 0 1
35.219851 -11.799985 1.056486 37.159033 -0.323284 1.542361 0.106405 -0.039405 127708.000000 0 0 1
35.287371 -10.647785 1.841386 36.904805 -0.293057 1.520880 0.079515 -0.042882 -336310.000000 0 0 1
35.251661 -10.986785 3.325486 37.073548 -0.302126 1.480976 0.094275 -0.043027 128912.000000 0 0 1
34.073611 -11.532685 3.892686 36.182410 -0.326361 1.463003 0.089157 -0.040007 8501.270000 0 0 1
34.369561 -12.138285 5.165486 36.814222 -0.339496 1.430020 0.096836 -0.036108 -326962.000000 0 0 1
33.157351 -12.548885 6.018286 35.959758 -0.361805 1.402643 0.089219 -0.013249 -410606.000000 0 0 1
32.541641 -11.407385 6.551086 35.099909 -0.337162 1.383054 0.059872 -0.024947 10751.500000 0 0 1
32.443131 -11.427285 7.960886 35.306024 -0.338656 1.343358 0.048912 -0.010426 -617677.000000 0 0 1
31.859581 -10.104885 8.522486 34.493106 -0.307133 1.321133 0.041149 -0.024375 -537163.000000 0 0 1
30.471981 -9.954285 8.440886 33.149329 -0.315742 1.313329 0.051117 -0.028969 -445151.000000 0 0 1
29.978561 -8.980185 9.266986 32.637936 -0.291047 1.282903 0.064237 -0.022405 267307.000000 0 0 1
28.408991 -8.992385 9.334086 31.225934 -0.306555 1.267235 0.058930 -0.028068 648966.000000 0 0 1
27.862731 -8.559885 8.109586 30.255063 -0.298064 1.299438 0.068312 -0.031483 135830.000000 0 0 1
27.329811 -9.652585 7.351186 29.902022 -0.339513 1.322408 0.082446 -0.038937 -60939.100000 0 0 1
26.296351 -9.252885 6.220986 28.562469 -0.338339 1.351234 0.088038 -0.039339 419095.000000 0 0 1
25.112351 -8.766085 6.832786 27.461999 -0.335850 1.319346 0.090998 -0.035464 686625.000000 0 0 1
24.029451 -8.300485 6.026586 26.127233 -0.332597 1.338037 0.087474 -0.032699 394405.000000 0 0 1
24.176651 -6.939085 5.296186 25.704298 -0.279503 1.363267 0.080817 -0.025241 -861460.000000 0 0 1
25.097251 -6.880785 4.229286 26.364827 -0.267590 1.409686 0.078907 -0.023771 331588.000000 0 0 1
25.020351 -5.629085 3.600586 25.897274 -0.221296 1.431311 0.075084 -0.029384 -42938.700000 0 0 1
25.976651 -5.432985 2.401886 26.647191 -0.206177 1.480537 0.105637 -0.033003 -54183.900000 0 0 1
25.343351 -5.893185 1.217086 26.047963 -0.228474 1.524054 0.092083 -0.024475 -12641.600000 0 0 1
26.126451 -5.831585 0.072186 26.769461 -0.219606 1.568100 0.095017 -0.025010 -728442.000000 0 0 1
25.377051 -6.064785 -1.214914 26.119961 -0.234587 1.617326 0.092505 -0.024767 -395239.000000 0 0 1
24.313551 -5.173285 -1.419014 24.898298 -0.209647 1.627820 0.086004 -0.012745 -189454.000000 0 1 0
23.768751 -5.383985 -2.681714 24.518002 -0.222756 1.680393 0.071687 -0.008117 227951.000000 0 1 0
22.500251 -4.485085 -2.874714 23.122311 -0.196756 1.695445 0.044769 -0.003400 179166.000000 0 1 0
22.789951 -3.147285 -2.929214 23.191972 -0.137232 1.697437 0.035475 -0.002709 271914.000000 0 1 0
23.136251 -2.694985 -4.208314 23.669790 -0.115961 1.749539 0.039773 -0.004867 102762.000000 0 1 0
22.074651 -1.726985 -4.824514 22.661612 -0.078075 1.785332 0.010587 0.004965 263633.000000 0 1 0
22.150151 -0.374785 -4.325814 22.571715 -0.016919 1.763637 0.022539 0.008219 364079.000000 0 1 0
21.280351 0.436815 -5.073114 21.881057 0.020524 1.804775 0.034803 0.012799 -634192.000000 0 1 0
21.045251 1.870015 -4.431814 21.587972 0.088624 1.777557 0.035218 0.016741 305233.000000 0 1 0
22.121351 2.831215 -4.480814 22.747476 0.127294 1.769074 0.046209 0.013282 925904.000000 0 1 0
23.161851 2.546515 -3.565014 23.572557 0.109505 1.722615 0.078053 0.010244 150220.000000 0 1 0
24.281451 3.625215 -3.490714 24.797503 0.148205 1.712034 0.054106 0.010990 200728.000000 0 1 0
23.765551 4.870215 -3.072614 24.453249 0.202129 1.696782 0.058078 0.011160 115272.000000 0 1 0
24.836951 5.721915 -2.931614 25.655581 0.226428 1.685315 0.055253 0.010600 -585751.000000 0 0 1
24.378451 7.183215 -3.047814 25.596809 0.286545 1.690150 0.052660 0.003123 93537.400000 0 0 1
23.526451 7.658615 -2.024714 24.824338 0.314713 1.652449 0.070378 0.003959 292755.000000 0 1 0
22.742151 8.736515 -2.426814 24.483088 0.366773 1.670081 0.058975 0.010371 -469835.000000 0 1 0
21.690251 9.140815 -1.397614 23.579119 0.398839 1.630104 0.052864 0.010800 -320918.000000 0 1 0
22.215851 9.843515 -0.280014 24.300561 0.417089 1.582320 0.041770 0.007846 1610550.000000 0 1 0
21.128451 10.175715 0.650686 23.460180 0.448829 1.543057 0.032561 0.004306 970384.000000 0 1 0
21.670151 10.714015 1.969786 24.254188 0.459168 1.489493 0.056133 0.000320 -448183.000000 0 1 0
22.424651 11.930415 1.896786 25.471506 0.488936 1.496260 0.054843 -0.006957 343456.000000 0 0 1
21.765051 13.143115 1.778986 25.487717 0.543255 1.500942 0.060895 -0.002978 -594989.000000 0 0 1
20.675551 13.606715 2.796286 24.908640 0.582053 1.458297 0.050976 -0.002952 336378.000000 0 1 0
19.428851 12.936215 2.562086 23.481700 0.587420 1.461469 0.080482 -0.003232 1069970.000000 0 1 0
18.331351 13.482015 3.313386 22.995254 0.634132 1.426203 0.059661 -0.009180 205096.000000 0 1 0
18.337851 13.390515 4.882186 23.225384 0.630716 1.359008 0.044651 -0.003304 -819864.000000 0 1 0
18.255251 12.094815 5.333486 22.538519 0.585140 1.331891 0.053967 0.001050 338735.000000 0 1 0
18.339251 12.001815 6.747286 22.932457 0.579485 1.272153 0.045298 -0.002458 -379767.000000 0 1 0
18.466751 10.575415 7.279086 22.491007 0.520084 1.241218 0.030266 -0.008253 -171210.000000 0 1 0
19.568351 9.792915 6.866786 22.934130 0.464005 1.266719 0.028924 -0.014673 366770.000000 0 1 0
19.450651 8.498615 7.370386 22.469466 0.411934 1.236592 0.022568 -0.008719 511583.000000 0 1 0
20.432151 7.560515 6.583486 22.759097 0.354407 1.277334 0.032217 -0.006015 751477.000000 0 1 0
19.872051 7.334215 5.320586 21.840279 0.353563 1.324706 0.010903 -0.008411 451533.000000 0 1 0
20.844851 6.577315 4.694786 22.356429 0.305649 1.359224 0.021794 -0.015927 -346218.000000 0 1 0
20.566451 6.468015 3.205186 21.796499 0.304700 1.423211 0.028965 -0.012112 57596.600000 0 1 0
21.506051 5.658515 2.500586 22.378158 0.257281 1.458820 0.027678 -0.015184 605602.000000 0 1 0
21.252151 5.774215 1.080286 22.049093 0.265296 1.521782 0.035584 0.000227 -149199.000000 0 1 0
22.139451 4.820015 0.278386 22.659774 0.214367 1.558511 0.040596 -0.001518 -156799.000000 0 1 0
22.020451 3.397815 0.445386 22.285506 0.153095 1.550810 0.032837 0.000645 748934.000000 0 1 0
23.147051 2.651015 -0.029214 23.298385 0.114032 1.572050 0.043519 0.000146 403841.000000 0 1 0
23.050451 1.172615 0.288886 23.082066 0.050828 1.558280 0.060171 -0.003574 53049.000000 0 1 0
22.011651 0.497615 -0.427214 22.021420 0.022603 1.590197 0.027252 -0.004346 941746.000000 0 1 0
22.303251 -0.808785 -0.869714 22.334851 -0.036247 1.609746 0.038970 -0.005517 -1556340.000000 0 1 0
22.403551 -2.011285 0.136386 22.494065 -0.089535 1.564733 0.073611 -0.004459 305342.000000 0 1 0
23.468951 -2.007085 1.091386 23.579890 -0.085313 1.524495 0.089778 -0.008206 678811.000000 0 1 0
24.737551 -2.122785 0.473786 24.832985 -0.085603 1.551716 0.096956 -0.016847 -961118.000000 0 1 0
25.861651 -1.833585 1.483386 25.968971 -0.070781 1.513644 0.105006 -0.020407 -476325.000000 0 0 1
25.839551 -0.471585 1.884386 25.912463 -0.018248 1.498011 0.095376 -0.017692 48738.500000 0 0 1
26.678051 -0.209685 2.953086 26.841817 -0.007860 1.460555 0.088899 -0.011497 -485396.000000 0 0 1
26.438151 1.200615 3.656086 26.716742 0.045381 1.433519 0.086419 -0.003111 -175831.000000 0 0 1
26.675351 2.409615 2.928486 26.943583 0.090087 1.461892 0.092929 -0.005041 153256.000000 0 0 1
27.956011 2.647615 2.370586 28.180989 0.094425 1.486577 0.103902 -0.011389 -6695.600000 0 0 1
27.999751 3.677215 1.225586 28.266766 0.130583 1.527425 0.100407 -0.017789 -303254.000000 0 0 1
27.252271 3.425715 0.031886 27.466759 0.125048 1.569635 0.097470 -0.010829 326689.000000 0 0 1
27.565801 4.210615 -1.097614 27.907122 0.151576 1.610137 0.087374 -0.006426 -351229.000000 0 0 1
28.911121 3.788315 -1.745114 29.210438 0.130291 1.630575 0.089089 -0.006098 1397440.000000 0 0 1
30.050281 4.201015 -0.900914 30.355882 0.138899 1.600479 0.107185 -0.016770 510247.000000 0 0 1
31.298351 4.080015 -1.494214 31.598513 0.129628 1.618101 0.090487 -0.015092 -183376.000000 0 0 1
32.476601 4.477415 -0.561014 32.788590 0.137002 1.587907 0.064295 -0.013169 117693.000000 0 0 1
32.821951 3.520815 0.415886 33.012870 0.106862 1.558198 0.060888 -0.018655 557271.000000 0 0 1
32.129531 3.846815 1.637786 32.400419 0.119161 1.520226 0.070438 -0.008747 201304.000000 0 0 1
32.309431 2.810815 2.715986 32.544994 0.086778 1.487246 0.068666 -0.001201 147100.000000 0 0 1
31.376731 1.724815 2.579486 31.529796 0.054916 1.488894 0.081166 -0.009154 378825.000000 0 0 1
31.423671 0.606215 3.489286 31.622614 0.019289 1.460230 0.073787 -0.007302 -266236.000000 0 0 1
32.667881 -0.309585 3.512686 32.857652 -0.009476 1.463685 0.088010 -0.014595 400697.000000 0 0 1
33.852971 0.391315 3.890686 34.078061 0.011559 1.456377 0.081961 -0.010685 624481.000000 0 0 1
35.026881 -0.410785 3.822886 35.237276 -0.011727 1.462093 0.079241 -0.023307 -668419.000000 0 0 1
-35.854411 0.406215 4.258086 36.108657 -0.011329 1.452597 0.094190 -0.031287 -387877.000000 0 0 1
-35.462481 1.562615 3.498086 35.668837 -0.044035 1.472567 0.078703 -0.027008 299496.000000 0 0 1
-35.169038 1.234415 2.142486 35.255854 -0.035085 1.509989 0.084032 -0.028416 -1317100.000000 0 0 1
-35.216931 2.468415 1.241086 35.325141 -0.069977 1.535656 0.066268 -0.029038 -752454.000000 0 0 1
-34.095384 3.261115 1.188986 34.271618 -0.095357 1.536096 0.079952 -0.031210 -930502.000000 0 0 1
-33.041600 2.666715 0.467686 33.152337 -0.080533 1.556689 0.104546 -0.032361 -1267050.000000 0 0 1
-31.748810 3.333715 0.960686 31.937807 -0.104619 1.540712 0.095944 -0.027490 -626694.000000 0 0 1
-31.390110 3.016615 2.345586 31.621840 -0.095807 1.496552 0.092880 -0.033944 -13307.500000 0 0 1
-30.482500 3.951315 2.838086 30.868276 -0.128907 1.478724 0.096580 -0.020856 -738790.000000 0 0 1
-30.485340 4.019215 4.404086 31.062937 -0.131085 1.428538 0.101901 -0.023875 176691.000000 0 0 1
-31.669660 4.468515 5.052686 32.380004 -0.140172 1.414113 0.101910 -0.007978 427918.000000 0 0 1
-32.761440 3.575015 5.112286 33.350085 -0.108693 1.416898 0.097246 -0.008491 -269349.000000 0 0 1
-32.799760 2.695415 6.368586 33.520865 -0.081994 1.379646 0.090549 -0.011053 -600767.000000 0 0 1
-33.049580 3.454115 7.556986 34.078053 -0.104135 1.347182 0.089199 -0.009362 299903.000000 0 0 1
-33.187930 2.694115 8.790786 34.437986 -0.081000 1.312675 0.086776 -0.003825 358394.000000 0 0 1
-34.392888 1.694215 8.888986 35.563397 -0.049221 1.318170 0.073162 0.000604 97221.800000 0 0 1
-34.200199 0.527115 8.067686 35.142838 -0.015411 1.339162 0.078452 0.000224 402716.000000 0 0 1
-35.171255 -0.510285 8.276186 36.135479 0.014508 1.339713 0.084770 0.003113 206939.000000 0 0 1
-34.908762 -1.423785 9.452686 36.193951 0.040763 1.306565 0.082071 0.006851 -232157.000000 0 0 1
-33.692350 -2.119285 9.302986 35.017301 0.062818 1.301899 0.076879 -0.005290 95632.800000 0 0 1
-33.400150 -2.867085 10.467186 35.119114 0.085631 1.268149 0.059040 0.012093 -11098.400000 0 0 1
-32.158460 -3.774085 10.372186 33.999890 0.116825 1.260789 0.070506 0.018347 -26658.700000 0 0 1
-32.416310 -4.895285 9.597286 34.159755 0.149881 1.286009 0.057433 0.000654 699045.000000 0 0 1
-31.270270 -5.758785 9.549186 33.199102 0.182121 1.279041 0.049657 -0.010564 494778.000000 0 0 1
-31.369430 -6.715785 8.327486 33.143475 0.210903 1.316819 0.049242 0.003834 148641.000000 0 0 1
-32.272220 -7.773885 8.585386 34.287583 0.236381 1.317710 0.058773 -0.004453 53153.400000 0 0 1
-32.830540 -8.196785 7.340186 34.625279 0.244668 1.357186 0.059026 -0.015385 565836.000000 0 0 1
-33.988380 -9.253585 7.454286 36.005627 0.265815 1.362257 0.065891 -0.019145 779471.000000 0 0 1
-35.276493 -8.759585 7.786786 37.172508 0.243390 1.359756 0.070299 -0.023797 304681.000000 0 0 1
35.988151 -9.868585 8.075286 38.180443 -0.267639 1.357684 0.063645 -0.023968 -197760.000000 0 0 1
7.503070 -24.036885 11.206386 27.561767 -1.268232 1.152076 0.087408 -0.018974 72506.600000 0 0 1
7.251370 -24.621785 9.940786 27.525150 -1.284384 1.201292 0.084374 -0.016162 -354882.000000 0 0 1
6.396270 -25.728275 10.089286 28.366355 -1.327128 1.207157 0.087672 -0.015902 93193.500000 0 0 1
6.096870 -26.487695 8.808386 28.571970 -1.344559 1.257404 0.072573 -0.009550 -67776.500000 0 0 1
5.261170 -25.819245 7.884786 27.504239 -1.369779 1.280042 0.072747 -0.004656 -263140.000000 0 0 1
5.172670 -26.533005 6.680586 27.845773 -1.378259 1.328519 0.061001 -0.004184 -342324.000000 0 0 1
4.406870 -25.745725 5.595486 26.712774 -1.401270 1.359765 0.059160 -0.007169 1460730.000000 0 0 1
2.971270 -25.618745 5.619286 26.395547 -1.455332 1.356267 0.054690 -0.016761 812954.000000 0 0 1
2.214770 -26.765355 5.368286 27.388098 -1.488237 1.373511 0.050847 -0.010621 79117.200000 0 0 1
0.678870 -26.610835 5.205786 27.123746 -1.545291 1.377671 0.050648 -0.014571 -35101.900000 0 0 1
0.016270 -26.271515 6.392086 27.037964 -1.570177 1.332125 0.045010 -0.013445 670260.000000 0 0 1
-1.422330 -26.366415 6.299586 27.145822 1.516904 1.336597 0.031920 -0.007759 1357200.000000 0 0 1
-1.956830 -27.848615 6.439386 28.650309 1.500645 1.344102 0.034424 -0.000572 -533516.000000 0 0 1
-1.571930 -28.507825 7.617286 29.549790 1.515712 1.310075 0.029974 -0.008142 153843.000000 0 0 1
-2.169330 -29.778725 7.447486 30.772447 1.498076 1.326351 0.037239 -0.003551 24468.800000 0 0 1
-2.113230 -30.642765 8.681786 31.918931 1.501942 1.295331 0.033305 -0.005027 644882.000000 0 0 1
-0.782230 -30.919335 9.112686 32.243731 1.545503 1.284273 0.027208 -0.003072 177568.000000 0 0 1
-0.794330 -31.464085 10.430286 33.157359 1.545556 1.250793 0.016206 0.004563 657788.000000 0 0 1
0.607270 -31.790995 11.035186 33.657265 -1.551697 1.236749 0.015056 0.001423 556912.000000 0 0 1
1.302070 -32.950685 10.624886 34.645797 -1.531301 1.259102 0.021767 -0.002164 -296010.000000 0 0 1
2.646470 -32.991205 11.014386 34.881802 -1.490750 1.249536 0.037973 0.001502 -164996.000000 0 0 1
3.067270 -33.557245 12.399486 35.906045 -1.479646 1.218204 0.027298 0.003106 -573510.000000 0 0 1
2.604070 -32.806695 13.470986 35.560201 -1.491586 1.182273 0.012339 0.008635 239778.000000 0 0 1
3.321770 -33.129505 14.667486 36.383147 -1.470864 1.155851 0.021901 0.004065 -198242.000000 0 0 1
2.930770 -32.151145 15.812286 35.948768 -1.479892 1.115358 0.029589 0.000305 -32838.500000 0 0 1
3.389770 -30.831705 15.627886 34.732051 -1.461292 1.104081 0.040718 -0.005143 -472872.000000 0 0 1
4.728570 -30.563315 15.893886 34.771989 -1.417299 1.096077 0.037021 0.004437 -485547.000000 0 0 1
5.423370 -29.415685 15.137286 33.523617 -1.388474 1.102305 0.051582 -0.007350 33971.100000 0 0 1
5.681170 -29.620275 13.758986 33.150355 -1.381298 1.142801 0.047906 -0.005755 573846.000000 0 0 1
4.500070 -29.582415 12.929886 32.596807 -1.419834 1.162920 0.051382 0.000806 450151.000000 0 0 1
4.801670 -29.660605 11.384686 32.131271 -1.410302 1.208612 0.039309 -0.002663 69603.500000 0 0 1
5.125170 -30.942985 10.838086 33.184330 -1.406654 1.238090 0.039691 0.001650 311333.000000 0 0 1
6.467170 -31.329175 11.136486 33.872744 -1.367229 1.235791 0.038425 0.001405 184738.000000 0 0 1
6.828770 -32.753855 10.755286 35.144321 -1.365253 1.259774 0.025637 0.007231 -215497.000000 0 0 1
6.265370 -33.749255 11.583086 36.227544 -1.387241 1.245350 0.014969 -0.000257 39831.400000 0 0 1
6.709570 33.631777 11.257186 36.094861 1.373881 1.253628 0.027250 -0.000410 64311.700000 0 0 1
6.176870 32.448850 12.169986 35.202133 1.382690 1.217793 0.024191 -0.000753 746518.000000 0 0 1
4.753670 32.292400 12.108086 34.813822 1.424639 1.215578 0.029939 0.002475 729455.000000 0 0 1
4.322270 31.112300 12.790886 33.915542 1.432755 1.184091 0.044674 0.004385 -514853.000000 0 0 1
3.288170 31.327960 13.847886 34.409549 1.466220 1.156612 0.045635 -0.008118 -718272.000000 0 0 1
3.767270 31.755310 15.127086 35.375426 1.452714 1.128943 0.060373 -0.004793 -73618.000000 0 0 1
2.760470 31.730670 16.093986 35.685739 1.484018 1.102920 0.040689 -0.007825 -246546.000000 0 0 1
3.399370 31.891130 17.455986 36.514536 1.464604 1.072356 0.035859 -0.006097 92703.800000 0 0 1
3.835270 33.243663 17.715986 37.864318 1.455936 1.083905 0.046148 -0.006154 197015.000000 0 0 1
4.298970 33.440966 19.038486 38.720063 1.442944 1.056760 0.037001 -0.006633 -222076.000000 0 0 1
4.338770 -33.761765 19.443886 39.201357 -1.442986 1.051810 0.032219 -0.012119 157520.000000 0 0 1
3.106270 -33.141065 19.746486 38.702749 -1.477341 1.035369 0.022553 -0.010527 -193767.000000 0 0 1
3.290470 -31.905285 20.468486 38.049091 -1.468027 1.002794 0.020702 -0.010823 -841333.000000 0 0 1
2.020870 -31.283345 20.963686 37.712169 -1.506287 0.981367 0.021866 -0.006880 -765814.000000 0 0 1
1.326670 -32.167015 21.847686 38.907561 -1.529577 0.974565 0.027733 -0.006637 266452.000000 0 0 1
0.128970 -31.612645 22.366686 38.725245 -1.566717 0.955043 0.021737 -0.011819 -308760.000000 0 0 1
-0.856130 -32.486535 23.096886 39.869463 1.544449 0.952911 0.018765 -0.008280 -898812.000000 0 0 1
-1.565530 -33.244735 22.100386 39.951099 1.523740 0.984613 0.015351 -0.010144 29611.900000 0 0 1
-2.271030 34.346059 22.663286 41.212060 -1.504770 0.988529 0.025060 -0.013054 -44339.600000 0 0 1
-3.561930 -34.039095 23.454486 41.490484 1.466533 0.970002 0.038874 -0.009306 -75334.700000 0 0 1
-4.551730 -33.549625 22.536486 40.671720 1.435948 0.983506 0.040235 -0.017082 -15211.800000 0 0 1
-5.700530 -33.085855 23.230786 40.826943 1.400176 0.965499 0.044562 -0.017329 520055.000000 0 0 1
-6.921730 -32.700765 22.320186 40.192550 1.362206 0.982035 0.034723 -0.011452 723594.000000 0 0 1
-7.737330 -33.812095 21.921386 41.032563 1.345836 1.007184 0.022758 0.005014 529753.000000 0 0 1
-8.766830 -33.241145 21.070486 40.321166 1.312934 1.020938 0.021062 -0.005588 381151.000000 0 0 1
-9.863030 -34.250114 20.712886 41.223456 1.290412 1.044362 0.037392 -0.009179 295636.000000 0 0 1
-10.503930 33.976817 21.925186 41.778828 -1.270966 1.018326 0.057419 -0.018675 -394834.000000 0 0 1
-11.839630 33.576615 21.762486 41.727350 -1.231793 1.022141 0.041765 -0.010716 6892.150000 0 0 1
-12.453430 33.280829 23.175486 42.424105 -1.212734 0.992878 0.041561 -0.014783 -548025.000000 0 0 1
-12.586930 -34.313317 24.108986 43.784446 1.219213 0.987679 0.027093 -0.017631 112574.000000 0 0 1
-11.470330 -33.590075 24.642386 43.210054 1.241732 0.963934 0.019542 -0.018389 190461.000000 0 0 1
-11.873630 -32.168915 25.096086 42.492772 1.217206 0.938998 0.012182 -0.015606 84236.500000 0 0 1
-12.457430 -31.923495 26.359786 43.233499 1.198743 0.915105 0.016149 -0.008938 101380.000000 0 0 1
-12.726830 -30.559705 26.591386 42.461389 1.176183 0.894064 0.030160 -0.012720 -16011.800000 0 0 1
-13.542530 -30.248625 27.895986 43.319343 1.149851 0.871131 0.031618 -0.017079 -103813.000000 0 0 1
-12.831530 -30.103695 29.078386 43.777085 1.167872 0.844323 0.025349 -0.010165 -414433.000000 0 0 1
-13.691830 -29.695995 30.072186 44.425834 1.138778 0.827243 0.033438 -0.011824 82675.100000 0 0 1
-12.906930 -29.502965 31.435586 45.002332 1.158403 0.797452 0.037688 -0.006510 296575.000000 0 0 1
-13.799130 -29.132985 32.472286 45.755832 1.128442 0.781744 0.049477 -0.009974 387483.000000 0 0 1
-13.233430 -28.974925 33.765086 46.419295 1.142368 0.756281 0.051853 -0.011875 8449.480000 0 0 1
-12.446630 -30.128185 -33.934394 47.054959 1.179029 2.376279 0.047084 -0.006825 451751.000000 0 0 1
-11.100530 -30.200745 34.099086 46.883413 1.218566 0.756392 0.037997 -0.009072 893.537000 0 0 1
-10.458630 -31.346785 -33.872294 47.321625 1.248767 2.368550 0.035045 -0.004145 -654376.000000 0 0 1
-8.946530 -31.429195 -33.896794 47.083196 1.293475 2.374504 0.036013 -0.007558 -839990.000000 0 0 1
-8.309330 -30.676325 -32.928294 45.764117 1.306273 2.373910 0.050821 -0.015011 77149.800000 0 0 1
-6.920630 -31.034835 -32.954094 45.793323 1.351391 2.374061 0.052532 -0.023327 614345.000000 0 0 1
-6.074930 -30.234395 -31.921494 44.384740 1.372509 2.373446 0.045858 -0.019255 -97664.700000 0 0 1
-6.477430 -30.613875 -30.613794 43.776373 1.362287 2.345245 0.059736 -0.026250 -91198.000000 0 0 1
-5.815530 -29.908265 -29.589194 42.471697 1.378747 2.341556 0.046764 -0.018167 -58670.900000 0 0 1
-6.360630 -30.246815 -28.197494 41.838094 1.363526 2.310362 0.052423 -0.026776 -257789.000000 0 0 1
-5.890230 -31.453005 -27.711894 42.331258 1.385670 2.284508 0.042694 -0.017354 -493284.000000 0 0 1
-6.609930 -31.961095 -26.618294 42.115749 1.366860 2.254963 0.053405 -0.018967 -113320.000000 0 0 1
-6.019530 -33.219405 -25.942594 42.576775 1.391536 2.225991 0.057697 -0.018303 172690.000000 0 0 1
-4.958830 -32.957335 -25.051094 41.693323 1.421454 2.215350 0.033022 -0.018061 -32861.500000 0 0 1
-4.699230 -34.043815 -24.197094 42.030506 1.433628 2.184260 0.057330 -0.020256 -174755.000000 0 0 1
-3.950630 -33.618375 -22.926994 40.883366 1.453819 2.166136 0.060370 -0.033164 -49879.800000 0 0 1
-4.747330 -32.928355 -21.970794 39.868904 1.427611 2.154449 0.072714 -0.029420 362993.000000 0 0 1
-4.939130 -31.519805 -22.128394 38.827296 1.415361 2.177203 0.060955 -0.016706 -171563.000000 0 0 1
-5.459330 -30.728065 -20.905394 37.563995 1.394965 2.160997 0.086209 -0.029717 -1040220.000000 0 0 1
-6.833730 -30.772285 -20.717894 37.720876 1.352268 2.152253 0.086662 -0.034097 -683361.000000 0 0 1
-7.373730 -29.524665 -20.251594 36.554135 1.326055 2.157977 0.084543 -0.031390 170005.000000 0 0 1
-7.649330 -28.479365 -21.342794 36.401941 1.308397 2.197292 0.091679 -0.035913 -285518.000000 0 0 1
-6.487930 -28.147615 -22.082894 36.359808 1.344256 2.223509 0.088101 -0.016594 -148012.000000 0 0 1
-6.820730 -27.111225 -23.026194 36.218041 1.324328 2.259797 0.105107 -0.031742 -637025.000000 0 0 1
-5.831030 -27.124915 -24.219094 36.828337 1.359049 2.288453 0.086155 -0.032459 2054110.000000 0 0 1
-4.441730 -26.717475 -24.021494 36.201997 1.406055 2.296338 0.092081 -0.024540 1646480.000000 0 0 1
-3.739330 -27.330305 -22.937994 35.875893 1.434821 2.264476 0.070565 -0.023127 -742606.000000 0 0 1
-2.181230 -27.141305 -23.039994 35.668607 1.490603 2.273058 0.059377 -0.024925 697825.000000 0 0 1
-1.754830 -25.792445 -23.086494 34.660003 1.502864 2.299743 0.061041 -0.024558 -74565.500000 0 0 1
-1.967830 -25.015285 -21.918094 33.317258 1.492293 2.288770 0.076965 -0.022431 -659906.000000 0 0 1
-1.728830 -23.523985 -22.318894 32.473062 1.497436 2.328568 0.068270 -0.018675 -157355.000000 0 0 1
-2.463430 -23.032185 -23.431094 32.947931 1.464245 2.361936 0.078644 -0.021294 -53133.600000 0 0 1
-3.820830 -22.729985 -23.183394 32.691294 1.404257 2.359104 0.084523 -0.024059 -156669.000000 0 0 1
-4.668230 -22.929085 -24.451194 33.843702 1.369947 2.378170 0.071850 -0.016797 -70209.300000 0 0 1
-4.419230 -21.904085 -25.421294 33.846133 1.371715 2.420499 0.071832 -0.013678 -31829.900000 0 0 1
-5.331530 -22.049185 -26.465794 34.857281 1.333548 2.432974 0.083231 -0.010938 24716.700000 0 0 1
-5.284930 -20.887885 -27.435094 34.884360 1.322983 2.475850 0.072298 -0.012655 -79824.700000 0 0 1
-5.880130 -21.106485 -28.705594 36.111920 1.299092 2.489650 0.073466 -0.015943 57475.100000 0 0 1
-5.083430 -21.759485 -29.691894 37.160799 1.341293 2.496445 0.063591 -0.019666 -278666.000000 0 0 1
-5.841230 -21.966185 -30.975994 38.420638 1.310892 2.508553 0.060812 -0.026672 -473629.000000 0 0 1
-6.095930 -20.813185 -31.767594 38.464647 1.285877 2.542576 0.068673 -0.035132 -440207.000000 0 0 1
-7.086230 -21.119185 -32.693894 39.561665 1.247065 2.543486 0.061228 -0.025770 -530206.000000 0 0 1
-7.110530 -20.329085 -34.039694 40.280666 1.234325 2.577479 0.060558 -0.028016 333560.000000 0 0 1
-5.835030 -20.595785 33.873586 40.070610 1.294719 0.563581 0.062130 -0.027316 -63531.300000 0 0 1
-5.793730 -20.046585 32.606086 38.711623 1.289449 0.569294 0.059750 -0.019006 255193.000000 0 0 1
-4.579830 -20.458585 31.739086 38.038114 1.350569 0.583749 0.044772 -0.028056 -566058.000000 0 0 1
-4.369630 -21.856085 31.640686 38.702909 1.373471 0.613692 0.050897 -0.028334 825935.000000 0 0 1
-3.286030 -22.266985 30.750786 38.108102 1.424280 0.631851 0.053264 -0.019680 1212190.000000 0 0 1
-1.844330 -22.000385 31.238186 38.252356 1.487160 0.615241 0.047616 -0.029940 -603675.000000 0 0 1
-1.285230 -20.773285 30.911786 37.265530 1.509006 0.592583 0.044459 -0.027719 228469.000000 0 0 1
-0.288230 -20.254585 31.822786 37.722951 1.556567 0.566858 0.051446 -0.029716 235979.000000 0 0 1
-0.751130 -19.833885 33.182886 38.665891 1.532943 0.539053 0.038099 -0.034407 -221806.000000 0 0 1
-1.585330 -18.678185 33.050286 37.996175 1.486123 0.515935 0.027206 -0.036329 -148525.000000 0 0 1
-2.010230 -18.411985 -34.098694 38.804164 1.462047 2.644008 0.028637 -0.038831 -108376.000000 0 0 1
-2.983630 -17.246985 -33.884094 38.137807 1.399497 2.664785 0.033502 -0.041862 -94796.700000 0 0 1
-2.513930 -15.960885 -34.152794 37.782046 1.414574 2.699697 0.044398 -0.033552 -726319.000000 0 0 1
-3.426730 -15.018085 -33.728794 37.079872 1.346463 2.713178 0.046202 -0.034226 -409202.000000 0 0 1
-3.143130 -13.553685 -34.155394 36.880518 1.342922 2.754762 0.041854 -0.039202 70408.800000 0 0 1
-1.970730 -13.074385 -33.501694 36.016480 1.421190 2.765690 0.043064 -0.031134 154378.000000 0 0 1
-1.822130 -11.678185 -33.586794 35.605799 1.416016 2.803219 0.033881 -0.022823 98236.600000 0 0 1
-1.268230 -11.038885 33.566586 35.357900 1.456410 0.319675 0.034284 -0.018709 95476.700000 0 0 1
-2.244430 -11.141385 32.529286 34.457545 1.372007 0.336126 0.031382 -0.025389 150605.000000 0 0 1
-1.763230 -11.008785 31.217286 33.148473 1.411979 0.343026 0.022959 -0.012239 -726720.000000 0 0 1
-0.957430 -12.142085 30.667486 32.997600 1.492107 0.378052 0.015240 -0.024861 -366885.000000 0 0 1
-1.647930 -13.360085 30.460886 33.302750 1.448069 0.416116 0.034796 -0.030399 264853.000000 0 0 1
-0.671630 -14.389485 30.216086 33.474173 1.524155 0.444865 0.034657 -0.032874 317826.000000 0 0 1
-1.043130 -15.815785 30.638586 34.495654 1.504937 0.477412 0.036043 -0.033355 40433.900000 0 0 1
-1.936730 -16.383885 29.700086 33.974663 1.453133 0.507045 0.049148 -0.029971 158575.000000 0 0 1
-2.321130 -17.694585 30.174586 35.056977 1.440364 0.534095 0.048693 -0.025362 -287802.000000 0 0 1
-2.975830 -18.525985 29.075886 34.604549 1.411527 0.573083 0.056749 -0.021586 -940600.000000 0 0 1
-4.266830 -18.136285 28.757386 34.265404 1.339733 0.574886 0.053258 -0.018799 -1016350.000000 0 0 1
-4.943430 -18.992885 27.850486 34.070761 1.316168 0.613860 0.052464 -0.015119 337835.000000 0 0 1
-4.328230 -19.159585 26.365686 32.878149 1.348621 0.640292 0.049492 -0.018332 -490662.000000 0 0 1
-5.012830 -20.126685 25.633286 32.973888 1.326699 0.680304 0.055907 -0.017454 -716542.000000 0 0 1
-4.734030 -21.506285 25.876686 33.978438 1.354129 0.705076 0.050551 -0.016665 -2034.290000 0 0 1
-28.914340 34.309215 -0.446814 44.870491 -0.870522 1.580754 0.011619 0.004419 -365732.000000 0 0 1
-28.247150 -33.209419 -0.073214 43.597848 0.865968 1.572476 0.021029 0.015579 78598.200000 0 0 1
-28.784210 -32.624819 1.112086 43.521791 0.847858 1.545241 0.021056 0.009978 -5915.660000 0 0 1
-28.185890 -31.222219 1.431586 42.087062 0.836463 1.536775 0.026679 0.003258 -102951.000000 0 0 1
-26.796750 -31.125619 1.610086 41.103070 0.859995 1.531614 0.019663 0.003285 -532895.000000 0 0 1
-26.376410 -29.851119 1.958186 39.882814 0.847117 1.521678 0.029232 -0.005565 -477944.000000 0 0 1
-24.889130 -29.609319 2.177986 38.741763 0.871794 1.514549 0.033334 -0.003759 -603696.000000 0 0 1
-24.475930 -30.393419 3.231386 39.157029 0.892830 1.488179 0.025808 0.002467 34429.900000 0 0 1
-23.143930 -30.026819 3.560186 38.077898 0.914131 1.477162 0.023623 0.000214 -180584.000000 0 0 1
-22.544230 -30.510319 4.881986 38.248604 0.934434 1.442809 0.015259 0.002742 -589530.000000 0 0 1
-23.126730 -29.997619 6.012086 38.351636 0.914020 1.413385 0.008215 0.003932 -410929.000000 0 0 1
-22.565230 -30.565119 7.181786 38.665154 0.934846 1.383968 0.012386 0.006008 -144597.000000 0 0 1
-23.052630 -29.948819 8.487686 38.734950 0.914785 1.349882 0.007183 -0.003523 -478519.000000 0 0 1
-22.553430 -28.626619 8.689786 37.465356 0.903509 1.336723 0.018179 -0.009633 34276.600000 0 0 1
-22.974630 -28.172419 9.998386 37.702607 0.886675 1.302394 0.009575 -0.002818 -59788.900000 0 0 1
-22.075630 -27.082619 10.600886 36.512744 0.886903 1.276221 0.021005 -0.018118 262129.000000 0 0 1
-20.783130 -27.588519 10.902986 36.220712 0.925170 1.265039 0.018166 -0.016288 51669.800000 0 0 1
-20.141430 -26.715219 11.853586 35.494896 0.924784 1.230303 0.030874 -0.021587 403036.000000 0 0 1
-18.837530 -27.275619 12.481286 35.420255 0.966382 1.210686 0.040105 -0.018895 432451.000000 0 0 1
-19.085130 -28.188819 13.507386 36.623779 0.975642 1.193063 0.042240 -0.015633 -242250.000000 0 0 1
-17.838330 -28.608119 14.020286 36.512997 1.013247 1.176693 0.040211 -0.017024 245673.000000 0 0 1
-17.902030 -29.631819 15.156886 37.792309 1.027332 1.158125 0.049134 -0.021328 -39012.300000 0 0 1
-18.162730 -30.954119 14.607686 38.748248 1.040167 1.184252 0.048421 -0.014498 -143216.000000 0 0 1
-17.687430 -31.915819 15.549186 39.664113 1.064742 1.167968 0.061290 -0.008296 262780.000000 0 0 1
-17.584130 -33.339219 14.973186 40.557385 1.085446 1.192664 0.054510 -0.009867 -3201.070000 0 0 1
-17.297930 34.333115 15.907086 41.605488 -1.104092 1.178478 0.064457 -0.002465 -66563.800000 0 0 1
-17.605630 33.107615 15.269786 40.487514 -1.082057 1.184081 0.046251 -0.008996 179277.000000 0 0 1
-17.235830 31.776315 15.998486 39.531755 -1.073798 1.154146 0.053123 -0.012222 -26463.000000 0 0 1
-18.033730 31.641915 17.144286 40.253606 -1.052779 1.130832 0.064573 -0.016587 272556.000000 0 0 1
-17.612230 30.487415 17.888986 39.492898 -1.046944 1.100706 0.044933 -0.007906 133063.000000 0 0 1
-18.449630 30.450415 19.172986 40.437854 -1.026057 1.076815 0.047476 -0.006765 -100347.000000 0 0 1
-18.072830 31.519615 20.015686 41.481816 -1.050178 1.067270 0.038071 -0.006034 157333.000000 0 0 1
-19.055930 31.701815 21.023186 42.545363 -1.029569 1.053956 0.040988 -0.003973 186749.000000 0 0 1
-18.730230 32.964815 21.896186 43.782914 -1.054096 1.047073 0.025436 -0.001103 922045.000000 0 0 1
-17.632630 32.766115 22.824686 43.651968 -1.077107 1.020572 0.009243 -0.009103 470023.000000 0 0 1
-17.595330 33.700015 23.855386 44.881690 -1.089613 1.010406 0.000375 -0.008125 103208.000000 0 0 1
-18.449330 33.255015 25.086486 45.558815 -1.064288 0.987666 0.002868 -0.013363 812020.000000 0 0 1
-19.855030 33.437815 24.891586 46.172511 -1.034956 1.001429 0.023900 -0.017909 474344.000000 0 0 1
-20.587430 32.404115 25.549686 46.115675 -1.004800 0.983593 0.025068 -0.014401 -146946.000000 0 0 1
-22.069730 32.505215 25.166286 46.658375 -0.974331 1.001104 0.044261 -0.027171 -413373.000000 0 0 1
-22.224230 32.116615 23.792986 45.732916 -0.965470 1.023641 0.061447 -0.010150 1024030.000000 0 0 1
-23.538830 32.496315 23.329486 46.414997 -0.943912 1.044160 0.051852 -0.015245 906661.000000 0 0 1
-23.815330 31.981715 21.848886 45.468384 -0.930725 1.069538 0.038441 -0.022468 -78904.800000 0 0 1
-23.135930 32.735715 20.867986 45.192601 -0.955555 1.090822 0.049703 -0.025385 34934.800000 0 0 1
-22.978630 31.920615 19.716286 43.996308 -0.946860 1.106118 0.027531 -0.003137 25048.700000 0 0 1
-22.249430 32.704815 18.575486 43.700009 -0.973407 1.131759 0.027729 0.010787 323103.000000 0 0 1
-20.925330 33.085115 18.936686 43.486692 -1.006844 1.120248 0.028458 0.007356 -115447.000000 0 0 1
-20.409130 33.912215 17.897586 43.438399 -1.029038 1.146124 0.053035 0.008882 141579.000000 0 0 1
-19.245130 -33.970319 18.517686 43.211831 1.055352 1.127928 0.065769 -0.005350 189900.000000 0 0 1
-19.695030 -33.016419 19.488786 43.102099 1.032938 1.101618 0.067059 -0.013318 214031.000000 0 0 1
-18.570130 -32.388719 20.039886 42.373056 1.050202 1.078172 0.041717 -0.017861 -553863.000000 0 0 1
-18.953630 -31.315219 21.084686 42.242716 1.026523 1.048200 0.036187 -0.009969 -172857.000000 0 0 1
-19.093230 -30.059219 20.493486 41.086385 1.004905 1.048594 0.070277 -0.007170 148831.000000 0 0 1
-19.705130 -29.232319 21.447386 41.265131 0.977674 1.024243 0.066966 -0.007929 210750.000000 0 0 1
-20.637830 -28.141919 20.814786 40.634259 0.938038 1.032997 0.064364 -0.007073 195672.000000 0 0 1
-19.897330 -27.067819 20.215586 39.207659 0.936905 1.029085 0.060073 0.002499 326455.000000 0 0 1
-20.640230 -25.881519 20.090186 38.723219 0.897588 1.025332 0.061620 0.010602 -772629.000000 0 0 1
-21.701930 -25.830719 19.002586 38.720771 0.872043 1.057835 0.053465 0.000304 -273928.000000 0 0 1
-22.947530 -26.307719 19.520286 39.996585 0.853513 1.060943 0.050159 0.002448 278620.000000 0 0 1
-23.949730 -26.050519 18.562286 39.959700 0.827389 1.087698 0.036605 0.005480 18198.300000 0 0 1
-25.432080 -26.176019 19.027586 41.158519 0.799812 1.090209 0.022556 0.008745 374896.000000 0 0 1
-25.891650 -27.430919 19.439886 42.435151 0.814257 1.094931 0.020161 0.011474 -103877.000000 0 0 1
-25.979120 -28.418119 18.385086 42.667500 0.830205 1.125315 0.025047 0.009920 -401016.000000 0 0 1
-26.789100 -29.688219 18.811886 44.192005 0.836686 1.131077 0.036634 0.004196 621631.000000 0 0 1
-28.178510 -29.406719 18.896686 44.898422 0.806723 1.136385 0.025281 0.004960 454951.000000 0 0 1
-28.996430 -29.994219 17.875686 45.387072 0.802311 1.165980 0.023939 0.013865 11130.100000 0 0 1
-30.439510 -29.484919 17.883586 45.997249 0.769470 1.171471 0.026280 0.011335 -196626.000000 0 0 1
-30.690820 -28.190419 17.383586 45.153242 0.742959 1.175598 0.034928 0.010633 -18602.700000 0 0 1
-32.029140 -27.808919 17.660786 45.946765 0.714987 1.176266 0.039651 0.028583 -56175.200000 0 0 1
-32.479760 -26.395819 17.231386 45.261405 0.682428 1.180234 0.034055 0.014542 -123038.000000 0 0 1
-32.833010 -26.430419 15.854286 45.032566 0.677779 1.211022 0.057090 -0.004663 27987.200000 0 0 1
-33.396080 -25.276019 15.280886 44.583414 0.647874 1.220956 0.055256 -0.010564 -17917.100000 0 0 1
-32.428920 -24.173419 14.714486 43.040738 0.640568 1.221887 0.034033 -0.003011 254258.000000 0 0 1
-31.834810 -23.507519 15.841086 42.626267 0.636050 1.190035 0.018608 0.002157 80997.500000 0 0 1
-31.612160 -22.146619 15.511786 41.598280 0.611110 1.188669 0.012103 0.004479 98667.000000 0 0 1
-32.756080 -21.155619 15.908686 42.114217 0.573455 1.183430 0.019895 -0.003305 298646.000000 0 0 1
-32.805500 -20.932719 17.275886 42.577410 0.567954 1.152994 0.027667 0.000015 103873.000000 0 0 1
-33.563060 -19.777319 17.516986 42.713770 0.532484 1.148231 0.033408 -0.002067 -193811.000000 0 0 1
-33.926560 -19.507019 18.990286 43.499037 0.521818 1.119016 0.038705 -0.006252 -92100.000000 0 0 1
-35.041736 -20.242619 19.449986 44.899765 0.523840 1.122771 0.043085 -0.003217 293221.000000 0 0 1
-35.594750 -19.665919 20.615286 45.593033 0.504757 1.101612 0.043727 0.004873 -846246.000000 0 0 1
35.065661 -20.044519 20.935186 45.493575 -0.519297 1.092600 0.048573 0.005998 -743243.000000 0 0 1
34.750311 -21.400619 21.359086 46.062796 -0.551985 1.088635 0.057423 -0.002752 108641.000000 0 0 1
35.398111 -21.922219 22.521286 47.337283 -0.554493 1.074966 0.041946 0.009860 -265306.000000 0 0 1
34.841551 -23.285419 22.931786 47.770402 -0.589149 1.070094 0.050119 0.013162 -345542.000000 0 0 1
33.663311 -23.183219 23.682686 47.239283 -0.603088 1.045656 0.055267 -0.000819 -98106.200000 0 0 1
33.386691 -24.490619 24.241486 47.980321 -0.632886 1.041138 0.051326 -0.013361 86092.400000 0 0 1
32.306741 -24.639219 25.379686 47.905586 -0.651558 1.012449 0.050766 -0.015088 243217.000000 0 0 1
30.982241 -24.417119 24.987786 46.695658 -0.667443 1.006146 0.053738 -0.010633 -300348.000000 0 0 1
30.151331 -24.658519 26.125286 46.900703 -0.685516 0.979986 0.020414 -0.000920 987495.000000 0 0 1
28.645941 -24.991519 25.794886 45.940637 -0.717371 0.974619 0.018021 -0.004242 1293750.000000 0 0 1
27.859591 -23.839119 25.376886 44.592004 -0.707787 0.965397 0.025814 -0.003292 -361674.000000 0 0 1
26.509651 -24.189019 25.439286 43.988948 -0.739657 0.954140 0.027401 0.000008 -64153.400000 0 0 1
25.551751 -23.113619 24.812586 42.459343 -0.735340 0.946675 0.033175 -0.000008 -114998.000000 0 0 1
25.676451 -23.024619 23.398886 41.676386 -0.731001 0.974669 0.024057 0.007836 -799789.000000 0 0 1
26.780451 -22.310419 23.010486 41.766372 -0.694592 0.987314 0.020126 0.015958 -800323.000000 0 0 1
26.821751 -21.689219 21.568786 40.682197 -0.679989 1.011986 0.025639 0.004768 -285561.000000 0 0 1
25.918751 -20.640819 21.502986 39.499412 -0.672521 0.995138 0.019984 0.005291 -343099.000000 0 0 1
25.979051 -19.947019 20.270386 38.518609 -0.654803 1.016613 0.015918 0.000109 293870.000000 0 0 1
25.115151 -18.630119 20.271286 37.266301 -0.638225 0.995650 0.015027 0.009254 216853.000000 0 0 1
25.596251 -17.526819 21.063786 37.497208 -0.600412 0.974305 0.015151 -0.012317 69328.700000 0 0 1
25.549251 -17.847119 22.448586 38.408631 -0.609744 0.946573 0.016876 -0.005799 -59294.000000 0 0 1
25.671951 -16.588719 23.332886 38.453326 -0.573686 0.918787 0.033470 -0.008330 327712.000000 0 0 1
24.495251 -15.774819 23.307186 37.310685 -0.572142 0.896076 0.017832 -0.004751 569902.000000 0 0 1
24.769251 -14.549819 23.990386 37.426617 -0.531114 0.874999 0.022560 -0.001773 -18185.000000 0 0 1
23.576351 -13.614819 23.758786 36.134299 -0.523694 0.853283 0.028387 -0.007535 280234.000000 0 0 1
22.401851 -14.069019 24.403386 35.990353 -0.560775 0.825685 0.035166 -0.002623 1366720.000000 0 0 1
21.206351 -13.293719 24.027786 34.695343 -0.559946 0.805797 0.037565 -0.002106 2595230.000000 0 0 1
19.818751 -13.843719 24.578286 34.474971 -0.609729 0.777127 0.038379 -0.000935 1009280.000000 0 0 1
19.451351 -15.000719 23.908286 34.278022 -0.656926 0.798919 0.046502 -0.004374 633839.000000 0 0 1
18.224951 -15.597819 24.383586 34.205264 -0.707880 0.777228 0.043839 0.002454 800706.000000 0 0 1
17.672151 -16.780619 23.616186 33.935503 -0.759527 0.801105 0.056940 -0.004112 -282067.000000 0 0 1
18.259851 -17.993819 23.969586 35.096165 -0.778060 0.818977 0.044882 0.000995 -46844.500000 0 0 1
17.975751 -19.000519 22.984686 34.820155 -0.813105 0.849848 0.064567 -0.005085 -59762.700000 0 0 1
18.404051 -20.403619 23.538686 36.181301 -0.836878 0.862454 0.047630 -0.004270 -1032870.000000 0 0 1
17.409751 -20.951619 24.340786 36.531407 -0.877466 0.841564 0.039998 -0.005106 -113829.000000 0 0 1
17.416151 -22.389419 24.558486 37.519697 -0.909693 0.857210 0.047719 -0.003706 -600614.000000 0 0 1
17.004751 -23.240519 23.301886 37.044044 -0.939120 0.890489 0.041212 0.000398 -423953.000000 0 0 1
17.934951 -23.442819 22.288186 36.986369 -0.917732 0.924034 0.040940 0.005440 -780703.000000 0 0 1
19.073651 -24.162619 22.666386 38.228280 -0.902560 0.936114 0.043143 0.005507 -698002.000000 0 0 1
19.994951 -24.444619 21.442986 38.172492 -0.885194 0.974310 0.035935 0.022144 -32059.400000 0 0 1
19.375151 -25.207319 20.446086 37.800104 -0.915477 0.999289 0.036138 0.004387 105115.000000 0 0 1
20.239051 -25.309119 19.335386 37.736294 -0.896254 1.032840 0.035724 0.005284 87890.000000 0 0 1
19.551551 -26.035819 18.155186 37.279188 -0.926689 1.062138 0.026133 0.000086 75645.500000 0 0 1
19.318751 -27.414019 18.360586 38.234196 -0.956921 1.069898 0.043754 -0.005893 -124198.000000 0 0 1
18.524551 -28.048819 17.377186 37.839951 -0.987117 1.093670 0.049322 -0.012688 -87472.000000 0 0 1
17.765851 -29.321719 17.895186 38.673329 -1.026054 1.089728 0.044633 -0.004948 383295.000000 0 0 1
16.765451 -28.942919 18.839886 38.388986 -1.045767 1.057831 0.056608 -0.007464 -318752.000000 0 0 1
15.948251 -30.034819 19.126786 39.016292 -1.082664 1.058448 0.061086 -0.009083 -250514.000000 0 0 1
14.783551 -29.583419 20.031686 38.665237 -1.107369 1.026192 0.046065 -0.003324 -177565.000000 0 0 1
13.941151 -28.684319 19.338086 37.297553 -1.118395 1.025722 0.045183 -0.008189 -523752.000000 0 0 1
12.703751 -28.475019 19.986286 37.035978 -1.151160 1.000781 0.023069 -0.000518 -46593.300000 0 0 1
11.695251 -27.901119 18.990486 35.719601 -1.173876 1.010244 0.025226 -0.004308 -525736.000000 0 0 1
11.359951 -28.823619 17.951286 35.806399 -1.195370 1.045646 0.027480 -0.011562 52565.800000 0 0 1
10.450551 -28.266919 17.029986 34.615794 -1.216672 1.056443 0.057858 -0.007897 -71172.200000 0 0 1
10.266351 -29.156519 15.770586 34.701757 -1.232242 1.099030 0.051878 -0.008609 -154521.000000 0 0 1
9.314451 -30.185819 15.942486 35.385104 -1.271495 1.103424 0.058501 -0.009762 33551.100000 0 0 1
9.517751 -31.213319 15.008986 35.918360 -1.274826 1.139703 0.046943 -0.010073 -795067.000000 0 0 1
8.330851 -32.106619 14.763786 36.307127 -1.316920 1.152027 0.044976 -0.005393 -742953.000000 0 0 1
8.090651 -33.135919 15.650286 37.528379 -1.331316 1.140626 0.048926 -0.011941 -877182.000000 0 0 1
6.946051 -33.828919 15.362286 37.797397 -1.368282 1.152245 0.033688 -0.002982 -1058660.000000 0 0 1
6.878151 33.775515 16.427086 38.183027 1.369900 1.126060 0.048034 -0.010293 -516630.000000 0 0 1
7.931051 32.868515 16.423486 37.589517 1.334026 1.118628 0.056984 -0.014783 -551520.000000 0 0 1
7.803451 31.884915 17.384886 37.145336 1.330776 1.083744 0.059330 -0.021328 -99758.100000 0 0 1
9.161451 31.195815 17.576986 36.960270 1.285152 1.075191 0.056667 -0.020881 -317589.000000 0 0 1
9.676751 30.453515 16.498986 35.962100 1.263131 1.094165 0.055040 -0.024042 99194.400000 0 0 1
10.766351 29.614515 16.868186 35.741706 1.222102 1.079299 0.058421 -0.024010 161698.000000 0 0 1
11.591151 28.950715 15.735086 34.929810 1.189966 1.103496 0.041875 -0.018368 416330.000000 0 0 1
10.848351 28.051715 14.857886 33.546121 1.201784 1.111955 0.041211 -0.022015 411063.000000 0 0 1
11.752851 27.372515 13.992886 32.911776 1.165233 1.131654 0.035046 -0.010101 393299.000000 0 0 1
-9.323330 -9.177585 19.483267 23.468068 0.777521 0.591324 0.037415 -0.016778 -184726.000000 0 1 0
-9.466830 -9.201885 18.062067 22.372613 0.771207 0.631184 0.043330 -0.019800 81410.100000 0 1 0
-9.302730 -10.531985 17.619567 22.536917 0.847294 0.673234 0.046077 -0.024659 -167960.000000 0 1 0
-9.638930 -10.725685 16.121267 21.629714 0.838712 0.729767 0.045951 -0.021528 990026.000000 0 1 0
-11.054430 -10.493485 15.930867 22.047815 0.759372 0.763298 0.049957 -0.023131 1028470.000000 0 1 0
-11.620230 -11.008685 14.727867 21.751573 0.758380 0.826989 0.059283 -0.017893 270785.000000 0 1 0
-11.667530 -12.506685 14.487567 22.415129 0.820097 0.868032 0.046842 -0.019794 571860.000000 0 1 0
-10.367930 -13.015785 14.085767 21.801685 0.898153 0.868351 0.047520 -0.019780 930886.000000 0 1 0
-10.262030 -14.444085 14.175767 22.691258 0.953081 0.896019 0.056434 -0.017596 246320.000000 0 1 0
-9.878830 -15.021385 15.580167 23.790227 0.989061 0.856749 0.060824 -0.018110 273344.000000 0 1 0
-10.993930 -15.058985 16.457567 24.869480 0.940181 0.847636 0.069224 -0.007576 -288722.000000 0 1 0
-10.666530 -15.285785 17.788367 25.765405 0.961544 0.808758 0.071841 -0.011152 -538790.000000 0 0 1
-11.729430 -15.005585 18.866867 26.808688 0.907332 0.790121 0.042037 -0.005874 -372044.000000 0 0 1
-12.155830 -13.689785 19.020667 26.400003 0.844679 0.766303 0.042615 -0.006885 422639.000000 0 0 1
-13.257330 -13.302485 18.190967 26.146208 0.787098 0.801346 0.057331 -0.004404 972317.000000 0 0 1
-14.713130 -13.492485 18.754967 27.391096 0.742148 0.816590 0.027424 0.001115 600498.000000 0 0 1
-15.048230 -14.843185 18.876367 28.338782 0.778539 0.841833 0.033980 0.000629 123083.000000 0 0 1
-16.180030 -14.967885 19.735367 29.585734 0.746502 0.840545 0.045525 0.002875 257276.000000 0 0 1
-16.561830 -16.382385 20.164467 30.810428 0.779951 0.857316 0.043191 -0.004316 -155889.000000 0 0 1
-17.384730 -17.021185 19.218267 31.004699 0.774832 0.902245 0.045248 0.001490 -218409.000000 0 0 1
-17.635630 -18.395585 19.549467 32.118447 0.806487 0.916416 0.028754 -0.001687 -129494.000000 0 0 1
-19.021330 -18.823985 19.025167 32.834591 0.780184 0.952774 0.041671 0.005315 -61329.900000 0 0 1
-19.155430 -18.995385 17.603967 32.212650 0.781203 0.992626 0.037760 0.002678 42314.500000 0 0 1
-19.364130 -17.718485 16.941967 31.240110 0.741049 0.997607 0.035859 -0.001651 -534850.000000 0 0 1
-18.984430 -17.841685 15.438167 30.283185 0.754377 1.035852 0.034555 -0.007286 -520726.000000 0 0 1
-19.790730 -18.731185 14.729267 30.975500 0.757900 1.075249 0.034203 0.000235 -104888.000000 0 0 1
-19.479830 -18.600085 13.326167 30.050186 0.762300 1.111337 0.046540 -0.007539 290762.000000 0 0 1
-19.812230 -19.894985 12.477267 30.724861 0.787482 1.152618 0.034949 -0.002064 866272.000000 0 0 1
-18.807630 -20.913285 12.759167 30.885090 0.838360 1.144922 0.028174 -0.008904 817997.000000 0 0 1
-18.909430 -22.036385 11.926367 31.391193 0.861618 1.181079 0.021478 -0.005610 -337010.000000 0 0 1
-17.963430 -23.148185 12.500167 31.855572 0.910850 1.167556 0.024774 -0.008140 272441.000000 0 0 1
-17.915630 -24.367785 11.791467 32.462246 0.936823 1.199057 0.020541 -0.019150 -214825.000000 0 0 1
-17.085330 -24.250885 10.669867 31.525545 0.957041 1.225526 0.028931 -0.014698 -426453.000000 0 0 1
-17.374530 -25.371495 9.638067 32.225446 0.970341 1.267065 0.048719 -0.015861 48971.900000 0 0 1
-18.551730 -25.145175 8.897267 32.490119 0.935159 1.293407 0.035626 -0.009587 -381816.000000 0 0 1
-18.889630 -26.313735 8.228267 33.420579 0.948183 1.322035 0.045785 -0.012024 -13210.900000 0 0 1
-19.991330 -26.147655 7.167267 33.685647 0.918045 1.356388 0.042306 -0.016054 -42464.300000 0 0 1
-19.650830 -25.506705 5.994467 32.751805 0.914355 1.386732 0.041873 -0.017962 -248674.000000 0 0 1
-20.797830 -25.071075 5.303067 33.003500 0.878292 1.409415 0.038508 -0.022303 -166054.000000 0 0 1
-20.529730 -23.878785 4.359767 31.791095 0.860670 1.433225 0.041252 -0.017446 213158.000000 0 0 1
-21.629130 -23.660185 3.477767 32.244666 0.830214 1.462731 0.047095 -0.020068 165748.000000 0 0 1
-21.504530 -22.441885 2.722167 31.200852 0.806724 1.483439 0.049304 -0.013755 108864.000000 0 0 1
-21.941930 -22.565085 1.224767 31.498117 0.799399 1.531903 0.039290 -0.021412 -7614.060000 0 0 1
-21.188630 -23.473985 0.438667 31.625598 0.836523 1.556925 0.033696 -0.029446 222091.000000 0 0 1
-21.692830 -23.446185 -0.885233 31.954438 0.824222 1.598503 0.041740 -0.031334 -93590.000000 0 0 1
-20.851430 -24.336085 -1.828433 32.099382 0.862361 1.627789 0.043379 -0.028566 154038.000000 0 0 1
-19.518030 -23.835185 -2.010933 30.872534 0.884652 1.635979 0.053261 -0.020649 666130.000000 0 0 1
-18.875830 -24.252485 -3.210233 30.899605 0.909425 1.674877 0.049478 -0.013533 197826.000000 0 0 1
-18.510130 -25.764095 -3.345633 31.899949 0.947797 1.675869 0.058423 -0.022308 -741874.000000 0 0 1
-19.645630 -26.569305 -3.444933 33.222677 0.934107 1.674675 0.087919 -0.026873 -484570.000000 0 0 1
-19.241630 -27.889905 -3.793733 34.095154 0.966872 1.682296 0.091360 -0.028257 -534789.000000 0 0 1
-20.303530 -28.819425 -4.335433 35.518848 0.957051 1.693162 0.109229 -0.030615 -325440.000000 0 0 1
-20.822230 -28.523805 -5.663233 35.766533 0.940222 1.729804 0.096912 -0.021484 75359.200000 0 0 1
-21.737430 -29.449085 -6.165433 37.118419 0.934932 1.737671 0.083539 -0.033346 -396052.000000 0 0 1
-22.487730 -29.037335 -7.417933 37.468527 0.911835 1.770091 0.071767 -0.001940 -114341.000000 0 0 1
-21.664630 -28.870495 -8.574733 37.099700 0.927035 1.804032 0.111101 -0.012263 254856.000000 0 0 1
-22.377430 -28.746705 -9.793933 37.723249 0.909344 1.833431 0.103309 -0.010492 149521.000000 0 0 1
-23.233430 -27.498085 -10.129733 37.397171 0.869264 1.845092 0.065325 -0.001357 194922.000000 0 0 1
-22.533530 -26.266165 -10.350033 36.121940 0.861738 1.861400 0.065415 -0.007079 122711.000000 0 0 1
-22.143030 -25.545465 -9.210833 35.038893 0.856625 1.836797 0.051417 -0.012564 -55692.800000 0 0 1
-21.610630 -24.173485 -9.678733 33.838655 0.841317 1.860873 0.044365 -0.009459 -433189.000000 0 0 1
-22.547030 -23.277485 -10.188633 33.970842 0.801337 1.875408 0.035435 -0.001522 -578602.000000 0 0 1
-22.050330 -22.064985 -10.504233 32.915339 0.785730 1.895606 0.020899 0.009871 -166843.000000 0 0 1
-23.184430 -21.028685 -10.661233 33.066377 0.736679 1.899080 0.008986 0.015876 -75574.300000 0 0 1
-24.014030 -21.192185 -11.801133 34.132815 0.723057 1.923825 -0.007334 0.023585 -78154.700000 0 0 1
-25.304860 -20.668085 -11.652633 34.688464 0.684879 1.913381 -0.007784 0.029739 -198284.000000 0 0 1
-25.463460 -19.161585 -11.760933 33.968716 0.645107 1.924344 -0.001975 0.011113 -1001110.000000 0 0 1
-25.238110 -18.753985 -13.113433 34.068112 0.639059 1.965915 0.001169 0.009283 333824.000000 0 0 1
-25.224850 -17.329985 -13.282633 33.362401 0.601962 1.980276 0.017322 0.002940 267834.000000 0 0 1
-24.173730 -16.436085 -12.521233 31.800871 0.597119 1.975492 0.015361 0.012283 247005.000000 0 0 1
-24.484730 -16.314985 -11.133333 31.458414 0.587772 1.932541 0.013273 0.005312 -16003.000000 0 0 1
-23.275130 -16.362985 -10.442133 30.307047 0.612753 1.922550 0.007476 0.012816 -364935.000000 0 0 1
-23.430130 -16.694985 -8.944033 30.127881 0.619095 1.872208 -0.003619 -0.005016 -75718.100000 0 0 1
-23.649030 -18.082285 -8.750633 31.029328 0.652786 1.856687 -0.003620 0.003629 171405.000000 0 0 1
-24.427130 -18.208585 -7.576833 31.394994 0.640566 1.814542 0.023605 -0.004145 133809.000000 0 0 1
-24.423230 -19.660985 -7.090133 32.145271 0.677789 1.793190 0.037636 -0.007030 -90544.200000 0 0 1
-25.214160 -20.546585 -7.864133 33.462824 0.683750 1.808026 0.011372 -0.013564 231236.000000 0 0 1
-25.294190 -21.793085 -7.264333 34.168774 0.711181 1.785033 0.006375 0.001191 -40626.300000 0 0 1
-25.915080 -22.774485 -8.281133 35.480215 0.720985 1.806371 -0.002022 0.010210 88038.500000 0 0 1
-26.091020 -24.061185 -7.796833 36.338307 0.744947 1.787040 0.009483 0.002657 -267378.000000 0 0 1
-26.160890 -25.005085 -8.858533 37.257483 0.762813 1.810861 0.007092 0.011169 127874.000000 0 0 1
-26.907540 -26.267295 -8.396733 38.529101 0.773358 1.790492 0.000229 0.008462 -223255.000000 0 0 1
-26.138770 -27.009435 -7.492033 38.325911 0.801779 1.767545 0.025866 0.002569 -97702.700000 0 0 1
-26.888990 -27.998005 -6.843233 39.417457 0.805601 1.745290 0.007942 0.001560 -113521.000000 0 0 1
-26.228610 -28.611625 -5.590933 39.215094 0.828825 1.713855 0.025280 0.002172 -103141.000000 0 0 1
-26.207070 -27.736925 -4.451333 38.418249 0.813751 1.686922 0.014926 -0.003683 15904.400000 0 0 1
-25.238110 -28.100525 -3.507733 37.932913 0.839012 1.663401 0.042665 -0.005757 -169964.000000 0 0 1
-25.690470 -29.130225 -2.408133 38.914899 0.848062 1.632718 0.033046 0.002291 -187639.000000 0 0 1
-25.816190 -30.463145 -2.947333 40.039551 0.867781 1.644474 0.033945 0.000000 -202130.000000 0 0 1
-25.846690 -31.448665 -1.886633 40.750819 0.882862 1.617110 0.030002 -0.001680 349447.000000 0 0 1
-24.623430 -31.715275 -0.949533 40.163087 0.910618 1.594440 0.045838 -0.010925 24573.500000 0 0 1
-23.389630 -31.915505 -1.591433 39.600592 0.938355 1.610994 0.052117 -0.023627 -616854.000000 0 0 1
-22.375130 -32.019655 -0.636733 39.068020 0.960880 1.587095 0.027040 -0.013629 429438.000000 0 0 1
-21.304430 -30.869115 -0.598533 37.511854 0.966709 1.586753 0.044160 -0.013125 380678.000000 0 0 1
-21.813430 -29.666675 -0.003933 36.823054 0.936780 1.570903 0.049030 -0.017327 15648.200000 0 0 1
-21.933130 -28.617335 -0.923033 36.067520 0.916864 1.596391 0.053866 -0.028937 -114752.000000 0 0 1
-22.586330 -27.301515 -0.397233 35.435474 0.879634 1.582007 0.057866 -0.014030 -1004060.000000 0 0 1
-23.955930 -27.415195 -0.231033 36.407868 0.852635 1.577142 0.044189 -0.013332 -1009480.000000 0 0 1
-24.687130 -26.240655 -0.007233 36.028133 0.815893 1.570997 0.047173 -0.036081 136804.000000 0 0 1
-24.355430 -25.326965 1.226967 35.158890 0.804951 1.535891 0.044028 -0.023888 -563626.000000 0 0 1
-24.697330 -26.007185 2.422267 35.947172 0.811226 1.503361 0.029146 -0.022606 -52955.400000 0 0 1
-24.414630 -25.273825 3.610867 35.325327 0.802688 1.468400 0.036098 -0.023931 -101485.000000 0 0 1
-25.386720 -24.124285 3.986967 35.247164 0.759906 1.457439 0.041578 -0.013556 -149588.000000 0 0 1
-25.268200 -23.052985 3.054267 34.340218 0.739587 1.481737 0.040724 -0.013533 413184.000000 0 0 1
-26.202040 -22.006385 3.383267 34.384217 0.698585 1.472241 0.036565 -0.007854 197440.000000 0 0 1
-26.198440 -20.890885 2.341267 33.589714 0.673159 1.501038 0.034786 -0.004287 654338.000000 0 0 1
-24.938330 -20.227785 2.168267 32.183613 0.681480 1.503373 0.031997 -0.002506 601139.000000 0 0 1
-25.000830 -19.291685 1.126767 31.598737 0.657209 1.535130 0.028856 -0.012457 -109217.000000 0 0 1
-23.744230 -18.396085 1.186167 30.060129 0.659160 1.531326 0.045315 -0.011092 127809.000000 0 0 1
-22.617330 -19.201785 0.835367 29.680802 0.703905 1.542648 0.042065 -0.014201 177170.000000 0 0 1
-21.445030 -18.594385 1.385967 28.417624 0.714322 1.522006 0.048829 -0.013880 409548.000000 0 0 1
-20.190430 -19.471185 1.131767 28.072431 0.767266 1.530469 0.045284 -0.017892 -317822.000000 0 0 1
-19.818930 -19.539985 -0.226133 27.832573 0.778311 1.578921 0.033777 -0.017686 -423747.000000 0 0 1
-18.674530 -20.339185 -0.193433 27.612641 0.828041 1.577802 0.054890 -0.015134 -374544.000000 0 0 1
-18.234530 -20.727985 -1.623233 27.654698 0.849307 1.629527 0.056375 -0.015141 95282.000000 0 0 1
-17.748430 -19.668085 -2.417233 26.602318 0.836658 1.661787 0.045353 -0.010801 -86957.200000 0 0 1
-17.359730 -20.152085 -3.679533 26.851549 0.859700 1.708261 0.045595 -0.004397 49743.100000 0 0 1
-16.775530 -19.004185 -4.516533 25.748330 0.847606 1.747119 0.049074 0.007806 899045.000000 0 0 1
-15.365330 -18.819185 -4.321133 24.676452 0.886092 1.746815 0.056533 -0.004050 987188.000000 0 1 0
-14.658330 -18.358385 -5.475133 24.122065 0.896999 1.799768 0.053113 0.003561 -1575300.000000 0 1 0
-13.195030 -18.221285 -5.379133 23.131345 0.944042 1.805492 0.065696 -0.005849 -2133290.000000 0 1 0
-12.510030 -19.397885 -5.415833 23.708860 0.998003 1.801262 0.055905 -0.011749 -358517.000000 0 1 0
-11.157430 -19.166785 -5.762233 22.914127 1.043625 1.824996 0.048486 -0.017147 646444.000000 0 1 0
-10.195230 -20.400385 -5.647933 23.495054 1.107343 1.813562 0.032070 -0.018166 648054.000000 0 1 0
-10.690530 -21.468185 -6.454033 24.835960 1.108773 1.833680 0.044935 -0.015640 197286.000000 0 1 0
-9.629530 -22.332385 -6.840833 25.263813 1.163693 1.844995 0.038450 -0.012745 93992.100000 0 0 1
-10.083730 -23.434585 -7.819433 26.683420 1.164451 1.868206 0.040123 -0.008936 -242213.000000 0 0 1
-10.487230 -22.918385 -9.101133 26.796734 1.141648 1.917326 0.046224 -0.007019 -31945.900000 0 0 1
-10.216830 -23.875285 -10.113233 27.869164 1.166451 1.942156 0.064339 -0.011638 -70416.400000 0 0 1
-10.978530 -23.642985 -11.431333 28.463911 1.136076 1.984068 0.089206 -0.016190 -144347.000000 0 0 1
-10.412530 -22.665885 -12.244833 27.786670 1.140159 2.027144 0.068190 -0.006856 -335409.000000 0 0 1
-11.344830 -22.273585 -13.222133 28.277952 1.099705 2.057345 0.070601 -0.018686 -547953.000000 0 0 1
-10.956530 -21.124685 -14.174633 27.698702 1.092332 2.108009 0.053791 -0.008357 -465376.000000 0 0 1
-10.577330 -19.969385 -13.451833 26.298442 1.083690 2.107734 0.063252 -0.005637 74028.800000 0 0 1
-10.600830 -18.806385 -14.171133 25.823995 1.057509 2.151675 0.054128 0.004653 -255418.000000 0 0 1
-10.121830 -17.593485 -13.359533 24.299368 1.048724 2.152908 0.064015 0.000138 -91349.700000 0 1 0
-11.082030 -17.011885 -12.458533 23.820803 0.993417 2.121176 0.062292 -0.009744 166151.000000 0 1 0
-10.706530 -15.884385 -11.738633 22.466396 0.977714 2.120574 0.059069 -0.008489 -56393.600000 0 1 0
-10.453630 -14.556185 -12.481033 21.838889 0.947988 2.179135 0.060570 0.001133 860539.000000 0 1 0
-11.660730 -14.110885 -13.127333 22.525909 0.880185 2.192925 0.055846 0.015894 508842.000000 0 1 0
-11.434930 -13.681885 -14.448333 22.950075 0.874621 2.251777 0.057341 0.002750 -430922.000000 0 1 0
-12.611930 -12.975885 -15.094933 23.564621 0.799621 2.266045 0.050770 0.009641 -552888.000000 0 1 0
-12.748130 -11.626185 -14.745733 22.696247 0.739401 2.277985 0.033827 0.008634 -898726.000000 0 1 0
-13.734830 -10.985185 -15.447233 23.408051 0.674622 2.291497 0.027204 0.002623 -618593.000000 0 1 0
-14.259130 -9.697785 -14.793933 22.720701 0.597252 2.279857 0.028947 -0.001174 265444.000000 0 1 0
-13.234030 -8.699985 -14.771933 21.657315 0.581556 2.321394 0.029890 -0.009496 546204.000000 0 1 0
-13.171630 -7.921285 -15.936133 22.140436 0.541441 2.374275 0.035105 -0.007837 -37112.000000 0 1 0
-12.055430 -6.854485 -15.807333 21.028294 0.516997 2.421459 0.023355 -0.011236 1067300.000000 0 1 0
-10.761630 -7.460085 -15.994633 20.671087 0.606155 2.455565 0.020270 -0.009740 1052230.000000 0 1 0
-9.651830 -6.682785 -15.545333 19.480113 0.605597 2.494783 0.009050 -0.005910 531804.000000 0 1 0
11.395770 22.129615 16.244867 29.723377 1.095256 0.992575 0.055983 -0.005417 -460391.000000 0 0 1
12.365270 21.994315 17.259967 30.570513 1.058633 0.970854 0.071564 -0.010166 -136877.000000 0 0 1
12.748970 20.692315 17.473967 29.934055 1.018607 0.947458 0.064771 -0.006234 -179268.000000 0 0 1
13.846070 20.581415 18.551267 30.975116 0.978597 0.928659 0.071971 -0.018154 472439.000000 0 0 1
15.129570 20.993815 18.066867 31.560352 0.946334 0.961300 0.060905 -0.010779 150590.000000 0 0 1
16.157270 20.585315 18.942967 32.305550 0.905335 0.944228 0.072698 -0.015344 -377700.000000 0 0 1
17.518970 21.093915 18.485167 33.069154 0.877719 0.977635 0.065524 -0.003700 -1024060.000000 0 0 1
17.787770 22.399815 18.976267 34.325722 0.899661 0.985041 0.065533 -0.010470 -269961.000000 0 0 1
18.872070 23.007815 18.336967 34.953669 0.883832 1.018542 0.062984 -0.001974 761250.000000 0 0 1
20.335370 22.639815 18.781167 35.760603 0.838970 1.017856 0.056278 -0.006445 389713.000000 0 0 1
20.670270 21.308615 18.501567 34.980353 0.800603 1.013477 0.064061 -0.002589 -734445.000000 0 0 1
21.963570 21.031115 18.925967 35.817572 0.763714 1.014083 0.069023 -0.011137 -508445.000000 0 0 1
22.449170 19.593115 18.634167 35.143813 0.717569 1.011929 0.068599 -0.013900 51635.400000 0 0 1
22.503570 19.329415 17.225167 34.303693 0.709666 1.044728 0.060115 -0.007059 -60023.900000 0 0 1
22.101170 18.033415 16.906067 33.158421 0.684390 1.035777 0.059386 -0.001537 103314.000000 0 0 1
23.103170 16.884515 17.247667 33.411455 0.631120 1.028365 0.047472 0.002145 377290.000000 0 0 1
24.376270 16.971915 16.634367 34.043364 0.608203 1.060286 0.049849 0.000496 544584.000000 0 0 1
25.214570 15.884815 17.125967 34.371509 0.562176 1.049205 0.032892 0.002244 637007.000000 0 0 1
26.538270 15.830815 16.300667 34.937175 0.537862 1.085387 0.070883 -0.009596 -7019.910000 0 0 1
27.484670 16.864315 16.561467 36.250440 0.550352 1.096331 0.056580 -0.008417 1465740.000000 0 0 1
28.748270 16.546015 17.188567 37.358807 0.522246 1.092695 0.048803 -0.015369 1331000.000000 0 0 1
29.706570 15.568715 16.440667 37.351850 0.482728 1.115023 0.037029 -0.017616 -627055.000000 0 0 1
30.105670 16.045415 15.192367 37.344541 0.489674 1.151830 0.057364 -0.018997 66095.100000 0 0 1
30.340970 14.985115 14.242967 36.714987 0.458748 1.172408 0.074011 -0.027311 -821761.000000 0 0 1
29.428870 15.036815 13.072467 35.539465 0.472373 1.194122 0.078348 -0.015795 -866740.000000 0 0 1
29.833070 15.947515 12.061867 35.914119 0.490911 1.228286 0.074919 -0.019916 687683.000000 0 0 1
28.900170 16.054715 10.946167 34.825167 0.507074 1.251058 0.072159 -0.018515 1219310.000000 0 0 1
27.619770 16.934215 11.154067 34.264158 0.550010 1.239222 0.072677 -0.022718 181282.000000 0 0 1
27.882770 18.322815 11.173667 35.185583 0.581376 1.247637 0.060309 -0.016494 305621.000000 0 0 1
28.707470 18.861915 12.187967 36.447733 0.581307 1.229832 0.068744 -0.018114 -567151.000000 0 0 1
28.059670 18.734515 13.552267 36.359195 0.588695 1.188844 0.067703 -0.015235 -236433.000000 0 0 1
26.901270 19.523715 13.613567 35.919117 0.627803 1.182074 0.071833 -0.010969 86324.800000 0 0 1
26.104270 19.508415 14.800767 35.792092 0.641788 1.144479 0.076802 -0.012039 302779.000000 0 0 1
26.727270 20.041115 16.150467 37.105671 0.643397 1.120474 0.061989 -0.004721 -200853.000000 0 0 1
26.757070 21.453315 16.358667 37.997257 0.675826 1.125725 0.050357 -0.004104 -148209.000000 0 0 1
25.553970 22.056715 16.763267 37.689670 0.712075 1.109878 0.063568 -0.004990 -223732.000000 0 0 1
25.513570 23.588515 16.543067 38.484196 0.746213 1.126451 0.052318 0.000352 -27357.400000 0 0 1
25.332070 23.944515 15.180667 38.019814 0.757247 1.160062 0.081458 -0.008545 -75958.400000 0 0 1
24.783670 25.202715 15.120367 38.445190 0.793781 1.166582 0.070705 -0.013982 -554547.000000 0 0 1
24.645470 25.736815 13.703567 38.178143 0.807056 1.203667 0.070472 -0.022637 -439815.000000 0 0 1
23.584070 25.169515 13.002067 36.861451 0.817906 1.210311 0.077073 -0.014910 -324356.000000 0 0 1
23.422070 25.712315 11.721267 36.702924 0.831976 1.245747 0.074970 -0.026078 256391.000000 0 0 1
22.487570 24.892015 10.767067 35.231136 0.836103 1.260215 0.071391 -0.023409 -427262.000000 0 0 1
21.136270 24.740615 11.139567 34.393748 0.863803 1.240965 0.076673 -0.022059 -171748.000000 0 0 1
20.634670 23.472915 10.796567 33.065590 0.849658 1.238177 0.086366 -0.010578 65235.800000 0 0 1
20.578770 23.168615 9.269967 32.345058 0.844529 1.280124 0.074308 0.001820 201720.000000 0 0 1
19.404870 23.714715 8.590367 31.823436 0.885018 1.297467 0.069016 0.004812 998034.000000 0 0 1
19.556370 23.662115 7.204067 31.531665 0.880114 1.340290 0.071492 -0.013805 -237660.000000 0 0 1
18.284770 23.972515 6.416667 30.825118 0.919192 1.361099 0.053533 -0.008846 -1415890.000000 0 0 1
17.361570 22.944915 6.351367 29.465796 0.923044 1.353541 0.060072 0.001528 86153.300000 0 0 1
16.510470 23.059215 5.191667 28.831865 0.949411 1.389742 0.073739 -0.008231 545066.000000 0 0 1
15.284270 24.000215 5.312467 28.945493 1.003729 1.386217 0.056658 -0.002415 -903539.000000 0 0 1
15.651570 25.339115 5.380267 30.265321 1.017475 1.392076 0.079044 -0.015121 472218.000000 0 0 1
14.620470 26.065915 6.056567 30.493804 1.059620 1.370850 0.048788 -0.014953 202828.000000 0 0 1
14.341870 27.430015 5.448967 31.429066 1.089034 1.396542 0.055296 -0.019446 -456077.000000 0 0 1
13.696170 27.255615 4.255867 30.798799 1.105144 1.432170 0.046502 -0.004031 -4461.190000 0 0 1
13.608370 28.510015 3.554067 31.790566 1.125458 1.458766 0.041532 -0.002724 -223703.000000 0 0 1
13.159770 28.288915 2.101667 31.270742 1.135381 1.503537 0.042307 -0.001814 216690.000000 0 0 1
14.198070 27.799715 1.246667 31.240415 1.098604 1.530880 0.060034 -0.013560 221604.000000 0 0 1
13.797670 26.891615 0.291667 30.226143 1.096736 1.561147 0.048368 -0.001061 -75713.300000 0 0 1
14.939270 26.594615 -0.694033 30.511261 1.058984 1.593545 0.045257 -0.008151 176723.000000 0 0 1
14.983370 27.680615 -1.644133 31.518582 1.074661 1.622984 0.040749 -0.000894 -411700.000000 0 0 1
16.055470 27.523715 -2.538533 31.965249 1.042723 1.650295 0.050600 0.000182 -205760.000000 0 0 1
15.831570 28.052415 -3.972133 32.455423 1.056998 1.693491 0.059259 -0.003264 -272334.000000 0 0 1
14.864970 27.309015 -4.699933 31.445811 1.072321 1.720820 0.060410 -0.006684 -236305.000000 0 0 1
14.740770 27.824815 -6.014733 32.057568 1.083617 1.759538 0.044271 -0.005678 1012470.000000 0 0 1
13.462570 27.216515 -6.718833 31.098589 1.111440 1.788563 0.058448 -0.019869 732544.000000 0 0 1
13.477370 25.787815 -6.937133 29.912786 1.089213 1.804839 0.051286 -0.018037 382281.000000 0 0 1
12.220370 25.411115 -7.527433 29.184319 1.122540 1.831673 0.046255 -0.014827 589967.000000 0 0 1
12.060070 23.911515 -8.074133 27.971369 1.103665 1.863620 0.051497 -0.009481 -72079.300000 0 0 1
12.688770 23.615115 -9.310033 28.378782 1.077744 1.905049 0.047898 -0.011821 175231.000000 0 0 1
12.520370 22.229415 -9.645133 27.275175 1.057849 1.932238 0.054232 -0.004756 -348456.000000 0 0 1
12.576970 21.981015 -11.174433 27.680556 1.051088 1.986346 0.059601 -0.004130 -5711.760000 0 0 1
11.833370 20.845615 -11.533933 26.600751 1.054490 2.019274 0.069990 -0.006485 -193973.000000 0 0 1
11.791770 20.663715 -12.896633 27.062116 1.052237 2.067530 0.065171 -0.007533 80927.200000 0 0 1
12.997870 19.884415 -13.492033 27.319765 0.991845 2.087315 0.063253 -0.003335 567875.000000 0 0 1
14.227870 20.562315 -13.261233 28.303735 0.965501 2.058426 0.045204 -0.002701 -913124.000000 0 0 1
15.282570 19.890015 -13.831533 28.644039 0.915652 2.074733 0.038801 -0.002883 -439143.000000 0 0 1
16.655070 20.578815 -13.650533 29.786172 0.890392 2.046860 0.041245 0.001850 82740.200000 0 0 1
16.876570 21.754215 -14.370033 31.057404 0.910997 2.051826 0.035480 0.000639 -81470.100000 0 0 1
16.140670 22.860915 -13.910033 31.251107 0.956030 2.032088 0.038461 0.001838 -200863.000000 0 0 1
16.703770 24.151015 -14.521733 32.759246 0.965704 2.030058 0.023443 -0.005777 -80342.600000 0 0 1
16.844670 24.122615 -15.896533 33.441639 0.961216 2.066160 0.016995 -0.005172 954145.000000 0 0 1
15.645470 24.569015 -16.602533 33.527024 1.003759 2.088860 0.035522 0.000756 1232030.000000 0 0 1
15.816970 24.554315 -18.125033 34.374522 0.998536 2.126194 0.015443 0.018235 227850.000000 0 0 1
16.159170 23.280015 -18.674633 33.938471 0.964026 2.153460 0.015121 0.019290 -2485.560000 0 0 1
15.910070 23.353115 -20.067333 34.658277 0.972743 2.188305 0.022169 0.015945 -161299.000000 0 0 1
16.250670 22.088515 -20.850033 34.448667 0.936506 2.220875 0.032882 0.012972 -83373.100000 0 0 1
15.339670 21.033115 -20.665733 33.238080 0.940669 2.241770 0.039781 0.006921 -52037.700000 0 0 1
15.907270 19.905515 -21.229133 33.165447 0.896581 2.265422 0.043393 0.001866 -14532.100000 0 0 1
14.818970 18.855715 -21.485933 32.199149 0.904704 2.301351 0.044590 -0.000731 -553201.000000 0 0 1
14.440870 18.034415 -20.387333 30.812696 0.895605 2.293818 0.045007 -0.006783 125807.000000 0 0 1
13.567270 16.958115 -20.664033 29.977504 0.896027 2.331344 0.040835 -0.012378 237517.000000 0 0 1
12.079970 17.323315 -20.923033 29.728711 0.961868 2.351527 0.037819 -0.011893 -323394.000000 0 0 1
11.350670 17.452615 -19.719233 28.675419 0.994161 2.329072 0.033186 -0.016613 -103081.000000 0 0 1
10.013470 17.818115 -20.026633 28.615046 1.058800 2.346003 0.028444 -0.013408 -98947.400000 0 0 1
9.034570 17.199315 -19.008133 27.179938 1.087125 2.345276 0.034518 -0.018426 -601057.000000 0 0 1
8.928770 15.779515 -19.081133 26.321202 1.055869 2.381735 0.038046 -0.029108 322804.000000 0 0 1
7.669470 15.438215 -18.506533 25.291323 1.109724 2.391660 0.045614 -0.023343 522060.000000 0 0 1
7.369270 15.642715 -16.945833 24.210782 1.130536 2.346095 0.038059 -0.026359 -335744.000000 0 1 0
7.001070 16.944715 -16.607233 24.737392 1.178987 2.306813 0.045628 -0.021680 -314954.000000 0 1 0
6.495270 16.985915 -15.291333 23.759939 1.205561 2.269958 0.033957 -0.026524 -261998.000000 0 1 0
5.993770 18.365015 -14.875933 24.382216 1.255327 2.227001 0.030771 -0.026472 -619203.000000 0 1 0
6.977670 19.347415 -14.650633 25.251761 1.224664 2.189749 0.033573 -0.020678 -241056.000000 0 0 1
7.514570 19.904515 -15.830333 26.519011 1.209809 2.210481 0.042406 -0.014705 213755.000000 0 0 1
8.622870 21.015815 -15.691133 27.608514 1.181439 2.175288 0.045152 -0.005780 357489.000000 0 0 1
8.334970 22.271515 -15.038533 28.136268 1.212689 2.134700 0.037389 -0.015616 -162188.000000 0 0 1
8.235770 22.153615 -13.633733 27.285330 1.214872 2.094017 0.036796 -0.005562 -162928.000000 0 0 1
7.907670 23.426915 -12.870233 27.874621 1.245259 2.050728 0.046181 -0.019402 -1182720.000000 0 0 1
6.646370 23.929115 -13.159733 28.106145 1.299873 2.058066 0.033227 -0.015649 -972664.000000 0 0 1
6.192470 24.933015 -12.263233 28.467329 1.327358 2.016156 0.038629 -0.019441 26611.800000 0 0 1
5.618670 24.329115 -10.987133 27.279890 1.343831 1.985322 0.041819 -0.022249 -325997.000000 0 0 1
6.653470 24.121815 -10.008633 26.950016 1.301661 1.951289 0.032190 -0.021684 343353.000000 0 0 1
6.150070 23.422215 -8.917233 25.805825 1.314019 1.923622 0.043585 -0.021983 98834.200000 0 0 1
7.202770 23.177215 -7.783333 25.488105 1.269489 1.881125 0.038079 -0.020553 178080.000000 0 0 1
7.650370 24.347015 -7.249233 26.530298 1.266343 1.847560 0.041167 -0.021841 232902.000000 0 0 1
8.523170 24.239815 -6.125533 26.414678 1.232680 1.804826 0.041915 -0.018666 192549.000000 0 0 1
8.831870 25.547815 -5.408833 27.567159 1.237958 1.768283 0.028947 -0.013546 87872.800000 0 0 1
9.416470 26.540215 -6.231233 28.842351 1.229852 1.788558 0.040584 -0.015428 -69932.400000 0 0 1
9.675970 27.675715 -5.469833 29.824297 1.234461 1.755242 0.033191 -0.007228 5094.860000 0 0 1
9.781370 28.932315 -6.291533 31.182326 1.244782 1.773957 0.041332 -0.012768 245412.000000 0 0 1
11.012970 29.115515 -6.958733 31.897064 1.209179 1.790727 0.051775 -0.017653 -261460.000000 0 0 1
10.913170 30.131915 -7.946233 33.017756 1.223312 1.813848 0.056052 -0.018327 453992.000000 0 0 1
12.270670 30.239715 -8.709933 33.776807 1.185317 1.831611 0.059532 -0.018180 795492.000000 0 0 1
13.405070 30.407515 -7.877633 34.152159 1.155580 1.803555 0.045897 -0.008186 -752595.000000 0 0 1
14.444670 30.915015 -8.648833 35.202116 1.133700 1.819029 0.033110 -0.006812 -313519.000000 0 0 1
15.659170 31.416915 -7.860933 35.972579 1.108405 1.791100 0.029330 -0.008345 114687.000000 0 0 1
16.605270 30.462115 -7.439533 35.482702 1.071714 1.782030 0.029584 0.003305 -686040.000000 0 0 1
17.654570 30.991315 -6.701633 36.291285 1.052983 1.756525 0.036253 0.005540 -326195.000000 0 0 1
18.728070 29.924915 -6.462033 35.888703 1.011597 1.751841 0.041593 0.006480 -560019.000000 0 0 1
18.475770 29.150515 -5.299633 34.916940 1.005890 1.723163 0.062677 -0.005290 -240246.000000 0 0 1
19.489770 28.268815 -4.871533 34.680094 0.967190 1.711733 0.054989 0.001100 -352594.000000 0 0 1
19.641870 26.957215 -5.716033 33.840324 0.941112 1.740522 0.044833 0.015310 -43896.700000 0 0 1
20.048870 27.115615 -7.062333 34.454177 0.934124 1.777237 0.034368 0.018297 237167.000000 0 0 1
19.979770 25.853215 -7.776933 33.586614 0.912852 1.804466 0.022672 0.008906 -875414.000000 0 0 1
20.439770 25.983015 -9.232233 34.323977 0.904243 1.843123 0.023841 0.002404 740173.000000 0 0 1
21.836370 26.241515 -9.445333 35.421159 0.876768 1.840720 0.014701 0.007577 705475.000000 0 0 1
22.701570 25.169115 -9.168833 35.112863 0.836899 1.834983 0.021668 0.004623 -626401.000000 0 0 1
24.200570 25.477515 -9.336133 36.358421 0.811097 1.830486 -0.011530 0.008722 -136897.000000 0 0 1
24.669770 25.620815 -10.619733 37.118762 0.804307 1.860952 0.001070 0.005187 -130371.000000 0 0 1
26.077770 25.789515 -10.595133 38.175988 0.779841 1.852023 -0.006054 0.014274 161004.000000 0 0 1
26.606170 25.946215 -12.014933 39.057048 0.772841 1.883493 0.006893 0.003399 -121994.000000 0 0 1
26.593070 27.255715 -12.590133 40.107067 0.797703 1.890108 0.010237 0.001716 -143211.000000 0 0 1
27.254870 27.247815 -13.839033 40.948629 0.785269 1.915546 0.012183 0.006019 220743.000000 0 0 1
27.156470 28.571415 -14.689633 42.066435 0.810783 1.927514 0.029150 -0.003340 66315.900000 0 0 1
27.808070 29.726415 -14.200733 43.111592 0.818728 1.906459 0.036382 -0.011583 -14082.200000 0 0 1
27.990270 30.674015 -15.208033 44.222559 0.831114 1.921861 0.057492 -0.006043 -40885.000000 0 0 1
28.506570 32.032515 -14.679633 45.323263 0.843575 1.900632 0.055657 -0.014008 290174.000000 0 0 1
29.773070 31.935915 -14.046933 45.865616 0.820433 1.882061 0.051181 -0.019200 228844.000000 0 0 1
30.361070 33.194515 -13.786533 47.050387 0.829951 1.868176 0.056027 -0.022874 -212856.000000 0 0 1
15.332270 -32.648919 -28.879454 46.206637 -1.131755 2.245936 0.053574 -0.025612 -160091.000000 0 0 1
16.428370 -33.014919 -28.091334 46.357300 -1.109067 2.221786 0.036210 -0.015724 -135244.000000 0 0 1
16.640970 -32.207219 -26.983514 45.192221 -1.093890 2.210656 0.055673 -0.025362 -375898.000000 0 0 1
17.769770 -32.688719 -26.003884 45.392940 -1.072876 2.180789 0.030360 -0.016145 1620380.000000 0 0 1
19.134170 -32.376119 -26.361474 45.926646 -1.037023 2.182168 0.030372 -0.020229 1114870.000000 0 0 1
19.681770 -33.060419 -27.460304 47.269775 -1.033820 2.190664 0.029111 -0.013440 -335906.000000 0 0 1
21.207070 -32.838419 -27.651494 47.882217 -0.997379 2.186447 0.041780 -0.006215 447575.000000 0 0 1
21.600570 -31.484319 -28.023014 47.361759 -0.969478 2.203938 0.045032 -0.024618 -442038.000000 0 0 1
22.983170 -31.332619 -28.019634 47.906774 -0.937925 2.195526 0.029763 -0.010344 -561510.000000 0 0 1
23.520470 -30.043319 -28.691474 47.739022 -0.906579 2.215556 0.022420 -0.007563 -62464.900000 0 0 1
23.658270 -30.202319 -30.087234 48.755876 -0.906305 2.235848 0.016848 -0.008894 18940.200000 0 0 1
24.382270 -29.112019 -30.645104 48.796794 -0.873585 2.249796 0.016554 -0.019844 187549.000000 0 0 1
24.847270 -29.571619 -32.081674 50.210569 -0.871996 2.263919 0.018063 -0.007270 305106.000000 0 0 1
25.862770 -30.568419 -32.093574 51.315773 -0.868593 2.246458 0.027497 -0.012649 -171247.000000 0 0 1
26.036170 -30.918619 -33.423784 52.449904 -0.870914 2.261723 0.022588 -0.019885 97036.500000 0 0 1
27.444470 -31.421319 -33.807934 53.697994 -0.852854 2.251827 0.015423 -0.022427 277896.000000 0 0 1
28.411170 -30.392119 -34.022034 53.743597 -0.819073 2.256275 0.025976 -0.026485 -811940.000000 0 0 1
29.613070 -30.996919 34.111835 54.784671 -0.808226 0.898668 0.028450 -0.021548 -851639.000000 0 0 1
30.758570 -29.991919 34.021622 54.800325 -0.772779 0.900997 0.029112 -0.027647 -456475.000000 0 0 1
30.677670 -29.175319 32.886297 53.608089 -0.760303 0.910365 0.031702 -0.020912 401222.000000 0 0 1
31.840670 -28.355519 32.756979 53.766936 -0.727566 0.915694 0.037992 -0.021188 420499.000000 0 0 1
31.916470 -27.693819 31.364847 52.624731 -0.714679 0.932274 0.030448 -0.024445 -63713.700000 0 0 1
33.076470 -26.872619 31.277117 52.862544 -0.682280 0.937669 0.028614 -0.023178 408144.000000 0 0 1
33.224470 -26.225019 30.085717 51.930409 -0.668200 0.952869 0.031668 -0.016564 -194511.000000 0 0 1
33.938970 -26.970219 28.886107 52.092740 -0.671481 0.983019 0.041027 -0.015672 -416879.000000 0 0 1
33.242570 -27.971219 28.198727 51.794071 -0.699496 0.995076 0.039518 -0.022431 -268793.000000 0 0 1
32.120970 -27.481519 27.529817 50.446818 -0.707715 0.993549 0.040260 -0.018325 -773678.000000 0 0 1
31.526770 -28.515619 26.583707 50.137523 -0.735290 1.011941 0.030939 -0.013098 -159527.000000 0 0 1
30.316370 -28.051419 26.016927 48.814392 -0.746613 1.008682 0.025534 -0.003525 -172022.000000 0 0 1
29.821670 -29.026619 25.165697 48.633208 -0.771889 1.026917 0.024183 0.002753 -1185720.000000 0 0 1
28.447070 -28.635619 24.706067 47.324668 -0.788701 1.021538 0.023330 0.003316 -1605990.000000 0 0 1
27.495670 -28.755719 25.703907 47.366592 -0.807795 0.997197 0.026272 0.001910 -343040.000000 0 0 1
26.230170 -28.504119 25.102307 46.158774 -0.826920 0.995808 0.034011 0.011482 711773.000000 0 0 1
24.978970 -28.597219 26.026257 46.033856 -0.852830 0.969912 0.044176 0.009700 370656.000000 0 0 1
24.910770 -27.621519 27.041217 45.986109 -0.836954 0.942175 0.039132 0.009362 620745.000000 0 0 1
23.569270 -27.390419 27.467927 45.389785 -0.860242 0.920834 0.038053 0.005040 471731.000000 0 0 1
23.651670 -26.566619 28.773507 45.750426 -0.843379 0.890629 0.044761 0.000047 -206489.000000 0 0 1
22.376470 -26.024419 29.006597 44.937284 -0.860625 0.869131 0.041774 0.005474 83813.000000 0 0 1
22.379670 -25.141819 30.117127 45.166382 -0.843457 0.840884 0.032599 0.005517 -130557.000000 0 0 1
22.033370 -23.716019 29.633557 43.886976 -0.822161 0.829527 0.043651 0.003384 -206037.000000 0 0 1
23.034470 -23.134419 28.811647 43.541924 -0.787563 0.847714 0.059178 -0.000634 279335.000000 0 0 1
22.793070 -21.753119 28.508587 42.490725 -0.762057 0.835325 0.066342 0.005915 -219417.000000 0 0 1
23.310370 -20.733419 29.561917 42.978540 -0.726956 0.812301 0.050619 0.001268 -316766.000000 0 0 1
22.719870 -20.632119 30.810577 43.487567 -0.737277 0.783438 0.052502 0.001289 -85244.400000 0 0 1
23.313170 -19.559419 31.500737 43.799215 -0.698065 0.768135 0.051694 0.000492 -83672.300000 0 0 1
22.699870 -19.373419 32.893521 44.413930 -0.706499 0.736815 0.047641 -0.000414 -147973.000000 0 0 1
23.104670 -20.258119 33.929035 45.775502 -0.719847 0.735933 0.042027 -0.002431 69089.000000 0 0 1
22.551470 -19.873419 -33.302464 44.861739 -0.722357 2.407346 0.051016 -0.010311 -148835.000000 0 0 1
22.605770 -20.941119 -32.157404 44.538185 -0.747190 2.377512 0.033711 -0.003673 -487971.000000 0 0 1
23.883470 -21.362719 -31.784014 45.133241 -0.729744 2.352129 0.030488 -0.005051 -513658.000000 0 0 1
23.834270 -22.398819 -30.803154 44.928986 -0.754360 2.326219 0.031847 -0.013875 808205.000000 0 0 1
25.198970 -22.578219 -30.015554 45.229388 -0.730599 2.296457 0.033984 -0.007518 936068.000000 0 0 1
26.131170 -23.339519 -30.774474 46.633029 -0.729028 2.291520 0.023342 -0.001778 -441163.000000 0 0 1
27.178870 -23.810919 -29.981984 46.952851 -0.719442 2.263416 0.034851 -0.012908 -337552.000000 0 0 1
28.242970 -24.657719 -30.695004 48.454636 -0.717728 2.256838 0.016500 -0.009013 -181465.000000 0 0 1
29.164470 -23.922319 -31.493574 49.139483 -0.686970 2.266469 0.016063 -0.002924 92700.300000 0 0 1
28.731970 -23.816719 -32.856874 49.722594 -0.692132 2.292685 0.022273 0.004194 30181.000000 0 0 1
28.838570 -25.072319 -33.793164 51.012373 -0.715651 2.294881 0.021654 0.003269 -124375.000000 0 0 1
27.847370 -26.054219 -33.615924 50.836293 -0.752143 2.293291 0.026133 -0.009394 -313050.000000 0 0 1
28.083370 -27.234819 34.074178 51.879289 -0.770060 0.854233 0.031445 -0.010535 -52897.300000 0 0 1
27.613570 -27.192919 32.611085 50.650241 -0.777723 0.871279 0.025672 -0.017180 174015.000000 0 0 1
28.432870 -26.398419 31.715877 50.111889 -0.748311 0.885502 0.020728 -0.019817 287482.000000 0 0 1
28.135470 -26.508019 30.331427 49.135275 -0.755624 0.905484 0.010242 -0.012268 58117.000000 0 0 1
29.286870 -25.806419 29.513477 48.936054 -0.722308 0.923411 0.018416 -0.007592 309412.000000 0 0 1
29.450270 -24.409819 29.550517 48.336226 -0.692086 0.913027 0.011316 -0.011695 -27919.300000 0 0 1
29.701470 -23.808819 30.838647 48.990400 -0.675718 0.889908 0.008187 -0.001776 -925211.000000 0 0 1
30.354470 -22.340319 30.789847 48.667221 -0.634469 0.885812 -0.005411 0.008167 936385.000000 0 0 1
31.664970 -22.187319 30.264527 49.100805 -0.611189 0.906665 -0.005025 0.003759 336841.000000 0 0 1
32.677070 -22.816319 31.016447 50.501439 -0.609541 0.909463 0.001367 0.002264 -928649.000000 0 0 1
34.119970 -22.412619 30.701257 51.079008 -0.581194 0.925977 -0.002373 -0.008211 -426628.000000 0 0 1
34.440070 -22.699519 29.404497 50.655809 -0.582747 0.951483 0.006960 -0.009997 -803162.000000 0 0 1
35.662470 -22.132719 29.075307 51.059206 -0.555441 0.964968 -0.001149 -0.006648 -586284.000000 0 0 1
36.027870 -22.310919 27.595507 50.569719 -0.554467 0.993581 0.022516 -0.005796 -106137.000000 0 0 1
-35.655612 -23.639119 27.367327 50.784852 0.585449 1.001680 0.024301 -0.005819 74394.100000 0 0 1
-35.483612 -23.966019 25.990297 50.089443 0.594032 1.025259 0.029099 -0.000393 -281456.000000 0 0 1
-35.383112 -25.487119 25.733497 50.633691 0.624233 1.037669 0.027850 -0.009730 -519858.000000 0 0 1
35.577070 -26.229219 26.061827 51.311974 -0.635291 1.038040 0.041774 -0.004837 -291632.000000 0 0 1
35.707170 -27.559419 25.697807 51.912434 -0.657319 1.052936 0.042407 -0.008685 -627568.000000 0 0 1
-35.377112 -28.386019 26.414937 52.488618 0.676193 1.043440 0.032229 -0.009626 -1505610.000000 0 0 1
-35.021212 -29.660819 25.855337 52.675876 0.702714 1.057745 0.034839 -0.007475 550824.000000 0 0 1
-33.957912 -30.289819 26.595347 52.706028 0.728367 1.041880 0.040451 -0.019412 86661.600000 0 0 1
-32.596812 -29.667419 26.340787 51.347297 0.738385 1.032129 0.043127 -0.014966 -1652730.000000 0 0 1
-32.119512 -29.837219 25.032097 50.482953 0.748578 1.051980 0.043512 -0.010361 -695104.000000 0 0 1
-30.835312 -29.347619 24.832557 49.282401 0.760684 1.042708 0.026578 -0.006015 -548631.000000 0 0 1
-30.325412 -29.525219 23.410667 48.367639 0.772029 1.065559 0.022185 -0.002544 -224665.000000 0 0 1
-29.955012 -30.854719 23.118167 48.823827 0.800193 1.077534 0.037291 -0.003628 263995.000000 0 0 1
-29.595812 -30.859119 21.747067 47.970118 0.806292 1.100280 0.028092 0.003957 -587851.000000 0 0 1
-29.750812 -32.261319 21.068167 48.680295 0.825860 1.123215 0.041394 0.002337 698573.000000 0 0 1
-28.884712 -33.347619 21.546867 49.098449 0.856989 1.116478 0.049908 -0.012142 1366750.000000 0 0 1
-27.483912 -33.127119 21.311367 48.030675 0.878236 1.111070 0.064784 -0.003001 575251.000000 0 0 1
-26.722312 34.205615 21.225567 48.318017 -0.907608 1.115989 0.062149 -0.004165 -302223.000000 0 0 1
-27.081512 33.416115 20.070067 47.464225 -0.889726 1.134213 0.054610 -0.003885 142566.000000 0 0 1
-28.237212 32.601315 20.138467 47.599829 -0.857008 1.133956 0.068570 -0.007001 97399.900000 0 0 1
-28.197012 31.518315 21.273367 47.339537 -0.840960 1.104727 0.071492 -0.010914 -695222.000000 0 0 1
-27.347612 30.459715 21.027867 46.020184 -0.839182 1.096259 0.059120 -0.013988 -435284.000000 0 0 1
-27.325012 29.547015 22.060767 45.895096 -0.824449 1.069368 0.055763 -0.017408 -119583.000000 0 0 1
-26.380512 28.389315 21.635867 44.384630 -0.822059 1.061614 0.053422 -0.016357 -1104180.000000 0 0 1
-25.070012 28.741615 21.808067 43.933788 -0.853523 1.051367 0.055789 -0.017321 -1014440.000000 0 0 1
-24.163112 27.777215 21.230167 42.498819 -0.854868 1.047720 0.047954 -0.016715 94759.700000 0 0 1
-22.696412 28.156615 21.420567 42.032877 -0.892361 1.036060 0.032517 -0.007863 -550040.000000 0 0 1
-22.230412 27.930715 22.757367 42.334546 -0.898553 1.003255 0.034024 -0.010027 196021.000000 0 0 1
-21.057512 28.710715 22.861467 42.312772 -0.937980 1.000006 0.049336 -0.011635 -158585.000000 0 0 1
-20.489912 28.863815 24.301847 42.936419 -0.953469 0.969155 0.034136 -0.010347 -529420.000000 0 0 1
-20.037912 27.606615 24.709047 42.121017 -0.942940 0.943917 0.042835 -0.022526 363364.000000 0 0 1
-19.624912 27.460015 26.096037 42.663717 -0.950291 0.912629 0.044699 -0.023277 65218.500000 0 0 1
-18.253312 28.040215 26.488897 42.674333 -0.993740 0.901133 0.055339 -0.018020 -547957.000000 0 0 1
-18.274812 29.453715 26.564397 43.671012 -1.015469 0.916899 0.030447 -0.009356 7281.520000 0 0 1
-17.032612 30.009115 26.918177 43.763513 -1.054555 0.908306 0.033304 -0.004682 -125480.000000 0 0 1
-16.780512 30.134315 28.454807 44.713964 -1.062704 0.881008 0.017025 0.004330 -510127.000000 0 0 1
-16.756712 28.903615 29.149727 44.338617 -1.045404 0.853388 0.031778 0.002493 196951.000000 0 0 1
-16.801512 29.186315 30.538737 45.461481 -1.048463 0.834228 0.019341 0.006494 -83360.700000 0 0 1
-16.467812 27.951015 31.414177 45.158594 -1.038380 0.801484 0.022652 0.009346 41702.000000 0 0 1
-15.109312 27.545315 31.407307 44.423582 -1.069086 0.785554 0.031364 0.010533 218513.000000 0 0 1
-14.833712 26.227715 31.928347 43.901610 -1.056075 0.756460 0.040408 0.001802 -81622.200000 0 0 1
-14.961512 26.058115 33.492291 44.995619 -1.049594 0.731242 0.050401 0.001142 -514321.000000 0 0 1
-16.265412 25.805815 33.939082 45.632938 -1.008395 0.732147 0.055307 0.001275 -521980.000000 0 0 1
-16.721912 26.761115 -33.570434 46.073351 -1.012299 2.387116 0.047223 0.000692 646576.000000 0 0 1
-18.159212 26.457115 -33.023824 46.046811 -0.969281 2.370543 0.020640 0.000453 668055.000000 0 0 1
-19.152012 26.404615 -34.030634 47.139021 -0.943273 2.377370 0.004821 0.004543 157302.000000 0 0 1
-20.385612 25.983015 -33.434004 46.994924 -0.905532 2.362340 0.014823 -0.003796 265281.000000 0 0 1
-21.547512 26.242415 34.019147 48.065185 -0.883324 0.784458 0.047530 -0.021593 -305407.000000 0 0 1
-21.752412 25.286915 33.023347 46.937586 -0.860397 0.790403 0.058497 -0.018060 283.101000 0 0 1
-22.164412 24.025515 33.490081 46.798206 -0.825669 0.773274 0.067296 -0.023538 -447885.000000 0 0 1
-22.501012 23.009015 32.376827 45.650512 -0.796560 0.782387 0.072537 -0.029805 461172.000000 0 0 1
-23.726512 23.380915 31.745937 46.015422 -0.778062 0.809449 0.076198 -0.035074 151839.000000 0 0 1
-23.911212 22.603915 30.587107 44.924983 -0.757301 0.821876 0.080838 -0.028441 -930882.000000 0 0 1
-25.341612 22.422715 30.160667 45.328151 -0.724364 0.842787 0.067054 -0.028293 -853506.000000 0 0 1
-25.939512 21.389515 30.936307 45.688343 -0.689557 0.826960 0.080990 -0.034099 -610870.000000 0 0 1
-27.145012 20.954915 30.413197 45.835823 -0.657409 0.845276 0.064261 -0.030002 -654966.000000 0 0 1
-27.689012 19.620515 30.985807 45.953958 -0.616476 0.830808 0.082178 -0.031989 -223029.000000 0 0 1
-28.184712 19.630415 32.323687 47.165156 -0.608367 0.815740 0.079290 -0.025747 47206.100000 0 0 1
-28.388112 18.384215 32.932206 47.205873 -0.574688 0.798713 0.072299 -0.016458 -194089.000000 0 0 1
-29.231412 17.242515 32.301687 46.852735 -0.532932 0.810094 0.051553 -0.014900 -1052110.000000 0 0 1
-30.555412 17.649515 32.253237 47.805960 -0.523803 0.830279 0.043788 -0.017142 -1184030.000000 0 0 1
-31.308312 16.540615 31.831317 47.613392 -0.486041 0.838556 0.046503 -0.002486 -234003.000000 0 0 1
-32.810012 16.880515 31.699587 48.644758 -0.475175 0.861032 0.025098 -0.002678 -307689.000000 0 0 1
-33.440012 16.784615 32.945817 49.853631 -0.465192 0.848844 0.027024 -0.003337 -512554.000000 0 0 1
-34.808912 17.021615 32.894773 50.827766 -0.454810 0.866915 0.033140 -0.005342 -802501.000000 0 0 1
-35.375912 17.312115 -34.175876 52.145517 -0.455112 2.285501 0.040243 0.006687 -939962.000000 0 0 1
35.335270 17.507015 -34.225381 52.215453 0.460005 2.285594 0.027370 -0.001308 -458220.000000 0 0 1
34.892170 17.977115 -32.974524 51.263627 0.475749 2.269511 0.020552 -0.005721 1177190.000000 0 0 1
33.315670 17.967115 -32.874004 50.134332 0.494591 2.285930 0.018261 0.001118 1196390.000000 0 0 1
32.694170 16.690915 -32.888024 49.286078 0.472025 2.301358 0.021602 0.012475 -302207.000000 0 0 1
31.340770 16.784115 -32.564044 48.211693 0.491671 2.312356 0.015928 0.016929 -281581.000000 0 0 1
30.549570 15.411915 -32.555894 47.230176 0.467232 2.331323 0.005850 0.019601 -164393.000000 0 0 1
30.141870 14.993015 -33.788774 47.697003 0.461577 2.358031 0.019998 0.000708 -175800.000000 0 0 1
29.500770 13.731815 -33.827734 46.937978 0.435647 2.375594 0.010672 0.000479 -545778.000000 0 0 1
30.384870 12.442615 -33.850424 47.158352 0.388669 2.371439 -0.001050 0.004621 -196050.000000 0 0 1
31.013970 12.084215 -32.698654 46.659367 0.371542 2.347308 0.008464 0.011137 -72305.300000 0 0 1
31.980270 11.090015 -33.003264 47.275168 0.333800 2.343551 0.032594 0.002698 -6824.870000 0 0 1
17.408270 -21.222085 10.197786 29.281728 -0.883805 1.215077 0.012759 -0.021873 -73110.300000 0 0 1
17.301370 -22.591285 10.612086 30.369720 -0.917233 1.213834 0.012949 -0.023969 16436.800000 0 0 1
18.557970 -23.135785 10.961586 31.619917 -0.894756 1.216781 0.003709 -0.022642 -185937.000000 0 0 1
18.402770 -24.512585 11.584086 32.767664 -0.926817 1.209463 0.016764 -0.018406 -215168.000000 0 0 1
17.683770 -25.491725 10.911586 32.887786 -0.964307 1.232604 0.017133 -0.018645 -189487.000000 0 0 1
16.304670 -25.421265 11.244986 32.226273 -1.000505 1.214358 0.018042 -0.017958 -500287.000000 0 0 1
15.444170 -26.366305 10.477686 32.303039 -1.040918 1.240465 0.014290 -0.011006 -599829.000000 0 0 1
15.240070 -25.761965 9.244986 31.327437 -1.036597 1.271227 0.011247 -0.014397 111916.000000 0 0 1
14.389470 -26.568625 8.412086 31.364181 -1.074428 1.299265 0.021243 -0.005878 238852.000000 0 0 1
14.115070 -25.880115 7.006086 30.300178 -1.071490 1.337462 0.029465 -0.005728 -263354.000000 0 0 1
13.389870 -24.684285 7.113686 28.969071 -1.073772 1.322698 0.030535 -0.016276 -145246.000000 0 0 1
13.039670 -24.211385 5.807486 28.106068 -1.076766 1.362670 0.040038 -0.005179 37310.700000 0 0 1
12.205570 -22.914985 5.925386 26.630484 -1.081374 1.346414 0.059141 -0.012450 -243396.000000 0 0 1
11.634870 -22.469385 4.745186 25.744130 -1.093003 1.385415 0.065469 -0.011895 267537.000000 0 0 1
10.848070 -21.262485 4.988486 24.385628 -1.099024 1.364775 0.068537 -0.013564 853297.000000 0 1 0
10.047070 -20.741785 3.736186 23.347898 -1.119716 1.410083 0.057707 -0.017090 207604.000000 0 1 0
10.861370 -20.080085 2.777586 22.997699 -1.074965 1.449724 0.055004 -0.015513 -98361.600000 0 1 0
10.130870 -19.325185 1.834886 21.896669 -1.087952 1.486900 0.036484 -0.010685 222094.000000 0 1 0
10.988870 -18.905585 0.571286 21.874706 -1.044278 1.544677 0.038531 -0.007522 216155.000000 0 1 0
11.910670 -17.897885 0.871786 21.516467 -0.983616 1.530268 0.038941 -0.007356 -584703.000000 0 1 0
12.694070 -17.674185 -0.274414 21.762158 -0.947942 1.583406 0.050908 -0.008249 -525191.000000 0 1 0
13.931570 -16.853085 0.122386 21.866186 -0.880016 1.565199 0.053667 -0.001859 -219440.000000 0 1 0
14.907770 -17.699985 0.704986 23.152280 -0.870820 1.540342 0.051718 -0.005001 131036.000000 0 1 0
16.159470 -17.031785 0.739886 23.489521 -0.811674 1.539293 0.049778 -0.013641 454013.000000 0 1 0
17.356770 -17.753885 1.408786 24.868505 -0.796708 1.514117 0.050293 -0.010768 158239.000000 0 1 0
17.831970 -18.906285 0.768386 26.000330 -0.814632 1.541239 0.051293 -0.018626 -123877.000000 0 0 1
18.971570 -19.345685 1.475186 27.135809 -0.795161 1.516406 0.045986 -0.011357 59879.100000 0 0 1
19.465270 -20.573185 0.775686 28.332920 -0.813062 1.543415 0.037387 -0.010708 -511710.000000 0 0 1
18.687070 -21.643285 1.159086 28.617859 -0.858567 1.530283 0.044368 -0.003127 -225451.000000 0 0 1
18.761470 -22.716485 0.249186 29.463427 -0.880463 1.562339 0.047759 -0.007333 -541964.000000 0 0 1
17.580370 -23.645285 0.468486 29.468430 -0.931465 1.554898 0.048300 -0.007688 -592552.000000 0 0 1
17.528770 -24.314485 1.708586 30.022845 -0.946168 1.513856 0.037985 -0.002194 352279.000000 0 0 1
16.353970 -25.126045 1.824186 30.034948 -0.993805 1.510023 0.037004 -0.001724 298359.000000 0 0 1
16.314970 -25.947205 3.179486 30.814685 -1.009487 1.467431 0.026179 0.001305 343079.000000 0 0 1
17.282870 -26.975525 3.305186 32.207154 -1.000996 1.467993 0.022247 0.000912 572546.000000 0 0 1
18.540770 -26.561745 3.880886 32.624342 -0.961397 1.451557 0.017660 0.002624 479764.000000 0 0 1
19.535770 -27.722995 3.888386 34.136934 -0.956938 1.456643 0.031702 0.004974 -327354.000000 0 0 1
20.205270 -27.900985 2.640886 34.549850 -0.944027 1.494285 0.038599 0.005554 905419.000000 0 0 1
21.268870 -28.908705 2.677586 35.989547 -0.936494 1.496329 0.053967 0.004855 798270.000000 0 0 1
20.779770 -30.385705 2.829886 36.920159 -0.970980 1.494072 0.066366 0.001720 -205648.000000 0 0 1
20.621470 -30.685675 4.200486 37.208866 -0.979095 1.457666 0.078038 -0.009165 -156181.000000 0 0 1
19.725670 -31.766845 4.373286 37.647843 -1.015114 1.454370 0.072087 -0.022000 -119149.000000 0 0 1
19.271970 -32.176905 5.775886 37.948951 -1.031158 1.418001 0.082585 -0.028715 -360236.000000 0 0 1
20.322270 -32.719165 6.516586 39.064105 -1.014998 1.403195 0.081872 -0.040911 -60918.700000 0 0 1
19.825470 -33.258265 7.736586 39.484379 -1.033245 1.373580 0.078214 -0.038278 601265.000000 0 0 1
20.815670 -34.299545 8.398086 40.991203 -1.025334 1.364460 0.078006 -0.037637 -26927.300000 0 0 1
21.949270 -33.690515 8.899086 41.182702 -0.993369 1.352990 0.082711 -0.041360 -1050590.000000 0 0 1
22.993870 34.142106 9.145486 42.166828 0.978095 1.352171 0.096059 -0.042221 34240.800000 0 0 1
24.157770 -34.020265 10.047886 42.917785 -0.953324 1.334484 0.094897 -0.037302 161353.000000 0 0 1
24.887870 -32.996955 9.456186 42.398403 -0.924582 1.345873 0.083262 -0.034216 -318434.000000 0 0 1
25.738270 -32.387025 10.393186 42.654381 -0.899290 1.324658 0.068472 -0.022518 -220305.000000 0 0 1
26.648170 -31.332245 9.783786 42.279510 -0.866010 1.337272 0.068188 -0.026757 -206483.000000 0 0 1
25.892970 -30.213775 9.317086 40.867177 -0.862257 1.340789 0.056767 -0.031203 63687.200000 0 0 1
26.577570 -29.513655 8.326086 40.580127 -0.837695 1.364152 0.063799 -0.029623 -133828.000000 0 0 1
26.095570 -28.100875 8.110486 39.197167 -0.822382 1.362376 0.050292 -0.024763 -42330.500000 0 0 1
26.485170 -27.307685 9.210786 39.140931 -0.800687 1.333245 0.045827 -0.033516 193641.000000 0 0 1
25.888970 -25.997185 9.159586 37.815214 -0.787484 1.326143 0.035994 -0.020925 151251.000000 0 0 1
26.420670 -25.022585 10.265186 37.809464 -0.758228 1.295847 0.035938 -0.030531 711635.000000 0 0 1
27.797170 -24.741385 10.005386 38.534744 -0.727301 1.308141 0.058599 -0.021723 -11958.800000 0 0 1
28.329270 -23.886085 10.988686 38.650276 -0.700509 1.282509 0.042184 -0.024326 -391281.000000 0 0 1
29.709270 -23.419185 10.531386 39.268423 -0.667553 1.299283 0.061435 -0.028346 -219956.000000 0 0 1
29.712370 -22.701285 9.279286 38.526334 -0.652423 1.327549 0.080464 -0.026493 -408133.000000 0 0 1
31.074870 -22.550985 8.966186 39.428251 -0.627766 1.341384 0.075800 -0.030897 131256.000000 0 0 1
31.181970 -21.893185 7.621686 38.855075 -0.612141 1.373359 0.072427 -0.008541 -321475.000000 0 0 1
30.935370 -20.463985 7.662986 37.874703 -0.584422 1.367065 0.068449 0.002183 -56630.600000 0 0 1
31.274370 -19.799985 6.450486 37.573054 -0.564407 1.398263 0.052935 0.005863 113154.000000 0 0 1
30.882270 -18.260285 6.407186 36.444542 -0.533988 1.394071 0.060447 0.006627 186975.000000 0 0 1
31.631670 -17.524285 7.354386 36.901898 -0.505917 1.370157 0.072323 0.007502 155274.000000 0 0 1
31.354270 -16.119385 7.259586 35.994811 -0.474868 1.367719 0.066622 0.010773 -19228.400000 0 0 1
31.770270 -15.329385 8.515386 36.288454 -0.449556 1.333929 0.067886 -0.011345 -461839.000000 0 0 1
33.148270 -15.414585 8.705386 37.579263 -0.435274 1.337019 0.075823 -0.006427 -776019.000000 0 0 1
33.603370 -14.835285 9.905086 38.044486 -0.415748 1.307406 0.070458 -0.020193 -52795.900000 0 0 1
35.142470 -14.921985 9.927586 39.448901 -0.401544 1.316404 0.060513 -0.024548 -153965.000000 0 0 1
35.709570 -13.934285 9.102386 39.397857 -0.372040 1.337652 0.062677 -0.009334 907854.000000 0 0 1
-35.000112 -14.252685 8.846586 38.812484 0.386713 1.340844 0.059102 -0.010927 1369600.000000 0 0 1
-34.262312 -13.268785 7.883386 37.578111 0.369485 1.359440 0.059763 -0.013881 -91619.700000 0 0 1
-34.855412 -13.271185 6.588986 37.873986 0.363802 1.395935 0.079242 -0.019500 229041.000000 0 0 1
-34.006612 -12.779685 5.569486 36.753084 0.359472 1.418672 0.078167 -0.018841 -276722.000000 0 0 1
-32.912012 -13.688585 5.035386 35.999069 0.394150 1.430461 0.062179 -0.004669 67597.600000 0 0 1
-31.957212 -14.029285 6.043886 35.420513 0.413671 1.399325 0.052461 -0.007458 -97773.500000 0 0 1
-30.960712 -14.862485 5.520986 34.784198 0.447555 1.411401 0.050555 0.000708 -180168.000000 0 0 1
-30.069112 -15.489385 6.603686 34.462751 0.475675 1.377986 0.033854 0.001678 -621389.000000 0 0 1
-30.696512 -16.473585 7.342486 35.602906 0.492544 1.363073 0.049243 -0.009013 -251702.000000 0 0 1
-30.459112 -16.338585 8.714586 35.646190 0.492350 1.323819 0.017043 -0.005943 255896.000000 0 0 1
-31.440112 -17.205685 9.594486 37.102161 0.500731 1.309227 0.001109 -0.007828 5972.280000 0 0 1
-32.728112 -16.687085 9.799586 38.021309 0.471512 1.310115 0.026250 -0.007320 171365.000000 0 0 1
-33.594612 -17.391485 10.678586 39.307682 0.477697 1.295672 0.041092 -0.015446 583885.000000 0 0 1
-34.326912 -18.720085 10.223586 40.414108 0.499264 1.315047 0.059062 -0.020614 9041.610000 0 0 1
-33.422112 -19.819585 10.063586 40.138875 0.535263 1.317373 0.050197 -0.022503 60918.200000 0 0 1
-32.859512 -20.329585 11.271586 40.250319 0.554043 1.286963 0.034498 -0.028622 -861526.000000 0 0 1
-33.741212 -21.095385 12.250386 41.636001 0.558751 1.272151 0.100691 -0.032335 -168171.000000 0 0 1
-34.144312 -22.421385 11.976886 42.567573 0.581047 1.285583 0.079454 -0.031537 108684.000000 0 0 1
-35.270612 -22.535885 11.108386 43.304485 0.568562 1.311378 0.087062 -0.034269 37557.400000 0 0 1
-35.736112 -24.000985 11.082986 44.451654 0.591422 1.318811 0.074936 -0.024645 -166886.000000 0 0 1
35.833970 -24.422985 12.340786 45.087144 -0.598242 1.293548 0.116894 -0.022745 159125.000000 0 0 1
35.301970 -25.741695 12.177386 45.355845 -0.630046 1.298976 0.090068 -0.010614 358696.000000 0 0 1
34.177470 -26.068865 13.232886 44.975487 -0.651611 1.272152 0.102172 -0.026884 234590.000000 0 0 1
33.051270 -25.259635 13.038986 43.594160 -0.652563 1.267048 0.091210 -0.027933 -272275.000000 0 0 1
32.201770 -25.240345 14.193986 43.307023 -0.664796 1.236873 0.091809 -0.009550 -103352.000000 0 0 1
31.735470 -23.795885 14.625786 42.276445 -0.643386 1.217539 0.105614 -0.016260 467997.000000 0 0 1
32.742770 -22.981185 15.236586 42.806278 -0.611980 1.206874 0.119468 -0.021821 586752.000000 0 0 1
33.919070 -22.749485 14.450186 43.322630 -0.590789 1.230731 0.113802 -0.026506 -381327.000000 0 0 1
35.130770 -22.427485 15.281986 44.392591 -0.568177 1.219360 0.098234 -0.025952 -702740.000000 0 0 1
35.067870 -21.090685 15.744586 43.845917 -0.541466 1.203505 0.092190 -0.008757 414280.000000 0 0 1
34.298170 -20.892585 16.960586 43.595023 -0.547117 1.171198 0.086559 -0.014976 302167.000000 0 0 1
34.297670 -19.409885 17.407986 43.082616 -0.514987 1.154845 0.065855 -0.004302 -191778.000000 0 0 1
33.613970 -18.457885 16.630486 41.799110 -0.502162 1.161606 0.078160 -0.014793 -106526.000000 0 0 1
33.493070 -17.159385 17.224086 41.387188 -0.473460 1.141568 0.062990 -0.012569 -180512.000000 0 0 1
34.722870 -16.312085 17.617986 42.215581 -0.439180 1.140287 0.045940 -0.016203 -214802.000000 0 0 1
35.387370 -16.704985 18.797686 43.412849 -0.441047 1.122980 0.039406 0.003561 307616.000000 0 0 1
-35.788212 -15.674385 19.150886 43.511365 0.412810 1.115047 0.026549 -0.008640 168190.000000 0 0 1
-35.336612 -15.583085 20.640986 43.789941 0.415336 1.079960 0.022734 0.002799 194959.000000 0 0 1
-34.465312 -16.590385 21.161686 43.714020 0.448629 1.065469 0.026456 0.008276 437380.000000 0 0 1
-34.188312 -16.478985 22.561786 44.152370 0.449149 1.034451 0.021767 0.010608 442146.000000 0 0 1
-33.246412 -17.605685 23.119186 44.156322 0.487008 1.019754 0.015383 0.014410 -65039.500000 0 0 1
-33.867412 -18.885385 23.032986 45.101860 0.508680 1.034811 0.014907 0.006717 442436.000000 0 0 1
-33.100212 -19.959785 23.569086 45.271612 0.542630 1.023225 0.009573 0.009002 -71428.700000 0 0 1
-31.953612 -20.557685 22.718786 44.269571 0.571693 1.031897 0.004752 0.013613 -625071.000000 0 0 1
-30.798812 -19.817585 22.656586 43.065350 0.571759 1.016791 0.001157 0.019099 -1074980.000000 0 0 1
-29.721012 -20.615185 22.281486 42.482808 0.606433 1.018689 0.006755 0.015888 -288601.000000 0 0 1
-28.397012 -19.842785 22.096186 41.089753 0.609895 1.003025 0.015104 0.015662 -102065.000000 0 0 1
-27.641012 -19.737485 23.278386 41.176171 0.620103 0.969955 0.013789 0.017180 -180810.000000 0 0 1
-26.539112 -18.886885 23.173086 39.975377 0.618510 0.952456 0.029057 0.018133 -316078.000000 0 0 1
-26.185412 -18.314785 24.571686 40.309737 0.610341 0.915276 0.027291 0.007892 -416190.000000 0 0 1
-25.359312 -17.149585 24.565586 39.251382 0.594617 0.894572 0.035426 0.005884 247319.000000 0 0 1
-25.158412 -16.449985 25.813186 39.621563 0.579081 0.861245 0.027561 -0.001213 408791.000000 0 0 1
-24.086712 -17.146485 26.718786 39.850535 0.618645 0.835948 0.023589 0.004757 107778.000000 0 0 1
-24.557612 -18.381085 27.227886 41.015831 0.642533 0.844857 0.029890 0.007679 -93534.500000 0 0 1
-23.540012 -19.000585 27.995586 41.217802 0.679092 0.824109 0.033592 0.006427 -102947.000000 0 0 1
-23.910812 -20.295885 28.780486 42.567197 0.703806 0.828314 0.032906 0.011326 -154715.000000 0 0 1
-24.880812 -20.141685 29.800186 43.735493 0.680523 0.821159 0.035794 -0.001265 172177.000000 0 0 1
-25.192212 -21.417585 30.328786 44.868650 0.704591 0.828549 0.036237 -0.004392 410818.000000 0 0 1
-26.482812 -21.515285 31.212986 46.243889 0.682271 0.829880 0.042864 -0.008219 -22404.400000 0 0 1
-26.214512 -20.941585 32.471886 46.692333 0.674042 0.801759 0.061261 -0.013977 1366470.000000 0 0 1
-27.370912 -20.864185 33.368186 47.936592 0.651311 0.800859 0.063048 -0.016515 969041.000000 0 0 1
-28.537712 -19.947685 32.991786 47.966333 0.610050 0.812327 0.042413 -0.018759 -386520.000000 0 0 1
-29.411712 -20.558185 32.057286 48.118160 0.610041 0.841668 0.041436 -0.023095 2829.840000 0 0 1
-30.694212 -19.982585 32.171386 48.748707 0.577093 0.850053 0.040313 -0.025742 727576.000000 0 0 1
-31.776512 -20.405185 31.082186 48.910332 0.570835 0.882149 0.035131 -0.001569 429718.000000 0 0 1
-31.796712 -19.633585 29.888886 47.852419 0.553168 0.896170 0.026014 -0.011613 397695.000000 0 0 1
-32.777512 -20.150485 28.996086 48.178629 0.551206 0.924986 0.024303 -0.008982 126497.000000 0 0 1
-33.296312 -19.095785 27.961386 47.488235 0.520714 0.941215 0.019081 0.000714 -152273.000000 0 0 1
-34.317612 -19.637485 27.140286 47.957527 0.519748 0.969244 -0.000611 0.004247 59468.700000 0 0 1
-34.839612 -18.567985 26.429386 47.508747 0.489664 0.980863 0.009868 0.006260 127696.000000 0 0 1
35.953870 -18.873185 25.607886 48.006684 -0.483390 1.008154 0.006366 0.004141 1306310.000000 0 0 1
34.808770 -19.200285 26.456186 47.751766 -0.504066 0.983592 0.008482 0.003211 654453.000000 0 0 1
33.701970 -19.430885 25.637286 46.590262 -0.522999 0.988107 0.032284 0.010896 153824.000000 0 0 1
32.448870 -20.037485 26.364186 46.362703 -0.553195 0.965932 0.024543 0.005070 437300.000000 0 0 1
31.888370 -19.102485 27.267486 46.100855 -0.539715 0.937910 0.022752 -0.003239 -89498.600000 0 0 1
30.807770 -19.668285 27.951086 46.013295 -0.568191 0.917941 0.016352 0.003316 -407176.000000 0 0 1
-30.647060 -6.179885 34.206219 46.341112 0.198979 0.740487 0.023955 -0.006885 -74815.200000 0 0 1
-31.076700 -5.993785 32.858892 45.622292 0.190531 0.766652 0.030879 0.001202 445048.000000 0 0 1
-30.310510 -5.009085 32.143837 44.463965 0.163779 0.762779 0.036688 0.002044 66509.800000 0 0 1
-30.871960 -4.739885 30.743437 43.825830 0.152344 0.793308 0.035076 -0.006612 7316.400000 0 0 1
-30.678730 -5.779785 29.799827 43.158082 0.186214 0.808643 0.030573 -0.005103 -194734.000000 0 0 1
-29.351340 -5.767585 29.331577 41.894004 0.194029 0.795206 0.039552 -0.010906 -193753.000000 0 0 1
-29.115720 -6.667485 28.101337 41.010555 0.225118 0.815888 0.044665 -0.016575 -404419.000000 0 0 1
-29.807750 -6.343285 26.947767 40.680725 0.209679 0.846750 0.047576 -0.025303 -498806.000000 0 0 1
-29.347980 -6.934685 25.744827 39.650850 0.232036 0.864148 0.056286 -0.021991 -77201.500000 0 0 1
-30.019640 -6.485285 24.410457 39.231468 0.212765 0.899226 0.063812 -0.022027 155648.000000 0 0 1
-29.639380 -5.183785 23.943217 38.453116 0.173144 0.898659 0.069964 -0.023881 -82459.400000 0 0 1
-30.321900 -4.924885 22.770367 38.238223 0.161014 0.932925 0.069923 -0.018679 -306466.000000 0 0 1
-29.856400 -3.614385 22.199467 37.380272 0.120473 0.934921 0.069544 -0.015153 164766.000000 0 0 1
-28.511070 -3.755485 21.793967 36.082707 0.130966 0.922285 0.080564 -0.015608 -127926.000000 0 0 1
-27.932530 -2.541385 21.367967 35.260103 0.090733 0.919762 0.079605 -0.009653 124753.000000 0 0 1
-26.542210 -2.685485 20.735267 33.788342 0.100835 0.910082 0.083339 -0.008549 -359043.000000 0 0 1
-26.667320 -3.360485 19.486267 33.198696 0.125354 0.943499 0.079421 -0.008597 654583.000000 0 0 1
-25.397480 -3.268085 18.803867 31.769447 0.127974 0.937401 0.082653 -0.012083 526299.000000 0 0 1
-25.235450 -4.057085 17.491567 30.971645 0.159405 0.970653 0.074953 -0.009705 -399688.000000 0 0 1
-26.060010 -3.658985 16.431267 31.024165 0.139494 1.012634 0.070414 -0.003773 -106608.000000 0 0 1
-25.941980 -4.361885 15.246267 30.404951 0.166582 1.045534 0.072657 -0.008710 449478.000000 0 0 1
-27.251870 -4.209785 14.393067 31.105419 0.153265 1.089737 0.076954 -0.007575 725771.000000 0 0 1
-27.290250 -3.044885 13.615467 30.649796 0.111115 1.110485 0.072525 -0.004287 377895.000000 0 0 1
-28.564030 -2.917985 12.984967 31.512344 0.101803 1.146083 0.067955 -0.004117 402578.000000 0 0 1
-28.783310 -1.635985 12.148867 31.284986 0.056777 1.171979 0.065634 0.008545 153264.000000 0 0 1
-28.079940 -1.582985 10.883067 30.156757 0.056315 1.201582 0.072013 0.014028 339112.000000 0 0 1
-28.325950 -0.456585 10.056867 30.061745 0.016118 1.229679 0.075495 0.017501 -478241.000000 0 0 1
-29.667080 -0.324585 9.325967 31.100075 0.010940 1.266240 0.057335 0.017817 -71541.000000 0 0 1
-29.654990 -1.216985 8.223867 30.798238 0.041015 1.300493 0.049759 0.000674 -822113.000000 0 0 1
-30.927200 -1.373485 7.731767 31.908594 0.044381 1.326050 0.063299 -0.006971 -1039840.000000 0 0 1
-30.927350 -2.180885 6.378767 31.653529 0.070400 1.367889 0.068336 -0.013981 -310678.000000 0 0 1
-30.500940 -1.609885 5.136567 30.972300 0.052733 1.404183 0.073037 -0.024323 570337.000000 0 0 1
-31.267660 -0.493585 4.712667 31.624665 0.015784 1.421220 0.084642 -0.014830 -54354.100000 0 0 1
-30.847210 -0.037085 3.309967 31.024307 0.001202 1.463903 0.067314 -0.021617 -136001.000000 0 0 1
-30.983720 -1.024385 2.263967 31.083208 0.033050 1.497896 0.067012 -0.042833 364832.000000 0 0 1
-30.542820 -0.406085 1.086667 30.564843 0.013295 1.535236 0.063592 -0.046122 -266708.000000 0 0 1
-31.164620 -1.034985 -0.178633 31.182313 0.033198 1.576525 0.066729 -0.046430 -1037040.000000 0 0 1
-32.465240 -0.620385 -0.340833 32.472956 0.019107 1.581292 0.074366 -0.043715 -1018580.000000 0 0 1
-33.146240 -1.202485 -1.402433 33.197681 0.036262 1.613054 0.079279 -0.044085 289303.000000 0 0 1
-34.658672 -0.808085 -1.377333 34.695441 0.023311 1.610505 0.100780 -0.040002 -95575.600000 0 0 1
-35.399924 -1.574585 -0.502633 35.438490 0.044451 1.584980 0.088309 -0.035788 361707.000000 0 0 1
35.349881 -1.093085 -0.431533 35.369410 -0.030912 1.582997 0.104112 -0.028989 181692.000000 0 0 1
34.396581 -2.162985 0.063367 34.464581 -0.062801 1.568958 0.104877 -0.032856 -581628.000000 0 0 1
34.631381 -2.512085 1.429767 34.751797 -0.072411 1.529642 0.093921 -0.035596 253265.000000 0 0 1
33.820631 -3.631085 1.659567 34.055455 -0.106953 1.522046 0.096469 -0.033743 -272805.000000 0 0 1
33.748191 -4.252385 3.067167 34.153048 -0.125343 1.480869 0.102837 -0.034314 277881.000000 0 0 1
32.952261 -3.476685 4.001167 33.375863 -0.105118 1.450625 0.099262 -0.031659 635068.000000 0 0 1
33.047051 -4.030385 5.298967 33.710987 -0.121360 1.412954 0.087915 -0.033105 28601.400000 0 0 1
32.401561 -3.056485 6.327067 33.154714 -0.094053 1.378784 0.096714 -0.023638 192292.000000 0 0 1
31.034571 -2.779885 6.091367 31.748656 -0.089335 1.377737 0.091933 -0.022282 99164.800000 0 0 1
30.552811 -1.939685 7.101567 31.427200 -0.063401 1.342859 0.093610 -0.012093 863088.000000 0 0 1
28.998171 -1.911285 7.337267 29.973029 -0.065815 1.323487 0.076927 -0.008803 -40478.400000 0 0 1
28.136431 -1.408085 6.356967 28.879967 -0.050003 1.348862 0.062809 -0.005634 -450101.000000 0 0 1
26.787551 -1.666085 6.542967 27.625336 -0.062116 1.331678 0.070677 0.001770 -444832.000000 0 0 1
26.302551 -3.162785 6.520467 27.282667 -0.119672 1.329464 0.087336 -0.016044 -1527790.000000 0 0 1
26.687751 -3.886085 7.690267 28.044214 -0.144597 1.293018 0.081763 -0.014040 690819.000000 0 0 1
26.067451 -5.199885 7.786767 27.698097 -0.196894 1.285825 0.084884 -0.025920 -178228.000000 0 0 1
26.347051 -5.950885 9.055467 28.488272 -0.222138 1.247318 0.085292 -0.031604 -778503.000000 0 0 1
25.682351 -5.503885 10.182467 28.170171 -0.211113 1.200960 0.087905 -0.020731 223316.000000 0 0 1
25.904351 -6.277785 11.324567 28.960176 -0.237761 1.169036 0.087716 -0.018993 -728187.000000 0 0 1
24.773451 -6.131885 12.313567 28.336334 -0.242642 1.121257 0.070329 -0.020131 -175625.000000 0 0 1
23.691051 -7.007685 12.051367 27.488343 -0.287594 1.116959 0.075721 -0.032191 -3558.510000 0 0 1
22.547451 -6.756085 12.832167 26.808520 -0.291125 1.071668 0.085227 -0.032635 104643.000000 0 0 1
21.539551 -7.921985 12.790067 26.273483 -0.352433 1.062368 0.079242 -0.032304 -395490.000000 0 0 1
21.914851 -9.017685 13.563467 27.304706 -0.390370 1.050952 0.067773 -0.028324 327.615000 0 0 1
21.013351 -10.111085 13.688567 27.040189 -0.448474 1.039988 0.077731 -0.043368 -620032.000000 0 0 1
21.480351 -11.220185 14.616367 28.300817 -0.481365 1.028079 0.070476 -0.037791 -423435.000000 0 0 1
21.585151 -10.887985 16.003767 28.992887 -0.467177 0.986048 0.067418 -0.033430 276588.000000 0 0 1
22.016851 -11.961685 16.822167 30.179611 -0.497682 0.979543 0.060689 -0.030956 -250558.000000 0 0 1
21.762051 -11.706785 18.286867 30.741587 -0.493541 0.933708 0.071056 -0.027711 -5219.530000 0 0 1
20.372651 -11.814185 18.544267 29.975152 -0.525512 0.903767 0.072020 -0.025535 65464.900000 0 0 1
20.009251 -12.124085 19.879167 30.700893 -0.544764 0.866483 0.070956 -0.017294 233479.000000 0 0 1
20.533251 -11.178685 21.051067 31.459892 -0.498548 0.837746 0.067691 -0.015089 -364179.000000 0 0 1
19.910651 -9.952885 21.241567 30.768460 -0.463550 0.808798 0.074468 -0.013984 -182690.000000 0 0 1
20.135951 -8.942285 20.255167 29.928127 -0.417933 0.827398 0.078091 -0.012872 -748572.000000 0 0 1
21.189251 -7.822085 20.641067 30.597762 -0.353635 0.830382 0.066744 -0.001720 280005.000000 0 0 1
22.515851 -8.187585 20.872667 31.775279 -0.348771 0.854118 0.072631 -0.006288 -334609.000000 0 0 1
23.131551 -8.558285 19.644967 31.531534 -0.354365 0.898191 0.070390 -0.012518 -1742350.000000 0 0 1
24.541851 -9.080185 19.844367 32.841302 -0.354369 0.921972 0.055154 -0.010736 -846065.000000 0 0 1
24.576951 -10.346485 20.540567 33.659934 -0.398464 0.914436 0.034278 -0.020057 -339808.000000 0 0 1
25.713251 -11.078685 20.200967 34.525174 -0.406819 0.945783 0.033692 -0.022493 -359156.000000 0 0 1
25.575051 -12.590485 20.614267 35.178851 -0.457465 0.944702 0.012539 -0.025670 -177072.000000 0 0 1
24.722651 -13.223185 19.670067 34.248703 -0.491146 0.959011 0.040422 -0.030314 201981.000000 0 0 1
24.556251 -14.643885 19.882267 34.824666 -0.537724 0.963164 0.029904 -0.029304 243105.000000 0 0 1
23.398951 -15.216485 18.998667 33.763911 -0.576590 0.973158 0.046171 -0.024207 -41878.700000 0 0 1
23.646651 -15.142085 17.619267 33.149441 -0.569560 1.010414 0.035813 -0.028086 -68748.800000 0 0 1
22.647051 -15.667785 16.782667 32.249439 -0.605218 1.023475 0.028602 -0.020438 -420234.000000 0 0 1
22.292251 -17.171885 16.800867 32.773270 -0.656372 1.032540 0.015751 -0.020189 133303.000000 0 0 1
23.481851 -17.915285 16.504567 33.834236 -0.651733 1.061221 0.027363 -0.015848 806902.000000 0 0 1
23.241151 -19.323485 16.660967 34.512838 -0.693616 1.067008 0.016614 -0.004980 -123509.000000 0 0 1
24.476951 -20.144985 16.265367 35.630096 -0.688620 1.096732 0.010374 0.000381 45735.400000 0 0 1
24.830651 -20.078185 14.859967 35.220922 -0.679966 1.135248 0.004763 -0.009941 268378.000000 0 0 1
25.745551 -21.111585 14.520567 36.323261 -0.686823 1.159542 0.007268 -0.007677 17677.300000 0 0 1
26.114451 -21.045385 13.014267 35.975602 -0.678322 1.200649 0.011906 -0.020674 74798.900000 0 0 1
25.083551 -21.413785 12.104167 35.131831 -0.706637 1.219052 0.000212 -0.015503 191385.000000 0 0 1
25.593051 -21.329485 10.797167 35.021850 -0.694783 1.257393 0.024065 -0.013912 49696.900000 0 0 1
24.563251 -21.397385 9.618667 33.966456 -0.716625 1.283687 -0.004263 -0.017406 217270.000000 0 0 1
24.060151 -22.717685 9.402867 34.400552 -0.756707 1.293938 -0.002043 -0.022710 -705772.000000 0 0 1
22.680551 -22.770485 9.588967 33.538793 -0.787377 1.280844 -0.012284 -0.012785 -637322.000000 0 0 1
22.012851 -23.730285 8.598167 33.490603 -0.822926 1.311155 -0.003218 -0.014888 -585511.000000 0 0 1
22.282151 -25.047635 8.929567 34.693161 -0.843762 1.310479 0.003956 -0.011527 -15103.300000 0 0 1
22.015151 -25.930825 7.835867 34.906667 -0.866886 1.344386 0.017625 -0.010466 -397901.000000 0 0 1
20.560151 -26.379755 7.701567 34.320918 -0.908749 1.344470 0.016146 -0.008708 -395515.000000 0 0 1
19.676951 -25.314675 7.485967 32.924989 -0.910054 1.341426 0.013657 -0.003193 -1056690.000000 0 0 1
18.340251 -25.674025 7.713067 32.480945 -0.950504 1.331042 0.012208 -0.014489 -219399.000000 0 0 1
17.451951 -24.415385 7.477167 30.928783 -0.950211 1.326623 0.012817 -0.016375 -416944.000000 0 0 1
17.210451 -23.965085 6.161067 30.141063 -0.947995 1.364938 0.022091 -0.017080 -66656.300000 0 0 1
16.577251 -22.714285 6.214767 28.798738 -0.940339 1.353285 0.045102 -0.018078 -247963.000000 0 0 1
16.063951 -22.118685 4.931367 27.777781 -0.942662 1.392321 0.049592 -0.010961 -168504.000000 0 0 1
15.598051 -20.772585 5.046067 26.462469 -0.926722 1.378934 0.090829 -0.015717 -114111.000000 0 0 1
14.957151 -20.386385 3.878967 25.580607 -0.937820 1.418572 0.067199 -0.013975 75644.400000 0 0 1
14.225151 -19.033185 3.915167 24.082059 -0.928970 1.407495 0.084071 -0.013833 121328.000000 0 1 0
15.144551 -18.018485 4.233267 23.915346 -0.871843 1.392848 0.067352 -0.012276 42897.400000 0 1 0
14.542451 -16.777085 4.101767 22.578263 -0.856627 1.388113 0.048862 -0.009559 -135398.000000 0 1 0
15.531051 -15.626885 4.283667 22.444663 -0.788474 1.378764 0.036681 -0.012742 -178881.000000 0 1 0
16.242351 -15.602585 5.573867 23.201780 -0.765311 1.328189 0.056294 -0.021192 815967.000000 0 1 0
17.268351 -14.603385 5.514067 23.277881 -0.701977 1.331643 0.051886 -0.026574 718247.000000 0 1 0
18.656751 -15.211085 5.134867 24.613377 -0.684008 1.360632 0.065077 -0.032696 581995.000000 0 1 0
19.679451 -14.188385 5.091167 24.789333 -0.624665 1.363947 0.073358 -0.026972 652004.000000 0 1 0
21.000651 -14.670385 5.010167 26.102669 -0.609764 1.377657 0.068215 -0.024476 157099.000000 0 0 1
22.022751 -13.517285 5.193267 26.356946 -0.550496 1.372463 0.067203 -0.025267 -82079.400000 0 0 1
21.934651 -12.911785 6.504067 26.270630 -0.532030 1.320615 0.080984 -0.029312 723468.000000 0 0 1
23.108251 -12.151985 6.843067 26.990546 -0.484130 1.314463 0.085415 -0.028253 373984.000000 0 0 1
22.975151 -11.123285 7.970867 26.741723 -0.450883 1.268128 0.089613 -0.036422 -296252.000000 0 0 1
23.194151 -11.879385 9.156267 27.621109 -0.473337 1.232908 0.070400 -0.029968 296913.000000 0 0 1
23.255151 -11.054285 10.270867 27.721652 -0.443732 1.191249 0.092066 -0.038681 -308236.000000 0 0 1
23.744351 -11.799685 11.463667 28.886717 -0.461202 1.162715 0.068640 -0.025425 271248.000000 0 0 1
22.732451 -12.735785 11.888267 28.640800 -0.510676 1.142764 0.058290 -0.028790 946787.000000 0 0 1
23.244951 -13.712885 12.837267 29.885889 -0.532982 1.126810 0.052501 -0.029520 -524734.000000 0 0 1
22.361151 -14.915485 13.109567 29.905744 -0.588252 1.117020 0.032286 -0.031581 -884604.000000 0 0 1
21.220451 -14.496485 13.785267 29.163148 -0.599319 1.078450 0.031924 -0.040314 -895493.000000 0 0 1
20.383151 -15.621885 13.885167 29.194417 -0.653922 1.075139 0.022246 -0.036656 453327.000000 0 0 1
18.956651 -15.348285 14.487567 28.369245 -0.680598 1.034822 0.023810 -0.035196 318573.000000 0 0 1
18.941851 -15.002485 15.858567 28.902637 -0.669861 0.990001 0.026542 -0.025618 34972.800000 0 0 1
18.709651 -13.634685 16.149067 28.226726 -0.629763 0.961708 0.043742 -0.025652 550524.000000 0 0 1
17.205351 -13.183985 16.153367 27.032810 -0.653834 0.930358 0.045880 -0.028017 886560.000000 0 0 1
16.556751 -13.407985 14.840767 25.964368 -0.680700 0.962364 0.057840 -0.036697 335659.000000 0 0 1
15.168351 -13.130785 14.816767 24.940589 -0.713521 0.934672 0.089671 -0.036899 256202.000000 0 1 0
14.791951 -11.744185 14.352567 23.721802 -0.671046 0.920984 0.068581 -0.030496 -357224.000000 0 1 0
14.929551 -10.766685 15.330967 23.955199 -0.624791 0.876318 0.044781 -0.016591 235796.000000 0 1 0
14.597551 -9.447785 14.850867 22.866950 -0.574416 0.863940 0.032422 -0.017651 -519761.000000 0 1 0
15.150151 -8.335885 15.822567 23.438594 -0.503010 0.829744 0.036547 -0.012628 336122.000000 0 1 0
16.526251 -8.004285 15.807867 24.229614 -0.451039 0.860024 0.042947 -0.020068 248046.000000 0 1 0
17.302751 -8.966585 16.529067 25.553765 -0.478115 0.867369 0.066150 -0.019486 361167.000000 0 0 1
18.838551 -8.813185 16.242567 26.389093 -0.437580 0.907772 0.068294 -0.023360 500735.000000 0 0 1
19.330951 -7.618885 16.849367 26.751341 -0.375435 0.889435 0.061635 -0.015265 -713266.000000 0 0 1
20.630451 -7.395285 16.425067 27.387745 -0.344196 0.927641 0.058870 -0.011817 -748704.000000 0 0 1
21.062851 -5.975685 16.984767 27.709833 -0.276443 0.911006 0.062467 -0.007787 -217789.000000 0 0 1
21.555551 -5.954985 18.294467 28.892753 -0.269539 0.885135 0.078422 -0.009478 184317.000000 0 0 1
22.095951 -4.690285 18.576867 29.246022 -0.209164 0.882538 0.079929 -0.009977 -139272.000000 0 0 1
-5.680830 -33.323419 -6.369914 34.399097 1.401944 1.757048 0.003178 -0.011165 -161521.000000 0 0 1
-5.961430 -31.974119 -6.673414 33.202671 1.386467 1.773165 -0.007349 -0.012457 -219599.000000 0 0 1
-5.565330 -31.086319 -5.692814 32.089566 1.393645 1.749144 0.003631 -0.016985 -1607780.000000 0 0 1
-6.182730 -29.708319 -5.764814 30.887594 1.365611 1.758536 0.006318 -0.019576 170865.000000 0 0 1
-7.532230 -29.589719 -5.350814 30.998664 1.321535 1.744280 0.001025 -0.016580 471774.000000 0 0 1
-8.454630 -30.180619 -6.294914 31.968367 1.297663 1.769002 -0.002193 -0.014790 -1336960.000000 0 0 1
-9.845230 -30.328919 -5.720314 32.395893 1.256912 1.748302 0.027576 -0.015507 -229666.000000 0 0 1
-10.782830 -30.901719 -6.651914 33.398108 1.235067 1.771308 0.018853 -0.012434 778264.000000 0 0 1
-12.134330 -30.670919 -6.198714 33.561455 1.194063 1.756560 0.029163 -0.014761 1159930.000000 0 0 1
-13.171330 -31.207019 -7.233214 34.636417 1.171416 1.781177 0.055766 -0.025665 261502.000000 0 0 1
-13.146130 -30.467419 -8.471614 34.246936 1.163449 1.820760 0.072398 -0.029779 -417540.000000 0 0 1
-14.290730 -30.765019 -9.206514 35.149271 1.135940 1.835814 0.083139 -0.032277 -116316.000000 0 0 1
-14.554130 -29.801619 -10.427514 34.766251 1.116498 1.875418 0.099287 -0.030945 -153335.000000 0 0 1
-15.003830 -28.477519 -10.181914 33.760263 1.085888 1.877161 0.102776 -0.033941 -352624.000000 0 0 1
-13.942530 -27.684619 -9.796414 32.508491 1.104257 1.876904 0.088418 -0.030543 -672119.000000 0 0 1
-14.329430 -26.236119 -9.441614 31.349810 1.070897 1.876715 0.074784 -0.016979 8623.960000 0 0 1
-14.771130 -25.486619 -10.573014 31.297646 1.045539 1.915398 0.097311 -0.030896 198616.000000 0 0 1
-15.216130 -24.180419 -10.191914 30.333124 1.009129 1.913463 0.095028 -0.013555 -236567.000000 0 0 1
-15.935630 -23.377119 -11.267614 30.453130 0.972474 1.949804 0.093978 -0.015366 -824703.000000 0 0 1
-17.272230 -23.693619 -11.474314 31.486146 0.940883 1.943811 0.092756 -0.022702 -718243.000000 0 0 1
-17.720230 -23.121619 -12.706514 31.781619 0.916886 1.982103 0.095690 -0.029846 752719.000000 0 0 1
-19.215530 -23.508519 -13.024514 33.038236 0.885544 1.976021 0.082683 -0.020306 800318.000000 0 0 1
-19.334830 -24.922519 -13.393514 34.268846 0.910988 1.972336 0.101585 -0.024474 -25425.100000 0 0 1
-19.240130 -25.855619 -12.330614 34.507096 0.931058 1.936210 0.119279 -0.032384 -1098640.000000 0 0 1
-19.370230 -27.348119 -12.599614 35.803292 0.954532 1.930409 0.113933 -0.032614 1141040.000000 0 0 1
-18.315930 -27.980819 -13.385514 36.021820 0.991202 1.951522 0.110190 -0.030381 797568.000000 0 0 1
-16.973530 -27.824419 -12.982314 35.083322 1.023040 1.949851 0.114004 -0.033065 -838221.000000 0 0 1
-16.154230 -28.920419 -13.609014 35.812778 1.061393 1.960597 0.102623 -0.032050 -659639.000000 0 0 1
-15.985430 -28.917819 -15.014614 36.293427 1.065815 1.997311 0.103782 -0.030632 -27883.100000 0 0 1
-15.316530 -30.125119 -15.397414 37.137572 1.100427 1.998305 0.101746 -0.028704 -29102.100000 0 0 1
-16.137430 -31.438519 -15.398214 38.547401 1.096564 1.981726 0.102884 -0.033889 -97376.700000 0 0 1
-16.532330 -31.886619 -14.085914 38.580920 1.092480 1.944537 0.107441 -0.037886 173594.000000 0 0 1
-16.713130 -33.281719 -13.954914 39.771110 1.105413 1.929308 0.085457 -0.030649 -935829.000000 0 0 1
-17.366130 -33.647519 -12.600214 39.906182 1.094337 1.892039 0.115500 -0.038125 -228272.000000 0 0 1
-18.727130 -33.424719 -12.348514 40.254230 1.060097 1.882587 0.133556 -0.039427 -26057.900000 0 0 1
-19.356430 -32.154819 -12.373514 39.518447 1.028925 1.889259 0.134591 -0.043787 -295225.000000 0 0 1
-18.746430 -31.040619 -11.516914 38.047181 1.027491 1.878321 0.156236 -0.043691 -449654.000000 0 0 1
-18.917730 -31.216519 -10.122514 37.878976 1.025965 1.841317 0.154937 -0.043624 212768.000000 0 0 1
-18.358130 -30.117819 -9.395714 36.501827 1.023389 1.831131 0.149922 -0.037750 80715.600000 0 0 1
-18.390630 -30.290819 -7.850914 36.295810 1.025147 1.788823 0.150123 -0.043202 -123645.000000 0 0 1
-17.596530 -31.303319 -7.315214 36.647619 1.058688 1.771756 0.147864 -0.045588 -179165.000000 0 0 1
-17.836330 -31.394319 -5.946014 36.593620 1.054134 1.734008 0.125371 -0.050388 136533.000000 0 0 1
-16.945830 -32.498319 -5.251114 37.025344 1.090146 1.713101 0.120689 -0.043660 448017.000000 0 0 1
-15.634630 -32.119519 -4.893814 36.056270 1.117793 1.706944 0.105678 -0.040112 44202.100000 0 0 1
-15.558930 -31.739019 -3.560214 35.526339 1.115008 1.671178 0.081172 -0.039261 -168047.000000 0 0 1
-14.228430 -31.083519 -3.178414 34.332720 1.141518 1.663506 0.065063 -0.035786 66907.100000 0 0 1
-13.022130 -31.809719 -3.255614 34.525833 1.182234 1.665232 0.032502 -0.026046 -494124.000000 0 0 1
-11.986830 -31.158919 -2.589314 33.485323 1.203549 1.648200 0.027669 -0.015438 -253500.000000 0 0 1
-10.689630 -31.971719 -2.478814 33.802419 1.248134 1.644195 0.024281 -0.015201 -878822.000000 0 0 1
-10.715730 -33.182119 -1.649014 34.908439 1.258432 1.618052 0.037150 -0.013243 -1035350.000000 0 0 1
-9.483630 -33.789919 -1.487914 35.127080 1.297172 1.613167 0.034861 -0.012634 50412.900000 0 0 1
-8.305030 -33.001319 -0.819114 34.040146 1.324258 1.594862 0.032361 -0.010159 -150645.000000 0 0 1
-8.669430 -32.657819 0.497686 33.792601 1.311318 1.556068 0.047479 -0.008768 22113.700000 0 0 1
-7.595830 -32.464319 1.410986 33.370938 1.340956 1.528502 0.048459 -0.010127 502178.000000 0 0 1
-6.815030 -33.716919 1.943486 34.453627 1.371358 1.514358 0.049348 -0.011328 146249.000000 0 0 1
-7.660630 34.115415 2.674486 35.067074 -1.349910 1.494454 0.061679 -0.016257 546963.000000 0 0 1
-6.904630 33.066615 3.342186 33.944737 -1.364944 1.472177 0.060824 -0.011601 720468.000000 0 0 1
-5.965630 33.409915 4.541386 34.240844 -1.394100 1.437774 0.056863 -0.012935 -853400.000000 0 0 1
-4.846230 34.107515 4.226986 34.708442 -1.429654 1.448708 0.050829 -0.008416 -1215470.000000 0 0 1
-4.224530 -34.060219 5.391986 34.742175 1.447395 1.414966 0.035489 -0.005656 412922.000000 0 0 1
-3.056530 -33.070919 5.083486 33.598659 1.478635 1.418913 0.038081 -0.002386 257840.000000 0 0 1
-3.396830 -31.834619 4.450586 32.323198 1.464496 1.432667 0.037607 0.004358 -16865.400000 0 0 1
-3.480230 -31.887119 3.031786 32.219437 1.462084 1.476559 0.042433 -0.000201 -170655.000000 0 0 1
-4.068130 -30.567019 2.506986 30.938282 1.438485 1.489676 0.039379 -0.005323 176598.000000 0 0 1
-3.184430 -29.447019 2.535186 29.727003 1.463074 1.485410 0.037663 -0.006085 110731.000000 0 0 1
-3.824230 -28.283519 2.023086 28.612498 1.436401 1.500031 0.042993 -0.008172 322108.000000 0 0 1
-2.969030 -27.014719 2.175986 27.264356 1.461331 1.490901 0.041754 -0.004178 -46287.500000 0 0 1
-3.645630 -25.961719 1.608986 26.265763 1.431285 1.509500 0.055012 -0.011987 -291265.000000 0 0 1
-3.097330 -24.692519 2.038586 24.969377 1.446012 1.489062 0.032684 -0.009344 323518.000000 0 1 0
-3.916030 -24.039419 3.203586 24.566073 1.409314 1.440017 0.011167 -0.002148 -26320.300000 0 1 0
-3.963730 -24.787519 4.354986 25.477405 1.412230 1.399018 0.028181 -0.004210 -222668.000000 0 0 1
-4.795830 -24.159019 5.283986 25.190846 1.374833 1.359469 0.018575 0.001892 -192806.000000 0 0 1
-5.359730 -25.149119 6.324686 26.480305 1.360820 1.329620 0.045254 0.005428 -423590.000000 0 0 1
-4.517430 -25.529319 7.348186 26.947155 1.395659 1.294610 0.024304 -0.001330 -652854.000000 0 0 1
-5.182230 -26.488319 8.143486 28.192249 1.377595 1.277765 0.034092 -0.001065 441988.000000 0 0 1
-4.366830 -27.036619 9.398386 28.954752 1.410664 1.240219 0.036782 -0.000435 376648.000000 0 0 1
-4.231630 -26.167819 10.562986 28.534858 1.410473 1.191595 0.033419 -0.010410 661599.000000 0 0 1
-5.483230 -25.876519 11.225986 28.734697 1.361985 1.169429 0.039073 -0.010550 953661.000000 0 0 1
-5.309330 -25.017619 12.488286 28.460983 1.361675 1.116549 0.037669 -0.005502 156416.000000 0 0 1
-4.566230 -25.545919 13.561486 29.280682 1.393918 1.089245 0.047532 -0.003297 -319961.000000 0 0 1
-3.691530 -24.534919 14.063286 28.519567 1.421456 1.055135 0.027541 -0.009866 57862.100000 0 0 1
-2.533330 -25.236019 14.818286 29.374411 1.470746 1.042037 0.033050 -0.016951 -95135.200000 0 0 1
-2.965830 -25.636519 16.089186 30.411991 1.455621 1.013326 0.023452 -0.008721 -31717.500000 0 0 1
-1.996230 -26.440919 16.728886 31.352237 1.495442 1.007970 0.013253 0.002237 170337.000000 0 0 1
-2.449930 -26.917719 18.115986 32.538511 1.480031 0.980322 0.016384 -0.006650 106049.000000 0 0 1
-2.599530 -25.816019 19.005586 32.162660 1.470440 0.938597 0.018009 -0.011902 -88896.900000 0 0 1
-3.074230 -26.187819 20.301886 33.277911 1.453940 0.914646 0.053888 -0.016254 104095.000000 0 0 1
-3.032930 -24.982919 21.271886 32.952057 1.449987 0.869066 0.045227 -0.021729 -2227.720000 0 0 1
-2.660730 -25.385619 22.610286 34.098888 1.466365 0.845871 0.034218 -0.024584 -24880.100000 0 0 1
-2.731330 -24.335319 23.586786 34.000065 1.459027 0.804144 0.038942 -0.019224 133758.000000 0 0 1
-1.795830 -23.124119 23.440086 32.975560 1.493291 0.780116 0.034835 -0.025642 27498.600000 0 0 1
-2.336130 -22.276019 22.454886 31.715934 1.466306 0.784134 0.046895 -0.019547 189847.000000 0 0 1
-1.484730 -21.146019 22.241886 30.725560 1.500698 0.761374 0.043014 -0.022820 157814.000000 0 0 1
-2.195630 -20.051319 21.392386 29.402557 1.461730 0.756025 0.036347 -0.010373 437543.000000 0 0 1
-3.211630 -19.273619 22.053786 29.464495 1.405680 0.725019 0.053084 -0.025613 674470.000000 0 0 1
-4.507230 -19.824319 22.196486 30.099880 1.347238 0.741542 0.043404 -0.027416 438887.000000 0 0 1
-5.568430 -19.626319 21.044286 29.309756 1.294339 0.769877 0.024428 -0.028030 -72579.300000 0 0 1
-5.432130 -20.400419 19.813386 28.952641 1.310559 0.817101 0.047174 -0.026716 -209228.000000 0 0 1
-5.620930 -21.794619 20.028386 30.128666 1.318392 0.843621 0.033981 -0.011994 -226048.000000 0 0 1
-5.451230 -22.705819 18.739286 29.940457 1.335175 0.894530 0.021184 -0.004897 -36348.300000 0 0 1
-5.755230 -24.059919 19.101386 31.254845 1.336004 0.913284 0.038717 -0.007642 -369298.000000 0 0 1
-5.903130 -24.822619 17.930686 31.185235 1.337321 0.958224 0.035646 -0.007647 231777.000000 0 0 1
-6.667230 -26.176819 18.120486 32.527371 1.321399 0.979926 0.040717 -0.015370 758157.000000 0 0 1
-8.039230 -25.964619 18.443986 32.847699 1.270535 0.974599 0.039478 -0.019027 -42933.700000 0 0 1
-8.747030 -27.211919 18.312686 33.946334 1.259787 1.001001 0.028703 -0.018773 933097.000000 0 0 1
-10.297130 -27.085419 18.463986 34.359418 1.207499 1.003472 0.049469 -0.017869 323295.000000 0 0 1
-10.917930 -26.480819 17.328086 33.476821 1.179735 1.026736 0.053228 -0.020004 1002500.000000 0 0 1
-12.349730 -26.319019 17.464986 33.915076 1.132065 1.029833 0.041647 -0.018021 1250360.000000 0 0 1
-12.870830 -25.203119 18.406286 33.758656 1.098638 0.994131 0.044173 -0.024481 -798724.000000 0 0 1
-12.831130 -23.941219 17.854986 32.505698 1.078809 0.989285 0.041674 -0.023122 -78249.200000 0 0 1
-12.974030 -22.950119 18.869186 32.420358 1.056272 0.949590 0.039376 -0.018681 -343155.000000 0 0 1
-11.681530 -22.338819 19.422586 31.823228 1.088977 0.914323 0.023412 -0.019316 -315917.000000 0 0 1
-10.904230 -23.282619 20.115386 32.643703 1.132794 0.906875 0.029931 -0.013510 -1240810.000000 0 0 1
-9.641230 -22.787319 20.295186 32.001716 1.170539 0.883835 0.041992 -0.027130 -787862.000000 0 0 1
-8.548930 -23.701419 20.895486 32.733207 1.224628 0.878434 0.031845 -0.022224 -18687.400000 0 0 1
-8.620830 -23.766219 22.340986 33.738280 1.222822 0.847065 0.034559 -0.022152 -628097.000000 0 0 1
-7.501530 -24.327319 22.915086 34.251899 1.271689 0.837912 0.038561 -0.023124 -613729.000000 0 0 1
-7.678630 -24.526019 24.418286 35.450524 1.267382 0.810965 0.037973 -0.018992 -129727.000000 0 0 1
-6.553130 -24.923619 25.170786 36.023587 1.313687 0.797175 0.044370 -0.016306 -311812.000000 0 0 1
-6.720430 -24.776719 26.563386 36.941352 1.305929 0.768334 0.045818 -0.011497 -518662.000000 0 0 1
-5.565930 -25.220219 27.467686 37.702955 1.353585 0.754625 0.042608 -0.013371 -585321.000000 0 0 1
-4.403330 -24.545619 27.103886 36.830658 1.393291 0.743793 0.048494 -0.013775 -531622.000000 0 0 1
-3.278630 -24.777219 27.934586 37.483345 1.439236 0.729882 0.057588 -0.011915 709593.000000 0 0 1
-1.950630 -24.245319 27.330886 36.587126 1.490515 0.727246 0.059040 -0.016008 -160128.000000 0 0 1
-1.981530 -22.830319 27.142586 35.522809 1.484219 0.701168 0.063366 -0.017817 1333780.000000 0 0 1
-0.716030 -22.121519 26.857386 34.802206 1.538440 0.689263 0.073725 -0.029982 1847280.000000 0 0 1
0.250070 -22.007519 28.071186 35.670505 -1.559434 0.664933 0.075199 -0.028111 -85818.600000 0 0 1
0.968770 -23.106519 28.554286 36.745027 -1.528895 0.680763 0.072547 -0.018671 80606.700000 0 0 1
1.771270 -22.789619 29.668286 37.452788 -1.493230 0.656470 0.068799 -0.030747 -78581.200000 0 0 1
2.680170 -23.950819 30.110186 38.567452 -1.459357 0.674987 0.069810 -0.039977 -423498.000000 0 0 1
3.701570 -24.310619 29.211486 38.184012 -1.419695 0.699726 0.067415 -0.045628 191224.000000 0 0 1
4.378370 -25.544019 29.596086 39.339489 -1.401041 0.719212 0.053219 -0.034653 -204717.000000 0 0 1
5.673770 -25.268919 30.404386 39.939162 -1.349924 0.705531 0.056108 -0.033382 267902.000000 0 0 1
6.819670 -24.809519 29.697986 39.293645 -1.302541 0.713927 0.055047 -0.028544 309386.000000 0 0 1
7.428670 -25.745419 28.829386 39.359183 -1.289883 0.748855 0.056018 -0.021576 232988.000000 0 0 1
8.683070 -25.134019 28.088886 38.679454 -1.238162 0.758023 0.043169 -0.022847 782169.000000 0 0 1
8.172370 -24.260919 27.076886 37.263086 -1.245881 0.757376 0.054372 -0.024695 123020.000000 0 0 1
9.174470 -23.639519 26.299186 36.532793 -1.200591 0.767169 0.031817 -0.018438 -178635.000000 0 0 1
8.756770 -22.320419 25.574686 35.056336 -1.196927 0.753160 0.045332 -0.018419 -68538.100000 0 0 1
7.999670 -22.718719 24.443886 34.316738 -1.232236 0.778024 0.051254 -0.009082 -2118.140000 0 0 1
7.207970 -21.672919 23.892986 33.053669 -1.249724 0.762872 0.043178 0.001528 -58237.200000 0 0 1
6.630670 -21.982719 22.523386 32.163779 -1.277844 0.795018 0.050939 -0.000628 540279.000000 0 0 1
7.670970 -22.425419 21.634486 32.090407 -1.241207 0.830952 0.046974 0.008697 410694.000000 0 0 1
7.045170 -22.687719 20.437086 31.337542 -1.269709 0.860366 0.044694 -0.001168 -54917.300000 0 0 1
7.856570 -23.524619 19.443186 31.514614 -1.248471 0.905925 0.062645 -0.014197 269499.000000 0 0 1
9.149170 -23.086319 19.067086 31.308772 -1.193481 0.915995 0.068345 -0.014193 -91066.300000 0 0 1
9.817170 -24.016519 18.263186 31.728757 -1.182755 0.957454 0.070765 -0.014395 864633.000000 0 0 1
11.220970 -23.537619 17.722986 31.528304 -1.125942 0.973838 0.052785 -0.016558 779950.000000 0 0 1
11.197570 -22.599719 16.708586 30.254086 -1.110776 0.985705 0.057558 -0.012922 -508295.000000 0 0 1
12.458870 -22.486219 16.095486 30.330153 -1.064836 1.011398 0.062503 -0.018601 -251790.000000 0 0 1
-12.385430 22.470415 11.598786 28.157597 -1.067041 1.146232 0.030676 -0.013374 -73245.500000 0 0 1
-13.191130 21.802015 10.620086 27.606521 -1.026678 1.175919 0.029206 -0.013135 377422.000000 0 0 1
-12.776330 20.458215 10.313086 26.232288 -1.012551 1.166747 0.046219 -0.018731 -21254.200000 0 0 1
-13.799130 19.738915 9.404586 25.855116 -0.960686 1.198515 0.044448 -0.015942 -694462.000000 0 0 1
-13.951230 20.485715 8.197286 26.105495 -0.972921 1.251387 0.047157 -0.014304 161461.000000 0 0 1
-14.883030 20.011215 7.245386 25.970155 -0.931317 1.288055 0.050426 -0.010124 15648.300000 0 0 1
-16.382530 20.049515 7.579786 26.978205 -0.885713 1.286002 0.033424 -0.009528 -639957.000000 0 0 1
-16.729030 19.022015 8.488086 26.716009 -0.849448 1.247477 0.027414 -0.018492 171537.000000 0 0 1
-18.098430 19.183815 8.837886 27.815107 -0.814503 1.247455 0.039235 -0.014868 197058.000000 0 0 1
-18.606430 17.978315 9.652686 27.615094 -0.768231 1.213712 0.025871 -0.017149 -162306.000000 0 0 1
-18.702930 16.745315 8.946586 26.650452 -0.730230 1.228447 0.030164 -0.016000 -9301.880000 0 0 1
-19.103730 15.639815 9.770486 26.552189 -0.686027 1.193968 0.037961 -0.023100 -687971.000000 0 0 1
-18.193130 14.974515 10.808786 25.924042 -0.688660 1.140720 0.034888 -0.016147 -410370.000000 0 0 1
-17.138530 14.229715 10.242586 24.517842 -0.692931 1.139817 0.010019 0.000346 378286.000000 0 1 0
-16.337730 13.442515 11.139086 23.910288 -0.688483 1.086179 0.009080 -0.001687 321595.000000 0 1 0
-17.121330 12.348315 11.897786 24.231759 -0.624829 1.057559 0.018262 -0.007352 -236187.000000 0 1 0
-17.899030 11.530515 11.013186 23.971198 -0.572286 1.093438 0.000138 -0.005119 295345.000000 0 1 0
-18.758730 10.737115 11.836386 24.642963 -0.519863 1.069782 0.018752 -0.009232 164605.000000 0 1 0
-19.830830 9.924515 11.077286 24.788386 -0.464015 1.107528 0.018991 -0.011257 -79639.900000 0 1 0
-19.297530 8.907115 10.201786 23.575577 -0.432432 1.123281 0.016691 -0.010798 215738.000000 0 1 0
-18.893730 9.326615 8.941386 22.889019 -0.458543 1.169469 0.022953 -0.003315 -913777.000000 0 1 0
-19.936130 9.666315 7.882186 23.516288 -0.451466 1.229000 0.036013 -0.007361 -468835.000000 0 1 0
-20.513830 8.528515 7.300186 23.384728 -0.394005 1.253312 0.027814 -0.012747 418421.000000 0 1 0
-21.296930 8.810815 6.136686 23.850548 -0.392272 1.310572 0.043060 -0.010357 52808.300000 0 1 0
-21.631730 7.588715 5.350886 23.540440 -0.337400 1.341486 0.057102 -0.006589 265345.000000 0 1 0
-22.465530 6.626115 6.082286 24.199166 -0.286814 1.316729 0.059298 -0.006289 677279.000000 0 1 0
-22.181630 5.266815 5.772386 23.517749 -0.233123 1.322814 0.056600 -0.004394 -367337.000000 0 1 0
-23.326230 4.227915 5.966086 24.445500 -0.179305 1.324250 0.088326 -0.001015 275081.000000 0 1 0
-24.481630 4.484615 5.183786 25.423092 -0.181174 1.365456 0.096479 -0.001735 460047.000000 0 0 1
-25.115150 3.276515 4.827786 25.783984 -0.129727 1.382445 0.091268 -0.009293 269077.000000 0 0 1
-26.199170 3.393615 3.668686 26.671565 -0.128814 1.432808 0.090316 -0.018747 372805.000000 0 0 1
-25.639640 3.444615 2.376586 25.978928 -0.133548 1.479187 0.086378 -0.014465 338173.000000 0 0 1
-26.582820 3.383315 1.314886 26.829500 -0.126594 1.521768 0.080966 -0.025565 -416808.000000 0 0 1
-25.983950 3.395915 -0.057414 26.204984 -0.129956 1.572987 0.086353 -0.026597 -453977.000000 0 0 1
-25.656470 4.675815 -0.542014 26.084698 -0.180269 1.591577 0.091359 -0.021246 434208.000000 0 0 1
-25.584090 4.752915 -1.996714 26.098328 -0.183682 1.647378 0.106594 -0.016494 -171725.000000 0 0 1
-26.911720 5.256415 -2.608914 27.544092 -0.192892 1.665656 0.102467 -0.029592 70947.800000 0 0 1
-27.920820 4.272415 -2.481014 28.354561 -0.151841 1.658408 0.087161 -0.033596 321834.000000 0 0 1
-29.246760 4.783715 -2.598314 29.749086 -0.162128 1.658249 0.071890 -0.020062 579797.000000 0 0 1
-30.241310 3.576515 -2.548914 30.558555 -0.117719 1.654304 0.063405 -0.020775 -296114.000000 0 0 1
-30.254110 2.738815 -3.686314 30.600673 -0.090281 1.691555 0.069052 -0.027290 -220743.000000 0 0 1
-31.301890 1.833615 -3.714314 31.574778 -0.058512 1.688705 0.082883 -0.032063 -908506.000000 0 0 1
-31.442640 1.161715 -5.036814 31.864693 -0.036930 1.729531 0.085551 -0.040427 -256267.000000 0 0 1
-30.211870 0.753615 -5.609514 30.737464 -0.024939 1.754322 0.092695 -0.038054 278126.000000 0 0 1
-30.263930 -0.116485 -6.714314 31.000017 0.003849 1.789117 0.099240 -0.039563 -212208.000000 0 0 1
-30.849000 0.527215 -7.991014 31.871540 -0.017089 1.824226 0.096282 -0.038271 -6116.140000 0 0 1
-32.222580 0.863115 -8.003014 33.212767 -0.026780 1.814153 0.090978 -0.042265 226148.000000 0 0 1
-32.523350 1.698715 -9.059714 33.804324 -0.052183 1.842118 0.104596 -0.042847 -379662.000000 0 0 1
-34.035560 1.913815 -9.229514 35.316653 -0.056171 1.835202 0.129105 -0.040276 -173936.000000 0 0 1
-34.556751 2.602915 -8.097914 35.588206 -0.075181 1.800352 0.102918 -0.029750 -330049.000000 0 0 1
-35.929157 2.805115 -8.238914 36.968266 -0.077915 1.795548 0.109545 -0.027879 -688054.000000 0 0 1
35.522811 3.512215 -7.069014 36.389239 0.098552 1.766300 0.120001 -0.022176 -474022.000000 0 0 1
34.137111 3.388215 -6.884614 34.988859 0.098929 1.768855 0.117567 -0.024056 1688.180000 0 0 1
33.691111 4.069615 -5.766514 34.422455 0.120210 1.739112 0.112202 -0.027919 196571.000000 0 0 1
32.238231 3.639115 -5.408314 32.890676 0.112406 1.735980 0.092947 -0.024264 290999.000000 0 0 1
32.214901 2.453715 -4.716014 32.650595 0.076020 1.715742 0.119854 -0.035251 210523.000000 0 0 1
30.935451 1.845115 -4.701914 31.345089 0.059573 1.721369 0.107535 -0.032198 -73144.700000 0 0 1
30.996711 0.553215 -3.870614 31.242340 0.017846 1.695005 0.118741 -0.023477 396849.000000 0 0 1
31.885921 -0.415585 -4.461214 32.199179 -0.013033 1.709794 0.124307 -0.033751 616221.000000 0 0 1
31.989631 -1.522085 -3.608314 32.228453 -0.047545 1.682992 0.118535 -0.024530 285272.000000 0 0 1
32.884191 -2.689685 -4.149714 33.253941 -0.081611 1.695911 0.120461 -0.027533 205913.000000 0 0 1
32.927841 -3.828385 -3.334514 33.316936 -0.115746 1.671049 0.097464 -0.023675 764924.000000 0 0 1
34.128381 -4.594885 -3.561214 34.619960 -0.133831 1.673845 0.113172 -0.032780 750463.000000 0 0 1
34.083761 -6.075685 -2.918814 34.743866 -0.176405 1.654905 0.099198 -0.029584 -172143.000000 0 0 1
33.908071 -6.123185 -1.515114 34.489799 -0.178657 1.614740 0.104302 -0.033074 106196.000000 0 0 1
34.259651 -7.386685 -0.982014 35.060678 -0.212358 1.598809 0.113910 -0.031795 235867.000000 0 0 1
33.590281 -7.563785 0.451686 34.434312 -0.221484 1.557679 0.100832 -0.025997 1270450.000000 0 0 1
32.139291 -7.551085 0.413786 33.017028 -0.230763 1.558263 0.099231 -0.028680 1246080.000000 0 0 1
31.620181 -7.720285 1.705886 32.593691 -0.239472 1.518434 0.083959 -0.031258 -497870.000000 0 0 1
31.506891 -9.227985 2.124586 32.899145 -0.284919 1.506173 0.094972 -0.036814 -421494.000000 0 0 1
30.509381 -10.075985 1.581986 32.169092 -0.318981 1.521599 0.094620 -0.036786 68627.500000 0 0 1
29.268761 -9.905685 2.207786 30.978336 -0.326338 1.499467 0.081915 -0.041569 -1361130.000000 0 0 1
28.042831 -10.755485 1.838986 30.090907 -0.366235 1.509644 0.095186 -0.039583 -1124200.000000 0 0 1
26.919751 -10.431785 2.619986 28.988954 -0.369697 1.480294 0.106965 -0.035852 -261895.000000 0 0 1
26.166351 -9.386485 2.185986 27.884809 -0.344425 1.492322 0.111047 -0.028057 -780580.000000 0 0 1
25.372451 -9.546785 0.801886 27.120940 -0.359880 1.541225 0.098432 -0.022340 -715709.000000 0 0 1
26.271151 -9.684985 -0.282914 28.000935 -0.353196 1.580900 0.099007 -0.026982 162494.000000 0 0 1
25.757951 -9.805085 -1.620614 27.608660 -0.363726 1.629530 0.092587 -0.008435 -531227.000000 0 0 1
25.138051 -11.138585 -1.971314 27.565844 -0.417098 1.642370 0.102661 -0.011069 748154.000000 0 0 1
23.754051 -11.230885 -1.559314 26.321459 -0.441651 1.630072 0.083544 -0.002491 1007120.000000 0 0 1
23.294651 -12.545585 -1.668514 26.510685 -0.494018 1.633775 0.076828 -0.004448 236456.000000 0 0 1
21.775651 -12.743385 -1.412014 25.269876 -0.529475 1.626703 0.068880 -0.003281 -86906.100000 0 0 1
20.920751 -12.339485 -2.443414 24.411288 -0.532901 1.671058 0.065230 0.001050 -558110.000000 0 1 0
19.639551 -12.789185 -2.084314 23.529122 -0.577215 1.659497 0.065907 -0.000833 -910537.000000 0 1 0
18.633651 -12.068785 -2.953214 22.396205 -0.574748 1.703044 0.063557 -0.004294 -714494.000000 0 1 0
18.685851 -12.599485 -4.266214 22.937058 -0.593254 1.757882 0.060188 -0.011319 -11890.000000 0 1 0
17.842651 -11.943685 -5.149214 22.079996 -0.589885 1.806171 0.061186 -0.017991 -462336.000000 0 1 0
17.768151 -12.571185 -6.538314 22.726448 -0.615750 1.862617 0.060973 -0.024521 -482967.000000 0 1 0
17.062151 -13.750785 -6.604914 22.887245 -0.678342 1.863545 0.060325 -0.021051 80553.100000 0 1 0
17.042151 -14.076685 -7.958514 23.493104 -0.690390 1.916395 0.055822 -0.026996 -122547.000000 0 1 0
16.140651 -15.281685 -8.384614 23.756099 -0.758069 1.931514 0.053271 -0.024963 -721294.000000 0 1 0
14.758051 -15.039885 -8.267614 22.635186 -0.794856 1.944703 0.056741 -0.017013 269466.000000 0 1 0
14.018351 -16.090285 -8.906614 23.124429 -0.854105 1.966178 0.055448 -0.016256 -5957.620000 0 1 0
13.999851 -16.073985 -10.439614 23.735087 -0.854257 2.026216 0.067178 -0.023827 -404933.000000 0 1 0
13.144151 -15.168785 -11.187314 22.978615 -0.856786 2.079285 0.052941 -0.016042 538218.000000 0 1 0
13.299751 -13.831385 -10.860514 22.048613 -0.804991 2.085838 0.043207 -0.010322 -238494.000000 0 1 0
13.366851 -12.901085 -12.066714 22.152117 -0.767669 2.146852 0.053413 -0.004418 474985.000000 0 1 0
14.603151 -12.828985 -12.801114 23.274522 -0.720813 2.153167 0.067472 -0.011219 636058.000000 0 1 0
14.446851 -12.153285 -14.033614 23.523523 -0.699387 2.210027 0.075100 -0.011151 671759.000000 0 1 0
15.797651 -11.867585 -14.815914 24.696491 -0.644284 2.214197 0.075407 -0.018337 805052.000000 0 1 0
16.529751 -12.975985 -15.210714 25.941755 -0.665532 2.197331 0.078943 -0.014011 -269491.000000 0 0 1
17.550051 -12.656985 -16.135214 26.991641 -0.624809 2.211532 0.077263 -0.011846 -399328.000000 0 0 1
18.536851 -13.827585 -16.194314 28.232477 -0.640905 2.181697 0.066518 -0.011901 -723374.000000 0 0 1
19.391351 -13.818385 -15.078814 28.184089 -0.619136 2.135318 0.059129 -0.024773 -486946.000000 0 0 1
20.275551 -14.887985 -15.199914 29.390261 -0.633366 2.114343 0.046411 -0.019233 -491438.000000 0 0 1
21.423051 -14.798385 -14.161314 29.639199 -0.604504 2.068934 0.039011 -0.024411 -505028.000000 0 0 1
22.171851 -13.669885 -14.412914 29.768924 -0.552494 2.076199 0.039467 -0.018457 -609851.000000 0 0 1
23.090151 -13.474785 -13.366414 29.889562 -0.528253 2.034421 0.038467 -0.018711 163917.000000 0 0 1
23.814551 -12.084685 -13.385414 29.872090 -0.469590 2.035425 0.050954 -0.022949 -92956.600000 0 0 1
22.954651 -11.013885 -13.058714 28.613837 -0.447366 2.044716 0.041408 -0.012978 273494.000000 0 0 1
23.586151 -9.732885 -12.934014 28.606368 -0.391366 2.039957 0.054481 -0.020648 -94481.800000 0 0 1
24.479451 -9.479285 -11.709514 28.743923 -0.369453 1.990373 0.061568 -0.022273 -216139.000000 0 0 1
25.723051 -10.109585 -11.837214 30.066571 -0.374472 1.975450 0.061194 -0.019624 406779.000000 0 0 1
26.679851 -9.674185 -10.833314 30.377047 -0.347858 1.935453 0.058153 -0.017993 767892.000000 0 0 1
28.081471 -10.339885 -11.028414 31.892133 -0.352805 1.923891 0.074672 -0.016701 197800.000000 0 0 1
28.724341 -9.811685 -12.154114 32.696780 -0.329155 1.951660 0.061239 -0.018452 -558585.000000 0 0 1
29.949501 -10.427785 -12.378114 34.043047 -0.335052 1.942928 0.054497 -0.014932 -482207.000000 0 0 1
30.638211 -9.970385 -13.698114 35.010668 -0.314615 1.972792 0.048307 -0.013828 -166737.000000 0 0 1
30.015661 -10.391585 -14.880214 35.076284 -0.333290 2.008901 0.050856 -0.023211 327447.000000 0 0 1
30.815801 -9.956285 -15.960914 36.103905 -0.312504 2.028716 0.057713 -0.018851 -26505.900000 0 0 1
30.634201 -10.777185 -17.217514 36.756561 -0.338280 2.058298 0.034359 -0.008039 1489460.000000 0 0 1
29.363571 -10.639185 -17.949914 36.022368 -0.347613 2.092432 0.046424 -0.014599 1570970.000000 0 0 1
29.213621 -9.420585 -18.691314 35.938118 -0.311944 2.117761 0.037409 -0.012836 -131338.000000 0 0 1
27.739671 -9.206885 -19.102414 34.916447 -0.320463 2.149679 0.016886 -0.020866 57624.700000 0 0 1
27.305231 -9.942485 -20.244714 35.415775 -0.349201 2.179287 0.016513 -0.011207 856060.000000 0 0 1
26.010351 -9.471185 -20.655914 34.538507 -0.349208 2.211868 0.042287 -0.013501 665327.000000 0 0 1
25.492751 -10.026985 -21.970414 35.115807 -0.374740 2.246768 0.056759 -0.020207 -142737.000000 0 0 1
25.314451 -11.438785 -22.000814 35.435900 -0.424406 2.240638 0.058287 -0.018737 102373.000000 0 0 1
24.603051 -11.897985 -23.122514 35.798363 -0.450440 2.273011 0.060058 -0.025876 -831823.000000 0 0 1
25.010851 -13.299485 -23.703614 36.936165 -0.488723 2.267568 0.050654 -0.017016 1685510.000000 0 0 1
26.357151 -13.412185 -24.248314 38.243520 -0.470713 2.257576 0.039903 -0.007550 1757700.000000 0 0 1
27.469251 -13.275685 -23.363414 38.427239 -0.450193 2.224324 0.034899 -0.001556 310273.000000 0 0 1
28.807651 -13.849085 -23.922514 39.924486 -0.448124 2.213290 0.037580 0.003312 621407.000000 0 0 1
29.293561 -13.181885 -25.111814 40.773496 -0.422848 2.234306 0.029018 -0.010627 649894.000000 0 0 1
30.533621 -13.649985 -25.643064 42.144879 -0.420396 2.224903 0.012089 -0.004647 392355.000000 0 0 1
31.049211 -13.037285 -26.957064 43.135920 -0.397535 2.245842 0.015783 -0.003631 58313.600000 0 0 1
30.376751 -13.451185 -28.100724 43.512436 -0.416860 2.272879 0.010383 -0.003082 57269.600000 0 0 1
31.139101 -12.958485 -29.160474 44.585863 -0.394349 2.283695 0.007295 -0.001271 -109028.000000 0 0 1
31.235911 -13.898185 -30.414064 45.758682 -0.418640 2.297838 0.006405 -0.010069 -37434.200000 0 0 1
32.010321 -15.048685 -30.148974 46.476706 -0.439459 2.276658 0.018693 -0.022842 -72475.000000 0 0 1
32.174321 -15.943185 -31.236334 47.592863 -0.460061 2.286732 -0.017359 -0.012727 367835.000000 0 0 1
30.865101 -16.598585 -31.792044 47.317032 -0.493412 2.307560 -0.009033 -0.001759 377524.000000 0 0 1
30.112501 -15.721385 -32.578464 47.066771 -0.481162 2.335295 0.000424 -0.015863 -95302.600000 0 0 1
28.910561 -16.374485 -32.950754 46.794193 -0.515335 2.352040 0.003677 -0.006068 212728.000000 0 0 1
28.082921 -15.744685 -34.096134 46.894476 -0.510983 2.384859 0.016796 -0.005367 399350.000000 0 0 1
27.304931 -14.545785 -33.795294 45.817693 -0.489477 2.400311 0.021281 -0.011363 950857.000000 0 0 1
28.115791 -13.381385 -33.514794 45.747137 -0.444214 2.392944 0.023102 -0.014937 -231137.000000 0 0 1
27.246011 -12.185785 -33.149994 44.606732 -0.420565 2.408579 0.028509 -0.017475 -89371.100000 0 0 1
26.637851 -11.621385 34.196070 44.877644 -0.411380 0.704424 0.040973 -0.018563 -201265.000000 0 0 1
26.214051 -10.304185 -34.077238 44.210981 -0.374526 2.450871 0.032936 -0.019316 12078.300000 0 0 1
20.325370 -29.858719 9.064386 37.240124 -0.973129 1.324923 0.036516 -0.021151 -392419.000000 0 0 1
20.928070 -29.365919 7.949886 36.926170 -0.951621 1.353806 0.041295 -0.022208 -488089.000000 0 0 1
22.110370 -30.076219 7.709486 38.116710 -0.936871 1.367131 0.070531 -0.024405 -337941.000000 0 0 1
22.691770 -29.825419 6.310486 38.003872 -0.920406 1.403975 0.070469 -0.025611 -305073.000000 0 0 1
23.152270 -28.503819 6.278986 37.254811 -0.888629 1.401446 0.063449 -0.017923 281954.000000 0 0 1
23.890870 -28.328919 5.040786 37.399343 -0.870182 1.435602 0.058341 -0.010766 81304.000000 0 0 1
23.986270 -26.849819 4.636286 36.300814 -0.841668 1.442728 0.044608 -0.011464 233654.000000 0 0 1
24.801570 -26.038619 5.485186 36.376020 -0.809725 1.419428 0.037196 -0.007057 247722.000000 0 0 1
24.673670 -24.709419 5.108386 35.290806 -0.786122 1.425535 0.031485 0.001308 -43359.300000 0 0 1
25.463370 -23.769419 6.002686 35.346863 -0.751005 1.400147 0.021963 0.002888 741515.000000 0 0 1
26.889270 -23.765719 5.828486 36.356753 -0.723813 1.409788 0.025334 0.009222 918769.000000 0 0 1
27.671270 -22.915119 6.673286 36.542231 -0.691653 1.387147 0.032607 0.004270 151319.000000 0 0 1
27.306070 -21.385919 6.873686 35.358543 -0.664408 1.375151 0.021236 0.008012 -376144.000000 0 0 1
27.447370 -20.705019 5.657086 34.843343 -0.646282 1.407717 0.032573 0.014746 102062.000000 0 0 1
27.055670 -19.378719 5.796086 33.780744 -0.621551 1.398364 0.028041 0.003078 -255507.000000 0 0 1
27.069470 -18.628919 4.420486 33.156199 -0.602755 1.437075 0.034953 0.007824 11440.800000 0 0 1
28.356770 -18.318319 3.934286 33.987436 -0.573554 1.454779 0.070366 0.010876 151423.000000 0 0 1
28.250670 -17.558319 2.743586 33.375473 -0.556092 1.488500 0.065116 0.006762 318330.000000 0 0 1
29.402770 -16.524419 2.610986 33.828931 -0.512011 1.493537 0.071278 -0.008521 175865.000000 0 0 1
29.140770 -15.421619 3.438786 33.148696 -0.486742 1.466871 0.066161 -0.018692 323648.000000 0 0 1
30.225970 -14.498519 3.576386 33.713600 -0.447252 1.464515 0.070821 -0.021668 331294.000000 0 0 1
29.916970 -13.265919 4.467786 33.029847 -0.417372 1.435115 0.068470 -0.026748 -199838.000000 0 0 1
29.584370 -13.674119 5.779786 33.100187 -0.432959 1.395282 0.062336 -0.013955 157483.000000 0 0 1
29.319770 -12.548719 6.585886 32.565214 -0.404405 1.367155 0.058266 -0.022101 -629531.000000 0 0 1
28.979870 -12.820519 8.071386 32.700854 -0.416511 1.321394 0.050030 -0.008365 -750955.000000 0 0 1
27.607970 -13.070219 8.224486 31.633413 -0.442160 1.307781 0.036266 -0.002907 -244982.000000 0 0 1
27.112370 -13.102319 9.578086 31.598910 -0.450166 1.262837 0.037438 -0.001232 212416.000000 0 0 1
27.504470 -14.253219 10.577386 32.734252 -0.478113 1.241762 0.043838 -0.001394 -332874.000000 0 0 1
28.755470 -14.095719 11.195986 33.925160 -0.455771 1.234471 0.045762 -0.000586 -219084.000000 0 0 1
28.979970 -15.428019 11.779486 34.880062 -0.489206 1.226309 0.048742 -0.007763 7968.650000 0 0 1
29.934070 -15.470519 12.973686 36.106814 -0.477013 1.203264 0.068611 -0.011029 772691.000000 0 0 1
31.293070 -15.039119 12.781486 36.997266 -0.447999 1.218056 0.067656 -0.006426 743816.000000 0 0 1
31.946070 -15.243019 14.016586 38.070536 -0.445200 1.193752 0.077081 -0.007375 -665539.000000 0 0 1
33.438570 -14.952819 13.940986 39.192804 -0.420500 1.207130 0.074794 -0.012231 -641274.000000 0 0 1
33.787770 -13.640919 13.677086 38.919799 -0.383712 1.211712 0.064873 -0.012824 232191.000000 0 0 1
35.202370 -13.584519 13.553586 40.092963 -0.368291 1.225948 0.058160 -0.015372 227362.000000 0 0 1
35.782970 -12.234119 13.135486 40.032932 -0.329439 1.236487 0.043010 -0.014512 714687.000000 0 0 1
-34.950312 -12.266719 12.660986 39.144569 0.337544 1.241432 0.055430 -0.009028 1116080.000000 0 0 1
-34.306812 -10.973519 12.801386 38.226312 0.309580 1.229314 0.054378 -0.008031 -392519.000000 0 0 1
-32.937312 -10.946119 12.157786 36.776294 0.320849 1.233870 0.051659 -0.007952 -24506.000000 0 0 1
-31.963712 -11.938619 12.553986 36.356733 0.357460 1.218238 0.041313 -0.003087 666048.000000 0 0 1
-31.958312 -13.039219 11.680086 36.438706 0.387390 1.244496 0.035561 -0.000847 -29743.200000 0 0 1
-30.973412 -14.195519 11.996586 36.121781 0.429746 1.232251 0.013713 -0.002613 706050.000000 0 0 1
-29.577312 -14.016419 11.792386 34.789909 0.442543 1.224985 0.022727 -0.002518 189424.000000 0 0 1
-28.934412 -15.262219 11.943286 34.824956 0.485386 1.220739 0.011201 0.003949 493831.000000 0 0 1
-27.485112 -15.188919 11.343686 33.388828 0.504855 1.224151 0.015580 0.012648 433696.000000 0 0 1
-27.447512 -15.143119 9.952886 32.889814 0.504157 1.263363 0.017080 0.012754 -677215.000000 0 0 1
-26.205412 -14.881819 9.419686 31.574082 0.516475 1.267848 0.021027 0.017503 -883363.000000 0 0 1
-26.292812 -14.521019 7.903586 31.058632 0.504593 1.313493 0.047237 0.020634 -28756.600000 0 0 1
-26.468212 -15.620919 7.036486 31.529216 0.533165 1.345727 0.049411 0.019557 147098.000000 0 0 1
-26.296512 -15.163819 5.717986 30.889210 0.523072 1.384610 0.054086 0.013794 -178944.000000 0 0 1
-26.551912 -16.271719 4.651186 31.486606 0.549798 1.422534 0.047981 0.008527 -341246.000000 0 0 1
-27.904312 -16.593819 4.468286 32.771497 0.536490 1.434024 0.041026 0.001683 -335642.000000 0 0 1
-28.096412 -17.524319 3.426686 33.290423 0.557679 1.467681 0.038251 -0.003963 -238817.000000 0 0 1
-29.498312 -18.139419 3.510786 34.806817 0.551326 1.469760 0.046547 -0.008052 -767747.000000 0 0 1
-30.479712 -17.279519 3.031186 35.167921 0.515740 1.484497 0.047298 -0.009372 24296.400000 0 0 1
-31.751312 -17.846919 3.400886 36.581749 0.512074 1.477695 0.048648 -0.011004 1077910.000000 0 0 1
-32.972412 -17.012519 2.873286 37.213727 0.476336 1.493509 0.052296 -0.018141 394793.000000 0 0 1
-33.152912 -17.205019 1.482186 37.380812 0.478700 1.531135 0.053180 -0.018447 -35153.200000 0 0 1
-33.884212 -16.161319 0.861186 37.550894 0.445044 1.547860 0.069854 -0.023743 -360085.000000 0 0 1
-34.505412 -16.604919 -0.412014 38.295124 0.448516 1.581555 0.063855 -0.024654 -345861.000000 0 0 1
-33.501212 -16.875219 -1.382614 37.536859 0.466619 1.607638 0.057758 -0.024921 483679.000000 0 0 1
-34.040512 -17.587619 -2.473114 38.395274 0.476892 1.635253 0.050867 -0.019492 -468538.000000 0 0 1
-32.964312 -18.216419 -3.335614 37.810185 0.504845 1.659131 0.041382 -0.020079 -679142.000000 0 0 1
-33.387112 -19.287419 -4.109414 38.776166 0.523854 1.676974 0.044899 -0.028784 161181.000000 0 0 1
-32.359812 -19.898519 -4.886914 38.301311 0.551314 1.698736 0.038390 -0.025964 -52395.100000 0 0 1
-32.945212 -20.994819 -5.856914 39.502821 0.567370 1.719611 0.056409 -0.026558 -141270.000000 0 0 1
-33.399812 -22.132019 -5.125314 40.393595 0.585209 1.698024 0.068646 -0.031072 48044.000000 0 0 1
-33.943112 -23.099619 -5.986814 41.491796 0.597545 1.715591 0.051773 -0.020580 64230.200000 0 0 1
-34.455012 -24.437419 -5.410314 42.586462 0.616911 1.698184 0.056214 -0.020264 458224.000000 0 0 1
-33.353812 -25.253619 -5.016514 42.135347 0.648057 1.690137 0.057326 -0.017848 254151.000000 0 0 1
-33.828112 -26.502419 -4.601114 43.219088 0.664564 1.677459 0.049946 -0.009987 374261.000000 0 0 1
-32.694912 -27.361219 -3.986414 42.819213 0.696819 1.664030 0.039836 -0.004615 346471.000000 0 0 1
-31.689612 -27.787119 -4.922214 42.433285 0.719878 1.687057 0.037656 0.000851 791091.000000 0 0 1
-30.726712 -28.739719 -4.520714 42.314762 0.751997 1.677836 0.023500 0.006499 148584.000000 0 0 1
-29.719012 -28.464519 -3.406714 41.292302 0.763841 1.653393 0.022718 0.006316 -860944.000000 0 0 1
-30.270212 -28.265819 -2.095714 41.468473 0.751170 1.621355 0.036093 0.005158 -76861.400000 0 0 1
-29.393412 -28.277819 -0.988214 40.799317 0.766057 1.595020 0.030237 -0.002742 44115.800000 0 0 1
-30.266212 -28.099219 0.282086 41.299991 0.748287 1.563966 0.034906 -0.000404 448863.000000 0 0 1
-30.707212 -29.375319 0.743986 42.501714 0.763234 1.553291 0.031679 0.003201 -427669.000000 0 0 1
-31.517812 -29.266919 1.857886 43.050862 0.748385 1.527627 0.035289 0.002619 -477971.000000 0 0 1
-32.102212 -30.633019 2.364486 44.435624 0.761984 1.517560 0.022136 0.001205 -998726.000000 0 0 1
-33.119712 -30.274019 3.269486 44.990233 0.740539 1.498061 0.025439 -0.002819 38604.800000 0 0 1
-33.694512 -31.460319 3.875186 46.261094 0.751121 1.486930 0.020697 0.002306 410074.000000 0 0 1
-34.718212 -32.185019 2.938586 47.432741 0.747553 1.508804 0.022454 0.005224 -648921.000000 0 0 1
-35.397912 -33.238719 3.577086 48.689015 0.753950 1.497262 0.027446 0.004410 -525123.000000 0 0 1
35.750270 -33.763719 2.728286 49.249508 -0.756828 1.515371 0.032244 0.008834 -1292360.000000 0 0 1
34.753670 33.935015 3.352386 48.689232 0.773480 1.501889 0.032749 0.009111 588870.000000 0 0 1
33.760170 -34.319219 4.342686 48.336495 -0.793610 1.480832 0.026948 0.004618 1381000.000000 0 0 1
33.053370 -33.093419 4.110986 46.953167 -0.786004 1.483129 0.028843 0.003504 -415595.000000 0 0 1
32.052970 -33.043019 2.914186 46.127286 -0.800606 1.507577 0.040645 0.001592 -665628.000000 0 0 1
32.553370 -33.331019 1.649186 46.619723 -0.797201 1.535414 0.047830 0.002826 -395767.000000 0 0 1
31.721470 -32.938819 0.555186 45.733201 -0.804223 1.558656 0.056677 -0.003671 -277455.000000 0 0 1
32.227970 -33.672119 -0.759014 46.615767 -0.807309 1.587079 0.055499 -0.008418 1086920.000000 0 0 1
33.419770 -33.209419 -1.390314 47.134695 -0.782241 1.600297 0.036521 -0.005072 224535.000000 0 0 1
34.647070 -33.222119 -0.674514 48.006079 -0.764406 1.584847 0.032941 0.002988 -863046.000000 0 0 1
35.736370 -33.143419 -1.706514 48.769730 -0.747771 1.605795 0.023694 0.009305 -956303.000000 0 0 1
-35.933712 -34.345419 -2.325114 49.761889 0.762802 1.617538 0.010269 -0.003030 360795.000000 0 0 1
-35.210312 -34.034319 -3.522814 49.096956 0.768417 1.642610 0.018782 -0.000999 -184074.000000 0 0 1
-34.636512 33.445615 -4.279014 48.338464 -0.767908 1.659434 0.015723 -0.005675 -726745.000000 0 0 1
-33.486112 32.865915 -3.764214 47.070770 -0.776051 1.650851 0.009368 0.005113 -458313.000000 0 0 1
-32.996012 31.863215 -4.645814 46.104065 -0.767934 1.671736 0.013028 -0.004509 216046.000000 0 0 1
-31.709712 31.177715 -4.140814 44.662088 -0.776939 1.663644 0.019889 -0.007345 758967.000000 0 0 1
-30.452112 31.892915 -4.308014 44.306299 -0.808504 1.668183 0.019359 0.000910 1761210.000000 0 0 1
-29.289812 31.155815 -3.872114 42.936827 -0.816259 1.661101 0.033631 -0.022664 1174070.000000 0 0 1
-29.010312 31.108915 -2.323514 42.600018 -0.820291 1.625366 0.030754 -0.015337 -250882.000000 0 0 1
-30.127612 30.458815 -1.770514 42.878283 -0.790865 1.612100 0.041909 -0.012399 -70051.700000 0 0 1
-30.003812 30.373215 -0.322214 42.695020 -0.791516 1.578343 0.033742 0.004361 -143989.000000 0 0 1
-31.286612 29.830215 0.319186 43.229570 -0.761573 1.563413 0.030610 0.006210 -241506.000000 0 0 1
-31.620312 28.481115 -0.048514 42.556085 -0.733214 1.571936 0.050040 0.000813 398836.000000 0 0 1
-32.847312 28.365615 -0.761014 43.406603 -0.712314 1.588329 0.053931 -0.003626 392488.000000 0 0 1
-33.142112 26.960415 -1.264914 42.741824 -0.682906 1.600395 0.052444 -0.007912 145973.000000 0 0 1
-33.200212 25.984415 -0.245214 42.160456 -0.664077 1.576613 0.055636 -0.000779 219659.000000 0 0 1
-33.866912 24.855115 -0.842614 42.017311 -0.633121 1.590852 0.063675 0.007307 114440.000000 0 0 1
-33.904712 23.638215 0.145086 41.331776 -0.608841 1.567286 0.058287 0.003907 716945.000000 0 0 1
-32.612412 23.117415 0.512686 39.978083 -0.616643 1.557972 0.078168 -0.009884 713312.000000 0 0 1
-32.147812 23.696515 1.698886 39.973652 -0.635201 1.528283 0.077929 -0.011348 545530.000000 0 0 1
-30.578812 23.491815 1.921186 38.608549 -0.655072 1.521015 0.078228 -0.024791 1281590.000000 0 0 1
-29.780312 24.271215 1.101786 38.434006 -0.683826 1.542125 0.084578 -0.019142 -319270.000000 0 0 1
-29.661012 25.641715 1.480086 39.236002 -0.712848 1.533065 0.055454 -0.012657 -544312.000000 0 0 1
-28.923412 26.590715 0.529486 39.292623 -0.743403 1.557320 0.049879 -0.017094 338091.000000 0 0 1
-27.542712 26.270815 0.427786 38.064941 -0.761767 1.559558 0.054399 -0.024306 57964.200000 0 0 1
-26.955112 27.168115 -0.528414 38.274845 -0.789334 1.584603 0.054687 -0.023716 80063.100000 0 0 1
-25.601512 26.658015 -1.039914 36.975243 -0.805612 1.598925 0.048170 -0.022770 -425937.000000 0 0 1
-25.742212 25.650715 -2.005714 36.395653 -0.783618 1.625933 0.074062 -0.031330 161287.000000 0 0 1
-24.504512 25.112115 -2.466114 35.173444 -0.797644 1.640967 0.062379 -0.025577 487690.000000 0 0 1
-23.787312 24.072815 -1.543014 33.877980 -0.791363 1.616358 0.045354 -0.021594 62550.500000 0 0 1
-24.475012 22.836115 -1.217314 33.496212 -0.750771 1.607146 0.048524 -0.018398 612103.000000 0 0 1
-23.480712 21.920715 -0.707214 32.130386 -0.751052 1.592809 0.036092 -0.023510 -300256.000000 0 0 1
-23.959912 20.507615 -0.538114 31.542499 -0.707917 1.587857 0.040865 -0.020897 51472.000000 0 0 1
-24.918412 20.315715 0.498686 32.154381 -0.683994 1.555287 0.045875 -0.025325 1816250.000000 0 0 1
-26.242212 20.932115 0.442786 33.570868 -0.673307 1.557606 0.045828 -0.018013 1164540.000000 0 0 1
-27.226612 20.615815 -0.708914 34.158495 -0.648089 1.591551 0.052266 -0.028176 -259808.000000 0 0 1
-27.653412 19.252815 -0.689414 33.702483 -0.608184 1.591254 0.056427 -0.021587 541420.000000 0 0 1
-28.529012 18.912715 -1.780214 34.274837 -0.585411 1.622759 0.069037 -0.020456 276093.000000 0 0 1
-28.802812 17.411715 -1.696714 33.699386 -0.543732 1.621166 0.050259 -0.001559 222655.000000 0 0 1
-29.653512 17.023415 -0.603814 34.197836 -0.521141 1.588454 0.056354 -0.005538 536725.000000 0 0 1
-29.762612 15.604715 -0.549214 33.609847 -0.482903 1.587138 0.061786 -0.011623 -498257.000000 0 0 1
-28.618012 14.787515 0.038386 32.212772 -0.476934 1.569605 0.080785 -0.009850 -635063.000000 0 0 1
-28.427612 14.943215 1.409786 32.146793 -0.483963 1.526928 0.081422 -0.010336 789335.000000 0 0 1
-27.286212 14.300715 2.019886 30.872767 -0.482742 1.505323 0.080905 -0.014445 419633.000000 0 0 1
-27.315612 12.723315 2.033986 30.202028 -0.435906 1.503399 0.094918 -0.011642 -294957.000000 0 0 1
-26.986612 12.125315 0.815686 29.596720 -0.422279 1.543233 0.090257 -0.010102 277894.000000 0 0 1
-26.553012 10.775715 0.889386 28.670010 -0.385513 1.539770 0.119350 -0.014837 -65878.000000 0 0 1
-26.376412 10.086515 -0.475214 28.243206 -0.365248 1.587623 0.112238 -0.013354 292064.000000 0 0 1
-27.574912 9.948915 -1.257014 29.341724 -0.346260 1.613650 0.097833 -0.013237 554133.000000 0 0 1
-27.452912 9.092715 -2.349114 29.014792 -0.319840 1.651848 0.101331 -0.018537 -417967.000000 0 0 1
-28.713812 8.933515 -3.192514 30.240417 -0.301630 1.676565 0.099992 -0.020123 -282283.000000 0 0 1
-28.466012 8.030115 -4.270114 29.883615 -0.274950 1.714179 0.101024 -0.016193 -558715.000000 0 0 1
-29.624812 7.858515 -4.986514 31.052392 -0.259296 1.732079 0.086360 -0.023134 -686841.000000 0 0 1
-11.783430 18.478715 -19.840214 29.562581 -1.003134 2.306523 0.052891 -0.003118 177530.000000 0 0 1
-11.719730 17.444915 -20.765214 29.544394 -0.979239 2.350189 0.019233 -0.002783 -318404.000000 0 0 1
-10.639230 17.584015 -21.649814 29.851386 -1.026671 2.382198 0.021845 -0.000795 -172236.000000 0 0 1
-10.635530 16.423615 -22.679414 29.953388 -0.996127 2.429746 0.013406 0.004252 -146879.000000 0 0 1
-10.092630 15.239515 -22.233714 28.782669 -0.985846 2.453516 0.021719 0.001375 -100501.000000 0 0 1
-10.209930 14.317715 -23.309914 29.199173 -0.951334 2.495276 0.008014 0.004910 58145.400000 0 0 1
-9.572130 12.982815 -22.841214 27.962479 -0.935478 2.526729 0.010050 -0.000493 770963.000000 0 0 1
-8.158430 12.834515 -23.001214 27.574274 -1.004566 2.557395 0.018489 -0.001632 523244.000000 0 0 1
-7.696130 11.716215 -22.258814 26.305036 -0.989601 2.579573 0.015004 -0.001681 555278.000000 0 0 1
-6.161330 11.463715 -22.277514 25.800511 -1.077629 2.612871 0.017025 -0.004510 247191.000000 0 0 1
-5.569430 11.118415 -23.466714 26.557943 -1.106413 2.654301 0.006905 -0.008285 -707405.000000 0 0 1
-4.193230 10.971315 -23.210014 26.012644 -1.205729 2.673120 0.018402 -0.015223 57251.000000 0 0 1
-3.327830 10.701415 -24.472614 26.916604 -1.269305 2.712158 0.036160 -0.017060 -23807.700000 0 0 1
-3.327230 9.363715 -25.001414 26.903909 -1.229379 2.763270 0.031519 -0.020082 -476565.000000 0 0 1
-2.847130 9.382815 -26.283794 28.053185 -1.276186 2.784529 0.032516 -0.022525 -667727.000000 0 0 1
-2.440630 7.983815 -26.753204 28.025558 -1.274121 2.839111 0.043253 -0.010408 -156644.000000 0 0 1
-1.279230 7.556615 -26.077244 27.180167 -1.403100 2.855741 0.043025 -0.022777 50247.400000 0 0 1
-1.466930 6.318215 -25.537294 26.348152 -1.342663 2.892860 0.055611 -0.025537 -33094.500000 0 0 1
-0.152230 5.873715 -24.873214 25.557787 -1.544885 2.909620 0.005424 -0.026172 -188051.000000 0 0 1
0.333170 6.615615 -23.780514 24.685830 1.520478 2.869931 0.015928 -0.025813 -248622.000000 0 1 0
1.396170 5.915015 -23.194014 23.977051 1.339001 2.885323 0.021095 -0.011898 -281706.000000 0 1 0
1.696270 6.431115 -21.788414 22.780947 1.312910 2.845320 0.035665 -0.014046 -157316.000000 0 1 0
2.419170 7.608215 -21.710114 23.131501 1.262938 2.789207 0.025679 -0.021685 -359361.000000 0 1 0
2.364470 8.237115 -20.444014 22.167510 1.291262 2.744660 0.036266 -0.022289 28894.800000 0 1 0
2.925470 9.677815 -20.457214 22.819204 1.277243 2.682582 0.023685 -0.021356 -201196.000000 0 1 0
2.810370 10.276915 -19.210014 21.966743 1.303858 2.635209 0.032743 -0.031192 -374868.000000 0 1 0
3.384870 11.556715 -19.166514 22.635597 1.285873 2.580628 0.033817 -0.024400 273899.000000 0 1 0
4.664470 11.484415 -18.260714 22.070404 1.184994 2.545231 0.025820 -0.043011 840725.000000 0 1 0
5.682070 10.753615 -18.980414 22.542898 1.084698 2.571718 0.033391 -0.032774 -385366.000000 0 1 0
6.885970 10.734915 -18.269014 22.280302 1.000451 2.532142 0.038015 -0.019466 -705243.000000 0 1 0
7.989270 9.930715 -18.937214 22.826861 0.893317 2.549191 0.049809 -0.016949 -627580.000000 0 1 0
7.664470 8.526515 -19.081714 22.261118 0.838590 2.600559 0.048388 -0.015381 68072.600000 0 1 0
6.644370 8.221215 -20.010214 22.630614 0.891077 2.655596 0.031097 -0.018715 -47013.400000 0 1 0
6.366970 6.741515 -20.072414 22.110815 0.813963 2.708828 0.038371 -0.020606 217277.000000 0 1 0
7.491470 6.024315 -20.577014 22.711847 0.677270 2.704541 0.036821 -0.006442 243035.000000 0 1 0
7.294370 4.643515 -20.725014 22.456541 0.566890 2.746327 0.038264 -0.010361 -180963.000000 0 1 0
7.357070 4.271515 -22.194714 23.769258 0.526033 2.775567 0.048293 -0.019663 619801.000000 0 1 0
6.236370 4.836515 -22.912414 24.233508 0.659643 2.809876 0.043050 -0.019069 584002.000000 0 1 0
6.436470 4.642415 -24.267114 25.531803 0.624857 2.825528 0.042980 -0.020105 -6749.030000 0 0 1
5.490470 5.438915 -25.208574 26.366631 0.780681 2.844114 0.021076 -0.024942 -142281.000000 0 0 1
5.760070 6.828915 -25.247314 26.781324 0.870098 2.801491 0.026547 -0.032267 40415.600000 0 0 1
5.318570 7.462115 -24.055114 25.741384 0.951569 2.777625 0.052406 -0.034651 -957756.000000 0 0 1
5.075770 8.996715 -24.249314 26.357798 1.057131 2.738890 0.059176 -0.040468 -198779.000000 0 0 1
3.945270 9.359015 -24.994714 26.979474 1.171854 2.755625 0.069396 -0.038524 -110529.000000 0 0 1
2.763070 9.242615 -24.202014 26.053751 1.280304 2.762299 0.045974 -0.036211 -352710.000000 0 0 1
1.476470 9.522615 -25.002514 26.795258 1.416972 2.773721 0.043864 -0.023374 -100981.000000 0 0 1
1.263270 10.935415 -25.212044 27.510476 1.455785 2.729919 0.066033 -0.034010 -179866.000000 0 0 1
0.194270 11.044515 -26.113014 28.353281 1.553208 2.741404 0.078907 -0.037154 -672432.000000 0 0 1
-0.100530 12.500915 -26.548704 29.344789 -1.562755 2.701509 0.072113 -0.033118 -251388.000000 0 0 1
-0.461930 13.280715 -25.433394 28.695789 -1.536028 2.660114 0.069649 -0.034645 92124.900000 0 0 1
-0.490130 14.622315 -25.933394 29.775716 -1.537290 2.627945 0.065244 -0.034297 -123909.000000 0 0 1
-0.923530 15.606115 -24.837614 29.348097 -1.511688 2.579818 0.066259 -0.026024 1119330.000000 0 0 1
-2.253130 15.296915 -24.334614 28.831331 -1.424555 2.575557 0.057977 -0.015755 765981.000000 0 0 1
-2.480530 15.855915 -23.030314 28.070597 -1.415612 2.532981 0.061773 -0.023114 -147629.000000 0 0 1
-3.836530 15.329815 -22.491014 27.487595 -1.325567 2.529112 0.058625 -0.021688 1430450.000000 0 0 1
-5.012930 15.849515 -23.183614 28.527470 -1.264469 2.519528 0.053403 -0.017544 723905.000000 0 0 1
-5.336630 15.230015 -24.433114 29.281565 -1.233763 2.557875 0.047838 -0.016140 -196536.000000 0 0 1
-6.836830 15.436515 -24.773514 29.979247 -1.153863 2.543401 0.030238 -0.011586 370498.000000 0 0 1
-7.312830 16.767315 -25.040014 31.010041 -1.159531 2.510665 0.029842 -0.010589 775725.000000 0 0 1
-8.651830 16.723315 -25.575974 31.759311 -1.093364 2.506988 0.016085 0.001598 807536.000000 0 0 1
-9.285230 18.071715 -25.942544 32.951752 -1.096171 2.477196 0.014361 -0.002122 -81883.800000 0 0 1
-9.749030 18.841615 -24.853114 32.676097 -1.093310 2.435018 0.017293 -0.003950 457627.000000 0 0 1
-10.755030 19.737615 -25.420104 33.932666 -1.071877 2.417550 0.014606 -0.001334 725373.000000 0 0 1
-11.313130 20.653315 -24.341814 33.868425 -1.069672 2.372752 0.011536 -0.000144 198467.000000 0 0 1
-10.431330 21.749415 -24.014614 34.037500 -1.123590 2.353973 0.019510 0.001887 522314.000000 0 0 1
-10.827030 23.009415 -24.580814 35.367700 -1.130987 2.339227 0.018262 -0.014619 -58650.800000 0 0 1
-10.442530 23.333515 -26.057784 36.503527 -1.149995 2.365767 0.028153 -0.016040 -22112.400000 0 0 1
-11.027230 22.433515 -27.029444 36.816480 -1.113930 2.395235 0.023818 -0.018696 237285.000000 0 0 1
-10.789430 22.951515 -28.260464 37.971538 -1.131356 2.410213 0.046371 -0.017654 -116654.000000 0 0 1
-11.327630 22.058915 -29.424094 38.479712 -1.096394 2.441318 0.055959 -0.019491 77565.900000 0 0 1
-10.498330 20.966515 -29.842104 37.952086 -1.106574 2.475610 0.030930 -0.018005 144517.000000 0 0 1
-10.538130 19.781015 -29.091614 36.724144 -1.081301 2.485146 0.024424 -0.012351 -226546.000000 0 0 1
-9.499630 18.832915 -29.695344 36.424375 -1.103622 2.523975 0.019258 -0.012357 -955224.000000 0 0 1
-8.178430 19.301015 -29.586714 36.260027 -1.170001 2.525183 0.026437 -0.016092 90034.500000 0 0 1
-7.194730 18.433115 -30.178514 36.087208 -1.198666 2.561234 0.026765 -0.008742 651315.000000 0 0 1
-6.939430 17.106415 -29.400774 34.715856 -1.185418 2.580920 0.028198 -0.017063 -780144.000000 0 0 1
-8.033430 16.216115 -29.570714 34.668797 -1.110837 2.592405 0.010224 -0.017032 183935.000000 0 0 1
-7.916930 15.067815 -28.759504 33.418945 -1.087020 2.607194 0.000793 -0.006581 -16840.600000 0 0 1
-9.195730 14.197515 -28.615674 33.241355 -0.996040 2.607725 -0.001007 0.007310 130594.000000 0 0 1
-10.096030 14.623115 -27.636004 32.855959 -0.966532 2.570158 0.003480 0.000138 -1196890.000000 0 0 1
-11.354430 14.087915 -27.808424 33.176812 -0.892426 2.564750 0.028055 -0.000844 -115777.000000 0 0 1
-12.385330 14.607815 -26.730844 32.883471 -0.867548 2.519904 0.026040 0.001465 437535.000000 0 0 1
-12.609430 16.007715 -26.934904 33.774750 -0.903595 2.493914 0.012993 -0.000867 -79923.000000 0 0 1
-13.658030 16.529915 -26.134424 33.805147 -0.880246 2.454495 0.006022 0.002440 142608.000000 0 0 1
-14.479630 17.651015 -26.753804 35.170784 -0.883782 2.435160 -0.011498 0.002984 392077.000000 0 0 1
-13.767230 18.931715 -26.798354 35.582274 -0.942045 2.423615 -0.008424 0.000641 735471.000000 0 0 1
-14.613230 19.872215 -27.439074 36.896534 -0.936731 2.409349 -0.004722 -0.004971 -58598.400000 0 0 1
-14.188030 21.289115 -27.265584 37.389018 -0.982947 2.388008 0.003125 -0.004864 152132.000000 0 0 1
-15.193130 22.208515 -27.760324 38.661155 -0.970813 2.371781 0.004416 -0.013108 723458.000000 0 0 1
-14.876030 23.573415 -27.653944 39.265033 -1.007857 2.352218 0.022277 -0.014099 -198792.000000 0 0 1
-14.696130 24.185715 -26.265194 38.610691 -1.024780 2.318910 -0.012550 -0.009110 -92243.800000 0 0 1
-14.160530 25.467815 -26.427134 39.338577 -1.063346 2.307415 0.020100 -0.021554 150895.000000 0 0 1
-13.656930 26.062615 -25.209714 38.746630 -1.088130 2.279210 0.031679 -0.026509 -164516.000000 0 0 1
-13.470130 27.592315 -25.460964 39.887855 -1.116646 2.263102 0.063897 -0.034418 -223811.000000 0 0 1
-14.619630 28.347915 -25.795454 41.021254 -1.094651 2.250846 0.065056 -0.035960 -160057.000000 0 0 1
-15.147130 29.007515 -24.658314 40.974430 -1.089563 2.216546 0.060617 -0.033601 870254.000000 0 0 1
-16.650030 29.480615 -24.717914 41.920227 -1.056677 2.201411 0.054661 -0.032409 644306.000000 0 0 1
-17.541230 28.441715 -24.932514 41.692399 -1.018157 2.211814 0.037368 -0.026216 -1075860.000000 0 0 1
-18.820130 28.948615 -25.203804 42.748700 -0.994335 2.201336 0.020373 -0.018891 -641506.000000 0 0 1
-19.845530 27.838915 -25.011014 42.360371 -0.951485 2.202393 0.012573 -0.004234 -370155.000000 0 0 1
-20.255030 27.590415 -23.647914 41.601936 -0.937528 2.175396 0.030715 -0.015961 -155755.000000 0 0 1
-21.182130 26.529315 -23.616414 41.354833 -0.897006 2.178602 0.042124 -0.021226 91494.100000 0 0 1
-21.878730 26.468615 -22.214314 40.899171 -0.880050 2.144978 0.039612 -0.014728 -391968.000000 0 0 1
-22.595430 27.621915 -21.951514 41.897406 -0.885160 2.122260 0.031751 -0.009851 -441386.000000 0 0 1
-23.083930 27.581215 -20.650414 41.473255 -0.873931 2.091996 0.025527 -0.007533 194295.000000 0 0 1
-24.423330 28.398315 -20.535814 42.716308 -0.860510 2.072305 0.005795 -0.002058 916260.000000 0 0 1
-25.579550 27.614815 -20.839214 43.025158 -0.823640 2.076416 -0.006309 -0.007813 133683.000000 0 0 1
-26.717500 28.445515 -20.952214 44.294101 -0.816714 2.063517 0.007963 -0.005293 37374.900000 0 0 1
-27.988530 27.664515 -21.314414 44.754748 -0.779576 2.067180 0.005525 -0.007029 -118927.000000 0 0 1
-27.879400 27.167615 -22.623314 45.023934 -0.772468 2.097253 -0.004270 -0.000465 -173165.000000 0 0 1
-29.167600 26.751415 -23.003614 45.777214 -0.742216 2.097299 -0.008582 0.002374 34875.500000 0 0 1
-29.293750 26.497115 -24.538914 46.501389 -0.735313 2.126690 -0.009665 0.012809 4764.000000 0 0 1
-28.703790 25.240615 -24.917214 45.627445 -0.721287 2.148500 0.006487 0.011840 -153438.000000 0 0 1
-28.589520 25.113315 -26.313174 46.264699 -0.720758 2.175785 0.038639 0.014355 -132222.000000 0 0 1
-28.792380 23.679715 -26.845614 45.939276 -0.688269 2.194902 0.034364 0.007900 503829.000000 0 0 1
-27.755060 22.760215 -26.451604 44.587645 -0.686841 2.205886 0.023510 0.005891 542537.000000 0 0 1
-28.042000 21.455115 -26.905614 44.391303 -0.653099 2.221946 0.043682 -0.008260 574185.000000 0 0 1
-26.872080 20.440815 -26.534774 42.942168 -0.650296 2.236889 0.048735 -0.006789 683774.000000 0 0 1
-26.786840 20.120815 -25.163454 41.899659 -0.644234 2.215003 0.048971 0.003143 13399.100000 0 0 1
-26.239630 18.837915 -24.967014 40.825691 -0.622651 2.228816 0.053326 0.000359 -149924.000000 0 0 1
-27.190500 17.639615 -25.209324 41.060800 -0.575490 2.231853 0.044983 -0.004267 62222.800000 0 0 1
-27.730050 17.488915 -26.521744 42.168954 -0.562677 2.250985 0.053634 -0.001853 161398.000000 0 0 1
-28.484240 16.303215 -26.558174 42.219466 -0.519847 2.251127 0.040715 -0.004023 -142868.000000 0 0 1
-29.256570 15.944815 -27.855474 43.429385 -0.498996 2.267114 0.042808 -0.004945 -368466.000000 0 0 1
-30.523590 16.536615 -27.867454 44.516785 -0.496499 2.247208 0.031593 -0.007086 -723580.000000 0 0 1
-31.151290 16.107815 -29.026144 45.523418 -0.477221 2.262187 0.037539 -0.006934 824934.000000 0 0 1
-32.579300 16.745915 -29.282904 46.896961 -0.474789 2.245172 0.031035 -0.005985 1491960.000000 0 0 1
-33.477340 16.573115 -28.166304 46.783983 -0.459684 2.216863 0.013932 -0.001270 692640.000000 0 0 1
-34.827611 16.771315 -28.569314 48.067091 -0.448781 2.207270 0.022893 -0.003111 1121510.000000 0 0 1
-35.962134 16.458315 -27.524454 48.184508 -0.429203 2.178800 0.012166 0.013115 624445.000000 0 0 1
35.650911 17.594615 -26.822654 47.958448 0.458454 2.164325 0.017898 0.003404 188647.000000 0 0 1
34.616251 17.257315 -25.914554 46.558177 0.462473 2.161091 0.033716 0.000743 160224.000000 0 0 1
34.268191 18.459615 -24.963014 46.240874 0.494111 2.141052 0.040485 -0.002821 -85807.900000 0 0 1
33.544731 19.449215 -25.645434 46.488808 0.525434 2.155134 0.046339 -0.010704 121123.000000 0 0 1
33.178301 20.535115 -24.795014 46.230762 0.554224 2.136881 0.048906 -0.011157 -386587.000000 0 0 1
32.365431 21.635015 -25.513314 46.545937 0.589244 2.150925 0.054365 -0.022174 1114890.000000 0 0 1
30.999621 21.385515 -25.866914 45.688226 0.603891 2.172638 0.049322 -0.017378 959478.000000 0 0 1
29.985011 21.379715 -24.867814 44.436486 0.619407 2.164731 0.042768 -0.015224 541856.000000 0 0 1
28.576451 21.203815 -25.516844 43.787266 0.638363 2.192900 0.028335 -0.011016 359052.000000 0 0 1
28.342971 19.893215 -25.998734 43.301249 0.611983 2.214817 0.026218 -0.017375 432827.000000 0 0 1
27.071351 19.849915 -26.665594 42.871099 0.632691 2.242084 0.020188 -0.012118 441272.000000 0 0 1
26.490851 18.447815 -26.899564 42.019919 0.608295 2.265506 0.039719 -0.009147 -285168.000000 0 0 1
27.284841 17.495115 -27.630334 42.590808 0.570166 2.276723 0.032467 -0.009897 688064.000000 0 0 1
28.279801 16.852415 -26.805394 42.453271 0.537412 2.254166 0.028163 -0.009694 1414410.000000 0 0 1
29.364701 15.867615 -27.490434 43.241078 0.495415 2.259774 0.011422 0.007623 955985.000000 0 0 1
28.808041 14.708915 -28.119924 42.860069 0.472079 2.286418 0.013104 0.008956 316813.000000 0 0 1
28.049901 13.817715 -27.291494 41.503637 0.457720 2.288383 0.028898 -0.002075 272451.000000 0 0 1
28.862881 12.844215 -26.322384 41.120648 0.418695 2.265458 0.023852 -0.006975 406186.000000 0 0 1
29.655891 13.559915 -25.357634 41.308023 0.428860 2.231746 0.029408 -0.014288 172771.000000 0 0 1
30.357271 12.738815 -24.490914 41.032258 0.397313 2.210390 0.027508 -0.016931 -200623.000000 0 0 1
-14.052830 -31.476919 -24.564914 42.328636 1.150900 2.189940 0.087596 -0.016248 -114169.000000 0 0 1
-13.517830 -30.255119 -25.010914 41.516861 1.150611 2.217336 0.072398 -0.016987 -78821.300000 0 0 1
-13.942030 -29.830319 -26.299974 42.141627 1.133585 2.244757 0.057342 -0.009184 33799.400000 0 0 1
-13.247930 -28.480319 -26.710724 41.232257 1.135406 2.275504 0.054756 -0.009856 -51566.700000 0 0 1
-13.674430 -27.295819 -26.045024 40.129728 1.106372 2.277093 0.053302 -0.014179 275607.000000 0 0 1
-13.148630 -26.111519 -26.687394 39.584276 1.104307 2.310666 0.043389 -0.007304 -165169.000000 0 0 1
-13.768130 -24.875819 -26.028814 38.546944 1.065290 2.312100 0.017373 -0.002786 -195808.000000 0 0 1
-13.280930 -24.621019 -24.726914 37.336282 1.076117 2.294648 0.022374 -0.004043 242814.000000 0 0 1
-13.807030 -23.400919 -24.160714 36.359004 1.037747 2.297627 0.012912 0.004744 -594489.000000 0 0 1
-13.161730 -22.968719 -22.889514 34.996043 1.050445 2.283736 0.020914 0.002196 -27738.800000 0 0 1
-11.791030 -22.635019 -23.052414 34.391660 1.090553 2.305397 0.035579 -0.008235 295302.000000 0 0 1
-11.272030 -21.948819 -21.889114 32.983975 1.096360 2.296456 0.027953 -0.000784 -15188.300000 0 0 1
-9.759030 -21.709119 -21.968914 32.390704 1.148328 2.316171 0.044687 -0.004172 -238710.000000 0 0 1
-9.447830 -20.685719 -22.873014 32.254228 1.142358 2.359085 0.052214 -0.004676 -376994.000000 0 0 1
-8.067730 -20.447519 -22.850514 31.707023 1.194990 2.375574 0.068193 -0.006163 -433685.000000 0 0 1
-7.727430 -19.249819 -23.764014 31.543574 1.189059 2.423970 0.073769 0.008813 -217808.000000 0 0 1
-8.054130 -18.031419 -23.166814 30.441786 1.150713 2.435681 0.056743 0.005771 -130014.000000 0 0 1
-8.130330 -16.864919 -23.968514 30.414099 1.121583 2.478468 0.052984 -0.000289 -355238.000000 0 0 1
-6.850030 -16.386919 -24.675714 30.403040 1.174854 2.517716 0.051659 -0.001687 -124320.000000 0 0 1
-6.652730 -17.182419 -25.810564 31.712451 1.201388 2.521619 0.051841 -0.003737 -271060.000000 0 0 1
-5.504930 -16.794019 -26.524684 31.873220 1.254042 2.553848 0.033797 -0.005884 -291886.000000 0 0 1
-5.270630 -17.329519 -27.978854 33.330287 1.275544 2.567053 0.048735 -0.002984 -249645.000000 0 0 1
-6.259730 -17.121219 -28.954934 34.215618 1.220281 2.579701 0.068603 -0.007862 -7134.430000 0 0 1
-5.828630 -17.862719 -30.097854 35.481410 1.255388 2.583508 0.064926 -0.019190 -442081.000000 0 0 1
-6.813530 -17.730019 -31.251434 36.570888 1.203903 2.595469 0.067666 -0.018081 -112794.000000 0 0 1
-6.928030 -16.489819 -32.010334 36.668422 1.173049 2.632049 0.060722 -0.022582 -46342.700000 0 0 1
-6.934030 -15.261319 -31.430984 35.621558 1.144328 2.651647 0.044669 -0.023255 -230312.000000 0 0 1
-7.378630 -14.146719 -32.433794 36.145882 1.090035 2.684417 0.041831 -0.028843 -292503.000000 0 0 1
-6.657330 -13.974519 -33.622434 37.014528 1.126214 2.710137 0.048372 -0.038160 89720.300000 0 0 1
-7.342130 -13.098919 33.892728 37.070279 1.059917 0.417062 0.053989 -0.027439 125607.000000 0 0 1
-7.624130 -11.642119 -34.119825 36.848728 0.991002 2.754321 0.035767 -0.024223 -436379.000000 0 0 1
-6.502330 -10.819619 -34.098722 36.360243 1.029660 2.787041 0.022225 -0.025369 -500457.000000 0 0 1
-6.121930 -10.321319 33.083291 35.192496 1.035440 0.347971 0.022137 -0.025637 -551892.000000 0 0 1
-4.912330 -9.407619 33.144602 34.802283 1.089574 0.309885 0.025618 -0.022860 -521114.000000 0 0 1
-4.706230 -8.852919 31.871817 33.411607 1.082188 0.304775 0.029236 -0.015808 -207473.000000 0 0 1
-3.658330 -7.909019 31.885247 33.054575 1.137554 0.266782 0.017884 -0.016629 -852809.000000 0 0 1
-3.673230 -6.981119 30.674627 31.672723 1.086435 0.251713 0.019733 -0.011641 1184300.000000 0 0 1
-4.774430 -6.022919 30.587087 31.537924 0.900516 0.246178 0.020838 -0.010712 417973.000000 0 0 1
-6.052930 -6.535319 30.354647 31.634679 0.823700 0.285443 0.019719 -0.010432 -544145.000000 0 0 1
-7.112630 -5.404019 30.186467 31.480402 0.649730 0.287707 0.013342 -0.002526 -573907.000000 0 0 1
-8.344330 -5.963319 29.895947 31.606276 0.620494 0.330481 0.023656 -0.003401 -1999650.000000 0 0 1
-9.287530 -4.966519 29.850037 31.653582 0.491061 0.339196 0.022653 -0.009082 -520515.000000 0 0 1
-10.527730 -5.512219 29.111497 31.443551 0.482341 0.387561 0.035783 -0.015967 -289992.000000 0 0 1
-10.125930 -5.863319 27.783977 30.147344 0.524865 0.398598 0.029106 -0.007146 240988.000000 0 0 1
-11.174130 -6.421619 27.023797 29.939672 0.521598 0.445005 0.033689 -0.011976 -122909.000000 0 0 1
-10.900130 -6.388319 25.538017 28.492346 0.530119 0.459416 0.030605 -0.013627 -246744.000000 0 0 1
-9.829330 -7.159919 25.064807 27.859015 0.629549 0.451710 0.032063 -0.009629 18951.400000 0 0 1
-9.305030 -6.662919 23.804007 26.412285 0.621420 0.448156 0.028597 -0.014812 150595.000000 0 0 1
-10.201530 -6.778019 22.502267 25.619617 0.586440 0.498456 0.031195 -0.018145 508225.000000 0 0 1
-11.275330 -5.824919 22.498867 25.831410 0.476845 0.513585 0.024746 -0.015364 -319246.000000 0 0 1
-12.038830 -6.079219 21.379167 25.277641 0.467614 0.562782 0.028118 -0.014529 182042.000000 0 0 1
-13.276130 -5.094019 21.396067 25.690394 0.366374 0.586572 0.037041 -0.006035 304985.000000 0 0 1
-12.912830 -3.762319 21.211067 25.115843 0.283514 0.565111 0.027949 -0.000294 -345788.000000 0 0 1
-13.960430 -2.881519 20.879067 25.281064 0.203548 0.599039 0.038600 -0.008772 -299652.000000 0 0 1
-13.573530 -1.599519 20.183167 24.375385 0.117300 0.595239 0.035068 -0.012324 -145201.000000 0 1 0
-12.891830 -0.716519 21.066367 24.708389 0.055522 0.549856 0.034562 -0.010584 39489.400000 0 1 0
-13.058130 0.689481 20.744567 24.521974 -0.052752 0.562437 0.041777 -0.026231 -78030.600000 0 1 0
-12.309130 1.279481 19.485567 23.083307 -0.103574 0.565835 0.045715 -0.031337 48185.400000 0 1 0
-12.865130 0.890481 18.274867 22.366835 -0.069106 0.614517 0.044693 -0.027779 1180720.000000 0 1 0
-14.116630 1.583481 17.964467 22.902156 -0.111704 0.669067 0.049477 -0.032310 999199.000000 0 1 0
-15.162530 0.776481 17.206867 22.947364 -0.051166 0.722975 0.054706 -0.026275 -428359.000000 0 1 0
-15.550430 -0.438519 17.799167 23.639343 0.028192 0.718268 0.042298 -0.023289 -80317.100000 0 1 0
-16.791830 -0.871519 17.310567 24.132568 0.051855 0.770860 0.047981 -0.019781 -254563.000000 0 1 0
-16.939530 -2.358519 17.293267 24.322158 0.138342 0.779865 0.052255 -0.017669 -189616.000000 0 1 0
-17.244230 -2.870519 18.582467 25.512966 0.164950 0.754880 0.048490 -0.010793 -25590.800000 0 0 1
-17.131430 -4.278219 18.725367 25.737685 0.244724 0.756057 0.057651 -0.007966 -389370.000000 0 0 1
-17.880130 -4.834319 19.920767 27.201225 0.264060 0.749032 0.045691 -0.001578 -577777.000000 0 0 1
-17.300030 -4.607119 21.179667 27.732560 0.260267 0.701754 0.045207 0.000052 -213378.000000 0 0 1
-18.146430 -4.687619 22.293167 29.124766 0.252796 0.699077 0.039291 -0.003721 -650295.000000 0 0 1
-18.339330 -6.049519 22.995467 30.028640 0.318627 0.698536 0.050420 -0.003764 -1392.840000 0 0 1
-17.194030 -6.604419 23.611717 29.946055 0.366735 0.662471 0.028044 -0.006283 408947.000000 0 0 1
-16.253630 -7.229219 22.716767 28.852965 0.418501 0.664332 0.037412 0.001056 -126371.000000 0 0 1
-15.035730 -7.620919 23.568107 28.975977 0.469116 0.620880 0.042504 -0.003400 -479373.000000 0 0 1
-15.323730 -8.813519 24.175847 29.949397 0.521951 0.631364 0.038875 -0.010319 507837.000000 0 0 1
-14.622830 -8.986919 25.429207 30.679577 0.551072 0.593722 0.050563 -0.007724 390257.000000 0 0 1
-15.430830 -9.913619 26.395137 32.141774 0.571053 0.607269 0.039759 -0.008815 107260.000000 0 0 1
-15.391230 -11.296119 26.193617 32.412927 0.633138 0.629839 0.046259 -0.016443 -34158.100000 0 0 1
-14.937730 -11.989119 27.350717 33.390664 0.676328 0.610934 0.037635 -0.017191 -214734.000000 0 0 1
-14.921930 -13.508419 27.177627 33.819592 0.735721 0.637467 0.023144 -0.020366 -200891.000000 0 0 1
-16.154430 -14.170519 27.386397 34.810687 0.720070 0.665313 0.031077 -0.016211 -127193.000000 0 0 1
-16.257130 -15.532319 26.852257 35.022720 0.762602 0.697096 0.038750 -0.010878 195968.000000 0 0 1
-15.329730 -16.633219 27.526197 35.628024 0.826157 0.687871 0.029366 -0.010670 669004.000000 0 0 1
-13.970830 -16.448619 27.160507 34.690551 0.866673 0.671424 0.037226 -0.021478 -283645.000000 0 0 1
-13.175330 -17.267619 27.946827 35.394705 0.919022 0.660678 0.045193 -0.021013 156761.000000 0 0 1
-11.822830 -17.613419 27.231577 34.519134 0.979634 0.661806 0.044225 -0.024348 722159.000000 0 0 1
-10.897830 -18.238619 28.127457 35.250018 1.032207 0.646924 0.054505 -0.026204 -641580.000000 0 0 1
-9.702930 -18.524519 27.512717 34.557984 1.088300 0.649920 0.046353 -0.021019 -654270.000000 0 0 1
-8.685130 -19.236519 28.450367 35.424547 1.146703 0.638273 0.059520 -0.026993 27516.900000 0 0 1
-8.977030 -20.566419 28.620297 36.368751 1.159234 0.664950 0.058265 -0.016692 -183392.000000 0 0 1
-8.102830 -21.093319 29.576647 37.220451 1.204035 0.652391 0.064479 -0.021674 -128266.000000 0 0 1
-8.631730 -22.362319 30.281047 38.620226 1.202422 0.669596 0.053925 -0.016411 -108255.000000 0 0 1
-8.603430 -23.499319 29.433227 38.633559 1.219839 0.704622 0.065493 -0.017601 -33087.500000 0 0 1
-8.703130 -24.702219 30.181447 39.960779 1.232055 0.714720 0.050938 -0.015014 -230139.000000 0 0 1
-8.717830 -25.955619 29.314177 40.112538 1.246760 0.751306 0.047595 -0.011836 -286415.000000 0 0 1
-9.766630 -26.015519 28.361657 39.706144 1.211661 0.775189 0.055170 -0.017570 132021.000000 0 0 1
-9.641030 -27.124519 27.513687 39.820748 1.229287 0.808010 0.042442 -0.010912 26155.300000 0 0 1
-10.963630 -27.412319 26.737707 39.831412 1.190331 0.834873 0.030683 -0.009271 237533.000000 0 0 1
-11.220530 -26.729019 25.506927 38.612745 1.173348 0.849201 0.037422 -0.008001 96586.600000 0 0 1
-11.384530 -25.324219 25.604117 37.768961 1.148316 0.825875 0.034153 -0.001518 -446062.000000 0 0 1
-11.725530 -24.572519 24.289817 36.486874 1.125570 0.842346 0.043882 -0.027112 -374965.000000 0 0 1
-12.962730 -25.000019 23.802867 36.872887 1.092452 0.869068 0.026306 -0.014196 -276794.000000 0 0 1
-13.151430 -24.383619 22.547067 35.719620 1.076162 0.887667 0.040227 -0.020443 841119.000000 0 0 1
-14.559930 -24.690519 21.899967 36.072453 1.037987 0.918377 0.028341 -0.010706 572246.000000 0 0 1
-14.744530 -26.015719 21.543167 36.855486 1.055181 0.946495 0.035378 -0.009491 43800.000000 0 0 1
-15.827230 -26.116119 20.639567 36.858440 1.025953 0.976448 0.040136 -0.007575 -102503.000000 0 0 1
-15.807030 -27.503119 19.945567 37.471448 1.049161 1.009496 0.041272 -0.008618 34270.800000 0 0 1
-14.925830 -27.760919 18.882467 36.742300 1.077479 1.031052 0.027638 -0.010828 -254368.000000 0 0 1
-15.047330 -29.097719 18.504667 37.623425 1.093538 1.056596 0.031036 -0.004699 112593.000000 0 0 1
-14.149530 -29.528419 17.326367 37.045104 1.123940 1.084098 0.020127 -0.018731 3749.850000 0 0 1
-14.483130 -28.928319 16.105667 36.138639 1.106624 1.108881 0.032542 -0.024576 298151.000000 0 0 1
-13.436130 -29.101419 15.138967 35.448702 1.138255 1.129550 0.034091 -0.014740 207927.000000 0 0 1
-13.648330 -28.345619 13.807067 34.356748 1.122060 1.157234 0.027749 -0.015345 -39535.200000 0 0 1
-13.798030 -26.955619 13.991867 33.358108 1.097690 1.137963 0.026983 -0.015841 -75495.100000 0 0 1
-14.193730 -26.340419 12.766467 32.530944 1.076548 1.167513 0.031575 -0.028920 538456.000000 0 0 1
-13.122130 -26.274219 11.622167 31.584801 1.107605 1.193975 0.034689 -0.026851 494729.000000 0 0 1
-13.754330 -25.890619 10.418967 31.113673 1.082464 1.229331 0.034614 -0.015166 -58209.800000 0 0 1
-12.961030 -26.206719 9.291967 30.677697 1.111503 1.263073 0.051552 -0.009693 18076.000000 0 0 1
-13.537030 -25.792219 7.891767 30.178962 1.087467 1.306221 0.064548 -0.009643 50938.100000 0 0 1
-14.744330 -26.479019 7.611767 31.248563 1.062724 1.324733 0.036127 -0.002748 -182845.000000 0 0 1
-15.279730 -25.933019 6.429467 30.778721 1.038356 1.360353 0.058769 -0.004535 63647.400000 0 0 1
-16.053230 -26.925619 5.473267 31.822191 1.033171 1.397942 0.064564 -0.018856 473034.000000 0 0 1
-15.329930 -27.921619 4.716467 32.200445 1.068695 1.423795 0.078985 -0.006831 -164782.000000 0 0 1
-16.027530 -28.218219 3.540567 32.644835 1.054250 1.462125 0.069621 -0.009584 -346877.000000 0 0 1
-15.296830 -29.205119 2.611467 33.071918 1.088312 1.491751 0.061314 -0.014773 202131.000000 0 0 1
-14.032330 -28.881019 2.053667 32.175101 1.118519 1.506925 0.062725 -0.004237 -143904.000000 0 0 1
-13.432130 -29.970019 1.436667 32.873822 1.149452 1.527080 0.049052 -0.006099 -1050180.000000 0 0 1
-12.019530 -29.679719 1.005067 32.036932 1.186009 1.539419 0.040419 -0.010596 -942799.000000 0 0 1
-11.807730 -28.985319 -0.201233 31.298749 1.183953 1.577226 0.037551 -0.010467 -143345.000000 0 0 1
-12.128430 -27.596819 -0.112633 30.144584 1.156720 1.574533 0.032225 -0.008728 -448976.000000 0 0 1
-11.878530 -26.875119 -1.452833 29.419079 1.154624 1.620200 0.026385 -0.008523 -540845.000000 0 0 1
-10.553730 -26.949719 -1.886433 29.003917 1.197545 1.635883 0.023233 -0.014593 -891858.000000 0 0 1
-10.237030 -26.089319 -2.950133 28.180714 1.196873 1.675675 0.032207 -0.016318 515172.000000 0 0 1
-8.795230 -26.176119 -3.514033 27.836913 1.246646 1.697370 0.015276 -0.023872 246292.000000 0 0 1
-8.478230 -25.332819 -4.588333 27.105072 1.247840 1.740895 0.016407 -0.024674 -1791730.000000 0 0 1
-7.201830 -25.589019 -4.993133 27.048025 1.296451 1.756464 0.019738 -0.015149 -1009310.000000 0 0 1
-6.662730 -24.482619 -5.938033 26.058604 1.305090 1.800688 0.007148 -0.014792 -198940.000000 0 0 1
-6.851430 -24.721719 -7.273133 26.664657 1.300440 1.847060 0.022835 -0.005529 -160197.000000 0 0 1
-6.286730 -23.639419 -7.974733 25.728223 1.310870 1.885948 0.021496 -0.001869 -275059.000000 0 0 1
-6.390230 -23.613919 -9.519333 26.250141 1.306513 1.941895 0.027473 -0.002444 237112.000000 0 0 1
-5.583330 -24.644619 -10.145533 27.229812 1.348004 1.952594 0.006682 -0.005305 206734.000000 0 0 1
-5.802230 -24.777919 -11.552333 27.947586 1.340772 1.996934 0.010753 0.001976 439384.000000 0 0 1
-7.118630 -25.522919 -11.955033 29.069178 1.298797 1.994634 0.016165 -0.006640 605132.000000 0 0 1
-7.469330 -25.240519 -13.320733 29.501129 1.283081 2.039279 0.026721 -0.007174 42369.400000 0 0 1
-8.576330 -26.040919 -13.700133 30.649250 1.252644 2.034202 0.039109 -0.011390 -447963.000000 0 0 1
-8.787430 -26.139819 -15.234033 31.505314 1.246495 2.075489 0.048455 -0.014692 712965.000000 0 0 1
-7.733430 -26.669219 -16.077433 32.086400 1.288561 2.095628 0.048999 -0.021694 539256.000000 0 0 1
-6.519430 -25.949919 -16.150533 31.252856 1.324659 2.113870 0.049977 -0.017315 205024.000000 0 0 1
-5.372430 -26.851819 -16.710033 32.079719 1.373327 2.118691 0.050773 -0.014761 -39047.800000 0 0 1
-5.357730 -26.918419 -18.154633 32.907404 1.374328 2.155184 0.089429 -0.017765 -367424.000000 0 0 1
-4.263330 -27.566919 -18.712533 33.589729 1.417358 2.161675 0.088854 -0.023665 -445680.000000 0 0 1
-24.499430 14.774515 -6.080514 29.248607 -0.542663 1.780214 0.057587 -0.010920 51915.300000 0 0 1
-24.741530 13.646815 -5.275614 28.743886 -0.504052 1.755381 0.056755 -0.009843 -211679.000000 0 0 1
-23.625130 12.821515 -5.229814 27.384101 -0.497226 1.762957 0.071514 -0.013053 -937106.000000 0 0 1
-23.874230 11.420815 -4.584814 26.859531 -0.446198 1.742332 0.075138 -0.010648 -192557.000000 0 0 1
-24.316330 10.449615 -5.481814 27.028294 -0.405876 1.775031 0.077806 -0.011911 656603.000000 0 0 1
-25.735750 10.463415 -5.648414 28.349894 -0.386158 1.771378 0.081868 -0.010895 150289.000000 0 0 1
-26.099520 9.742715 -6.963014 28.715658 -0.357272 1.815719 0.081395 -0.008863 -108551.000000 0 0 1
-25.678510 10.442115 -8.149214 28.893483 -0.386224 1.856720 0.094427 -0.001161 159839.000000 0 0 1
-26.150950 9.801915 -9.311914 29.439115 -0.358613 1.892635 0.093529 -0.013709 -378721.000000 0 0 1
-26.579450 10.737115 -10.440414 30.508278 -0.383918 1.920070 0.055580 -0.018430 1090230.000000 0 0 1
-25.479250 11.564415 -10.948914 30.046740 -0.426072 1.943781 0.055386 -0.007862 1432610.000000 0 0 1
-26.016120 12.402415 -11.960214 31.204248 -0.444851 1.964150 0.042160 -0.015059 -64265.700000 0 0 1
-24.969230 13.291915 -12.668814 30.994133 -0.489177 1.991879 0.034331 -0.011665 -399532.000000 0 0 1
-24.604230 14.283215 -11.806914 30.802298 -0.525972 1.964177 0.039758 -0.011862 88484.000000 0 0 1
-23.792830 15.183115 -12.525514 30.879026 -0.567991 1.988466 0.035250 -0.013109 -194349.000000 0 0 1
-23.872930 16.573015 -11.917914 31.410481 -0.606835 1.959971 0.033985 -0.017032 -202705.000000 0 0 1
-23.313130 16.806015 -10.636314 30.644336 -0.624604 1.925262 0.044602 -0.006272 223587.000000 0 0 1
-23.281530 18.152015 -10.250614 31.250606 -0.662224 1.904996 0.033152 -0.003887 -513537.000000 0 0 1
-22.251530 18.458715 -9.161014 30.327857 -0.692500 1.877655 0.037001 -0.006817 -470709.000000 0 0 1
-22.555730 17.980515 -7.840514 29.892031 -0.673007 1.836195 0.045142 -0.011116 695352.000000 0 0 1
-23.338830 18.914915 -7.047214 30.856737 -0.681079 1.801215 0.043043 -0.010344 245488.000000 0 0 1
-23.766330 18.450215 -5.660614 30.615216 -0.660133 1.756762 0.042000 -0.011978 -87628.200000 0 0 1
-22.737230 18.378215 -4.711614 29.613168 -0.679774 1.730581 0.050671 -0.019545 79724.300000 0 0 1
-23.303430 18.155415 -3.429014 29.739319 -0.661859 1.686356 0.043555 -0.015805 -391224.000000 0 0 1
-22.302530 17.554315 -2.472814 28.489852 -0.666825 1.657702 0.050672 -0.026186 -835437.000000 0 0 1
-21.257830 18.472615 -2.233914 28.251075 -0.715410 1.649953 0.043575 -0.030563 428877.000000 0 0 1
-20.404630 17.926615 -1.196914 27.187223 -0.720841 1.614835 0.076158 -0.040063 916278.000000 0 0 1
-19.422030 18.977815 -0.523414 27.159652 -0.773831 1.590069 0.062262 -0.030243 814925.000000 0 0 1
-20.204730 19.954515 0.185286 28.398030 -0.779168 1.564272 0.046936 -0.024718 595622.000000 0 0 1
-19.450130 21.107715 0.494586 28.706930 -0.826245 1.553567 0.053550 -0.032691 -6307.320000 0 0 1
-20.281730 22.099515 1.319386 30.024622 -0.828263 1.526839 0.045908 -0.021052 -28078.200000 0 0 1
-20.454130 21.645315 2.603286 29.894284 -0.813685 1.483603 0.036074 -0.021390 866535.000000 0 0 1
-21.748730 21.996815 3.124586 31.090677 -0.791069 1.470127 0.025466 -0.028599 720897.000000 0 0 1
-21.796130 21.833415 4.662486 31.201091 -0.786253 1.420801 0.035208 -0.025680 -246198.000000 0 0 1
-20.896730 22.645515 5.380586 31.280080 -0.825540 1.397923 0.034721 -0.023965 134840.000000 0 0 1
-20.346130 21.988515 6.529186 30.660889 -0.824174 1.356205 0.040510 -0.012847 174341.000000 0 0 1
-21.322330 21.651015 7.691586 31.345952 -0.793047 1.322887 0.021716 -0.018577 -178617.000000 0 0 1
-22.423330 20.761515 7.480886 31.461245 -0.746936 1.330716 0.039434 -0.012682 930705.000000 0 0 1
-22.929130 20.152815 8.669086 31.733800 -0.721044 1.294098 0.053196 -0.019339 -20067.700000 0 0 1
-23.355630 21.046915 9.897186 32.960771 -0.733450 1.265819 0.044706 -0.028325 -1499350.000000 0 0 1
-24.390530 21.906015 9.638986 34.171355 -0.731784 1.284837 0.057538 -0.027164 -372175.000000 0 0 1
-24.778030 22.492215 10.823686 35.171049 -0.737079 1.257975 0.061565 -0.020084 -64601.200000 0 0 1
-25.823630 23.617315 10.745386 36.607387 -0.740802 1.272878 0.069266 -0.033316 103997.000000 0 0 1
-26.649280 23.783415 11.885586 37.644417 -0.728634 1.249567 0.074161 -0.032615 285329.000000 0 0 1
-27.382940 24.984415 11.906986 38.933568 -0.739628 1.259988 0.067972 -0.029564 -287567.000000 0 0 1
-27.761560 25.402715 13.335486 39.922893 -0.741058 1.230219 0.069579 -0.025662 490068.000000 0 0 1
-26.668640 25.503215 14.281686 39.567625 -0.763064 1.201517 0.063647 -0.027253 673795.000000 0 0 1
-27.061140 26.211415 15.415886 40.706181 -0.769449 1.182393 0.063763 -0.023339 357584.000000 0 0 1
-25.910430 26.286415 16.476486 40.420300 -0.792601 1.150940 0.066669 -0.031113 252092.000000 0 0 1
-25.670770 25.051315 17.097786 39.735263 -0.773186 1.125980 0.082475 -0.030409 604541.000000 0 0 1
-24.759830 25.245215 18.205786 39.772110 -0.795105 1.095331 0.073631 -0.025522 437369.000000 0 0 1
-24.171830 23.911015 18.787386 38.845591 -0.779974 1.065985 0.068202 -0.021961 73271.600000 0 0 1
-22.921730 24.085615 19.421486 38.506061 -0.810153 1.042139 0.073267 -0.026626 385782.000000 0 0 1
-22.466430 22.837815 19.952486 37.741330 -0.793596 1.013770 0.074244 -0.027093 -1153550.000000 0 0 1
-21.010330 22.753515 20.349086 37.057277 -0.825209 0.989479 0.060844 -0.031605 -1538330.000000 0 0 1
-20.256630 22.708215 19.131486 35.944511 -0.842397 1.009540 0.055660 -0.026815 286228.000000 0 0 1
-18.876630 22.409415 19.259886 35.063546 -0.870759 0.989288 0.052072 -0.025078 395107.000000 0 0 1
-18.573730 20.892515 19.568486 34.123398 -0.844084 0.960070 0.056625 -0.019104 -638856.000000 0 0 1
-19.147330 20.420315 20.771786 34.857949 -0.817559 0.932413 0.064930 -0.018935 -38136.500000 0 0 1
-18.427430 20.745715 21.942986 35.375833 -0.844510 0.901694 0.060862 -0.020320 138455.000000 0 0 1
-19.323130 20.530115 23.210286 36.518302 -0.815675 0.882037 0.057379 -0.015977 1034230.000000 0 0 1
-20.509230 21.337315 23.346586 37.695791 -0.805184 0.902892 0.059678 -0.020798 789266.000000 0 0 1
-20.992130 21.338115 24.681986 38.796716 -0.793571 0.881250 0.062895 -0.028115 86119.600000 0 0 1
-22.145730 22.306615 24.985886 40.153617 -0.789017 0.899173 0.068835 -0.027715 -734730.000000 0 0 1
-21.619230 23.624615 25.108586 40.693423 -0.829693 0.905848 0.061232 -0.029054 -84112.200000 0 0 1
-22.512530 24.653515 25.375486 41.934772 -0.830760 0.920882 0.050686 -0.024956 -689892.000000 0 0 1
-23.338630 25.102515 24.145186 41.926340 -0.821795 0.957097 0.044714 -0.031687 -498776.000000 0 0 1
-24.302530 24.153415 23.845986 41.744838 -0.782321 0.962790 0.040729 -0.033137 -645807.000000 0 0 1
-24.884030 24.355815 22.592886 41.507339 -0.774671 0.995229 0.036633 -0.026858 -234119.000000 0 0 1
-25.881360 23.252715 22.200586 41.272262 -0.731950 1.002845 0.032231 -0.019714 809632.000000 0 0 1
-27.226690 23.568115 22.616786 42.523732 -0.713496 1.009998 0.016873 -0.019085 1035930.000000 0 0 1
-28.141010 22.511515 22.303086 42.380567 -0.674713 1.016603 0.028897 -0.015780 -565208.000000 0 0 1
-29.528630 22.770515 22.818486 43.716355 -0.656890 1.021641 0.033501 -0.006625 -1224480.000000 0 0 1
-30.284360 23.670115 22.043986 44.309752 -0.663417 1.050085 0.032100 -0.007935 -602656.000000 0 0 1
-31.653610 23.588615 22.277786 45.328507 -0.640429 1.057015 0.016826 -0.006464 -287509.000000 0 0 1
-32.424620 22.753515 21.192386 44.924333 -0.611890 1.079539 0.018539 -0.007654 -774049.000000 0 0 1
-32.139720 21.344415 21.255386 44.049258 -0.586233 1.067248 0.008343 -0.004243 398138.000000 0 0 1
-32.774990 20.529315 20.272486 43.664934 -0.559585 1.087982 0.001991 0.005105 544728.000000 0 0 1
-34.313614 20.339415 20.501586 44.848980 -0.535072 1.096036 -0.000009 0.012555 497811.000000 0 0 1
-34.941973 19.737715 19.380086 44.565757 -0.514189 1.120908 0.001097 0.010891 112164.000000 0 0 1
35.741931 19.732815 19.458086 45.227058 0.504448 1.126048 0.016556 0.004859 316545.000000 0 0 1
35.072991 18.948415 18.249886 43.843078 0.495332 1.141474 0.020490 -0.003012 -65671.400000 0 0 1
35.249451 17.583915 18.378686 43.468311 0.462721 1.134256 0.032949 -0.007252 575688.000000 0 0 1
34.519331 16.842515 17.372386 42.155123 0.453933 1.146032 0.045379 -0.016671 152166.000000 0 0 1
34.787611 15.363515 17.436186 41.835823 0.415878 1.140900 0.049861 -0.019004 -75098.000000 0 0 1
33.858551 14.550715 16.765686 40.487196 0.405887 1.143844 0.055896 -0.022889 411088.000000 0 0 1
34.415451 13.243915 16.632986 40.453440 0.367356 1.147066 0.060994 -0.025667 248162.000000 0 0 1
33.557171 12.458415 15.637686 39.061914 0.355487 1.158919 0.064588 -0.034535 -35869.600000 0 0 1
33.692331 12.934815 14.294986 38.817899 0.366559 1.193662 0.067809 -0.029812 756107.000000 0 0 1
32.733331 12.286115 13.448286 37.460326 0.359068 1.203599 0.071613 -0.022749 135053.000000 0 0 1
33.017641 12.689815 11.992786 37.350006 0.366929 1.243914 0.083854 -0.025055 1117860.000000 0 0 1
34.310941 12.228515 11.493286 38.195195 0.342367 1.265150 0.080314 -0.023006 1362900.000000 0 0 1
34.441381 12.395115 10.100886 37.972036 0.345458 1.301546 0.067027 -0.019002 514326.000000 0 0 1
35.909391 12.335415 9.536586 39.148350 0.330886 1.324719 0.058246 -0.010797 591078.000000 0 0 1
-35.576288 11.069115 9.698386 38.500082 -0.301643 1.316147 0.071682 -0.015543 858396.000000 0 0 1
-34.275034 10.931015 9.084586 37.105185 -0.308724 1.323449 0.070945 -0.003456 642115.000000 0 0 1
-34.194385 10.767815 7.560086 36.638187 -0.305070 1.362959 0.064178 -0.007901 -525962.000000 0 0 1
-34.575318 11.878115 6.771086 37.180504 -0.330911 1.387660 0.048112 -0.010893 21559.900000 0 0 1
-34.258798 11.656315 5.402586 36.588562 -0.327956 1.422597 0.047351 -0.015520 -68747.800000 0 0 1
-35.149420 12.462715 4.418786 37.554316 -0.340735 1.452859 0.057397 -0.010564 -839432.000000 0 0 1
35.627781 11.981015 4.352786 37.839533 0.324403 1.455508 0.061972 -0.019109 -184286.000000 0 0 1
34.680871 13.028115 4.172686 37.281442 0.359347 1.458637 0.051435 -0.018033 280226.000000 0 0 1
34.464321 13.841315 5.492686 37.543855 0.381896 1.423969 0.064425 -0.015037 -1501920.000000 0 0 1
33.617751 14.972815 5.307786 37.182133 0.419009 1.427556 0.068713 -0.008245 251960.000000 0 0 1
33.160081 15.554315 6.493186 37.197973 0.438597 1.395340 0.049226 -0.006771 416556.000000 0 0 1
31.939451 14.844815 7.178386 35.944768 0.435077 1.369738 0.081652 -0.025085 8416.110000 0 0 1
32.347321 13.580415 7.682386 35.913729 0.397485 1.355218 0.103981 -0.024763 95799.500000 0 0 1
31.279531 12.705615 7.990586 34.694253 0.385836 1.338396 0.110807 -0.018683 -221877.000000 0 0 1
31.219931 11.488715 7.068086 34.009301 0.352613 1.361442 0.110350 -0.023320 -293527.000000 0 0 1
30.773271 11.807115 5.776086 33.462896 0.366359 1.397316 0.119424 -0.028152 200492.000000 0 0 1
30.918641 10.766015 4.802386 33.089763 0.335075 1.425150 0.117668 -0.030539 -146343.000000 0 0 1
30.335291 11.125015 3.389186 32.488189 0.351505 1.466286 0.094134 -0.029895 289533.000000 0 0 1
28.926251 11.045115 3.290386 31.137586 0.364751 1.464926 0.079667 -0.024919 178140.000000 0 0 1
28.459421 11.504515 2.062486 30.765994 0.384159 1.503708 0.087102 -0.022519 -35520.900000 0 0 1
26.963451 11.220615 1.811886 29.261115 0.394344 1.508835 0.105994 -0.008491 30356.000000 0 0 1
26.650151 9.981315 1.251286 28.485487 0.358360 1.526855 0.073949 -0.012347 684108.000000 0 0 1
25.263951 9.672115 1.458186 27.091389 0.365629 1.516946 0.075700 -0.010768 351157.000000 0 0 1
25.008751 8.127915 1.502386 26.339283 0.314234 1.513726 0.075296 -0.010054 -2372.870000 0 0 1
25.462351 7.400515 2.681086 26.651214 0.282853 1.470027 0.081645 -0.010939 1023580.000000 0 0 1
26.872551 7.158015 2.631986 27.933825 0.260324 1.476434 0.112020 -0.021783 258495.000000 0 0 1
27.413251 6.439415 3.852986 28.421786 0.230719 1.434813 0.106692 -0.027143 1675380.000000 0 0 1
28.879851 6.290915 3.907586 29.814269 0.214480 1.439354 0.124253 -0.027390 2288060.000000 0 0 1
29.194121 5.633915 5.115786 30.169670 0.190638 1.400406 0.104117 -0.014642 616164.000000 0 0 1
30.744491 5.623315 5.346186 31.708471 0.180905 1.401383 0.106697 -0.019009 684156.000000 0 0 1
31.294781 6.833315 5.757686 32.545483 0.214979 1.392948 0.118032 -0.031069 -849186.000000 0 0 1
32.622091 6.714215 6.145686 33.868141 0.202984 1.388326 0.080214 -0.022399 -628387.000000 0 0 1
33.100641 7.924215 7.001886 34.748699 0.234975 1.367907 0.076360 -0.024692 -151210.000000 0 0 1
32.425471 7.992715 8.251786 34.400388 0.241677 1.328559 0.095750 -0.030183 492060.000000 0 0 1
33.040571 8.840315 9.261486 35.434526 0.261436 1.306356 0.084494 -0.024335 314346.000000 0 0 1
32.268321 8.656615 10.643386 35.063702 0.262098 1.262386 0.086853 -0.022279 -232568.000000 0 0 1
31.026391 9.294815 10.658486 34.097418 0.291069 1.252879 0.089743 -0.024345 -249384.000000 0 0 1
30.425751 9.144115 11.936486 33.938487 0.291951 1.211400 0.082507 -0.025368 -250699.000000 0 0 1
29.067151 9.806415 12.186986 33.008904 0.325380 1.192645 0.081565 -0.026417 -382105.000000 0 0 1
29.140471 11.255315 12.192686 33.533726 0.368591 1.198672 0.083261 -0.029933 276481.000000 0 0 1
29.235531 11.957015 10.929786 33.423745 0.388232 1.237662 0.090929 -0.032411 206662.000000 0 0 1
27.876181 12.074215 10.150786 32.029777 0.408743 1.248319 0.090159 -0.031308 426906.000000 0 0 1
27.864261 13.105615 9.181286 32.132075 0.439638 1.281022 0.079185 -0.025873 -104369.000000 0 0 1
26.639751 13.188715 8.496586 30.916186 0.459701 1.292387 0.075118 -0.019976 -203879.000000 0 0 1
26.505351 14.401315 7.577386 31.102224 0.497713 1.324691 0.067281 -0.022440 -99062.600000 0 0 1
26.271451 15.571515 8.289386 31.644513 0.535047 1.305751 0.070239 -0.016717 266735.000000 0 0 1
26.129451 16.635515 7.419686 31.851850 0.566938 1.335693 0.055275 -0.014176 -698088.000000 0 0 1
25.840551 17.971015 8.191886 32.523814 0.607671 1.316181 0.071843 -0.022311 734855.000000 0 0 1
24.466951 18.378115 8.275086 31.699588 0.644231 1.306690 0.065770 -0.023363 372266.000000 0 0 1
23.623051 17.642515 9.070486 30.847701 0.641472 1.272344 0.063439 -0.018079 -809731.000000 0 0 1
22.225251 18.251315 9.268286 30.215450 0.687533 1.259030 0.058745 -0.009204 -324301.000000 0 0 1
21.566751 18.457215 8.062586 29.509301 0.707862 1.294056 0.058522 -0.014035 -366251.000000 0 0 1
20.541751 19.411115 8.119786 29.405542 0.757106 1.291030 0.077886 -0.012274 -88866.400000 0 0 1
19.854851 19.753715 6.792886 28.819571 0.782845 1.332853 0.065837 -0.011991 -136823.000000 0 0 1
20.627351 20.615015 6.008086 29.775218 0.785099 1.367620 0.051809 -0.002460 -221181.000000 0 0 1
20.015651 20.951215 4.803386 29.370942 0.808231 1.406516 0.052210 -0.006617 -179922.000000 0 0 1
18.027770 16.816615 33.097322 41.270228 0.750653 0.640217 0.035637 -0.002930 -38536.100000 0 0 1
17.353770 17.700515 32.195997 40.633038 0.795290 0.656128 0.046900 -0.003140 -235749.000000 0 0 1
16.617170 16.941115 31.336557 39.307907 0.795051 0.648141 0.051526 -0.010964 -660294.000000 0 0 1
16.053670 17.827815 30.228927 38.591960 0.837714 0.670846 0.060339 -0.019896 117017.000000 0 0 1
17.063170 18.369115 29.369497 38.615327 0.822239 0.706612 0.069701 -0.015542 80743.100000 0 0 1
16.582070 18.560915 28.012327 37.472164 0.841647 0.726430 0.087638 -0.028551 965081.000000 0 0 1
17.751570 18.782015 26.937857 37.330021 0.813596 0.764666 0.080369 -0.024152 695633.000000 0 0 1
18.318270 20.042815 27.062657 38.336156 0.830324 0.787060 0.081958 -0.025372 -598433.000000 0 0 1
19.324570 20.332715 26.175467 38.366827 0.810814 0.819971 0.073027 -0.019078 -959255.000000 0 0 1
20.118970 21.581515 26.464057 39.634342 0.820456 0.839674 0.074001 -0.019606 -602059.000000 0 0 1
19.524570 22.800815 26.125697 39.794950 0.862650 0.854616 0.070814 -0.022707 -171102.000000 0 0 1
20.305170 23.865015 26.559717 41.076239 0.865818 0.867683 0.065759 -0.020238 -87030.400000 0 0 1
19.555070 25.238715 26.364427 41.406238 0.911608 0.880552 0.076804 -0.019153 291620.000000 0 0 1
19.438270 25.583115 24.974667 40.694915 0.921047 0.910052 0.080707 -0.026494 934930.000000 0 0 1
18.420070 26.606815 24.786117 40.762399 0.965253 0.917178 0.090482 -0.035142 580486.000000 0 0 1
18.489370 27.398715 23.460077 40.532969 0.977166 0.953552 0.071537 -0.036300 663812.000000 0 0 1
19.752970 28.090415 23.389667 41.549101 0.957931 0.972857 0.064568 -0.032739 763003.000000 0 0 1
19.632970 29.267715 22.612867 41.873553 0.979933 1.000327 0.048712 -0.023227 314160.000000 0 0 1
20.993470 29.997715 22.405667 42.925547 0.960181 1.021642 0.057247 -0.018576 193224.000000 0 0 1
21.778970 29.339115 21.414367 42.351887 0.932229 1.040685 0.064112 -0.019871 -91356.300000 0 0 1
22.910570 30.169015 21.157567 43.390164 0.921302 1.061444 0.060848 -0.022623 337416.000000 0 0 1
23.105470 30.421015 19.656367 42.961304 0.921228 1.095574 0.046824 -0.012875 475440.000000 0 0 1
22.111670 31.377915 19.211867 42.925463 0.956930 1.106758 0.050697 -0.007062 808761.000000 0 0 1
22.109570 31.354415 17.815267 42.300309 0.956622 1.136071 0.053103 -0.000503 -95772.300000 0 0 1
21.686770 32.651415 17.093667 42.762418 0.984510 1.159568 0.066030 0.003726 -35058.300000 0 0 1
22.727070 33.609515 17.175367 44.058058 0.976216 1.170344 0.059996 0.001541 276955.000000 0 0 1
22.851570 -34.268319 16.035567 44.200128 -0.982672 1.199531 0.060360 -0.003397 29063.900000 0 0 1
23.713870 33.867015 14.828167 43.922624 0.959932 1.226433 0.054226 -0.000995 -1437.300000 0 0 1
23.286170 32.704115 14.061267 42.538501 0.952045 1.233906 0.068327 0.001547 -223820.000000 0 0 1
22.293470 33.092015 13.145467 42.010518 0.977953 1.252542 0.063455 -0.001551 -208620.000000 0 0 1
21.796170 31.911315 12.278067 40.548194 0.971555 1.263165 0.071972 -0.017639 144889.000000 0 0 1
22.782670 31.455815 11.347267 40.463302 0.943963 1.286551 0.094148 -0.037341 53264.200000 0 0 1
22.417470 30.205515 10.800967 39.135368 0.932329 1.291177 0.078898 -0.036704 -1255610.000000 0 0 1
23.451870 29.435415 9.935867 38.924996 0.898057 1.312683 0.076169 -0.036344 308331.000000 0 0 1
24.527770 28.843315 10.653667 39.332543 0.866082 1.296509 0.072359 -0.036716 127395.000000 0 0 1
25.436370 29.790415 11.152067 40.728938 0.864075 1.293442 0.065395 -0.029840 -1063400.000000 0 0 1
26.851770 29.243915 11.489567 41.330791 0.828016 1.289095 0.054469 -0.028668 478210.000000 0 0 1
26.884870 28.402515 12.651767 41.104335 0.812841 1.257920 0.056550 -0.016173 -792176.000000 0 0 1
28.198870 28.083315 12.950967 41.851839 0.783345 1.256184 0.042874 -0.005434 -641741.000000 0 0 1
28.366770 26.935315 13.984167 41.542048 0.759520 1.227464 0.030996 -0.017223 -447938.000000 0 0 1
29.391770 27.185615 14.887967 42.715166 0.746424 1.214783 0.012318 -0.009294 -424283.000000 0 0 1
29.493670 26.106015 15.809267 42.442120 0.724544 1.189106 0.023161 -0.008654 -377885.000000 0 0 1
30.628970 26.310915 16.811667 43.738201 0.709708 1.176271 0.015377 -0.003742 266027.000000 0 0 1
31.863570 26.322615 16.089067 44.351158 0.690456 1.199563 0.028309 -0.004746 230577.000000 0 0 1
32.998270 26.432415 16.912567 45.536725 0.675365 1.190275 -0.000979 -0.000784 846510.000000 0 0 1
34.408370 26.555315 16.256567 46.404705 0.657288 1.212882 0.012329 -0.009421 824066.000000 0 0 1
34.445170 27.738515 15.490067 46.859760 0.677961 1.233897 0.039360 -0.014874 1332030.000000 0 0 1
35.867370 28.041315 15.321167 48.036671 0.663548 1.246178 0.075346 -0.021240 1851530.000000 0 0 1
-35.937912 29.197215 14.355667 48.477789 -0.682277 1.270159 0.067578 -0.024956 -12942.400000 0 0 1
35.675370 30.398115 14.785567 49.146622 0.705698 1.265217 0.075954 -0.023457 -322438.000000 0 0 1
35.794470 31.369815 13.750467 49.541747 0.719615 1.289550 0.057152 -0.003712 196128.000000 0 0 1
34.935770 32.542515 14.248767 49.825201 0.749946 1.280772 0.035303 -0.002932 -878739.000000 0 0 1
34.802270 33.604215 13.343467 50.184553 0.767886 1.301671 0.020992 -0.008468 484793.000000 0 0 1
33.602170 -34.340219 13.478067 49.900048 -0.796261 1.297298 0.021215 0.000691 534216.000000 0 0 1
32.247770 33.704615 13.124967 48.458070 0.807484 1.296518 0.033434 0.000632 -459914.000000 0 0 1
31.891670 32.686415 14.008767 47.767415 0.797704 1.273151 0.029807 -0.008842 -209653.000000 0 0 1
30.927270 31.797915 13.459867 46.354843 0.799278 1.276187 0.041739 -0.008625 -175790.000000 0 0 1
30.443670 30.728615 14.421667 45.596593 0.790056 1.248982 0.048820 -0.003110 -243085.000000 0 0 1
29.764070 31.253915 15.521467 45.865270 0.809810 1.225565 0.042691 0.005410 -74989.000000 0 0 1
29.231870 30.158715 16.239267 45.030702 0.801003 1.201857 0.030236 0.007421 18645.000000 0 0 1
28.740670 30.458815 17.650167 45.445505 0.814413 1.171922 0.025888 0.005727 -18205.500000 0 0 1
28.375270 29.306715 18.466967 44.777990 0.801545 1.145697 0.015435 0.004352 213713.000000 0 0 1
28.738670 29.669415 19.797967 45.805511 0.801332 1.123845 0.006823 -0.000448 29999.800000 0 0 1
28.390470 28.643215 20.900767 45.423503 0.789830 1.092653 0.014332 -0.011270 -207836.000000 0 0 1
27.081570 28.773115 21.381867 44.927584 0.815674 1.074788 0.022650 -0.008874 -380251.000000 0 0 1
27.055770 28.185415 22.671967 45.171345 0.805845 1.044990 0.019566 -0.013514 -690525.000000 0 0 1
25.770670 28.213015 23.485357 44.851574 0.830610 1.019697 0.043998 -0.015422 -312496.000000 0 0 1
24.724870 27.505915 22.795867 43.445899 0.838593 1.018439 0.050843 -0.022828 727566.000000 0 0 1
23.483570 27.427715 23.507857 43.085693 0.862715 0.993683 0.052201 -0.025983 635262.000000 0 0 1
23.330970 26.259015 24.469057 42.808934 0.844375 0.962357 0.071018 -0.031039 -151663.000000 0 0 1
24.296370 26.358815 25.505077 43.995564 0.826091 0.952412 0.052604 -0.028848 194657.000000 0 0 1
24.063970 25.299115 26.418847 43.784419 0.810415 0.923058 0.057077 -0.027249 647195.000000 0 0 1
25.300170 24.916615 27.380167 44.839824 0.777760 0.913951 0.066660 -0.036429 1266380.000000 0 0 1
25.785070 25.996115 28.210467 46.222270 0.789474 0.914329 0.064850 -0.020110 296677.000000 0 0 1
26.617970 26.890615 27.517427 46.784937 0.790493 0.942004 0.040068 -0.004470 -808311.000000 0 0 1
26.850370 28.270715 28.269537 48.159552 0.811160 0.943451 0.026770 -0.004709 5553.260000 0 0 1
27.799770 28.252715 29.333647 49.310303 0.793479 0.933682 0.038759 -0.000615 280512.000000 0 0 1
27.972270 29.515615 29.951757 50.504724 0.812238 0.935956 0.037501 -0.001468 755844.000000 0 0 1
29.487970 29.852615 30.161077 51.676006 0.791543 0.947571 0.024188 0.002302 612494.000000 0 0 1
30.156770 30.246415 29.008537 51.631111 0.786882 0.974185 -0.000313 -0.006952 -865027.000000 0 0 1
31.520270 30.424515 29.249777 52.675687 0.767711 0.982096 0.025873 -0.015955 -626313.000000 0 0 1
32.217270 30.887515 28.004607 52.690123 0.764329 1.010430 0.020865 -0.010663 -622198.000000 0 0 1
31.812470 32.130315 27.543007 52.943438 0.790369 1.023671 0.001312 -0.006324 71636.200000 0 0 1
32.202470 32.429115 26.206977 52.682561 0.788905 1.050139 -0.000876 -0.008737 -92525.500000 0 0 1
31.964570 33.943915 25.921887 53.346671 0.815421 1.063388 0.007230 -0.011449 83723.400000 0 0 1
32.852570 -33.908619 26.650127 54.215450 -0.801215 1.056917 0.019837 -0.013189 380123.000000 0 0 1
32.590870 -32.537319 26.390817 53.078406 -0.784576 1.050423 0.019401 -0.008323 -185477.000000 0 0 1
33.710170 -31.726819 27.049407 53.615642 -0.755098 1.041987 0.027494 -0.015627 -216310.000000 0 0 1
33.778470 -31.667919 28.452947 54.345306 -0.753161 1.019774 0.022597 -0.022517 405327.000000 0 0 1
34.853970 -30.874619 28.935887 54.820862 -0.724930 1.014757 0.035241 -0.026772 -19529.600000 0 0 1
34.709870 -30.538719 30.448047 55.357673 -0.721558 0.988403 0.027028 -0.027582 -262664.000000 0 0 1
34.537770 -31.597619 31.363387 56.346509 -0.740971 0.980489 0.038859 -0.028382 613035.000000 0 0 1
33.315370 -32.332919 31.331007 56.008602 -0.770434 0.977139 0.033859 -0.030251 -21695.200000 0 0 1
33.201270 -33.261019 32.580383 57.184797 -0.786297 0.964609 0.043512 -0.028568 -424611.000000 0 0 1
32.866670 -32.467919 33.719188 57.195869 -0.779295 0.940308 0.039307 -0.029893 233009.000000 0 0 1
33.178570 -33.089619 -33.509264 57.607388 -0.784056 2.191593 0.042077 -0.028014 -179245.000000 0 0 1
32.398870 34.302515 -33.161404 57.671726 0.813930 2.183404 0.036522 -0.020639 -86219.500000 0 0 1
32.758070 33.149015 -33.901284 57.630247 0.791330 2.199696 0.054101 -0.026561 68569.200000 0 0 1
31.866770 32.085215 -33.639894 56.361286 0.788814 2.210380 0.053016 -0.018873 92371.800000 0 0 1
31.912170 31.128515 33.667115 55.864530 0.772968 0.923971 0.040473 -0.009012 358811.000000 0 0 1
33.115870 30.373215 33.608691 56.113609 0.742226 0.928619 0.053417 -0.020500 94654.200000 0 0 1
33.356170 29.616215 32.490086 55.184780 0.726077 0.941284 0.038558 -0.016029 -309194.000000 0 0 1
34.739170 28.966315 32.387977 55.631272 0.695027 0.949377 0.043090 -0.017291 -243024.000000 0 0 1
35.066670 27.866515 33.266156 55.792931 0.671484 0.931983 0.042721 -0.010747 385010.000000 0 0 1
-35.658512 27.508815 33.219165 55.962284 -0.657089 0.935272 0.028892 -0.013569 360891.000000 0 0 1
-35.269612 26.312815 34.073565 55.653550 -0.640967 0.911900 0.030207 -0.013220 13273.100000 0 0 1
-35.763712 25.168615 33.432397 55.047502 -0.613237 0.918092 0.009155 -0.008249 11513.900000 0 0 1
-35.850712 24.028215 -34.146148 55.032609 -0.590465 2.240140 0.006535 -0.012608 -78506.800000 0 0 1
35.740370 22.754815 33.618291 54.086460 0.566947 0.900056 0.001306 -0.017670 -143911.000000 0 0 1
-35.531412 22.193915 32.594093 53.079431 -0.558332 0.909599 0.001972 -0.011064 159697.000000 0 0 1
35.916170 21.099815 31.993557 52.523910 0.531158 0.915841 0.003506 -0.010073 298083.000000 0 0 1
-35.184712 20.200915 31.199937 51.180826 -0.521187 0.915238 0.000026 -0.022037 242276.000000 0 0 1
-34.770512 20.661415 29.912697 50.305586 -0.536160 0.934004 -0.004778 -0.019626 247209.000000 0 0 1
-33.461012 20.207215 29.621797 49.045099 -0.543285 0.922323 0.006116 -0.014176 203729.000000 0 0 1
-33.484412 19.048915 28.583457 47.969584 -0.517230 0.932452 0.017920 -0.013150 -723397.000000 0 0 1
-34.256512 17.980915 29.063987 48.389433 -0.483361 0.926512 0.009480 -0.011680 264199.000000 0 0 1
-34.706212 17.107415 28.008937 47.766990 -0.457968 0.944231 0.014067 -0.021109 -43794.600000 0 0 1
-35.543412 15.979015 28.600847 48.339130 -0.422491 0.937667 0.022749 -0.014267 -349018.000000 0 0 1
-34.689812 15.166815 29.354687 47.907337 -0.412169 0.911275 0.027592 -0.013058 807474.000000 0 0 1
-35.411912 13.989315 29.766657 48.329683 -0.376228 0.907258 0.031170 -0.019241 138400.000000 0 0 1
-34.440012 12.807815 29.819967 47.322140 -0.356039 0.889052 0.037289 -0.007468 58190.300000 0 0 1
-33.502312 12.979615 30.878697 47.374774 -0.369619 0.860846 0.042847 -0.004921 249008.000000 0 0 1
-32.686112 11.851815 31.086667 46.639343 -0.347851 0.841248 0.044653 -0.006996 -78981.400000 0 0 1
-31.179612 12.176515 31.035077 45.646596 -0.372314 0.823171 0.056724 -0.006603 -1264740.000000 0 0 1
-30.758312 12.455215 29.704997 44.537545 -0.384756 0.840668 0.049567 -0.003609 939651.000000 0 0 1
-29.416312 12.956615 29.576027 43.679911 -0.414890 0.826971 0.046963 -0.000213 1270940.000000 0 0 1
-28.269312 11.972315 30.011117 42.932010 -0.400607 0.796745 0.053617 0.001979 -479532.000000 0 0 1
-28.224712 10.825015 29.094077 41.955698 -0.366228 0.804533 0.048270 -0.004082 340697.000000 0 0 1
-27.121012 10.022815 29.526417 41.325723 -0.353992 0.774915 0.042430 -0.000237 579806.000000 0 0 1
-26.660512 8.872715 28.541727 40.051693 -0.321274 0.777567 0.045105 -0.003605 469236.000000 0 0 1
-27.446512 7.662515 28.616827 40.384996 -0.272248 0.783284 0.054921 -0.007358 143596.000000 0 0 1
-28.605012 7.669815 27.814847 40.629281 -0.261967 0.816740 0.061411 -0.009057 -304975.000000 0 0 1
-29.456812 6.414815 27.875357 41.059580 -0.214422 0.824533 0.059394 -0.008614 -71760.200000 0 0 1
-30.285412 6.459115 29.045447 42.456617 -0.210127 0.817399 0.066178 -0.008739 518817.000000 0 0 1
-31.002012 5.249515 29.266247 42.955737 -0.167737 0.821243 0.075343 -0.002459 -287894.000000 0 0 1
-31.699612 5.016615 30.603267 44.346271 -0.156953 0.809172 0.050117 0.007555 -150252.000000 0 0 1
-33.018312 5.514815 30.551337 45.321146 -0.165495 0.831040 0.056960 0.004689 -444083.000000 0 0 1
-33.759612 4.933215 31.589887 46.496978 -0.145101 0.823856 0.064759 0.008043 -416593.000000 0 0 1
-35.150412 5.564615 31.665157 47.636105 -0.157006 0.843664 0.048693 0.013821 -287181.000000 0 0 1
-35.150312 6.786015 32.339307 48.243395 -0.190711 0.836134 0.049798 0.008718 1264480.000000 0 0 1
35.619070 7.388315 32.391367 48.708377 0.204525 0.843294 0.061564 0.005766 1315180.000000 0 0 1
35.754570 8.801615 33.012481 49.453833 0.241368 0.839894 0.042421 0.015348 -76744.500000 0 0 1
35.744170 8.703615 -34.001274 50.094762 0.238849 2.316841 0.056000 0.014229 192633.000000 0 0 1
35.959870 9.945915 -33.478864 50.128513 0.269838 2.302127 0.057729 0.013352 -207082.000000 0 0 1
35.688770 9.962715 -31.938864 48.918657 0.272225 2.282200 0.065268 0.000637 1619710.000000 0 0 1
34.352170 9.487315 -31.511784 47.571769 0.269461 2.294821 0.055857 -0.003888 1823340.000000 0 0 1
34.187070 9.537015 -30.100374 46.537543 0.272049 2.274174 0.040322 -0.006500 -242075.000000 0 0 1
32.960870 8.806115 -29.558934 45.140859 0.261071 2.284735 0.037902 -0.006109 -558831.000000 0 0 1
32.999270 7.382615 -29.550294 44.907401 0.220096 2.288992 0.040337 -0.000941 -368991.000000 0 0 1
31.852570 6.742115 -29.070984 43.648189 0.208588 2.299670 0.031143 0.003109 -619763.000000 0 0 1
35.272871 5.706815 -19.451814 40.683120 0.160401 2.069320 0.034000 -0.022139 -484937.000000 0 0 1
34.903121 6.800915 -18.605914 40.133033 0.192440 2.052857 0.041080 -0.013844 16273.000000 0 0 1
35.403831 8.073315 -18.915714 40.944034 0.224201 2.051033 0.019374 -0.010580 -803622.000000 0 0 1
-35.221106 8.348115 -18.598114 40.695297 -0.232726 2.045426 0.022070 -0.017225 -408314.000000 0 0 1
-34.231305 7.703715 -19.341514 40.065242 -0.221361 2.074589 0.029386 -0.029928 -141763.000000 0 0 1
-33.934590 8.320015 -20.559114 40.539564 -0.240435 2.102656 0.015592 -0.025890 -555213.000000 0 0 1
-33.142780 7.344615 -21.462314 40.162397 -0.218081 2.134580 0.011601 -0.019403 -527178.000000 0 0 1
-33.876350 6.348515 -22.104514 40.945333 -0.185254 2.141060 0.019987 -0.018737 500743.000000 0 0 1
-34.606056 6.769815 -23.312614 42.271592 -0.193185 2.154953 0.015307 -0.010953 625383.000000 0 0 1
-34.676095 5.661615 -24.362814 42.755493 -0.161843 2.177080 0.040005 -0.013373 -48858.200000 0 0 1
-33.410710 5.521215 -24.952514 42.064086 -0.163773 2.205827 0.052758 -0.016963 -131036.000000 0 0 1
-33.210330 4.207515 -25.445844 42.049021 -0.126022 2.220747 0.066059 -0.006628 1007740.000000 0 0 1
-31.827590 3.995415 -26.192144 41.412404 -0.124880 2.255535 0.075919 -0.009764 691282.000000 0 0 1
-30.685880 4.071915 -25.432444 40.062612 -0.131926 2.258569 0.066455 -0.016920 -421056.000000 0 0 1
-29.527370 3.555115 -26.072934 39.551262 -0.119824 2.290576 0.070536 -0.014557 1270540.000000 0 0 1
-28.108000 3.902715 -25.504764 38.154735 -0.137965 2.302927 0.051892 -0.024847 586837.000000 0 0 1
-27.866570 5.292115 -25.487024 38.133195 -0.187674 2.302809 0.029733 -0.009578 -275528.000000 0 0 1
-26.547080 5.610715 -25.157194 37.001513 -0.208284 2.318418 0.026226 -0.015652 -540290.000000 0 0 1
-26.243350 7.135915 -25.280714 37.131512 -0.265494 2.319709 0.015571 -0.016482 10760.000000 0 0 1
-26.895760 7.848015 -24.240614 37.048355 -0.283911 2.284048 0.018769 -0.016382 -22342.200000 0 0 1
-26.978260 9.231815 -24.499714 37.593735 -0.329704 2.280616 0.003104 -0.013061 -228321.000000 0 0 1
-25.731530 10.073115 -24.142814 36.694070 -0.373131 2.288888 0.044043 -0.008283 81710.200000 0 0 1
-25.563590 10.187415 -22.740414 35.698837 -0.379224 2.261406 0.020683 -0.006349 -738353.000000 0 0 1
-24.242430 10.357215 -22.376514 34.578544 -0.403762 2.274599 0.058346 -0.007668 -1150760.000000 0 0 1
-24.036330 10.785515 -20.915714 33.638365 -0.421787 2.241812 0.068085 -0.020255 -777835.000000 0 0 1
-24.376930 12.113915 -20.512814 34.084559 -0.461198 2.216576 0.056623 -0.019179 1481850.000000 0 0 1
-25.760150 12.535215 -20.496114 35.225099 -0.452881 2.191811 0.049043 -0.008064 961226.000000 0 0 1
-26.808900 11.772115 -19.629914 35.251005 -0.413763 2.161398 0.030113 -0.012080 -474346.000000 0 0 1
-26.667060 11.903915 -18.241414 34.432317 -0.419848 2.129133 0.037561 -0.024110 814079.000000 0 0 1
-27.686700 11.187315 -17.507814 34.615501 -0.384009 2.101082 0.015783 -0.029631 -210300.000000 0 0 1
-27.255410 10.930315 -16.065614 33.472871 -0.381396 2.071405 0.034070 -0.031963 499568.000000 0 0 1
-26.341530 9.805515 -15.958014 32.321549 -0.356354 2.087166 0.045900 -0.033971 1659600.000000 0 0 1
-24.957830 10.173715 -16.111514 31.400297 -0.387072 2.109590 0.047736 -0.028923 333523.000000 0 0 1
-24.007130 8.976515 -16.019114 30.224694 -0.357815 2.129398 0.047180 -0.028629 -324874.000000 0 0 1
-22.623130 9.165015 -15.865714 29.112272 -0.384910 2.147166 0.065214 -0.022320 339785.000000 0 0 1
-22.003430 7.864615 -15.660114 28.129029 -0.343276 2.161234 0.073370 -0.026820 135716.000000 0 0 1
-20.477130 7.886115 -15.455514 26.839832 -0.367612 2.184431 0.091480 -0.030447 -195333.000000 0 0 1
-19.763730 8.422215 -16.546314 27.116770 -0.402840 2.227094 0.102921 -0.035980 97102.300000 0 0 1
-18.371930 8.255515 -16.331914 25.930923 -0.422317 2.252123 0.109219 -0.028431 -491147.000000 0 0 1
-17.634830 8.932115 -17.522114 26.415798 -0.468837 2.296042 0.086827 -0.024032 -262888.000000 0 0 1
-17.511230 8.176615 -18.720814 26.906673 -0.436848 2.340285 0.115014 -0.028436 173664.000000 0 0 1
-16.427930 7.283815 -18.586014 25.852867 -0.417335 2.373036 0.113042 -0.029279 -608267.000000 0 0 1
-15.991930 6.662915 -19.973414 26.439998 -0.394770 2.427098 0.091181 -0.028925 406020.000000 0 0 1
-16.899330 5.756215 -20.657014 27.302630 -0.328292 2.428885 0.088103 -0.021528 226730.000000 0 0 1
-17.918130 6.445015 -21.341414 28.601635 -0.345283 2.413073 0.095093 -0.023198 -351331.000000 0 0 1
-18.968430 5.475015 -21.920314 29.500462 -0.281001 2.408412 0.079211 -0.012915 -427452.000000 0 0 1
-19.823830 4.858615 -21.011414 29.292830 -0.240352 2.370699 0.073562 -0.015399 19555.600000 0 0 1
-20.423030 3.723515 -21.626814 29.978055 -0.180339 2.376649 0.043180 0.000564 -303447.000000 0 0 1
-21.504030 3.099715 -20.717514 30.020775 -0.143160 2.332432 0.059874 -0.014594 -205182.000000 0 0 1
-22.045130 1.925115 -21.287914 30.706174 -0.087105 2.336824 0.067312 -0.008584 189555.000000 0 0 1
-22.759730 1.239415 -20.303614 30.525042 -0.054403 2.298486 0.078648 -0.015434 -1015360.000000 0 0 1
-23.436830 -0.088885 -20.655714 31.240221 0.003793 2.293200 0.066598 -0.001117 139181.000000 0 0 1
-22.504630 -1.162185 -20.891914 30.729157 0.051596 2.318385 0.062684 -0.010807 631338.000000 0 0 1
-23.132230 -2.408885 -21.148014 31.434714 0.103761 2.308729 0.051233 -0.013940 -603884.000000 0 0 1
-23.664030 -2.583985 -22.547114 32.787736 0.108764 2.329070 0.068308 -0.020102 -305662.000000 0 0 1
-22.702530 -2.602085 -23.556414 32.818902 0.114119 2.371390 0.047342 -0.015944 258027.000000 0 0 1
-21.672430 -3.599585 -23.511714 32.178439 0.164588 2.390094 0.035432 -0.021655 1143.770000 0 0 1
-20.647930 -3.471585 -24.631314 32.327860 0.166574 2.437072 0.039337 -0.017201 -354013.000000 0 0 1
-21.271730 -3.583385 -25.884944 33.695066 0.166891 2.446839 0.037695 -0.017176 122854.000000 0 0 1
-20.330230 -3.654485 -26.942594 33.949622 0.177857 2.487508 0.037463 -0.022391 -208647.000000 0 0 1
-20.973930 -3.720685 -28.340814 35.453504 0.175569 2.497059 0.031373 -0.020251 -181076.000000 0 0 1
-21.708330 -4.870885 -28.544554 36.190726 0.220723 2.479530 0.041272 -0.014663 80299.400000 0 0 1
-22.456630 -4.978385 -29.746214 37.602151 0.218161 2.483365 0.012448 -0.015902 -833398.000000 0 0 1
-22.043730 -6.186685 -30.563514 38.188080 0.273616 2.498661 0.038186 -0.013652 -260293.000000 0 0 1
-20.782030 -6.052085 -31.171124 37.949433 0.283380 2.534633 0.026930 -0.014243 -208338.000000 0 0 1
-20.191630 -7.316685 -31.447154 38.080957 0.347645 2.542411 0.025752 -0.009472 597356.000000 0 0 1
-18.685730 -7.194785 -31.884744 37.650476 0.367545 2.580852 0.039215 -0.020320 465052.000000 0 0 1
-18.486330 -6.670885 -33.192834 38.574724 0.346312 2.607010 0.033725 -0.029661 183529.000000 0 0 1
-18.879030 -7.590785 -34.231085 39.822166 0.382294 2.605280 0.029129 -0.024357 -763606.000000 0 0 1
-18.675530 -7.197485 32.714405 38.351160 0.367854 0.549046 0.023098 -0.021889 -82085.000000 0 0 1
-17.359830 -7.038085 32.209967 37.260976 0.385173 0.526756 0.034774 -0.021736 -38481.300000 0 0 1
-16.834730 -5.799585 32.566862 37.116624 0.331768 0.500339 0.022385 -0.028605 -237827.000000 0 0 1
-15.532430 -5.500785 31.784147 35.801495 0.340366 0.478279 0.025371 -0.026906 -182186.000000 0 0 1
-15.777230 -5.348685 30.372267 34.641074 0.326853 0.501692 0.019488 -0.023789 -423410.000000 0 0 1
-14.635030 -5.052785 29.651797 33.450617 0.332439 0.481211 0.012682 -0.017659 -653543.000000 0 0 1
-14.904730 -5.134685 28.172497 32.283208 0.331767 0.510158 0.019581 -0.009667 347977.000000 0 0 1
-15.964130 -4.255785 27.788037 32.328627 0.260525 0.536410 0.016310 -0.014805 292465.000000 0 0 1
-16.458830 -4.425885 26.475127 31.486726 0.262692 0.571973 0.033594 -0.007451 -21556.700000 0 0 1
-15.565030 -3.838385 25.312297 29.961905 0.241779 0.564575 0.040161 -0.005620 257287.000000 0 0 1
-15.347330 -2.434485 25.405827 29.781257 0.157315 0.548934 0.038395 -0.002774 -224573.000000 0 0 1
-14.575430 -2.071385 24.308767 28.419183 0.141170 0.544542 0.032804 -0.003284 -81414.300000 0 0 1
-14.170330 -0.571185 24.280507 28.118811 0.040287 0.528634 0.035937 -0.005172 759881.000000 0 0 1
-15.281830 0.263315 23.884857 28.356482 -0.017229 0.569248 0.036072 -0.010763 906458.000000 0 0 1
-14.961730 1.636715 24.142407 28.449745 -0.108960 0.557466 0.029919 -0.008981 -334090.000000 0 0 1
-15.817030 2.543815 23.253767 28.238044 -0.159462 0.603260 0.038002 -0.015886 -406772.000000 0 0 1
-15.585530 2.480215 21.863067 26.963937 -0.157812 0.625234 0.047158 -0.017961 226069.000000 0 0 1
-16.257330 3.506815 21.150667 26.906305 -0.212452 0.666345 0.033716 -0.020570 -312492.000000 0 0 1
-15.271130 4.239215 20.239767 25.706546 -0.270779 0.664315 0.035501 -0.024279 -278304.000000 0 0 1
-14.363630 5.075715 20.906667 25.868233 -0.339676 0.629710 0.038567 -0.014446 70478.100000 0 0 1
-13.378930 5.421215 19.933767 24.611794 -0.384986 0.626768 0.046398 -0.021085 11017.800000 0 1 0
-12.290330 6.453515 20.387967 24.665143 -0.483517 0.597774 0.037125 -0.013653 547780.000000 0 1 0
-12.686130 7.839215 20.475367 25.330453 -0.553503 0.629486 0.036004 -0.015421 319122.000000 0 0 1
-11.524230 8.616815 20.255467 24.846354 -0.642036 0.617672 0.042613 -0.013657 268185.000000 0 1 0
-11.806030 10.125015 20.336767 25.602390 -0.708898 0.652891 0.026665 -0.009013 289736.000000 0 0 1
-12.590130 10.663715 19.248967 25.352494 -0.702744 0.708631 0.035797 -0.013810 589045.000000 0 0 1
-12.855230 12.026815 19.507367 26.276198 -0.752117 0.734155 0.019791 -0.011298 -510197.000000 0 0 1
-13.191330 12.809215 18.199367 25.870913 -0.770703 0.790531 0.018899 -0.011806 -1210300.000000 0 0 1
-12.181830 13.409015 17.510767 25.195746 -0.833316 0.802392 0.015487 -0.015616 -791744.000000 0 0 1
-11.772630 14.709615 17.914867 25.998270 -0.895851 0.810579 0.022908 -0.023080 -226680.000000 0 0 1
-12.784330 15.880915 17.656867 26.970493 -0.893007 0.857046 0.024169 -0.019678 223946.000000 0 0 1
-13.098730 16.342715 16.329467 26.557721 -0.895140 0.908579 0.030043 -0.018893 422149.000000 0 0 1
-13.916330 15.427015 15.595867 25.978609 -0.836836 0.926876 0.056349 -0.021237 -647997.000000 0 0 1
-14.287330 15.825215 14.174367 25.602303 -0.836425 0.984072 0.039979 -0.021807 79912.900000 0 0 1
-15.120130 16.981315 14.143467 26.777249 -0.843312 1.014329 0.031204 -0.024218 241115.000000 0 0 1
-15.653830 17.261615 12.837667 26.604726 -0.834205 1.067252 0.028940 -0.021601 -74494.100000 0 0 1
-16.766030 18.314915 12.868767 27.966785 -0.829521 1.092638 0.037285 -0.023279 -268073.000000 0 0 1
-17.998430 17.806715 13.337367 28.616568 -0.780044 1.085951 0.037663 -0.021451 -604748.000000 0 0 1
-18.974730 18.793715 13.395567 29.877840 -0.780605 1.105884 0.047105 -0.024543 282153.000000 0 0 1
-20.398030 18.158115 13.605767 30.510878 -0.727369 1.108581 0.049097 -0.023224 727126.000000 0 0 1
-20.855230 17.595415 12.378267 29.962656 -0.700821 1.144915 0.051038 -0.021709 580234.000000 0 0 1
-22.151630 16.988915 12.521967 30.596039 -0.654253 1.149145 0.069196 -0.025100 979306.000000 0 0 1
-22.757930 16.419315 11.155667 30.198778 -0.624995 1.192425 0.069451 -0.023182 312716.000000 0 0 1
-22.117430 15.224415 10.716967 28.910498 -0.602861 1.191039 0.064644 -0.012218 -95291.300000 0 0 1
-22.843430 14.567815 9.736167 28.789520 -0.567697 1.225809 0.063770 -0.016873 -289191.000000 0 0 1
-22.258530 13.174815 9.363067 27.507907 -0.534442 1.223478 0.069399 -0.012402 -699309.000000 0 0 1
-22.421430 12.100615 10.291367 27.478312 -0.494893 1.186910 0.066101 -0.018886 1789360.000000 0 0 1
-23.770930 11.518215 10.424767 28.397221 -0.451212 1.194901 0.074954 -0.012699 1762250.000000 0 0 1
-24.549030 11.043515 9.154167 28.432602 -0.422734 1.242997 0.086739 -0.006446 -548132.000000 0 0 1
-24.987130 12.124515 8.413967 29.019914 -0.451762 1.276635 0.094605 -0.012077 597021.000000 0 0 1
-26.060190 11.755715 7.511867 29.559406 -0.423767 1.313851 0.099001 -0.009973 172477.000000 0 0 1
-26.328240 12.954015 6.564167 30.067774 -0.457243 1.350712 0.079983 -0.006523 -222319.000000 0 0 1
-25.511760 13.178615 5.392467 29.216511 -0.476816 1.385163 0.082708 -0.009540 766110.000000 0 0 1
-24.183930 13.590215 5.668167 28.314034 -0.511973 1.369245 0.085065 -0.019759 -230593.000000 0 0 1
-24.022930 15.117015 5.959867 29.002506 -0.561667 1.363827 0.080399 -0.024134 -832331.000000 0 0 1
-22.700730 15.561115 6.110267 28.192318 -0.600921 1.352327 0.061437 -0.024704 131757.000000 0 0 1
-22.763730 16.951315 6.323167 29.077774 -0.640077 1.351588 0.061533 -0.026912 -209481.000000 0 0 1
-21.369330 17.581115 6.444367 28.412563 -0.688446 1.341991 0.049208 -0.022033 -223666.000000 0 0 1
-20.711330 17.884115 5.262067 27.865572 -0.712276 1.380818 0.051517 -0.028468 785522.000000 0 0 1
-19.392430 18.405115 5.462567 27.288354 -0.759283 1.369255 0.038082 -0.022168 749954.000000 0 0 1
-18.675330 19.062115 4.239767 27.020507 -0.795647 1.413236 0.031483 -0.018474 -803725.000000 0 0 1
-17.470130 19.676915 4.474567 26.690976 -0.844735 1.402358 0.027364 -0.011692 -846441.000000 0 0 1
-17.121630 20.659515 3.547067 27.065614 -0.878767 1.439364 0.037688 -0.007813 -45902.900000 0 0 1
-17.236130 22.072815 4.114167 28.305825 -0.907826 1.424933 0.048980 -0.018668 -185553.000000 0 0 1
-16.369530 22.354515 5.175467 28.186368 -0.938740 1.386133 0.039287 -0.013525 119087.000000 0 0 1
-16.704830 23.694015 5.607467 29.527977 -0.956707 1.379732 0.030005 -0.007190 -253230.000000 0 0 1
-16.082130 24.107615 6.934067 29.797539 -0.982496 1.335937 0.028974 0.002954 -17411.200000 0 0 1
-16.758730 23.551015 8.081567 30.013615 -0.952332 1.298168 0.029958 -0.004135 394951.000000 0 0 1
-15.940530 23.257815 9.214567 29.663694 -0.969947 1.254936 0.032618 0.000653 334890.000000 0 0 1
-16.718930 22.385815 10.270767 29.768037 -0.929312 1.218529 0.029279 -0.008819 412042.000000 0 0 1
-17.907630 23.008415 10.704567 31.058946 -0.909423 1.218927 0.026366 -0.003253 -217103.000000 0 0 1
-18.803730 22.083615 11.304567 31.129722 -0.865444 1.199156 0.021482 -0.013120 472254.000000 0 0 1
-20.065730 22.856115 11.822167 32.631261 -0.850318 1.200067 0.032934 -0.014055 476515.000000 0 0 1
-20.976330 23.345015 10.823967 33.198711 -0.838791 1.238689 0.040150 -0.018202 495903.000000 0 0 1
-20.583030 24.563915 10.180567 33.625749 -0.873347 1.263208 0.032933 -0.010082 -556460.000000 0 0 1
-21.775430 25.393115 9.721667 34.835190 -0.861945 1.287965 0.034838 0.001554 -219035.000000 0 0 1
-22.454530 26.047915 10.775667 36.039073 -0.859350 1.267152 0.041232 -0.011083 224491.000000 0 0 1
-23.523630 26.880815 10.390467 37.200823 -0.851905 1.287724 0.033740 -0.005029 139309.000000 0 0 1
-24.376330 27.357815 11.600467 38.434703 -0.842965 1.264192 0.029950 -0.012091 212745.000000 0 0 1
-23.669930 28.335115 12.328267 38.924677 -0.874865 1.248526 0.038642 -0.003163 1005160.000000 0 0 1
-24.602730 28.822415 13.294467 40.159293 -0.864218 1.233387 0.038087 -0.006717 585787.000000 0 0 1
8.711270 -33.167219 28.319957 44.474381 -1.313950 0.880494 0.046206 -0.026231 821509.000000 0 0 1
10.111970 -33.160319 28.010967 44.569866 -1.274812 0.891208 0.032324 -0.030831 930319.000000 0 0 1
10.513870 -32.812519 26.686367 43.581705 -1.260710 0.911793 0.042732 -0.023288 620141.000000 0 0 1
12.022370 -33.110819 26.395057 44.017755 -1.222504 0.927738 0.008566 -0.005550 605020.000000 0 0 1
12.458770 34.239415 26.293097 44.932009 1.221817 0.945700 0.020698 -0.025098 293284.000000 0 0 1
13.850470 34.220315 26.014727 45.162280 1.186207 0.956935 0.028587 -0.014755 391859.000000 0 0 1
14.542670 32.827715 25.760767 44.190104 1.153779 0.948438 0.049498 -0.010034 120413.000000 0 0 1
14.328670 32.516415 24.433627 43.123430 1.155737 0.968426 0.046493 -0.024174 597996.000000 0 0 1
15.214470 31.426815 24.123847 42.439190 1.119930 0.966196 0.054388 -0.028912 -73546.500000 0 0 1
15.298470 31.071115 22.600867 41.355248 1.113272 0.992611 0.061379 -0.041036 59665.400000 0 0 1
14.367670 30.115315 22.098567 40.021355 1.125645 0.985832 0.064563 -0.031727 56837.600000 0 0 1
14.809570 28.747715 22.205267 39.227903 1.095097 0.969080 0.071565 -0.024075 183377.000000 0 0 1
14.524870 27.971015 23.521427 39.326926 1.091842 0.929668 0.079866 -0.028214 319108.000000 0 0 1
15.380870 28.410815 24.602767 40.608395 1.074600 0.919957 0.075115 -0.031805 610894.000000 0 0 1
14.878470 27.988915 25.873627 40.916901 1.082202 0.886219 0.074565 -0.033537 -260820.000000 0 0 1
15.724770 28.402015 27.068797 42.268932 1.065155 0.875784 0.073834 -0.037828 -79338.800000 0 0 1
15.495370 29.772715 27.425457 43.343705 1.090919 0.885705 0.069955 -0.029568 375218.000000 0 0 1
16.231570 30.035715 28.625677 44.553759 1.075346 0.873043 0.078817 -0.031982 283314.000000 0 0 1
16.080570 31.479015 29.091317 45.780103 1.098519 0.882195 0.071888 -0.035020 -115348.000000 0 0 1
16.909570 32.349915 28.408537 46.254681 1.089148 0.909454 0.060416 -0.025550 -296009.000000 0 0 1
16.715770 33.645415 28.975647 47.444905 1.109695 0.913824 0.055043 -0.009872 37572.500000 0 0 1
17.470370 -34.034819 28.153667 47.499597 -1.096559 0.936372 0.034552 -0.005853 -337755.000000 0 0 1
16.867870 -33.785519 26.896197 46.361533 -1.107738 0.951895 0.047272 -0.006520 -308495.000000 0 0 1
16.952470 -32.461919 26.487997 45.197084 -1.089526 0.944614 0.033563 -0.007520 -322457.000000 0 0 1
18.302870 -31.753919 26.199717 45.052543 -1.047913 0.950180 0.051311 -0.003810 -58280.400000 0 0 1
18.908870 -31.390919 27.437397 45.779317 -1.028638 0.928119 0.038210 -0.001553 -104770.000000 0 0 1
19.888470 -30.406519 27.116737 45.336796 -0.991554 0.929646 0.038789 0.000718 89777.400000 0 0 1
20.255770 -29.540419 28.271807 45.631433 -0.969734 0.902603 0.030616 0.002479 251264.000000 0 0 1
19.130970 -28.794519 28.735877 44.954076 -0.984367 0.877303 0.043391 0.000966 414893.000000 0 0 1
19.510470 -27.776619 29.684567 45.092932 -0.958457 0.852241 0.043971 0.000585 -292610.000000 0 0 1
18.342270 -26.925819 30.176537 44.407904 -0.972789 0.823673 0.052493 -0.005394 -306791.000000 0 0 1
17.684270 -26.303419 29.119937 43.041538 -0.978891 0.827723 0.047517 -0.002022 144136.000000 0 0 1
16.486170 -25.669119 29.550237 42.472508 -0.999884 0.801333 0.042532 -0.005040 439819.000000 0 0 1
15.750170 -24.921019 28.337067 40.891496 -1.007177 0.805179 0.030749 -0.005623 -128223.000000 0 0 1
15.014570 -25.804619 27.511307 40.597878 -1.043825 0.826229 0.028236 -0.003994 149900.000000 0 0 1
14.522870 -25.151219 26.349577 39.214765 -1.047144 0.833985 0.022823 -0.000985 -606791.000000 0 0 1
13.070770 -24.629919 26.477417 38.451678 -1.082902 0.811254 0.014772 0.000395 400440.000000 0 0 1
12.078770 -25.596519 26.869207 39.026052 -1.129888 0.811386 0.014626 0.000675 508161.000000 0 0 1
11.842570 -26.645119 25.908237 39.005712 -1.152563 0.844351 0.012778 -0.000584 -912714.000000 0 0 1
11.030070 -27.873819 26.362577 39.919891 -1.193990 0.849462 0.020061 -0.007009 835449.000000 0 0 1
9.611670 -27.676719 26.488027 39.496842 -1.236544 0.835730 0.015578 -0.012537 798116.000000 0 0 1
8.973970 -28.902619 26.804457 40.427372 -1.269744 0.845941 0.029422 -0.017051 242852.000000 0 0 1
7.432170 -28.780519 26.968637 40.135555 -1.318081 0.833973 0.039253 -0.019646 223808.000000 0 0 1
6.554270 -28.649319 25.875167 39.156943 -1.345891 0.848903 0.044900 -0.024744 30999.200000 0 0 1
6.669970 -27.432519 25.134157 37.798908 -1.332284 0.843377 0.058054 -0.020786 -356423.000000 0 0 1
5.449070 -27.040219 24.232407 36.716146 -1.371942 0.849987 0.058178 -0.019431 -116627.000000 0 0 1
5.111970 -27.931019 23.192567 36.662913 -1.389779 0.885904 0.052469 -0.012161 337945.000000 0 0 1
4.343070 -29.120119 23.496797 37.668861 -1.422744 0.897236 0.055118 -0.009080 1019590.000000 0 0 1
2.871370 -28.880219 24.007987 37.665571 -1.471699 0.879679 0.047146 -0.018015 233474.000000 0 0 1
1.957270 -28.468919 23.024867 36.666807 -1.502153 0.891882 0.037248 -0.008430 1547760.000000 0 0 1
0.599470 -28.144219 23.476517 36.655194 -1.549500 0.875687 0.039522 -0.016817 1882110.000000 0 0 1
0.399070 -26.695219 23.912757 35.841511 -1.555848 0.840379 0.047280 -0.019557 -63878.400000 0 0 1
1.120470 -26.430819 25.133027 36.489898 -1.528429 0.811010 0.055271 -0.024455 194966.000000 0 0 1
1.416870 -25.064919 25.267507 35.618880 -1.514328 0.782171 0.055782 -0.027441 -425340.000000 0 0 1
2.588370 -24.821919 26.224007 36.201186 -1.466894 0.760638 0.070490 -0.022551 -133272.000000 0 0 1
3.808070 -24.527619 25.539297 35.614059 -1.416770 0.771145 0.064307 -0.022653 659428.000000 0 0 1
4.761970 -23.779419 26.309707 35.781808 -1.373155 0.744714 0.072950 -0.023545 629558.000000 0 0 1
4.366570 -22.285619 26.469367 34.876111 -1.377311 0.709091 0.065758 -0.014037 -370858.000000 0 0 1
4.246470 -21.700519 25.173457 33.505939 -1.377553 0.720747 0.060402 -0.022659 -50935.700000 0 0 1
3.309670 -20.649119 25.177327 32.729770 -1.411867 0.693132 0.076970 -0.029237 104800.000000 0 0 1
3.166570 -19.881519 23.827997 31.194157 -1.412851 0.701522 0.077093 -0.035930 -8976.150000 0 0 1
4.293270 -19.054919 23.704737 30.715414 -1.349187 0.689202 0.075179 -0.022239 -249249.000000 0 0 1
4.346670 -18.460919 22.425967 29.370445 -1.339556 0.701995 0.084748 -0.029876 -594741.000000 0 0 1
5.473370 -17.487519 22.254167 28.827401 -1.267468 0.688847 0.075482 -0.016957 -502584.000000 0 0 1
6.735370 -18.077119 22.384867 29.550460 -1.214139 0.711301 0.059360 -0.022062 -422922.000000 0 0 1
7.825770 -17.216919 22.122567 29.104518 -1.144174 0.707318 0.047890 -0.021047 1266610.000000 0 0 1
9.151670 -17.612419 22.895067 30.300734 -1.091580 0.714235 0.054704 -0.013992 900879.000000 0 0 1
9.266270 -16.944319 24.120447 30.899347 -1.070363 0.675150 0.056145 -0.016632 295298.000000 0 0 1
10.591270 -16.876719 24.625737 31.676893 -1.010353 0.680269 0.063356 -0.008479 92730.100000 0 0 1
10.766070 -15.905719 25.856107 32.209291 -0.975765 0.638899 0.076000 -0.022413 -275683.000000 0 0 1
10.729770 -14.524119 25.558997 31.294414 -0.934531 0.615080 0.083522 -0.016763 180925.000000 0 0 1
10.871370 -13.850019 26.796027 32.063012 -0.905309 0.581335 0.070706 -0.016708 5799.430000 0 0 1
11.073370 -12.360319 26.464917 31.237619 -0.840262 0.560079 0.062775 -0.021570 -208299.000000 0 0 1
9.922270 -11.809819 25.902837 30.147640 -0.872036 0.537093 0.059250 -0.011143 26638.600000 0 0 1
10.194170 -10.378419 25.752967 29.577829 -0.794354 0.514203 0.055664 -0.010405 -307735.000000 0 0 1
9.085370 -9.769719 24.907447 28.255482 -0.821677 0.491749 0.048075 -0.007177 -45386.300000 0 0 1
7.881870 -9.732319 25.662057 28.554913 -0.890069 0.454020 0.028309 -0.002458 -435297.000000 0 0 1
6.814970 -9.366319 24.853997 27.420666 -0.941783 0.436122 0.027429 0.000500 -405665.000000 0 0 1
5.382870 -9.530019 25.372247 27.632363 -1.056636 0.407265 0.021020 -0.005900 -934984.000000 0 0 1
5.091270 -8.505719 26.375097 28.176480 -1.031429 0.359514 0.020620 -0.005527 -134371.000000 0 0 1
3.808270 -8.486119 26.963667 28.522911 -1.148970 0.332180 0.014807 -0.006609 517773.000000 0 0 1
2.609170 -8.355619 25.978847 27.413949 -1.268125 0.325000 0.020032 -0.004449 -640757.000000 0 0 1
2.705670 -7.182319 25.185117 26.328625 -1.210525 0.295805 0.017801 -0.000306 -431153.000000 0 0 1
1.761170 -7.116419 24.157387 25.245286 -1.328191 0.294640 0.027010 -0.009237 -373333.000000 0 0 1
1.888970 -5.877019 23.222067 24.028565 -1.259809 0.259822 0.026143 -0.013672 -189105.000000 0 1 0
1.681770 -4.737219 24.024777 24.545050 -1.229663 0.206262 0.023723 -0.004101 253321.000000 0 1 0
2.226070 -3.527519 23.425987 23.794446 -1.007852 0.176211 0.018189 -0.008642 -303279.000000 0 1 0
1.230170 -2.736519 22.503467 22.702596 -1.148326 0.132545 0.023033 -0.008653 382592.000000 0 1 0
0.305570 -1.912519 23.187167 23.267914 -1.412362 0.083334 0.037912 -0.006453 -1029520.000000 0 1 0
-0.819330 -2.573519 23.602317 23.756339 1.262573 0.113934 0.038177 -0.011378 -1764380.000000 0 1 0
-1.757130 -1.521519 24.201317 24.312677 0.713659 0.095748 0.046312 -0.018254 -417012.000000 0 1 0
-1.234730 -0.809519 25.317147 25.360162 0.580319 0.058252 0.049899 -0.019710 286398.000000 0 0 1
-1.987630 0.370481 25.562107 25.641943 -0.184279 0.078932 0.052536 -0.026597 -177191.000000 0 0 1
-1.332330 1.223481 26.707277 26.768464 -0.742835 0.067626 0.066110 -0.035507 44777.600000 0 0 1
-1.390030 0.765481 28.044417 28.089277 -0.503376 0.056524 0.075581 -0.027733 -41146.900000 0 0 1
-0.724230 -0.442519 28.313077 28.325795 0.548483 0.029967 0.064091 -0.026219 -801740.000000 0 0 1
0.620870 -0.289519 29.052937 29.061012 -0.436336 0.023575 0.048966 -0.027381 161674.000000 0 0 1
1.722570 0.305481 28.368147 28.422039 0.175515 0.061591 0.041476 -0.025841 593512.000000 0 0 1
2.294870 -0.587519 27.370707 27.473027 -0.250631 0.086333 0.033071 -0.021235 187026.000000 0 0 1
3.374770 -1.613519 27.866437 28.116380 -0.445985 0.133438 0.019234 -0.020701 -68107.100000 0 0 1
2.712470 -2.688519 28.453457 28.708620 -0.780964 0.133426 0.027595 -0.015741 864770.000000 0 0 1
3.645270 -3.746319 28.901357 29.370246 -0.799068 0.178927 0.030608 -0.004604 986960.000000 0 0 1
4.079670 -4.689219 27.747487 28.435111 -0.854799 0.220365 0.029913 -0.004243 -402547.000000 0 0 1
4.970870 -4.143319 26.857757 27.626360 -0.694848 0.236437 0.035811 -0.003957 -768319.000000 0 0 1
5.403070 -4.981819 25.799707 26.826043 -0.744857 0.277508 0.030343 -0.005164 -1125430.000000 0 0 1
6.525670 -4.374819 25.031027 26.235009 -0.590584 0.304130 0.021294 -0.004919 -611905.000000 0 0 1
7.762770 -4.183619 25.711117 27.181332 -0.494307 0.330406 0.024196 -0.002936 662400.000000 0 0 1
8.595270 -5.360619 25.865917 27.778779 -0.557643 0.373271 0.027148 -0.005074 84149.400000 0 0 1
9.474770 -5.667519 24.633157 26.994156 -0.539073 0.421352 0.024350 -0.010881 -468582.000000 0 0 1
8.778170 -6.281819 23.552307 25.908081 -0.621131 0.429745 0.015098 -0.009342 300987.000000 0 0 1
9.467770 -6.108519 22.291567 24.977322 -0.572987 0.468000 0.031967 -0.004516 165809.000000 0 1 0
9.568570 -4.711719 21.613267 24.101683 -0.457562 0.458419 0.028053 -0.007511 33601.000000 0 1 0
8.359670 -4.140219 21.166667 23.131219 -0.459849 0.415117 0.016151 -0.010877 -608354.000000 0 1 0
8.509370 -2.893519 20.594967 22.470747 -0.327774 0.411496 0.011909 -0.003911 223164.000000 0 1 0
7.189470 -2.127519 20.223767 21.568856 -0.287711 0.355026 0.004678 -0.001584 661708.000000 0 1 0
6.566370 -1.675519 21.412067 22.458878 -0.249836 0.306518 -0.000103 0.000482 -488306.000000 0 1 0
5.247670 -1.236519 21.239967 21.913539 -0.231411 0.248582 -0.007113 0.006093 -302556.000000 0 1 0
4.709370 -0.672519 22.591467 23.086897 -0.141845 0.207541 -0.007370 -0.001941 26899.200000 0 1 0
3.514270 0.088481 22.566767 22.838934 0.025172 0.154535 -0.010334 -0.000871 228455.000000 0 1 0
2.986070 0.412481 23.870467 24.060049 0.137266 0.125618 0.009122 -0.004477 716465.000000 0 1 0
1.538270 1.011481 23.843427 23.914397 0.581661 0.077060 0.022381 -0.009243 364550.000000 0 1 0
1.370870 2.370481 23.525477 23.684310 1.046479 0.115877 0.018829 0.000816 309309.000000 0 1 0
0.016570 2.606481 23.182067 23.328143 1.564439 0.111967 0.020119 -0.007090 317080.000000 0 1 0
-0.477530 4.053481 22.803767 23.166150 -1.453529 0.177109 0.024846 -0.001460 33330.200000 0 1 0
-0.615530 4.984481 23.898337 24.420369 -1.447929 0.207140 0.033117 -0.007658 115203.000000 0 1 0
-1.435330 6.027481 23.388867 24.195656 -1.337019 0.258965 0.033088 -0.001623 190435.000000 0 1 0
-1.441430 7.274481 24.336177 25.441016 -1.375181 0.295789 0.053948 -0.001086 278496.000000 0 0 1
-0.374130 8.145481 23.998237 25.345694 -1.524898 0.327539 0.033728 0.003150 102086.000000 0 0 1
-0.345730 9.342481 24.697307 26.407545 -1.533807 0.361869 0.043198 -0.000168 -777999.000000 0 0 1
0.549170 10.411481 24.107257 26.265193 1.518099 0.408191 0.033048 0.000658 1004310.000000 0 0 1
1.986270 10.301481 24.136437 26.317929 1.380320 0.410027 0.017820 0.010820 976725.000000 0 0 1
2.634970 10.273481 25.440337 27.562624 1.319726 0.394988 0.031838 -0.001240 886161.000000 0 0 1
4.006870 11.108481 25.340057 27.956606 1.224618 0.436098 0.021926 -0.000374 971144.000000 0 0 1
5.129670 10.585481 24.712567 27.369269 1.119549 0.444255 0.025844 -0.009700 -431145.000000 0 0 1
4.964170 10.290481 23.386767 26.028405 1.121324 0.454434 0.021499 -0.011016 -838046.000000 0 0 1
6.203670 9.955481 22.508667 25.381828 1.013535 0.480417 0.021215 -0.015904 339092.000000 0 0 1
6.931570 11.113481 22.078667 25.671456 1.013126 0.535434 0.017438 -0.016849 751605.000000 0 0 1
8.232970 10.690481 21.665967 25.524151 0.914541 0.557006 0.022242 -0.020568 534020.000000 0 0 1
9.143670 11.699481 20.951167 25.679485 0.907410 0.616561 0.025512 -0.032723 -267220.000000 0 0 1
8.800970 11.867481 19.562567 24.515061 0.932690 0.646858 0.021436 -0.032854 429476.000000 0 1 0
9.519870 12.969481 18.961267 24.866946 0.937601 0.703614 0.039846 -0.029538 1520630.000000 0 1 0
11.052870 12.744481 18.585067 25.099650 0.856363 0.737055 0.046738 -0.029873 1539140.000000 0 0 1
11.933270 12.809481 19.722267 26.371453 0.820796 0.725957 0.055072 -0.037032 375773.000000 0 0 1
13.215370 12.351481 19.329367 26.473185 0.751622 0.752256 0.056620 -0.039523 137584.000000 0 0 1
14.307570 12.369481 20.397167 27.816453 0.712876 0.747667 0.067827 -0.034275 231994.000000 0 0 1
14.966770 13.631481 20.695967 28.950726 0.738741 0.774360 0.071822 -0.036103 927044.000000 0 0 1
16.232570 13.363481 21.315767 29.940622 0.688759 0.778547 0.073495 -0.034198 758002.000000 0 0 1
17.020470 14.538481 21.914167 31.325621 0.706914 0.796014 0.081213 -0.030171 283241.000000 0 0 1
16.384370 15.118481 23.086767 32.093844 0.745236 0.767928 0.075616 -0.030768 758481.000000 0 0 1
17.150270 16.279481 23.433267 33.290708 0.759356 0.789926 0.065676 -0.021632 287596.000000 0 0 1
-20.532330 12.877915 -25.238764 34.991606 -0.560181 2.376446 0.036910 0.002109 74428.800000 0 0 1
-20.654730 12.580215 -26.649634 35.987257 -0.547063 2.404655 0.045510 -0.012874 -121342.000000 0 0 1
-21.196930 13.682915 -27.286854 37.163213 -0.573215 2.395348 0.058913 -0.012133 -205383.000000 0 0 1
-21.027930 13.676115 -28.804904 38.195974 -0.576641 2.425132 0.059651 -0.015773 849200.000000 0 0 1
-19.691830 14.049415 -29.195264 37.914610 -0.619705 2.449679 0.048013 -0.009596 637586.000000 0 0 1
-19.591430 14.380515 -30.557074 39.043029 -0.633196 2.469710 0.053734 -0.029987 470243.000000 0 0 1
-18.158530 14.962215 -30.762354 38.728833 -0.689191 2.488653 0.027695 -0.019340 1018460.000000 0 0 1
-17.131030 13.975215 -30.908484 38.001489 -0.684291 2.520682 0.025555 -0.014977 172584.000000 0 0 1
-15.814030 14.491215 -30.921724 37.632856 -0.741776 2.535128 0.006530 -0.002129 361427.000000 0 0 1
-14.945430 14.001515 -29.759024 36.124892 -0.752801 2.538846 0.022242 0.002301 -253697.000000 0 0 1
-15.481930 14.498115 -28.507434 35.532510 -0.752594 2.501921 0.015390 0.003704 274001.000000 0 0 1
-16.170730 13.431315 -27.842694 34.887080 -0.693120 2.494899 0.044670 0.004681 238784.000000 0 0 1
-16.916030 13.957715 -26.549964 34.436470 -0.689870 2.451181 0.039762 -0.001382 59797.500000 0 0 1
-16.087230 14.407615 -25.479674 33.400481 -0.730375 2.438511 0.037318 0.002513 -56628.800000 0 0 1
-16.824630 14.570615 -24.299214 32.951825 -0.713726 2.400033 0.040176 0.004809 -137746.000000 0 0 1
-16.046530 15.191615 -23.114714 31.977590 -0.758037 2.378701 0.041613 0.002259 55236.300000 0 0 1
-15.485930 16.465915 -23.381414 32.521238 -0.816059 2.373099 0.015917 -0.001971 -201042.000000 0 0 1
-15.017730 17.015015 -22.170814 31.726770 -0.847669 2.344521 0.021033 -0.004593 -332989.000000 0 0 1
-14.501030 18.459115 -22.356114 32.416271 -0.904913 2.331812 0.012233 -0.007319 69532.800000 0 0 1
-15.472130 19.458215 -22.687614 33.656155 -0.899022 2.310542 -0.001938 -0.006229 580374.000000 0 0 1
-16.247330 19.264415 -23.884414 34.721156 -0.870155 2.329377 -0.020426 0.003021 -124312.000000 0 0 1
-17.505630 20.118215 -24.026814 35.895368 -0.854726 2.304139 0.002366 0.001558 -299996.000000 0 0 1
-17.336530 21.490715 -24.205714 36.719514 -0.891984 2.290558 0.005491 -0.002919 -745102.000000 0 0 1
-18.553830 22.136115 -24.315614 37.755811 -0.873210 2.270542 0.049959 -0.010701 -469895.000000 0 0 1
-18.274630 23.631215 -24.552614 38.668169 -0.912533 2.258749 0.037724 -0.017140 137250.000000 0 0 1
-17.877130 24.348115 -23.366914 38.189464 -0.937464 2.229217 0.046151 -0.015144 -533566.000000 0 0 1
-17.034930 25.407315 -23.619214 38.646963 -0.980163 2.228313 0.026431 -0.015257 -567971.000000 0 0 1
-16.067330 25.532615 -22.387914 37.567169 -1.009121 2.209236 0.008857 -0.019047 60534.800000 0 0 1
-15.005530 24.580515 -22.349714 36.453770 -1.022718 2.230772 0.016279 -0.023012 109912.000000 0 0 1
-15.311730 23.227515 -22.055814 35.502471 -0.987976 2.241130 0.017038 -0.012791 -424290.000000 0 0 1
-14.019530 22.352515 -22.009414 34.359809 -1.010616 2.266020 0.013380 -0.010534 560750.000000 0 0 1
-13.270230 22.763015 -20.878614 33.618007 -1.042991 2.240884 0.019803 -0.012663 -201086.000000 0 0 1
-12.058030 22.054215 -20.711114 32.568923 -1.070456 2.259992 0.027931 -0.011154 -19395.900000 0 0 1
-11.438930 22.367615 -19.332414 31.700182 -1.098066 2.226670 0.032591 -0.018737 -268406.000000 0 0 1
-12.154030 21.949915 -18.187114 30.988552 -1.065104 2.198018 0.040265 -0.016787 107606.000000 0 0 1
-13.215330 22.832915 -17.837014 31.845659 -1.046123 2.165313 0.035478 -0.025659 355293.000000 0 0 1
-13.859230 22.683215 -16.406314 31.237376 -1.022335 2.123763 0.049853 -0.021690 579875.000000 0 0 1
-13.107230 23.360015 -15.372514 30.883717 -1.059473 2.091804 0.059972 -0.043505 150396.000000 0 0 1
-13.749230 23.307415 -14.116014 30.521120 -1.037830 2.051609 0.061748 -0.029834 377154.000000 0 0 1
-12.747930 23.733815 -12.990114 29.908975 -1.077895 2.020081 0.083860 -0.029555 9141.610000 0 0 1
-12.574530 25.140215 -12.877414 30.918878 -1.107008 2.000378 0.073075 -0.032616 147549.000000 0 0 1
-11.597730 25.395215 -11.883414 30.342047 -1.142393 1.973219 0.037799 -0.024142 31980.700000 0 0 1
-10.987830 26.787015 -12.044414 31.358324 -1.181534 1.965018 0.058065 -0.020635 -3575.210000 0 0 1
-10.369630 26.977415 -13.298914 31.814639 -1.203826 2.002053 0.053091 -0.035114 -59469.700000 0 0 1
-10.288630 28.390915 -13.638814 33.134834 -1.223125 1.995022 0.034881 -0.004554 -998623.000000 0 0 1
-9.736130 28.708015 -15.022114 33.832030 -1.243826 2.030877 0.067052 -0.031614 408573.000000 0 0 1
-8.317030 28.689615 -15.164414 33.499649 -1.288634 2.040558 0.050171 -0.040020 260809.000000 0 0 1
-7.583030 27.498515 -14.857214 32.162206 -1.301722 2.050985 0.052045 -0.030638 -532687.000000 0 0 1
-6.136630 27.776415 -15.323714 32.311046 -1.353360 2.064915 0.044612 -0.028603 383446.000000 0 0 1
-5.470930 28.816615 -14.594014 32.761466 -1.383176 2.032487 0.027049 -0.020438 -325031.000000 0 0 1
-4.074530 28.763615 -14.798514 32.602812 -1.430077 2.041937 0.032781 -0.018416 342021.000000 0 0 1
-3.207630 29.606915 -13.830214 32.834938 -1.462877 2.005569 0.007401 -0.003753 98958.700000 0 0 1
-3.339230 31.015315 -14.124314 34.243196 -1.463546 1.995961 0.001327 -0.000690 456149.000000 0 0 1
-4.497230 31.566415 -13.479914 34.617506 -1.429280 1.970772 -0.003967 -0.003019 477885.000000 0 0 1
-4.846130 33.028015 -13.813314 36.126755 -1.425108 1.963142 0.000119 -0.010336 -264617.000000 0 0 1
-4.104930 33.921815 -13.066714 36.582496 -1.450370 1.936049 -0.010737 -0.004418 -434046.000000 0 0 1
-4.203230 -33.427419 -13.467414 36.282650 1.445711 1.951076 0.012211 -0.004316 -550055.000000 0 0 1
-3.215130 -32.574119 -12.767414 35.134273 1.472413 1.942699 0.003867 -0.005324 -589570.000000 0 0 1
-3.507630 -32.458919 -11.358514 34.567336 1.463150 1.905608 0.002319 -0.004307 239054.000000 0 0 1
-2.406730 -32.028419 -10.581014 33.816709 1.495794 1.889034 -0.007681 -0.008924 -36254.700000 0 0 1
-2.832230 -32.040419 -9.106114 33.429497 1.482630 1.846680 -0.008357 -0.012976 -493124.000000 0 0 1
-1.851330 -31.544919 -8.262714 32.661625 1.512175 1.826555 0.002799 -0.022752 -308534.000000 0 0 1
-2.217030 -31.761319 -6.891114 32.575820 1.501107 1.783947 0.001074 -0.025206 -332536.000000 0 0 1
-1.220630 -30.953319 -6.089714 31.570279 1.531382 1.764907 0.019115 -0.023810 -52541.300000 0 0 1
-1.229630 -31.213419 -4.715614 31.591558 1.531422 1.720624 0.020125 -0.026171 35367.300000 0 0 1
-0.094130 -30.594319 -4.136214 30.872795 1.567720 1.705176 0.026370 -0.019855 -65372.200000 0 0 1
0.014770 -30.737119 -2.566214 30.844062 -1.570316 1.654092 0.035259 -0.016426 -17837.000000 0 0 1
0.351070 -32.049519 -1.936714 32.109902 -1.559843 1.631148 0.027297 -0.021370 -322196.000000 0 0 1
1.511970 -32.682019 -2.374114 32.803000 -1.524566 1.643235 0.029930 -0.022311 -385221.000000 0 0 1
2.835470 -32.259019 -1.689114 32.427416 -1.483125 1.622909 0.025800 -0.014869 -546884.000000 0 0 1
2.852070 -32.659519 -0.299314 32.785181 -1.483690 1.579926 0.032058 -0.015819 -71501.600000 0 0 1
3.996170 -32.167719 0.373386 32.417140 -1.447200 1.559278 0.033714 -0.013657 120494.000000 0 0 1
4.161470 -30.632619 0.558386 30.919039 -1.435772 1.552736 0.035355 -0.012160 -458696.000000 0 0 1
4.541770 -30.055919 -0.635614 30.403782 -1.420820 1.591704 0.030346 -0.014992 -107143.000000 0 0 1
4.501870 -28.622219 -0.668914 28.981817 -1.414789 1.593879 0.049249 -0.006117 -210658.000000 0 0 1
3.950770 -28.082219 -1.987614 28.428335 -1.431028 1.640770 0.044828 -0.001391 218950.000000 0 0 1
2.603970 -28.401519 -2.315914 28.614514 -1.479368 1.651820 0.041134 -0.007223 260566.000000 0 0 1
2.040570 -27.612019 -3.346314 27.888803 -1.497029 1.691074 0.042389 -0.004659 77687.800000 0 0 1
2.638570 -27.711619 -4.801914 28.248084 -1.475867 1.741617 0.031107 -0.005045 21013.000000 0 0 1
1.958470 -28.664819 -5.628414 29.277747 -1.502579 1.764243 0.031279 -0.008713 255612.000000 0 0 1
2.540270 -28.676919 -6.945114 29.615085 -1.482445 1.807514 0.035779 -0.027679 -339798.000000 0 0 1
1.716070 -29.407419 -8.000514 30.524571 -1.512507 1.835995 0.028618 -0.023639 -305068.000000 0 0 1
0.498470 -28.730819 -8.221614 29.888181 -1.553448 1.849468 0.019215 -0.015809 -474139.000000 0 0 1
0.035670 -28.932819 -9.520114 30.458855 -1.569563 1.888680 0.033826 -0.010825 -449200.000000 0 0 1
-1.306730 -28.272319 -9.779214 29.944358 1.524610 1.903479 0.003149 -0.007977 -1151790.000000 0 0 1
-1.193230 -26.834619 -9.666914 28.547676 1.526360 1.916250 0.019556 -0.003442 173844.000000 0 0 1
-2.393130 -26.060019 -9.570514 27.864788 1.479222 1.921398 0.016635 -0.007762 1167500.000000 0 0 1
-3.440230 -26.453619 -8.443014 27.980594 1.441474 1.877319 0.009142 -0.009321 177339.000000 0 0 1
-2.978730 -26.281319 -7.088414 27.382954 1.457938 1.832640 0.017777 -0.014121 -360075.000000 0 0 1
-2.094930 -27.247919 -6.590814 28.111860 1.494063 1.807449 0.018452 -0.014216 -76182.200000 0 0 1
-1.564730 -26.978419 -5.234014 27.525958 1.512862 1.762110 0.027443 -0.008993 -32170.500000 0 0 1
-2.477230 -27.294019 -4.204614 27.726863 1.480283 1.723028 0.032132 -0.014424 -82586.000000 0 0 1
-2.053230 -26.720319 -2.996414 26.966084 1.494106 1.682144 0.034928 -0.010699 283178.000000 0 0 1
-3.095930 -26.853619 -1.839014 27.093977 1.456014 1.638724 0.027008 -0.009507 766770.000000 0 0 1
-4.248930 -26.032119 -2.021714 26.453959 1.409004 1.647295 0.023686 -0.008740 -334653.000000 0 0 1
-5.150130 -26.181819 -0.968414 26.701111 1.376570 1.607073 0.031023 -0.011242 -842460.000000 0 0 1
-6.254930 -25.149019 -0.931914 25.931945 1.327028 1.606741 0.018862 -0.007759 -440925.000000 0 0 1
-5.804630 -23.852319 -0.737814 24.559544 1.332080 1.600843 0.012581 -0.012041 -95672.200000 0 1 0
-6.483130 -23.337719 0.408686 24.224928 1.299832 1.553925 0.015549 -0.001159 671.534000 0 1 0
-6.167930 -21.887719 0.811986 22.754668 1.296120 1.535104 0.010378 -0.003954 1783520.000000 0 1 0
-4.759830 -21.770719 1.214786 22.318062 1.355549 1.516339 0.001895 -0.014301 1643800.000000 0 1 0
-4.318430 -20.420719 1.346986 20.915759 1.362394 1.506351 -0.007157 -0.007822 299731.000000 0 1 0
-3.299530 -20.309119 2.549086 20.732705 1.409738 1.447534 -0.004177 0.000822 182089.000000 0 1 0
-3.917930 -20.188619 3.830186 20.918911 1.379113 1.386661 -0.007734 0.004865 34827.700000 0 1 0
-3.033430 -20.005519 4.908086 20.820946 1.420313 1.332828 0.016175 -0.004213 -285833.000000 0 1 0
-2.207930 -21.176319 5.452586 21.978220 1.466908 1.320088 0.017190 -0.009890 256302.000000 0 1 0
-1.357530 -21.626119 4.383886 22.107699 1.508106 1.371176 0.024695 -0.012183 -240612.000000 0 1 0
-0.775830 -22.870419 4.666886 23.354610 1.536886 1.369615 0.027807 -0.011912 -582180.000000 0 1 0
0.283270 -23.292419 3.596686 23.570176 -1.558635 1.417603 0.037861 -0.019082 1148020.000000 0 1 0
1.489470 -22.509819 3.461886 22.823127 -1.504723 1.418525 0.030502 -0.019076 786262.000000 0 1 0
2.398470 -22.950419 4.480586 23.506383 -1.466668 1.379011 0.041256 -0.018100 -168943.000000 0 1 0
3.580370 -21.935319 4.726786 22.722671 -1.408999 1.361245 0.044235 -0.020326 788675.000000 0 1 0
4.499570 -21.951419 3.628286 22.699678 -1.368618 1.410269 0.036476 -0.006331 -253262.000000 0 1 0
5.623970 -21.166219 3.963886 22.256466 -1.311092 1.391741 0.042478 -0.005744 224791.000000 0 1 0
6.374770 -20.704719 2.706886 21.832323 -1.272117 1.446491 0.046813 -0.002486 193946.000000 0 1 0
7.174770 -21.674519 2.017086 22.920095 -1.251126 1.482677 0.048428 -0.003505 100016.000000 0 1 0
7.216470 -21.246419 0.665586 22.448402 -1.243366 1.541142 0.049589 -0.017074 -220428.000000 0 1 0
7.911070 -22.247819 -0.278614 23.614151 -1.229152 1.582595 0.044190 -0.009337 325894.000000 0 1 0
9.309170 -22.014419 -0.315114 23.903861 -1.170734 1.583979 0.037744 -0.001034 -278391.000000 0 1 0
9.916070 -22.921219 -1.245914 25.005260 -1.162493 1.620643 0.036887 -0.002028 592575.000000 0 0 1
11.286370 -22.391119 -1.771014 25.137240 -1.103909 1.641309 0.044842 0.002365 382014.000000 0 0 1
11.235670 -21.286419 -2.670514 24.217423 -1.085131 1.681293 0.042775 0.001537 -1057690.000000 0 1 0
12.482870 -21.104119 -3.225514 24.730746 -1.036658 1.701594 0.053003 -0.002976 -863570.000000 0 1 0
12.635370 -19.819019 -4.102514 23.859520 -1.003232 1.743600 0.043193 -0.013455 -65993.700000 0 1 0
12.541370 -18.591119 -3.475814 22.693544 -0.977329 1.724565 0.048946 -0.012511 105656.000000 0 1 0
12.616870 -17.623719 -4.510414 22.138760 -0.949477 1.775967 0.041023 -0.009664 -786655.000000 0 1 0
13.024970 -16.294019 -3.868214 21.215748 -0.896439 1.754149 0.049035 -0.008297 620931.000000 0 1 0
14.356370 -16.119519 -3.380014 21.848770 -0.843188 1.726121 0.045136 -0.009888 674456.000000 0 1 0
15.323070 -16.010219 -4.414114 22.596637 -0.807325 1.767404 0.043529 -0.009206 108458.000000 0 1 0
16.788670 -15.782219 -3.936114 23.375861 -0.754508 1.739986 0.044189 -0.006254 452441.000000 0 1 0
17.461070 -16.874819 -3.303314 24.506333 -0.768326 1.706002 0.050756 -0.011790 -185894.000000 0 1 0
18.769570 -16.409919 -3.125614 25.126712 -0.718424 1.695513 0.048917 -0.006084 -916233.000000 0 0 1
19.576370 -17.386219 -2.313214 26.284327 -0.726214 1.658918 0.041326 -0.015474 -690570.000000 0 0 1
20.958270 -17.166419 -2.379314 27.195517 -0.686265 1.658398 0.048452 -0.012238 -370337.000000 0 0 1
21.636270 -17.980319 -1.491214 28.171684 -0.693375 1.623754 0.042900 -0.014630 742941.000000 0 0 1
23.205270 -18.026519 -1.548714 29.425133 -0.660452 1.623453 0.047488 -0.017229 697428.000000 0 0 1
23.885970 -16.880819 -1.156014 29.271795 -0.615225 1.610299 0.052082 -0.014416 238391.000000 0 0 1
25.172570 -17.242019 -0.657814 30.518490 -0.600556 1.592353 0.076001 -0.016423 210264.000000 0 0 1
25.978570 -16.015219 -0.214014 30.519160 -0.552448 1.577809 0.078624 -0.023290 -158591.000000 0 0 1
25.365470 -15.314219 0.858786 29.642366 -0.543167 1.541821 0.066979 -0.026643 770024.000000 0 0 1
26.228070 -14.288719 1.412886 29.901094 -0.498832 1.523527 0.066300 -0.031546 543168.000000 0 0 1
25.446470 -13.389919 2.407386 28.854952 -0.484387 1.487269 0.066785 -0.034531 -198842.000000 0 0 1
25.123170 -13.966919 3.634086 28.973351 -0.507391 1.445037 0.068904 -0.021471 308366.000000 0 0 1
26.192770 -14.356019 4.498286 30.205812 -0.501376 1.421319 0.056002 -0.009970 -133194.000000 0 0 1
25.724770 -14.872919 5.835986 30.282441 -0.524203 1.376865 0.050291 0.002334 52236.500000 0 0 1
24.918670 -16.021619 5.673486 30.163237 -0.571408 1.381576 0.047212 -0.002245 718376.000000 0 0 1
24.062770 -16.282619 6.842486 29.848956 -0.594898 1.339503 0.023003 -0.000138 -315394.000000 0 0 1
23.319370 -17.561319 6.689286 29.948948 -0.645469 1.345540 0.018588 -0.006648 -416601.000000 0 0 1
24.072070 -18.778319 6.746286 31.266631 -0.662481 1.353320 0.028292 -0.005539 -38104.500000 0 0 1
23.151270 -19.835619 6.691186 31.212258 -0.708419 1.354742 0.022064 0.007602 -166121.000000 0 0 1
2.141770 23.450915 -3.082414 23.749398 1.479719 1.700953 0.017826 -0.003907 141253.000000 0 1 0
2.787970 24.661615 -2.677414 24.962704 1.458225 1.678260 0.025057 0.001759 -259294.000000 0 1 0
3.448370 25.134915 -3.804514 25.654036 1.434453 1.719646 0.037010 -0.006702 -188083.000000 0 0 1
4.572970 26.128215 -3.448514 26.748606 1.397531 1.700079 0.024439 0.002177 593975.000000 0 0 1
5.689870 25.574815 -2.709514 26.339842 1.351882 1.673846 0.024963 0.000238 805941.000000 0 0 1
6.361670 26.528015 -1.864014 27.343756 1.335431 1.639019 0.017087 0.006051 -246273.000000 0 0 1
7.534470 25.896115 -1.142814 26.994130 1.287663 1.613145 0.004283 -0.000731 -356219.000000 0 0 1
8.633270 25.639115 -2.005414 27.127832 1.245999 1.644788 0.003585 -0.008163 -260399.000000 0 0 1
9.423370 24.592615 -1.479214 26.377731 1.204875 1.626904 -0.006883 0.000133 283150.000000 0 0 1
10.674570 24.369715 -2.379614 26.711272 1.157944 1.660001 0.013087 -0.005488 -242554.000000 0 0 1
11.638670 25.445515 -2.377014 28.081722 1.141809 1.655544 0.017238 -0.004214 746048.000000 0 0 1
12.698070 25.292615 -3.318314 28.495062 1.105513 1.687513 0.024269 -0.007964 1265440.000000 0 0 1
13.688070 24.020515 -3.236714 27.835674 1.052842 1.687339 0.039223 -0.008422 -157227.000000 0 0 1
13.049470 22.781615 -3.495314 26.485994 1.050612 1.703151 0.039223 -0.018621 -155240.000000 0 0 1
12.781270 22.406715 -4.854514 26.248582 1.052410 1.756811 0.044711 -0.018839 154874.000000 0 0 1
11.798470 21.199315 -5.080414 24.787607 1.062939 1.777217 0.049979 -0.022683 570571.000000 0 1 0
10.438070 21.530015 -4.884714 24.420387 1.119371 1.772181 0.056802 -0.023142 -256335.000000 0 1 0
9.622470 20.414315 -4.930214 23.100719 1.130323 1.785873 0.039721 -0.015548 27004.300000 0 1 0
8.097070 20.621915 -4.799414 22.668487 1.196647 1.784133 0.035209 -0.014531 256561.000000 0 1 0
7.596670 20.949515 -3.508414 22.558824 1.222925 1.726953 0.029351 -0.021261 99762.800000 0 1 0
6.352770 21.605615 -3.533014 22.795668 1.284823 1.726410 0.032013 -0.003265 53404.100000 0 1 0
5.891570 22.192015 -2.196614 23.065586 1.311301 1.666174 0.025334 -0.004068 25580.200000 0 1 0
5.653870 21.255215 -1.107714 22.022204 1.310817 1.621117 0.023050 -0.007668 78192.700000 0 1 0
5.207470 21.978515 0.020986 22.587017 1.338152 1.569867 0.029186 0.001053 228909.000000 0 1 0
4.506970 21.053215 1.104986 21.558563 1.359904 1.519519 0.014098 -0.001884 336934.000000 0 1 0
3.976770 21.803115 2.222886 22.274015 1.390385 1.470833 0.028508 0.003504 159345.000000 0 1 0
3.361770 20.922015 3.135386 21.421085 1.411477 1.423899 0.022473 0.001153 -120.861000 0 1 0
2.363770 21.620615 4.098186 22.132184 1.461899 1.384553 0.015322 0.004018 116283.000000 0 1 0
1.126770 21.929315 3.466586 22.230198 1.519460 1.414217 0.017709 0.010052 -457030.000000 0 1 0
0.195770 22.085615 4.483786 22.537016 1.561932 1.370508 0.019647 -0.010508 142716.000000 0 1 0
-1.269930 22.236415 3.982686 22.625929 -1.513748 1.393851 0.015139 -0.007884 782281.000000 0 1 0
-2.277630 22.437215 4.977786 23.095337 -1.469632 1.353560 0.028216 -0.018351 -132478.000000 0 1 0
-3.522430 22.498915 4.332186 23.181384 -1.415497 1.382809 0.035123 -0.021050 -126026.000000 0 1 0
-4.749630 22.728015 5.223586 23.799318 -1.364784 1.349510 0.046407 -0.029937 -243257.000000 0 1 0
-4.791630 24.075215 5.680186 25.196036 -1.374336 1.343402 0.053639 -0.018370 255387.000000 0 0 1
-5.988930 24.345815 6.403186 25.876375 -1.329591 1.320746 0.057986 -0.018786 400903.000000 0 0 1
-6.294930 25.830915 6.679786 27.413170 -1.331758 1.324647 0.065861 -0.020357 170218.000000 0 0 1
-5.487030 26.293015 7.773386 27.961683 -1.365061 1.289083 0.055799 -0.028764 198880.000000 0 0 1
-5.942630 27.505515 8.362486 29.356420 -1.358015 1.281935 0.063028 -0.023661 -48374.800000 0 0 1
-5.989130 28.824015 7.536186 30.388940 -1.365929 1.320190 0.068345 -0.021913 1050220.000000 0 0 1
-7.151630 28.896315 6.669086 30.506058 -1.328179 1.350401 0.068470 -0.026432 279783.000000 0 0 1
-7.131530 30.229815 6.109286 31.654760 -1.339122 1.376580 0.074157 -0.025381 -1576250.000000 0 0 1
-8.398630 30.546215 5.340886 32.126832 -1.302478 1.403777 0.064219 -0.024839 884441.000000 0 0 1
-9.583830 30.887715 6.128386 32.915921 -1.269936 1.383521 0.067650 -0.012545 1002890.000000 0 0 1
-10.028030 29.837915 6.966386 32.239620 -1.246573 1.352997 0.042327 -0.009334 -1496920.000000 0 0 1
-11.135330 30.184715 7.952686 33.141482 -1.217379 1.328470 0.028454 -0.006106 -338005.000000 0 0 1
-10.554030 30.914315 9.001586 33.883787 -1.241807 1.301907 0.033302 -0.007272 309886.000000 0 0 1
-11.504230 31.110415 10.023586 34.650794 -1.216604 1.277328 0.037638 -0.001108 322011.000000 0 0 1
-10.774630 31.651015 11.307586 35.295055 -1.242682 1.244673 0.030048 -0.008577 229907.000000 0 0 1
-10.361830 33.010715 11.236486 36.377651 -1.266643 1.256777 0.026758 -0.007801 -232905.000000 0 0 1
-9.391230 33.163515 12.220386 36.569821 -1.294842 1.230076 0.026155 -0.014662 -258455.000000 0 0 1
-9.036630 -34.053119 12.518586 37.389713 1.311406 1.229389 0.019238 -0.010137 745314.000000 0 0 1
-10.008030 -33.300919 13.315486 37.234581 1.278850 1.205088 0.015867 0.001895 269635.000000 0 0 1
-9.568730 -31.971919 13.471886 35.989664 1.279995 1.187126 0.019618 0.014730 491644.000000 0 0 1
-10.520930 -30.884819 14.125786 35.554182 1.242475 1.162220 0.019306 0.002286 126659.000000 0 0 1
-10.819930 -30.992919 15.535186 36.317681 1.234915 1.128785 0.011813 -0.003251 445635.000000 0 0 1
-9.670130 -30.771819 16.369686 36.171576 1.266315 1.101166 0.018982 -0.009595 406536.000000 0 0 1
-9.748430 -31.154919 17.854586 37.208159 1.267545 1.070305 0.011608 -0.014693 -101214.000000 0 0 1
-10.565030 -30.284119 18.599586 37.076844 1.235134 1.045292 0.029354 -0.016056 340519.000000 0 0 1
-11.371830 -30.942619 19.564986 38.334748 1.218605 1.035179 0.022271 -0.018069 82741.400000 0 0 1
-11.779030 -30.066419 20.755586 38.386579 1.197407 0.999528 0.032362 -0.016469 77792.100000 0 0 1
-10.674530 -29.863619 21.630186 38.388101 1.227507 0.972227 0.027972 -0.019120 259437.000000 0 0 1
-10.944930 -28.996019 22.696086 38.414489 1.209868 0.938720 0.014705 -0.021239 -169406.000000 0 0 1
-9.722530 -28.754819 23.603286 38.451038 1.244746 0.909864 0.030219 -0.025204 26444.800000 0 0 1
-9.459230 -29.971619 24.241186 39.691436 1.265084 0.913800 0.032284 -0.016449 -628050.000000 0 0 1
-8.280930 -29.904019 24.973086 39.830632 1.300649 0.893123 0.042421 -0.015779 -451685.000000 0 0 1
-8.098630 -31.103319 26.008286 41.345317 1.316074 0.890465 0.050287 -0.021897 -192138.000000 0 0 1
-7.707930 -32.347319 25.426986 41.860397 1.336872 0.917983 0.065493 -0.015598 169962.000000 0 0 1
-7.914830 -33.443619 26.316386 43.285938 1.338410 0.917300 0.071560 -0.020568 -332094.000000 0 0 1
-7.758130 33.867515 25.663686 43.195162 -1.345609 0.934609 0.069197 -0.021548 -908976.000000 0 0 1
-6.428230 33.545015 25.427386 42.581007 -1.381462 0.930849 0.070344 -0.018363 -560515.000000 0 0 1
-6.200730 32.177415 25.009186 41.222500 -1.380425 0.918909 0.063941 -0.013021 18953.900000 0 0 1
-6.947930 31.654515 23.735386 40.170271 -1.354730 0.938660 0.057911 -0.013416 993642.000000 0 0 1
-8.295030 31.215815 23.972186 40.223132 -1.311067 0.932311 0.053141 -0.011022 673695.000000 0 0 1
-9.105730 31.006515 22.848186 39.577240 -1.285156 0.955371 0.044030 -0.002721 -596.117000 0 0 1
-9.844930 29.673715 22.889786 38.747830 -1.250451 0.938824 0.040526 -0.011990 80744.100000 0 0 1
-9.002230 28.516315 22.770486 37.586107 -1.265011 0.919998 0.030594 -0.006585 399777.000000 0 0 1
-9.730830 27.287415 22.938686 36.952340 -1.228249 0.901079 0.024857 -0.005437 298131.000000 0 0 1
-8.861830 25.991315 22.634686 35.586648 -1.242203 0.881435 0.022389 -0.007422 322685.000000 0 0 1
-7.901230 25.705115 23.622686 35.794046 -1.272583 0.850029 0.008135 -0.013156 -51206.900000 0 0 1
-7.284730 24.413315 23.404886 34.595751 -1.280816 0.827763 0.008959 -0.014833 -520073.000000 0 0 1
-5.910530 24.368515 24.045786 34.741312 -1.332844 0.806349 0.000435 -0.012093 -250671.000000 0 0 1
-5.005430 25.281315 23.340186 34.770153 -1.375335 0.834874 -0.001533 -0.011388 -96230.300000 0 0 1
-3.749730 25.153815 23.954586 34.937045 -1.422814 0.815300 0.007117 -0.011297 -953364.000000 0 0 1
-2.657830 25.707715 23.085386 34.653799 -1.467776 0.841732 0.009720 -0.000219 -937152.000000 0 0 1
-2.401330 24.955515 21.909286 33.295059 -1.474867 0.852591 0.011390 -0.007718 -278442.000000 0 0 1
-1.589730 25.657615 21.032086 33.214291 -1.508916 0.885085 0.020099 -0.000904 -288585.000000 0 0 1
-1.181630 24.750715 19.873986 31.764280 -1.523091 0.894805 0.017803 -0.006286 -547920.000000 0 0 1
-0.155730 23.858715 20.156086 31.233482 -1.564269 0.869333 0.025609 -0.004949 -410435.000000 0 0 1
-0.024630 22.885315 19.145486 29.837693 -1.569720 0.874143 0.018099 -0.006777 -122748.000000 0 0 1
1.082370 21.858315 19.496986 29.310236 1.521319 0.843043 0.027395 0.008595 -501394.000000 0 0 1
2.385770 22.233915 19.220686 29.486839 1.463902 0.860789 0.031439 -0.009785 -1185300.000000 0 0 1
3.291770 21.395515 19.867886 29.382592 1.418140 0.828233 0.037314 -0.000501 1174860.000000 0 0 1
4.792670 21.813915 19.520386 29.662469 1.354526 0.852526 0.031598 -0.011077 1111130.000000 0 0 1
5.694270 20.731715 19.477486 29.010364 1.302742 0.834703 0.040754 -0.009187 -183474.000000 0 0 1
6.894970 21.201115 18.890886 29.221456 1.256368 0.867844 0.057814 -0.007731 541315.000000 0 0 1
7.980870 20.062815 18.655586 28.534922 1.192193 0.858226 0.058479 -0.004987 482405.000000 0 0 1
8.603970 19.514615 19.770286 29.081141 1.155537 0.823263 0.051067 -0.006931 -383744.000000 0 0 1
9.546070 18.567615 19.393086 28.495185 1.095913 0.822250 0.053537 -0.014342 177889.000000 0 0 1
10.271670 17.698315 20.491186 28.959045 1.044932 0.784712 0.073875 -0.020541 2093.880000 0 0 1
9.347470 16.858715 21.144586 28.612672 1.064536 0.739221 0.062604 -0.015316 -128584.000000 0 0 1
9.833370 16.071815 22.224486 29.136338 1.021717 0.703202 0.063414 -0.019020 205105.000000 0 0 1
8.704070 15.133915 22.763786 28.687736 1.048859 0.654254 0.047312 -0.019209 429285.000000 0 0 1
7.731570 15.755515 23.594086 29.405686 1.114599 0.639549 0.034665 -0.005053 -167063.000000 0 0 1
6.525470 15.063015 23.776086 28.892533 1.161991 0.604274 0.028566 -0.009164 96620.800000 0 0 1
6.575470 13.717615 24.560686 28.890086 1.123809 0.554541 0.033904 -0.009045 -671730.000000 0 0 1
7.034870 14.088115 25.830086 30.251574 1.107671 0.547473 0.049696 -0.016899 193375.000000 0 0 1
7.497270 12.918115 26.564486 30.475543 1.044937 0.512205 0.059409 -0.024826 -599503.000000 0 0 1
8.338270 13.324915 27.807986 31.943140 1.011647 0.514485 0.052829 -0.018427 1097450.000000 0 0 1
9.723270 13.578015 27.467686 32.146202 0.949344 0.546283 0.076881 -0.016879 1153330.000000 0 0 1
10.000670 14.791315 26.805286 32.207449 0.976279 0.587607 0.071081 -0.018480 -1277380.000000 0 0 1
11.373570 14.788915 26.160786 32.131867 0.915208 0.619499 0.089247 -0.025111 -674668.000000 0 0 1
11.509870 14.074415 24.948686 30.870750 0.885304 0.629765 0.082955 -0.032551 243556.000000 0 0 1
12.853870 13.641515 24.783586 31.073125 0.815117 0.647509 0.094495 -0.040136 2647.220000 0 0 1
12.947670 12.517315 23.710586 29.774440 0.768500 0.649576 0.075930 -0.043831 -66693.100000 0 0 1
12.515570 11.269415 24.072186 29.378723 0.733054 0.610477 0.070706 -0.036693 1041070.000000 0 0 1
11.114870 11.104415 24.407786 29.027373 0.784928 0.571937 0.074804 -0.032667 671096.000000 0 0 1
10.747770 9.721215 24.870086 28.784332 0.735288 0.527606 0.057035 -0.027872 -240854.000000 0 0 1
10.545270 8.857915 23.755386 27.458765 0.698654 0.525388 0.057841 -0.025021 112358.000000 0 0 1
10.205470 7.629815 24.315586 27.452021 0.641976 0.482692 0.048693 -0.027576 24078.900000 0 0 1
10.543070 6.459715 23.309886 26.386266 0.549704 0.487707 0.044702 -0.028838 -41336.400000 0 0 1
11.928770 6.232415 23.172486 26.797438 0.481461 0.526188 0.054540 -0.025154 144382.000000 0 0 1
12.288270 5.127515 22.337986 26.005358 0.395304 0.537529 0.057418 -0.028036 -48692.700000 0 0 1
11.930670 3.686615 22.856586 26.045260 0.299696 0.500022 0.043472 -0.027577 -306286.000000 0 0 1
12.833470 3.303115 23.857486 27.290808 0.251915 0.507021 0.051933 -0.017650 171928.000000 0 0 1
12.368370 2.150215 24.551286 27.574729 0.172128 0.472673 0.040850 -0.012786 91025.600000 0 0 1
13.549970 1.528815 25.335086 28.771610 0.112353 0.493757 0.027159 -0.003361 435471.000000 0 0 1
14.466770 0.788315 24.533386 28.492033 0.054438 0.533443 0.038007 -0.007484 82083.800000 0 0 1
15.763370 1.347915 24.620686 29.265661 0.085302 0.571145 0.040801 -0.012225 -225032.000000 0 0 1
16.755470 0.471615 23.822586 29.128746 0.028140 0.613153 0.040187 -0.014395 -273022.000000 0 0 1
16.986570 -0.789985 24.318886 29.674499 -0.046473 0.610221 0.040938 -0.016872 -173243.000000 0 0 1
17.864070 -1.508985 23.488386 29.548373 -0.084270 0.651932 0.049327 -0.005225 -31481.000000 0 0 1
18.068570 -2.990085 23.828586 30.053541 -0.163999 0.655290 0.048593 -0.002026 217327.000000 0 0 1
17.085570 -3.821585 23.223786 29.083766 -0.220051 0.645974 0.039419 0.006338 290924.000000 0 0 1
17.424670 -5.160385 23.503386 29.709558 -0.287925 0.658183 0.055592 0.004154 236838.000000 0 0 1
16.518470 -6.329485 22.984586 29.003680 -0.365920 0.655946 0.040952 0.003865 94027.600000 0 0 1
16.644970 -6.513085 21.584986 28.024756 -0.372979 0.691624 0.035387 0.002239 269011.000000 0 0 1
15.851770 -7.625485 21.136986 27.499069 -0.448373 0.694078 0.045353 -0.009058 42564.200000 0 0 1
16.395170 -9.064185 21.331686 28.390172 -0.505034 0.720652 0.057248 -0.009747 14746.100000 0 0 1
16.122870 -9.518485 22.644286 29.382175 -0.533310 0.690887 0.045442 0.001453 43875.900000 0 0 1
16.832470 -10.719485 22.832286 30.324127 -0.567064 0.718276 0.049624 -0.000199 -132404.000000 0 0 1
16.238970 -11.658685 23.885686 31.147313 -0.622668 0.696859 0.060355 -0.008382 -514086.000000 0 0 1
15.262270 -12.502085 23.392386 30.601352 -0.686309 0.700650 0.066495 -0.015470 -292225.000000 0 0 1
14.704970 -13.296985 24.460286 31.485736 -0.735159 0.681119 0.085448 -0.011240 324633.000000 0 0 1
13.756970 -14.404085 23.887986 31.102536 -0.808373 0.695022 0.082174 -0.021820 -130531.000000 0 0 1
14.388970 -15.372885 23.077486 31.240013 -0.818446 0.739633 0.094334 -0.021783 -470577.000000 0 0 1
13.546770 -16.370885 22.683386 31.081455 -0.879516 0.752760 0.081610 -0.007060 -1034980.000000 0 0 1
13.976670 -17.158985 21.432586 30.808015 -0.887253 0.801427 0.061304 -0.012568 475054.000000 0 0 1
15.141370 -17.971385 21.661086 31.959888 -0.870657 0.826086 0.080081 -0.019108 500280.000000 0 0 1
15.513470 -18.620285 20.466786 31.721792 -0.876167 0.869516 0.069330 -0.020397 -231965.000000 0 0 1
-23.927430 -32.657619 27.117077 48.727588 0.938476 0.980625 0.046958 -0.019077 -1331230.000000 0 0 1
-24.196130 -33.745619 26.278617 49.140464 0.948742 1.006566 0.051478 -0.018878 -553458.000000 0 0 1
-25.513750 -34.016919 25.954237 49.816911 0.927275 1.022783 0.046573 -0.030319 -460628.000000 0 0 1
-26.473020 34.215615 27.089647 51.042904 -0.912292 1.011343 0.044487 -0.027148 -1104530.000000 0 0 1
-26.762580 -33.531419 28.067327 51.267598 0.897194 0.991462 0.058825 -0.022727 29180.600000 0 0 1
-26.230810 -33.797619 29.393617 51.906832 0.910791 0.968815 0.031748 -0.013085 -201233.000000 0 0 1
-27.076560 -33.270319 30.584297 52.682573 0.887676 0.951406 0.030951 -0.025541 -4854.150000 0 0 1
-27.239150 -31.873319 30.480397 51.835648 0.863634 0.942188 0.027688 -0.018926 -6741.150000 0 0 1
-27.978710 -31.347219 31.528397 52.530907 0.842117 0.927061 0.011896 -0.001789 -452688.000000 0 0 1
-28.255530 -29.875919 31.303627 51.680389 0.813266 0.920131 0.004053 -0.011776 -228411.000000 0 0 1
-29.012380 -29.651619 30.131687 51.272364 0.796294 0.942609 0.013140 0.003049 373591.000000 0 0 1
-29.425390 -28.276519 30.089157 50.702786 0.765490 0.935468 0.006961 0.005853 117431.000000 0 0 1
-30.292710 -27.881019 28.849017 50.271913 0.743965 0.959585 0.004543 -0.010340 -65853.300000 0 0 1
-29.615630 -27.660119 27.635047 49.049603 0.751269 0.972289 0.006216 -0.001330 52933.000000 0 0 1
-28.996080 -26.375319 27.523627 47.895513 0.738103 0.958608 0.006080 0.003672 -326260.000000 0 0 1
-28.019630 -26.368619 26.355727 46.637196 0.755051 0.970215 0.016760 0.013260 -535405.000000 0 0 1
-28.548130 -26.454419 25.043907 46.282062 0.747351 0.999034 0.003190 0.012144 -463591.000000 0 0 1
-27.584180 -26.074319 24.115577 44.970192 0.757267 1.004800 0.007523 0.028244 -697275.000000 0 0 1
-27.835520 -26.296319 22.624367 44.476674 0.756972 1.037146 -0.002961 0.028764 -117586.000000 0 0 1
-28.851280 -25.557319 21.973867 44.366922 0.724931 1.052644 -0.012250 0.026226 117433.000000 0 0 1
-28.927990 -25.914719 20.614267 43.969868 0.730509 1.082834 -0.010316 0.025946 106041.000000 0 0 1
-29.718520 -24.863319 19.759867 43.495142 0.696679 1.099209 -0.006278 0.017720 -421041.000000 0 0 1
-30.999450 -24.600119 20.228967 44.444829 0.670806 1.098258 0.016103 0.012950 -481633.000000 0 0 1
-31.529540 -23.493019 19.473967 43.877890 0.640365 1.110937 0.023644 0.005696 -486816.000000 0 0 1
-32.982100 -23.096919 19.766167 44.855189 0.610918 1.114456 0.043925 0.011590 -680282.000000 0 0 1
-33.886540 -24.003919 19.224167 45.760838 0.616316 1.137240 0.033236 0.011559 601319.000000 0 0 1
-35.224627 -23.482619 19.420267 46.576330 0.587993 1.140703 0.054664 0.001299 882858.000000 0 0 1
35.797161 -24.313419 18.701067 47.141373 -0.596629 1.162875 0.074468 -0.008783 -48257.900000 0 0 1
35.540551 -25.630119 19.098267 47.799347 -0.624781 1.159770 0.067337 -0.005495 -213123.000000 0 0 1
34.571521 -26.232519 18.273967 47.087929 -0.649103 1.172247 0.083051 0.000314 -152886.000000 0 0 1
34.327381 -27.712619 18.665467 47.903633 -0.679179 1.170549 0.073173 0.007116 832814.000000 0 0 1
33.181081 -27.864819 19.543267 47.532847 -0.698531 1.147078 0.064837 -0.000375 493487.000000 0 0 1
33.229681 -27.230619 20.800367 47.732312 -0.686499 1.119901 0.059188 -0.003562 -199472.000000 0 0 1
31.925221 -27.322219 21.641967 47.266247 -0.707863 1.095194 0.046613 -0.004770 702529.000000 0 0 1
30.814231 -26.752419 20.948567 45.869938 -0.714956 1.096520 0.048188 -0.001956 275147.000000 0 0 1
29.765821 -26.285819 21.799267 45.300733 -0.723392 1.068759 0.038806 -0.001293 158175.000000 0 0 1
29.018641 -25.152819 21.061367 43.798710 -0.714156 1.069153 0.042205 0.005990 76358.700000 0 0 1
29.791921 -23.965019 20.743167 43.498962 -0.677426 1.073711 0.045892 0.005516 359498.000000 0 0 1
30.467791 -23.406219 21.860467 44.204269 -0.655066 1.053499 0.055947 -0.002468 80114.800000 0 0 1
31.272241 -22.103619 21.635367 43.984226 -0.615284 1.056538 0.058539 -0.005344 200053.000000 0 0 1
30.412421 -21.008819 21.324067 42.673196 -0.604523 1.047537 0.054099 -0.014256 220862.000000 0 0 1
31.089081 -19.909719 20.721667 42.335746 -0.569603 1.059326 0.062592 -0.012827 61567.600000 0 0 1
30.222771 -18.634519 20.925667 41.213405 -0.552516 1.038238 0.031736 -0.004492 217215.000000 0 0 1
30.200511 -18.164019 22.250367 41.678307 -0.541483 1.007638 0.023061 -0.005548 288539.000000 0 0 1
29.385011 -18.868419 23.185967 41.917600 -0.570809 0.984677 0.032577 -0.002578 -181492.000000 0 0 1
29.497541 -18.254219 24.599577 42.526000 -0.554156 0.953957 0.019628 0.005260 -86003.500000 0 0 1
28.892471 -16.962819 24.655347 41.598056 -0.530881 0.936384 0.022459 -0.001620 284923.000000 0 0 1
29.206411 -16.342119 25.876087 42.304269 -0.510137 0.912631 0.016143 0.006292 -191185.000000 0 0 1
28.900761 -14.816919 26.090607 41.659511 -0.473742 0.894021 0.018062 -0.005506 -964281.000000 0 0 1
27.548191 -14.551119 26.223697 40.722478 -0.485957 0.871132 0.028654 -0.003806 -672448.000000 0 0 1
27.209221 -13.205319 26.500457 40.211894 -0.451839 0.851281 0.023214 -0.008658 46658.800000 0 0 1
27.710021 -12.109319 25.438597 39.517124 -0.411992 0.871426 0.033935 -0.021316 -549894.000000 0 0 1
27.071351 -12.054119 24.199127 38.259085 -0.418915 0.886011 0.030284 -0.005904 -31501.700000 0 0 1
27.732181 -11.207719 23.271667 37.897986 -0.384071 0.909601 0.032965 0.003609 703731.000000 0 0 1
29.064491 -11.762619 22.634167 38.670523 -0.384558 0.945536 0.028877 -0.013653 512478.000000 0 0 1
28.806401 -12.801019 21.717167 38.279370 -0.418171 0.967532 0.020584 -0.014124 87379.900000 0 0 1
28.870111 -14.071419 22.299267 39.099175 -0.453520 0.963894 0.020845 -0.013798 112549.000000 0 0 1
28.227601 -15.132219 21.338767 38.485380 -0.492092 0.983077 0.030488 -0.012911 -365628.000000 0 0 1
28.985591 -15.227519 20.201067 38.472392 -0.483720 1.017988 0.034428 -0.011578 -662109.000000 0 0 1
28.313961 -16.010419 19.271767 37.807604 -0.514635 1.035922 0.029254 -0.018674 -506317.000000 0 0 1
28.669701 -15.855719 17.778167 37.274909 -0.505180 1.073618 0.042408 -0.024119 -530515.000000 0 0 1
28.129851 -16.756919 16.876767 36.836234 -0.537251 1.094876 0.048886 -0.025263 480271.000000 0 0 1
26.720651 -16.599519 16.644467 35.588980 -0.555880 1.084125 0.033678 -0.026993 450253.000000 0 0 1
26.295751 -15.551419 15.626067 34.314533 -0.534075 1.098000 0.045686 -0.028956 -620281.000000 0 0 1
26.413551 -15.882219 14.275567 33.966342 -0.541368 1.137036 0.048607 -0.025873 136541.000000 0 0 1
25.679451 -17.028719 13.859867 33.786201 -0.585548 1.148098 0.028134 -0.023637 -216828.000000 0 0 1
25.855951 -17.508619 12.441167 33.613459 -0.595232 1.191653 0.030164 -0.011561 -362514.000000 0 0 1
25.420251 -16.583219 11.474267 32.447668 -0.578034 1.209354 0.033858 -0.016888 -223741.000000 0 0 1
25.349151 -17.186419 10.203767 32.281099 -0.595800 1.249190 0.020492 -0.013476 -457756.000000 0 0 1
26.603251 -17.539519 9.391867 33.220097 -0.582885 1.284171 0.031143 -0.008247 33656.100000 0 0 1
27.328611 -18.615119 10.015767 34.549837 -0.597969 1.276681 0.038645 -0.004305 222043.000000 0 0 1
28.710701 -18.605819 9.654367 35.548385 -0.574999 1.295758 0.048668 0.003946 694761.000000 0 0 1
29.586161 -19.519319 10.533967 36.977145 -0.583195 1.281917 0.071496 -0.013615 -51407.000000 0 0 1
29.821231 -18.930219 11.809967 37.244253 -0.565608 1.248131 0.084966 -0.026207 128918.000000 0 0 1
29.761331 -19.939519 12.813567 38.046140 -0.590293 1.227290 0.082610 -0.027193 -26099.500000 0 0 1
29.710781 -19.437419 14.282667 38.269287 -0.579337 1.188324 0.083421 -0.017670 179550.000000 0 0 1
29.520971 -20.491919 15.196467 39.017164 -0.606788 1.170728 0.081892 -0.017406 -78399.600000 0 0 1
29.384641 -20.040619 16.468667 39.195670 -0.598550 1.137169 0.082578 -0.024667 152312.000000 0 0 1
29.318811 -21.100319 17.544267 40.157409 -0.623816 1.118661 0.061721 -0.014332 520896.000000 0 0 1
28.051221 -21.748319 17.496367 39.572506 -0.659502 1.112819 0.026040 -0.003907 191493.000000 0 0 1
27.892231 -22.791219 18.421167 40.456837 -0.685091 1.098055 0.040326 -0.003978 1014930.000000 0 0 1
26.522051 -23.561619 18.145167 39.847411 -0.726357 1.098013 0.017989 0.008106 987252.000000 0 0 1
25.426351 -22.820219 18.625067 38.912143 -0.731434 1.071687 0.018644 0.012779 -446924.000000 0 0 1
24.233151 -23.524819 18.344767 38.434271 -0.770568 1.073214 0.014180 0.005103 832201.000000 0 0 1
22.995551 -22.899419 19.126167 37.669471 -0.783304 1.038241 0.006796 0.012026 661488.000000 0 0 1
22.462251 -21.673719 18.599767 36.335302 -0.767534 1.033410 0.010627 0.007913 501710.000000 0 0 1
21.269151 -21.198919 19.239267 35.663993 -0.783744 1.001002 0.008555 0.007887 660194.000000 0 0 1
21.362451 -20.532519 20.635067 36.107404 -0.765591 0.962474 0.011416 0.008489 -149594.000000 0 0 1
21.668751 -21.526619 21.599367 37.409394 -0.782108 0.955282 0.017550 0.011808 -191491.000000 0 0 1
21.756751 -21.043819 22.980067 38.003711 -0.768743 0.921433 0.033079 0.013329 -495462.000000 0 0 1
22.194751 -22.063619 24.044837 39.465991 -0.782435 0.915676 0.033324 0.014223 -234533.000000 0 0 1
21.226151 -23.026219 24.432427 39.720269 -0.826053 0.908268 0.040155 0.014004 -304211.000000 0 0 1
21.708651 -23.865519 25.472747 41.105831 -0.832689 0.902453 0.042000 0.020574 -331373.000000 0 0 1
20.698651 -24.714119 26.268367 41.584239 -0.873590 0.887064 0.052979 0.012162 -421278.000000 0 0 1
20.052851 -25.661619 25.512387 41.370490 -0.907479 0.906277 0.050910 0.012094 -196655.000000 0 0 1
18.834851 -26.026819 26.119867 41.405246 -0.944360 0.888168 0.038026 0.010775 -63479.300000 0 0 1
17.995451 -27.056319 25.345177 41.209934 -0.983872 0.908378 0.048386 0.003600 -278564.000000 0 0 1
17.312251 -26.581819 24.230427 39.917675 -0.993521 0.918504 0.052702 -0.004056 97588.200000 0 0 1
16.686351 -27.589119 23.465677 39.877711 -1.026843 0.941667 0.045138 -0.008800 280753.000000 0 0 1
15.581551 -27.056319 22.488967 38.478342 -1.048291 0.946585 0.050321 -0.009951 1098880.000000 0 0 1
14.349851 -26.563819 23.036067 37.976507 -1.075506 0.919035 0.034076 -0.007786 614534.000000 0 0 1
13.819951 -25.533019 22.191967 36.543255 -1.074690 0.918165 0.027196 -0.006258 228765.000000 0 0 1
12.395051 -25.052219 22.542167 35.908220 -1.111343 0.892109 0.036722 -0.006735 460375.000000 0 0 1
11.381051 -26.030419 22.333267 36.137043 -1.158620 0.904580 0.029860 -0.003970 317793.000000 0 0 1
10.076151 -25.459919 22.390467 35.370458 -1.193946 0.885339 0.036530 -0.002057 21801.700000 0 0 1
8.996251 -26.511719 22.268567 35.772795 -1.243658 0.898863 0.038672 -0.010234 -564229.000000 0 0 1
8.860251 -27.132819 21.040367 35.459709 -1.255162 0.935570 0.044324 -0.005349 -341700.000000 0 0 1
7.626251 -27.778319 20.964567 35.627346 -1.302858 0.941668 0.052847 0.001881 -284951.000000 0 0 1
7.485451 -28.659219 19.711567 35.579892 -1.315316 0.983625 0.060035 -0.013867 108464.000000 0 0 1
7.983451 -30.001719 19.891167 36.871360 -1.310723 1.000983 0.058274 -0.012689 224648.000000 0 0 1
7.907951 -30.821019 18.757667 36.936716 -1.319638 1.038129 0.056471 -0.014437 -83007.500000 0 0 1
8.494751 -32.261419 18.937867 38.361475 -1.313330 1.054493 0.050191 -0.019798 -214433.000000 0 0 1
7.926351 -33.079819 19.991567 39.455852 -1.335617 1.039465 0.061052 -0.025249 -26316.000000 0 0 1
8.701851 -34.220019 20.340767 40.748972 -1.321783 1.048153 0.053778 -0.026893 -75975.600000 0 0 1
8.035251 33.434615 21.306667 40.452600 1.334942 1.016074 0.060866 -0.026369 -270115.000000 0 0 1
7.141951 32.602615 20.617767 39.230477 1.355142 1.017429 0.054149 -0.025771 -258042.000000 0 0 1
7.122351 31.323515 21.202167 38.489250 1.347217 0.987403 0.053907 -0.030880 353928.000000 0 0 1
5.975851 30.464215 20.544367 37.227009 1.377096 0.986195 0.046918 -0.027407 1795140.000000 0 0 1
4.656251 30.590115 21.165467 37.488836 1.419742 0.970871 0.047253 -0.025368 692019.000000 0 0 1
3.919351 29.514815 20.697167 36.260976 1.438776 0.963337 0.045830 -0.016814 -499610.000000 0 0 1
2.486651 29.419715 21.228267 36.364026 1.486473 0.947431 0.026354 -0.010956 -333546.000000 0 0 1
2.394351 28.978315 22.541367 36.791152 1.488358 0.911344 0.021637 -0.017084 150407.000000 0 0 1
1.051651 28.766915 22.948067 36.813790 1.534255 0.897770 0.013140 -0.010402 176062.000000 0 0 1
0.903351 28.256115 24.431527 37.364737 1.538837 0.858114 0.017398 -0.005936 -118411.000000 0 0 1
0.937851 29.235515 25.469787 38.785371 1.538728 0.854381 0.021106 -0.008196 153039.000000 0 0 1
0.744951 28.696015 26.829707 39.291849 1.544842 0.819165 0.022708 -0.005601 651350.000000 0 0 1
1.989151 28.054215 27.587797 39.396475 1.500011 0.795034 0.013211 -0.001112 749503.000000 0 0 1
2.478351 26.829715 27.064467 38.189805 1.478684 0.783167 0.014343 -0.004316 512083.000000 0 0 1
3.463051 26.172315 27.866597 38.386587 1.439243 0.758387 0.005046 0.007564 291468.000000 0 0 1
4.038951 24.839715 27.293057 37.124595 1.409606 0.744872 0.012593 0.021847 -629661.000000 0 0 1
3.113851 23.804115 27.099477 36.203779 1.440723 0.724960 0.024691 0.011672 -381220.000000 0 0 1
3.632751 22.512815 26.749457 35.150493 1.410812 0.705946 0.030614 0.018646 611995.000000 0 0 1
2.475151 21.449015 26.533127 34.208091 1.455908 0.683070 0.021887 0.018270 640631.000000 0 0 1
2.899351 20.122015 26.719127 33.574000 1.427693 0.650423 0.023612 0.020208 97157.200000 0 0 1
3.534151 19.527115 25.600197 32.390871 1.391748 0.659413 0.028429 0.021315 -366768.000000 0 0 1
4.082051 18.113315 25.837347 31.817037 1.349137 0.623123 0.022627 0.013072 148743.000000 0 0 1
5.203751 18.084515 26.732607 32.691910 1.290619 0.613369 0.012486 0.009064 357833.000000 0 0 1
6.416751 18.063615 25.993127 32.297237 1.229469 0.635442 0.022382 0.003776 -199950.000000 0 0 1
7.630751 18.084215 26.995677 33.377145 1.171506 0.628675 0.019608 -0.005586 194670.000000 0 0 1
7.794551 19.255015 27.816517 34.716988 1.186153 0.641437 0.016143 -0.004557 -80319.500000 0 0 1
8.329651 20.304915 27.081967 34.858365 1.181504 0.681046 0.016907 -0.000479 -599257.000000 0 0 1
9.076451 21.416615 27.835677 36.275037 1.169939 0.696097 0.005684 0.007615 622372.000000 0 0 1
10.301951 20.944315 28.432817 36.786134 1.113671 0.687363 0.031246 -0.016128 565851.000000 0 0 1
10.657651 21.878715 29.431557 38.190054 1.117502 0.690920 0.033782 -0.029080 301064.000000 0 0 1
11.923351 21.635015 30.315867 39.106163 1.067099 0.683734 0.048992 -0.031711 197030.000000 0 0 1
13.101351 21.710315 29.578307 38.959716 1.027835 0.708710 0.058753 -0.030642 579560.000000 0 0 1
14.309551 21.636315 30.415617 39.975032 0.986471 0.706151 0.058514 -0.027925 2114800.000000 0 0 1
15.598151 21.513215 29.517567 39.716590 0.943456 0.732948 0.065020 -0.025632 611215.000000 0 0 1
15.855851 22.799615 28.903447 40.082911 0.963135 0.765420 0.066928 -0.023219 -102085.000000 0 0 1
17.155751 22.670915 28.374767 40.167370 0.923002 0.786378 0.086568 -0.024465 -292833.000000 0 0 1
-8.745730 16.786615 4.128986 19.373352 -1.090495 1.356022 0.026027 -0.018679 -301472.000000 0 1 0
-8.479830 18.012515 4.764286 20.470873 -1.130801 1.335907 0.034698 -0.019973 129213.000000 0 1 0
-7.115930 18.249215 5.050786 20.228217 -1.199000 1.318436 0.026431 -0.017562 -126894.000000 0 1 0
-6.956230 19.692215 5.643986 21.633933 -1.231231 1.306857 0.032659 -0.016969 -97110.000000 0 1 0
-7.088630 20.812415 4.786786 22.501525 -1.242523 1.356427 0.039676 -0.019620 -694083.000000 0 1 0
-8.389130 21.099415 4.364386 23.121650 -1.192361 1.380900 0.036486 -0.022511 -339637.000000 0 1 0
-8.514430 22.301315 3.384386 24.110128 -1.206086 1.429959 0.057913 -0.021039 89504.200000 0 1 0
-7.806130 22.091415 2.163686 23.529722 -1.231135 1.478711 0.039160 -0.024181 -138112.000000 0 1 0
-8.304730 21.117615 1.240686 22.725790 -1.196113 1.516175 0.051072 -0.024262 -880093.000000 0 1 0
-7.675530 21.219215 -0.150114 22.565270 -1.223714 1.577449 0.028374 -0.013086 1266530.000000 0 1 0
-6.381330 20.635215 -0.452514 21.604126 -1.270880 1.591744 0.019382 -0.011349 979483.000000 0 1 0
-5.333230 21.307715 0.272686 21.966712 -1.325539 1.558382 0.028497 -0.017859 -686468.000000 0 1 0
-3.982330 21.034515 -0.396414 21.411841 -1.383687 1.589311 0.021810 -0.014421 -528576.000000 0 1 0
-3.960830 21.588515 -1.673514 22.012560 -1.389345 1.646895 0.017038 -0.011443 -628710.000000 0 1 0
-2.714930 21.362215 -2.232614 21.649472 -1.444384 1.674106 0.016066 -0.010387 -680905.000000 0 1 0
-2.687230 21.590515 -3.777914 22.082667 -1.446970 1.742723 0.018829 -0.012980 273184.000000 0 1 0
-1.424230 22.081615 -4.194314 22.521510 -1.506387 1.758126 0.033303 -0.003837 384623.000000 0 1 0
-1.484830 22.275515 -5.567214 23.008633 -1.504237 1.815184 0.035570 -0.015932 788348.000000 0 1 0
-0.201830 22.987515 -6.175114 23.803332 -1.562017 1.833220 0.042842 -0.014682 1320680.000000 0 1 0
0.957570 22.163015 -6.134014 23.016132 1.527617 1.840566 0.031623 -0.005610 -74872.200000 0 1 0
2.122970 22.765315 -6.644014 23.809861 1.477811 1.853595 0.037143 -0.009188 220804.000000 0 1 0
3.254770 21.711615 -6.753714 22.969554 1.421995 1.869236 0.036834 -0.008153 40113.900000 0 1 0
2.924370 20.820515 -7.828314 22.434979 1.431253 1.927229 0.032778 -0.010886 494060.000000 0 1 0
3.833670 19.713215 -7.901214 21.580942 1.378722 1.945632 0.023644 -0.011430 469121.000000 0 1 0
3.542770 18.824915 -9.089414 21.202502 1.384776 2.013845 0.010575 -0.008085 -204912.000000 0 1 0
4.031870 19.345015 -10.300914 22.284398 1.365319 2.051325 0.014406 -0.009686 97786.800000 0 1 0
3.142770 19.054815 -11.358114 22.404681 1.407335 2.102442 0.010204 -0.008199 -146153.000000 0 1 0
3.572070 19.543515 -12.729814 23.595695 1.390017 2.140636 0.008864 -0.002054 -237374.000000 0 1 0
3.530670 20.931715 -12.785714 24.780573 1.403694 2.112921 0.042235 -0.015184 -47875.400000 0 1 0
3.899170 21.200215 -14.117414 25.767305 1.388908 2.150625 0.047875 -0.012756 -186914.000000 0 0 1
4.120270 22.736215 -14.417714 27.235686 1.391521 2.128652 0.043239 -0.016466 -295844.000000 0 0 1
3.002670 23.606915 -14.406314 27.818058 1.444281 2.115163 0.042135 -0.018760 -362432.000000 0 0 1
3.327770 24.925915 -14.844514 29.201625 1.438075 2.104059 0.041625 -0.020941 215790.000000 0 0 1
2.127170 25.691715 -15.463314 30.061656 1.488189 2.111089 0.027188 -0.009261 765998.000000 0 0 1
1.038070 26.063015 -14.608514 29.895937 1.530988 2.081333 0.032001 -0.013752 45217.900000 0 0 1
1.096270 27.386315 -14.031014 30.790931 1.530788 2.043940 0.017236 -0.012155 -473756.000000 0 0 1
0.247370 27.509115 -12.693014 30.297281 1.561804 2.003084 0.029747 -0.027179 -89599.900000 0 0 1
-1.140230 27.354515 -12.773914 30.211629 -1.529137 2.007345 0.018301 -0.022832 -313116.000000 0 0 1
-1.667830 26.088715 -13.205114 29.287843 -1.506954 2.038540 0.027711 -0.021474 -575469.000000 0 0 1
-1.652630 24.961515 -12.162814 27.816227 -1.504686 2.023342 0.044867 -0.025373 -680738.000000 0 0 1
-2.404930 25.253515 -11.027414 27.660940 -1.475851 1.980856 0.041210 -0.018316 -178680.000000 0 0 1
-2.501030 23.995315 -10.384714 26.265426 -1.466941 1.977273 0.062399 -0.020615 -92051.600000 0 0 1
-3.549630 24.013515 -9.254414 25.978702 -1.424041 1.935027 0.050549 -0.015721 -61771.600000 0 0 1
-3.195630 24.517315 -7.970214 25.977589 -1.441185 1.882637 0.053289 -0.019350 -136737.000000 0 0 1
-2.859430 25.886015 -7.963014 27.233650 -1.460780 1.867528 0.052583 -0.018299 -94328.200000 0 0 1
-2.498830 26.339815 -6.529614 27.251897 -1.476210 1.812752 0.046809 -0.019768 649409.000000 0 0 1
-1.239830 25.832915 -6.055714 26.562160 -1.522839 1.800802 0.048339 -0.024464 401005.000000 0 0 1
-0.942030 26.229015 -4.707014 26.664670 -1.534896 1.748252 0.047586 -0.021310 -367742.000000 0 0 1
-1.598830 25.570415 -3.479414 25.855536 -1.508351 1.705777 0.053152 -0.021030 -626023.000000 0 0 1
-2.961430 25.852615 -3.566214 26.264913 -1.456743 1.706996 0.045164 -0.021720 -155442.000000 0 0 1
-3.750230 25.370615 -2.439414 25.762047 -1.424041 1.665629 0.043069 -0.014547 1053910.000000 0 0 1
-5.048730 24.553015 -2.757514 25.217933 -1.367997 1.680363 0.044279 -0.015911 535776.000000 0 0 1
-6.104130 25.361915 -3.245114 26.287220 -1.334608 1.694560 0.038785 -0.014331 -119157.000000 0 0 1
-7.136530 24.580315 -3.825614 25.879669 -1.288230 1.719163 0.023651 -0.014315 331005.000000 0 0 1
-8.432330 25.371215 -4.072014 27.044113 -1.249924 1.721940 0.017599 -0.011221 238501.000000 0 0 1
-9.229730 25.684615 -2.893014 27.445526 -1.225818 1.676402 0.042477 -0.016213 81145.800000 0 0 1
-10.427330 26.296015 -3.392414 28.490667 -1.193279 1.690151 0.047618 -0.013172 213904.000000 0 0 1
-11.347030 26.585415 -2.206714 28.989808 -1.167390 1.646990 0.058580 -0.011077 -335198.000000 0 0 1
-11.982530 25.503515 -1.548414 28.220700 -1.131568 1.625692 0.073378 -0.014032 -331749.000000 0 0 1
-11.102630 24.665215 -0.880514 27.063195 -1.147832 1.603338 0.073900 -0.019635 -707295.000000 0 0 1
-11.665930 23.290215 -0.499414 26.053358 -1.106434 1.589966 0.080019 -0.018445 -286066.000000 0 0 1
-12.481530 23.271815 0.616386 26.414881 -1.078504 1.547459 0.089079 -0.018362 -422045.000000 0 0 1
-13.005830 21.990115 0.794386 25.560670 -1.036695 1.539713 0.072274 -0.016001 -428062.000000 0 0 1
-13.695930 21.806515 2.135986 25.839215 -1.009995 1.488037 0.070031 -0.016308 -289210.000000 0 0 1
-12.918430 21.715615 3.319486 25.484756 -1.034142 1.440171 0.069116 -0.017258 -63107.200000 0 0 1
-12.643330 22.988915 3.849786 26.517256 -1.067972 1.425101 0.062443 -0.014265 -19421.000000 0 0 1
-12.450530 22.956315 5.348886 26.657432 -1.073840 1.368772 0.062103 -0.014779 -324968.000000 0 0 1
-11.209130 22.518415 5.815186 25.817436 -1.108929 1.343604 0.064692 -0.010303 -263628.000000 0 0 1
-11.368330 22.300915 7.155086 26.033921 -1.099364 1.292376 0.051448 -0.015554 -334956.000000 0 0 1
-10.038830 21.968315 7.822086 25.388384 -1.142162 1.257604 0.045185 -0.017659 -239163.000000 0 0 1
-9.262530 23.159415 8.069486 26.215827 -1.190336 1.257906 0.047280 -0.017636 134677.000000 0 0 1
-8.104830 22.938415 8.842486 25.885300 -1.231158 1.222175 0.045647 -0.023822 -181542.000000 0 0 1
-8.322430 22.658615 10.399286 26.283471 -1.218796 1.164011 0.034478 -0.027793 -492717.000000 0 0 1
-8.949730 21.483415 10.764986 25.642148 -1.176072 1.137554 0.048411 -0.026401 -332195.000000 0 0 1
-8.658530 21.064015 12.095486 25.786890 -1.180794 1.082575 0.030037 -0.016345 -70035.800000 0 0 1
-9.525530 19.932215 12.716786 25.490108 -1.124988 1.048478 0.023444 -0.012088 -13431.300000 0 0 1
-9.581730 18.748515 11.953786 24.211761 -1.098335 1.054436 0.047394 -0.024180 -145708.000000 0 1 0
-10.414930 17.816915 12.600786 24.180427 -1.041812 1.022639 0.051292 -0.023847 -185989.000000 0 1 0
-10.811330 16.678615 11.647386 23.037419 -0.995677 1.040736 0.048740 -0.024285 -118270.000000 0 1 0
-11.197830 15.438815 12.276386 22.681668 -0.943289 0.998877 0.039974 -0.025916 292639.000000 0 1 0
-11.671730 14.404515 11.356986 21.741676 -0.889817 1.021180 0.027957 -0.017554 156762.000000 0 1 0
-11.860330 12.996415 12.022286 21.309848 -0.831072 0.971374 0.018323 -0.021672 461193.000000 0 1 0
-13.043930 13.088115 12.818086 22.488802 -0.787089 0.964319 0.038729 -0.017196 570240.000000 0 1 0
-13.479430 11.837315 13.262986 22.309726 -0.720626 0.934161 0.026745 -0.008636 -348846.000000 0 1 0
-14.202130 11.848815 14.606186 23.567681 -0.695308 0.902366 0.027918 -0.012989 182855.000000 0 1 0
-15.390930 12.627415 14.494986 24.625941 -0.687084 0.941462 0.038799 -0.016425 -74998.000000 0 1 0
-15.984830 12.774115 15.738786 25.814767 -0.674216 0.915138 0.036745 -0.015672 -897767.000000 0 0 1
-17.184330 13.727215 15.683286 27.013018 -0.674022 0.951352 0.048347 -0.018012 -646635.000000 0 0 1
-18.262030 13.222415 14.930286 27.041588 -0.626678 0.985888 0.049460 -0.019154 169707.000000 0 0 1
-19.194330 14.285715 14.702086 28.083008 -0.639822 1.019816 0.062224 -0.024762 664705.000000 0 0 1
-20.450930 13.942715 13.826286 28.351473 -0.598382 1.061372 0.055195 -0.024305 436255.000000 0 0 1
-21.240730 12.969115 14.483686 28.794856 -0.548161 1.043735 0.054208 -0.016559 -323743.000000 0 0 1
-22.376630 12.692815 13.722586 29.156998 -0.515979 1.080775 0.044168 -0.015212 -332445.000000 0 0 1
-23.423830 11.798715 14.418586 29.929603 -0.466608 1.068146 0.047415 -0.016453 -11528.000000 0 0 1
-24.031330 12.418315 15.539686 31.196173 -0.476962 1.049358 0.043843 -0.011433 73057.900000 0 0 1
-24.960030 11.531715 16.116786 31.870588 -0.432794 1.040609 0.035750 -0.013882 10092.900000 0 0 1
-25.832570 12.080015 17.317186 33.363654 -0.437416 1.025065 0.044043 -0.014943 -384673.000000 0 0 1
-26.784230 12.982115 16.891286 34.223469 -0.451327 1.054620 0.049149 -0.007593 -190275.000000 0 0 1
-27.384160 13.689715 17.986086 35.507743 -0.463579 1.039629 0.034446 -0.000728 209227.000000 0 0 1
-28.515340 14.710015 17.762286 36.674351 -0.476258 1.065205 0.029012 -0.001677 228549.000000 0 0 1
-28.062880 15.952815 17.209986 36.581432 -0.516911 1.080988 0.037092 -0.002521 1258230.000000 0 0 1
-29.269790 16.758815 17.025286 37.781462 -0.520001 1.103331 0.036692 -0.001682 1261040.000000 0 0 1
-28.996290 18.302415 17.000686 38.272530 -0.563044 1.110514 0.068482 -0.005902 -214705.000000 0 0 1
-28.593730 18.863115 18.252486 38.814582 -0.583160 1.081224 0.060189 -0.009636 210359.000000 0 0 1
-29.480670 18.811115 19.366286 39.975255 -0.567952 1.065054 0.043414 -0.013856 -400138.000000 0 0 1
-28.639710 19.245015 20.648886 40.211691 -0.591665 1.031532 0.042788 -0.017079 1296580.000000 0 0 1
-27.798700 18.290915 21.349186 39.536225 -0.581963 1.000370 0.037029 -0.009540 731103.000000 0 0 1
-26.733000 17.798715 20.513086 38.108192 -0.587399 1.002395 0.049146 -0.011911 -254711.000000 0 0 1
-26.211350 16.506815 21.152986 37.509448 -0.562014 0.971650 0.049845 -0.010639 -160523.000000 0 0 1
-27.238820 15.565115 21.291786 37.915252 -0.519148 0.974523 0.015957 -0.001938 20380.100000 0 0 1
-26.717680 14.368515 21.676886 37.285065 -0.493421 0.950369 0.024445 0.004806 -273164.000000 0 0 1
-27.847190 13.407915 22.104686 37.998097 -0.448724 0.949941 0.030057 -0.006118 111502.000000 0 0 1
-28.679370 12.964915 21.047586 37.862860 -0.424569 0.981363 0.030995 -0.009332 -31578.300000 0 0 1
-29.561010 11.949215 21.436686 38.420939 -0.384141 0.978892 0.059430 -0.013088 -503530.000000 0 0 1
-30.497060 11.578215 20.264786 38.402960 -0.362841 1.014920 0.066266 -0.015524 -445098.000000 0 0 1
-29.966530 10.999215 19.082386 37.190229 -0.351783 1.032001 0.085651 -0.017729 173397.000000 0 0 1
-29.224270 9.798615 19.228486 36.329128 -0.323511 1.013038 0.094666 -0.017876 46685.400000 0 0 1
-28.356970 9.424415 17.976186 34.872348 -0.320865 1.029222 0.099114 -0.020683 271631.000000 0 0 1
-29.085690 8.921815 16.806986 34.757027 -0.297631 1.066083 0.096659 -0.013741 930360.000000 0 0 1
-29.787040 9.918815 16.032486 35.251827 -0.321442 1.098650 0.092473 -0.011517 -38835.300000 0 0 1
-28.884230 10.938315 15.316486 34.475212 -0.362006 1.110431 0.075674 -0.010798 -139160.000000 0 0 1
-28.288660 10.475815 14.080886 33.290575 -0.354660 1.134077 0.069572 -0.012569 290606.000000 0 0 1
-27.430940 11.429915 13.545586 32.658572 -0.394802 1.143113 0.044918 0.000369 -623929.000000 0 0 1
-27.224660 11.229715 12.014586 31.806272 -0.391221 1.183439 0.067864 0.000666 -690373.000000 0 0 1
-26.432530 10.184315 11.550986 30.591244 -0.367766 1.183603 0.072880 -0.004711 80315.500000 0 0 1
-27.101090 8.940415 11.558186 30.789475 -0.318650 1.185974 0.070844 -0.001566 -463603.000000 0 0 1
-26.376620 7.852715 10.808386 29.567084 -0.289359 1.196568 0.070054 -0.005166 -577598.000000 0 0 1
-26.303350 8.167815 9.442186 29.115877 -0.301083 1.240528 0.073644 -0.004130 280755.000000 0 0 1
-25.810360 7.088115 8.691386 28.141718 -0.268016 1.256819 0.088177 -0.007888 -279832.000000 0 0 1
-25.144250 7.565515 7.386386 27.276896 -0.292268 1.296580 0.085255 0.000422 24447.100000 0 0 1
-26.067820 8.216615 6.497386 28.093772 -0.305344 1.337408 0.085112 0.002726 435402.000000 0 0 1
-25.399100 8.642215 5.338086 27.355024 -0.327969 1.374395 0.085658 -0.000645 352219.000000 0 0 1
-26.336230 8.953515 4.072286 28.113092 -0.327711 1.425431 0.074507 0.003813 477666.000000 0 0 1
-27.129780 7.909115 3.512386 28.476586 -0.283667 1.447138 0.088172 -0.003374 67296.100000 0 0 1
-26.513590 6.834815 2.895086 27.533011 -0.252293 1.465452 0.099169 -0.012925 -581386.000000 0 0 1
-25.730860 7.032915 1.565586 26.720594 -0.266809 1.512172 0.121831 -0.009128 -319789.000000 0 0 1
-24.604530 7.836415 1.745486 25.881249 -0.308337 1.503303 0.114779 -0.002858 100878.000000 0 0 1
-23.728130 7.709115 0.608086 24.956450 -0.314136 1.546428 0.125002 -0.000171 98252.000000 0 1 0
-22.370130 8.372015 0.916586 23.903002 -0.358113 1.532441 0.101022 -0.002474 -159894.000000 0 1 0
-22.652830 9.741015 1.150586 24.685258 -0.406109 1.524169 0.087855 -0.005851 496164.000000 0 1 0
-21.592130 10.386315 1.820486 24.029353 -0.448351 1.494963 0.097118 -0.006948 -203716.000000 0 1 0
-21.791830 11.844215 2.159086 24.896404 -0.497852 1.483964 0.078934 -0.010049 128248.000000 0 1 0
-20.623830 12.530715 2.619886 24.273957 -0.545978 1.462656 0.075459 -0.016706 179965.000000 0 1 0
-20.943930 13.758015 3.275486 25.271723 -0.581209 1.440820 0.066652 -0.025268 -649541.000000 0 0 1
-19.927030 14.371415 4.217386 24.928106 -0.624814 1.400797 0.040555 -0.016898 -365465.000000 0 1 0
-19.452430 13.442215 5.201186 24.210381 -0.604681 1.354276 0.040652 -0.023684 -274239.000000 0 1 0
-18.663230 14.078215 6.131186 24.168238 -0.646266 1.314305 0.036251 -0.024141 -751702.000000 0 1 0
-18.152430 13.074415 7.144586 23.483956 -0.624192 1.261664 0.019084 -0.023364 -222544.000000 0 1 0
-16.951830 12.484215 6.691586 22.090666 -0.634774 1.263047 0.017990 -0.012412 334840.000000 0 1 0
-16.371930 11.718215 7.762286 21.577992 -0.621219 1.202816 0.004460 -0.010520 -153918.000000 0 1 0
10.385570 -33.116119 -14.209314 37.502560 -1.266900 1.959392 0.042158 0.006089 -338464.000000 0 0 1
11.424270 -32.794019 -13.317014 37.192801 -1.235579 1.936979 0.034231 0.002993 24528.400000 0 0 1
12.093070 -31.647019 -13.846514 36.599209 -1.205795 1.958786 0.032787 -0.014777 422868.000000 0 0 1
13.451170 -31.278519 -13.165914 36.505082 -1.164660 1.939771 0.038326 -0.018414 319018.000000 0 0 1
14.557970 -32.079019 -13.496214 37.724604 -1.144774 1.936660 0.035845 -0.012480 261151.000000 0 0 1
15.745970 -31.280019 -13.357014 37.480461 -1.104442 1.935179 0.031905 -0.016587 162623.000000 0 0 1
17.014170 -31.997019 -13.804814 38.779687 -1.082078 1.934759 0.047757 -0.015542 -274176.000000 0 0 1
17.209370 -33.258719 -13.139014 39.685495 -1.093295 1.908243 0.044304 -0.020912 308729.000000 0 0 1
18.250770 -34.048819 -13.761114 41.009522 -1.078751 1.912995 0.034206 -0.000871 724862.000000 0 0 1
18.199470 33.209315 -13.249214 40.120082 1.069472 1.907353 0.016681 -0.003515 -62999.600000 0 0 1
18.846170 32.923615 -12.015014 39.793255 1.050902 1.877519 0.017491 -0.003110 -237976.000000 0 0 1
18.481970 31.652315 -11.489714 38.411792 1.042295 1.874566 0.009098 -0.001033 -204573.000000 0 0 1
19.157270 31.244315 -10.196714 38.041835 1.020768 1.842154 0.013890 -0.006480 115169.000000 0 0 1
20.502170 30.864915 -10.420514 38.491156 0.984465 1.844942 0.013929 -0.006219 252398.000000 0 0 1
21.177170 30.516215 -9.211614 38.269645 0.964133 1.813886 0.016493 -0.004674 611758.000000 0 0 1
22.424170 29.576115 -9.280214 38.258494 0.922077 1.815806 0.012618 0.007816 1085310.000000 0 0 1
23.532670 30.162115 -9.989514 39.538970 0.908242 1.826214 0.019139 -0.008312 1273040.000000 0 0 1
24.721170 29.323015 -9.837614 39.594875 0.870343 1.821883 0.019426 -0.004436 292643.000000 0 0 1
25.768370 29.825415 -10.765514 40.859033 0.858246 1.837424 0.010097 -0.010745 -1034670.000000 0 0 1
26.434270 31.018015 -10.391614 42.057978 0.865013 1.820460 0.022952 -0.024726 -425816.000000 0 0 1
27.474070 31.326515 -11.248614 43.159082 0.850822 1.834473 0.036477 -0.021775 -200335.000000 0 0 1
28.111670 32.757015 -10.963314 44.536303 0.861568 1.819519 0.044440 -0.032017 87343.500000 0 0 1
27.465470 33.891315 -11.563614 45.129707 0.889747 1.829917 0.044832 -0.018990 24437.700000 0 0 1
28.117170 -33.604119 -11.225514 45.230788 -0.874064 1.821600 0.062047 -0.024438 -341427.000000 0 0 1
27.251470 -32.407919 -11.563014 43.893270 -0.871615 1.837377 0.050719 -0.019798 -717508.000000 0 0 1
26.118770 -32.408419 -10.737414 42.985903 -0.892453 1.823259 0.060640 -0.026096 -1100690.000000 0 0 1
25.171870 -31.480319 -11.168414 41.825435 -0.896295 1.841100 0.058416 -0.025345 -263869.000000 0 0 1
25.396370 -29.943119 -10.907314 40.749668 -0.867375 1.841766 0.035839 -0.021979 -706145.000000 0 0 1
26.344070 -29.368119 -11.761714 41.168366 -0.839625 1.860531 0.036252 -0.013327 -460003.000000 0 0 1
26.614770 -28.040719 -11.341814 40.289759 -0.811482 1.856160 0.038818 -0.007712 -274758.000000 0 0 1
27.551070 -27.308019 -12.313414 40.699011 -0.780968 1.878161 0.033157 -0.006377 357749.000000 0 0 1
28.816970 -27.919519 -12.540914 42.037981 -0.769582 1.873732 0.019234 0.000575 302200.000000 0 0 1
28.757270 -28.924719 -13.549314 42.979109 -0.788301 1.891520 0.022535 -0.005552 -214437.000000 0 0 1
30.085570 -29.704819 -13.763114 44.462806 -0.779030 1.885508 0.018841 -0.000886 367762.000000 0 0 1
30.398470 -30.723219 -12.800414 45.075867 -0.790711 1.858733 0.016042 -0.003286 598458.000000 0 0 1
31.448770 -31.576619 -13.316014 46.512624 -0.787427 1.861147 0.017026 -0.012292 815893.000000 0 0 1
32.186070 -32.530919 -12.282614 47.382132 -0.790727 1.833016 0.015886 -0.015180 501164.000000 0 0 1
33.124970 -33.339719 -13.007714 48.764753 -0.788629 1.840810 0.013306 -0.031824 99744.400000 0 0 1
33.880670 -34.204319 -12.182414 49.661317 -0.790152 1.818636 0.020512 -0.028784 -94602.600000 0 0 1
33.170070 33.357515 -11.394814 48.402677 0.788216 1.808444 0.025378 -0.035852 54522.200000 0 0 1
32.231270 33.780615 -10.389214 47.832212 0.808865 1.789743 0.037724 -0.047914 193607.000000 0 0 1
31.753970 32.654815 -9.710214 46.571878 0.799384 1.780837 0.055914 -0.051045 -398335.000000 0 0 1
31.120470 33.001615 -8.366914 46.125866 0.814727 1.753199 0.043116 -0.042637 -367933.000000 0 0 1
29.959370 33.751315 -8.491614 45.921919 0.844846 1.756781 0.038062 -0.040299 -986492.000000 0 0 1
29.259270 34.068915 -7.335614 45.503924 0.861201 1.732711 0.041922 -0.034550 424338.000000 0 0 1
28.239770 -33.475719 -7.541514 44.440779 -0.870036 1.741320 0.046212 -0.031658 103166.000000 0 0 1
28.850870 -32.168119 -7.620614 43.877492 -0.839709 1.745361 0.028256 -0.031389 65869.900000 0 0 1
28.062270 -31.132019 -8.167314 42.701272 -0.837211 1.763248 0.023309 -0.019626 -396481.000000 0 0 1
27.131070 -30.456619 -7.178414 41.415338 -0.843082 1.745004 0.021910 -0.012213 340616.000000 0 0 1
26.313170 -29.472519 -7.880814 40.287957 -0.841971 1.767678 0.027071 -0.025125 742.559000 0 0 1
25.240770 -29.082719 -7.081014 39.154077 -0.856004 1.752647 0.024012 -0.025563 -311424.000000 0 0 1
24.315270 -28.058819 -7.791314 37.937241 -0.856754 1.777642 0.059198 -0.030982 443798.000000 0 0 1
23.418670 -28.722919 -8.734714 38.075391 -0.886777 1.802263 0.073016 -0.031140 1031270.000000 0 0 1
22.549970 -27.767219 -9.390014 36.982319 -0.888716 1.827512 0.088734 -0.033232 63773.300000 0 0 1
21.330170 -28.391219 -10.056514 36.907600 -0.926467 1.846764 0.086387 -0.031163 -519257.000000 0 0 1
21.584670 -29.044419 -11.317014 37.915050 -0.931687 1.873900 0.090199 -0.032668 -258952.000000 0 0 1
20.516770 -29.813219 -11.807014 38.067985 -0.968049 1.886153 0.083647 -0.033705 -223810.000000 0 0 1
20.154070 -31.123419 -11.094314 38.703198 -0.996143 1.861526 0.075583 -0.035838 31932.100000 0 0 1
21.109570 -32.142119 -11.217614 40.057017 -0.989685 1.854633 0.055909 -0.030489 -132966.000000 0 0 1
20.564070 -33.246219 -10.567114 40.495135 -1.016857 1.834800 0.048377 -0.033947 -220862.000000 0 0 1
21.487970 34.251415 -10.659114 41.815177 1.010502 1.828551 0.041291 -0.022555 -539458.000000 0 0 1
22.456070 34.345315 -9.669814 42.158997 0.991732 1.802222 0.036064 -0.018223 -648139.000000 0 0 1
23.657870 33.691715 -10.032914 42.373174 0.958604 1.809842 0.027144 -0.020934 627365.000000 0 0 1
24.842170 34.164315 -9.092914 43.208968 0.942088 1.782822 0.034343 -0.023331 186510.000000 0 0 1
24.945170 33.690015 -7.739314 42.628343 0.933447 1.753362 0.034598 -0.026786 33161.200000 0 0 1
25.349570 32.355915 -7.612114 41.802515 0.906222 1.753915 0.034475 -0.018004 -257639.000000 0 0 1
25.521770 31.889715 -6.151914 41.305698 0.895864 1.720289 0.036501 -0.026261 -385787.000000 0 0 1
26.519670 32.504515 -5.330714 42.287740 0.886449 1.697191 0.042622 -0.027624 859365.000000 0 0 1
27.556270 31.550415 -4.947514 42.181212 0.852871 1.688359 0.045520 -0.024659 728103.000000 0 0 1
27.199670 30.493815 -3.816214 41.039716 0.842434 1.663919 0.035783 -0.009430 -582560.000000 0 0 1
27.053970 31.040615 -2.518414 41.252630 0.853914 1.631883 0.047485 -0.012834 3445.850000 0 0 1
26.869570 30.087115 -1.494214 40.366335 0.841829 1.607821 0.031463 -0.004296 342487.000000 0 0 1
25.609270 29.162815 -1.599314 38.844077 0.850186 1.611981 0.038269 0.003354 -791794.000000 0 0 1
24.430170 29.662315 -1.143514 38.444685 0.881824 1.600545 0.033942 -0.000479 -821282.000000 0 0 1
23.340770 28.733515 -1.199514 37.038430 0.888589 1.603188 0.034513 0.002936 202720.000000 0 0 1
22.083370 29.231715 -0.518214 36.639282 0.923810 1.584940 0.058398 -0.009047 -461649.000000 0 0 1
21.917470 28.977515 0.881186 36.343478 0.923236 1.546548 0.069788 -0.012927 506382.000000 0 0 1
20.762370 29.707915 1.349286 36.269227 0.960820 1.533586 0.058415 -0.019278 384858.000000 0 0 1
19.924670 28.988715 2.416286 35.258709 0.968628 1.502212 0.064674 -0.029453 -450273.000000 0 0 1
19.046570 28.070015 1.785486 33.968891 0.974620 1.518210 0.067490 -0.017147 -57472.800000 0 0 1
18.470370 27.344515 2.850386 33.121017 0.976725 1.484630 0.078936 -0.021223 147870.000000 0 0 1
17.790670 26.004415 2.378386 31.597378 0.970794 1.495453 0.071591 -0.006658 913800.000000 0 0 1
18.748570 25.019515 1.931986 31.324393 0.927706 1.509080 0.067318 -0.013300 711961.000000 0 0 1
19.606270 24.390115 2.880186 31.425770 0.893705 1.479017 0.074313 -0.007005 132110.000000 0 0 1
20.857970 23.747115 2.267286 31.687868 0.850079 1.499185 0.070018 -0.005080 -136996.000000 0 0 1
20.551470 22.665615 1.410886 30.628151 0.834278 1.524715 0.070359 -0.006351 -765749.000000 0 0 1
21.701470 21.974515 1.175286 30.906543 0.791650 1.532760 0.048507 -0.010872 -920105.000000 0 0 1
21.532570 20.803115 0.159986 29.940721 0.768170 1.565453 0.067809 -0.007510 -151813.000000 0 0 1
21.332570 21.299815 -1.184014 30.168901 0.784630 1.610053 0.045430 0.003014 349454.000000 0 0 1
21.854370 20.341715 -2.071014 29.928046 0.749565 1.640051 0.060557 -0.002820 26359.400000 0 0 1
21.793870 20.886015 -3.510714 30.389530 0.764130 1.686579 0.039308 0.004926 12546.600000 0 0 1
22.570570 22.042515 -3.702814 31.764980 0.773562 1.687631 0.038655 0.008310 89972.700000 0 0 1
22.454170 22.582315 -4.982814 32.233199 0.788244 1.726005 0.034131 0.004733 -403136.000000 0 0 1
23.242770 23.870015 -5.152514 33.712793 0.798711 1.724233 0.034847 0.013549 -400486.000000 0 0 1
22.792070 25.024115 -4.444214 34.138480 0.832044 1.701349 0.024582 0.018976 133843.000000 0 0 1
23.266470 25.139615 -3.137314 34.397262 0.824075 1.662131 0.032055 0.010557 -85123.800000 0 0 1
22.157070 24.890415 -2.076514 33.388328 0.843431 1.633029 0.035562 0.006645 -627891.000000 0 0 1
21.256770 25.978415 -2.047414 33.629158 0.885028 1.631716 0.051810 0.000671 725699.000000 0 0 1
20.150970 25.849215 -1.155414 32.796014 0.908645 1.606034 0.062945 0.003439 347376.000000 0 0 1
19.065870 24.761215 -1.344414 31.279908 0.914624 1.613790 0.070814 -0.008366 -1008810.000000 0 0 1
18.333870 25.125815 -2.469214 31.201513 0.940426 1.650017 0.058748 -0.001606 -333874.000000 0 0 1
17.787170 23.972015 -3.025314 30.003224 0.932437 1.671801 0.051805 -0.001288 -213437.000000 0 0 1
17.282670 24.284515 -4.434414 30.134571 0.952278 1.718486 0.049515 -0.006234 93322.400000 0 0 1
16.543570 23.183015 -5.005614 28.917090 0.950996 1.744775 0.044834 -0.010357 350849.000000 0 0 1
16.309070 23.601615 -6.376614 29.388488 0.966126 1.789513 0.036623 -0.009779 -445303.000000 0 0 1
15.538870 22.658315 -7.228814 28.409707 0.969670 1.828074 0.047183 -0.003374 -609472.000000 0 0 1
16.229870 21.425615 -7.523914 27.911914 0.922513 1.843732 0.036586 -0.000661 433608.000000 0 0 1
15.472370 20.598415 -8.386414 27.092820 0.926564 1.885510 0.054126 0.000778 -612542.000000 0 0 1
16.112970 19.312715 -8.788914 26.643081 0.875476 1.906969 0.048997 0.003127 -309721.000000 0 0 1
17.388870 19.371515 -9.382814 27.670663 0.839280 1.916745 0.054920 -0.003236 132732.000000 0 0 1
17.857670 18.083715 -9.752414 27.221806 0.791687 1.937197 0.059308 0.001482 -568237.000000 0 0 1
19.294770 18.068715 -10.244514 28.349897 0.752596 1.940522 0.046552 -0.001204 -866294.000000 0 0 1
19.439870 18.468415 -11.584414 29.209409 0.759777 1.978605 0.052653 -0.001902 -19220.200000 0 0 1
20.763670 18.800415 -11.914814 30.439257 0.735817 1.972981 0.049294 0.003310 -223359.000000 0 0 1
20.946570 19.189415 -13.410514 31.413919 0.741646 2.011855 0.048366 -0.009015 -79055.200000 0 0 1
20.954370 18.088615 -14.255414 31.136802 0.712130 2.046351 0.046889 -0.003686 333159.000000 0 0 1
21.185070 18.494915 -15.595114 32.157062 0.717705 2.077122 0.049904 -0.013614 -59078.900000 0 0 1
21.163670 17.424015 -16.658114 32.077874 0.688787 2.116831 0.045440 -0.007891 54484.000000 0 0 1
22.217870 16.462815 -16.623814 32.264674 0.637698 2.112075 0.056619 -0.012600 115877.000000 0 0 1
22.272670 15.669415 -17.777414 32.521360 0.613089 2.149140 0.058000 -0.019976 -459848.000000 0 0 1
22.980570 16.167915 -19.056014 33.950548 0.613103 2.166737 0.051856 -0.022220 -35759.200000 0 0 1
24.390570 16.282015 -18.889914 34.883130 0.588616 2.143040 0.059135 -0.015063 541633.000000 0 0 1
25.015670 16.758315 -20.070414 36.186273 0.590247 2.158729 0.076372 -0.018106 170281.000000 0 0 1
26.476170 17.167015 -19.721714 37.210751 0.575246 2.129397 0.067073 -0.020929 166915.000000 0 0 1
26.668470 18.230215 -18.854814 37.403904 0.599625 2.099121 0.048308 -0.016649 -157354.000000 0 0 1
28.044370 18.339615 -18.564714 38.307659 0.579147 2.076727 0.045482 -0.023056 -98522.900000 0 0 1
28.385470 19.502615 -17.602214 38.677187 0.601991 2.043287 0.050347 -0.016026 75050.300000 0 0 1
27.779670 19.352015 -16.345914 37.595205 0.608457 2.020598 0.048477 -0.016335 700185.000000 0 0 1
26.471070 19.933615 -16.217214 36.892609 0.645440 2.025926 0.038331 -0.010167 703654.000000 0 0 1
25.702370 19.407215 -14.941314 35.503446 0.646741 2.005169 0.037482 -0.005610 -74003.400000 0 0 1
26.050670 19.898515 -13.685214 35.522857 0.652299 1.966276 0.032813 -0.006416 -201060.000000 0 0 1
25.273670 19.376015 -12.660214 34.270532 0.654071 1.949181 0.032126 -0.006243 -241789.000000 0 0 1
25.712670 19.928415 -11.257714 34.424109 0.659337 1.903955 0.022901 -0.003233 -119252.000000 0 0 1
25.322970 21.281015 -11.070114 34.880967 0.698885 1.893749 0.026516 -0.001680 137549.000000 0 0 1
25.734870 21.897315 -9.846814 35.195677 0.705005 1.854354 0.016614 0.000021 10287.700000 0 0 1
24.846770 21.512915 -8.652714 33.985835 0.713609 1.828228 0.020894 0.000166 -801691.000000 0 0 1
25.010670 20.188515 -8.150814 33.159396 0.679113 1.819149 0.030703 -0.006309 31202.000000 0 0 1
24.087470 19.871615 -7.147114 32.033865 0.689787 1.795801 0.033634 -0.008594 532073.000000 0 0 1
22.572270 19.681615 -7.506714 30.874328 0.717093 1.816396 0.033334 -0.009729 346181.000000 0 0 1
21.954770 20.918015 -7.741514 31.297066 0.761221 1.820747 0.034754 0.003057 760521.000000 0 0 1
20.552270 20.795615 -8.060314 30.328569 0.791283 1.839795 0.048190 -0.002184 880122.000000 0 0 1
19.888870 22.170515 -8.227114 30.899584 0.839593 1.840300 0.041394 -0.006555 -757263.000000 0 0 1
20.155070 22.866315 -9.460014 31.915311 0.848336 1.871728 0.043890 -0.003315 339395.000000 0 0 1
19.430670 22.514215 -10.668414 31.595188 0.858780 1.915226 0.050374 0.002122 -958702.000000 0 0 1
17.950170 22.752715 -10.600514 30.858800 0.902845 1.921455 0.042764 -0.001357 -1607660.000000 0 0 1
17.725370 24.114415 -10.405314 31.685396 0.936930 1.905400 0.042017 -0.003293 85530.200000 0 0 1
16.351770 24.419315 -10.558014 31.227472 0.980749 1.915694 0.039285 -0.002305 233516.000000 0 0 1
16.063570 25.908115 -10.210214 32.148362 1.015786 1.893990 0.042135 -0.000461 198946.000000 0 0 1
16.703470 26.793115 -11.132314 33.478431 1.013331 1.909773 0.047605 -0.002397 153851.000000 0 0 1
16.737570 28.108515 -10.618114 34.394465 1.033720 1.884639 0.037452 -0.002454 1605.210000 0 0 1
20.182570 28.832115 33.873010 48.846779 0.960068 0.804524 0.027885 -0.003049 -574552.000000 0 0 1
18.912170 29.211115 33.427868 48.253309 0.996229 0.805490 0.046859 -0.012393 -1114020.000000 0 0 1
18.113570 28.091415 33.637983 47.420912 0.998080 0.782222 0.038261 -0.010261 674424.000000 0 0 1
16.582170 28.477615 33.572410 47.043062 1.043502 0.776097 0.065597 -0.018146 881682.000000 0 0 1
15.940970 28.543515 32.306167 45.962324 1.061466 0.791353 0.059564 -0.023337 -164505.000000 0 0 1
14.659270 29.078415 32.589136 46.070600 1.103851 0.785020 0.071154 -0.022249 124276.000000 0 0 1
13.662870 29.076215 31.415997 44.934009 1.131519 0.796576 0.060801 -0.027996 -225194.000000 0 0 1
13.116870 27.894315 31.066567 43.763874 1.131243 0.781486 0.063071 -0.031511 -1127880.000000 0 0 1
11.733770 27.939115 31.023107 43.367138 1.173188 0.773657 0.058817 -0.016649 -995013.000000 0 0 1
11.138370 26.507415 30.828087 42.155395 1.173000 0.750576 0.038924 -0.015833 -248918.000000 0 0 1
11.381270 25.810615 29.628527 40.909299 1.155491 0.760851 0.040725 -0.009532 38633.500000 0 0 1
12.712170 25.443015 29.341087 40.863745 1.107442 0.769839 0.043294 -0.012377 -151586.000000 0 0 1
12.900970 24.725815 28.006977 39.524571 1.089892 0.783289 0.069763 -0.017029 -329504.000000 0 0 1
12.618970 25.545415 26.908217 39.190034 1.111975 0.813982 0.064127 -0.016289 143638.000000 0 0 1
12.678270 24.781415 25.695507 37.882927 1.097909 0.825367 0.079164 -0.017359 343729.000000 0 0 1
11.446070 23.883015 25.345167 36.657720 1.123881 0.807371 0.069610 -0.012862 36226.300000 0 0 1
11.770070 23.107515 24.261697 35.512276 1.099688 0.818672 0.079150 -0.018088 710879.000000 0 0 1
10.667470 22.253215 23.890677 34.347707 1.123790 0.801606 0.070639 -0.018028 617592.000000 0 0 1
10.721770 21.802815 22.408867 33.052631 1.113762 0.825792 0.076251 -0.017857 5406.380000 0 0 1
10.371670 22.908615 21.558267 33.123029 1.145665 0.862087 0.071614 -0.017437 149976.000000 0 0 1
10.457570 22.494215 20.204567 31.993359 1.135621 0.887279 0.066894 -0.008076 -743721.000000 0 0 1
10.185270 23.610515 19.250067 32.121040 1.163528 0.928173 0.057093 -0.009905 359771.000000 0 0 1
8.837770 23.895615 18.894467 31.719198 1.216549 0.932685 0.059812 -0.015689 133234.000000 0 0 1
8.085670 24.590615 19.852867 32.622274 1.253121 0.916542 0.064547 -0.014848 -612662.000000 0 0 1
6.869970 25.249915 19.216467 32.465787 1.305148 0.937383 0.062526 -0.015885 -204915.000000 0 0 1
7.181070 26.534915 18.649567 33.218607 1.306500 0.974696 0.060678 -0.026196 74150.200000 0 0 1
5.962270 27.136215 18.258367 33.245914 1.354517 0.989400 0.053729 -0.028027 108578.000000 0 0 1
6.104870 28.255215 17.263367 33.669726 1.358006 1.032439 0.056672 -0.023508 129818.000000 0 0 1
6.526870 27.675315 16.033967 32.643701 1.339191 1.057351 0.055612 -0.021852 -231930.000000 0 0 1
7.104770 28.601315 15.160267 33.141314 1.327317 1.095679 0.043910 -0.017004 199660.000000 0 0 1
7.560670 27.893015 13.903467 32.070086 1.306097 1.122386 0.043476 -0.017419 -133849.000000 0 0 1
6.451570 27.689115 13.084467 31.297175 1.341880 1.139475 0.026843 -0.017414 -230468.000000 0 0 1
6.666270 26.555515 12.215567 29.980904 1.324847 1.151142 0.015193 -0.022106 512346.000000 0 0 1
5.863970 26.791115 10.869467 29.500768 1.355317 1.193458 0.008993 -0.018404 -219128.000000 0 0 1
6.556270 27.643415 10.001267 30.119237 1.337926 1.232314 0.008043 -0.011925 -18001.000000 0 0 1
6.343370 28.982015 10.206367 31.374599 1.355322 1.239460 0.006325 -0.001926 -347507.000000 0 0 1
6.825870 29.885515 9.075467 31.970309 1.346248 1.282967 0.003302 0.003980 -598656.000000 0 0 1
6.091870 29.817515 7.870667 31.434734 1.369265 1.317722 -0.000958 -0.007300 -18021.300000 0 0 1
6.369770 28.733715 6.965467 30.244307 1.352641 1.338403 0.003348 0.004837 183204.000000 0 0 1
5.034970 28.100015 6.443767 29.265746 1.393497 1.348796 -0.010139 0.015862 429918.000000 0 0 1
4.344370 29.113015 5.772567 29.996062 1.422665 1.377144 -0.027228 0.000977 415066.000000 0 0 1
2.932270 28.846115 5.772367 29.563775 1.469492 1.374283 0.020909 -0.006909 1212470.000000 0 0 1
1.995370 29.917915 5.105067 30.415865 1.504200 1.402156 0.033932 -0.008689 129670.000000 0 0 1
2.113870 30.113915 3.713067 30.415509 1.500715 1.448413 0.020370 -0.013829 -59445.100000 0 0 1
1.017270 30.874015 3.280367 31.064457 1.537859 1.465000 0.036488 -0.029145 231707.000000 0 0 1
-0.155630 30.066815 2.651867 30.183936 -1.565620 1.482826 0.044924 -0.022624 -277574.000000 0 0 1
0.039770 29.411415 1.413367 29.445382 1.569444 1.522778 0.039105 -0.011569 -713175.000000 0 0 1
-0.777830 28.311815 1.208267 28.348260 -1.543330 1.528161 0.059207 -0.014412 -216439.000000 0 0 1
-0.940330 27.927715 -0.275233 27.944897 -1.537139 1.580646 0.050784 -0.021188 -592303.000000 0 0 1
-1.783030 28.813615 -0.911933 28.883131 -1.508994 1.602375 0.050963 -0.031259 -499488.000000 0 0 1
-1.188230 29.612915 -1.897233 29.697410 -1.530692 1.634725 0.041591 -0.024572 -636429.000000 0 0 1
-2.210230 30.657915 -2.383633 30.829768 -1.498828 1.648190 0.052562 -0.029382 -106528.000000 0 0 1
-3.416730 30.209815 -2.926933 30.542985 -1.458175 1.666774 0.050990 -0.024530 -397194.000000 0 0 1
-3.363030 29.417215 -4.126933 29.895052 -1.456969 1.709286 0.038414 -0.021209 -1040040.000000 0 0 1
-4.724030 28.988815 -4.663733 29.739171 -1.409256 1.728268 0.040178 -0.013864 -399372.000000 0 0 1
-5.282330 30.013615 -5.457933 30.959799 -1.396583 1.748013 0.034473 -0.013341 43487.500000 0 0 1
-6.385930 29.538315 -6.216633 30.853504 -1.357882 1.773674 0.026623 -0.014954 29940.500000 0 0 1
-7.096530 30.575215 -7.056433 32.171381 -1.342734 1.791933 0.023959 -0.005885 -48090.700000 0 0 1
-7.944330 31.468415 -6.334133 33.068033 -1.323509 1.763536 0.014790 -0.004827 148232.000000 0 0 1
-8.131730 32.542415 -7.175833 34.301988 -1.325930 1.781549 0.010668 -0.009229 256735.000000 0 0 1
-9.146230 33.609415 -6.625633 35.456245 -1.305098 1.758769 0.025392 -0.010996 -117357.000000 0 0 1
-10.486730 33.242115 -6.608433 35.477896 -1.265212 1.758160 0.039686 -0.014901 -1273960.000000 0 0 1
-11.272330 34.212815 -5.992233 36.516969 -1.252521 1.735636 0.037020 -0.018322 -81405.900000 0 0 1
-12.751930 33.844415 -6.225333 36.698923 -1.210465 1.741253 0.065287 -0.027052 82780.100000 0 0 1
-13.291230 34.217215 -7.509733 37.468263 -1.200298 1.772592 0.077781 -0.022207 98367.500000 0 0 1
-14.698230 34.045115 -7.502433 37.833773 -1.163241 1.770419 0.097219 -0.031095 187824.000000 0 0 1
-15.370430 33.958215 -8.919533 38.327126 -1.145759 1.805671 0.122179 -0.030199 901954.000000 0 0 1
-16.759030 33.635515 -8.916333 38.622713 -1.108546 1.803755 0.144271 -0.029440 468504.000000 0 0 1
-17.664130 -34.002219 -9.044733 39.369780 1.091671 1.802605 0.155644 -0.045400 -606391.000000 0 0 1
-19.142130 34.280915 -9.190533 40.324536 -1.061534 1.800731 0.141279 -0.038244 -180417.000000 0 0 1
-19.784930 33.644215 -8.135333 39.869291 -1.039200 1.776290 0.112186 -0.028465 -86523.500000 0 0 1
-19.782730 34.315015 -6.859533 40.198630 -1.047833 1.742276 0.100379 -0.033264 -728852.000000 0 0 1
-20.548430 33.413115 -5.886333 39.665138 -1.019434 1.719747 0.079970 -0.024871 -916686.000000 0 0 1
-20.358730 33.740315 -4.514533 39.664440 -1.027884 1.684862 0.086277 -0.039950 178162.000000 0 0 1
-21.480230 33.451515 -3.713833 39.927393 -0.999973 1.663946 0.069349 -0.029219 425322.000000 0 0 1
-22.763230 34.341115 -3.828933 41.377984 -0.985436 1.663464 0.066508 -0.025200 209692.000000 0 0 1
-23.378130 34.218615 -5.095733 41.754246 -0.971435 1.693142 0.056602 -0.031952 -536134.000000 0 0 1
-24.455830 -33.607119 -5.229433 41.891205 0.941722 1.695957 0.051884 -0.030296 -450354.000000 0 0 1
-24.933330 -33.457419 -6.626233 42.248986 0.930358 1.728284 0.078252 -0.011917 -569104.000000 0 0 1
-24.110930 -32.640819 -7.405633 41.250496 0.934583 1.751303 0.113065 -0.017048 -167801.000000 0 0 1
-24.128430 -32.817919 -8.820233 41.677254 0.936821 1.784041 0.050814 -0.013382 326350.000000 0 0 1
-25.317480 -32.100919 -9.550933 41.984094 0.902994 1.800295 0.027303 -0.001872 139913.000000 0 0 1
-26.594790 -32.634319 -9.212533 43.094691 0.887016 1.786233 0.040135 0.008010 1509450.000000 0 0 1
-27.769060 -31.944219 -9.779333 43.441791 0.855205 1.797856 -0.028503 0.013034 1515740.000000 0 0 1
-27.892790 -30.406119 -9.573233 42.357840 0.828483 1.798775 -0.036121 0.019461 -835317.000000 0 0 1
-26.952660 -29.546919 -10.208133 41.275565 0.831282 1.820706 -0.010534 0.019571 13970.500000 0 0 1
-27.219570 -29.454019 -11.606833 41.751201 0.824804 1.852508 -0.007703 0.006260 -608596.000000 0 0 1
-26.140460 -28.672519 -12.346833 40.717088 0.831560 1.878882 0.037466 0.003350 -743409.000000 0 0 1
-24.980530 -29.451919 -12.467833 40.581884 0.867360 1.883074 0.042468 -0.003010 -407944.000000 0 0 1
-24.101530 -28.841619 -13.388433 39.899535 0.874692 1.912989 0.037945 -0.008921 359190.000000 0 0 1
-22.718730 -29.551119 -13.607433 39.680872 0.915375 1.920822 0.062281 -0.022840 485516.000000 0 0 1
-22.680430 -30.773519 -14.294733 40.813610 0.935660 1.928628 0.065093 -0.021404 -50630.500000 0 0 1
-23.220830 -31.870119 -13.572433 41.702786 0.941127 1.902291 0.052471 -0.017294 -111802.000000 0 0 1
-23.305830 -33.206219 -14.378233 43.041239 0.958829 1.911401 0.045561 -0.018166 -55397.600000 0 0 1
-23.842530 -34.278919 -13.633033 43.924596 0.963067 1.886382 0.035311 -0.023429 -143532.000000 0 0 1
-23.872330 33.173515 -14.399433 43.332597 -0.947023 1.909538 0.046501 -0.026511 64858.000000 0 0 1
-24.113030 31.948015 -13.488833 42.238164 -0.924257 1.895842 0.028990 -0.018998 -364440.000000 0 0 1
-23.173030 31.703915 -12.477133 41.204447 -0.939619 1.878436 0.028908 -0.014787 -16590.300000 0 0 1
-23.373730 32.564415 -11.385533 41.670166 -0.948244 1.847545 0.062602 -0.019337 174286.000000 0 0 1
-22.479130 32.198715 -10.171033 40.564991 -0.961321 1.824235 0.061844 -0.021769 143794.000000 0 0 1
-22.975930 31.064815 -9.550233 39.801044 -0.933976 1.813110 0.042011 -0.016205 -152037.000000 0 0 1
-22.055130 30.624515 -8.604933 38.708327 -0.946655 1.794971 0.048846 -0.011398 -186689.000000 0 0 1
-22.638730 29.503415 -7.672533 37.971455 -0.916299 1.774258 0.037800 -0.013037 -5959.750000 0 0 1
-22.865530 28.426315 -8.539733 37.467518 -0.893391 1.800741 0.045314 0.000067 249476.000000 0 0 1
-23.426930 27.222115 -7.988833 36.792473 -0.860189 1.789672 0.047450 -0.002969 320341.000000 0 0 1
-22.511130 26.563015 -6.889633 35.493828 -0.867778 1.766144 0.049990 -0.003247 144063.000000 0 0 1
-22.584630 27.180215 -5.615233 35.782125 -0.877483 1.728376 0.048410 -0.001141 439556.000000 0 0 1
-21.642030 26.619915 -4.692933 34.626882 -0.888178 1.706743 0.034645 0.003493 702334.000000 0 0 1
-20.290330 27.396415 -4.581833 34.398463 -0.933326 1.704392 0.034347 -0.013366 490459.000000 0 0 1
-19.555330 27.441015 -5.808233 34.192921 -0.951643 1.741491 0.046511 -0.010782 -71816.000000 0 0 1
-18.617730 28.494415 -5.759533 34.521353 -0.992047 1.738420 0.047282 -0.008751 859454.000000 0 0 1
-17.430430 28.455015 -6.820233 34.059116 -1.021192 1.772406 0.055106 0.002747 543616.000000 0 0 1
-17.735530 28.791515 -8.166933 34.787917 -1.018696 1.807772 0.059823 -0.000836 77518.500000 0 0 1
-17.900330 30.218415 -8.280533 36.085200 -1.036010 1.802331 0.071170 -0.014768 -103388.000000 0 0 1
-17.858630 30.705515 -9.690233 36.819288 -1.044009 1.837117 0.083429 -0.017359 -917959.000000 0 0 1
-16.631330 30.592715 -10.303033 36.313467 -1.072852 1.858473 0.075944 -0.019141 -745237.000000 0 0 1
-16.664430 31.111415 -11.621333 37.157486 -1.079047 1.888893 0.092733 -0.025776 764088.000000 0 0 1
-15.171330 31.390215 -12.046133 36.886640 -1.120586 1.903470 0.087369 -0.025860 993376.000000 0 0 1
-14.873130 32.010215 -13.310133 37.722984 -1.135837 1.931400 0.093337 -0.029444 -207801.000000 0 0 1
-15.306530 31.311215 -14.469933 37.736733 -1.116107 1.964319 0.083810 -0.032896 -10507.700000 0 0 1
-14.858430 32.051915 -15.779833 38.692394 -1.136712 1.990870 0.102196 -0.040471 -180314.000000 0 0 1
-13.526030 31.717715 -16.027333 38.024234 -1.167698 2.005899 0.102077 -0.047315 -558150.000000 0 0 1
-12.975030 32.369915 -17.188733 38.879498 -1.189569 2.028738 0.088270 -0.048268 495286.000000 0 0 1
-11.435530 32.239615 -17.308833 38.337447 -1.229937 2.039227 0.105631 -0.049144 -69445.600000 0 0 1
-10.840430 30.967315 -17.436933 37.155567 -1.234068 2.059289 0.105407 -0.058975 -551431.000000 0 0 1
-9.633730 30.966815 -18.139033 37.158807 -1.269189 2.080764 0.103180 -0.049508 -308108.000000 0 0 1
-9.704030 31.212515 -19.658833 38.142614 -1.269368 2.112275 0.111988 -0.057335 -557326.000000 0 0 1
-10.376530 30.119315 -20.266233 37.756665 -1.239017 2.137388 0.098213 -0.061453 197161.000000 0 0 1
-10.259230 30.236815 -21.707933 38.610247 -1.243689 2.167879 0.113076 -0.070915 -86962.000000 0 0 1
-11.470230 29.655915 -22.525733 38.967270 -1.201741 2.187155 0.105724 -0.058611 1026800.000000 0 0 1
-12.586730 30.551715 -22.568633 40.014701 -1.180004 2.170028 0.101385 -0.059669 579312.000000 0 0 1
-13.579330 30.351315 -21.551433 39.624043 -1.150103 2.145872 0.087252 -0.057916 -129295.000000 0 0 1
-14.622930 31.449315 -21.537233 40.825751 -1.135565 2.126499 0.110263 -0.061549 -456496.000000 0 0 1
-15.416930 31.524915 -22.689833 41.789120 -1.115955 2.144755 0.088391 -0.059343 -462355.000000 0 0 1
-15.838430 32.842115 -22.798933 43.002927 -1.121441 2.129599 0.076644 -0.043421 173242.000000 0 0 1
-16.283830 33.215915 -24.241833 44.228120 -1.114986 2.150898 0.061447 -0.031006 -35214.100000 0 0 1
-15.149330 33.198415 -25.067233 44.271923 -1.142693 2.172698 0.074067 -0.034795 36399.400000 0 0 1
-15.528430 33.203015 -26.420533 45.184255 -1.133336 2.195342 0.081778 -0.019847 244996.000000 0 0 1
-15.867630 -34.075219 -27.020233 46.292497 1.134992 2.194056 0.069391 -0.009163 -720327.000000 0 0 1
-17.122330 -33.615519 -26.694533 46.214450 1.099690 2.186610 0.069284 -0.011856 -950616.000000 0 0 1
-17.454130 -32.453219 -27.500033 45.979451 1.077349 2.211917 0.056075 -0.002112 117358.000000 0 0 1
-18.921930 -31.982319 -27.328533 46.127615 1.036549 2.204899 0.044546 -0.011140 132308.000000 0 0 1
-19.817430 -32.923319 -27.848533 47.457521 1.028961 2.197910 0.029213 -0.008719 -1178690.000000 0 0 1
-21.129830 -32.637819 -27.479333 47.611036 0.996249 2.186047 0.030043 -0.015104 -498047.000000 0 0 1
-22.142030 -33.735019 -27.760733 48.979376 0.989969 2.173394 0.010979 -0.004645 -313700.000000 0 0 1
-22.009130 33.792615 -27.026333 48.546528 -0.993508 2.161216 0.028829 -0.008056 -423209.000000 0 0 1
-23.268930 33.366115 -26.565533 48.584651 -0.961830 2.149320 0.007278 0.004932 -142630.000000 0 0 1
-23.434030 31.839815 -26.614933 47.657972 -0.936317 2.163321 0.008760 0.003770 41878.900000 0 0 1
-22.652830 31.192715 -25.615033 46.284621 -0.942688 2.157266 0.008777 -0.008586 -97676.500000 0 0 1
-23.187530 29.931815 -25.272133 45.522037 -0.911687 2.159355 0.006202 -0.005815 -400744.000000 0 0 1
31.068801 9.933315 -26.780794 42.203697 0.309449 2.258236 0.008177 -0.007318 -119843.000000 0 0 1
30.856531 8.572115 -26.415604 41.513742 0.270973 2.260502 0.002905 -0.003626 -382320.000000 0 0 1
29.484401 8.304015 -26.428984 40.457110 0.274530 2.282678 0.008610 -0.005187 -394273.000000 0 0 1
29.047391 6.931815 -25.954234 39.565430 0.234257 2.286280 0.003174 0.006174 -23928.600000 0 0 1
29.335241 6.673715 -24.586114 38.853209 0.223691 2.255954 0.006211 0.001758 279108.000000 0 0 1
28.663621 5.458815 -24.287114 37.964006 0.188190 2.264957 0.008755 0.007035 111225.000000 0 0 1
28.652021 5.140315 -22.758114 36.949870 0.177517 2.234348 0.013900 0.003877 -381008.000000 0 0 1
29.925441 4.829115 -22.247014 37.600293 0.159992 2.203927 0.013692 -0.002783 114270.000000 0 0 1
29.947461 4.460315 -20.931314 36.808487 0.147851 2.175666 0.027697 -0.007084 -272626.000000 0 0 1
31.380561 4.241115 -20.410314 37.673699 0.134337 2.143333 0.024699 -0.011138 -53130.900000 0 0 1
32.006921 2.972915 -20.553514 38.154006 0.092618 2.139688 0.034499 -0.006119 590434.000000 0 0 1
32.998991 2.780915 -19.553214 38.457705 0.084074 2.104162 0.050251 -0.013660 17855.200000 0 0 1
33.432341 1.323415 -19.417214 38.684636 0.039564 2.096632 0.058004 -0.015109 -64725.800000 0 0 1
32.393401 0.578515 -18.841214 37.478773 0.017857 2.097535 0.061148 -0.015448 58815.300000 0 0 1
32.767771 -0.785885 -18.984714 37.878276 -0.023979 2.095785 0.070261 -0.017352 -91825.200000 0 0 1
31.784641 -1.881785 -18.493714 36.821488 -0.059135 2.096999 0.059870 -0.017111 -27932.500000 0 0 1
31.653751 -2.114285 -17.145714 36.061138 -0.066695 2.066286 0.070247 -0.023002 -438114.000000 0 0 1
30.333751 -1.851285 -16.776514 34.713328 -0.060955 2.075202 0.066321 -0.025576 -538272.000000 0 0 1
29.879391 -2.248985 -15.366114 33.674225 -0.075127 2.044648 0.078291 -0.034070 -217270.000000 0 0 1
29.963251 -3.613585 -15.022014 33.712243 -0.120021 2.032635 0.068200 -0.037763 560943.000000 0 0 1
28.968351 -3.897385 -14.053114 32.432160 -0.133736 2.018956 0.062709 -0.032203 -161270.000000 0 0 1
28.723471 -5.388785 -13.665914 32.261959 -0.185453 2.008204 0.056855 -0.027425 77839.500000 0 0 1
28.074241 -6.207985 -14.664714 32.276244 -0.217625 2.042439 0.045016 -0.025010 642849.000000 0 0 1
27.765071 -7.459985 -14.028314 31.989751 -0.262483 2.024753 0.044875 -0.024856 -18807.100000 0 0 1
27.003251 -8.446685 -15.016714 32.031606 -0.303160 2.058739 0.032536 -0.013924 -426810.000000 0 0 1
25.762651 -7.959985 -15.416014 31.060088 -0.299669 2.090161 0.041993 -0.026134 -496759.000000 0 0 1
25.218251 -8.886285 -16.365714 31.349048 -0.338789 2.120047 0.035920 -0.018487 -437504.000000 0 0 1
23.826151 -8.446685 -16.804514 30.354961 -0.340690 2.157478 0.039339 -0.023958 -838875.000000 0 0 1
23.820451 -7.225285 -17.570714 30.468814 -0.294502 2.185454 0.035852 -0.023114 412405.000000 0 0 1
22.525551 -6.800085 -18.000914 29.625572 -0.293184 2.223849 0.050968 -0.025526 527733.000000 0 0 1
22.102251 -7.382685 -19.344614 30.285766 -0.322372 2.263651 0.048839 -0.018637 -677950.000000 0 0 1
22.913351 -6.845985 -20.333614 31.390206 -0.290334 2.275449 0.041152 -0.017251 -76390.400000 0 0 1
22.608951 -7.054885 -21.701914 32.123342 -0.302465 2.312549 0.063501 -0.023584 -999123.000000 0 0 1
23.826551 -6.765285 -22.544914 33.492488 -0.276657 2.309234 0.062663 -0.028909 -863774.000000 0 0 1
23.813451 -6.841185 -23.967714 34.472214 -0.279749 2.339601 0.066460 -0.030833 -10819.700000 0 0 1
23.470551 -5.623085 -24.598614 34.461249 -0.235148 2.365713 0.061967 -0.021909 -142766.000000 0 0 1
23.434051 -5.732485 -26.121394 35.557606 -0.239911 2.395905 0.070735 -0.019517 328591.000000 0 0 1
22.474051 -6.700285 -26.593734 35.457065 -0.289744 2.418898 0.077125 -0.018527 369245.000000 0 0 1
22.361751 -6.682285 -28.058404 36.496231 -0.290380 2.447763 0.076621 -0.016675 512684.000000 0 0 1
20.994251 -7.300785 -28.506364 36.147930 -0.334670 2.479330 0.070205 -0.023420 574066.000000 0 0 1
20.905851 -8.667185 -28.149174 36.118564 -0.393013 2.464432 0.064398 -0.021850 385119.000000 0 0 1
19.776551 -9.261485 -28.775684 36.123774 -0.437973 2.492423 0.072000 -0.023786 187489.000000 0 0 1
19.860351 -10.818785 -28.658854 36.507664 -0.498798 2.473507 0.086136 -0.021140 -625358.000000 0 0 1
18.978551 -11.304585 -27.705044 35.433720 -0.537215 2.468478 0.092946 -0.021381 -219580.000000 0 0 1
19.081051 -12.694385 -27.364754 35.694028 -0.587047 2.444400 0.092332 -0.026968 -449975.000000 0 0 1
18.929651 -13.806485 -28.410984 36.825734 -0.630159 2.451989 0.083276 -0.024620 -732874.000000 0 0 1
17.690851 -14.046385 -28.985944 36.748498 -0.671066 2.479594 0.075260 -0.024768 -481871.000000 0 0 1
17.740251 -15.147785 -29.844844 37.879897 -0.706734 2.478156 0.060763 -0.024442 206031.000000 0 0 1
16.420551 -15.310885 -30.656134 37.998108 -0.750442 2.509479 0.056522 -0.021563 518385.000000 0 0 1
15.324151 -15.942885 -30.015874 37.282139 -0.805184 2.506641 0.058038 -0.025798 56749.600000 0 0 1
14.257951 -16.098185 -30.905824 37.651171 -0.845946 2.533687 0.049760 -0.028704 -244165.000000 0 0 1
13.035851 -16.841485 -30.335554 37.065008 -0.912091 2.529490 0.050847 -0.031051 140411.000000 0 0 1
13.311351 -18.220085 -30.261624 37.748237 -0.939836 2.500880 0.051954 -0.024895 395177.000000 0 0 1
12.279551 -18.765085 -29.449194 37.015818 -0.991346 2.490767 0.052933 -0.017698 202918.000000 0 0 1
12.741951 -19.949185 -28.547674 37.084996 -1.002391 2.449309 0.053142 -0.019165 -358270.000000 0 0 1
13.648851 -19.609085 -27.554004 36.469583 -0.962728 2.427265 0.053295 -0.018444 -400873.000000 0 0 1
13.782251 -20.714085 -26.675644 36.477578 -0.983701 2.391006 0.050275 -0.013147 -413354.000000 0 0 1
14.717251 -20.607785 -25.486084 35.927966 -0.950630 2.359395 0.042197 -0.007310 -1262520.000000 0 0 1
16.054351 -20.712685 -25.846944 36.807907 -0.911425 2.349296 0.044323 -0.009869 -590091.000000 0 0 1
16.824651 -20.606385 -24.651014 36.267954 -0.886089 2.318138 0.038340 -0.005785 577231.000000 0 0 1
18.373551 -20.842585 -24.804414 37.245935 -0.848275 2.299580 0.027285 -0.005915 796763.000000 0 0 1
18.826451 -22.158785 -24.984614 38.336379 -0.866525 2.280647 0.036371 -0.004964 391550.000000 0 0 1
18.370451 -23.081585 -23.949214 37.997340 -0.898565 2.252719 0.045162 -0.003598 -703127.000000 0 0 1
18.951851 -24.491185 -24.041614 39.204464 -0.912222 2.230948 0.043931 -0.007883 -203714.000000 0 0 1
20.348951 -24.491985 -23.803114 39.755822 -0.877531 2.212714 0.050070 -0.009469 67850.000000 0 0 1
20.814251 -25.780785 -23.581214 40.668852 -0.891587 2.189322 0.056279 -0.019890 -247507.000000 0 0 1
20.891751 -26.219375 -22.108914 40.158747 -0.898006 2.153805 0.063688 -0.013932 -137783.000000 0 0 1
19.657851 -26.416945 -21.441014 39.293805 -0.931057 2.147971 0.052387 -0.011922 5944.520000 0 0 1
19.887851 -26.753195 -20.115614 38.934534 -0.931544 2.113733 0.058486 -0.013484 -321945.000000 0 0 1
18.671951 -27.227865 -19.328914 38.257095 -0.969687 2.100453 0.054617 -0.015411 -1044560.000000 0 0 1
18.252651 -28.499465 -19.771714 39.195656 -1.001160 2.099525 0.055349 -0.016444 -481794.000000 0 0 1
17.147451 -28.971565 -19.069414 38.691461 -1.036375 2.086168 0.051307 -0.014185 -155889.000000 0 0 1
15.792751 -28.478415 -19.633014 38.024812 -1.064465 2.113346 0.049565 -0.018914 -557224.000000 0 0 1
15.395951 -27.234565 -19.116614 36.663357 -1.056275 2.119298 0.048576 -0.014552 -322680.000000 0 0 1
14.109451 -26.866655 -19.544314 36.095345 -1.087219 2.142973 0.034036 -0.006095 21875.800000 0 0 1
13.179151 -26.007215 -18.693314 34.633874 -1.101763 2.140925 0.026883 -0.015324 -371570.000000 0 0 1
12.641951 -26.801845 -17.655614 34.494616 -1.130059 2.108118 0.021158 -0.010048 -256440.000000 0 0 1
11.595351 -26.178045 -16.957514 33.276109 -1.153827 2.105516 0.025976 -0.019064 -75354.200000 0 0 1
10.150751 -26.346045 -17.461414 33.197180 -1.203039 2.124676 0.025780 -0.014571 -563021.000000 0 0 1
9.312551 -27.217625 -16.732314 33.279018 -1.241131 2.097618 0.037148 -0.010691 -3280.020000 0 0 1
7.974451 -27.198145 -17.186914 33.146960 -1.285591 2.115900 0.030833 0.006409 434694.000000 0 0 1
7.624751 -28.088495 -18.416114 34.442033 -1.305729 2.134948 0.032020 0.003839 -266782.000000 0 0 1
7.828751 -27.536795 -19.690014 34.745662 -1.293803 2.173279 0.031222 -0.003703 -611628.000000 0 0 1
7.035151 -28.307135 -20.484114 35.642477 -1.327202 2.183047 0.030838 -0.003778 -601958.000000 0 0 1
6.781151 -27.602045 -21.795414 35.817551 -1.329892 2.224981 0.031520 -0.006146 -422847.000000 0 0 1
5.782351 -26.599575 -21.743514 34.838963 -1.356742 2.244794 0.050123 -0.009916 82392.200000 0 0 1
5.816651 -25.678775 -22.794214 34.825408 -1.348039 2.284355 0.036128 -0.009194 -339635.000000 0 0 1
4.445051 -25.026485 -22.978914 34.265345 -1.395016 2.305836 0.029076 -0.009655 193972.000000 0 0 1
3.397651 -25.876865 -23.430314 35.073291 -1.440242 2.302366 0.033896 -0.005284 553156.000000 0 0 1
2.202451 -25.179255 -23.795514 34.714149 -1.483548 2.326046 0.034221 -0.012894 477039.000000 0 0 1
1.266651 -26.164135 -24.489914 35.859758 -1.522422 2.322571 0.018065 -0.016136 -200328.000000 0 0 1
1.850151 -26.733965 -25.691054 37.123553 -1.501700 2.335110 0.015842 -0.011177 491971.000000 0 0 1
0.929051 -27.548115 -26.404534 38.170160 -1.537084 2.334718 0.018328 -0.019883 -46355.000000 0 0 1
1.610751 -28.538705 -27.368034 39.573494 -1.514415 2.334463 0.017665 -0.015313 -425760.000000 0 0 1
2.198151 -27.826105 -28.463474 39.865942 -1.491964 2.365962 0.010365 -0.015900 225823.000000 0 0 1
2.690451 -28.672585 -29.465394 41.201518 -1.477237 2.367639 0.025011 -0.019164 1318250.000000 0 0 1
4.205151 -29.159605 -29.337474 41.577075 -1.427572 2.354089 0.010591 -0.015508 1083880.000000 0 0 1
4.424051 -30.247905 -28.454984 41.763549 -1.425566 2.320382 0.007088 -0.017530 -121240.000000 0 0 1
5.717251 -30.763655 -28.675024 42.442271 -1.387048 2.312607 0.030529 -0.019376 63359.800000 0 0 1
6.105851 -31.835585 -27.594484 42.570429 -1.381304 2.276025 0.046347 -0.027859 112624.000000 0 0 1
5.220151 -32.954665 -27.526004 43.254373 -1.413698 2.260586 0.049044 -0.031231 118522.000000 0 0 1
5.726951 -33.995255 -26.759364 43.641023 -1.403900 2.230864 0.053459 -0.036826 8620.230000 0 0 1
4.548951 33.776507 -26.420144 43.122724 1.436924 2.230235 0.049651 -0.035613 70668.800000 0 0 1
3.995151 33.060176 -27.517334 43.198844 1.450535 2.261387 0.048522 -0.032588 283124.000000 0 0 1
2.613351 32.858802 -27.281704 42.788104 1.491431 2.262175 0.025824 -0.030093 208913.000000 0 0 1
1.618351 32.988583 -28.442314 43.587049 1.521778 2.281729 0.033646 -0.014390 -333483.000000 0 0 1
1.626451 32.038540 -29.532114 43.603430 1.520074 2.314868 0.038862 -0.017876 176259.000000 0 0 1
0.561651 32.342030 -30.422334 44.405413 1.553432 2.325543 0.036544 -0.015044 260831.000000 0 0 1
0.243551 31.257750 -31.399004 44.305797 1.563005 2.358434 0.036213 -0.017948 293493.000000 0 0 1
1.299851 31.016620 -32.336884 44.826269 1.528913 2.376593 0.043226 -0.018078 409910.000000 0 0 1
0.886851 30.099630 -33.384214 44.958647 1.541341 2.407672 0.055208 -0.024094 -381954.000000 0 0 1
2.016551 29.470350 -34.200427 45.191118 1.502476 2.429193 0.045566 -0.013127 -89786.700000 0 0 1
2.680851 30.332910 33.366716 45.173113 1.482644 0.739744 0.051488 -0.022368 162438.000000 0 0 1
3.597851 29.749890 32.428489 44.154358 1.450444 0.745963 0.028169 -0.017913 66008.200000 0 0 1
3.004851 28.895270 31.311587 42.712776 1.467178 0.747967 0.024392 -0.009138 -341935.000000 0 0 1
2.788751 27.532850 31.550977 41.967834 1.469852 0.720025 0.031901 -0.012127 149299.000000 0 0 1
3.935351 26.738180 31.807447 41.738842 1.424665 0.704310 0.032666 -0.002545 136833.000000 0 0 1
3.477351 25.303340 32.215087 41.111590 1.434225 0.670355 0.036385 -0.012558 159805.000000 0 0 1
2.569251 24.734730 31.292587 39.970413 1.467295 0.671493 0.043522 -0.003228 183740.000000 0 0 1
2.864551 23.356650 31.137167 39.028988 1.448762 0.647166 0.036971 -0.001010 23813.300000 0 0 1
1.959051 22.806250 30.006267 37.740416 1.485107 0.651674 0.035425 0.011327 1619810.000000 0 0 1
0.566551 22.555650 30.361507 37.827231 1.545684 0.639094 0.021227 0.006542 1396420.000000 0 0 1
-0.160049 22.081650 29.228867 36.632657 -1.563548 0.647008 0.037377 0.011732 -78657.500000 0 0 1
-1.561849 21.568150 29.564787 36.629238 -1.498508 0.631511 0.032697 0.015953 -406184.000000 0 0 1
-2.404649 22.521050 30.132497 37.695456 -1.464426 0.644556 0.034156 0.008121 -463103.000000 0 0 1
-3.674049 22.036550 30.450917 37.767268 -1.405591 0.632964 0.016515 0.007679 297528.000000 0 0 1
-4.844749 23.064650 30.625427 38.644100 -1.363755 0.655900 -0.003330 -0.005051 213202.000000 0 0 1
-4.944749 23.656740 31.862697 39.991541 -1.364742 0.648922 -0.006259 -0.004584 -15387.900000 0 0 1
-4.522549 24.993030 32.007207 40.860326 -1.391781 0.670788 0.007239 -0.010621 -245303.000000 0 0 1
-4.665849 25.526850 33.469661 42.351014 -1.390010 0.659511 0.012635 -0.007677 -56469.000000 0 0 1
-5.976849 25.863790 33.871897 43.034448 -1.343693 0.664723 0.023896 -0.010552 -136308.000000 0 0 1
-5.976649 26.421320 -33.261294 42.896621 -1.348335 2.458117 0.038781 -0.007439 -709637.000000 0 0 1
-7.351049 26.666630 -32.673524 42.810118 -1.301812 2.439078 0.052145 -0.007207 -993462.000000 0 0 1
-7.989849 27.790130 -33.278784 44.086352 -1.290840 2.426229 0.058015 -0.012302 248320.000000 0 0 1
-9.260949 28.128610 -32.731964 44.140291 -1.252738 2.406165 0.059371 -0.006728 475928.000000 0 0 1
-9.325049 28.478250 -31.231514 43.282499 -1.254355 2.376869 0.075422 -0.011190 -654547.000000 0 0 1
-8.660049 29.690030 -30.947664 43.752168 -1.286988 2.356525 0.081051 -0.012780 126462.000000 0 0 1
-8.712349 30.108710 -29.579684 43.097530 -1.289127 2.327245 0.097694 -0.019460 -235324.000000 0 0 1
-8.110349 31.521330 -29.358314 43.832437 -1.318962 2.304716 0.087220 -0.019881 564991.000000 0 0 1
-6.693749 31.517300 -29.522284 43.700248 -1.361523 2.312525 0.055312 -0.014267 250940.000000 0 0 1
-6.088449 32.659452 -29.016704 44.109841 -1.386490 2.288728 0.053474 -0.013470 -780827.000000 0 0 1
-4.570749 32.686220 -29.017724 43.946661 -1.431860 2.292007 0.046811 -0.013906 -780258.000000 0 0 1
-3.883749 33.890357 -28.706324 44.583549 -1.456697 2.270351 0.040519 -0.018866 -72345.300000 0 0 1
-3.996949 -33.667335 -29.553944 44.976667 1.452631 2.287755 0.040449 -0.018366 -902941.000000 0 0 1
-3.118249 -33.661275 -30.759854 45.705289 1.478424 2.309059 0.039505 -0.020889 -607172.000000 0 0 1
-3.431949 34.034157 -31.760174 46.677733 -1.470298 2.319123 0.042668 -0.013572 1028170.000000 0 0 1
-4.482249 -34.284525 -32.711694 47.598047 1.440797 2.328491 0.062722 -0.018322 1091010.000000 0 0 1
-3.948849 -33.226535 -33.772834 47.541564 1.452505 2.360842 0.036755 -0.030763 -5289.260000 0 0 1
-3.835049 -31.854315 -33.305064 46.245348 1.450980 2.374861 0.025136 -0.027413 88453.600000 0 0 1
-3.094449 -31.055825 -34.230952 46.322758 1.471483 2.402331 0.018446 -0.032816 173475.000000 0 0 1
32.285581 19.548415 12.423567 39.734674 0.544442 1.252801 0.028496 -0.012199 -419001.000000 0 0 1
33.304441 18.674615 12.809967 40.274338 0.511040 1.247106 0.022382 -0.012396 -267241.000000 0 0 1
32.874001 17.313815 12.768467 39.287427 0.484757 1.239783 0.028231 -0.008780 -225624.000000 0 0 1
33.806911 16.241615 13.401967 39.828508 0.447864 1.227607 0.043823 -0.009601 -777633.000000 0 0 1
35.051521 16.301015 12.786967 40.716566 0.435306 1.251342 0.037829 -0.000222 -661727.000000 0 0 1
35.880381 15.320015 13.382567 41.245578 0.403542 1.240355 0.040444 0.002124 -356692.000000 0 0 1
-35.295252 14.569815 12.461267 40.166124 -0.391490 1.255347 0.050165 -0.001339 103080.000000 0 0 1
-34.365419 13.600215 12.961267 39.165576 -0.376840 1.233502 0.057194 -0.000157 579031.000000 0 0 1
-35.033136 12.428315 13.461567 39.534763 -0.340908 1.223348 0.056662 -0.005591 -410736.000000 0 0 1
-34.227755 11.684715 14.459467 38.950584 -0.328976 1.190467 0.061896 -0.014137 -462180.000000 0 0 1
-34.257822 12.283015 15.700867 39.635692 -0.344268 1.163499 0.059736 -0.017066 171658.000000 0 0 1
-33.523850 11.592815 16.690267 39.202129 -0.332935 1.131007 0.058608 -0.019250 -50982.000000 0 0 1
-33.370380 12.306015 18.008667 39.866432 -0.353298 1.102098 0.066429 -0.016661 -269526.000000 0 0 1
-34.558592 12.312015 18.745967 41.198219 -0.342245 1.098403 0.075916 -0.017772 -9600.390000 0 0 1
-34.410887 13.245615 19.825367 41.864073 -0.367444 1.077462 0.065423 -0.024784 1004270.000000 0 0 1
-35.793094 13.391415 20.588867 43.409412 -0.358011 1.076633 0.078066 -0.027854 1187420.000000 0 0 1
35.773891 12.201115 21.176567 43.325345 0.328690 1.060105 0.069130 -0.012386 468243.000000 0 0 1
34.540181 12.354315 21.863267 42.704282 0.343500 1.033321 0.062915 -0.019017 486994.000000 0 0 1
34.177741 11.123115 22.758967 42.541888 0.314638 1.006315 0.048883 -0.013459 -263579.000000 0 0 1
35.094151 10.992215 23.812257 43.811549 0.303541 0.996177 0.060201 -0.009686 -99591.300000 0 0 1
34.766991 11.629815 25.014287 44.381425 0.322807 0.972034 0.043054 -0.005674 -150543.000000 0 0 1
36.022921 11.859415 25.948967 45.952644 0.318043 0.970740 0.045598 -0.008022 1100590.000000 0 0 1
-35.239319 12.946615 25.515407 45.392295 -0.352083 0.973863 0.068717 -0.015621 701025.000000 0 0 1
-34.173918 12.547015 24.640237 43.959362 -0.351872 0.975779 0.063906 -0.019229 -180015.000000 0 0 1
-33.026410 13.568215 24.546837 43.328829 -0.389807 0.968514 0.060845 -0.023575 481502.000000 0 0 1
-32.079130 13.675015 25.633317 43.279829 -0.402963 0.936924 0.050026 -0.022707 557248.000000 0 0 1
-32.580790 14.323815 26.797567 44.550973 -0.414205 0.925414 0.038543 -0.015698 -209281.000000 0 0 1
-31.507160 15.022315 27.706317 44.564684 -0.444908 0.899872 0.040799 -0.006110 -185416.000000 0 0 1
-31.142070 16.316815 27.264847 44.490885 -0.482622 0.911174 0.056106 -0.013794 -93501.500000 0 0 1
-30.508320 16.928315 28.374077 44.971254 -0.506579 0.888035 0.057563 -0.025847 -515392.000000 0 0 1
-29.760130 18.161715 27.932987 44.673986 -0.547937 0.895328 0.057387 -0.021021 -788967.000000 0 0 1
-30.588280 19.139315 27.416617 45.316963 -0.559108 0.921035 0.037096 -0.024579 -487443.000000 0 0 1
-29.862480 20.232615 26.891447 44.991959 -0.595483 0.930174 0.041393 -0.027601 -310325.000000 0 0 1
-30.650260 21.305915 26.094617 45.544588 -0.607450 0.960700 0.033645 -0.017950 -508384.000000 0 0 1
-31.539270 21.940915 26.963377 46.937757 -0.607814 0.958865 0.018042 -0.019138 39413.700000 0 0 1
-32.628450 22.578315 26.341217 47.626209 -0.605325 0.984737 0.012440 -0.013457 -288672.000000 0 0 1
-32.512550 24.112015 26.343747 48.295426 -0.638117 0.993846 0.019230 -0.010236 -343227.000000 0 0 1
-33.441970 24.728115 25.475097 48.773206 -0.636704 1.021230 0.030876 -0.007443 -30456.000000 0 0 1
-33.359190 26.114115 25.417757 49.404908 -0.664175 1.030397 0.035787 -0.010546 400973.000000 0 0 1
-34.466260 26.684415 24.464067 49.984714 -0.658822 1.059359 0.049605 -0.004104 500473.000000 0 0 1
-34.191566 26.509415 23.106867 49.048339 -0.659510 1.080254 0.045100 -0.001055 -373212.000000 0 0 1
-35.312555 26.902915 22.360567 49.706522 -0.651043 1.104197 0.058847 -0.008854 -51861.300000 0 0 1
-35.199919 26.878215 20.798967 48.929232 -0.652140 1.131743 0.056099 -0.003007 31426.500000 0 0 1
-35.250363 25.549015 20.324167 48.045937 -0.627169 1.134026 0.040636 -0.004156 -289378.000000 0 0 1
-34.425205 25.375915 19.226367 46.890138 -0.635215 1.148309 0.059978 -0.011752 -347529.000000 0 0 1
-34.544191 23.975215 18.491667 45.935322 -0.606718 1.156486 0.043849 -0.005395 -265111.000000 0 0 1
-35.633826 23.932815 17.619767 46.400489 -0.591432 1.181289 0.035203 -0.007129 -371473.000000 0 0 1
-35.485191 22.907415 16.647867 45.399339 -0.573240 1.195339 0.025628 -0.007106 319731.000000 0 0 1
35.422791 22.851815 15.627667 44.957798 0.572934 1.215778 0.012271 -0.001932 989207.000000 0 0 1
34.317091 22.082815 16.101467 43.869930 0.571787 1.194985 0.014566 -0.004086 316780.000000 0 0 1
33.267291 21.910015 15.165467 42.623384 0.582401 1.207025 0.005011 -0.002928 -489831.000000 0 0 1
32.213761 20.879915 15.617967 41.444157 0.575086 1.184410 0.018145 -0.007994 393830.000000 0 0 1
31.360271 21.226015 16.706867 41.389972 0.595015 1.155299 0.013425 -0.001137 -258880.000000 0 0 1
30.427841 22.206415 16.423767 41.094021 0.630451 1.159647 0.023599 0.004822 -1104770.000000 0 0 1
29.603801 22.526515 17.687767 41.190849 0.650462 1.126957 0.031554 -0.003832 -114449.000000 0 0 1
30.326591 23.167015 18.692167 42.494821 0.652349 1.115343 0.010062 -0.002745 -185608.000000 0 0 1
29.395471 23.865515 19.481067 42.581317 0.681941 1.095612 0.030945 -0.008827 143988.000000 0 0 1
30.067221 24.573115 20.632067 43.972241 0.685185 1.082404 0.019592 -0.017347 59611.400000 0 0 1
30.690771 25.797915 20.336767 44.955978 0.698997 1.101375 0.020526 -0.006332 -39281.900000 0 0 1
31.539381 26.241315 21.377867 46.263943 0.693961 1.090452 0.024176 -0.011515 581941.000000 0 0 1
32.563471 27.335515 20.849867 47.353216 0.698339 1.114858 0.033439 -0.011540 824047.000000 0 0 1
33.484971 27.950915 21.764867 48.746348 0.695562 1.107955 0.031620 -0.006033 759904.000000 0 0 1
32.913141 28.949515 22.645767 49.337410 0.721414 1.093929 0.025728 -0.004265 -19342.400000 0 0 1
33.789901 29.194615 23.936107 50.665770 0.712568 1.078749 0.013035 -0.004127 173589.000000 0 0 1
35.014301 29.808415 23.628567 51.699633 0.705261 1.096137 0.052740 -0.011627 -354024.000000 0 0 1
35.543471 30.424815 24.807717 52.956875 0.707961 1.083259 0.060529 -0.009221 281866.000000 0 0 1
-35.276752 31.264615 24.551597 53.147966 -0.725176 1.090606 0.070596 -0.018758 230692.000000 0 0 1
-34.117915 30.532615 24.257807 51.814225 -0.729998 1.083579 0.067870 -0.022136 -317818.000000 0 0 1
-32.938680 31.153415 24.723347 51.640447 -0.757551 1.071555 0.074121 -0.015409 -260661.000000 0 0 1
-31.715760 30.318915 24.406867 50.207780 -0.762885 1.063155 0.084109 -0.024777 -683971.000000 0 0 1
-31.170710 30.388715 23.070467 49.267978 -0.772696 1.083470 0.069543 -0.014366 296718.000000 0 0 1
-31.634610 29.357215 22.161667 48.515298 -0.748076 1.096405 0.064978 -0.013414 -29287.000000 0 0 1
-31.207010 27.864915 22.347067 47.431238 -0.728882 1.080206 0.054211 -0.001430 336771.000000 0 0 1
-29.788410 27.664715 22.224867 46.331745 -0.748451 1.070495 0.036879 -0.010769 565510.000000 0 0 1
-29.349900 26.524215 22.941467 45.730313 -0.734869 1.045270 0.034400 -0.010380 -273530.000000 0 0 1
-29.048400 26.714215 24.457717 46.428857 -0.743563 1.015990 0.042510 -0.003796 -458562.000000 0 0 1
-30.079510 27.105615 25.320147 47.755640 -0.733440 1.011957 0.038231 -0.009752 -365272.000000 0 0 1
-29.563420 27.302415 26.667117 48.275799 -0.745659 0.985566 0.048384 -0.029123 -309049.000000 0 0 1
-30.555550 27.687315 27.782017 49.719911 -0.736192 0.977894 0.047815 -0.023406 -14508.300000 0 0 1
-31.440260 26.619715 28.124477 49.880712 -0.702561 0.971775 0.031662 -0.022244 555633.000000 0 0 1
-32.558530 27.172815 28.840267 51.285288 -0.695476 0.973572 0.036390 -0.021747 559061.000000 0 0 1
-33.403530 26.070815 29.518147 51.641110 -0.662725 0.962340 0.023300 -0.015491 -388877.000000 0 0 1
-32.641140 25.354215 30.456297 51.340688 -0.660406 0.935744 0.017771 -0.021767 481917.000000 0 0 1
-33.385950 24.209915 30.929927 51.549996 -0.627408 0.927297 0.003231 -0.024511 517665.000000 0 0 1
-32.481550 23.350215 31.918427 51.176847 -0.623283 0.897343 0.027289 -0.032973 439143.000000 0 0 1
-31.340650 22.814615 31.228727 49.779277 -0.629243 0.892659 0.029337 -0.027134 623400.000000 0 0 1
-30.585190 21.885215 32.018867 49.392553 -0.621086 0.865509 0.038900 -0.029216 -23480.400000 0 0 1
-29.948880 22.199415 33.407190 50.057865 -0.637873 0.840123 0.046692 -0.036550 -791608.000000 0 0 1
-30.822810 22.670215 -34.039314 51.211904 -0.634157 2.297856 0.072508 -0.036330 -7186.250000 0 0 1
-30.361110 22.458215 -32.700264 49.954736 -0.636879 2.284447 0.052385 -0.021053 579844.000000 0 0 1
-28.935100 22.964115 -32.266224 49.047934 -0.670852 2.288758 0.057721 -0.020025 627596.000000 0 0 1
-28.842710 24.371815 -32.055644 49.532329 -0.701579 2.274658 0.043872 -0.018240 99059.900000 0 0 1
-28.106720 24.592015 -30.837334 48.432387 -0.718802 2.261019 0.063311 -0.005421 183588.000000 0 0 1
-28.148860 25.996415 -30.137294 48.748625 -0.745666 2.237270 0.028851 0.007781 -174131.000000 0 0 1
-27.817400 27.149415 -30.854624 49.627677 -0.773246 2.241736 0.038304 0.000339 209881.000000 0 0 1
-28.819650 27.625315 -31.741414 51.002428 -0.764242 2.242539 0.034735 -0.002441 114293.000000 0 0 1
-28.523460 29.091415 -32.086374 51.859749 -0.795256 2.237902 0.043313 -0.007405 45163.100000 0 0 1
-28.695900 30.049215 -31.063814 51.878421 -0.808431 2.212775 0.050187 -0.013931 88107.700000 0 0 1
-28.644110 31.373715 -31.632524 52.966136 -0.830847 2.210829 0.047920 -0.032708 -389685.000000 0 0 1
-28.809700 32.522815 -30.630654 53.159846 -0.845865 2.184867 0.047342 -0.014353 -461400.000000 0 0 1
-27.840390 32.831715 -29.665704 52.278703 -0.867481 2.174206 0.017420 -0.004923 -195618.000000 0 0 1
-28.274980 33.833315 -28.752034 52.638837 -0.874655 2.148633 0.008377 -0.005983 -367867.000000 0 0 1
-27.429900 33.718215 -27.431544 51.398512 -0.887875 2.133770 -0.000413 -0.001624 1004340.000000 0 0 1
-26.121230 34.306515 -27.461954 51.121566 -0.920034 2.137897 -0.005218 -0.007824 403083.000000 0 0 1
-25.920860 -33.026819 -27.759894 50.331635 0.905366 2.155005 0.005883 0.001561 -1119140.000000 0 0 1
-26.414640 -32.087919 -26.625014 49.358476 0.882071 2.140546 0.011742 0.000644 -624856.000000 0 0 1
-27.798020 -31.950219 -26.560264 49.989939 0.854782 2.130945 -0.003180 -0.006365 -936458.000000 0 0 1
-28.212440 -31.301919 -25.380474 49.192686 0.837263 2.112901 -0.000212 -0.000015 825207.000000 0 0 1
-29.775820 -31.159619 -25.438384 50.046305 0.808104 2.104002 -0.009338 -0.004474 686474.000000 0 0 1
-30.107240 -30.170919 -26.375654 50.123900 0.786455 2.124933 -0.004388 -0.005868 -688705.000000 0 0 1
-31.495100 -30.180319 -26.435014 51.005911 0.764084 2.115627 -0.000269 -0.008486 -722006.000000 0 0 1
-32.197680 -29.052819 -27.188494 51.185653 0.734099 2.130782 0.009399 -0.012955 -38176.200000 0 0 1
-33.610540 -29.123319 -27.148874 52.104678 0.713992 2.118871 0.004566 -0.016327 -18481.100000 0 0 1
-34.124103 -28.180319 -28.046834 52.394748 0.690287 2.135658 0.009812 -0.015396 -263793.000000 0 0 1
-35.651741 -28.220919 -28.169294 53.488092 0.669581 2.125447 0.012771 -0.023895 414224.000000 0 0 1
35.643571 -27.847419 -27.015584 52.685716 -0.663218 2.109203 -0.004879 -0.016389 -329879.000000 0 0 1
34.338861 -27.556319 -27.374004 51.844423 -0.676253 2.127043 0.001717 -0.016835 -541713.000000 0 0 1
33.396421 -27.205219 -26.184424 50.409017 -0.683589 2.116991 0.005824 -0.014940 -4475.530000 0 0 1
33.082781 -28.204519 -25.256044 50.277560 -0.705969 2.097090 0.009487 -0.007924 -234880.000000 0 0 1
32.127301 -27.888319 -24.309614 48.998767 -0.714884 2.089929 0.009758 -0.005720 -389309.000000 0 0 1
32.039961 -28.744219 -23.036914 48.820986 -0.731231 2.062201 -0.005820 0.000389 -228301.000000 0 0 1
31.706841 -30.099319 -23.294314 49.537035 -0.759395 2.060359 0.013609 -0.003259 -41950.800000 0 0 1
31.418391 -30.860019 -22.128014 49.285952 -0.776433 2.036411 0.015052 -0.007791 -121122.000000 0 0 1
32.533311 -30.941319 -21.050214 49.587227 -0.760323 2.009216 0.002672 0.004725 38428.300000 0 0 1
33.751071 -31.475919 -21.575714 50.944869 -0.750532 2.008114 -0.002278 -0.000129 1351940.000000 0 0 1
34.939571 -31.249719 -20.769814 51.270886 -0.729709 1.987884 0.007559 -0.001169 1329650.000000 0 0 1
35.558521 -29.814419 -20.893214 50.890416 -0.697757 1.993857 -0.013056 0.005210 -298730.000000 0 0 1
34.715281 -28.763419 -20.431614 49.496827 -0.691910 1.996307 -0.017996 0.011843 -39569.700000 0 0 1
35.209881 -27.520719 -20.908914 49.338711 -0.663432 2.008414 -0.025080 0.012845 279786.000000 0 0 1
34.365361 -26.267519 -20.426114 47.834995 -0.652629 2.011982 -0.021719 0.017686 -108973.000000 0 0 1
33.189531 -26.244119 -21.157314 47.306772 -0.669066 2.034470 -0.004355 0.009518 -539711.000000 0 0 1
32.199111 -25.386919 -20.581214 45.878805 -0.667649 2.035994 0.014106 0.000662 524004.000000 0 0 1
30.914951 -25.224619 -21.450514 45.300554 -0.684383 2.064074 0.024701 -0.005691 398020.000000 0 0 1
30.206381 -26.462819 -21.576414 45.587804 -0.719434 2.063822 0.035772 -0.009302 -211688.000000 0 0 1
29.079891 -26.314819 -22.404014 45.166908 -0.735524 2.089814 0.042788 -0.007809 36821.900000 0 0 1
28.457841 -27.744019 -22.763114 45.801077 -0.772698 2.090934 0.048725 -0.005121 92199.400000 0 0 1
27.914921 -28.508919 -21.681114 45.410043 -0.795925 2.068549 0.046123 -0.004573 -10404.300000 0 0 1
27.628761 -29.777419 -22.156314 46.270351 -0.822810 2.070135 0.036751 -0.002281 -96947.300000 0 0 1
26.878351 -30.628419 -21.097414 45.887326 -0.850517 2.048528 0.048339 0.008862 -466675.000000 0 0 1
27.592011 -31.035519 -19.994614 46.090206 -0.844066 2.019519 0.052289 0.004914 -662480.000000 0 0 1
28.299761 -32.212619 -20.156814 47.379600 -0.849970 2.010236 0.048590 0.012784 -318965.000000 0 0 1
29.086081 -32.604519 -18.905314 47.607412 -0.842370 1.979161 0.034861 0.008875 -399628.000000 0 0 1
28.402561 -33.107519 -17.820014 47.120762 -0.861740 1.958623 0.051438 0.005018 -500905.000000 0 0 1
27.962441 -32.153519 -16.851714 45.822780 -0.855002 1.947394 0.028665 0.001929 -215225.000000 0 0 1
27.420111 -33.028519 -15.694114 45.706135 -0.877913 1.921299 0.043918 -0.002121 -281894.000000 0 0 1
26.044351 -33.299019 -15.753514 45.114367 -0.907044 1.927504 0.058182 0.000454 -357610.000000 0 0 1
25.582651 -34.093819 -14.672614 45.079332 -0.927065 1.902320 0.060494 -0.006602 298076.000000 0 0 1
24.029451 -34.126219 -14.629214 44.226997 -0.957301 1.907922 0.065349 -0.006135 282812.000000 0 0 1
23.579451 -32.840619 -14.250214 42.866833 -0.948094 1.909675 0.060093 -0.002537 788925.000000 0 0 1
22.155951 -32.789419 -14.055414 41.995081 -0.976563 1.912075 0.060249 -0.012456 763456.000000 0 0 1
-1.061930 -7.366485 -29.046354 29.984720 1.427626 2.890756 0.041220 -0.014957 179377.000000 0 0 1
-0.472830 -8.660085 -28.914864 30.187580 1.516252 2.850183 0.050420 -0.012625 53686.500000 0 0 1
-0.711430 -9.482285 -30.061494 31.529562 1.495909 2.835235 0.034087 -0.010339 -61248.300000 0 0 1
-0.256330 -10.962685 -29.859494 31.809362 1.547419 2.789640 0.044754 -0.006456 180551.000000 0 0 1
1.114670 -11.196385 -29.618174 31.683398 -1.471567 2.778539 0.020081 -0.005622 -22874.800000 0 0 1
1.343070 -12.550085 -29.278344 31.883065 -1.464185 2.734571 0.028007 -0.004888 -403377.000000 0 0 1
2.771770 -12.820385 -28.825084 31.669077 -1.357873 2.714555 0.028492 -0.008123 -437507.000000 0 0 1
3.724070 -12.860085 -29.887274 32.749040 -1.288923 2.720433 0.029161 -0.010999 123315.000000 0 0 1
5.072670 -13.121985 -29.581464 32.756396 -1.201914 2.697671 0.039564 -0.019097 399334.000000 0 0 1
5.407170 -14.569585 -29.155534 33.038696 -1.215425 2.651876 0.046980 -0.019733 -1062670.000000 0 0 1
5.110570 -14.841085 -27.808564 31.932615 -1.239161 2.627728 0.046068 -0.022348 -78908.900000 0 0 1
5.745070 -15.937885 -27.160884 32.011492 -1.224828 2.583889 0.052915 -0.017310 -52980.300000 0 0 1
5.230470 -17.340885 -27.635174 33.041896 -1.277848 2.561419 0.045457 -0.024157 -158176.000000 0 0 1
5.660170 -17.637785 -28.984154 34.397822 -1.260267 2.572919 0.054168 -0.035084 388683.000000 0 0 1
5.091470 -18.883585 -29.398374 35.309732 -1.307435 2.554556 0.040247 -0.030289 -193397.000000 0 0 1
5.541570 -19.338385 -30.811084 36.796807 -1.291717 2.563178 0.056244 -0.043039 594736.000000 0 0 1
6.943170 -19.539285 -31.024994 37.316772 -1.229369 2.552411 0.048352 -0.036864 648904.000000 0 0 1
7.119870 -20.385485 -32.135634 38.716398 -1.234779 2.549951 0.055058 -0.035035 -545881.000000 0 0 1
8.558370 -20.513885 -32.626414 39.478450 -1.175552 2.543544 0.067232 -0.032819 -469551.000000 0 0 1
8.942670 -19.258685 -33.157854 39.373996 -1.136078 2.572009 0.065595 -0.035590 -291995.000000 0 0 1
10.120570 -19.350885 -33.918614 40.340489 -1.088916 2.569571 0.065088 -0.038845 -384141.000000 0 0 1
10.529270 -17.915885 34.055278 39.894942 -1.039466 0.547893 0.059111 -0.030419 -498519.000000 0 0 1
9.600070 -17.420385 33.157388 38.665793 -1.067122 0.540332 0.069784 -0.028331 -372506.000000 0 0 1
9.777670 -15.994785 33.008123 37.960139 -1.022107 0.516512 0.055707 -0.021751 865971.000000 0 0 1
8.788870 -15.356285 31.912867 36.489598 -1.050971 0.506239 0.068143 -0.025542 918595.000000 0 0 1
9.193570 -15.757285 30.594047 35.620352 -1.042636 0.537693 0.075425 -0.022363 428003.000000 0 0 1
8.238470 -15.306885 29.599017 34.326009 -1.077042 0.531019 0.071841 -0.017291 614031.000000 0 0 1
8.321970 -16.271185 28.385657 33.760215 -1.098027 0.572033 0.067491 -0.016863 -329795.000000 0 0 1
7.959570 -17.632885 28.707637 34.617940 -1.146775 0.592995 0.068972 -0.025129 333828.000000 0 0 1
7.937870 -18.402585 27.550907 34.069302 -1.163563 0.628904 0.054646 -0.023165 -15904.300000 0 0 1
7.313970 -19.786185 27.906037 34.981912 -1.216724 0.647279 0.061432 -0.023405 -126804.000000 0 0 1
8.035370 -20.499285 28.885187 36.319993 -1.197220 0.651299 0.073529 -0.021383 174501.000000 0 0 1
7.293670 -21.553785 29.420877 37.193430 -1.244498 0.658316 0.065030 -0.021295 -196064.000000 0 0 1
7.673570 -21.744385 30.902827 38.557576 -1.231541 0.641043 0.072294 -0.026153 -278163.000000 0 0 1
7.177270 -20.937185 31.955347 38.871881 -1.240550 0.605762 0.088425 -0.040051 -172709.000000 0 0 1
7.291770 -19.534885 31.781127 38.010810 -1.213544 0.580648 0.076843 -0.035707 -168158.000000 0 0 1
6.608270 -18.711385 32.878834 38.403162 -1.231302 0.543026 0.072367 -0.036824 1534090.000000 0 0 1
5.151470 -18.753885 32.862708 38.186430 -1.302720 0.534377 0.085926 -0.043895 1052550.000000 0 0 1
4.544370 -17.758485 33.703563 38.365938 -1.320274 0.498133 0.073215 -0.038746 163518.000000 0 0 1
3.020970 -18.024085 33.692542 38.329900 -1.404732 0.497005 0.071534 -0.040321 107998.000000 0 0 1
2.595770 -19.195685 -34.076671 39.197344 -1.436385 2.624706 0.062775 -0.049027 17894.400000 0 0 1
2.064070 -18.845885 -32.822124 37.904084 -1.461707 2.617795 0.059101 -0.050391 -322449.000000 0 0 1
1.631070 -20.058985 -31.964274 37.772186 -1.489661 2.579681 0.040436 -0.029554 -404705.000000 0 0 1
0.619670 -20.843585 -32.604924 38.702972 -1.541076 2.572592 0.025864 -0.026458 620079.000000 0 0 1
-0.180330 -21.641385 -31.731804 38.409496 1.562464 2.543027 0.019894 -0.023076 479556.000000 0 0 1
-0.895230 -20.944685 -30.453694 36.971728 1.528080 2.538706 0.023494 -0.023857 -270405.000000 0 0 1
-2.071630 -20.240285 -30.809024 36.920952 1.468800 2.557947 0.030753 -0.033519 76546.200000 0 0 1
-2.538930 -19.258585 -29.881194 35.640216 1.439719 2.565160 0.040443 -0.013501 -209944.000000 0 0 1
-1.877030 -17.892685 -30.174934 35.131155 1.466274 2.603958 0.025694 -0.007593 1803.480000 0 0 1
-2.549430 -16.779285 -29.578444 34.101735 1.420010 2.620667 0.031635 -0.011057 -206371.000000 0 0 1
-1.984830 -15.535985 -29.947184 33.795564 1.443728 2.659718 0.032857 -0.012480 -46061.200000 0 0 1
-2.848130 -14.325285 -29.525104 32.940209 1.374537 2.682205 0.038314 -0.006874 180723.000000 0 0 1
-2.801230 -14.006485 -28.152114 31.568497 1.373405 2.672057 0.037602 -0.010912 -21641.900000 0 0 1
-3.620030 -12.890385 -27.854104 30.904979 1.297016 2.693516 0.023958 -0.018021 113861.000000 0 0 1
-3.831930 -12.620285 -26.378114 29.491696 1.276010 2.677940 0.025106 -0.011620 -431664.000000 0 0 1
-4.441630 -13.713885 -25.671704 29.442063 1.257579 2.629946 0.021037 -0.006081 343900.000000 0 0 1
-4.545830 -13.427785 -24.272214 28.108901 1.244368 2.612977 0.020593 -0.002833 -469459.000000 0 0 1
-5.475730 -12.302185 -23.810814 27.354747 1.152023 2.626903 0.027809 -0.013498 -1404620.000000 0 0 1
-6.826030 -12.610385 -23.750514 27.743529 1.074655 2.598422 0.023420 -0.020555 -598248.000000 0 0 1
-7.582530 -11.544685 -23.166614 26.971587 0.989657 2.603966 0.010444 -0.023253 -781868.000000 0 0 1
-9.060530 -11.594885 -23.465914 27.698080 0.907485 2.581496 0.024143 -0.021094 -1055190.000000 0 0 1
-9.683930 -12.650185 -22.770814 27.790567 0.917438 2.531111 0.024412 -0.017246 -173864.000000 0 0 1
-10.168730 -13.662085 -23.645814 29.140695 0.930951 2.517402 0.040605 -0.022491 -748386.000000 0 0 1
-11.070730 -14.676785 -22.983414 29.431384 0.924548 2.466926 0.041461 -0.025318 -657359.000000 0 0 1
-10.497530 -15.651785 -22.105414 29.048680 0.980012 2.435616 0.036023 -0.015376 52111.800000 0 0 1
-11.470530 -16.563585 -21.533414 29.489206 0.965112 2.389431 0.033691 -0.002553 1104460.000000 0 0 1
-12.133230 -17.645085 -22.499414 31.061035 0.968423 2.380904 0.028317 -0.002373 543747.000000 0 0 1
-13.160430 -17.217685 -23.388614 31.885307 0.918171 2.394288 0.030187 -0.006560 28521.300000 0 0 1
-13.419530 -18.195285 -24.321314 33.206603 0.935325 2.392672 0.031492 -0.005015 -137728.000000 0 0 1
-14.752430 -17.849385 -24.998614 34.075877 0.880107 2.394424 0.043202 -0.009501 -1229080.000000 0 0 1
-15.888430 -17.932685 -24.233514 34.077655 0.845768 2.361895 0.059543 -0.006780 -1028630.000000 0 0 1
-16.932930 -17.473185 -25.073814 34.938982 0.801099 2.371212 0.066866 -0.009191 382411.000000 0 0 1
-17.804530 -16.278885 -24.543914 34.415216 0.740666 2.364807 0.072504 -0.007029 339279.000000 0 0 1
-18.596030 -16.442485 -23.357714 34.084460 0.724013 2.325797 0.071452 -0.007272 286310.000000 0 0 1
-19.321130 -15.236585 -23.226514 33.836822 0.667749 2.327361 0.071668 -0.004220 149299.000000 0 0 1
-20.044130 -15.083985 -21.871614 33.281545 0.645124 2.287854 0.058281 -0.008326 361256.000000 0 0 1
-19.118930 -14.809285 -20.801414 31.899016 0.659052 2.281150 0.066811 0.000041 524705.000000 0 0 1
-19.670030 -14.808185 -19.483914 31.397696 0.645310 2.240243 0.060290 -0.001357 -59104.500000 0 0 1
-20.220630 -13.495585 -18.853314 30.764462 0.588522 2.230430 0.061121 -0.000871 110896.000000 0 0 1
-21.382830 -12.962485 -19.476414 31.695143 0.544973 2.232538 0.046546 -0.006786 349831.000000 0 0 1
-21.842430 -11.794085 -18.864714 31.178031 0.495104 2.220643 0.037505 -0.002437 391630.000000 0 0 1
-23.318430 -11.408385 -19.188014 32.281268 0.455005 2.207317 0.039038 -0.008598 416678.000000 0 0 1
-23.488430 -10.538885 -20.282814 32.774486 0.421759 2.238087 0.029071 -0.005632 184143.000000 0 0 1
-24.889030 -10.308285 -20.344314 33.758194 0.392662 2.217612 0.025516 -0.008448 70227.300000 0 0 1
-25.313950 -9.516385 -21.590114 34.604778 0.359590 2.244527 0.028732 -0.012910 -519204.000000 0 0 1
-25.174050 -10.186185 -22.844714 35.487633 0.384492 2.270168 0.016519 -0.005521 647849.000000 0 0 1
-26.088430 -9.560885 -23.754114 36.555090 0.351280 2.278140 0.014487 -0.008547 -3276.970000 0 0 1
-26.187120 -10.174985 -25.248004 37.772440 0.370596 2.302884 0.016476 -0.007173 -28047.600000 0 0 1
-25.112880 -9.840185 -26.105344 37.536315 0.373451 2.339869 0.011860 -0.009268 -109998.000000 0 0 1
-24.191530 -10.889685 -26.179544 37.271757 0.422974 2.349555 0.022682 -0.001993 -868929.000000 0 0 1
-23.367330 -10.812185 -27.443194 37.630630 0.433369 2.388063 0.029678 -0.004624 -409131.000000 0 0 1
-23.868730 -11.233085 -28.707614 38.987505 0.439868 2.398424 0.034584 -0.001004 511748.000000 0 0 1
-22.867830 -10.896185 -29.675094 39.016351 0.444660 2.435004 0.041145 0.000689 917338.000000 0 0 1
-23.431830 -11.267585 -31.076194 40.518378 0.448224 2.444895 0.039690 -0.003030 491858.000000 0 0 1
-24.316630 -10.381685 -31.733924 41.305203 0.403511 2.446945 0.033716 -0.004183 54683.000000 0 0 1
-23.638830 -9.265485 -32.329754 41.107864 0.373557 2.475855 0.034130 -0.003846 -414723.000000 0 0 1
-24.606930 -8.148385 -32.781954 41.791789 0.319777 2.472543 0.029575 -0.006479 89060.900000 0 0 1
-25.546220 -8.548685 -33.809684 43.229435 0.322922 2.468823 0.038408 -0.007823 1409990.000000 0 0 1
-26.686820 -9.305585 -33.384064 43.741010 0.335513 2.439080 0.040694 -0.009458 389761.000000 0 0 1
-27.828400 -8.585985 -32.581814 43.700270 0.299267 2.412193 0.024301 -0.003566 381565.000000 0 0 1
-29.125400 -9.174885 -32.701094 44.741803 0.305173 2.390413 0.026602 -0.006249 538367.000000 0 0 1
-29.908090 -8.821885 -31.585044 44.383944 0.286833 2.362615 0.032844 0.003272 -252017.000000 0 0 1
-31.382630 -9.240485 -31.638194 45.510782 0.286353 2.339467 0.034461 -0.001289 -187044.000000 0 0 1
-31.523420 -10.638885 -31.579754 45.871480 0.325488 2.330132 0.030057 -0.005252 -220639.000000 0 0 1
-32.883300 -10.972285 -31.474524 46.822517 0.322057 2.307985 0.018351 -0.003840 -288189.000000 0 0 1
-33.138250 -12.509785 -31.618114 47.479927 0.360963 2.299531 0.021897 -0.014473 -829798.000000 0 0 1
-34.376957 -13.013885 -31.246384 48.243889 0.361892 2.275326 0.007433 -0.014282 -696211.000000 0 0 1
-34.528157 -14.376885 -31.558024 48.936666 0.394548 2.271656 0.004056 -0.014749 -146745.000000 0 0 1
-35.771326 -14.937585 -30.878274 49.559933 0.395574 2.243431 0.001004 -0.018767 -241810.000000 0 0 1
-35.615529 -15.088885 -29.478484 48.632513 0.400735 2.222004 0.007403 -0.018060 -608085.000000 0 0 1
35.481371 -15.843385 -28.911724 48.433752 -0.419962 2.210470 0.002583 -0.015031 -643830.000000 0 0 1
35.705311 -15.866185 -27.412904 47.729156 -0.418158 2.182598 0.014749 -0.016582 297883.000000 0 0 1
-35.091998 -16.286685 -27.019124 47.188319 0.434529 2.180447 0.004543 -0.019105 395156.000000 0 0 1
-34.943497 -16.051585 -25.643354 46.219941 0.430609 2.158933 0.020789 -0.019697 -255188.000000 0 0 1
-33.518420 -15.596685 -25.316764 44.807138 0.435518 2.171249 0.021577 -0.013550 443810.000000 0 0 1
-32.407660 -16.453985 -25.590174 44.450501 0.469804 2.184257 0.007735 -0.007280 781292.000000 0 0 1
-31.157060 -15.949185 -25.146594 43.098608 0.473119 2.193787 0.006887 0.000761 876701.000000 0 0 1
-29.936260 -16.881185 -25.428544 42.752367 0.513456 2.207797 0.009320 0.002105 239785.000000 0 0 1
-29.887400 -18.005585 -24.555414 42.666452 0.542217 2.184037 0.008058 -0.002203 -201757.000000 0 0 1
-30.525390 -19.054685 -25.195514 43.928286 0.558041 2.181642 0.016420 -0.005147 -199085.000000 0 0 1
-30.537410 -20.388585 -24.387514 44.079231 0.588689 2.157076 0.019179 -0.009931 -374785.000000 0 0 1
-29.239760 -20.901085 -24.339114 43.407503 0.620601 2.166042 0.026126 -0.003687 -394786.000000 0 0 1
-29.195090 -22.035385 -23.484914 43.467834 0.646543 2.141569 0.018997 -0.000802 -315319.000000 0 0 1
-27.845010 -22.808085 -23.601514 43.041663 0.686284 2.151176 0.034935 -0.012396 213652.000000 0 0 1
-26.730970 -22.169685 -23.040114 41.675970 0.692391 2.156564 0.035517 -0.014155 -384137.000000 0 0 1
-26.741130 -22.151685 -21.608714 40.898920 0.691805 2.127446 0.030718 -0.018396 -800511.000000 0 0 1
-26.378120 -23.509885 -20.864114 41.034511 0.727968 2.104183 0.025297 -0.014089 -177060.000000 0 0 1
-26.531360 -23.252385 -19.487514 40.303221 0.719629 2.075471 0.025880 -0.019644 -1063.640000 0 0 1
-26.582120 -24.500085 -18.861414 40.775191 0.744662 2.051689 0.021641 0.000846 -185380.000000 0 0 1
-26.625780 -24.554085 -17.295114 40.136719 0.744942 2.016292 0.015326 -0.012273 650433.000000 0 0 1
-27.692490 -23.866585 -16.619714 40.158470 0.711330 1.997479 0.013685 -0.011515 159329.000000 0 0 1
-27.275780 -22.582085 -16.262414 38.966458 0.691533 2.001317 0.005446 -0.007570 -354789.000000 0 0 1
-28.196390 -21.719385 -15.388514 38.775952 0.656360 1.978887 -0.000924 0.009159 188845.000000 0 0 1
-29.226890 -21.065985 -16.122314 39.470442 0.624533 1.991569 -0.000912 0.008340 324614.000000 0 0 1
-30.183170 -20.423885 -15.285414 39.519649 0.594892 1.967934 0.005891 -0.000711 329887.000000 0 0 1
-31.325620 -19.781385 -16.111514 40.400229 0.563243 1.981002 0.019284 -0.017744 45310.000000 0 0 1
-32.329460 -20.631285 -16.630814 41.802247 0.568005 1.979963 0.009609 -0.005647 -276576.000000 0 0 1
-33.079210 -19.893085 -17.534514 42.396086 0.541432 1.997188 0.012895 -0.008118 -258118.000000 0 0 1
-34.024444 -20.685885 -18.502214 43.907864 0.546260 2.005771 0.011873 -0.001869 861121.000000 0 0 1
-35.207239 -21.249285 -17.935914 44.864003 0.543025 1.982078 0.014531 0.000981 298842.000000 0 0 1
-35.022322 -22.227185 -16.947514 44.808805 0.565514 1.958667 0.018672 -0.006424 -695212.000000 0 0 1
-35.838132 -23.504585 -17.189514 46.177014 0.580480 1.952231 0.001501 0.015064 1178140.000000 0 0 1
34.825271 -23.409785 -17.043714 45.291343 -0.591828 1.956610 0.000440 0.002260 996025.000000 0 0 1
34.211061 -24.701785 -17.035814 45.505976 -0.625366 1.954507 -0.010651 0.006280 -356995.000000 0 0 1
32.793661 -24.586585 -16.482014 44.176704 -0.643332 1.953137 -0.003081 0.002934 -681059.000000 0 0 1
31.874771 -24.187385 -17.448914 43.651978 -0.649125 1.982016 -0.001894 -0.002678 -608692.000000 0 0 1
30.622491 -24.739585 -17.141714 42.937424 -0.679533 1.981468 0.003976 -0.003048 -34169.100000 0 0 1
29.437011 -24.534985 -18.103714 42.382161 -0.694821 2.012139 0.021238 -0.006098 -22867.300000 0 0 1
29.084581 -23.178185 -18.157714 41.386516 -0.672862 2.024987 0.021799 -0.011038 772555.000000 0 0 1
27.748431 -22.970885 -18.669014 40.573009 -0.691479 2.048942 0.033932 -0.011820 751497.000000 0 0 1
34.505471 29.488915 -18.104014 48.866952 0.707168 1.950317 0.023131 -0.019189 108381.000000 0 0 1
33.565041 29.615015 -19.177814 48.697533 0.722959 1.975575 0.027896 -0.020419 340780.000000 0 0 1
34.102371 28.968215 -20.342514 49.152285 0.704174 1.997494 0.025690 -0.020713 62523.900000 0 0 1
33.271021 29.147115 -21.637014 49.240995 0.719425 2.025739 0.042208 -0.025564 -344768.000000 0 0 1
32.054131 28.422115 -21.634214 47.992949 0.725413 2.038434 0.034792 -0.016793 131038.000000 0 0 1
31.354841 28.512915 -22.848714 48.147442 0.737964 2.065257 0.043799 -0.017634 120877.000000 0 0 1
30.278091 29.644815 -22.850914 48.142935 0.774830 2.065360 0.038506 -0.010253 -557430.000000 0 0 1
30.750531 30.952215 -22.800414 49.228992 0.788667 2.052343 0.042979 -0.013305 426695.000000 0 0 1
29.651611 31.880015 -22.803414 49.148236 0.821598 2.053270 0.044003 -0.001869 309569.000000 0 0 1
30.136201 33.379915 -22.745914 50.396289 0.836423 2.039064 0.041475 0.000282 236108.000000 0 0 1
30.676221 33.801215 -21.494714 50.453696 0.833827 2.010895 0.043334 0.002571 250868.000000 0 0 1
32.036091 33.476415 -21.278614 50.987851 0.807380 2.001298 0.037954 -0.004028 -291263.000000 0 0 1
32.476841 33.237915 -19.866214 50.538804 0.796979 1.974784 0.033201 -0.010744 -737667.000000 0 0 1
32.274341 -34.318219 -19.082114 50.828145 -0.816081 1.955651 0.033901 -0.005227 240721.000000 0 0 1
32.637941 34.102515 -17.737914 50.426683 0.807339 1.930243 0.012932 -0.016009 -211432.000000 0 0 1
32.511641 -33.411919 -16.756214 49.539215 -0.799054 1.915844 0.008937 -0.014027 245132.000000 0 0 1
33.557991 -32.468319 -16.921214 49.665461 -0.768896 1.918462 0.004755 -0.001440 -180474.000000 0 0 1
34.611941 -32.648819 -16.009414 50.201924 -0.756220 1.895365 0.004946 -0.006241 -414244.000000 0 0 1
35.808191 -31.737919 -16.383014 50.575935 -0.725212 1.900676 -0.005165 0.001952 -512713.000000 0 0 1
-35.556159 -32.378719 -17.405514 51.142681 0.738660 1.918067 -0.010716 0.000289 -444832.000000 0 0 1
-34.438551 -31.572919 -17.727214 49.971163 0.742014 1.933442 -0.018090 0.004582 175051.000000 0 0 1
-33.425070 -32.248519 -18.671114 50.058094 0.767485 1.953025 0.001210 -0.004474 -805418.000000 0 0 1
-32.653380 -33.301119 -18.118914 50.035016 0.795219 1.941343 0.005827 -0.010372 -78350.500000 0 0 1
-31.548020 -33.685319 -18.877214 49.863087 0.818150 1.959059 0.019001 -0.006660 705530.000000 0 0 1
-30.315600 -32.690319 -18.878914 48.415968 0.823071 1.971354 0.025891 -0.010600 -640167.000000 0 0 1
-30.517470 -31.757919 -19.910714 48.335473 0.805314 1.995365 0.015224 0.000118 54595.600000 0 0 1
-29.377100 -31.169119 -20.525614 47.495566 0.814987 2.017681 0.023519 0.002754 212649.000000 0 0 1
-28.585540 -32.237819 -21.402514 48.109019 0.845373 2.031831 0.016064 0.003723 -286251.000000 0 0 1
-29.315900 -32.883319 -22.409914 49.426095 0.842690 2.041375 0.013194 0.006593 -436976.000000 0 0 1
-28.582430 -33.965119 -22.945314 49.970712 0.871244 2.047863 0.000993 0.006669 -305298.000000 0 0 1
-29.224630 33.961515 -24.082214 50.866655 -0.860225 2.063986 -0.002598 0.001896 -310089.000000 0 0 1
-30.349210 33.192415 -23.645114 50.812424 -0.830114 2.054816 0.004840 -0.005636 149236.000000 0 0 1
-30.799890 32.317215 -24.672514 51.007534 -0.809433 2.075677 0.012460 -0.001329 271982.000000 0 0 1
-31.672120 32.845115 -25.840154 52.436994 -0.803577 2.086084 0.023513 -0.013688 -88952.500000 0 0 1
-30.993870 33.788815 -26.689484 53.053111 -0.828515 2.097945 0.013692 -0.014400 567004.000000 0 0 1
-32.018680 -34.094919 -27.311904 54.162713 0.816792 2.099317 0.019122 -0.020000 831152.000000 0 0 1
-31.535170 -33.128619 -28.393044 53.834350 0.810035 2.126351 0.019889 -0.019207 -167260.000000 0 0 1
-31.141140 -33.727219 -29.630234 54.637411 0.825244 2.143976 0.022146 -0.019895 302778.000000 0 0 1
-32.170900 -33.847019 -30.647354 55.855598 0.810782 2.151592 0.035876 -0.019356 325474.000000 0 0 1
-31.896600 34.018115 -31.891314 56.494966 -0.817573 2.170622 0.050809 -0.019992 -90323.300000 0 0 1
-30.997960 -34.139819 -32.853824 56.619559 0.833595 2.189839 0.034215 -0.033216 7155.700000 0 0 1
-31.286920 34.068815 -34.141305 57.490732 -0.827938 2.206641 0.045696 -0.044951 -2523.850000 0 0 1
-30.284780 -34.157519 33.213478 56.453867 0.845422 0.941805 0.038837 -0.045746 362724.000000 0 0 1
-29.024900 33.896415 33.215457 55.629834 -0.862666 0.930940 0.053659 -0.038719 -67487.300000 0 0 1
-28.881310 32.543915 32.743439 54.455204 -0.844955 0.925680 0.073444 -0.043365 509923.000000 0 0 1
-27.421730 31.983515 32.929733 53.472085 -0.862039 0.907357 0.050066 -0.037230 485132.000000 0 0 1
-27.070880 31.606415 -34.216250 53.875317 -0.862541 2.258935 0.053045 -0.038003 699457.000000 0 0 1
-25.680820 31.331515 -33.996984 52.886324 -0.884189 2.268985 0.043353 -0.031448 598579.000000 0 0 1
-25.267690 29.910815 33.927949 51.809447 -0.869348 0.856799 0.055652 -0.032473 -596002.000000 0 0 1
-25.716140 28.806515 -33.767074 51.296690 -0.842018 2.289315 0.051416 -0.024456 174130.000000 0 0 1
-25.109380 27.603315 -34.197951 50.615450 -0.832675 2.312632 0.043395 -0.026742 -292982.000000 0 0 1
-24.922530 26.568515 -33.086574 49.211176 -0.817354 2.308160 0.052668 -0.028850 -267331.000000 0 0 1
-24.030030 26.822015 -32.014154 48.184737 -0.840247 2.297493 0.041748 -0.013146 -73874.700000 0 0 1
-24.224430 27.971615 -31.216224 48.411640 -0.857066 2.271569 0.022917 0.000065 -83038.700000 0 0 1
-23.037030 28.195715 -30.258354 47.342065 -0.885751 2.264180 0.034685 0.010198 212660.000000 0 0 1
-21.783730 28.361415 -30.881554 47.250091 -0.915826 2.283097 0.032747 0.004188 953752.000000 0 0 1
-20.565030 28.220115 -30.099184 46.100501 -0.941043 2.282208 0.015821 0.007334 1385240.000000 0 0 1
-20.262630 29.245215 -28.969394 45.881179 -0.964883 2.254154 0.011052 0.010836 -546042.000000 0 0 1
-19.850430 30.457615 -29.614414 46.890504 -0.993199 2.254367 0.010588 0.011185 179691.000000 0 0 1
-19.498230 31.454215 -28.622954 46.784849 -1.015878 2.229130 0.015893 0.001557 40426.800000 0 0 1
-19.097030 32.779815 -29.294854 47.931214 -1.043280 2.228354 0.012804 0.008182 519582.000000 0 0 1
-17.894630 32.718815 -30.069814 47.905452 -1.070320 2.249380 0.026979 0.008320 253745.000000 0 0 1
-17.745230 33.820215 -30.929064 49.145774 -1.087590 2.251491 0.028415 0.013869 -460601.000000 0 0 1
-16.315730 33.965015 -31.450514 49.081159 -1.122977 2.266318 0.027535 0.010391 -385570.000000 0 0 1
-15.447530 -34.277419 -30.374004 48.333712 1.147392 2.250320 0.048683 0.001434 -241202.000000 0 0 1
-14.093530 -34.198019 -30.712294 48.076783 1.179889 2.263757 0.079569 0.006930 -259159.000000 0 0 1
-13.359730 33.185415 -30.662794 47.116463 -1.188069 2.279417 0.088619 0.001396 -1025210.000000 0 0 1
-13.058430 32.728015 -29.391964 45.886088 -1.191154 2.266000 0.101858 -0.009211 -109671.000000 0 0 1
-12.482130 31.442715 -29.440624 44.846385 -1.192896 2.286935 0.094874 -0.009999 16694.000000 0 0 1
-12.333230 30.723815 -28.087314 43.416110 -1.189064 2.274352 0.086230 -0.028309 -146602.000000 0 0 1
-11.197330 31.146015 -27.382294 42.956309 -1.225674 2.261974 0.101634 -0.033179 -358897.000000 0 0 1
-11.349030 31.015415 -25.998054 42.031598 -1.220014 2.237674 0.097674 -0.037340 500142.000000 0 0 1
-9.972330 31.334515 -25.350824 41.520639 -1.262678 2.227563 0.101597 -0.038683 480290.000000 0 0 1
-8.900530 30.509115 -25.763104 40.911649 -1.286941 2.251996 0.107187 -0.027966 -349077.000000 0 0 1
-7.714230 31.226915 -25.462034 41.023710 -1.328608 2.240389 0.104546 -0.035576 -189305.000000 0 0 1
-6.464530 30.515715 -25.984684 40.598064 -1.362040 2.265356 0.067677 -0.030276 -446368.000000 0 0 1
-6.184830 29.273015 -25.359914 39.220999 -1.362578 2.273902 0.068441 -0.044372 -310573.000000 0 0 1
-5.050830 28.650315 -25.892274 38.945620 -1.396297 2.298065 0.061727 -0.046476 -32688.600000 0 0 1
-4.523630 27.544415 -24.968314 37.450964 -1.408019 2.300560 0.074062 -0.026849 511675.000000 0 0 1
-5.447030 26.433015 -25.094054 36.852218 -1.367572 2.319838 0.082486 -0.026299 827145.000000 0 0 1
-5.092730 25.279215 -24.290714 35.426168 -1.371998 2.326322 0.085490 -0.035774 -373274.000000 0 0 1
-6.082430 24.129815 -24.480414 34.907515 -1.323869 2.348007 0.065103 -0.028965 -283709.000000 0 0 1
-6.104530 23.476515 -25.728074 35.360230 -1.316403 2.385612 0.066883 -0.020861 -212558.000000 0 0 1
-6.868830 22.322015 -25.718014 34.740026 -1.272276 2.404312 0.055281 -0.028757 -576303.000000 0 0 1
-6.808730 21.491615 -27.059204 35.220006 -1.263991 2.446963 0.046342 -0.018395 1342640.000000 0 0 1
-5.622130 20.614015 -27.148494 34.548324 -1.304539 2.474805 0.057038 -0.028102 979404.000000 0 0 1
-5.721630 19.476115 -26.251174 33.184036 -1.285059 2.483366 0.046282 -0.024648 -452152.000000 0 0 1
-4.486630 18.581715 -26.326114 32.534201 -1.333877 2.513556 0.060546 -0.032725 -120319.000000 0 0 1
-4.402330 17.862515 -27.537264 33.117229 -1.329156 2.552614 0.046927 -0.031809 -14527.500000 0 0 1
-3.372030 16.877515 -27.511394 32.451470 -1.373599 2.582563 0.054325 -0.029594 57347.300000 0 0 1
-3.122530 16.293515 -28.874674 33.301285 -1.381450 2.620095 0.055881 -0.025261 70152.300000 0 0 1
-2.283830 17.172815 -29.626234 34.319603 -1.438581 2.612460 0.056093 -0.031568 254978.000000 0 0 1
-2.058630 16.864615 -30.997674 35.348394 -1.449329 2.640210 0.050021 -0.043430 -73320.100000 0 0 1
-1.333930 17.995215 -31.693144 36.470022 -1.496805 2.624013 0.056081 -0.015584 -732751.000000 0 0 1
0.022870 18.169915 -31.442064 36.314594 1.569538 2.617592 0.069581 -0.024487 -718724.000000 0 0 1
0.629970 19.233915 -32.096624 37.423704 1.538055 2.601488 0.076361 -0.011018 86890.300000 0 0 1
0.528370 20.611215 -31.419954 37.580778 1.545167 2.560867 0.061723 -0.011086 58984.000000 0 0 1
1.099770 20.744215 -30.098424 36.571123 1.517830 2.537487 0.078591 -0.022912 -145083.000000 0 0 1
1.085470 22.090015 -29.667704 37.004319 1.521697 2.500991 0.079173 -0.030127 409418.000000 0 0 1
2.057670 22.303115 -28.460714 36.217056 1.478797 2.474845 0.088355 -0.035504 793657.000000 0 0 1
3.445070 22.321015 -28.753234 36.562887 1.417663 2.475764 0.064309 -0.030410 -69363.600000 0 0 1
4.280270 22.600215 -27.664844 35.978244 1.383623 2.447966 0.063255 -0.029628 49554.900000 0 0 1
4.702470 24.055815 -27.321414 36.704974 1.377749 2.410360 0.068035 -0.030363 -423649.000000 0 0 1
5.589470 24.547315 -28.284204 37.865671 1.346912 2.414277 0.064170 -0.032307 -207522.000000 0 0 1
5.871870 25.933915 -28.088664 38.678416 1.348134 2.383590 0.054184 -0.028351 -14389.100000 0 0 1
6.790270 26.533615 -29.184014 40.023083 1.320261 2.387919 0.055871 -0.024955 909729.000000 0 0 1
8.201670 26.351715 -28.983854 40.021795 1.269061 2.380672 0.049501 -0.025881 695029.000000 0 0 1
8.920970 27.149015 -29.903714 41.362844 1.253318 2.378875 0.055058 -0.025874 324909.000000 0 0 1
10.444770 27.213315 -29.614044 41.552970 1.204323 2.364110 0.051515 -0.014570 597384.000000 0 0 1
11.164470 28.090715 -30.476394 42.924867 1.192496 2.360286 0.044157 -0.007255 878155.000000 0 0 1
12.485770 28.461515 -30.040264 43.224643 1.157388 2.339188 0.046701 -0.012037 1079090.000000 0 0 1
13.206270 29.400715 -31.072164 44.769264 1.148623 2.337898 0.056200 -0.010788 -8031.530000 0 0 1
12.653170 30.695715 -31.127394 45.510925 1.179806 2.323966 0.049951 -0.008393 556910.000000 0 0 1
13.640170 31.598915 -31.628474 46.742978 1.163293 2.313995 0.070625 -0.012551 294889.000000 0 0 1
13.198170 33.098215 -31.653204 47.661398 1.191361 2.297121 0.072349 -0.021027 120188.000000 0 0 1
12.161970 33.295215 -32.590064 48.151813 1.220577 2.314229 0.057445 -0.017488 77336.700000 0 0 1
11.302870 -34.327419 -32.282014 48.458797 -1.252710 2.299864 0.054533 -0.015902 -118642.000000 0 0 1
10.105970 -34.184219 -33.247794 48.745330 -1.283351 2.321388 0.039581 -0.011125 5090.670000 0 0 1
10.342070 -33.651419 33.961953 48.916160 -1.272629 0.803365 0.045322 -0.010068 63598.100000 0 0 1
9.088570 -33.288319 33.403434 48.026073 -1.304266 0.801643 0.051569 -0.007847 300761.000000 0 0 1
9.055470 -32.663919 31.987707 46.606293 -1.300357 0.814353 0.066012 -0.011869 -961.270000 0 0 1
9.121670 -31.251619 31.940477 45.607704 -1.286807 0.794936 0.047864 -0.018547 -188218.000000 0 0 1
9.563570 -30.726419 30.730507 44.496503 -1.269051 0.808440 0.060911 -0.018474 -504169.000000 0 0 1
9.235370 -29.193119 30.601837 43.289753 -1.264404 0.785680 0.050853 -0.035611 415081.000000 0 0 1
7.872170 -28.791719 30.602077 42.748348 -1.303902 0.772933 0.047263 -0.027040 15401.200000 0 0 1
7.276370 -28.827919 31.884097 43.595758 -1.323553 0.750486 0.045399 -0.008948 -858235.000000 0 0 1
5.751170 -28.691219 31.783317 43.202329 -1.372968 0.744118 0.046904 -0.015636 -323748.000000 0 0 1
5.011470 -29.826119 31.377657 43.580610 -1.404328 0.767007 0.050395 -0.021803 -48266.500000 0 0 1
5.149070 -30.222819 29.986757 42.885164 -1.402046 0.796471 0.049104 -0.029998 -300952.000000 0 0 1
4.374170 -29.307819 28.946147 41.424160 -1.422641 0.797113 0.036314 -0.034126 -740444.000000 0 0 1
3.011070 -29.556019 28.871447 41.426866 -1.469270 0.799695 0.059634 -0.037088 -852412.000000 0 0 1
2.481270 -28.722419 27.875487 40.102080 -1.484622 0.802219 0.073452 -0.041895 753422.000000 0 0 1
0.972370 -29.076719 27.559387 40.073943 -1.537367 0.812462 0.071753 -0.042637 900129.000000 0 0 1
0.781470 -30.359219 26.988547 40.628494 -1.545061 0.844271 0.069558 -0.047150 15611.600000 0 0 1
0.639870 -31.406619 27.894667 42.010684 -1.550425 0.844654 0.090339 -0.046611 -533655.000000 0 0 1
0.943670 -32.779319 27.187837 42.597567 -1.542016 0.878575 0.077657 -0.043991 523228.000000 0 0 1
2.330070 -33.074119 27.048697 42.789702 -1.500463 0.886496 0.058293 -0.038380 490978.000000 0 0 1
2.999570 -32.512519 25.912087 41.683301 -1.478798 0.899959 0.054034 -0.040815 508850.000000 0 0 1
4.547070 -32.668219 26.021617 42.012057 -1.432495 0.902838 0.060422 -0.023478 611632.000000 0 0 1
5.277270 -32.163519 24.908807 41.021826 -1.408169 0.918254 0.057358 -0.034362 -382637.000000 0 0 1
6.644670 -32.059719 25.178147 41.302740 -1.366431 0.915241 0.062545 -0.038023 -960620.000000 0 0 1
7.316570 -31.618019 23.898287 40.303343 -1.343394 0.936066 0.065314 -0.024500 -920281.000000 0 0 1
8.628370 -31.253419 24.214137 40.466645 -1.301429 0.929328 0.055711 -0.012716 -569409.000000 0 0 1
9.336270 -30.938619 23.050267 39.694822 -1.277719 0.951224 0.045182 -0.005521 -533442.000000 0 0 1
10.605070 -30.130219 23.257967 39.512411 -1.232364 0.941440 0.026629 -0.000831 -333385.000000 0 0 1
11.649370 -30.891819 23.844937 40.725831 -1.210184 0.945301 0.021086 -0.007891 330874.000000 0 0 1
12.839870 -30.104219 23.807637 40.471346 -1.167644 0.941892 0.020994 0.000229 603932.000000 0 0 1
14.059570 -30.605819 24.641057 41.732114 -1.140173 0.939170 0.032823 0.000557 137711.000000 0 0 1
14.041970 -30.267019 25.986787 42.291636 -1.136414 0.909087 0.029388 -0.004157 245899.000000 0 0 1
14.715570 -29.054119 26.298517 41.860504 -1.101972 0.891505 0.026812 -0.000983 -304678.000000 0 0 1
-11.197730 -13.886785 25.861837 31.417615 0.892190 0.603836 0.056410 -0.029150 -222992.000000 0 0 1
-9.918230 -14.201285 25.363277 30.713899 0.961142 0.599192 0.044100 -0.030462 -188337.000000 0 0 1
-9.099930 -14.456885 26.512127 31.538914 1.009001 0.572376 0.046533 -0.029027 191256.000000 0 0 1
-7.574630 -14.254085 26.352537 30.903238 1.082345 0.549581 0.061349 -0.024439 435244.000000 0 0 1
-6.856430 -15.155585 25.509097 30.453512 1.145946 0.577847 0.054859 -0.029536 140311.000000 0 0 1
-7.123630 -14.996085 24.097027 29.262525 1.127321 0.603283 0.063179 -0.024152 -250426.000000 0 0 1
-6.474230 -16.172885 23.305567 29.096861 1.190019 0.641891 0.047250 -0.023475 320673.000000 0 0 1
-7.172330 -17.418185 23.350167 30.001096 1.180183 0.678826 0.054696 -0.027117 -364003.000000 0 0 1
-7.239030 -18.087485 24.598757 31.379285 1.190098 0.669846 0.064552 -0.022553 -367775.000000 0 0 1
-7.752030 -19.544785 24.373857 32.189711 1.193199 0.711790 0.052764 -0.020362 -621340.000000 0 0 1
-9.149130 -19.486385 24.281737 32.450401 1.131834 0.725342 0.032083 -0.016539 -855020.000000 0 0 1
-9.603830 -20.797485 24.103987 33.253137 1.138191 0.759960 0.026233 -0.019646 -128135.000000 0 0 1
-11.142530 -20.837185 24.038257 33.707299 1.079742 0.776819 0.022469 -0.021461 -90496.000000 0 0 1
-11.695130 -20.830285 25.337017 34.822999 1.059206 0.755988 0.025133 -0.025474 -240153.000000 0 0 1
-13.097630 -20.658285 25.290567 35.184164 1.005742 0.768714 0.043711 -0.020555 -111791.000000 0 0 1
-13.758630 -20.668385 26.663047 36.433502 0.983474 0.749796 0.050782 -0.017043 -664061.000000 0 0 1
-13.538930 -21.817485 27.415217 37.561941 1.015400 0.752669 0.049780 -0.011981 -664457.000000 0 0 1
-12.294730 -21.824985 28.027927 37.590624 1.057774 0.729347 0.049547 -0.013530 -613949.000000 0 0 1
-11.930130 -23.293185 28.544607 38.725896 1.097458 0.742037 0.047410 -0.012246 27197.000000 0 0 1
-12.905330 -23.816785 29.439567 40.005935 1.074225 0.743831 0.047219 -0.014390 256853.000000 0 0 1
-12.482730 -25.077175 30.074947 41.099704 1.108932 0.749902 0.046057 -0.010790 -162683.000000 0 0 1
-13.507230 -25.742865 31.010887 42.506652 1.087586 0.753127 0.049478 -0.020279 -46417.600000 0 0 1
-13.522130 -25.183265 32.356737 43.174104 1.078028 0.723569 0.059111 -0.019755 30017.700000 0 0 1
-14.549930 -25.638435 33.220776 44.414522 1.054613 0.725796 0.056561 -0.022794 -59934.400000 0 0 1
-14.450030 -25.137405 -33.837834 44.561098 1.049081 2.433122 0.043635 -0.023721 -4110.310000 0 0 1
-14.386030 -23.744385 -33.611564 43.594620 1.026071 2.451210 0.040131 -0.024911 -335934.000000 0 0 1
-15.521230 -22.998485 -33.966614 43.858519 0.977129 2.456655 0.045357 -0.027449 -611217.000000 0 0 1
-15.542830 -21.478185 -33.793534 42.952240 0.944369 2.476355 0.031496 -0.021336 -198763.000000 0 0 1
-15.678530 -21.065085 -32.453494 41.746657 0.930960 2.461304 0.033710 -0.021066 244419.000000 0 0 1
-15.886030 -19.674285 -32.295184 41.017342 0.891528 2.477302 0.028640 -0.022987 -484371.000000 0 0 1
-15.886930 -19.273785 -30.796994 39.652593 0.881427 2.460159 0.039906 -0.016254 34553.400000 0 0 1
-17.071830 -19.662885 -30.117804 39.814049 0.855816 2.428682 0.046354 -0.013223 108617.000000 0 0 1
-17.115630 -19.430385 -28.746814 38.689326 0.848652 2.408363 0.035329 -0.009624 -9788.880000 0 0 1
-16.364030 -20.364585 -27.741804 38.106501 0.893892 2.386207 0.031728 -0.001283 514908.000000 0 0 1
-14.952130 -20.357785 -27.903244 37.637702 0.937310 2.405897 0.027517 -0.000981 216436.000000 0 0 1
-14.320630 -21.348285 -27.108374 37.358983 0.979931 2.382729 0.014009 -0.001739 443418.000000 0 0 1
-12.803930 -21.532085 -27.389924 37.118448 1.034324 2.400759 0.035393 -0.000775 -191187.000000 0 0 1
-12.075830 -20.427585 -26.940194 35.901057 1.036907 2.419465 0.032529 -0.002944 56996.500000 0 0 1
-10.664230 -20.406385 -26.970354 35.461899 1.089238 2.434948 0.022218 -0.010302 693666.000000 0 0 1
-9.912430 -21.419485 -26.004754 35.118340 1.137369 2.404594 0.044814 -0.005690 -381320.000000 0 0 1
-10.075930 -22.775485 -26.388474 36.284964 1.154278 2.385113 0.042230 -0.009658 -54306.900000 0 0 1
-9.585630 -23.664985 -25.439164 36.042570 1.185939 2.354361 0.066781 -0.007413 -80101.600000 0 0 1
-9.698730 -25.161795 -25.796564 37.318145 1.202892 2.334028 0.062865 -0.011356 30980.400000 0 0 1
-8.648930 -25.642775 -26.645324 37.978009 1.245493 2.348435 0.072528 -0.025168 287791.000000 0 0 1
-8.899830 -26.864575 -27.325634 39.339581 1.250890 2.338673 0.061647 -0.020698 -145523.000000 0 0 1
-8.780330 -28.080895 -26.439984 39.556334 1.267748 2.302870 0.079114 -0.022396 284650.000000 0 0 1
-9.938730 -28.420065 -25.669424 39.565108 1.234381 2.276789 0.070257 -0.019582 198970.000000 0 0 1
-9.635330 -29.519185 -24.804714 39.742869 1.255290 2.244814 0.096298 -0.016581 86749.700000 0 0 1
-10.699230 -29.782865 -23.695614 39.534474 1.225913 2.213505 0.096107 -0.018338 60716.700000 0 0 1
-10.693330 -28.686435 -22.726814 38.128295 1.213986 2.209384 0.081292 -0.022077 -292556.000000 0 0 1
-11.447430 -27.605855 -23.180814 37.821647 1.177704 2.230519 0.061007 -0.017459 -687438.000000 0 0 1
-11.360830 -26.432745 -22.157614 36.314161 1.164866 2.227065 0.062359 -0.018025 -77166.500000 0 0 1
-12.115330 -26.606005 -20.981514 35.984505 1.143493 2.193300 0.039854 -0.015983 61140.500000 0 0 1
-12.111130 -25.498885 -20.119614 34.665133 1.127375 2.190015 0.030836 -0.016296 -131215.000000 0 0 1
-12.556330 -25.869455 -18.686214 34.293800 1.118919 2.147050 0.051267 -0.019662 -310663.000000 0 0 1
-13.924730 -26.097375 -18.517014 34.897720 1.080656 2.130114 0.069409 -0.022377 -541778.000000 0 0 1
-14.179830 -26.377755 -17.175214 34.523057 1.077548 2.091511 0.069243 -0.021776 -361922.000000 0 0 1
-15.671530 -26.506105 -16.879614 35.115407 1.036841 2.072237 0.074899 -0.024814 -529024.000000 0 0 1
-16.497530 -25.338665 -16.987814 34.681439 0.993661 2.082685 0.070035 -0.020601 461622.000000 0 0 1
-17.790530 -25.552505 -16.435814 35.207519 0.962602 2.056496 0.086921 -0.017505 746401.000000 0 0 1
-18.901230 -26.003265 -17.460714 36.582821 0.942258 2.068368 0.069716 -0.012057 -286507.000000 0 0 1
-18.713930 -27.344775 -17.892014 37.657297 0.970638 2.065905 0.062256 -0.009871 -20252.800000 0 0 1
-18.914930 -28.403265 -16.905814 38.083153 0.983296 2.030763 0.067216 -0.022057 927946.000000 0 0 1
-20.381830 -28.979465 -16.667514 39.153983 0.957846 2.010522 0.063747 -0.016991 1344790.000000 0 0 1
-20.792130 -29.934565 -17.635014 40.489314 0.963713 2.021443 0.052083 -0.011125 1012790.000000 0 0 1
-22.118230 -30.442395 -17.330814 41.428403 0.942466 2.002404 0.044236 -0.003963 963975.000000 0 0 1
-22.677930 -31.437845 -18.430714 42.922230 0.945880 2.014622 0.029022 -0.006221 144542.000000 0 0 1
-21.993630 -32.703315 -18.492814 43.534018 0.978752 2.009526 0.022680 -0.009946 270562.000000 0 0 1
-22.330430 -33.364965 -19.680214 44.712188 0.980988 2.026566 0.018753 0.002594 -77459.900000 0 0 1
-21.802830 33.896466 -19.636814 44.832335 -0.999203 2.024175 0.011906 0.000307 99688.000000 0 0 1
-22.531030 32.961770 -18.863014 44.158112 -0.971196 2.012157 0.012580 -0.006507 -576704.000000 0 0 1
-21.792830 31.816870 -18.725314 42.870480 -0.970245 2.022821 0.017561 -0.013548 -261437.000000 0 0 1
-22.515430 30.593240 -18.073714 42.066020 -0.936341 2.014903 0.020053 -0.019691 9012.800000 0 0 1
-22.914230 30.607970 -16.693714 41.720377 -0.928169 1.982459 0.015636 -0.018048 -71044.900000 0 0 1
-23.578230 29.423610 -16.308014 41.080811 -0.895241 1.979014 0.019617 -0.013123 -330417.000000 0 0 1
-22.826130 28.063400 -16.213714 39.641785 -0.887952 1.992160 0.026203 -0.021469 -120495.000000 0 0 1
-22.184430 27.705510 -17.445014 39.548359 -0.895615 2.027627 0.020637 -0.021665 302652.000000 0 0 1
-21.605930 26.383630 -17.312614 38.244460 -0.884628 2.040568 0.027122 -0.017138 247641.000000 0 0 1
-20.748930 25.927810 -18.520114 38.023204 -0.895898 2.079533 0.038190 -0.016029 -842267.000000 0 0 1
-20.643030 24.520700 -18.575014 37.046330 -0.871046 2.096012 0.055853 -0.024942 152742.000000 0 0 1
-19.851930 24.009610 -19.641114 36.828438 -0.879907 2.133309 0.059636 -0.018605 2240150.000000 0 0 1
-18.296130 24.440640 -19.683414 36.325336 -0.928195 2.143450 0.045017 -0.018678 1466490.000000 0 0 1
-17.510630 24.171110 -18.514514 35.123382 -0.943852 2.126014 0.058476 -0.019674 1260410.000000 0 0 1
-16.290230 24.942400 -18.377314 35.003151 -0.992235 2.123534 0.066611 -0.024041 925283.000000 0 0 1
-16.480130 26.339680 -17.663314 35.740258 -1.011710 2.087726 0.065265 -0.035632 -321744.000000 0 0 1
-17.377030 27.249140 -18.249914 37.115174 -1.003110 2.084849 0.048305 -0.028643 -226582.000000 0 0 1
-17.209030 28.489960 -17.647614 37.673157 -1.027413 2.058321 0.047156 -0.033984 513900.000000 0 0 1
-18.433930 29.513490 -17.754314 39.064965 -1.012489 2.042587 0.040453 -0.027453 916459.000000 0 0 1
-18.556030 29.961470 -19.090614 40.080762 -1.016285 2.067242 0.036049 -0.031444 69604.600000 0 0 1
-19.190230 29.146480 -20.032114 40.237641 -0.988534 2.091909 0.027978 -0.026359 -512573.000000 0 0 1
-19.083330 29.791380 -21.418814 41.357773 -1.001082 2.115180 0.023735 -0.027781 181603.000000 0 0 1
-19.856730 30.968890 -21.560314 42.640462 -1.000644 2.100909 0.017163 -0.021526 61054.400000 0 0 1
-20.306030 31.086440 -22.903914 43.626722 -0.992167 2.123508 0.018843 -0.024362 -241767.000000 0 0 1
-20.874430 32.434040 -23.256014 45.039438 -0.998936 2.113377 0.013094 -0.019078 -502073.000000 0 0 1
-19.999130 33.519876 -23.099114 45.355444 -1.032855 2.105157 0.005195 -0.013458 -256400.000000 0 0 1
-20.151130 -34.255750 -24.145114 46.502806 1.039057 2.116733 0.018241 -0.007810 77606.100000 0 0 1
-19.033830 -33.155795 -24.141114 45.214895 1.049659 2.134026 0.043434 -0.007462 -40442.500000 0 0 1
-18.989530 -32.352505 -23.013014 44.010063 1.040022 2.121050 0.035388 -0.011576 275982.000000 0 0 1
-18.354430 -32.957585 -21.880414 43.610090 1.062663 2.096392 0.039566 -0.020407 -327305.000000 0 0 1
-18.256630 -32.114195 -20.575914 42.284681 1.053868 2.078995 0.053400 -0.016586 78484.500000 0 0 1
-17.497830 -30.888605 -20.790514 41.140314 1.055387 2.100591 0.058947 -0.019402 465474.000000 0 0 1
-17.173130 -30.337625 -19.541014 39.964222 1.055701 2.081697 0.059643 -0.016012 -59782.100000 0 0 1
-15.933730 -29.424825 -19.697814 38.829215 1.074498 2.102838 0.068464 -0.013670 -156970.000000 0 0 1
-14.736630 -30.120255 -19.855114 38.969521 1.115778 2.105404 0.077675 -0.022891 214030.000000 0 0 1
-13.639930 -29.273815 -20.280614 38.135380 1.134764 2.131528 0.061292 -0.021216 151222.000000 0 0 1
-12.314830 -30.003695 -20.530414 38.384562 1.181319 2.135140 0.093265 -0.025620 108374.000000 0 0 1
-11.556330 -30.508315 -19.415014 37.963782 1.208705 2.107620 0.089610 -0.027403 501375.000000 0 0 1
-11.102830 -29.537775 -18.437214 36.547008 1.211249 2.099575 0.065247 -0.021588 -503183.000000 0 0 1
-10.279630 -30.170785 -17.301414 36.266871 1.242417 2.068101 0.058783 -0.009759 -199711.000000 0 0 1
-10.985530 -30.850275 -16.270314 36.566985 1.228705 2.031910 0.079769 -0.022089 -278807.000000 0 0 1
-11.441330 -32.057955 -16.693314 37.911518 1.227992 2.026755 0.083073 -0.023296 -631962.000000 0 0 1
-12.492830 -32.702725 -15.803714 38.409587 1.205892 1.994843 0.097124 -0.031993 -621262.000000 0 0 1
-11.990430 -33.135485 -14.550014 38.123925 1.223594 1.962378 0.088238 -0.028230 -558018.000000 0 0 1
-12.895930 -33.801535 -13.726114 38.694379 1.206323 1.933423 0.096769 -0.027418 -563308.000000 0 0 1
-12.276530 34.212432 -12.435114 38.416608 -1.226275 1.900424 0.081758 -0.020523 -163024.000000 0 0 1
-11.767930 -33.451235 -11.633414 37.320311 1.232525 1.887797 0.065300 -0.007282 -59645.400000 0 0 1
-11.627330 -33.885365 -10.317914 37.280988 1.240248 1.851218 0.066106 -0.012118 -147106.000000 0 0 1
-10.412130 -33.244565 -9.645514 36.147607 1.267276 1.840906 0.040644 -0.013307 698407.000000 0 0 1
-9.105630 -33.729195 -9.953114 36.326788 1.307119 1.848334 0.008375 -0.005698 270553.000000 0 0 1
-8.042530 -32.862845 -9.624414 35.174965 1.330784 1.847946 -0.008201 -0.011137 705075.000000 0 0 1
-6.682830 -33.421455 -10.155014 35.563720 1.373443 1.860371 -0.011837 -0.015823 433661.000000 0 0 1
-6.308430 34.091037 -9.469014 35.939634 -1.387820 1.837414 -0.010452 -0.001664 -1021950.000000 0 0 1
-5.095130 33.606438 -9.891014 35.400356 -1.420330 1.853970 -0.006266 0.000753 -715500.000000 0 0 1
-4.346130 32.600130 -8.978314 34.092043 -1.438261 1.837295 -0.001069 -0.012586 -189492.000000 0 0 1
-3.787830 33.156604 -7.853314 34.283853 -1.457049 1.801916 0.019776 -0.020255 -315950.000000 0 0 1
-3.149230 32.199090 -7.041814 33.110213 -1.473301 1.785111 0.019112 -0.029321 37496.300000 0 0 1
-2.776730 32.736355 -5.650614 33.336295 -1.486178 1.741122 0.025622 -0.022655 -435158.000000 0 0 1
-1.788230 33.738035 -5.751014 34.271372 -1.517842 1.739402 0.017628 -0.019499 -227496.000000 0 0 1
-1.381030 34.313049 -4.533614 34.638796 -1.530570 1.702055 0.020605 -0.020151 -51649.500000 0 0 1
-0.442030 33.456868 -3.672314 33.660708 -1.557585 1.680112 0.024034 -0.018014 -357660.000000 0 0 1
0.913570 33.411692 -4.087614 33.673199 1.543460 1.692487 0.020040 -0.024646 280484.000000 0 0 1
1.776770 32.656900 -3.237014 32.865001 1.516443 1.669451 0.023206 -0.018802 -854764.000000 0 0 1
3.192970 32.740602 -3.698514 33.103188 1.473580 1.682757 0.028923 -0.018327 -1190220.000000 0 0 1
3.863570 33.950555 -3.437014 34.342108 1.457484 1.671046 0.026508 -0.018773 783222.000000 0 0 1
5.264370 33.914727 -3.803614 34.530997 1.416802 1.681171 0.046243 -0.011830 1209560.000000 0 0 1
5.956970 -33.406145 -3.604814 34.124048 -1.394332 1.676632 0.048578 -0.011440 -197212.000000 0 0 1
5.567670 -32.398155 -4.450514 33.172978 -1.400607 1.705363 0.047685 -0.015175 -303617.000000 0 0 1
6.055870 -31.150845 -4.037214 31.989807 -1.378787 1.697337 0.042755 -0.017121 -90154.600000 0 0 1
5.682570 -29.965325 -5.023914 30.910386 -1.383384 1.734052 0.038167 -0.017688 -328224.000000 0 0 1
6.388370 -29.929475 -6.247314 31.234815 -1.360505 1.772166 0.050463 -0.019135 -182669.000000 0 0 1
6.300470 -28.765095 -7.027714 30.274004 -1.355170 1.805070 0.058809 -0.011565 -59569.800000 0 0 1
6.801570 -27.377615 -6.506714 28.950517 -1.327291 1.797486 0.050079 -0.010922 256593.000000 0 0 1
6.142270 -26.859845 -5.362814 28.070242 -1.345983 1.763028 0.045036 -0.011725 -232412.000000 0 0 1
6.836370 -25.758575 -4.831814 27.084803 -1.311375 1.750152 0.040503 -0.008865 168756.000000 0 0 1
6.124170 -25.188885 -3.576214 26.168200 -1.332294 1.707888 0.036592 -0.010255 121095.000000 0 0 1
4.952170 -24.497085 -3.888914 25.293374 -1.371331 1.725161 0.041090 -0.014825 -256981.000000 0 0 1
4.135570 -24.113585 -2.779114 24.622985 -1.400945 1.683904 0.042411 -0.006807 234973.000000 0 1 0
2.940870 -23.249085 -3.226714 23.655450 -1.444971 1.707628 0.039985 -0.014673 20464.400000 0 1 0
1.969570 -24.092685 -3.816714 24.472514 -1.489228 1.727395 0.042174 -0.012001 -595963.000000 0 1 0
0.789770 -23.341685 -4.021314 23.698712 -1.536974 1.741306 0.035356 -0.014100 290885.000000 0 1 0
-15.208930 23.061415 17.942367 32.940385 -0.987774 0.994774 0.012550 -0.019297 -114579.000000 0 0 1
-15.308230 22.523715 19.235467 33.341608 -0.973859 0.955843 0.023392 -0.017116 254552.000000 0 0 1
-14.794230 23.395715 20.168567 34.249085 -1.006931 0.941125 0.026699 -0.010530 -859965.000000 0 0 1
-14.978530 22.952215 21.683367 34.947517 -0.992598 0.901473 0.039796 -0.020505 -287855.000000 0 0 1
-14.054730 21.955315 22.127267 34.193380 -1.001376 0.866994 0.033371 -0.020356 1608620.000000 0 0 1
-12.660530 22.314515 22.271267 33.974048 -1.054717 0.855902 0.017623 -0.021449 679344.000000 0 0 1
-12.199830 23.454015 23.184667 35.163269 -1.091151 0.850851 0.028783 -0.014491 -716208.000000 0 0 1
-12.258530 22.967315 24.502217 35.750913 -1.080524 0.815699 0.018390 -0.012094 205829.000000 0 0 1
-11.949630 24.054115 25.405997 36.971054 -1.109727 0.813188 0.035600 -0.012425 -56805.100000 0 0 1
-11.505430 23.684315 26.833667 37.594779 -1.118587 0.775944 0.023238 -0.015341 1534700.000000 0 0 1
-10.100430 23.278815 26.897407 36.978270 -1.161420 0.756294 -0.002792 -0.011780 1302180.000000 0 0 1
-9.833830 22.502115 28.085587 37.307501 -1.158790 0.718470 -0.013978 -0.009030 -513727.000000 0 0 1
-8.333630 22.146015 28.230527 36.835554 -1.210883 0.697589 -0.019475 -0.009262 688416.000000 0 0 1
-7.394930 23.171715 28.582077 37.530634 -1.261877 0.705069 -0.010845 -0.003240 396431.000000 0 0 1
-7.219130 24.133815 27.569367 37.344703 -1.280139 0.740338 -0.009016 -0.004374 -659511.000000 0 0 1
-6.108130 25.206915 27.845307 38.053370 -1.333059 0.749920 -0.006886 -0.006788 -853018.000000 0 0 1
-4.821730 24.767715 27.813567 37.553739 -1.378523 0.736783 -0.008262 -0.000246 -1623280.000000 0 0 1
-3.907530 25.775015 28.188047 38.395132 -1.420341 0.746372 0.003685 -0.005767 -675203.000000 0 0 1
-2.479230 25.323915 28.031227 37.857588 -1.473207 0.737073 0.007626 -0.009419 -912233.000000 0 0 1
-1.879330 25.285115 26.753477 36.859428 -1.496607 0.758564 0.010091 -0.004303 484982.000000 0 0 1
-0.521730 24.844215 26.854347 36.587746 -1.549799 0.746646 0.025085 0.002098 871122.000000 0 0 1
0.193470 24.651615 25.485777 35.457924 1.562948 0.768778 0.016407 0.003309 -96144.100000 0 0 1
-0.303030 23.533915 24.794377 34.186227 -1.557921 0.759364 0.019995 0.007377 -47779.600000 0 0 1
0.192870 23.377115 23.506277 33.152251 1.562546 0.782660 0.021935 -0.002716 -472973.000000 0 0 1
-0.298430 22.066015 22.872667 31.782967 -1.557273 0.767496 0.009731 0.001471 -157307.000000 0 0 1
0.260070 20.862515 23.263567 31.249092 1.558331 0.731077 0.025262 0.007925 -206146.000000 0 0 1
-0.031830 19.894515 22.245567 29.843894 -1.569196 0.729665 0.028845 0.004143 -230874.000000 0 0 1
0.655970 18.563415 22.566867 29.228311 1.535474 0.688674 0.031276 0.018649 219444.000000 0 0 1
1.983470 18.663215 22.076067 28.975895 1.464917 0.704590 0.028680 0.013665 -171958.000000 0 0 1
2.723470 17.486915 22.277367 28.451548 1.416294 0.671333 0.013253 0.013880 990516.000000 0 0 1
4.226770 17.577615 21.812967 28.330967 1.334813 0.692059 0.020881 0.009241 1114200.000000 0 0 1
5.098570 18.306515 22.642267 29.560043 1.299169 0.698239 0.018547 0.012785 248649.000000 0 0 1
6.309270 18.711315 21.991867 29.556089 1.245579 0.731651 0.033764 -0.000216 937599.000000 0 0 1
7.400270 19.387315 22.878767 30.888023 1.206159 0.736684 0.037743 -0.006640 76825.500000 0 0 1
7.049970 20.601015 23.498557 32.035700 1.241074 0.747322 0.022372 0.004809 45821.900000 0 0 1
6.809570 21.713015 22.596167 32.068864 1.266894 0.788917 0.031320 0.001291 -514175.000000 0 0 1
5.546170 22.472915 22.984867 32.620485 1.328838 0.788917 0.023825 0.005466 -330458.000000 0 0 1
5.479470 23.701615 22.322367 33.016348 1.343602 0.828339 0.021358 0.000465 -474779.000000 0 0 1
4.303470 24.322215 22.703567 33.549098 1.395673 0.827489 0.002858 -0.000082 -1038350.000000 0 0 1
4.159770 25.776715 22.167667 34.251251 1.410799 0.866881 0.013986 -0.002387 69248.100000 0 0 1
3.892370 25.932515 20.766667 33.449968 1.421812 0.900998 0.020252 -0.003795 -333658.000000 0 0 1
2.766170 25.304115 20.212767 32.503937 1.461912 0.899686 0.033866 -0.007459 -671191.000000 0 0 1
2.433470 25.885115 18.803067 32.086076 1.477061 0.944659 0.035246 -0.023088 -761833.000000 0 0 1
1.631170 26.986815 18.917267 32.997150 1.510427 0.960268 0.028779 -0.020317 -234315.000000 0 0 1
1.145970 27.462615 17.681467 32.682453 1.529092 0.999161 0.031779 -0.019187 444401.000000 0 0 1
-0.020630 28.489415 17.789767 33.587543 -1.570072 1.012604 0.013452 -0.005185 218124.000000 0 0 1
0.470570 29.688515 18.338767 34.898994 1.554947 1.017516 0.018562 -0.004349 557960.000000 0 0 1
-0.550630 30.686915 18.565667 35.870238 -1.552855 1.026778 0.007537 0.001593 175941.000000 0 0 1
-0.187130 32.059415 19.152967 37.345378 -1.564959 1.032283 0.003297 0.010184 -307757.000000 0 0 1
0.414470 31.963015 20.433867 37.938754 1.557830 1.002020 0.006794 0.003071 -121943.000000 0 0 1
0.721270 33.224515 20.825467 39.218474 1.549091 1.011002 0.006741 -0.000851 497.969000 0 0 1
1.485170 33.186515 22.190267 39.949449 1.526074 0.981882 0.015700 -0.018803 86536.000000 0 0 1
0.646470 32.695315 23.193067 40.091395 1.551026 0.953902 0.023179 -0.012861 384653.000000 0 0 1
1.271870 32.960915 24.438077 41.051909 1.532228 0.933161 0.030401 -0.026921 108911.000000 0 0 1
0.296770 32.531915 25.560647 41.373425 1.561674 0.904850 0.049039 -0.014239 -63801.800000 0 0 1
-0.822930 33.389315 25.675477 42.127826 -1.546155 0.915409 0.045229 -0.015999 163191.000000 0 0 1
-1.731730 32.934615 26.693687 42.429243 -1.518264 0.890358 0.059559 -0.024085 159154.000000 0 0 1
-1.376330 33.136915 28.184957 43.524031 -1.529286 0.866402 0.077517 -0.030742 204277.000000 0 0 1
-0.350930 32.203815 28.631617 43.092672 -1.559900 0.844079 0.068389 -0.030212 867081.000000 0 0 1
0.268970 32.717315 29.820867 44.269393 1.562575 0.831697 0.069219 -0.029291 425962.000000 0 0 1
1.682970 32.116215 30.187657 44.108710 1.518442 0.817027 0.056039 -0.018604 674264.000000 0 0 1
2.776770 32.607115 29.471097 44.039527 1.485843 0.837669 0.039835 -0.018694 -179142.000000 0 0 1
2.935170 31.944515 28.253367 42.747164 1.479170 0.848724 0.030888 -0.018356 252262.000000 0 0 1
4.453070 31.611415 27.997497 42.461409 1.430848 0.850825 0.006077 -0.007238 690357.000000 0 0 1
4.948770 30.546915 28.814677 42.283448 1.410186 0.821034 0.009698 -0.010845 796481.000000 0 0 1
6.280070 30.164015 28.434467 41.926436 1.365531 0.825487 0.009591 -0.019747 841640.000000 0 0 1
6.865270 29.084915 29.373057 41.902753 1.338997 0.794023 0.012157 -0.010442 56503.600000 0 0 1
6.949870 29.389415 30.782657 43.123200 1.338587 0.775844 0.013897 -0.008580 344285.000000 0 0 1
7.648670 28.341615 31.480597 43.043900 1.307202 0.750482 0.013396 -0.004640 186218.000000 0 0 1
7.603570 28.570315 32.989126 44.298528 1.310690 0.730711 0.026228 -0.016507 -293264.000000 0 0 1
6.293470 28.368915 33.494552 44.342848 1.352488 0.714602 0.033377 -0.014960 18471.600000 0 0 1
6.143770 28.233015 -33.576944 44.297406 1.356527 2.431021 0.046472 -0.011824 -112191.000000 0 0 1
6.255370 26.796615 -33.108784 43.050898 1.341464 2.448168 0.043184 -0.015701 398714.000000 0 0 1
7.541470 26.171115 -33.212654 42.952083 1.290237 2.454745 0.030603 -0.014997 456091.000000 0 0 1
7.662470 24.900715 -32.706374 41.814662 1.272271 2.468945 0.044634 -0.025084 1304480.000000 0 0 1
9.096570 24.293615 -33.063994 42.025647 1.212514 2.476335 0.042413 -0.025693 946908.000000 0 0 1
9.175870 23.931815 34.006928 42.584029 1.204667 0.645857 0.026051 -0.017526 -455209.000000 0 0 1
10.394170 23.392015 33.618018 42.253950 1.152653 0.650769 0.039285 -0.031399 -880165.000000 0 0 1
10.462470 21.874215 33.966596 41.733370 1.124658 0.619971 0.035762 -0.029066 -792583.000000 0 0 1
9.849770 20.990015 33.024173 40.350895 1.132042 0.612132 0.024237 -0.027567 227122.000000 0 0 1
9.326570 19.815215 33.582121 40.092225 1.130881 0.577881 0.027346 -0.023132 -104827.000000 0 0 1
8.010670 19.910115 -34.107885 40.298031 1.188273 2.579968 0.052101 -0.040694 -908964.000000 0 0 1
8.255770 20.488015 -32.834554 39.573026 1.187744 2.549403 0.060714 -0.036020 485514.000000 0 0 1
7.030470 20.923815 -32.242914 39.074788 1.246645 2.541280 0.069639 -0.034504 140518.000000 0 0 1
6.997570 21.429315 -30.812794 38.178656 1.255170 2.509967 0.078901 -0.040584 -577447.000000 0 0 1
7.807070 22.508915 -30.629824 38.804480 1.236936 2.480525 0.075189 -0.033666 -541693.000000 0 0 1
7.952470 22.892215 -29.230634 37.970057 1.236451 2.449377 0.053066 -0.027743 -541819.000000 0 0 1
9.436770 23.080015 -28.893974 38.165448 1.182665 2.429615 0.060460 -0.035688 -474538.000000 0 0 1
10.113170 21.885915 -28.886884 37.626075 1.137937 2.446096 0.067789 -0.037296 -547794.000000 0 0 1
11.510570 22.144915 -28.886674 38.174997 1.091447 2.429033 0.068568 -0.040319 622615.000000 0 0 1
12.270870 20.725015 -28.949414 37.658585 1.036221 2.447655 0.074350 -0.046434 177557.000000 0 0 1
12.315970 20.004215 -30.203094 38.263280 1.018935 2.480545 0.060940 -0.033702 103546.000000 0 0 1
11.090870 19.347415 -30.508724 37.790370 1.050280 2.510384 0.072938 -0.036313 179165.000000 0 0 1
11.149270 18.348915 -31.677044 38.267793 1.024789 2.545923 0.062607 -0.035322 -150717.000000 0 0 1
11.915070 17.130815 -31.361034 37.668928 0.963074 2.554480 0.060637 -0.022487 636654.000000 0 0 1
12.074170 16.185115 -32.429524 38.202324 0.929857 2.584676 0.050121 -0.020488 33492.400000 0 0 1
13.123370 16.638615 -33.485424 39.627515 0.902965 2.577370 0.037167 -0.003509 -200598.000000 0 0 1
12.726770 17.838215 -34.176552 40.598144 0.951097 2.571453 0.050398 -0.014479 247982.000000 0 0 1
13.331870 17.947615 32.997963 39.858766 0.931905 0.595493 0.054354 -0.016510 -204840.000000 0 0 1
12.339170 17.580015 31.893627 38.451469 0.958806 0.592671 0.070034 -0.030839 -928651.000000 0 0 1
12.770870 17.864015 30.578577 37.646614 0.950144 0.622792 0.060886 -0.020691 207878.000000 0 0 1
11.909170 17.415715 29.509947 36.276334 0.971014 0.620691 0.052982 -0.022756 17985.000000 0 0 1
10.436770 17.832015 29.541897 36.050390 1.041269 0.610326 0.033540 -0.023514 -547596.000000 0 0 1
9.624370 16.915515 30.300177 36.011996 1.053508 0.570944 0.048785 -0.025037 7896.670000 0 0 1
8.289970 17.368815 30.340727 35.929919 1.125481 0.565274 0.045457 -0.021250 -46067.500000 0 0 1
7.473370 16.556915 31.369607 36.249620 1.146800 0.524893 0.044684 -0.020570 -119768.000000 0 0 1
7.932470 16.678615 32.737114 37.587483 1.126853 0.513648 0.061403 -0.027174 320864.000000 0 0 1
7.484070 15.602115 33.577146 37.773827 1.123534 0.475859 0.082132 -0.032248 -46489.400000 0 0 1
7.769570 15.918115 -33.420224 37.824119 1.116717 2.654226 0.089099 -0.038733 -92385.600000 0 0 1
6.826170 16.869215 -32.966754 37.655994 1.186286 2.637207 0.086853 -0.041280 185210.000000 0 0 1
6.787770 16.883615 -31.556734 36.427431 1.188539 2.618524 0.096055 -0.045340 230789.000000 0 0 1
5.647370 17.809815 -31.006994 36.201049 1.263732 2.599289 0.088110 -0.039522 -148025.000000 0 0 1
5.674170 17.792215 -29.590294 34.990636 1.262080 2.578603 0.084065 -0.047964 125273.000000 0 0 1
4.820370 18.769315 -29.007304 34.884765 1.319407 2.552631 0.082663 -0.043259 1763150.000000 0 0 1
3.272870 18.380715 -29.033364 34.518091 1.394583 2.570121 0.078647 -0.038852 271333.000000 0 0 1
2.741270 17.381515 -28.104704 33.158800 1.414373 2.582203 0.088512 -0.036991 876608.000000 0 0 1
1.315670 17.281015 -28.179914 33.082805 1.494809 2.590207 0.077924 -0.033451 1475260.000000 0 0 1
0.439170 18.590715 -27.837534 33.477393 1.547178 2.552657 0.075971 -0.035541 -475829.000000 0 0 1
0.224070 18.797115 -26.466204 32.462928 1.558876 2.524000 0.088282 -0.036590 -3390.800000 0 0 1
-0.318630 20.055015 -26.193424 32.990917 -1.554910 2.488089 0.093780 -0.031065 -280830.000000 0 0 1
-0.651730 20.325515 -24.693714 31.989542 -1.538743 2.452669 0.088449 -0.041197 -210508.000000 0 0 1
-1.678730 19.500015 -24.192314 31.118110 -1.484919 2.461374 0.081766 -0.029410 85398.000000 0 0 1
-2.440530 20.185615 -23.200114 30.848996 -1.450476 2.421969 0.088947 -0.025301 857152.000000 0 0 1
-3.674930 19.292115 -22.758814 30.060845 -1.382563 2.429646 0.081526 -0.023697 1072140.000000 0 0 1
-4.951330 19.872315 -22.994514 30.792406 -1.326611 2.413972 0.065194 -0.017834 228619.000000 0 0 1
-5.999830 19.008315 -22.604714 30.137802 -1.265051 2.418927 0.050108 -0.015396 1032160.000000 0 0 1
-7.459830 19.590015 -22.674014 30.879259 -1.206953 2.395401 0.049800 -0.014299 895023.000000 0 0 1
-7.849330 20.304015 -21.485614 30.585889 -1.201903 2.349656 0.036419 -0.010681 187542.000000 0 0 1
-7.452730 21.670515 -21.565814 31.468059 -1.239556 2.325845 0.040729 -0.013665 -102613.000000 0 0 1
-7.693730 22.403115 -20.243514 31.159154 -1.239993 2.277961 0.051633 -0.019846 -234815.000000 0 0 1
-6.794630 22.220815 -19.176114 30.127313 -1.274047 2.260752 0.062284 -0.021665 -152204.000000 0 0 1
-7.106730 23.133615 -18.134914 30.241443 -1.272744 2.213886 0.069045 -0.016296 -445909.000000 0 0 1
-6.052030 23.224015 -17.057914 29.444089 -1.315872 2.188706 0.061847 -0.021393 -500005.000000 0 0 1
-4.937430 23.975715 -17.444814 30.058853 -1.367701 2.189961 0.064389 -0.019735 -1078640.000000 0 0 1
-3.892430 23.702215 -16.569014 29.180100 -1.408027 2.174650 0.057471 -0.020770 187514.000000 0 0 1
-2.542230 24.443515 -16.843214 29.793325 -1.467165 2.171636 0.051233 -0.012713 441634.000000 0 0 1
-2.485230 25.846515 -16.677314 30.860193 -1.474938 2.141727 0.029241 -0.012552 415187.000000 0 0 1
-1.317830 26.405715 -17.330114 31.612202 -1.520931 2.151018 0.024714 -0.007766 889668.000000 0 0 1
-1.025430 27.835815 -16.849914 32.554627 -1.533974 2.114827 0.012117 -0.021462 -255328.000000 0 0 1
-1.812130 28.846915 -17.434314 33.754757 -1.508060 2.113554 0.027425 -0.019759 -24660.000000 0 0 1
-1.279530 29.199615 -18.704814 34.700501 -1.527004 2.140088 0.040221 -0.028213 -153877.000000 0 0 1
-2.397530 29.511215 -19.758014 35.595492 -1.489733 2.159244 0.073224 -0.035918 607290.000000 0 0 1
-3.224530 30.638815 -19.427714 36.422118 -1.465939 2.133416 0.061759 -0.025305 201040.000000 0 0 1
-4.382330 30.225315 -18.707014 35.815176 -1.426811 2.120367 0.032926 -0.029031 -241636.000000 0 0 1
-4.803030 31.304815 -17.720314 36.291460 -1.418556 2.080912 0.058704 -0.022834 -135692.000000 0 0 1
-5.443030 32.403115 -18.292914 37.606105 -1.404371 2.078801 0.089151 -0.027380 -169960.000000 0 0 1
-6.187630 33.054715 -17.300814 37.818238 -1.385744 2.045947 0.081576 -0.038965 -125609.000000 0 0 1
-7.033830 34.266015 -17.751114 39.226733 -1.368337 2.040392 0.089636 -0.017211 493826.000000 0 0 1
-8.301430 33.865115 -18.272214 39.365385 -1.330404 2.053493 0.092355 -0.045365 -83935.500000 0 0 1
-9.086930 -33.776119 -18.658914 39.642825 1.307985 2.060853 0.126136 -0.038950 -393193.000000 0 0 1
29.276070 -20.497885 -26.378134 44.419112 -0.610832 2.206628 0.038544 0.005269 243617.000000 0 0 1
28.847370 -21.756285 -25.794974 44.394677 -0.646175 2.190799 0.042923 -0.007202 -155108.000000 0 0 1
27.563770 -22.037985 -26.314354 44.021351 -0.674453 2.211505 0.041758 -0.012299 174343.000000 0 0 1
26.996670 -23.438785 -25.872944 44.131690 -0.714971 2.197239 0.040145 -0.009021 430025.000000 0 0 1
27.559670 -24.621785 -26.471844 45.459061 -0.729156 2.192379 0.025782 0.008239 -808819.000000 0 0 1
28.874570 -24.959285 -26.181494 46.283661 -0.712797 2.172047 0.038805 0.008101 -529849.000000 0 0 1
29.231670 -26.316235 -26.840254 47.617580 -0.732961 2.169610 0.039405 0.006040 22535.300000 0 0 1
28.647670 -27.392205 -26.092264 47.453431 -0.762999 2.152981 0.044432 -0.002375 -78107.700000 0 0 1
28.841070 -28.655675 -26.734214 48.658742 -0.782174 2.152469 0.031001 0.002185 605396.000000 0 0 1
27.711970 -29.032125 -27.773784 48.807792 -0.808659 2.176139 0.042402 -0.009504 202973.000000 0 0 1
27.667270 -28.346755 -29.022024 49.104930 -0.797528 2.203120 0.024496 -0.006929 1539930.000000 0 0 1
28.828070 -28.605115 -29.921514 50.444099 -0.781516 2.205777 0.003809 0.000285 1286170.000000 0 0 1
28.999170 -30.066555 -30.497884 51.721083 -0.803467 2.201435 0.012146 0.004915 -739806.000000 0 0 1
29.488470 -31.053465 -29.620004 52.069493 -0.811242 2.175910 0.017782 0.001921 1090670.000000 0 0 1
30.828070 -30.987075 -29.059154 52.488123 -0.787970 2.157517 0.022311 0.002005 821384.000000 0 0 1
32.024570 -30.881775 -29.987384 53.651657 -0.767234 2.163888 0.009674 0.001229 -1228990.000000 0 0 1
32.145770 -29.566205 -30.489954 53.264888 -0.743622 2.180252 0.023233 -0.009598 85123.300000 0 0 1
33.369670 -29.181655 -31.096904 54.149065 -0.718545 2.182525 0.014381 -0.009433 79816.300000 0 0 1
33.296770 -27.710005 -31.604264 53.622278 -0.694077 2.201096 0.005391 0.006224 -41938.100000 0 0 1
33.041370 -26.621315 -30.766654 52.411959 -0.678205 2.198164 -0.005933 0.008185 -157216.000000 0 0 1
31.799170 -26.484715 -30.122464 51.185839 -0.694467 2.199989 0.012299 0.013950 -445093.000000 0 0 1
31.565970 -25.030685 -29.628214 50.007766 -0.670436 2.204921 0.005811 0.009533 -293521.000000 0 0 1
32.537670 -24.662085 -28.643574 49.873567 -0.648573 2.182574 0.002580 0.010142 395372.000000 0 0 1
32.357070 -23.453285 -27.969054 48.778115 -0.627195 2.181438 -0.000121 0.010531 -330496.000000 0 0 1
33.465470 -23.239785 -26.931644 48.839929 -0.606985 2.154870 0.008576 0.003063 -353135.000000 0 0 1
33.391670 -23.948185 -25.705514 48.469502 -0.622170 2.129803 0.011455 -0.004413 798069.000000 0 0 1
32.257370 -23.501985 -24.908314 47.045779 -0.629649 2.128747 0.039421 -0.004999 851010.000000 0 0 1
32.616270 -22.309285 -23.899914 46.181502 -0.599902 2.114748 0.042638 -0.004153 18995.100000 0 0 1
32.572170 -21.056085 -24.615814 45.937384 -0.573871 2.136317 0.036406 -0.006613 15233.500000 0 0 1
32.630970 -19.964385 -23.732714 45.017758 -0.549068 2.126081 0.012211 -0.009090 -120210.000000 0 0 1
32.685870 -18.586085 -24.487114 44.871231 -0.517032 2.148044 0.012996 -0.007002 669045.000000 0 0 1
31.549170 -18.315585 -25.332834 44.413548 -0.525988 2.177771 0.034315 -0.006355 777460.000000 0 0 1
31.713870 -17.072585 -25.995424 44.418518 -0.493841 2.195970 0.032180 -0.009842 -193945.000000 0 0 1
30.906070 -16.990685 -27.315514 44.609481 -0.502653 2.229795 0.018604 -0.000763 -1368160.000000 0 0 1
29.585470 -16.996085 -26.963604 43.487962 -0.521439 2.239570 0.024969 0.003801 -1077330.000000 0 0 1
28.735070 -16.926085 -28.124624 43.625578 -0.532321 2.271404 0.012420 -0.004130 593698.000000 0 0 1
27.245370 -16.708085 -27.741144 42.320696 -0.550102 2.285639 0.004585 0.000836 679989.000000 0 0 1
26.535670 -17.759485 -27.016384 41.826141 -0.589802 2.273025 0.023921 -0.000305 477719.000000 0 0 1
26.479170 -17.518185 -25.639044 40.809237 -0.584475 2.250118 0.031921 0.002490 -8774.490000 0 0 1
25.677870 -18.503585 -24.753714 40.180617 -0.624421 2.234529 0.036215 -0.002796 -134842.000000 0 0 1
25.540070 -18.082085 -23.369314 39.056136 -0.616068 2.212239 0.034649 0.003244 88536.300000 0 0 1
25.061970 -19.105285 -22.497714 38.720296 -0.651340 2.190792 0.049158 -0.000306 -109829.000000 0 0 1
25.220670 -18.692985 -21.000514 37.769451 -0.637831 2.160384 0.040713 -0.008407 245463.000000 0 0 1
24.290270 -17.705985 -20.552114 36.413026 -0.629881 2.170523 0.039196 -0.012591 109308.000000 0 0 1
24.332870 -16.422885 -21.190714 36.205608 -0.593699 2.196032 0.037753 -0.018164 94585.800000 0 0 1
25.566070 -15.474685 -21.000514 36.525489 -0.544294 2.183346 0.053623 -0.021282 339831.000000 0 0 1
25.535770 -14.773785 -19.747814 35.500935 -0.524500 2.160677 0.054174 -0.029691 969882.000000 0 0 1
26.686470 -13.903885 -19.621814 35.923547 -0.480313 2.148630 0.054538 -0.021242 589436.000000 0 0 1
26.695470 -13.034885 -18.362114 34.924541 -0.454228 2.124411 0.056408 -0.023517 -175909.000000 0 0 1
27.019470 -13.627785 -17.109514 34.763540 -0.467137 2.085375 0.051520 -0.024201 255739.000000 0 0 1
27.082070 -12.614785 -16.156714 33.964845 -0.435914 2.066544 0.039527 -0.025401 87732.900000 0 0 1
27.751970 -12.989385 -14.784714 34.021812 -0.437765 2.020352 0.051777 -0.031840 -29105.600000 0 0 1
26.967870 -13.851985 -13.987014 33.388322 -0.474506 2.003051 0.065159 -0.030870 404651.000000 0 0 1
27.616170 -14.184885 -12.781714 33.574335 -0.474503 1.961348 0.083725 -0.031698 62792.500000 0 0 1
26.929870 -15.460385 -12.153614 33.345940 -0.521156 1.943861 0.073361 -0.043037 -44279.400000 0 0 1
25.647270 -15.169285 -11.659614 31.997441 -0.534115 1.943776 0.071550 -0.041246 -220210.000000 0 0 1
25.107270 -16.392785 -11.240014 32.022434 -0.578418 1.929440 0.061935 -0.045663 -75221.400000 0 0 1
23.614170 -16.203285 -10.853914 30.626506 -0.601382 1.933064 0.077888 -0.046981 -44826.500000 0 0 1
23.459870 -15.704585 -9.535614 29.798111 -0.589909 1.896534 0.069332 -0.040787 938524.000000 0 0 1
22.072970 -15.840185 -9.211914 28.687747 -0.622459 1.897697 0.071074 -0.033116 288761.000000 0 0 1
21.750870 -15.707685 -7.718414 27.917837 -0.625446 1.850914 0.064931 -0.024985 -381139.000000 0 0 1
21.916570 -14.358385 -7.275614 27.192532 -0.579979 1.841655 0.072370 -0.011903 298556.000000 0 0 1
21.653670 -14.251085 -5.881114 26.581240 -0.582074 1.793893 0.060742 -0.006549 -677159.000000 0 0 1
22.530570 -14.897185 -4.831814 27.439007 -0.584208 1.747812 0.067764 -0.007691 488721.000000 0 0 1
23.887070 -14.394885 -4.879514 28.312797 -0.542346 1.744004 0.090370 -0.014284 1024580.000000 0 0 1
24.792070 -15.078185 -4.066414 29.300753 -0.546417 1.710028 0.086307 -0.024435 -277745.000000 0 0 1
26.249870 -14.684485 -4.357514 30.392066 -0.510040 1.714669 0.093152 -0.025825 -407275.000000 0 0 1
26.689370 -13.478985 -3.795014 30.139801 -0.467665 1.697045 0.091232 -0.020834 -100719.000000 0 0 1
28.022370 -13.172085 -4.110014 31.235384 -0.439407 1.702761 0.091481 -0.026503 -273933.000000 0 0 1
28.548970 -11.958185 -3.306914 31.128404 -0.396663 1.677232 0.096607 -0.024390 -1130360.000000 0 0 1
29.026270 -12.350685 -2.035114 31.610211 -0.402294 1.635222 0.105258 -0.037957 795666.000000 0 0 1
29.742270 -11.278585 -1.334514 31.836929 -0.362457 1.612726 0.099159 -0.028687 563604.000000 0 0 1
31.179570 -10.969585 -1.829914 33.103564 -0.338295 1.626103 0.095706 -0.022760 -512088.000000 0 0 1
31.243670 -10.477685 -3.153314 33.104262 -0.323568 1.666195 0.089884 -0.015849 627873.000000 0 0 1
32.513270 -10.875985 -3.681614 34.481213 -0.322808 1.677772 0.098232 -0.023452 346579.000000 0 0 1
32.489670 -10.749485 -5.233514 34.619644 -0.319522 1.722550 0.093198 -0.018453 259338.000000 0 0 1
31.568870 -11.574985 -5.992214 34.153776 -0.351437 1.747157 0.071202 -0.025851 786599.000000 0 0 1
31.783270 -11.455585 -7.374714 34.580241 -0.345935 1.785711 0.058827 -0.015734 -748789.000000 0 0 1
30.562070 -11.986385 -8.062414 33.804083 -0.373763 1.811622 0.079970 -0.019359 -624814.000000 0 0 1
30.447670 -13.396285 -7.910014 34.191949 -0.414488 1.804253 0.065618 -0.020581 -117669.000000 0 0 1
29.167970 -13.897085 -8.213414 33.337060 -0.444631 1.819734 0.074576 -0.024543 -123595.000000 0 0 1
29.031270 -15.415085 -8.428114 33.933355 -0.488125 1.821796 0.078813 -0.032620 -230786.000000 0 0 1
29.546370 -15.944685 -9.609214 34.922170 -0.494862 1.849553 0.082932 -0.038312 163407.000000 0 0 1
29.763270 -17.332285 -9.385314 35.697961 -0.527332 1.836832 0.074611 -0.039006 -110973.000000 0 0 1
30.182870 -18.022385 -10.718514 36.751851 -0.538289 1.866743 0.056129 -0.042538 -544675.000000 0 0 1
31.439170 -17.658185 -11.211114 37.761382 -0.511753 1.872234 0.063440 -0.031678 -206290.000000 0 0 1
31.712270 -18.103085 -12.515314 38.600814 -0.518713 1.900988 0.062140 -0.022433 -22221.100000 0 0 1
30.958170 -17.466085 -13.725014 38.103128 -0.513667 1.939286 0.058786 -0.025140 71568.200000 0 0 1
31.439670 -16.125185 -13.901114 37.969927 -0.473909 1.945620 0.053631 -0.019001 546152.000000 0 0 1
30.785370 -15.502185 -15.031314 37.603153 -0.466489 1.982025 0.048605 -0.026063 -1274870.000000 0 0 1
31.507970 -14.235585 -15.639114 37.947146 -0.424357 1.995586 0.052642 -0.016099 -19540.600000 0 0 1
32.576370 -14.597085 -16.470914 39.313938 -0.421263 2.003094 0.036839 -0.013707 407891.000000 0 0 1
33.717670 -15.066185 -15.747114 40.147762 -0.420218 1.973850 0.043463 -0.010687 -1106590.000000 0 0 1
34.623870 -15.890785 -16.690414 41.592058 -0.430276 1.983719 0.044064 -0.010776 -758362.000000 0 0 1
35.949370 -15.967685 -16.295114 42.577634 -0.417996 1.963530 0.037039 -0.006929 -474718.000000 0 0 1
-35.276512 -16.522685 -17.243014 42.599917 0.438030 1.987520 0.029043 -0.009919 -644926.000000 0 0 1
-33.796912 -16.346585 -16.956014 41.194034 0.450499 1.995020 0.012920 0.000574 -813213.000000 0 0 1
-33.189212 -16.984685 -15.857314 40.514907 0.473006 1.972943 0.017898 -0.012027 229813.000000 0 0 1
-33.521012 -16.494085 -14.560314 40.096331 0.457269 1.942425 0.026047 -0.015718 -596669.000000 0 0 1
-32.769912 -17.268785 -13.461214 39.411703 0.484991 1.919366 0.037002 -0.018154 184684.000000 0 0 1
-31.411512 -16.899585 -13.257514 38.053130 0.493588 1.926654 0.009145 -0.016916 192524.000000 0 0 1
-30.891512 -17.617985 -12.162914 37.584775 0.518309 1.900342 0.005793 -0.007522 -952893.000000 0 0 1
-29.424412 -17.314285 -11.971214 36.178590 0.531871 1.908045 0.037889 -0.006776 -943840.000000 0 0 1
-29.233012 -15.983585 -11.663814 35.299979 0.500356 1.907545 0.039759 -0.018969 -587303.000000 0 0 1
-28.112012 -15.834085 -10.851314 34.040482 0.512959 1.895235 0.039230 -0.017328 -497914.000000 0 0 1
-28.324412 -15.738385 -9.296314 33.710391 0.507169 1.850187 0.049335 -0.019277 -163728.000000 0 0 1
-28.562412 -16.973185 -8.828814 34.378021 0.536180 1.830522 0.042680 -0.017288 -36109.000000 0 0 1
-28.902412 -16.978285 -7.456914 34.339731 0.531129 1.789691 0.053346 -0.021966 -244505.000000 0 0 1
-29.276512 -18.396285 -6.961414 35.270366 0.561014 1.769474 0.036688 -0.028260 149305.000000 0 0 1
-30.460912 -19.052485 -7.349514 36.672601 0.558940 1.772572 0.035921 -0.028597 -34855.900000 0 0 1
-30.288812 -19.541285 -8.686814 37.077414 0.572969 1.807283 0.024615 -0.018878 -41196.600000 0 0 1
-31.440012 -20.413285 -9.237714 38.607148 0.575867 1.812415 0.034492 -0.020908 -248006.000000 0 0 1
-32.605812 -19.707785 -9.511814 39.268439 0.543667 1.815455 0.038213 -0.021198 79416.200000 0 0 1
-33.752612 -20.527685 -9.709914 40.680549 0.546413 1.811810 0.036390 -0.022994 -224436.000000 0 0 1
-34.968112 -19.839185 -10.261114 41.492801 0.516067 1.820688 0.030663 -0.032547 -754098.000000 0 0 1
-34.931512 -19.495885 -11.671614 41.671652 0.509054 1.854679 0.029968 -0.030158 317756.000000 0 0 1
35.966070 -18.859185 -12.097114 42.374133 -0.482946 1.860307 0.052319 -0.037096 240686.000000 0 0 1
35.621670 -18.918985 -13.617114 42.570613 -0.488224 1.896390 0.048566 -0.030431 -216694.000000 0 0 1
34.972070 -20.089085 -14.000114 42.692156 -0.521407 1.904910 0.024063 -0.024606 -69147.600000 0 0 1
34.370570 -20.022185 -15.268614 42.606977 -0.527481 1.937306 0.017817 -0.022239 464753.000000 0 0 1
33.109770 -20.930385 -15.443414 42.105070 -0.563725 1.946345 0.035688 -0.026415 455099.000000 0 0 1
31.986170 -20.539185 -14.648814 40.737709 -0.570821 1.938623 0.044739 -0.030156 509193.000000 0 0 1
30.740270 -21.173285 -14.817114 40.159918 -0.603156 1.948678 0.051096 -0.029327 59534.800000 0 0 1
29.990270 -20.823185 -16.070414 39.890845 -0.606911 1.985435 0.049129 -0.032413 -1079230.000000 0 0 1
29.531970 -19.484185 -16.039314 38.846239 -0.583210 1.996424 0.031111 -0.026165 477720.000000 0 0 1
28.779370 -19.164485 -17.231414 38.632256 -0.587479 2.033129 0.029174 -0.026694 436020.000000 0 0 1
27.985370 -17.823985 -17.139514 37.344856 -0.567113 2.047612 0.037663 -0.022102 -383178.000000 0 0 1
26.907770 -17.814085 -16.276214 36.142562 -0.584794 2.037935 0.045794 -0.030718 -287244.000000 0 0 1
26.389670 -16.494785 -16.007614 34.996233 -0.558633 2.045876 0.036195 -0.023162 -236994.000000 0 0 1
24.971070 -16.552985 -15.362414 33.668374 -0.585381 2.044613 0.041665 -0.029692 1288030.000000 0 0 1
23.848370 -16.960285 -16.201714 33.449836 -0.618184 2.076426 0.049125 -0.034314 1285600.000000 0 0 1
23.513670 -15.935185 -17.152014 33.181536 -0.595601 2.114039 0.045383 -0.035708 -233141.000000 0 0 1
22.476070 -16.496685 -18.207714 33.299177 -0.633161 2.149324 0.038209 -0.029297 1138640.000000 0 0 1
21.129670 -16.656085 -17.755714 32.235903 -0.667553 2.154125 0.046705 -0.019206 115273.000000 0 0 1
20.314070 -17.282885 -18.689014 32.567449 -0.704949 2.182002 0.042201 -0.011274 182946.000000 0 0 1
18.907870 -17.586585 -18.136114 31.554938 -0.749209 2.183092 0.044905 -0.008963 353322.000000 0 0 1
17.997970 -16.540585 -17.815314 30.247368 -0.743227 2.200601 0.047711 -0.011956 1213860.000000 0 0 1
16.704470 -17.126385 -17.483014 29.631202 -0.797869 2.201880 0.058699 -0.008431 1405350.000000 0 0 1
15.599570 -16.034185 -17.377014 28.326706 -0.799136 2.231218 0.060804 0.001890 -197989.000000 0 0 1
15.123070 -15.401885 -18.514914 28.438131 -0.794532 2.279776 0.054325 0.013735 147796.000000 0 0 1
14.018870 -14.574585 -18.179814 27.192882 -0.804831 2.303054 0.058502 0.008704 6626.530000 0 0 1
13.254270 -14.119385 -19.417214 27.423728 -0.816992 2.357521 0.048324 0.012474 -267050.000000 0 0 1
13.719470 -13.014385 -20.174014 27.651200 -0.759030 2.388517 0.046214 0.009095 346908.000000 0 0 1
12.765770 -12.639185 -21.182014 27.773937 -0.780416 2.438209 0.054680 0.001310 397762.000000 0 0 1
13.020870 -11.194185 -21.659514 27.640321 -0.710105 2.471268 0.048604 0.001008 455854.000000 0 0 1
14.184670 -10.993885 -22.506014 28.785257 -0.659344 2.468438 0.046014 0.004704 461936.000000 0 0 1
14.290870 -9.678685 -23.033714 28.782944 -0.595303 2.498518 0.038640 -0.003224 106428.000000 0 0 1
15.613570 -9.433985 -23.787614 29.977228 -0.543514 2.487373 0.041673 -0.000409 251024.000000 0 0 1
15.537570 -9.908485 -25.133384 31.165383 -0.567688 2.508923 0.054612 -0.000308 75888.400000 0 0 1
16.834770 -9.952085 -25.676914 32.276266 -0.533896 2.490687 0.060234 -0.008755 -209905.000000 0 0 1
22.209270 4.917715 -6.870214 23.762059 0.217910 1.864109 0.077741 0.019523 -163679.000000 0 1 0
22.137670 6.228815 -7.335014 24.138703 0.274276 1.879548 0.064436 0.016624 632520.000000 0 1 0
21.881370 7.096315 -6.277814 23.844559 0.313606 1.837218 0.064808 0.014606 -338162.000000 0 1 0
21.605270 8.534315 -6.578014 24.143167 0.376198 1.846744 0.066986 0.013938 -189692.000000 0 1 0
20.316170 8.693915 -7.169614 23.232182 0.404350 1.884525 0.049490 0.004221 1020120.000000 0 1 0
19.827570 10.059915 -7.107514 23.342047 0.469526 1.880203 0.047868 0.000834 57303.700000 0 1 0
19.625070 10.832415 -5.775014 23.148118 0.504353 1.822941 0.078112 -0.001019 -274424.000000 0 1 0
20.815170 11.363015 -5.230914 24.284807 0.499690 1.787896 0.090555 0.003871 217862.000000 0 1 0
20.443670 12.346715 -4.351814 24.275982 0.543310 1.751035 0.103752 -0.001270 594555.000000 0 1 0
21.388370 12.670715 -3.109114 25.053462 0.534821 1.695216 0.087465 -0.011369 459523.000000 0 0 1
22.712070 13.089015 -3.398314 26.433104 0.522812 1.699716 0.090498 -0.019627 430565.000000 0 0 1
23.494970 13.306115 -2.277214 27.097085 0.515301 1.654935 0.092533 -0.022993 67350.800000 0 0 1
24.425670 12.116115 -1.844814 27.327952 0.460475 1.638354 0.071465 -0.015409 -538156.000000 0 0 1
25.572470 11.893915 -2.613014 28.323917 0.435345 1.663182 0.050146 -0.007247 -142832.000000 0 0 1
26.297970 10.833015 -1.978214 28.510538 0.390751 1.640237 0.075061 -0.008473 1163470.000000 0 0 1
27.775670 10.770815 -2.564414 29.901079 0.369927 1.656665 0.052034 -0.004455 818800.000000 0 0 1
28.612870 11.819615 -2.202014 31.036245 0.391737 1.641806 0.043508 -0.007936 -665952.000000 0 0 1
29.947070 11.419215 -2.240614 32.128583 0.364294 1.640592 0.043384 -0.005653 -635550.000000 0 0 1
30.878470 12.564515 -1.831414 33.387139 0.386442 1.625678 0.019717 0.000920 -887499.000000 0 0 1
30.931770 12.739115 -0.425214 33.455048 0.390676 1.583507 0.032830 -0.001786 215241.000000 0 0 1
31.627770 13.927115 -0.155814 34.558713 0.414795 1.575305 0.025390 -0.001931 -259561.000000 0 0 1
33.167070 13.887215 -0.189414 35.957547 0.396527 1.576064 0.030748 -0.010375 -585140.000000 0 0 1
33.818670 15.113115 0.076186 37.042064 0.420262 1.568740 0.032406 -0.004712 153441.000000 0 0 1
34.570770 15.521215 -1.068714 37.910268 0.421996 1.598991 0.037717 -0.000581 -418383.000000 0 0 1
33.842970 16.368815 -2.120814 37.653454 0.450498 1.627151 0.010055 0.016189 -326855.000000 0 0 1
32.841870 15.651715 -2.795814 36.488097 0.444735 1.647494 0.015921 0.017629 -327737.000000 0 0 1
32.195670 16.538715 -3.686914 36.382463 0.474543 1.672308 0.008986 0.024815 57691.100000 0 0 1
30.822770 16.135515 -4.268014 35.051590 0.482265 1.692863 0.013226 0.010817 -362065.000000 0 0 1
30.832970 14.989315 -5.161314 34.669738 0.452503 1.720223 0.007889 0.007901 163213.000000 0 0 1
29.662870 14.649615 -5.875314 33.600839 0.458732 1.746556 0.016130 -0.004816 15137.700000 0 0 1
28.423970 14.058115 -5.163714 32.128128 0.459308 1.732219 0.024324 -0.011643 -390189.000000 0 0 1
27.461270 13.713715 -6.115614 31.298372 0.463155 1.767459 0.033675 -0.015271 -387935.000000 0 0 1
26.303970 13.238815 -5.451014 29.947932 0.466285 1.753833 0.045803 -0.007938 -292778.000000 0 0 1
25.218270 12.935415 -6.487014 29.075203 0.473945 1.795802 0.042312 -0.008547 -961438.000000 0 0 1
25.494770 11.851115 -7.318114 29.051455 0.435130 1.825441 0.040934 -0.002437 1093230.000000 0 0 1
24.508270 11.538915 -8.370614 28.352584 0.440030 1.870496 0.051122 -0.002477 644821.000000 0 0 1
24.181670 12.704915 -9.308514 28.858560 0.483756 1.899225 0.055980 0.001036 -355066.000000 0 0 1
23.483370 13.787915 -8.767014 28.608317 0.530906 1.882257 0.060208 -0.009888 120245.000000 0 0 1
23.158570 14.726315 -9.801014 29.141784 0.566392 1.913805 0.050076 -0.005818 -626228.000000 0 0 1
22.464370 16.017415 -9.252514 29.100078 0.619407 1.894368 0.044898 -0.006104 19505.900000 0 0 1
21.122770 15.890315 -8.851614 27.875161 0.644961 1.893936 0.061805 -0.003742 113070.000000 0 0 1
20.873870 15.117315 -7.689114 26.895616 0.626798 1.860729 0.073306 -0.006570 -982956.000000 0 0 1
19.432970 14.591515 -7.667314 25.482157 0.644054 1.876422 0.091996 -0.008193 -784457.000000 0 0 1
18.504070 15.508315 -7.242614 25.206426 0.697547 1.862237 0.104164 -0.017911 -272641.000000 0 0 1
17.198970 14.994915 -7.427114 23.996126 0.717043 1.885477 0.103073 -0.020615 623414.000000 0 1 0
16.141470 15.209815 -6.272814 23.048508 0.755690 1.846430 0.097738 -0.011746 490604.000000 0 1 0
16.263570 14.263315 -5.246714 22.259242 0.719967 1.808745 0.071542 -0.017584 326981.000000 0 1 0
15.748270 14.765815 -4.054614 21.965364 0.753213 1.756452 0.062171 -0.013915 -370429.000000 0 1 0
15.708570 13.662315 -2.902714 21.020080 0.715841 1.709331 0.064582 -0.009968 121754.000000 0 1 0
17.024570 13.344815 -2.438414 21.768462 0.664819 1.683048 0.073527 -0.006089 1073530.000000 0 1 0
16.896270 12.450815 -1.351614 21.031728 0.635062 1.635106 0.064052 -0.006674 71156.300000 0 1 0
16.802870 13.198615 -0.029414 21.366814 0.665835 1.572173 0.059213 -0.012019 161210.000000 0 1 0
15.585570 13.926915 0.180186 20.902187 0.729255 1.562176 0.049143 -0.020480 808058.000000 0 1 0
15.753170 14.787915 1.305386 21.645989 0.753804 1.510454 0.044003 -0.015400 -696233.000000 0 1 0
14.509470 15.618515 1.608086 21.378697 0.822193 1.495506 0.033261 -0.011406 -599834.000000 0 1 0
14.240770 16.623915 0.612086 21.898145 0.862458 1.542841 0.035765 -0.019241 208309.000000 0 1 0
13.242670 17.513015 1.053686 21.981453 0.923363 1.522843 0.020319 -0.015989 -662112.000000 0 1 0
13.428670 18.971815 0.554886 23.250094 0.954840 1.546928 0.021763 -0.014700 -338874.000000 0 1 0
13.295570 19.185215 -0.832514 23.356750 0.964776 1.606447 0.039555 -0.016937 365592.000000 0 1 0
12.697670 20.446915 -1.246714 24.101068 1.015074 1.622548 0.025852 -0.017110 556538.000000 0 1 0
11.165770 20.669715 -1.116714 23.519324 1.075509 1.618295 0.022532 -0.016492 241515.000000 0 1 0
10.694270 20.771915 0.218786 23.364241 1.095345 1.561432 0.014185 -0.011974 957297.000000 0 1 0
9.248370 20.790115 0.097386 22.754576 1.152238 1.566516 0.021124 -0.001530 1419710.000000 0 1 0
8.504970 20.704115 1.454286 22.430110 1.181026 1.505914 0.011453 0.001707 -53290.700000 0 1 0
8.487970 21.910915 2.186886 23.599075 1.201212 1.477995 0.011501 0.012531 707539.000000 0 1 0
7.446870 21.920115 3.190686 23.369378 1.243302 1.433836 0.000453 0.014770 664433.000000 0 1 0
7.028870 23.317715 3.732486 24.638432 1.278020 1.418720 -0.007495 0.021442 363869.000000 0 1 0
7.890770 23.721215 4.801186 25.456074 1.249664 1.381053 -0.012012 0.014983 284099.000000 0 0 1
7.393570 24.775115 5.587086 26.451593 1.280783 1.357974 -0.019993 0.013105 -160377.000000 0 0 1
7.856870 24.962915 7.091986 27.114089 1.265871 1.306157 -0.020127 0.006740 71631.500000 0 0 1
7.256470 24.053015 8.049586 26.381807 1.277793 1.260733 0.000138 -0.017585 372271.000000 0 0 1
7.840870 24.108115 9.356486 27.022663 1.256349 1.217230 0.003721 -0.029818 -88967.100000 0 0 1
7.304570 23.038915 10.407486 26.314713 1.263768 1.164183 0.011588 -0.028568 269797.000000 0 0 1
5.970670 23.370215 10.787686 26.423286 1.320665 1.150244 0.013561 -0.027587 188618.000000 0 0 1
5.462570 22.305315 11.507886 25.686538 1.330623 1.106255 0.019868 -0.021511 405395.000000 0 0 1
4.111270 22.563715 12.271686 26.011883 1.390566 1.079497 0.028112 -0.033037 893624.000000 0 0 1
3.045170 22.766815 11.329986 25.611902 1.437831 1.112555 0.022702 -0.033003 -356903.000000 0 0 1
1.850170 22.897015 12.032386 25.932118 1.490168 1.088296 0.027707 -0.040146 -817379.000000 0 0 1
0.670070 23.346215 11.184786 25.895834 1.542103 1.124182 0.022010 -0.020244 -492523.000000 0 0 1
0.871770 24.625615 10.600286 26.824373 1.535410 1.164539 0.024313 -0.018483 -12072.900000 0 0 1
0.178370 24.840315 9.369286 26.549136 1.563616 1.210124 0.023915 -0.020414 -230527.000000 0 0 1
-1.192030 25.497215 9.480286 27.228749 -1.524079 1.215176 0.032096 -0.030219 -11830.700000 0 0 1
-2.207730 24.722815 10.107686 26.800317 -1.481733 1.184081 0.034661 -0.031780 634030.000000 0 0 1
-3.483930 25.327415 9.928186 27.425984 -1.434099 1.200385 0.046175 -0.032610 183477.000000 0 0 1
-4.754430 24.674015 10.505786 27.235697 -1.380440 1.174791 0.042006 -0.029447 73498.100000 0 0 1
-4.935830 24.809815 11.905586 27.957688 -1.374414 1.130903 0.038413 -0.023769 356561.000000 0 0 1
-5.788930 25.917615 12.251886 29.246251 -1.351044 1.138539 0.033260 -0.018715 192458.000000 0 0 1
-6.272830 25.887715 13.735286 29.969656 -1.333069 1.094708 0.026032 -0.013526 -90039.500000 0 0 1
-7.228130 24.938215 14.138186 29.564316 -1.288685 1.072172 0.015603 -0.015818 -7872.710000 0 0 1
-7.536830 24.972215 15.536186 30.360969 -1.277681 1.033616 0.004732 0.003623 -381227.000000 0 0 1
-8.738030 24.155915 15.982486 30.253947 -1.223706 1.014225 0.002876 -0.003645 -1255320.000000 0 0 1
-9.967730 24.615815 15.568686 30.784379 -1.186046 1.040565 -0.000095 0.002491 -1217320.000000 0 0 1
-10.933930 23.594815 15.687386 30.370384 -1.136852 1.027996 0.006458 -0.001444 470128.000000 0 0 1
-12.347330 24.194315 15.349386 31.199762 -1.098911 1.056444 0.012986 -0.002617 412787.000000 0 0 1
-12.787330 25.136915 16.311086 32.579623 -1.100207 1.046443 0.010132 -0.004084 -415868.000000 0 0 1
-13.835630 25.869015 15.772386 33.307639 -1.079671 1.077495 0.003022 0.001923 -646211.000000 0 0 1
-14.383530 27.022415 16.710286 34.875931 -1.081658 1.071127 0.016628 0.001952 170893.000000 0 0 1
-15.337930 26.452715 17.599186 35.280726 -1.045344 1.048545 0.024426 -0.007301 107274.000000 0 0 1
-15.726030 27.336315 18.627186 36.627234 -1.048752 1.037284 0.040227 -0.005449 125172.000000 0 0 1
-17.018530 26.891315 19.376886 37.259052 -1.006562 1.023877 0.039382 -0.020239 374986.000000 0 0 1
-18.199930 27.070415 18.623486 37.561670 -0.978891 1.052028 0.035360 -0.016047 182573.000000 0 0 1
-19.290230 26.375215 19.227786 37.914018 -0.939321 1.038931 0.039140 -0.019645 115121.000000 0 0 1
-20.594330 26.342815 18.427486 38.179086 -0.907263 1.067108 0.050209 -0.023727 -237105.000000 0 0 1
-21.234730 27.623015 18.444386 39.422584 -0.915413 1.083925 0.045929 -0.024086 823250.000000 0 0 1
-22.139630 27.671115 17.306786 39.438290 -0.895995 1.116498 0.047361 -0.029568 390961.000000 0 0 1
-22.998030 28.932115 17.033686 40.695493 -0.899175 1.138932 0.044683 -0.028975 359240.000000 0 0 1
-24.120530 29.100515 17.881586 41.813767 -0.878698 1.128907 0.043073 -0.030024 287040.000000 0 0 1
-25.067960 30.033315 17.369086 42.802895 -0.875269 1.152951 0.051230 -0.021668 470758.000000 0 0 1
-26.446670 29.880915 18.078886 43.808008 -0.846292 1.145397 0.056118 -0.021212 -48029.400000 0 0 1
-27.107610 28.706515 17.808086 43.312983 -0.814037 1.147082 0.059893 -0.018448 376119.000000 0 0 1
-28.506960 28.807915 18.115086 44.392557 -0.790649 1.150462 0.081205 -0.025023 694575.000000 0 0 1
-29.078750 27.645315 18.871686 44.339347 -0.760133 1.131150 0.081349 -0.021782 -432298.000000 0 0 1
-29.243040 26.524115 18.064486 43.416699 -0.736682 1.141675 0.065256 -0.022800 126047.000000 0 0 1
-29.279970 25.402815 18.928386 43.138191 -0.714614 1.116550 0.054568 -0.011033 -20980.800000 0 0 1
-29.379840 24.080515 18.091886 42.075677 -0.686595 1.126321 0.052841 -0.010782 536201.000000 0 0 1
-30.628610 24.011615 17.383586 42.624623 -0.664884 1.150721 0.070900 -0.014257 583591.000000 0 0 1
-30.698370 23.101315 16.312586 41.739204 -0.645116 1.169272 0.068511 -0.021580 -209271.000000 0 0 1
-31.066230 21.631315 16.558386 41.318333 -0.608236 1.158459 0.059627 -0.017723 1195400.000000 0 0 1
-32.494360 21.431815 16.396886 42.238182 -0.583063 1.172118 0.056539 -0.012013 1106900.000000 0 0 1
-32.835250 20.044915 16.312386 41.785718 -0.548082 1.169750 0.036839 0.000464 220451.000000 0 0 1
-34.255922 19.756715 15.767586 42.572442 -0.523140 1.191388 0.020068 -0.004865 96326.400000 0 0 1
-34.368128 20.062015 14.376186 42.312261 -0.528377 1.224130 0.029900 -0.011579 -344338.000000 0 0 1
-35.627509 19.773315 13.838086 43.032500 -0.506675 1.243406 0.034536 -0.005300 -151035.000000 0 0 1
-35.769823 20.214415 12.364986 42.906826 -0.514381 1.278468 0.042606 -0.010867 -260405.000000 0 0 1
-35.643008 21.644715 12.312986 43.480195 -0.545744 1.283682 0.038899 -0.018995 70271.300000 0 0 1
-35.478948 22.187815 11.011886 43.270273 -0.558872 1.313475 0.040958 -0.029664 493653.000000 0 0 1
-34.189483 21.761915 10.212686 41.794745 -0.566833 1.323944 0.052773 -0.029811 157094.000000 0 0 1
-34.419353 20.712715 9.297286 41.232851 -0.541724 1.343358 0.053322 -0.017239 391852.000000 0 0 1
-33.170380 20.203215 8.859286 39.836302 -0.547065 1.346529 0.080578 -0.015083 649834.000000 0 0 1
-32.421540 19.105015 9.730786 38.869604 -0.532492 1.317760 0.064356 -0.017951 183060.000000 0 0 1
-32.033300 19.462415 11.028186 39.070946 -0.545966 1.284647 0.066354 -0.024385 83824.100000 0 0 1
-31.360990 18.381315 11.609186 38.159634 -0.530151 1.261670 0.068524 -0.019746 -54832.700000 0 0 1
-30.764320 18.570015 13.019086 38.220223 -0.543078 1.223206 0.047534 -0.011165 640556.000000 0 0 1
-29.600160 19.422715 13.072886 37.740054 -0.580700 1.217073 0.059593 -0.012186 343373.000000 0 0 1
-29.788620 20.766215 13.156086 38.622276 -0.608790 1.223204 0.050314 -0.009300 -655930.000000 0 0 1
-28.495840 21.489115 13.503086 38.159250 -0.646129 1.209100 0.078809 -0.020605 -340217.000000 0 0 1
-27.923790 21.153415 14.766286 38.016421 -0.648310 1.171881 0.084951 -0.017553 395597.000000 0 0 1
-26.918630 22.112615 15.114986 37.974244 -0.687691 1.161425 0.077475 -0.025149 -38919.100000 0 0 1
-26.318200 21.802815 16.473286 37.939156 -0.691838 1.121643 0.076644 -0.023798 -417399.000000 0 0 1
-25.635170 20.584815 16.545086 36.805386 -0.676562 1.104558 0.088647 -0.025227 -93485.200000 0 0 1
-25.465340 20.097115 17.857086 37.030435 -0.668118 1.067601 0.068666 -0.016244 -305604.000000 0 0 1
-24.160430 19.288215 17.973686 35.760523 -0.673727 1.044178 0.076378 -0.018361 -319285.000000 0 0 1
-23.765730 19.426915 19.322686 36.270941 -0.685281 1.008971 0.064746 -0.018642 98156.300000 0 0 1
-22.666530 18.577815 19.614486 35.265208 -0.686587 0.980991 0.064548 -0.018753 51188.900000 0 0 1
-22.230630 18.666315 21.101586 35.887452 -0.698464 0.942220 0.067282 -0.022921 86723.700000 0 0 1
-23.177830 18.103615 21.987086 36.720358 -0.663094 0.928831 0.075293 -0.015636 254617.000000 0 0 1
-22.844730 18.466715 23.317386 37.504690 -0.679816 0.899861 0.094303 -0.027580 -84833.100000 0 0 1
-23.402130 17.515015 24.366586 38.054776 -0.642500 0.875904 0.074797 -0.013611 -267122.000000 0 0 1
-22.744130 16.305415 24.382986 37.117274 -0.621983 0.854073 0.088819 -0.021889 78567.700000 0 0 1
-23.490430 15.319715 25.086186 37.627261 -0.577898 0.841021 0.088253 -0.026023 275374.000000 0 0 1
20.175970 24.751515 33.728707 46.447098 0.886891 0.758055 0.036435 -0.016839 -352524.000000 0 0 1
21.310770 24.010315 33.372362 46.307221 0.844893 0.766024 0.027646 -0.028647 -158329.000000 0 0 1
21.206770 22.623015 33.755099 45.835953 0.817699 0.743014 0.036970 -0.024176 -126474.000000 0 0 1
20.145570 21.687615 33.099675 44.404787 0.822243 0.729650 0.035953 -0.022548 -12772.500000 0 0 1
20.466470 21.114215 31.840657 43.341826 0.800975 0.745660 0.044294 -0.023840 308097.000000 0 0 1
19.471970 20.179115 31.442727 42.130742 0.803230 0.728291 0.054112 -0.019085 -173375.000000 0 0 1
19.812270 19.589415 30.021327 40.957921 0.779742 0.748104 0.062712 -0.007497 -802297.000000 0 0 1
21.070370 19.015915 29.876487 41.208858 0.734192 0.759760 0.046064 -0.010567 -698869.000000 0 0 1
21.258070 18.430615 28.605397 40.123084 0.714277 0.777113 0.049209 -0.013959 -387051.000000 0 0 1
22.380670 17.381215 28.649597 40.296407 0.660320 0.779918 0.035368 -0.009407 -603717.000000 0 0 1
23.631770 18.009315 28.768857 41.357504 0.651188 0.801522 0.056427 -0.015847 -288558.000000 0 0 1
24.651770 17.042315 28.943597 41.663918 0.604878 0.802804 0.055604 -0.009040 -1591650.000000 0 0 1
25.968570 17.577315 29.280757 42.903279 0.595032 0.819642 0.055817 -0.020194 -1858470.000000 0 0 1
26.779270 17.929615 28.178857 42.809443 0.589985 0.852319 0.048056 -0.019815 -77892.400000 0 0 1
27.996770 18.415115 28.682377 44.109119 0.581810 0.862870 0.052759 -0.019197 -627364.000000 0 0 1
29.261870 18.426615 27.869437 44.412866 0.561982 0.892448 0.053920 0.001187 -475246.000000 0 0 1
29.236770 19.381315 26.863777 44.182424 0.585397 0.917233 0.058957 -0.013600 1288590.000000 0 0 1
30.504870 19.475315 26.143377 44.646513 0.568201 0.945221 0.057145 -0.025238 1041400.000000 0 0 1
30.625270 20.716115 25.260257 44.778847 0.594737 0.971440 0.047631 -0.022606 397394.000000 0 0 1
29.632170 20.764815 24.224677 43.543978 0.611231 0.980838 0.057513 -0.029660 590447.000000 0 0 1
30.016670 21.701715 23.254267 43.734721 0.625989 1.010176 0.052065 -0.032980 82222.400000 0 0 1
30.890570 21.147615 22.041667 43.442882 0.600314 1.038665 0.039818 -0.015330 282225.000000 0 0 1
30.178370 20.285615 21.165267 42.073848 0.591817 1.043672 0.048514 -0.005117 77801.700000 0 0 1
30.888370 19.928515 19.989767 41.842895 0.572978 1.072723 0.044249 -0.005052 -158206.000000 0 0 1
31.799770 18.661115 20.140067 42.012913 0.530681 1.070850 0.039460 -0.004688 -169872.000000 0 0 1
31.113670 17.439715 20.280367 41.030445 0.510881 1.053794 0.041459 -0.004116 -261343.000000 0 0 1
31.947370 16.328315 20.115467 41.132473 0.472488 1.059806 0.026240 0.005158 -1280080.000000 0 0 1
31.289970 14.932615 20.033367 40.042240 0.445269 1.046844 0.023943 0.009330 -34042.100000 0 0 1
30.768670 14.433915 21.271267 40.093837 0.438632 1.011562 0.013209 -0.000985 316841.000000 0 0 1
29.657170 15.148315 21.762067 39.781990 0.472235 0.991980 0.022096 0.007810 -894211.000000 0 0 1
29.112970 14.511115 23.064067 39.875916 0.462400 0.954035 0.013137 0.004096 -33095.200000 0 0 1
28.668170 13.182715 22.980267 39.035120 0.431005 0.941337 0.014129 0.004246 140792.000000 0 0 1
28.034870 12.786815 24.185307 39.171235 0.427918 0.905331 0.013080 0.004250 -261528.000000 0 0 1
27.287470 11.491215 24.161137 38.215371 0.398577 0.886360 0.017554 0.001809 99396.200000 0 0 1
26.091970 11.467315 23.374867 36.860204 0.414085 0.883889 0.035289 0.003122 448552.000000 0 0 1
25.933570 10.184615 22.880167 36.052441 0.374214 0.883259 0.031240 0.000968 236258.000000 0 0 1
24.641970 10.021015 22.045367 34.549177 0.386238 0.878786 0.042316 -0.009973 -645317.000000 0 0 1
23.401170 9.865215 22.598367 33.994462 0.398961 0.843616 0.040093 -0.008803 -815243.000000 0 0 1
22.532470 9.074715 21.862867 32.680998 0.382866 0.837963 0.044896 -0.004932 -264736.000000 0 0 1
21.031170 9.335615 22.102367 31.905774 0.417765 0.805517 0.032469 -0.011073 -34005.200000 0 0 1
20.590170 8.793515 23.337467 32.340661 0.403626 0.764666 0.034687 -0.011150 405064.000000 0 0 1
19.183670 8.653815 23.414537 31.482412 0.423771 0.732157 0.046391 -0.018011 125436.000000 0 0 1
18.649270 7.822615 24.627927 31.867277 0.397169 0.687511 0.041650 -0.013545 -198309.000000 0 0 1
18.676570 6.420915 24.511037 31.477505 0.331137 0.678230 0.047319 -0.015068 282236.000000 0 0 1
18.352470 5.851115 25.773647 32.176538 0.308631 0.641820 0.046131 -0.019855 -159175.000000 0 0 1
18.482770 4.334215 25.793697 32.026755 0.230338 0.634481 0.045034 -0.022503 -1064450.000000 0 0 1
19.799570 4.029915 25.556807 32.579343 0.200793 0.668990 0.046539 -0.018368 -1075160.000000 0 0 1
20.039070 2.641515 25.452007 32.501486 0.131063 0.671157 0.058938 -0.019844 -790252.000000 0 0 1
21.502070 2.312115 25.306677 33.288328 0.107118 0.707134 0.064358 -0.021362 -952183.000000 0 0 1
22.340070 2.562115 26.400517 34.678963 0.114188 0.705506 0.067529 -0.031518 880917.000000 0 0 1
23.710970 2.592415 25.935597 35.236145 0.108901 0.743578 0.074415 -0.030219 1063850.000000 0 0 1
24.740270 2.890315 27.036937 36.761812 0.116299 0.744447 0.057902 -0.032238 -754257.000000 0 0 1
24.990070 1.756415 27.828627 37.443572 0.070169 0.732933 0.058328 -0.036281 782861.000000 0 0 1
25.909570 1.919715 28.957467 38.904062 0.073958 0.731265 0.053128 -0.021727 1396620.000000 0 0 1
27.399170 2.229815 28.600787 39.669782 0.081204 0.765593 0.056596 -0.029265 -1146750.000000 0 0 1
27.690470 3.578115 28.148217 39.647032 0.128506 0.781340 0.052650 -0.008095 573082.000000 0 0 1
29.080370 3.836215 27.969347 40.529851 0.131160 0.809179 0.050405 -0.002087 734696.000000 0 0 1
29.865270 2.895115 27.015337 40.375048 0.096637 0.837786 0.051275 -0.002652 -1035110.000000 0 0 1
29.292670 3.070815 25.741057 39.116396 0.104451 0.852553 0.043295 0.006520 29223.000000 0 0 1
29.592070 2.030615 24.866167 38.705817 0.068513 0.873118 0.046292 0.015969 -316039.000000 0 0 1
28.995370 2.261215 23.475747 37.375865 0.077828 0.891688 0.058424 0.007301 -6722.730000 0 0 1
29.527070 3.264815 22.639467 37.350399 0.110123 0.919601 0.052083 0.008147 -448878.000000 0 0 1
30.873970 3.005815 22.278167 38.191015 0.097052 0.947967 0.034230 0.008681 46205.300000 0 0 1
31.454770 4.322315 21.705767 38.460698 0.136558 0.971136 0.025167 0.004494 -497925.000000 0 0 1
30.956170 4.779315 20.433067 37.398349 0.153180 0.992781 0.033903 0.001725 48576.400000 0 0 1
31.415170 6.072015 19.970167 37.717235 0.190929 1.012820 0.032508 0.008887 744410.000000 0 0 1
32.956370 6.184315 19.648867 38.864457 0.185494 1.040749 0.018376 0.004376 1868820.000000 0 0 1
33.959670 6.241715 20.733667 40.275342 0.181769 1.030024 0.022658 -0.000196 1422370.000000 0 0 1
33.831870 7.413615 21.613467 40.825226 0.215721 1.012886 0.032293 -0.005697 -1145310.000000 0 0 1
34.711070 7.300215 22.832267 42.183693 0.207293 0.998864 0.036384 -0.001809 -480920.000000 0 0 1
34.264570 6.261615 23.717747 42.140243 0.180749 0.972992 0.032206 0.009995 195397.000000 0 0 1
35.140870 5.966015 24.775817 43.408699 0.168171 0.963369 0.029550 0.002935 -70201.800000 0 0 1
34.453670 4.980315 25.732527 43.289974 0.143557 0.934249 0.024458 0.006500 66929.500000 0 0 1
34.334170 3.678315 25.216027 42.757610 0.106726 0.940055 0.026859 0.000960 36254.700000 0 0 1
33.884570 2.726915 26.175497 42.904042 0.080304 0.914617 0.035893 0.004076 -61776.500000 0 0 1
33.879370 1.223815 25.756457 42.575868 0.036107 0.921088 0.019938 0.007558 -570732.000000 0 0 1
32.964670 0.884115 24.781757 41.250292 0.026814 0.926338 0.027312 0.002790 -425475.000000 0 0 1
32.889270 -0.536685 24.764757 41.173842 -0.016316 0.925459 0.029251 -0.003800 -497968.000000 0 0 1
31.923070 -1.074185 23.711857 39.780503 -0.033636 0.932202 0.041780 0.011270 822585.000000 0 0 1
30.529970 -1.011285 24.097947 38.907747 -0.033112 0.902868 0.044668 0.004074 577954.000000 0 0 1
29.841870 -1.636485 23.025467 37.727807 -0.054784 0.914351 0.060884 -0.001572 288169.000000 0 0 1
28.314470 -1.815685 23.226667 36.667206 -0.064038 0.884799 0.068369 0.000397 494555.000000 0 0 1
27.567470 -0.593585 23.152467 36.004923 -0.021529 0.872340 0.061040 0.002906 -74923.400000 0 0 1
26.233470 -0.865185 22.792467 34.762624 -0.032968 0.855740 0.067247 -0.000880 -97547.200000 0 0 1
25.307470 0.366815 22.719367 34.011354 0.014493 0.839287 0.072312 -0.004966 -137476.000000 0 0 1
25.447970 1.241015 21.672367 33.448928 0.048728 0.865940 0.064717 -0.011814 292549.000000 0 0 1
24.460470 2.278615 21.722367 32.792803 0.092887 0.846762 0.052405 -0.007007 386860.000000 0 0 1
24.429370 3.311415 20.535667 32.085405 0.134729 0.876257 0.045371 -0.007051 -177499.000000 0 0 1
24.025670 2.763515 19.307767 30.946077 0.114520 0.897052 0.058954 -0.005659 36451.000000 0 0 1
23.443370 3.796815 18.552067 30.136134 0.160563 0.907638 0.053116 -0.004127 -182498.000000 0 0 1
23.212470 3.519515 17.058967 29.020925 0.150476 0.942440 0.067988 -0.012928 227036.000000 0 0 1
24.439570 3.297515 16.362367 29.595494 0.134115 0.984996 0.073848 -0.017559 590133.000000 0 0 1
24.282570 3.244415 14.952067 28.700762 0.132824 1.022816 0.068648 -0.024863 -216785.000000 0 0 1
23.643470 2.005315 14.317067 27.713054 0.084612 1.027900 0.081130 -0.007609 -247326.000000 0 0 1
22.251370 1.874715 14.487667 26.618236 0.084053 0.995270 0.070106 -0.003578 87816.400000 0 0 1
21.814570 0.645215 13.985167 25.920584 0.029569 1.000907 0.074210 -0.001141 1278150.000000 0 0 1
20.236170 0.362115 14.062967 24.645501 0.017893 0.963548 0.068038 -0.022054 1964710.000000 0 1 0
19.276270 1.001915 13.214667 23.392431 0.051930 0.970470 0.059505 -0.016824 779181.000000 0 1 0
19.414370 0.878115 11.783967 22.727752 0.045199 1.025720 0.074756 -0.017707 -1015910.000000 0 1 0
19.395770 -0.555385 11.137267 22.372820 -0.028626 1.049732 0.084401 -0.018832 -153675.000000 0 1 0
20.497270 -1.425085 11.312067 23.454889 -0.069414 1.067529 0.080501 -0.027936 71558.400000 0 1 0
21.594470 -1.074685 10.484367 24.029108 -0.049726 1.119292 0.082639 -0.021169 -1008520.000000 0 1 0
22.800570 -1.889985 10.902467 25.343674 -0.082703 1.126099 0.101956 -0.028585 -796594.000000 0 0 1
23.195370 -1.421485 12.181567 26.238071 -0.061207 1.087985 0.094413 -0.031634 -41694.600000 0 0 1
24.064370 -2.312685 12.824767 27.366349 -0.095810 1.083054 0.073332 -0.026755 -198557.000000 0 0 1
24.381170 -1.958685 14.291867 28.329055 -0.080164 1.041999 0.104807 -0.028475 98388.900000 0 0 1
25.445970 -1.018885 14.346467 29.229379 -0.040020 1.057762 0.081864 -0.014497 123156.000000 0 0 1
25.694470 -0.684785 15.660267 30.098483 -0.026645 1.023593 0.083902 -0.027758 -523103.000000 0 0 1
26.966570 0.138515 15.737667 31.223216 0.005137 1.042529 0.090144 -0.020264 1045140.000000 0 0 1
28.234270 -0.603485 15.624467 32.274791 -0.021371 1.065453 0.077407 -0.020288 1388540.000000 0 0 1
29.323870 0.285215 15.743567 33.284089 0.009726 1.078097 0.062947 -0.012908 -703414.000000 0 0 1
30.627970 -0.493085 15.844367 34.487094 -0.016098 1.093444 0.056028 -0.009024 -719247.000000 0 0 1
31.107570 -0.790785 14.567667 34.358742 -0.025415 1.132953 0.071402 -0.010656 153585.000000 0 0 1
32.228570 -1.654485 14.715767 35.467899 -0.051291 1.142959 0.060611 -0.006539 62106.700000 0 0 1
32.723470 -2.342185 13.450467 35.457388 -0.071453 1.181712 0.065637 -0.008738 -45315.300000 0 0 1
33.417870 -1.471585 12.556367 35.729287 -0.044007 1.211698 0.062972 -0.006272 382586.000000 0 0 1
33.812270 -2.084385 11.312567 35.715381 -0.061568 1.248504 0.071225 -0.005530 17499.100000 0 0 1
32.954570 -1.604085 10.154067 34.520745 -0.048637 1.272237 0.086673 0.001831 -286502.000000 0 0 1
33.391870 -0.308285 9.948667 34.843765 -0.009232 1.281245 0.083039 0.002317 1028890.000000 0 0 1
32.406870 0.530315 9.296867 33.718217 0.016363 1.291455 0.066882 0.000213 213801.000000 0 0 1
32.916370 1.906815 8.876967 34.145628 0.057864 1.307801 0.061375 -0.004439 -565376.000000 0 0 1
33.850970 1.883515 7.855967 34.801609 0.055584 1.343098 0.069815 -0.005119 -120846.000000 0 0 1
34.210270 3.215915 7.590867 35.189571 0.093729 1.353374 0.063273 -0.003947 -60142.400000 0 0 1
34.661070 3.286415 6.094967 35.345989 0.094533 1.397493 0.054604 -0.006716 42444.800000 0 0 1
35.106470 4.561315 5.654167 35.850236 0.129204 1.412419 0.046602 -0.004303 378885.000000 0 0 1
35.684670 4.515215 4.334367 36.229402 0.125862 1.450872 0.055622 -0.007041 79588.300000 0 0 1
-35.970412 5.957915 3.912167 36.669774 -0.164144 1.463906 0.051106 -0.014832 423640.000000 0 0 1
34.998370 6.845415 3.843267 35.868040 0.193154 1.463440 0.058796 -0.020959 206377.000000 0 0 1
35.353670 8.162815 3.514067 36.453562 0.226914 1.474248 0.047190 -0.017672 -2164200.000000 0 0 1
34.267870 9.214815 3.501367 35.657528 0.262691 1.472444 0.077591 -0.029075 -358452.000000 0 0 1
33.272170 9.098315 2.500767 34.584252 0.266926 1.498424 0.091320 -0.032418 220066.000000 0 0 1
32.555570 7.891115 2.455267 33.588140 0.237803 1.497632 0.106614 -0.029047 -1259330.000000 0 0 1
31.305070 7.881115 1.504867 32.316931 0.246627 1.524214 0.120632 -0.032954 616437.000000 0 0 1
31.555370 7.831815 0.082167 32.512851 0.243277 1.568269 0.111833 -0.030077 174097.000000 0 0 1
30.298170 7.678215 -0.531933 31.260471 0.248197 1.587813 0.118398 -0.022837 -78678.700000 0 0 1
30.428870 7.517715 -2.104733 31.414361 0.242208 1.637846 0.077264 -0.015078 -302171.000000 0 0 1
29.321170 6.899715 -2.704633 30.243216 0.231111 1.660345 0.076468 -0.015351 531255.000000 0 0 1
29.684570 6.636815 -4.087433 30.690847 0.219961 1.704374 0.073913 -0.011196 -123329.000000 0 0 1
28.603870 5.982715 -4.983833 29.644778 0.206185 1.739717 0.079195 -0.004859 -429839.000000 0 0 1
28.411470 4.596615 -4.695533 29.161422 0.160397 1.732519 0.087942 -0.015276 448658.000000 0 0 1
27.573870 4.098115 -5.697033 28.452927 0.147543 1.772386 0.074962 -0.010598 -540078.000000 0 0 1
27.469270 2.523915 -5.736233 28.175083 0.091624 1.775822 0.075334 -0.001265 -451885.000000 0 0 1
26.805070 2.012015 -4.591333 27.269769 0.074921 1.739969 0.063543 -0.006387 521063.000000 0 0 1
26.753970 0.583315 -4.571333 27.147970 0.021799 1.739988 0.050404 -0.005190 -49903.900000 0 0 1
26.556470 0.058615 -3.084533 26.735068 0.002207 1.686428 0.058878 -0.004886 -698320.000000 0 0 1
27.673670 0.348915 -2.332633 27.773997 0.012608 1.654882 0.093963 -0.015304 -296523.000000 0 0 1
27.595570 0.036315 -1.007733 27.613988 0.001316 1.607298 0.093221 -0.013719 -146203.000000 0 0 1
28.944770 0.441415 -0.350633 28.950259 0.015249 1.582908 0.104586 -0.017407 53275.700000 0 0 1
30.006270 -0.417585 -0.690633 30.017122 -0.013916 1.593806 0.104658 -0.016391 163237.000000 0 0 1
31.209070 0.165715 -0.205933 31.210189 0.005310 1.577395 0.093855 -0.015460 1409.800000 0 0 1
-2.947330 -21.289585 -8.530014 23.123458 1.433231 1.948611 0.013628 0.004567 274526.000000 0 1 0
-3.108130 -21.645285 -7.162714 23.010504 1.428177 1.887336 0.015542 -0.001689 -345425.000000 0 1 0
-2.562930 -22.903785 -6.790214 24.026214 1.459360 1.857317 0.011505 0.003292 -110432.000000 0 1 0
-3.140030 -23.477685 -5.525214 24.322612 1.437840 1.799961 0.007963 0.003572 -396326.000000 0 1 0
-2.813430 -22.705485 -4.367514 23.292265 1.447515 1.759422 0.013353 -0.003963 -300556.000000 0 1 0
-3.420930 -23.208785 -3.229914 23.680853 1.424452 1.707616 0.013283 -0.015324 -708686.000000 0 1 0
-2.969030 -22.494385 -2.004214 22.777826 1.439565 1.658900 0.015516 -0.025823 -280434.000000 0 1 0
-1.607230 -22.768385 -1.789614 22.895092 1.500323 1.649042 0.033304 -0.017294 -740901.000000 0 1 0
-1.350430 -22.457585 -0.453914 22.502729 1.510736 1.590969 0.034109 -0.017775 380581.000000 0 1 0
0.148870 -22.444685 -0.060314 22.445259 -1.564164 1.573483 0.035840 -0.019938 418364.000000 0 1 0
0.874870 -21.277285 -0.419414 21.299393 -1.529702 1.590489 0.029756 -0.022547 675000.000000 0 1 0
2.199270 -21.296485 0.153986 21.410296 -1.467892 1.563604 0.031790 -0.016515 640323.000000 0 1 0
3.143070 -20.263085 -0.400914 20.509320 -1.416910 1.590345 0.034700 -0.015125 99253.900000 0 1 0
3.806970 -20.632685 -1.624514 21.043758 -1.388337 1.648070 0.026581 -0.011272 114050.000000 0 1 0
4.801970 -19.707985 -2.041714 20.387059 -1.331797 1.671112 0.032622 -0.010450 -75879.300000 0 1 0
5.621870 -20.146785 -3.230414 21.164450 -1.298673 1.724029 0.029124 -0.004826 -1065470.000000 0 1 0
6.403170 -21.287685 -2.884214 22.416173 -1.278613 1.699821 0.035744 -0.003140 441446.000000 0 1 0
7.339570 -21.878485 -3.799014 23.387387 -1.247124 1.733958 0.030316 0.001322 601538.000000 0 1 0
8.451070 -20.970785 -4.367814 23.027640 -1.187713 1.761629 0.033906 -0.003641 -717143.000000 0 1 0
8.033670 -19.936885 -5.199314 22.114522 -1.187745 1.808127 0.022274 -0.001240 -146417.000000 0 1 0
9.151670 -19.135085 -5.576414 21.931733 -1.124686 1.827881 0.033401 -0.014298 153802.000000 0 1 0
8.818770 -18.013885 -6.577514 21.107686 -1.115540 1.887691 0.019621 -0.005112 -548548.000000 0 1 0
9.575770 -18.143185 -7.740514 21.926834 -1.085166 1.931589 0.019964 0.012311 -15555.800000 0 1 0
9.415670 -16.998385 -8.595814 21.248245 -1.064952 1.987275 0.017877 0.014766 265953.000000 0 1 0
10.239870 -16.994185 -9.938014 22.190569 -1.028503 2.035154 0.024734 0.017195 105939.000000 0 1 0
9.622270 -17.724185 -10.953414 22.950208 -1.073429 2.068340 0.026598 0.017986 -33046.600000 0 1 0
8.944670 -16.865785 -11.855814 22.472697 -1.083169 2.126528 0.016261 0.004561 -169351.000000 0 1 0
8.245570 -17.518985 -13.027614 23.337158 -1.130891 2.163053 0.018472 0.000883 -142648.000000 0 1 0
7.051370 -18.150285 -12.637814 23.213552 -1.200244 2.146488 0.012077 0.003878 -19254.800000 0 1 0
6.293970 -18.629185 -13.726514 23.980779 -1.244981 2.180222 0.002434 0.004416 246286.000000 0 1 0
5.272070 -19.734885 -13.318114 24.385089 -1.309748 2.148567 0.005303 0.006699 23221.500000 0 1 0
5.824870 -21.013085 -12.878814 25.324744 -1.300384 2.104292 0.021749 0.003926 -187791.000000 0 0 1
4.847470 -21.982285 -12.554414 25.774641 -1.353753 2.079544 0.031911 0.008814 -18849.200000 0 0 1
5.361370 -23.431385 -12.360114 27.028623 -1.345857 2.045750 0.018602 0.001281 -605314.000000 0 0 1
5.752070 -24.072585 -13.580314 28.231198 -1.336247 2.072636 0.028232 -0.005583 -121917.000000 0 0 1
5.446870 -25.474325 -13.607914 29.390218 -1.360150 2.052182 0.031740 -0.006274 354546.000000 0 0 1
3.970270 -25.738045 -14.027514 29.580080 -1.417746 2.064876 0.031274 -0.015764 614234.000000 0 0 1
2.997070 -25.072535 -13.224214 28.504285 -1.451825 2.053231 0.037722 -0.007567 727077.000000 0 0 1
1.613970 -25.175265 -13.603914 28.661216 -1.506775 2.065357 0.039385 -0.017907 1313630.000000 0 0 1
0.825870 -26.387915 -13.038214 29.444849 -1.539509 2.029517 0.038156 -0.015558 -508923.000000 0 0 1
1.161670 -27.515965 -13.743914 30.779424 -1.528603 2.033679 0.044526 -0.011578 37023.900000 0 0 1
0.773470 -28.786615 -13.168314 31.664995 -1.543934 1.999688 0.033537 -0.002356 789793.000000 0 0 1
-0.686130 -29.275415 -13.468914 32.232473 1.547364 2.001893 0.018497 -0.007562 388813.000000 0 0 1
-1.747030 -28.517295 -13.011614 31.394112 1.509611 1.998146 0.015741 -0.012269 455561.000000 0 0 1
-3.017930 -29.116495 -13.376014 32.183783 1.467515 1.999414 0.013909 -0.007377 630316.000000 0 0 1
-4.254130 -28.287935 -12.983614 31.414632 1.421528 1.996870 0.011407 -0.012849 -124185.000000 0 0 1
-4.658630 -28.265585 -11.590614 30.902887 1.407449 1.955264 -0.000127 -0.018470 153659.000000 0 0 1
-5.037930 -29.564435 -11.084114 31.973334 1.402012 1.924812 -0.003594 -0.013150 -960206.000000 0 0 1
-5.598730 -29.618005 -9.640014 31.646514 1.383969 1.880331 -0.012381 -0.008804 -521149.000000 0 0 1
-6.912430 -29.186545 -9.489814 31.459381 1.338245 1.877222 -0.011446 -0.008907 -1402600.000000 0 0 1
-6.984330 -27.776355 -9.325514 30.120955 1.324455 1.885571 -0.000680 -0.006269 -444926.000000 0 0 1
-8.408030 -27.367165 -8.776614 29.944709 1.272719 1.868258 0.002153 -0.004253 1344220.000000 0 0 1
-9.520930 -27.613275 -9.644314 30.759614 1.238766 1.889713 0.019627 -0.006514 267085.000000 0 0 1
-9.692530 -28.937155 -10.088014 32.141439 1.247591 1.890055 0.026864 -0.017268 -2222760.000000 0 0 1
-10.914730 -29.169225 -10.975114 33.021631 1.212739 1.909602 0.050074 -0.022240 -560033.000000 0 0 1
-10.790730 -28.542745 -12.217614 32.869411 1.209350 1.951638 0.058751 -0.020877 -257312.000000 0 0 1
-11.774630 -29.104215 -13.017914 33.987693 1.186358 1.963858 0.069454 -0.022104 -456326.000000 0 0 1
-11.948530 -28.331025 -14.388714 33.947745 1.171684 2.008487 0.072449 -0.023120 80308.400000 0 0 1
-12.887530 -27.252105 -14.417714 33.416105 1.129063 2.016907 0.065707 -0.030797 47090.600000 0 0 1
-12.592730 -26.178595 -13.587614 32.070530 1.122438 2.008299 0.067433 -0.029578 -270495.000000 0 0 1
-13.577130 -24.989485 -13.620614 31.533061 1.073101 2.017447 0.087885 -0.031298 -356572.000000 0 0 1
-13.430730 -24.275585 -14.796314 31.442319 1.065453 2.060751 0.076975 -0.025446 403961.000000 0 0 1
-14.458730 -23.307085 -14.990214 31.256704 1.015542 2.070977 0.086962 -0.028565 876.227000 0 0 1
-14.187730 -22.512585 -16.334014 31.223519 1.008457 2.121318 0.075281 -0.022222 376601.000000 0 0 1
-13.037530 -21.660085 -16.319214 30.090749 1.028970 2.144008 0.072518 -0.018759 497638.000000 0 0 1
-12.893830 -20.978685 -17.518214 30.219925 1.019699 2.189146 0.048003 -0.009165 -616030.000000 0 0 1
-13.134730 -19.426485 -17.510714 29.266611 0.976274 2.212195 0.056219 -0.006369 147369.000000 0 0 1
-11.951730 -18.626185 -17.525514 28.229811 1.000304 2.240579 0.045436 0.003666 452830.000000 0 0 1
-12.219030 -17.225685 -17.393714 27.360011 0.953823 2.259757 0.052139 0.004613 176160.000000 0 0 1
-10.959130 -16.402085 -17.784114 26.559473 0.981764 2.304461 0.049841 -0.002235 475820.000000 0 0 1
-10.153830 -16.161285 -16.621514 25.309328 1.009841 2.287277 0.047598 0.004004 1763540.000000 0 0 1
-8.840030 -15.677185 -17.112314 24.834483 1.057360 2.330980 0.035263 0.006379 1714730.000000 0 1 0
-8.003530 -14.895885 -16.014714 23.289803 1.077757 2.329013 0.026197 0.011133 543767.000000 0 1 0
-7.566230 -15.631285 -14.822414 22.831751 1.119995 2.277331 0.034712 0.006468 132500.000000 0 1 0
-6.699530 -16.703885 -15.081414 23.480896 1.189363 2.268271 0.040121 0.010272 -984490.000000 0 1 0
-6.426930 -17.518785 -13.781214 23.197739 1.219182 2.206912 0.042506 0.005967 -489435.000000 0 1 0
-5.744630 -16.651785 -12.853514 21.805860 1.238595 2.201177 0.033968 -0.000173 338888.000000 0 1 0
-5.602530 -17.286385 -11.570014 21.542346 1.257378 2.137771 0.032672 -0.008291 -389064.000000 0 1 0
-4.606630 -18.465285 -11.472614 22.221805 1.326312 2.113295 0.037318 -0.008403 -1263190.000000 0 1 0
-3.323530 -17.943985 -11.613114 21.630923 1.387655 2.137526 0.020524 -0.008049 -759843.000000 0 1 0
-2.385630 -19.031385 -11.479514 22.353167 1.446094 2.110116 0.026675 -0.001378 433663.000000 0 1 0
-0.945030 -18.629085 -11.845114 22.096212 1.520111 2.136571 0.007500 0.010484 -859875.000000 0 1 0
-0.742330 -18.701785 -13.217914 22.913338 1.531124 2.185682 0.014722 0.017868 -1050600.000000 0 1 0
0.395470 -18.002485 -13.536814 22.527565 -1.548832 2.215423 0.007169 0.013839 -497703.000000 0 1 0
1.697570 -18.854185 -13.528014 23.267341 -1.481002 2.191265 0.014434 0.001827 -499216.000000 0 1 0
2.023470 -19.773985 -14.565714 24.642746 -1.468821 2.203187 0.037452 0.005918 -276758.000000 0 1 0
1.225070 -20.896285 -14.475814 25.450043 -1.512237 2.175834 0.032131 0.004036 -1205770.000000 0 0 1
1.201870 -21.713685 -15.777714 26.867542 -1.515502 2.198442 0.046639 0.000556 201154.000000 0 0 1
2.356970 -22.410285 -16.169114 27.734751 -1.466008 2.193202 0.040110 0.005291 138493.000000 0 0 1
3.579770 -21.703385 -16.281314 27.366637 -1.407328 2.207979 0.032379 -0.003588 551571.000000 0 0 1
4.900770 -22.561085 -16.406314 28.322910 -1.356897 2.188616 0.034064 -0.001932 918924.000000 0 0 1
5.090870 -22.923685 -17.738914 29.429260 -1.352264 2.217758 0.034661 0.001793 -68718.900000 0 0 1
6.392670 -23.369985 -18.028514 30.200161 -1.303786 2.210512 0.038234 -0.007058 27819.300000 0 0 1
6.825070 -23.346285 -19.517514 31.185957 -1.286381 2.247008 0.046769 0.000727 -225769.000000 0 0 1
6.757270 -22.049385 -20.033214 30.547761 -1.273423 2.286038 0.058108 -0.012827 -17228.500000 0 0 1
7.146570 -21.983885 -21.407214 31.506086 -1.256490 2.317827 0.047933 -0.011669 26189.700000 0 0 1
7.402070 -20.559685 -21.882014 30.924324 -1.225216 2.356891 0.041963 -0.014404 -552535.000000 0 0 1
6.246270 -19.832385 -22.051814 30.308775 -1.265678 2.385572 0.055456 -0.019169 -737943.000000 0 0 1
6.514470 -18.492085 -22.515814 29.855609 -1.232088 2.425166 0.065225 -0.017934 117156.000000 0 0 1
5.165970 -17.864685 -22.888414 29.490908 -1.289303 2.459282 0.055501 -0.016863 -170225.000000 0 0 1
4.403270 -18.555585 -23.902314 30.578082 -1.337804 2.468153 0.055037 -0.015536 430335.000000 0 0 1
3.300970 -17.828485 -24.400414 30.399530 -1.387718 2.502534 0.052135 -0.009260 533713.000000 0 0 1
1.961170 -17.714885 -23.624714 29.593756 -1.460538 2.495265 0.037778 0.005161 -139953.000000 0 0 1
2.109370 -17.109585 -22.352214 28.227802 -1.448129 2.484630 0.046125 0.001163 -169323.000000 0 0 1
1.228770 -16.017785 -22.380714 27.549513 -1.494233 2.519021 0.029188 0.000036 -150336.000000 0 0 1
1.196870 -15.229485 -21.084114 26.036696 -1.492369 2.514581 0.029361 0.003801 142998.000000 0 0 1
2.227370 -14.263785 -21.010014 25.491909 -1.415892 2.539555 0.034735 0.002201 -47936.900000 0 0 1
2.057870 -13.449485 -19.886014 24.095166 -1.418967 2.541550 0.035296 -0.004046 -258764.000000 0 1 0
3.225770 -12.518385 -19.586714 23.468168 -1.318600 2.558217 0.035235 -0.006983 -259773.000000 0 1 0
4.433770 -13.209285 -19.271314 23.780812 -1.246957 2.515584 0.030329 -0.006374 686001.000000 0 1 0
5.642470 -12.458785 -19.438514 23.767932 -1.145541 2.528454 0.040733 -0.001602 865610.000000 0 1 0
6.014770 -11.400285 -18.404114 22.468986 -1.085315 2.530619 0.034201 0.003747 -639887.000000 0 1 0
5.156870 -10.279685 -18.404214 21.702081 -1.105824 2.583070 0.016873 0.013327 -273830.000000 0 1 0
5.448870 -9.283085 -19.368814 22.158899 -1.040015 2.634350 0.032395 0.008593 -518927.000000 0 1 0
4.824170 -9.417585 -20.772214 23.311979 -1.097396 2.670457 0.044517 -0.004016 -396085.000000 0 1 0
3.450670 -9.122885 -20.682814 22.867289 -1.209185 2.700936 0.038482 -0.010605 -420065.000000 0 1 0
2.865070 -9.181285 -21.972414 23.985237 -1.268317 2.728991 0.051447 -0.017526 -829684.000000 0 1 0
1.371970 -8.983785 -21.890914 23.702379 -1.419251 2.748097 0.049011 -0.020769 -1017880.000000 0 1 0
0.990370 -7.664185 -21.768514 23.099540 -1.442288 2.800467 0.037621 -0.017906 -797202.000000 0 1 0
-0.401930 -7.528585 -21.720514 22.991778 1.517460 2.807499 0.032202 -0.018828 -162111.000000 0 1 0
-0.881530 -6.554485 -22.823614 23.762485 1.437106 2.859551 0.048446 -0.021271 -156997.000000 0 1 0
-0.519130 -7.042685 -24.110114 25.123027 1.497217 2.856665 0.055307 -0.020825 -150215.000000 0 0 1
-1.104630 -6.397985 -25.225954 26.048093 1.399829 2.889681 0.051328 -0.020209 31413.600000 0 0 1
-0.452930 -5.079885 -25.669774 26.171505 1.481870 2.945468 0.058620 -0.018446 -178807.000000 0 0 1
-1.075330 -4.510885 -26.811164 27.209243 1.336778 2.970326 0.056367 -0.015770 43785.800000 0 0 1
-0.534230 -3.210785 -27.127764 27.322337 1.405921 3.022178 0.039848 -0.011405 -161343.000000 0 0 1
-1.094230 -1.982685 -26.315524 26.412784 1.066501 3.055749 0.039660 -0.015114 1722250.000000 0 0 1
-2.527030 -1.700685 -26.286264 26.462159 0.592373 3.026229 0.031493 -0.018436 1403570.000000 0 0 1
-3.004430 -1.166585 -27.557314 27.745145 0.370369 3.025167 0.042799 -0.010875 121147.000000 0 0 1
-4.554130 -1.181485 -27.513104 27.912486 0.253835 2.972225 0.051635 -0.012762 160953.000000 0 0 1
-5.047730 -0.243585 -26.608664 27.084311 0.048219 2.953905 0.053096 -0.019929 -274284.000000 0 0 1
-6.418930 -0.500385 -26.383924 27.158138 0.077797 2.902243 0.049438 -0.032060 41434.700000 0 0 1
-7.232530 0.626415 -25.663754 26.670773 -0.086395 2.865921 0.049985 -0.026053 -239946.000000 0 0 1
-7.499630 1.807715 -26.454664 27.556515 -0.236529 2.857852 0.057843 -0.028041 848608.000000 0 0 1
-8.611230 1.704115 -27.349684 28.723901 -0.195370 2.831017 0.065023 -0.027264 -72175.700000 0 0 1
-10.066030 1.502115 -26.953234 28.810729 -0.148133 2.780546 0.053394 -0.029296 -1100240.000000 0 0 1
-10.966930 1.968715 -27.914414 30.056012 -0.177622 2.761813 0.052237 -0.029206 -618019.000000 0 0 1
-12.259230 1.621215 -27.494014 30.146938 -0.131482 2.718931 0.020104 -0.017325 -673751.000000 0 0 1
-13.295930 2.233615 -28.452454 31.485122 -0.166438 2.699082 0.009550 -0.007986 -476572.000000 0 0 1
-14.591530 1.741915 -28.125164 31.732820 -0.118816 2.660115 0.008917 -0.009258 223390.000000 0 0 1
-15.501930 2.173015 -29.129664 33.069157 -0.139270 2.648496 0.002453 -0.009697 706657.000000 0 0 1
-16.454930 3.406215 -28.709424 33.265568 -0.204120 2.612048 0.014296 -0.000527 226262.000000 0 0 1
-15.858130 4.694315 -28.688134 33.113832 -0.287801 2.618641 0.026419 -0.004616 11601.200000 0 0 1
-15.496130 5.311615 -29.926814 34.116821 -0.330220 2.640767 0.014368 -0.006701 -74863.600000 0 0 1
-16.676730 5.807715 -30.812284 35.513937 -0.335117 2.621174 0.011938 -0.000397 224375.000000 0 0 1
-17.395530 6.849515 -30.166964 35.490365 -0.375108 2.586790 0.017930 0.004006 -115499.000000 0 0 1
-18.105630 7.693915 -30.977224 36.696029 -0.401825 2.575788 0.009897 -0.000783 -819974.000000 0 0 1
-18.838130 8.766215 -30.117284 36.589239 -0.435541 2.537677 0.021376 -0.005693 -603177.000000 0 0 1
-18.006530 9.691715 -29.493174 35.888881 -0.493764 2.535344 0.019131 -0.004348 -163778.000000 0 0 1
-18.704630 10.696415 -28.803654 35.971196 -0.519471 2.499330 0.038179 -0.005697 -141252.000000 0 0 1
-8.433430 24.942715 31.119857 40.764044 -1.244751 0.702213 0.006612 -0.003572 -835916.000000 0 0 1
-9.171130 26.145915 31.116207 41.664575 -1.233438 0.727519 0.015616 -0.004169 64976.100000 0 0 1
-8.673930 27.186315 31.954177 42.841595 -1.261951 0.728959 0.026857 -0.010221 267905.000000 0 0 1
-7.306330 27.870215 31.694397 42.833003 -1.314410 0.737796 0.026485 -0.011086 166839.000000 0 0 1
-7.414530 28.971315 30.761677 42.902134 -1.320248 0.771279 0.043042 -0.008681 1018890.000000 0 0 1
-6.126130 29.212815 30.162297 42.434446 -1.364085 0.780165 0.048487 -0.010433 704814.000000 0 0 1
-6.149730 30.338915 29.156247 42.524766 -1.370805 0.815328 0.062474 -0.015816 -190900.000000 0 0 1
-6.263030 31.644515 29.760377 43.889417 -1.375403 0.825654 0.068154 -0.025295 308610.000000 0 0 1
-6.372630 32.784215 28.924487 44.181910 -1.378809 0.857053 0.060687 -0.028736 -342423.000000 0 0 1
-6.864630 33.930015 29.765197 45.654529 -1.371174 0.860622 0.066719 -0.029219 -570643.000000 0 0 1
-5.955630 34.268615 30.804627 46.462163 -1.398722 0.845971 0.080439 -0.032281 -59835.600000 0 0 1
-6.549230 -33.683619 31.840777 46.811470 1.378759 0.822772 0.065141 -0.035010 -140638.000000 0 0 1
-7.387730 34.197015 32.856803 47.995666 -1.358032 0.816771 0.043044 -0.028379 -149066.000000 0 0 1
-6.727930 33.187515 33.601375 47.704597 -1.370782 0.789270 0.062258 -0.023735 -114987.000000 0 0 1
-6.781830 31.901715 33.082066 46.455740 -1.361329 0.778283 0.064097 -0.021656 -126977.000000 0 0 1
-6.557830 30.864215 34.192777 46.526884 -1.361436 0.745272 0.062691 -0.018158 149103.000000 0 0 1
-5.209630 30.685715 -33.893604 46.016625 -1.402626 2.398754 0.057519 -0.027867 -158098.000000 0 0 1
-5.264130 30.306915 -32.506284 44.753532 -1.398818 2.383778 0.064438 -0.016812 -1269650.000000 0 0 1
-3.954330 30.223215 -31.777564 44.032863 -1.440698 2.377020 0.045178 -0.022182 -403474.000000 0 0 1
-3.054030 29.153015 -32.002994 43.398353 -1.466418 2.400045 0.039011 -0.012069 430054.000000 0 0 1
-2.593130 28.898515 -33.333874 44.192710 -1.481304 2.425360 0.044070 -0.013918 -665185.000000 0 0 1
-1.985930 27.453315 -33.484154 43.345323 -1.498584 2.453561 0.033191 -0.018081 -680324.000000 0 0 1
-0.739730 27.215115 -32.871944 42.682249 -1.543622 2.449880 0.042624 -0.011303 35647.900000 0 0 1
-0.233630 25.903715 -33.070714 42.008679 -1.561777 2.477109 0.046147 -0.005102 212220.000000 0 0 1
0.198770 25.526715 33.920977 42.453332 1.563010 0.645136 0.041075 -0.001182 -486461.000000 0 0 1
-0.953630 25.293315 33.124534 41.688079 -1.533111 0.652480 0.032401 -0.000736 172780.000000 0 0 1
-0.777730 25.254015 31.729717 40.560388 -1.540010 0.672473 0.054556 -0.000069 -257059.000000 0 0 1
-0.405830 26.549915 30.981767 40.803585 -1.555512 0.708574 0.041879 -0.008059 150937.000000 0 0 1
-1.417830 27.534015 31.135197 41.587651 -1.519348 0.724751 0.034120 -0.011500 34201.600000 0 0 1
-1.030230 28.791915 30.629407 42.049927 -1.535030 0.754804 0.045761 -0.009906 128712.000000 0 0 1
-2.082530 29.937515 30.760637 42.974510 -1.501346 0.773045 0.051977 -0.018684 176667.000000 0 0 1
-2.174230 30.389715 32.088977 44.248893 -1.499373 0.759482 0.060574 -0.011472 -14267.200000 0 0 1
-3.011130 31.520015 32.181297 45.146585 -1.475555 0.777288 0.069759 -0.008722 11739.100000 0 0 1
-2.369830 32.479815 33.179275 46.491061 -1.497962 0.776073 0.080413 -0.014014 -315297.000000 0 0 1
-1.106030 32.949015 32.815904 46.516067 -1.537241 0.787704 0.070155 -0.027246 -739401.000000 0 0 1
-0.477030 33.348415 34.015738 47.638375 -1.556493 0.775543 0.059267 -0.020214 -520950.000000 0 0 1
0.903970 33.914915 33.706064 47.824025 1.544149 0.788664 0.075058 -0.022962 -575888.000000 0 0 1
0.840070 -33.472019 33.115570 47.092704 -1.545704 0.790909 0.087536 -0.030523 -308578.000000 0 0 1
2.049470 -32.999719 32.608722 46.438244 -1.508770 0.792320 0.062632 -0.032344 -453644.000000 0 0 1
1.847570 -31.542419 32.096427 45.039076 -1.512289 0.777549 0.067424 -0.023956 1399.130000 0 0 1
1.769970 -30.603219 33.141614 45.144838 -1.513025 0.746430 0.066632 -0.014065 43293.100000 0 0 1
1.968870 -29.293819 32.732263 43.970505 -1.503686 0.731139 0.050496 -0.025264 -246023.000000 0 0 1
1.740570 -28.329019 33.904581 44.216326 -1.509432 0.696973 0.043280 -0.028694 105757.000000 0 0 1
0.374370 -28.411019 -34.197751 44.461357 -1.557620 2.448317 0.027423 -0.023459 172558.000000 0 0 1
0.126870 -27.611519 -33.079634 43.089143 -1.566202 2.446044 0.021229 -0.021749 723018.000000 0 0 1
-1.413430 -27.698719 -32.784374 42.942193 1.519812 2.439440 0.042311 -0.022028 644731.000000 0 0 1
-1.751930 -26.827719 -31.731584 41.589532 1.505586 2.438692 0.046870 -0.016004 -248329.000000 0 0 1
-3.115930 -26.501119 -31.756634 41.478936 1.453756 2.442783 0.045822 -0.028628 -374624.000000 0 0 1
-3.594130 -25.775119 -30.495634 40.090625 1.432248 2.435137 0.047816 -0.030022 -427992.000000 0 0 1
-3.889430 -26.727319 -29.499744 39.996401 1.426288 2.400246 0.046884 -0.022398 194026.000000 0 0 1
-4.374130 -26.213919 -28.259534 38.793090 1.405457 2.386880 0.052854 -0.017267 487626.000000 0 0 1
-3.237430 -25.855319 -27.231584 37.690020 1.446231 2.378229 0.052304 -0.027963 330358.000000 0 0 1
-2.774730 -24.546519 -27.471024 36.944389 1.458234 2.409202 0.053536 -0.022105 -786271.000000 0 0 1
-1.665930 -24.386519 -26.670944 36.177574 1.502589 2.399747 0.048618 -0.019256 -1762670.000000 0 0 1
-0.730630 -23.287919 -27.220234 35.830184 1.539433 2.433650 0.034898 -0.018167 371927.000000 0 0 1
-0.030530 -23.482019 -28.479714 36.912061 1.569496 2.452079 0.012735 -0.024444 313015.000000 0 0 1
0.711270 -24.698219 -28.500724 37.720010 -1.542006 2.427345 0.021019 -0.017162 -1022760.000000 0 0 1
1.558370 -24.892919 -29.751674 38.823292 -1.508275 2.443914 0.014963 -0.021148 -192635.000000 0 0 1
2.607370 -23.952719 -29.757684 38.289044 -1.462368 2.460977 0.015938 -0.022746 69415.500000 0 0 1
3.516570 -24.279619 -30.796444 39.373685 -1.426960 2.468918 0.017930 -0.020349 -253530.000000 0 0 1
4.620770 -23.209519 -31.117314 39.093740 -1.374276 2.491399 0.032582 -0.025782 -54603.800000 0 0 1
5.820470 -23.266519 -30.357984 38.688706 -1.325662 2.472965 0.033534 -0.026123 797718.000000 0 0 1
6.716570 -24.373419 -30.455484 39.581717 -1.301901 2.448749 0.048246 -0.016237 -264505.000000 0 0 1
7.224470 -24.695719 -31.883534 40.971102 -1.286198 2.462584 0.060673 -0.014581 -1696010.000000 0 0 1
6.174170 -25.213419 -32.601624 41.673766 -1.330646 2.469155 0.017094 -0.015713 -675411.000000 0 0 1
6.402170 -25.410919 -33.998354 42.925408 -1.323987 2.484929 0.036268 -0.013317 -102023.000000 0 0 1
6.175070 -24.063219 33.765525 41.919932 -1.319598 0.634317 0.052565 -0.020044 -355877.000000 0 0 1
4.886870 -23.529319 33.860903 41.521935 -1.366015 0.617214 0.060579 -0.028639 -480531.000000 0 0 1
4.612170 -22.386419 33.087861 40.214803 -1.367614 0.604515 0.082883 -0.041193 75503.200000 0 0 1
3.189870 -21.793819 33.332773 39.952717 -1.425462 0.583924 0.059576 -0.043709 890154.000000 0 0 1
2.059570 -22.539619 32.899268 39.932920 -1.479674 0.602603 0.051251 -0.038611 234660.000000 0 0 1
1.567570 -23.363019 33.947304 41.239634 -1.503801 0.603822 0.046589 -0.032029 131586.000000 0 0 1
0.220170 -24.047019 33.528945 41.261335 -1.561641 0.622198 0.046983 -0.032682 505203.000000 0 0 1
0.319470 -25.007719 32.506677 41.014292 -1.558022 0.655785 0.053094 -0.034206 886292.000000 0 0 1
-0.984830 -25.582319 32.262107 41.185780 1.532319 0.670789 0.062569 -0.037776 833963.000000 0 0 1
-0.962630 -26.736419 31.259237 41.144898 1.534807 0.707890 0.068616 -0.036107 -530558.000000 0 0 1
-2.178330 -26.996219 30.630787 40.887481 1.490281 0.724021 0.057982 -0.038581 -403719.000000 0 0 1
-2.123730 -28.126819 29.820177 41.047182 1.495434 0.757603 0.067526 -0.040888 121281.000000 0 0 1
-3.465830 -28.352719 29.075097 40.758434 1.449160 0.776527 0.064793 -0.032143 727319.000000 0 0 1
-4.520230 -28.843619 29.944057 41.821446 1.415346 0.772744 0.054877 -0.027951 983676.000000 0 0 1
-5.620030 -29.197419 29.091007 41.597605 1.380638 0.796318 0.049158 -0.021985 -118786.000000 0 0 1
-6.873030 -29.712419 29.785117 42.628859 1.343476 0.797207 0.032809 -0.016939 -432046.000000 0 0 1
-7.926730 -30.064419 28.913497 42.458128 1.313005 0.821685 0.045850 -0.014845 957406.000000 0 0 1
-9.228630 -30.321119 29.482977 43.287224 1.275342 0.821531 0.035583 -0.011932 1108220.000000 0 0 1
-9.444430 -31.459919 30.508617 44.829672 1.279151 0.822290 0.024742 -0.009498 -771543.000000 0 0 1
-9.415530 -32.781819 30.009497 45.429834 1.291107 0.849221 0.041649 -0.013231 -135783.000000 0 0 1
-10.612330 -33.284619 29.465857 45.702562 1.262150 0.870125 0.027200 -0.009943 -299414.000000 0 0 1
-10.500030 33.975315 29.029027 45.904870 -1.271059 0.886183 0.049665 -0.009964 -668874.000000 0 0 1
-10.298930 33.126315 30.085337 45.918931 -1.269371 0.856371 0.051776 -0.004657 201473.000000 0 0 1
-10.194430 31.767715 29.652037 44.635831 -1.260272 0.844226 0.050043 -0.011661 -153854.000000 0 0 1
-10.412030 30.871915 30.864697 44.878893 -1.245511 0.812435 0.052991 0.001465 -175742.000000 0 0 1
-11.730030 31.009815 31.320717 45.609095 -1.209163 0.813828 0.040211 0.008878 -396847.000000 0 0 1
-12.305430 29.772115 31.702777 45.198103 -1.178860 0.793411 0.038275 0.003666 132335.000000 0 0 1
-12.379830 29.566215 33.214436 46.158640 -1.174261 0.767611 0.050348 -0.009500 -497843.000000 0 0 1
-13.370530 30.307815 33.842324 47.356495 -1.155320 0.774703 0.053874 0.009845 -206019.000000 0 0 1
-13.718330 29.702215 -33.374084 46.735892 -1.138122 2.366133 0.064144 0.009297 20498.900000 0 0 1
-14.955630 30.270515 -32.650004 46.968050 -1.111907 2.339430 0.042773 0.010996 60115.000000 0 0 1
-15.319830 29.453715 -31.562834 45.808635 -1.091173 2.330925 0.035106 0.006028 -268462.000000 0 0 1
-16.414130 29.962315 -30.848294 46.030221 -1.069624 2.305241 0.042617 0.006802 -37178.800000 0 0 1
-16.327630 29.464315 -29.424104 44.727120 -1.064773 2.288768 0.049821 -0.004556 26896.000000 0 0 1
-16.790330 28.110015 -29.333634 43.960780 -1.032359 2.301331 0.044311 -0.011093 126014.000000 0 0 1
-16.747230 27.581515 -28.043204 42.750801 -1.025107 2.286262 0.045522 -0.018239 -233268.000000 0 0 1
-17.543430 26.273915 -27.933674 42.170851 -0.982070 2.294805 0.016560 -0.016044 543633.000000 0 0 1
-18.957130 26.400415 -28.133214 42.986421 -0.948051 2.284274 0.016689 -0.010133 498943.000000 0 0 1
-19.507730 25.106115 -27.862344 42.275037 -0.910231 2.290382 0.001629 -0.008557 674225.000000 0 0 1
-21.020830 24.898515 -28.210434 43.100347 -0.869644 2.284356 0.038853 -0.007619 413803.000000 0 0 1
-21.921930 25.593615 -27.363724 43.409418 -0.862518 2.252818 0.031694 -0.001101 135400.000000 0 0 1
-23.214630 25.321715 -27.897184 44.253375 -0.828783 2.252861 0.021174 -0.008297 418115.000000 0 0 1
-24.337730 25.401415 -26.818594 44.235664 -0.806780 2.222154 0.039446 -0.017369 106109.000000 0 0 1
-24.521530 26.656015 -26.259094 44.736882 -0.827081 2.198104 0.017232 0.006127 -349320.000000 0 0 1
-25.459460 26.608515 -25.208974 44.628349 -0.807463 2.171065 0.021545 0.018606 -425341.000000 0 0 1
-25.091240 25.975115 -23.832414 43.269630 -0.802705 2.154105 0.017062 0.002137 -793030.000000 0 0 1
-24.981630 24.586115 -23.787014 42.360134 -0.777419 2.167045 0.024830 -0.005032 439010.000000 0 0 1
-26.167610 23.756115 -23.749514 42.580937 -0.737132 2.162469 0.025826 -0.006405 704552.000000 0 0 1
-27.004950 23.697715 -22.405714 42.342237 -0.720262 2.128404 0.026169 -0.011974 170490.000000 0 0 1
-26.307480 23.168315 -21.284514 41.010790 -0.722035 2.116475 0.027617 -0.016543 -95913.000000 0 0 1
-25.344840 24.023415 -20.773114 40.632593 -0.758638 2.107426 0.032492 -0.008640 -634610.000000 0 0 1
-24.385330 23.510215 -19.693714 39.181844 -0.767129 2.097427 0.043417 -0.015029 -138873.000000 0 0 1
-24.844130 23.440915 -18.362514 38.780011 -0.756345 2.064062 0.039327 -0.022274 325609.000000 0 0 1
-23.741930 23.369515 -17.470014 37.616683 -0.777493 2.053778 0.049653 -0.022153 277461.000000 0 0 1
-24.260730 23.414015 -16.020514 37.329023 -0.767640 2.014370 0.038918 -0.020342 114951.000000 0 0 1
-24.579230 24.753815 -15.650214 38.233743 -0.788937 1.992516 0.038400 -0.022588 -150456.000000 0 0 1
-25.265360 24.758115 -14.442714 38.208568 -0.775258 1.958428 0.007934 -0.016487 -78257.900000 0 0 1
-25.308080 26.272015 -13.884614 39.032041 -0.804084 1.934484 0.011768 -0.010388 1112040.000000 0 0 1
-24.024330 26.736615 -13.376614 38.352951 -0.838780 1.927062 0.024064 -0.008915 738763.000000 0 0 1
-24.021630 27.724515 -12.389614 38.719375 -0.856835 1.896510 0.026048 -0.005549 644429.000000 0 0 1
-22.617130 28.164315 -11.820614 38.006449 -0.894203 1.887058 0.032254 -0.005395 724564.000000 0 0 1
-21.891130 27.139315 -11.172914 36.614178 -0.892031 1.880895 0.035292 -0.008097 1286870.000000 0 0 1
-20.655730 27.672415 -10.605014 36.123234 -0.929579 1.868765 0.033147 -0.005791 687022.000000 0 0 1
-19.616630 26.703715 -10.104114 34.640925 -0.937222 1.866781 0.059446 -0.005672 -471869.000000 0 0 1
-19.045030 25.860715 -11.024314 33.956226 -0.936026 1.901451 0.055327 -0.011057 -182848.000000 0 0 1
-18.258930 24.859515 -10.434814 32.561778 -0.937299 1.897014 0.055575 -0.007115 -357856.000000 0 0 1
-17.957730 23.762115 -11.392414 31.888952 -0.923638 1.936121 0.057724 -0.008280 -95168.600000 0 0 1
-17.497730 22.586715 -10.797114 30.543542 -0.911679 1.932105 0.050433 -0.010244 -190275.000000 0 0 1
-16.827030 21.781915 -11.688814 29.903664 -0.913036 1.972386 0.045964 -0.006868 -82754.200000 0 0 1
-16.585230 20.282215 -11.305114 28.534956 -0.885342 1.978154 0.039029 0.002400 -269872.000000 0 0 1
-17.772030 19.526515 -11.286314 28.714295 -0.832402 1.974749 0.039755 0.010036 -127429.000000 0 0 1
-17.561230 18.250715 -10.680314 27.487352 -0.804649 1.969858 0.049285 0.003562 -633942.000000 0 0 1
-18.853730 17.403415 -10.688514 27.795437 -0.745419 1.965508 0.039115 0.006015 801.030000 0 0 1
-19.273730 17.017615 -11.973614 28.362710 -0.723311 2.006624 0.034779 0.011713 25450.000000 0 0 1
-20.029730 18.014715 -12.633114 29.754254 -0.732483 2.009296 0.037323 0.014462 -683196.000000 0 0 1
-20.726930 17.385115 -13.887214 30.408923 -0.697938 2.045059 0.037162 0.011000 769060.000000 0 0 1
-19.826130 17.265515 -15.046314 30.291336 -0.716473 2.090612 0.030306 0.008843 603831.000000 0 0 1
-20.479230 16.741115 -16.174714 31.004599 -0.685302 2.119624 0.040700 0.004965 -238724.000000 0 0 1
-19.655930 16.462915 -17.444614 31.011251 -0.697224 2.168233 0.051584 0.001188 -534633.000000 0 0 1
-18.953630 17.603015 -17.833714 31.418905 -0.748469 2.174397 0.039967 -0.006988 107638.000000 0 0 1
-18.125230 17.313215 -18.931314 31.411240 -0.762489 2.217667 0.040944 -0.002466 -392042.000000 0 0 1
-17.207330 18.408815 -19.486414 31.854309 -0.819120 2.229049 0.027240 0.001749 -858655.000000 0 0 1
-16.044630 18.700415 -18.811414 31.000080 -0.861686 2.222848 0.024392 0.003259 -574214.000000 0 0 1
-15.642530 20.031315 -18.967614 31.712974 -0.907808 2.211928 0.020184 -0.003409 -6188.510000 0 0 1
32.604161 31.200215 1.487086 45.151924 0.763398 1.537855 0.056307 -0.006941 377732.000000 0 0 1
33.924121 30.895415 1.055386 45.896476 0.738707 1.547799 0.058057 -0.002069 336146.000000 0 0 1
34.316791 31.779115 0.006186 46.771299 0.747023 1.570664 0.043572 0.001141 -452618.000000 0 0 1
35.734621 31.637915 -0.540014 47.730624 0.724666 1.582110 0.021892 0.002566 -947384.000000 0 0 1
-35.419444 32.226315 0.269286 47.886793 -0.738229 1.565173 0.015164 0.002557 -98469.800000 0 0 1
-34.141338 32.145715 -0.363514 46.894671 -0.755301 1.578548 0.017930 0.002350 -12957.100000 0 0 1
-33.135860 33.230715 -0.003714 46.928304 -0.786827 1.570875 0.007784 0.000651 -114913.000000 0 0 1
-32.444950 32.952315 1.223886 46.260434 -0.793156 1.544337 0.026348 -0.001607 178806.000000 0 0 1
-32.079960 34.141815 1.866586 46.885729 -0.816524 1.530974 0.007836 -0.007704 -415959.000000 0 0 1
-31.218030 33.948715 3.109286 46.224975 -0.827277 1.503481 0.022421 0.009278 -281052.000000 0 0 1
-30.986160 -33.511619 3.727986 45.793762 0.824534 1.489298 0.013084 0.009034 -11042.700000 0 0 1
-30.346900 -33.615019 4.980386 45.559940 0.836449 1.461262 0.024447 -0.005230 -407946.000000 0 0 1
-30.169530 -32.275619 5.801686 44.559799 0.819112 1.440226 0.026766 -0.003182 246311.000000 0 0 1
-31.368150 -31.744719 6.354186 45.078417 0.791365 1.429367 0.033325 -0.005915 468953.000000 0 0 1
-31.890900 -32.424919 7.484886 46.091522 0.793701 1.407682 0.043389 -0.022879 -889243.000000 0 0 1
-33.067370 -31.783119 8.226986 46.597220 0.765597 1.393311 0.059826 -0.025974 690058.000000 0 0 1
-34.411196 -31.750619 7.761486 47.460224 0.745207 1.406522 0.045940 -0.014189 612205.000000 0 0 1
-35.054511 -32.863119 7.220186 48.589448 0.753144 1.421648 0.039791 -0.015751 316257.000000 0 0 1
35.499791 -32.720719 6.946186 48.776328 -0.744684 1.427902 0.033855 -0.006516 909066.000000 0 0 1
34.696791 -32.785519 8.100686 48.418785 -0.757083 1.402701 0.030068 -0.004424 -293636.000000 0 0 1
33.330961 -32.725919 7.791586 47.356600 -0.776239 1.405515 0.007321 0.009050 -451502.000000 0 0 1
32.523941 -32.791719 9.089086 47.071383 -0.789498 1.376484 0.010482 -0.003723 403243.000000 0 0 1
31.112161 -32.592219 8.905286 45.929549 -0.808627 1.375670 0.020264 -0.006538 1243570.000000 0 0 1
30.334131 -32.586319 10.124386 45.656663 -0.821177 1.347187 0.031269 -0.007759 257418.000000 0 0 1
30.544191 -31.384219 11.165086 45.194867 -0.798962 1.321169 0.030446 -0.006599 -221004.000000 0 0 1
30.021351 -30.076219 10.733786 43.830066 -0.786311 1.323384 0.028703 -0.008859 406436.000000 0 0 1
30.745871 -29.441319 9.696686 43.659198 -0.763727 1.346829 0.034832 -0.014718 -248347.000000 0 0 1
30.109851 -28.118819 9.332986 42.241872 -0.751218 1.348017 0.036798 -0.021374 -256567.000000 0 0 1
30.566431 -27.539219 8.143686 41.940851 -0.733347 1.375384 0.038753 -0.020399 -277757.000000 0 0 1
29.814071 -26.387919 7.823886 40.576031 -0.724512 1.376761 0.044720 -0.023837 54132.300000 0 0 1
29.789931 -25.881619 6.339286 39.968547 -0.715310 1.411517 0.032900 -0.009960 313808.000000 0 0 1
31.087621 -25.573019 5.869286 40.680069 -0.688377 1.426012 0.038238 -0.012271 -240217.000000 0 0 1
30.996261 -25.172719 4.503686 40.183544 -0.682088 1.458482 0.035540 -0.007970 364523.000000 0 0 1
32.361761 -24.846219 3.847286 40.980725 -0.654774 1.476777 0.052990 -0.011297 385555.000000 0 0 1
33.281191 -25.911819 3.797086 42.349474 -0.661538 1.481015 0.041319 -0.005752 36587.800000 0 0 1
34.570571 -25.438519 3.428886 43.058099 -0.634379 1.491078 0.044765 -0.010004 754409.000000 0 0 1
35.707591 -26.499819 3.493286 44.603537 -0.638448 1.492397 0.036778 -0.007930 303547.000000 0 0 1
35.717021 -26.959919 4.830586 45.009748 -0.646579 1.463266 0.023471 -0.004524 -116340.000000 0 0 1
-35.890468 -28.293719 4.842986 45.957750 0.667588 1.465221 0.022819 -0.009822 -1005640.000000 0 0 1
35.565981 -29.123319 5.953386 46.352449 -0.686132 1.442003 0.027836 -0.004814 184702.000000 0 0 1
34.334341 -29.758419 5.672486 45.788510 -0.714124 1.446593 0.009859 0.002728 133750.000000 0 0 1
33.217461 -28.900719 5.854586 44.417648 -0.716017 1.438604 0.016132 0.001474 -743759.000000 0 0 1
31.872801 -29.494619 5.481886 43.770528 -0.746664 1.445225 0.024562 -0.003372 -814895.000000 0 0 1
31.853361 -29.656319 4.048886 43.709580 -0.749695 1.478032 0.025501 -0.010052 649306.000000 0 0 1
30.663551 -29.122919 3.464786 42.431151 -0.759635 1.489049 0.031185 -0.009353 1454320.000000 0 0 1
29.220131 -29.715019 3.665686 41.835818 -0.793795 1.483063 0.033356 -0.004665 790351.000000 0 0 1
29.098761 -31.049919 3.237886 42.676918 -0.817826 1.494854 0.040658 -0.004153 -113482.000000 0 0 1
27.746981 -31.458419 3.108486 42.061738 -0.848004 1.496826 0.060348 -0.009454 -38453.900000 0 0 1
27.685071 -32.906619 2.604986 43.082418 -0.871362 1.510294 0.053927 -0.012466 -364293.000000 0 0 1
27.934941 -32.927319 1.259486 43.199023 -0.867242 1.541637 0.058175 -0.014594 71401.000000 0 0 1
27.849601 -34.276419 0.875186 44.172833 -0.888480 1.550982 0.062350 -0.008644 -124261.000000 0 0 1
27.746391 34.047515 -0.599114 43.925556 0.887017 1.584436 0.055660 -0.012049 -302265.000000 0 0 1
28.815071 -34.173519 -1.380114 44.721834 -0.870264 1.601661 0.058843 -0.019303 70989.700000 0 0 1
28.497221 34.332015 -2.762114 44.703559 0.878000 1.632623 0.057169 -0.016509 -416454.000000 0 0 1
29.485331 -33.793419 -3.773114 45.006848 -0.853374 1.654729 0.055549 -0.016836 -226956.000000 0 0 1
29.523791 -32.395519 -3.878414 44.001886 -0.831744 1.659053 0.048469 -0.014286 -222180.000000 0 0 1
30.453141 -31.953619 -4.813514 44.402675 -0.809437 1.679416 0.056156 -0.018105 -491812.000000 0 0 1
30.869231 -30.485319 -4.623414 43.630724 -0.779141 1.676963 0.041206 -0.004667 -565650.000000 0 0 1
29.846561 -29.519619 -4.789314 42.251185 -0.779891 1.684394 0.034323 -0.015307 -62757.000000 0 0 1
30.189391 -28.129619 -4.719014 41.532444 -0.750094 1.684665 0.028257 -0.012845 -378293.000000 0 0 1
31.093631 -27.563919 -5.826114 41.958636 -0.725296 1.710100 0.036868 -0.017090 13147.200000 0 0 1
32.365061 -28.182319 -5.756014 43.299792 -0.716426 1.704125 0.043175 -0.013687 37303.500000 0 0 1
33.402701 -27.619219 -6.553514 43.835035 -0.690903 1.720863 0.040696 -0.019038 492485.000000 0 0 1
33.555781 -28.307019 -7.917314 44.608986 -0.700756 1.749224 0.034969 -0.016614 183216.000000 0 0 1
32.305821 -28.159119 -8.622014 43.714313 -0.716925 1.769334 0.030852 -0.012346 699605.000000 0 0 1
32.175551 -29.038219 -9.762514 44.427367 -0.734191 1.792345 0.019543 -0.004501 173233.000000 0 0 1
32.051391 -30.564819 -9.349114 45.264840 -0.761662 1.778836 0.021417 -0.012940 726780.000000 0 0 1
33.321221 -31.205219 -9.112714 46.552240 -0.752617 1.767821 0.028880 -0.006703 476360.000000 0 0 1
33.075911 -32.397219 -8.394114 47.053766 -0.775033 1.750150 0.036315 -0.017791 342085.000000 0 0 1
34.383941 -33.106519 -7.962514 48.391101 -0.766473 1.736093 0.029420 -0.014442 229306.000000 0 0 1
34.371041 34.317815 -7.289914 49.114395 0.784623 1.719774 0.031853 -0.022149 -382197.000000 0 0 1
33.803781 34.326415 -5.989914 48.547683 0.793069 1.694494 0.033565 -0.016507 -30756.900000 0 0 1
33.903701 33.014915 -5.252114 47.613342 0.772117 1.681329 0.027800 -0.023004 115432.000000 0 0 1
32.923641 32.094415 -5.762514 46.338151 0.772645 1.695477 0.048030 -0.041780 517948.000000 0 0 1
33.019821 30.840115 -5.060114 45.464558 0.751279 1.682325 0.031203 -0.020383 450791.000000 0 0 1
31.663981 30.105915 -5.268914 44.008355 0.760180 1.690810 0.042652 -0.030895 509660.000000 0 0 1
31.316201 29.869515 -6.637614 43.782991 0.761758 1.722986 0.039770 -0.026040 -511146.000000 0 0 1
30.007951 29.382515 -6.738714 42.534922 0.774868 1.729894 0.013455 -0.020533 -230073.000000 0 0 1
29.418931 29.259315 -8.202714 42.294983 0.782678 1.765974 0.025914 -0.021583 -45677.600000 0 0 1
30.045541 28.179615 -8.913314 42.145847 0.753362 1.783893 0.035561 -0.020550 101689.000000 0 0 1
30.081391 28.397315 -10.343614 42.641388 0.756608 1.815813 0.022693 -0.023221 -272560.000000 0 0 1
31.348611 29.148215 -10.730014 44.130342 0.749042 1.816402 0.050229 -0.022996 -943179.000000 0 0 1
32.536631 28.458415 -10.431214 44.467111 0.718636 1.807586 0.036447 -0.028553 647683.000000 0 0 1
33.730941 28.908515 -11.101114 45.789883 0.708563 1.815672 0.049789 -0.027824 1121940.000000 0 0 1
34.332581 30.314015 -10.630114 47.017709 0.723316 1.798856 0.053175 -0.036971 -24352.400000 0 0 1
35.301481 30.260915 -9.535814 47.464190 0.708667 1.773078 0.049199 -0.026381 959633.000000 0 0 1
35.499661 31.517515 -8.905914 48.300052 0.726048 1.756245 0.030222 -0.028409 -520866.000000 0 0 1
-35.753045 31.412315 -7.599714 48.195118 -0.720860 1.729144 0.036744 -0.015533 -57696.200000 0 0 1
-34.361193 31.477315 -7.712014 47.233337 -0.741624 1.734805 0.047481 -0.014591 -595089.000000 0 0 1
-33.777130 30.245115 -8.077114 46.053244 -0.730285 1.747095 0.051462 -0.014739 -626691.000000 0 0 1
-32.370240 30.483615 -8.678714 45.303458 -0.755391 1.763556 0.059518 -0.009395 -40423.000000 0 0 1
-31.499110 30.887915 -7.610614 44.768054 -0.775602 1.741627 0.044511 -0.005772 1747710.000000 0 0 1
-30.128000 31.211215 -8.035914 44.118162 -0.803056 1.753964 0.040491 -0.018384 1749780.000000 0 0 1
-29.820240 32.550615 -8.780214 45.009793 -0.829147 1.767129 0.001767 -0.011828 -432023.000000 0 0 1
-29.930870 33.776515 -8.127914 45.856002 -0.845689 1.748986 -0.023590 0.009175 679099.000000 0 0 1
-28.835840 34.101115 -7.219614 45.238419 -0.868863 1.731072 -0.009193 0.008973 769110.000000 0 0 1
-28.879220 -33.234719 -6.512614 44.508090 0.855405 1.717648 -0.015990 0.023539 340666.000000 0 0 1
-29.989460 -33.041219 -5.611014 44.973029 0.833777 1.695886 -0.023910 0.024498 197012.000000 0 0 1
-29.785250 -33.330419 -4.254714 44.901899 0.841509 1.665694 -0.025532 0.009907 -110099.000000 0 0 1
-31.040490 -33.432819 -3.352114 45.743875 0.822487 1.644142 -0.002403 0.010207 -34397.000000 0 0 1
-31.366550 -32.145619 -2.802314 45.000603 0.797664 1.633109 0.014429 0.013569 -163437.000000 0 0 1
-32.359280 -32.159319 -1.799814 45.657246 0.782299 1.610227 0.016136 0.007769 -156023.000000 0 0 1
-32.955550 -30.757319 -1.678414 45.109844 0.750910 1.608012 0.026318 0.010115 -190219.000000 0 0 1
-33.882640 -30.670019 -0.629314 45.706448 0.735672 1.584565 0.024815 0.008602 -304948.000000 0 0 1
-34.610080 -29.446619 -0.808614 45.449036 0.704964 1.588589 0.040620 0.005283 701375.000000 0 0 1
-35.766179 -29.309819 0.254986 46.242298 0.686509 1.565282 0.045245 -0.002022 291086.000000 0 0 1
35.175351 -30.129719 0.008386 46.315282 -0.708289 1.570615 0.030052 -0.008758 662833.000000 0 0 1
34.192951 -30.008519 1.038486 45.505468 -0.720314 1.547973 0.028333 -0.012752 367430.000000 0 0 1
33.328931 -28.732219 0.932386 44.013946 -0.711466 1.549611 0.028211 -0.005658 -1564100.000000 0 0 1
32.179471 -28.768419 0.147086 43.164360 -0.729490 1.567389 0.030257 -0.005030 -372388.000000 0 0 1
31.700501 -27.401819 0.210786 41.902576 -0.712793 1.565766 0.031742 -0.005697 -601561.000000 0 0 1
30.334271 -27.193619 -0.442114 40.741335 -0.730859 1.581648 0.025163 -0.006751 76998.600000 0 0 1
29.170901 -27.788619 0.130886 40.288534 -0.761135 1.567548 0.027349 -0.001366 603478.000000 0 0 1
29.053481 -29.214719 -0.028614 41.202007 -0.788165 1.571491 0.032495 -0.004522 -665582.000000 0 0 1
28.632761 -29.669219 -1.483914 41.258933 -0.803174 1.606770 0.043107 -0.014333 335516.000000 0 0 1
27.252971 -29.404119 -1.734814 40.128995 -0.823348 1.614041 0.041138 -0.001472 377162.000000 0 0 1
26.988651 -29.687619 -3.098014 40.241020 -0.832983 1.647859 0.036305 0.000207 524485.000000 0 0 1
25.498351 -30.083119 -3.323314 39.575300 -0.867699 1.654870 0.024698 -0.002829 933735.000000 0 0 1
24.525651 -29.093819 -3.067114 38.175451 -0.870389 1.651226 0.027382 0.007337 853763.000000 0 0 1
23.165451 -29.431319 -3.412914 37.609688 -0.903970 1.661667 0.032726 0.003248 1389850.000000 0 0 1
22.309851 -28.127419 -3.572514 36.078304 -0.900233 1.669980 0.032515 0.003332 89669.700000 0 0 1
22.417251 -27.491919 -4.815014 35.798368 -0.886728 1.705709 0.032813 0.006730 76710.800000 0 0 1
21.987251 -26.154219 -4.731414 34.494473 -0.871740 1.708395 0.037233 -0.005225 -247525.000000 0 0 1
21.448551 -25.604519 -6.090814 33.951874 -0.873495 1.751168 0.047192 -0.029809 -462773.000000 0 0 1
20.170151 -26.128819 -6.278014 33.600054 -0.913394 1.758746 0.056711 -0.027502 -794888.000000 0 0 1
19.553851 -25.503319 -7.386514 32.974732 -0.916681 1.796719 0.072345 -0.025630 330325.000000 0 0 1
18.028151 -25.779619 -7.526814 32.345880 -0.960528 1.805647 0.071461 -0.021927 295758.000000 0 0 1
17.354051 -24.963019 -6.607414 31.112270 -0.963306 1.784799 0.065074 -0.022123 -457168.000000 0 0 1
16.003951 -25.337219 -6.495114 30.664110 -1.007438 1.784228 0.066784 -0.022358 81558.100000 0 0 1
15.195151 -24.510119 -5.440914 29.346927 -1.015834 1.757275 0.059594 -0.017324 145419.000000 0 0 1
15.317651 -25.058319 -4.118014 29.656497 -1.022124 1.710104 0.052584 -0.016279 194668.000000 0 0 1
14.583551 -24.286319 -3.202014 28.508914 -1.030021 1.683350 0.049243 -0.012468 -137815.000000 0 0 1
14.590451 -24.903419 -1.739914 28.915201 -1.040823 1.631006 0.054178 -0.010480 153715.000000 0 0 1
13.715051 -25.997519 -1.557414 29.434659 -1.085351 1.623732 0.049785 -0.006171 239638.000000 0 0 1
14.460951 -27.122719 -1.884914 30.794706 -1.080968 1.632044 0.046409 -0.017629 -60644.900000 0 0 1
13.584951 -28.375719 -2.096114 31.529764 -1.124291 1.637326 0.038676 -0.006532 -406260.000000 0 0 1
12.795251 -28.702119 -1.003314 31.441004 -1.151445 1.602713 0.048668 -0.016034 -534243.000000 0 0 1
12.086451 -29.898219 -1.104414 32.267717 -1.186629 1.605030 0.048696 -0.018308 -106503.000000 0 0 1
12.861651 -31.168319 -0.663514 33.724271 -1.179431 1.590472 0.038131 -0.016023 -45457.800000 0 0 1
13.945951 -31.471719 -1.501414 34.455956 -1.153673 1.614385 0.043474 -0.015311 -476251.000000 0 0 1
14.500151 -32.758619 -1.311614 35.848317 -1.154083 1.607392 0.043624 -0.012980 -491107.000000 0 0 1
15.963051 -32.872019 -1.746414 36.584677 -1.118725 1.618551 0.043486 -0.006902 -71941.300000 0 0 1
16.785651 -31.906619 -1.075114 36.068633 -1.086498 1.600608 0.039011 -0.000348 86665.600000 0 0 1
18.009151 -31.743119 -1.766514 36.538688 -1.054738 1.619162 0.036026 -0.002774 347412.000000 0 0 1
18.910051 -30.601219 -1.141214 35.990652 -1.017282 1.602510 0.038411 -0.000721 327234.000000 0 0 1
18.373751 -29.311719 -1.344814 34.620516 -1.010875 1.609651 0.038348 -0.001188 353780.000000 0 0 1
19.036451 -28.333919 -0.536814 34.139209 -0.979206 1.586521 0.027774 0.005790 249307.000000 0 0 1
18.667451 -26.927619 -1.083414 32.783291 -0.964618 1.603850 0.035546 0.002496 -116863.000000 0 0 1
19.334451 -26.694119 -2.262114 33.038071 -0.943950 1.639320 0.033173 -0.004559 -33050.700000 0 0 1
18.441551 -26.234119 -3.257014 32.232405 -0.958086 1.672017 0.043143 -0.002192 -86836.800000 0 0 1
32.279201 -29.526519 13.905086 45.903307 -0.740890 1.263040 0.045820 -0.015320 -464870.000000 0 0 1
33.108451 -29.913519 14.905086 47.044126 -0.734746 1.248409 0.065745 -0.006379 -692720.000000 0 0 1
32.424801 -30.577119 15.961186 47.340125 -0.756079 1.226898 0.053857 0.002962 -132543.000000 0 0 1
33.248671 -30.861119 17.200886 48.515496 -0.748174 1.208370 0.057678 0.003531 -477425.000000 0 0 1
32.481281 -31.529619 18.192486 48.786444 -0.770532 1.188663 0.041339 0.002696 -41336.500000 0 0 1
33.178921 -31.809119 19.337286 49.865735 -0.764324 1.172567 0.026220 -0.005685 -397369.000000 0 0 1
34.055841 -33.080219 19.271386 51.239512 -0.770867 1.185208 0.025433 0.002163 647771.000000 0 0 1
35.168041 -33.083119 18.361886 51.656972 -0.754860 1.207392 0.042335 0.009049 952269.000000 0 0 1
35.891251 34.345515 18.369086 52.964325 0.763394 1.216618 0.030250 0.002625 458356.000000 0 0 1
-35.105779 34.233015 17.247686 51.978820 -0.772812 1.232563 0.051151 0.000245 -495127.000000 0 0 1
-33.927810 -33.909919 17.701386 51.130402 0.785134 1.217278 0.052323 0.003333 -1090570.000000 0 0 1
-33.066000 -33.666119 16.626586 50.032103 0.794391 1.232036 0.070585 0.002632 -854819.000000 0 0 1
-31.754480 -33.005719 17.095386 48.887388 0.804717 1.213557 0.054922 0.000901 321675.000000 0 0 1
-30.714420 -32.964119 16.099686 47.845675 0.820712 1.227607 0.059823 -0.000446 428663.000000 0 0 1
-30.966510 -32.149519 14.956986 47.076828 0.804139 1.247478 0.068859 0.001481 -956483.000000 0 0 1
-29.810120 -32.163819 13.959286 46.021910 0.823359 1.262623 0.054019 -0.002143 619535.000000 0 0 1
-28.657890 -31.467519 14.500486 44.963802 0.832094 1.242435 0.051995 -0.000682 473230.000000 0 0 1
-27.578900 -31.438219 13.595386 43.974901 0.850698 1.256484 0.042679 0.010453 -532276.000000 0 0 1
-26.319830 -30.891619 14.199986 42.996107 0.865139 1.234215 0.047584 -0.001747 -784335.000000 0 0 1
-25.187550 -30.816419 13.375586 41.987744 0.885570 1.246587 0.036538 -0.005203 -599421.000000 0 0 1
-24.140530 -30.322419 14.168786 41.267043 0.898421 1.220321 0.028487 -0.005454 2956.600000 0 0 1
-22.750330 -30.287119 13.486086 40.208974 0.926556 1.228767 0.035447 -0.009672 464397.000000 0 0 1
-22.207730 -31.566519 13.117386 40.763884 0.957711 1.243178 0.031211 -0.004181 -160423.000000 0 0 1
-20.887130 -31.507219 12.645886 39.860952 0.985384 1.247968 0.021074 -0.006637 -61135.200000 0 0 1
-20.369130 -32.894519 12.406286 40.630860 1.016360 1.260499 0.025915 -0.000878 -356508.000000 0 0 1
-21.025430 -33.344119 11.282786 41.002442 1.008210 1.292026 0.025847 -0.000216 -136385.000000 0 0 1
-20.673130 34.047715 10.964286 41.313930 -1.025113 1.302188 0.018372 0.013569 321885.000000 0 0 1
-21.723530 33.326815 10.051986 41.032071 -0.993133 1.323299 0.015331 0.023448 40054.100000 0 0 1
-21.835830 33.915115 8.721586 41.268688 -0.998765 1.357854 0.005199 0.022671 -63529.900000 0 0 1
-22.998130 33.527915 8.008186 41.438703 -0.969569 1.376319 0.006014 0.019864 -390483.000000 0 0 1
-22.975130 33.963615 6.482986 41.514008 -0.976042 1.413991 0.010523 0.013175 -762563.000000 0 0 1
-22.218830 33.139015 5.622486 40.292470 -0.980163 1.430798 0.002613 0.011197 489980.000000 0 0 1
-20.799930 33.122815 5.769686 39.535393 -1.010069 1.424336 0.008307 0.017066 405815.000000 0 0 1
-20.019530 -34.247619 5.470886 40.045120 1.041813 1.433750 0.016047 0.017671 -1019050.000000 0 0 1
-20.164530 -33.108819 6.305686 39.275487 1.023758 1.409548 0.007923 0.007718 -150528.000000 0 0 1
-19.430830 -33.216019 7.492986 39.204667 1.041491 1.378488 0.009400 0.013443 -452624.000000 0 0 1
-19.330030 -31.984519 8.397086 38.303663 1.027180 1.349777 0.008405 0.000186 -173346.000000 0 0 1
-18.271130 -31.076219 8.125386 36.953856 1.039287 1.349106 0.037851 -0.010232 -77115.900000 0 0 1
-18.199730 -30.015119 9.079286 36.257013 1.025719 1.317688 0.039218 -0.009051 343858.000000 0 0 1
-17.671730 -30.438419 10.491286 36.726754 1.044784 1.281103 0.026605 -0.004152 551913.000000 0 0 1
-16.296430 -30.827319 10.514986 36.420628 1.084503 1.277918 0.040530 -0.007551 241068.000000 0 0 1
-15.853230 -30.951919 11.816986 36.728563 1.097445 1.243231 0.037307 -0.013303 1190800.000000 0 0 1
-14.370030 -31.497619 11.989386 36.638002 1.142777 1.237416 0.038689 -0.006953 1275430.000000 0 0 1
-13.326730 -30.677619 11.543386 35.383157 1.160981 1.238474 0.022880 0.003869 -28214.000000 0 0 1
-12.673830 -31.234419 10.376986 35.268920 1.185330 1.272152 0.043487 0.008137 535472.000000 0 0 1
-11.541630 -30.330019 9.786986 33.895492 1.207182 1.277886 0.045380 0.011203 269826.000000 0 0 1
-10.575730 -29.995819 10.755386 33.574895 1.231831 1.244708 0.036180 0.004953 -469540.000000 0 0 1
-9.590530 -29.150019 10.214586 32.342536 1.252945 1.249470 0.048946 0.005792 137834.000000 0 0 1
-8.873830 -28.390219 11.374386 31.845346 1.267851 1.205554 0.048510 0.016758 146119.000000 0 0 1
-9.561430 -27.315919 11.948486 31.310489 1.234094 1.179256 0.049302 0.001857 -409080.000000 0 0 1
-8.978530 -27.033719 13.197486 31.394420 1.250135 1.136936 0.048580 0.001525 -5491.270000 0 0 1
-9.478330 -25.768319 13.932986 30.789172 1.218328 1.101197 0.034624 -0.009045 159801.000000 0 0 1
-9.013930 -24.554519 13.353486 29.368196 1.218971 1.098770 0.038360 -0.007186 224568.000000 0 0 1
-9.847230 -24.041019 12.302386 28.745213 1.182041 1.128539 0.046001 -0.004663 157509.000000 0 0 1
-9.213930 -22.820219 11.703486 27.251248 1.187051 1.126895 0.036208 -0.010788 333665.000000 0 0 1
-8.038130 -23.019519 10.922586 26.717273 1.234845 1.149634 0.023421 -0.007767 430056.000000 0 0 1
-7.501130 -21.748419 10.453586 25.269313 1.238668 1.144296 0.018148 -0.003935 -4026.930000 0 0 1
-6.327930 -21.817319 9.472686 24.612393 1.288501 1.175724 0.014787 -0.001216 574996.000000 0 1 0
-5.146130 -22.405819 10.048686 25.089430 1.345034 1.158718 0.017469 -0.003836 56892.400000 0 0 1
-4.138530 -22.435219 9.047986 24.542464 1.388381 1.193222 0.017382 -0.002819 -135280.000000 0 1 0
-2.955530 -23.290819 9.500686 25.327070 1.444574 1.186270 0.022978 -0.007823 -186367.000000 0 0 1
-2.247830 -22.680819 10.582486 25.128894 1.472012 1.136107 0.021710 -0.002897 -1030810.000000 0 0 1
-1.123230 -23.414019 10.903386 25.852694 1.522861 1.135421 0.036242 -0.011104 -536354.000000 0 0 1
-0.317330 -22.722919 12.008986 25.703064 1.556832 1.084652 0.039104 -0.011940 -111705.000000 0 0 1
-1.062130 -22.549419 13.213986 26.157482 1.523729 1.041217 0.027802 -0.010498 148715.000000 0 0 1
-0.243330 -22.366719 14.379986 26.591603 1.559918 0.999442 0.052228 -0.012915 149073.000000 0 0 1
0.530870 -21.060519 14.477586 25.562234 -1.545595 0.968706 0.041273 -0.013443 -74760.200000 0 0 1
1.645270 -20.854119 13.651386 24.979222 -1.492065 0.992606 0.057107 -0.018057 -372078.000000 0 1 0
2.103970 -19.531819 13.469286 23.818907 -1.463490 0.969772 0.047752 -0.017064 175358.000000 0 1 0
3.588670 -19.554319 13.040286 23.776018 -1.389293 0.990270 0.046240 -0.008858 191880.000000 0 1 0
3.826970 -20.035519 11.790486 23.560206 -1.382060 1.046689 0.052265 -0.005487 -593894.000000 0 1 0
5.179670 -19.978119 11.399186 23.577440 -1.317115 1.066172 0.058955 -0.014039 324071.000000 0 1 0
5.638270 -20.948719 10.241286 23.990058 -1.307880 1.129738 0.067155 -0.020192 -283541.000000 0 1 0
5.282970 -20.519119 8.936986 22.995951 -1.318804 1.171649 0.057412 -0.015146 -424462.000000 0 1 0
5.598270 -21.471219 7.925886 23.562121 -1.315741 1.227723 0.060468 -0.017614 -16718.600000 0 1 0
7.068370 -21.942319 7.748486 24.320079 -1.259159 1.246539 0.054889 -0.010163 360247.000000 0 1 0
7.985970 -21.045619 7.072586 23.594815 -1.208121 1.266364 0.047881 -0.019729 453641.000000 0 1 0
8.411370 -19.822519 7.729786 22.878658 -1.169490 1.226154 0.055685 -0.012419 81433.600000 0 1 0
9.416970 -19.989719 8.878286 23.813697 -1.130542 1.188747 0.062895 -0.009462 -92200.000000 0 1 0
8.752670 -20.141519 10.076586 24.162525 -1.160857 1.140617 0.072004 -0.013704 38662.100000 0 1 0
9.654670 -19.773319 11.161786 24.673514 -1.116579 1.101365 0.075269 -0.011260 877213.000000 0 1 0
8.961470 -19.800719 12.547686 25.096232 -1.145796 1.047217 0.073935 -0.011676 46369.600000 0 0 1
8.748970 -21.128819 13.003186 26.306925 -1.178213 1.053781 0.059420 -0.015715 -43086.800000 0 0 1
8.236770 -21.246619 14.352786 26.930757 -1.200960 1.008711 0.067790 -0.016137 268656.000000 0 0 1
8.656370 -22.600619 14.975986 28.460515 -1.205018 1.016668 0.059688 -0.018116 -159125.000000 0 0 1
8.188570 -23.732419 14.322886 28.903728 -1.238549 1.052343 0.069560 -0.018505 -375512.000000 0 0 1
8.332870 -24.902019 15.171386 30.326857 -1.247883 1.046895 0.073647 -0.017964 42949.800000 0 0 1
8.264970 -26.172719 14.353186 30.973132 -1.264921 1.088959 0.082908 -0.023281 -88311.500000 0 0 1
9.416670 -26.697019 13.755286 31.473996 -1.231697 1.118495 0.066326 -0.010840 -330526.000000 0 0 1
8.925270 -27.740119 12.942086 31.885298 -1.259510 1.152838 0.062716 -0.012639 433732.000000 0 0 1
10.052670 -28.379919 12.097186 32.447155 -1.230369 1.188742 0.042308 -0.010729 344828.000000 0 0 1
11.018170 -29.155219 12.780486 33.686313 -1.209473 1.181652 0.029793 -0.016124 -125163.000000 0 0 1
12.070570 -29.554819 11.961986 34.092156 -1.183059 1.212294 0.032618 -0.014514 -750964.000000 0 0 1
13.178270 -30.308519 12.665786 35.393435 -1.160651 1.204824 0.028421 -0.013850 -1334390.000000 0 0 1
13.762970 -29.512619 13.703286 35.329790 -1.134436 1.172479 0.026381 -0.012623 327207.000000 0 0 1
14.774270 -30.188819 14.446286 36.583316 -1.115668 1.164851 0.032511 -0.011263 170768.000000 0 0 1
16.119070 -30.298219 13.738586 36.966948 -1.081867 1.190016 0.035894 -0.004434 -871115.000000 0 0 1
16.835470 -29.096419 13.422186 36.196543 -1.046254 1.190911 0.029331 -0.014557 -1111250.000000 0 0 1
18.142170 -29.343519 13.144286 36.918189 -1.017052 1.206771 0.029103 -0.010647 -1743520.000000 0 0 1
18.838970 -28.102019 12.629586 36.112833 -0.980229 1.213518 0.017611 -0.014995 600573.000000 0 0 1
20.219670 -28.418119 12.344986 36.997611 -0.952390 1.230602 0.009436 -0.018154 998864.000000 0 0 1
20.838870 -27.240819 11.793586 36.268573 -0.917772 1.239601 -0.001637 -0.002510 451069.000000 0 0 1
22.275370 -27.484019 11.237486 37.119328 -0.889695 1.263231 0.010916 -0.016126 257277.000000 0 0 1
23.130370 -28.035119 12.186786 38.334054 -0.880967 1.247272 0.022422 -0.017320 -39054.300000 0 0 1
24.315970 -28.559719 11.605386 39.263328 -0.865485 1.270736 0.023836 -0.030512 327253.000000 0 0 1
25.357570 -29.122119 12.626786 40.626837 -0.854389 1.254763 0.035974 -0.021149 1033070.000000 0 0 1
26.451670 -28.408719 13.237786 41.012012 -0.821056 1.242133 0.027143 -0.016938 1021070.000000 0 0 1
27.543470 -28.172119 12.352286 41.290314 -0.796681 1.266987 0.013838 -0.016996 214929.000000 0 0 1
28.713270 -27.373219 13.007586 41.748560 -0.761510 1.253952 0.039489 -0.021993 134176.000000 0 0 1
28.523770 -25.987119 13.153086 40.766892 -0.738897 1.242278 0.053910 -0.023306 -241995.000000 0 0 1
27.690670 -25.513919 14.168386 40.230293 -0.744508 1.210895 0.058561 -0.021461 -591416.000000 0 0 1
28.302670 -25.410619 15.608686 41.114131 -0.731608 1.181386 0.040943 -0.011479 -113346.000000 0 0 1
28.645770 -26.679019 16.149086 42.345521 -0.749864 1.179524 0.029805 -0.013414 31255.800000 0 0 1
29.466270 -26.533619 17.282586 43.254847 -0.733077 1.159768 0.051210 0.000856 -165622.000000 0 0 1
29.824470 -27.876119 17.943286 44.593033 -0.751644 1.156683 0.048596 0.009891 -150516.000000 0 0 1
28.847270 -28.476519 18.766886 44.668480 -0.778931 1.137200 0.026415 -0.002845 -401862.000000 0 0 1
29.373670 -29.490719 19.604286 46.009163 -0.787387 1.130624 0.041830 -0.007749 127957.000000 0 0 1
28.289670 -30.396519 20.241286 46.194842 -0.821283 1.117232 0.021600 0.005835 -620025.000000 0 0 1
27.360970 -29.696519 21.065486 45.544052 -0.826309 1.089950 0.027161 0.005152 369695.000000 0 0 1
26.250270 -30.399219 21.589886 45.599478 -0.858507 1.077573 0.030032 0.004475 955542.000000 0 0 1
25.216770 -30.905719 20.520286 44.856784 -0.886420 1.095657 0.049588 -0.005007 -656080.000000 0 0 1
25.725470 -32.013619 19.825686 45.604051 -0.893877 1.121052 0.040027 0.001307 -28947.900000 0 0 1
24.955270 -32.384419 18.688886 44.953204 -0.914244 1.142039 0.053149 0.001410 -227722.000000 0 0 1
25.107470 -31.487319 17.401286 43.870731 -0.897653 1.162933 0.041786 0.001288 939709.000000 0 0 1
26.449070 -31.603519 16.866286 44.528725 -0.873955 1.182326 0.045637 -0.006251 1058580.000000 0 0 1
26.651470 -30.650319 15.808086 43.584843 -0.855071 1.199636 0.039381 -0.025176 -1236220.000000 0 0 1
28.105470 -30.381219 15.461386 44.181335 -0.824289 1.213276 0.045297 -0.008831 -612332.000000 0 0 1
28.617370 -31.259219 14.428286 44.769053 -0.829491 1.242657 0.074229 -0.005330 375113.000000 0 0 1
28.933470 -32.559919 14.868186 46.025612 -0.844303 1.241855 0.086689 -0.015191 -446698.000000 0 0 1
27.960370 -33.671719 14.365486 46.064456 -0.877803 1.253650 0.075086 -0.008359 167104.000000 0 0 1
28.156370 -33.902919 12.947086 45.932735 -0.877733 1.285053 0.074914 -0.009518 501006.000000 0 0 1
27.445470 33.634115 12.483686 45.170233 0.886375 1.290782 0.066042 -0.020680 -54794.100000 0 0 1
27.883570 33.158315 11.126886 44.730023 0.871596 1.319400 0.069632 -0.027744 732454.000000 0 0 1
29.267570 32.760415 11.053686 45.299221 0.841650 1.324293 0.053628 -0.019680 1041990.000000 0 0 1
29.594770 32.163015 9.805686 44.793543 0.826960 1.350101 0.058482 -0.033721 548357.000000 0 0 1
31.075170 31.677515 9.633186 45.408473 0.794997 1.357027 0.038732 -0.028174 513788.000000 0 0 1
31.276870 30.601815 10.536886 45.008218 0.774489 1.334493 0.015535 -0.012219 596852.000000 0 0 1
32.454870 29.819315 10.273786 45.255506 0.743102 1.341782 0.034936 -0.015537 545931.000000 0 0 1
32.798870 28.935215 11.524586 45.230837 0.722894 1.313161 0.026014 -0.017835 -144704.000000 0 0 1
32.081070 27.730015 11.569986 43.954674 0.712779 1.304432 0.026036 -0.022555 468792.000000 0 0 1
32.493470 26.992215 12.753786 44.125552 0.693180 1.277579 0.025533 -0.029997 270688.000000 0 0 1
32.225670 25.518815 12.506286 42.966393 0.669769 1.275450 0.020019 -0.031099 -404397.000000 0 0 1
33.304070 25.001515 11.803886 43.284738 0.643952 1.294595 0.026530 -0.027380 -510970.000000 0 0 1
33.321370 23.571915 11.782986 42.482792 0.615683 1.289752 0.022837 -0.024678 -528055.000000 0 0 1
32.323170 22.743215 10.960086 41.014201 0.613151 1.300282 0.018589 -0.028112 -1349080.000000 0 0 1
31.106170 22.757015 11.562486 40.238870 0.631615 1.279341 0.016107 -0.028654 -933653.000000 0 0 1
30.026070 22.612515 10.598986 39.054183 0.645480 1.295957 0.020249 -0.024769 397039.000000 0 0 1
28.707970 22.260715 11.318086 38.049784 0.659572 1.268771 0.026536 -0.023309 -247161.000000 0 0 1
28.333070 23.449015 12.004386 38.687523 0.691357 1.255297 0.030723 -0.021956 -62253.600000 0 0 1
27.222070 23.165715 12.829586 37.977490 0.705069 1.226196 0.048332 -0.003642 -66422.500000 0 0 1
23.995670 9.228115 25.894187 36.489166 0.367138 0.781809 0.026709 -0.004620 -104368.000000 0 0 1
23.579770 7.968215 26.392517 36.277582 0.325878 0.756102 0.034389 -0.008528 465465.000000 0 0 1
22.162770 7.847515 26.399477 35.351156 0.340310 0.727592 0.035164 -0.010573 179466.000000 0 0 1
21.698470 6.587715 27.132887 35.361210 0.294759 0.696166 0.050691 -0.015545 -332468.000000 0 0 1
22.061870 6.592115 28.523067 36.657161 0.290357 0.679155 0.055219 -0.022067 -1306750.000000 0 0 1
23.284070 6.125515 28.847607 37.574649 0.257249 0.695488 0.053221 -0.021553 -1684850.000000 0 0 1
23.495770 5.988115 30.377517 38.867753 0.249547 0.673632 0.042573 -0.024538 -147079.000000 0 0 1
23.760670 7.262415 31.005987 39.732648 0.296631 0.675546 0.046630 -0.013505 233970.000000 0 0 1
23.856970 7.034015 32.399204 40.845328 0.286717 0.654723 0.036137 -0.006147 -69740.600000 0 0 1
23.926070 8.306815 33.298214 41.835763 0.334166 0.650259 0.051851 0.000148 -211607.000000 0 0 1
25.142570 9.000315 33.276870 42.667371 0.343758 0.676268 0.031729 -0.003156 -398806.000000 0 0 1
25.305670 9.637515 -34.005824 43.470158 0.363884 2.469113 0.031485 0.001606 -228362.000000 0 0 1
26.378370 10.725215 -34.126071 44.445892 0.386176 2.446215 0.013144 0.003293 -356924.000000 0 0 1
26.000070 12.007215 33.818749 44.315738 0.432636 0.702651 0.017283 -0.001307 217700.000000 0 0 1
26.159470 13.029515 -33.703684 44.609690 0.462111 2.427250 0.014675 0.003317 -929128.000000 0 0 1
25.583870 14.350715 -34.222945 45.074243 0.511195 2.432967 0.016834 0.002930 -106619.000000 0 0 1
26.366370 14.983915 33.192103 44.960192 0.516782 0.740316 0.019143 -0.000683 488983.000000 0 0 1
26.231570 16.387715 33.174112 45.356082 0.558407 0.750402 0.026653 -0.009310 -183223.000000 0 0 1
26.783770 17.288715 -34.166625 46.729308 0.573200 2.390818 0.023153 -0.012186 -95090.400000 0 0 1
26.220670 17.115015 -32.859344 45.389247 0.578292 2.380301 0.014102 -0.012866 604235.000000 0 0 1
27.221670 16.785715 -31.900254 45.170850 0.552558 2.354932 0.007396 -0.005771 -250140.000000 0 0 1
26.514470 16.424915 -30.644694 43.725190 0.554613 2.347381 -0.000864 0.001313 -185928.000000 0 0 1
26.113770 15.072815 -30.566314 42.935047 0.523485 2.363025 0.005554 0.010527 -633508.000000 0 0 1
25.101670 14.964815 -29.641444 41.625169 0.537597 2.363287 0.020477 -0.001842 -752313.000000 0 0 1
24.391570 13.626815 -29.867694 40.898874 0.509475 2.389530 0.032432 -0.001142 -736435.000000 0 0 1
23.660670 13.514915 -31.093244 41.343319 0.518972 2.422000 0.026448 -0.000259 271172.000000 0 0 1
23.113670 12.250715 -31.336664 40.820439 0.487374 2.445995 0.042310 0.005534 -33720.300000 0 0 1
22.149170 11.583515 -30.321334 39.295634 0.481860 2.452182 0.044474 0.008978 -440843.000000 0 0 1
20.803170 11.984115 -30.519964 38.831161 0.522639 2.475053 0.054258 -0.006322 526469.000000 0 0 1
19.945270 11.178315 -29.710194 37.489520 0.510830 2.485683 0.059433 -0.009782 233271.000000 0 0 1
18.594370 11.734015 -29.230784 36.576993 0.562940 2.496689 0.066901 -0.010218 183954.000000 0 0 1
17.552570 11.926915 -30.181994 36.895755 0.596832 2.528781 0.040574 -0.001929 91447.600000 0 0 1
16.524370 12.562615 -29.476024 36.051492 0.650027 2.528042 0.044067 -0.006467 474530.000000 0 0 1
15.250270 13.011415 -30.318954 36.347030 0.706345 2.557390 0.029192 -0.008617 876936.000000 0 0 1
14.583770 11.923715 -30.927174 36.212586 0.685382 2.594508 0.019226 -0.003242 -503292.000000 0 0 1
13.211670 12.071315 -30.695634 35.531490 0.740325 2.613757 0.030436 -0.010152 -648187.000000 0 0 1
12.301370 11.581815 -31.793404 36.003926 0.755279 2.653127 0.027135 -0.011863 -511039.000000 0 0 1
12.225370 12.514315 -32.814124 37.186482 0.797077 2.651779 0.033381 -0.007805 226036.000000 0 0 1
11.093170 12.249915 -33.633204 37.474141 0.834912 2.684874 0.052887 -0.012529 162377.000000 0 0 1
10.846970 13.314015 33.695386 37.819291 0.887154 0.471347 0.065698 -0.005648 -29636.800000 0 0 1
11.740570 13.210415 32.612643 37.093672 0.844239 0.496622 0.042848 0.008396 205566.000000 0 0 1
11.154970 13.799215 31.465947 36.124196 0.890968 0.513462 0.068448 -0.007570 64342.800000 0 0 1
11.904070 13.462015 30.169277 35.115780 0.846740 0.537215 0.049674 -0.009333 -335036.000000 0 0 1
11.724270 12.035015 29.929147 34.322790 0.798476 0.511542 0.045942 -0.003992 277412.000000 0 0 1
12.133770 11.787215 28.577727 33.209235 0.770912 0.534476 0.050416 -0.001624 -71554.400000 0 0 1
12.554670 10.274015 28.366677 32.677875 0.685826 0.519495 0.046240 -0.002428 861265.000000 0 0 1
11.519370 9.243715 28.544157 32.138934 0.676233 0.477495 0.050174 -0.009250 965666.000000 0 0 1
12.130670 7.990815 28.445687 31.939997 0.582487 0.472139 0.024648 -0.008790 -640375.000000 0 0 1
11.227370 6.797815 28.664147 31.526139 0.544431 0.429393 0.019669 -0.006056 -326934.000000 0 0 1
10.327470 6.778215 27.557627 30.199729 0.580811 0.421412 0.030149 -0.010283 -603321.000000 0 0 1
9.406470 5.753215 27.534817 29.660534 0.548922 0.380896 0.016831 -0.010909 -657862.000000 0 0 1
9.911470 4.372615 27.046847 29.135699 0.415484 0.380965 0.012143 -0.006031 -63495.700000 0 0 1
10.705370 3.751915 28.062807 30.268844 0.337094 0.384147 0.008885 -0.002736 254667.000000 0 0 1
10.712970 2.356915 27.873967 29.954646 0.216556 0.374914 0.007811 -0.001501 -171950.000000 0 0 1
11.535970 1.620815 28.933487 31.190580 0.139587 0.382765 -0.006641 0.002815 101956.000000 0 0 1
10.830270 1.415215 30.163957 32.080553 0.129936 0.347413 -0.007602 -0.003025 19612.600000 0 0 1
10.837970 0.053615 30.563887 32.428624 0.004947 0.340771 -0.007395 -0.001646 214979.000000 0 0 1
9.677070 -0.131585 31.565167 33.015493 -0.013597 0.297503 0.003629 -0.001456 102260.000000 0 0 1
9.890770 0.703415 32.645354 34.118049 0.070999 0.294886 -0.003486 -0.005360 -197596.000000 0 0 1
8.675170 1.171515 33.199391 34.334102 0.134230 0.257809 0.005546 -0.007716 -222760.000000 0 0 1
8.733070 2.445715 34.033353 35.220976 0.273057 0.260424 0.009180 -0.008095 -253595.000000 0 0 1
8.719470 3.718615 33.397130 34.716359 0.403117 0.276562 0.012361 -0.010054 -63429.600000 0 0 1
9.769870 3.908015 32.481465 34.143352 0.380512 0.313285 -0.001698 -0.003971 -317590.000000 0 0 1
9.882570 5.345015 32.056627 33.968540 0.495793 0.337108 0.001419 0.000654 102122.000000 0 0 1
10.194170 6.328515 33.039990 35.151275 0.555572 0.348350 0.006187 -0.000213 121855.000000 0 0 1
10.691370 7.532715 32.467905 35.003029 0.613780 0.382929 0.012280 -0.007213 -197292.000000 0 0 1
10.902670 8.716615 33.463315 36.257979 0.674432 0.395192 0.055221 -0.015175 49830.100000 0 0 1
9.720070 9.394015 33.880925 36.477998 0.768341 0.379623 0.068325 -0.018713 57462.700000 0 0 1
9.065370 8.651715 -33.612974 35.872902 0.762055 2.784743 0.051781 -0.015681 -122360.000000 0 0 1
7.669870 9.169315 -33.161254 35.250135 0.874209 2.795606 0.063327 -0.028508 468734.000000 0 0 1
6.977170 8.372815 -32.218054 34.011585 0.876070 2.815393 0.073223 -0.035413 -401007.000000 0 0 1
5.689770 8.858115 -31.980554 33.668910 0.999837 2.823565 0.071343 -0.034347 -245869.000000 0 0 1
4.918370 8.137415 -30.877134 32.307975 1.027137 2.842867 0.068850 -0.037076 -588790.000000 0 0 1
5.362470 8.586415 -29.626804 31.308627 1.012535 2.812334 0.072957 -0.038243 168771.000000 0 0 1
4.928770 7.841815 -28.483944 29.951993 1.009667 2.827207 0.051340 -0.033931 1841790.000000 0 0 1
3.349970 7.969315 -28.180634 29.476777 1.172864 2.843943 0.047695 -0.033377 1563260.000000 0 0 1
2.577670 7.123815 -29.014674 29.987404 1.223614 2.886191 0.038308 -0.030289 -596479.000000 0 0 1
1.239870 7.301315 -28.633484 29.575714 1.402586 2.888496 0.045907 -0.021493 -375099.000000 0 0 1
0.264870 6.626515 -29.630324 30.363414 1.530846 2.921403 0.057067 -0.021198 -343793.000000 0 0 1
0.258470 7.339815 -30.823724 31.686616 1.535596 2.907684 0.063722 -0.021220 238315.000000 0 0 1
-0.593230 6.785515 -31.809984 32.531065 -1.483592 2.930650 0.074315 -0.018806 -445763.000000 0 0 1
-0.457630 7.615715 -33.119754 33.987154 -1.510778 2.915183 0.081627 -0.028368 1145900.000000 0 0 1
0.910870 7.956315 -33.482424 34.426811 1.456809 2.906824 0.067636 -0.025379 1607250.000000 0 0 1
1.742870 6.906915 -34.031384 34.768925 1.323619 2.935253 0.072816 -0.027797 157830.000000 0 0 1
1.502970 6.554215 32.949260 33.628416 1.345380 0.201317 0.084410 -0.036397 -118247.000000 0 0 1
0.389270 5.727215 32.651030 33.151807 1.502932 0.174033 0.101386 -0.036194 -159268.000000 0 0 1
0.189970 5.376815 31.249007 31.708779 1.535480 0.170499 0.105928 -0.038152 -503681.000000 0 0 1
1.245270 4.470615 30.651457 31.000789 1.299137 0.150265 0.097554 -0.039966 -380642.000000 0 0 1
1.063170 4.342615 29.299467 29.638613 1.330697 0.151424 0.088629 -0.043570 315602.000000 0 0 1
2.123670 3.596115 28.713687 29.015820 1.037358 0.144436 0.068023 -0.033729 224445.000000 0 0 1
2.009370 3.727115 27.173067 27.500991 1.076343 0.154582 0.073301 -0.029152 93824.000000 0 0 1
2.144370 5.077615 26.778977 27.340338 1.171199 0.202993 0.060189 -0.029574 28560.400000 0 0 1
2.184870 5.269115 25.401567 26.034147 1.177720 0.220894 0.037879 -0.014495 -829831.000000 0 0 1
2.588070 6.665915 24.863977 25.871797 1.200456 0.280036 0.030252 -0.008951 74635.900000 0 0 1
3.974570 6.940615 24.925127 26.176923 1.050727 0.310505 0.025068 -0.003579 -141883.000000 0 0 1
4.631770 6.394715 23.809317 25.084442 0.943939 0.320218 0.018026 -0.011657 -1579530.000000 0 0 1
6.145870 6.484315 23.774617 25.397844 0.812188 0.359457 0.015305 -0.013288 -532579.000000 0 0 1
6.870970 5.613015 24.652547 26.200463 0.684972 0.345458 0.016018 -0.013851 187754.000000 0 0 1
6.827470 4.188815 24.577327 25.849671 0.550304 0.315056 0.014162 -0.009305 -883934.000000 0 0 1
7.066770 3.482915 23.242867 24.541817 0.457918 0.326808 0.006424 -0.008993 -113991.000000 0 1 0
6.083170 3.605715 22.259667 23.355918 0.535061 0.307599 0.000780 0.002285 262698.000000 0 1 0
4.785870 3.009515 22.426567 23.128178 0.561351 0.246943 -0.000599 0.000685 887572.000000 0 1 0
3.738370 3.461515 21.363767 21.962879 0.746964 0.234108 -0.004438 0.005509 47314.000000 0 1 0
3.325870 4.802515 21.495967 22.275596 0.965104 0.265350 -0.006777 0.005249 897995.000000 0 1 0
2.314570 5.173415 20.502167 21.271114 1.150109 0.269703 -0.000619 0.001696 680406.000000 0 1 0
1.816170 6.598715 20.604167 21.711131 1.302216 0.320703 0.001137 0.003521 525946.000000 0 1 0
2.738670 7.610415 20.106967 21.672768 1.225366 0.382451 0.000554 0.009917 213599.000000 0 1 0
2.259770 8.873415 20.353267 22.318144 1.321430 0.422759 0.005470 0.013567 201499.000000 0 1 0
3.079970 10.043015 19.721367 22.344590 1.273224 0.489429 0.013811 0.001192 -304029.000000 0 1 0
3.044870 10.104115 18.293867 21.119421 1.278102 0.523228 0.004503 -0.006236 236129.000000 0 1 0
3.842170 11.144315 17.692367 21.259771 1.238793 0.587734 -0.002194 -0.011002 807134.000000 0 1 0
5.387970 11.010815 17.824767 21.633090 1.115718 0.602435 0.000213 -0.010368 -81511.400000 0 1 0
5.902170 10.061615 16.965467 20.588802 1.040286 0.602336 0.005265 -0.014094 638464.000000 0 1 0
7.219670 9.600015 17.344967 21.098147 0.925986 0.605692 0.011291 -0.012233 982935.000000 0 1 0
7.160670 8.195515 18.013267 21.045652 0.852686 0.543481 0.013270 -0.011056 -89955.300000 0 1 0
6.575370 8.212215 19.312467 21.991984 0.895640 0.498796 0.017094 -0.008291 -39474.700000 0 1 0
6.342570 6.892915 19.816967 21.919230 0.826955 0.441550 0.004903 -0.011548 284522.000000 0 1 0
7.572170 6.032915 20.308067 22.497809 0.672739 0.444865 0.019948 -0.011904 425803.000000 0 1 0
8.444970 5.769915 19.243967 21.793111 0.599387 0.488517 0.013190 -0.009034 -558671.000000 0 1 0
9.742270 5.405015 19.635467 22.576040 0.506521 0.516105 0.016917 -0.004211 -115860.000000 0 1 0
10.145270 3.946415 19.531867 22.360557 0.370980 0.508458 0.022542 -0.001921 -515170.000000 0 1 0
9.455770 3.195915 20.454167 22.759578 0.325932 0.453987 0.023837 -0.010908 -65228.300000 0 1 0
9.797170 1.813015 20.273867 22.589848 0.182985 0.456781 0.025128 -0.020935 -218381.000000 0 1 0
9.056270 0.880815 21.189367 23.060380 0.096955 0.405603 0.025262 -0.019466 -294402.000000 0 1 0
9.276770 0.976415 22.617367 24.465427 0.104868 0.391173 0.024704 -0.014490 390147.000000 0 1 0
8.520870 -0.053085 23.328367 24.835876 -0.006230 0.350209 0.018363 -0.016724 -326675.000000 0 1 0
8.827070 0.023415 24.841327 26.363028 0.002653 0.341424 0.008895 -0.006086 568672.000000 0 0 1
10.130070 -0.354785 25.308067 27.262473 -0.035009 0.380951 0.017561 -0.009807 691690.000000 0 0 1
10.466970 -1.730085 24.992827 27.151281 -0.163809 0.401431 0.018754 -0.010988 -996435.000000 0 0 1
11.887570 -2.153485 25.302367 28.038573 -0.179211 0.445459 0.018737 -0.004229 -563609.000000 0 0 1
12.016770 -3.553885 25.106537 28.060133 -0.287547 0.462947 0.019973 0.002958 725253.000000 0 0 1
13.376770 -4.017085 25.223087 28.831910 -0.291735 0.505707 0.025658 0.006036 845061.000000 0 0 1
13.525970 -5.509885 25.423367 29.319930 -0.386832 0.521442 0.024091 -0.002055 -295370.000000 0 0 1
13.241070 -6.213185 24.280357 28.345464 -0.438735 0.542178 0.033376 -0.006135 176424.000000 0 0 1
12.857470 -7.567785 24.520797 28.702881 -0.531988 0.546599 0.044307 -0.010645 -79676.800000 0 0 1
12.556070 -8.353485 23.239367 27.703858 -0.587052 0.575630 0.047545 -0.010799 -121303.000000 0 0 1
12.244270 -9.689685 23.527907 28.237821 -0.669453 0.585917 0.052872 -0.006265 -386451.000000 0 0 1
12.237770 -10.495785 22.331767 27.543281 -0.708921 0.625299 0.054410 -0.010420 82795.500000 0 0 1
11.565570 -11.860385 22.534867 27.968757 -0.797982 0.633913 0.064571 -0.010296 741060.000000 0 0 1
10.136070 -11.852785 22.570367 27.434465 -0.863312 0.604650 0.051541 -0.006315 380099.000000 0 0 1
9.625270 -13.145085 22.880967 28.088747 -0.938763 0.618765 0.059596 -0.003991 -605007.000000 0 0 1
8.164470 -13.236585 23.275867 27.993423 -1.018107 0.589037 0.037381 0.001134 -8063.140000 0 0 1
7.320270 -12.647685 22.246867 26.617163 -1.046123 0.581191 0.034018 -0.003264 676128.000000 0 0 1
5.930670 -12.549385 22.563167 26.490685 -1.129319 0.551500 0.019778 0.001229 632666.000000 0 0 1
5.248770 -11.496485 21.715667 25.125464 -1.142505 0.527061 0.004465 0.008773 -142458.000000 0 0 1
5.484870 -10.190785 22.162667 25.002394 -1.077043 0.481240 0.002196 0.009464 -465193.000000 0 0 1
5.042470 -9.167285 21.334467 23.761841 -1.067914 0.455944 -0.002029 0.006777 -57087.900000 0 1 0
5.501070 -7.740285 21.743467 23.726612 -0.952921 0.411763 0.008372 -0.004864 -220710.000000 0 1 0
4.925970 -6.705085 21.070067 22.653279 -0.937184 0.376081 0.000393 -0.002090 -309785.000000 0 1 0
5.469370 -5.492485 21.563867 22.914662 -0.787507 0.345072 0.008561 -0.007078 -6531.370000 0 1 0
-8.069330 -14.518585 -20.512414 26.394365 1.063516 2.460923 0.032878 0.006260 -285763.000000 0 0 1
-7.184830 -14.339985 -19.449614 25.210006 1.106321 2.451998 0.020453 -0.000564 -589143.000000 0 0 1
-6.368530 -13.248285 -19.671414 24.556867 1.122703 2.499853 0.018991 -0.014854 -839042.000000 0 1 0
-5.468230 -12.898485 -18.551814 23.247413 1.169821 2.494793 0.014490 -0.012041 -722823.000000 0 1 0
-4.667730 -13.967585 -18.114514 23.345593 1.248281 2.458982 0.014981 0.000936 -473693.000000 0 1 0
-4.146730 -13.580585 -16.881814 22.059539 1.274445 2.442279 0.024592 -0.009666 351740.000000 0 1 0
-3.181030 -14.714485 -16.317414 22.201194 1.357889 2.396432 0.025217 0.003657 209341.000000 0 1 0
-2.001530 -14.801885 -17.057714 22.673057 1.436390 2.422394 0.013304 0.000359 19233.000000 0 1 0
-0.961430 -15.486185 -16.300414 22.504438 1.508793 2.380844 0.024001 0.001684 1110000.000000 0 1 0
0.467270 -15.507685 -16.921114 22.957149 -1.540674 2.399527 0.023984 0.000107 551816.000000 0 1 0
0.521670 -16.466985 -17.936114 24.354422 -1.539127 2.398622 0.044676 0.002513 -205701.000000 0 1 0
0.254670 -17.820585 -17.716014 25.129569 -1.556507 2.353201 0.032902 0.002808 -291360.000000 0 0 1
-0.110130 -18.574485 -18.999514 26.570757 1.564867 2.367497 0.046437 -0.001593 253170.000000 0 0 1
-1.378230 -18.236685 -19.537714 26.761884 1.495365 2.389202 0.052237 0.001582 71303.800000 0 0 1
-1.472530 -18.370385 -20.932314 27.889086 1.490810 2.419699 0.062370 0.002476 -95288.700000 0 0 1
-2.605230 -17.518685 -21.539014 27.885850 1.423167 2.453407 0.051552 0.004991 -5671.510000 0 0 1
-2.407630 -16.117885 -21.723514 27.156839 1.422516 2.497971 0.042555 0.016616 129007.000000 0 0 1
-3.095330 -15.345185 -20.723014 25.971120 1.371754 2.494642 0.025780 0.011368 392552.000000 0 0 1
-2.441930 -13.926685 -20.636314 25.015455 1.397219 2.540897 0.034229 -0.000873 40820.500000 0 0 1
-2.550030 -13.099785 -21.744014 25.512921 1.378539 2.591115 0.040536 -0.010979 125720.000000 0 0 1
-1.759130 -11.929385 -21.617714 24.753390 1.424390 2.632780 0.028168 -0.001159 13215.400000 0 1 0
-1.921630 -10.955385 -22.800114 25.368451 1.397158 2.687726 0.046493 -0.001406 79738.900000 0 0 1
-3.115630 -10.202385 -22.662314 25.047480 1.274409 2.701646 0.040468 -0.008814 283729.000000 0 0 1
-3.230130 -9.500585 -23.839914 25.865737 1.243064 2.743183 0.047862 -0.011788 47406.900000 0 0 1
-4.326330 -8.402085 -23.819014 25.625331 1.095291 2.763880 0.057052 -0.020094 -860675.000000 0 0 1
-5.644730 -8.807885 -23.767614 25.968082 1.000864 2.726956 0.030291 -0.019184 -539951.000000 0 0 1
-6.409930 -7.598385 -23.737514 25.735038 0.870035 2.744996 0.057210 -0.033173 434041.000000 0 0 1
-7.971430 -7.798785 -23.630114 26.129428 0.774451 2.700647 0.024101 -0.033089 957159.000000 0 0 1
-8.663130 -8.421885 -24.685414 27.483588 0.771279 2.686425 0.015991 -0.020046 107191.000000 0 0 1
-8.826730 -7.533385 -25.770944 28.263131 0.706507 2.718496 0.013889 -0.022669 -439645.000000 0 0 1
-9.480130 -8.134685 -27.014974 29.763312 0.709165 2.708471 0.008386 -0.023652 22378.700000 0 0 1
-9.937330 -7.067685 -27.835794 30.389704 0.618220 2.728693 0.008709 -0.025801 -57069.100000 0 0 1
-10.620730 -7.583385 -28.957754 31.762543 0.620072 2.718187 0.015028 -0.023524 -199498.000000 0 0 1
-11.460330 -6.588385 -29.773974 32.576609 0.521749 2.723753 0.023203 -0.026149 -247105.000000 0 0 1
-10.708830 -5.502085 -30.274734 32.580845 0.474618 2.763089 0.002372 -0.015142 -225494.000000 0 0 1
-11.454730 -4.743485 -31.192584 33.566185 0.392608 2.763271 0.014623 -0.024753 27460.400000 0 0 1
-10.601830 -3.679785 -31.996524 33.907479 0.334080 2.804264 0.001346 -0.024985 146762.000000 0 0 1
-9.658630 -4.313785 -32.828554 34.490750 0.420044 2.829873 0.003426 -0.014191 138400.000000 0 0 1
-9.039030 -3.425285 -33.791534 35.146897 0.362224 2.862977 0.004714 -0.011792 -216911.000000 0 0 1
-7.903330 -4.019485 33.847737 34.989830 0.470489 0.256202 0.012733 -0.005282 -605033.000000 0 0 1
-6.747230 -4.210385 -33.858524 34.780053 0.557892 2.910882 0.020167 -0.009902 -799095.000000 0 0 1
-5.717430 -4.567485 33.705254 34.490507 0.674052 0.213795 0.017203 -0.004045 639169.000000 0 0 1
-4.311130 -4.093385 34.220546 34.733088 0.759496 0.172006 0.035095 -0.003016 616181.000000 0 0 1
-4.200630 -2.660285 34.068342 34.429266 0.564550 0.144924 0.055299 -0.012286 235083.000000 0 0 1
-2.865630 -2.266985 -34.105312 34.300486 0.669287 3.034864 0.056955 -0.014720 512675.000000 0 0 1
-2.878630 -0.770785 -33.661724 33.793376 0.261624 3.053294 0.062588 -0.017530 -89121.500000 0 0 1
-3.341630 -0.689985 -32.389584 32.568815 0.203620 3.036634 0.058032 -0.022842 -82754.000000 0 0 1
-3.828230 0.597715 -32.050234 32.283588 -0.154883 3.021285 0.068262 -0.024115 -402139.000000 0 0 1
-4.326830 0.667115 -30.551734 30.863813 -0.152977 2.999265 0.071387 -0.029885 -121798.000000 0 0 1
-5.381930 -0.176985 -30.302674 30.777403 0.032873 2.965727 0.058735 -0.030011 -664378.000000 0 0 1
-6.686530 0.279115 -30.566184 31.290241 -0.041719 2.926048 0.065917 -0.030665 -213299.000000 0 0 1
-7.795030 -0.790285 -30.458814 31.450379 0.101038 2.889819 0.049069 -0.029378 90951.200000 0 0 1
-8.033730 -1.252185 -29.158994 30.271368 0.154622 2.869659 0.048798 -0.028682 -300430.000000 0 0 1
-8.853130 -2.374085 -29.180164 30.585881 0.261999 2.837237 0.013894 -0.020270 -374208.000000 0 0 1
-9.057630 -3.015585 -27.835264 29.426796 0.321390 2.811202 0.012568 -0.021860 382610.000000 0 0 1
-9.764730 -2.077585 -26.955754 28.745068 0.209638 2.786897 0.017583 -0.020788 584030.000000 0 0 1
-10.140630 -2.612685 -25.689394 27.741727 0.252161 2.754525 0.013760 -0.020168 470502.000000 0 0 1
-11.184030 -1.736885 -24.902314 27.353693 0.154070 2.715003 0.021240 -0.015177 513224.000000 0 0 1
-10.645530 -0.553885 -24.390414 26.618159 0.051983 2.729557 0.029614 -0.020512 -148301.000000 0 0 1
-11.651530 0.226015 -23.822314 26.520028 -0.019395 2.686628 0.034146 -0.018585 -61043.400000 0 0 1
-11.006630 1.379615 -23.035814 25.567518 -0.124694 2.692819 0.037720 -0.021257 402000.000000 0 0 1
-10.488330 2.418215 -23.893614 26.206060 -0.226603 2.718343 0.025951 -0.022847 54132.000000 0 0 1
-9.766130 3.388715 -23.151014 25.354095 -0.333988 2.721638 0.038660 -0.025467 -346145.000000 0 0 1
-9.532130 4.736015 -23.835414 26.103990 -0.461122 2.721607 0.047692 -0.032231 -683905.000000 0 0 1
-10.598030 5.483015 -24.361714 27.127012 -0.477440 2.686138 0.044799 -0.017963 -625754.000000 0 0 1
-10.943530 5.106115 -25.657794 28.357638 -0.436562 2.701690 0.035702 -0.018738 380281.000000 0 0 1
-12.440630 5.272515 -26.055144 29.350285 -0.400866 2.663188 0.034812 -0.009896 493958.000000 0 0 1
-12.794430 6.584215 -26.416114 30.080897 -0.475272 2.642817 0.024434 -0.002729 -517926.000000 0 0 1
-14.172830 6.775315 -26.544194 30.844258 -0.445934 2.607219 0.031182 -0.012481 -420484.000000 0 0 1
-14.569330 8.249315 -26.721244 31.533180 -0.515204 2.581867 0.037349 0.000633 -971041.000000 0 0 1
-14.521630 9.024415 -25.563554 30.754074 -0.556040 2.552104 0.053112 0.000908 81823.000000 0 0 1
-14.632730 10.428115 -25.849964 31.481471 -0.619170 2.534161 0.038731 0.005622 -87596.000000 0 0 1
-14.106630 11.278715 -24.661414 30.567822 -0.674456 2.509473 0.038241 0.000704 15137.600000 0 0 1
-14.902330 11.149115 -23.517014 29.990534 -0.642313 2.472118 0.066610 -0.000556 145992.000000 0 0 1
-14.419830 12.060015 -22.540614 29.350549 -0.696516 2.446476 0.061927 -0.000600 319222.000000 0 0 1
-15.244330 11.996815 -21.204214 28.739030 -0.666745 2.400630 0.078547 -0.004551 994129.000000 0 0 1
-16.615930 12.395615 -21.281214 29.709097 -0.640941 2.369310 0.068465 0.000937 474301.000000 0 0 1
-17.109830 12.853215 -20.033614 29.313770 -0.644280 2.323233 0.073007 0.004122 -723890.000000 0 0 1
-18.539830 13.310315 -20.248414 30.510458 -0.622659 2.296490 0.067249 -0.001062 -732743.000000 0 0 1
-18.719430 14.525015 -20.971114 31.641440 -0.659892 2.295313 0.053519 0.003456 524373.000000 0 0 1
-20.129230 14.698015 -21.107714 32.661187 -0.630697 2.273473 0.036918 0.000629 499799.000000 0 0 1
-20.594930 16.016915 -21.763414 33.975563 -0.661002 2.266025 0.043095 -0.003948 -128807.000000 0 0 1
-20.527530 15.932915 -23.147114 34.799801 -0.660043 2.298492 0.051679 -0.009461 88522.500000 0 0 1
-20.980530 17.082115 -23.831114 36.054171 -0.683333 2.292921 0.040867 -0.002265 -37689.600000 0 0 1
-20.780330 16.913315 -25.326314 36.868747 -0.683165 2.328055 0.036843 0.002215 -292374.000000 0 0 1
-19.456230 16.987415 -25.781804 36.494089 -0.717758 2.355288 0.031341 -0.006724 -283350.000000 0 0 1
-19.218530 16.678415 -27.151534 37.211923 -0.714755 2.388601 0.016448 -0.007333 -214561.000000 0 0 1
-18.388530 17.699115 -27.975074 37.868212 -0.766297 2.402007 0.006567 0.004911 -312148.000000 0 0 1
-19.033730 18.894815 -28.252644 38.955215 -0.781736 2.382208 0.011511 -0.008119 283064.000000 0 0 1
-18.305030 20.031815 -27.811634 38.856592 -0.830410 2.368495 0.004676 -0.015189 -877034.000000 0 0 1
-19.171030 21.271315 -28.039004 40.077213 -0.837284 2.345668 0.031451 -0.006058 334408.000000 0 0 1
-20.184530 21.529915 -27.092884 40.062162 -0.817639 2.313485 0.044752 0.006728 460242.000000 0 0 1
-21.358430 20.737915 -27.099264 40.256847 -0.770659 2.309269 0.078940 -0.013751 -530770.000000 0 0 1
-22.393330 21.142915 -26.043104 40.332708 -0.756685 2.272745 0.068188 0.003068 -60429.100000 0 0 1
-22.071330 20.748515 -24.721314 39.099717 -0.754515 2.255267 0.035533 0.009307 56347.900000 0 0 1
-23.051330 21.268615 -23.855114 39.405384 -0.745196 2.221036 0.039018 -0.011758 -363910.000000 0 0 1
-23.020130 20.937515 -22.329014 38.300010 -0.738056 2.193216 0.054829 -0.003848 -413651.000000 0 0 1
-21.874930 21.498915 -21.725214 37.585913 -0.776729 2.187090 0.059571 -0.006600 67047.900000 0 0 1
-20.796930 20.605415 -21.602814 36.383746 -0.780772 2.206506 0.050633 -0.000172 -291089.000000 0 0 1
-20.930830 19.815615 -20.246214 35.223109 -0.758035 2.183155 0.046212 -0.009553 -622641.000000 0 0 1
-21.866830 18.727915 -20.338314 35.249682 -0.708229 2.185821 0.059112 -0.011584 611357.000000 0 0 1
-22.326130 18.368315 -19.043714 34.619563 -0.688446 2.153263 0.036962 -0.006249 -722246.000000 0 0 1
-23.367430 19.204615 -18.300714 35.352088 -0.687925 2.114922 0.050897 -0.013463 -1228160.000000 0 0 1
-24.563130 19.095515 -19.007014 36.458917 -0.660811 2.119201 0.039244 -0.019334 -241548.000000 0 0 1
-25.509650 20.113515 -18.728314 37.497273 -0.667669 2.093769 0.043077 -0.026603 -259043.000000 0 0 1
-26.923790 19.915215 -19.320314 38.662395 -0.636869 2.094070 0.034557 -0.016341 134549.000000 0 0 1
-27.755680 18.872715 -18.835014 38.487854 -0.597148 2.082170 0.019421 -0.017166 410798.000000 0 0 1
-28.237480 19.082715 -17.506514 38.314271 -0.594295 2.045325 0.017168 -0.016726 -563981.000000 0 0 1
-29.190540 17.941015 -17.021914 38.258505 -0.551098 2.031879 0.014102 -0.017112 -221884.000000 0 0 1
-28.546030 16.700015 -16.935214 37.155993 -0.529332 2.044052 0.022416 -0.021881 147357.000000 0 0 1
-29.429210 15.642715 -16.473614 37.177317 -0.488558 2.029860 0.017578 -0.018676 334458.000000 0 0 1
-28.788140 14.451415 -15.749914 35.856104 -0.465240 2.025564 0.032895 -0.012514 -307415.000000 0 0 1
-28.099140 14.715415 -14.504714 34.878243 -0.482424 1.999692 0.024161 -0.014584 208995.000000 0 0 1
-28.869160 14.979415 -13.329214 35.149384 -0.478631 1.959745 0.004058 -0.006990 -271959.000000 0 0 1
-28.127680 15.870115 -12.269114 34.547910 -0.513693 1.933853 0.001157 -0.010850 100856.000000 0 0 1
-28.058850 17.264315 -12.532414 35.247937 -0.551586 1.934299 0.014799 -0.005763 -76558.900000 0 0 1
-29.171200 18.028315 -12.125314 36.373099 -0.553563 1.910661 0.005087 -0.007867 -571438.000000 0 0 1
-28.996110 19.523515 -12.375414 37.082245 -0.592591 1.911053 0.051229 -0.015490 11735.200000 0 0 1
-28.159370 20.130415 -11.394114 36.441866 -0.620639 1.888794 -0.007451 -0.023162 -330873.000000 0 0 1
-27.058670 20.701015 -12.033214 36.131730 -0.653059 1.910319 -0.004040 -0.024806 -116974.000000 0 0 1
-26.193410 21.470015 -10.977314 35.602777 -0.686622 1.884231 0.027761 -0.016107 712989.000000 0 0 1
-26.850550 22.720515 -10.659214 36.753132 -0.702275 1.865046 0.026887 -0.027819 901779.000000 0 0 1
-25.837050 23.687915 -10.274514 36.527197 -0.742030 1.855928 0.042561 -0.024045 881718.000000 0 0 1
-26.254320 24.858515 -9.276114 37.326685 -0.758097 1.821940 0.069953 -0.011702 74181.200000 0 0 1
-26.610920 24.395615 -7.937514 36.963377 -0.741994 1.787222 0.071649 -0.019072 244844.000000 0 0 1
-27.197370 25.325915 -7.039014 37.823890 -0.749782 1.757987 0.076005 -0.024831 180928.000000 0 0 1
-27.063230 24.703115 -5.616614 37.070321 -0.739838 1.722894 0.083409 -0.022044 -7558.160000 0 0 1
-27.756140 23.475115 -5.495314 36.765239 -0.702029 1.720829 0.073718 -0.025827 -356740.000000 0 0 1
-27.285030 22.648615 -4.434314 35.736477 -0.692812 1.695201 0.073755 -0.027488 65987.800000 0 0 1
-27.495720 21.100915 -4.702214 34.976765 -0.654560 1.705643 0.067048 -0.016931 385939.000000 0 0 1
-26.545910 20.558515 -5.621614 34.043214 -0.658967 1.736688 0.050943 -0.022564 210974.000000 0 0 1
-26.883020 20.718015 -6.960914 34.646605 -0.656601 1.773085 0.041073 -0.024283 -205701.000000 0 0 1
-27.929880 19.804715 -7.646314 35.082347 -0.616799 1.790513 0.032525 -0.021372 -26002.300000 0 0 1
-27.530790 18.433315 -7.727414 34.021235 -0.589998 1.799931 0.025835 -0.015994 277344.000000 0 0 1
-27.052570 18.065515 -8.994914 33.750746 -0.588782 1.840567 0.011560 -0.006563 -129379.000000 0 0 1
-26.571730 16.563515 -9.037614 32.589651 -0.557413 1.851795 0.027839 0.002192 281542.000000 0 0 1
-27.594620 15.624415 -8.700914 32.882994 -0.515205 1.838588 0.025363 -0.004096 568210.000000 0 0 1
-27.126820 14.303115 -9.011914 31.963386 -0.485224 1.856617 0.030589 -0.014789 263.338000 0 0 1
-27.685640 13.265715 -8.026814 31.731744 -0.446833 1.826533 0.047214 -0.013082 -1014980.000000 0 0 1
-29.035520 13.070315 -8.219214 32.885408 -0.422978 1.823409 0.061084 -0.010006 -1070310.000000 0 0 1
-29.566340 12.172215 -7.244614 32.784382 -0.390545 1.793613 0.074702 -0.013639 279685.000000 0 0 1
-30.380690 10.989815 -7.897814 33.258650 -0.347092 1.810553 0.051693 -0.010004 156055.000000 0 0 1
-29.543200 10.028215 -8.514014 32.339669 -0.327239 1.837205 0.051294 -0.009495 164626.000000 0 0 1
-30.261010 8.881615 -8.803814 32.743228 -0.285483 1.843020 0.037162 -0.003558 -432675.000000 0 0 1
-29.255300 7.757515 -9.034014 31.585836 -0.259201 1.860862 0.064815 -0.013097 -229413.000000 0 0 1
-28.679660 7.804415 -10.318614 31.462765 -0.265690 1.904943 0.060089 -0.023137 -169434.000000 0 0 1
-27.833980 6.723815 -10.515814 30.504466 -0.237028 1.922748 0.070565 -0.032334 -845423.000000 0 0 1
-27.175630 6.697515 -11.880814 30.406008 -0.241638 1.972231 0.052664 -0.033702 -554052.000000 0 0 1
-26.270600 7.773315 -11.948014 29.888524 -0.287686 1.982043 0.059515 -0.031112 82773.400000 0 0 1
-25.355030 7.565115 -13.003814 29.482328 -0.289958 2.027589 0.050040 -0.025585 -223767.000000 0 0 1
-31.295930 26.082715 -34.123493 53.142789 -0.694791 2.268043 0.047813 -0.010585 -2296.950000 0 0 1
-31.653630 27.456215 -34.229905 54.106214 -0.714507 2.255757 0.044850 -0.021691 274875.000000 0 0 1
-31.675920 27.941315 32.889619 53.533242 -0.722837 0.909200 0.047227 -0.031421 -60867.300000 0 0 1
-31.931410 29.500115 32.809190 54.463884 -0.745841 0.924288 0.059442 -0.033063 74558.900000 0 0 1
-32.252120 29.896515 31.489697 54.088833 -0.747514 0.949383 0.068346 -0.032304 79359.100000 0 0 1
-32.570860 31.253015 31.545277 55.070104 -0.764753 0.960854 0.084672 -0.035899 -67623.700000 0 0 1
-32.312910 31.925215 30.152807 54.520962 -0.779363 0.984776 0.087865 -0.032701 101348.000000 0 0 1
-30.954020 31.739315 29.793357 53.415163 -0.797923 0.979100 0.064772 -0.029374 143182.000000 0 0 1
-30.626410 32.432515 28.607397 52.992718 -0.814032 1.000554 0.059166 -0.016701 -115361.000000 0 0 1
-29.233920 32.092115 28.059007 51.689784 -0.831971 0.996988 0.068819 -0.020387 -619714.000000 0 0 1
-29.070060 30.856015 27.439457 50.498375 -0.815192 0.996346 0.085822 -0.026906 -400734.000000 0 0 1
-28.011120 30.724615 26.549497 49.330524 -0.831564 1.002501 0.055883 -0.016293 -515193.000000 0 0 1
-28.298950 31.350515 25.140347 49.149999 -0.836512 1.033864 0.071295 -0.009893 -244517.000000 0 0 1
-28.220370 32.772415 25.178517 50.043763 -0.859893 1.043580 0.063639 -0.012921 339852.000000 0 0 1
-29.292130 33.394415 24.449587 50.705011 -0.850746 1.067640 0.075245 -0.013563 314794.000000 0 0 1
-29.419290 -33.860719 24.981287 51.343039 0.855470 1.062652 0.071896 -0.016704 -437168.000000 0 0 1
-29.991040 -33.884819 26.232707 52.304860 0.846281 1.045424 0.061960 -0.023723 -33671.900000 0 0 1
-29.966090 -32.583619 26.741897 51.718351 0.827221 1.027375 0.059579 -0.031365 -20690.200000 0 0 1
-30.360030 -32.529319 28.250047 52.706292 0.819878 1.005116 0.072401 -0.036261 263209.000000 0 0 1
-31.724780 -32.802819 28.504907 53.805356 0.802103 1.012457 0.055754 -0.036782 -49464.500000 0 0 1
-31.898410 -32.789919 29.885607 54.642812 0.799179 0.992108 0.053533 -0.035713 -425356.000000 0 0 1
-33.340760 -33.014519 30.313897 55.861410 0.780482 0.997193 0.072033 -0.043209 -512323.000000 0 0 1
-33.531610 -33.690619 31.562997 57.058299 0.787764 0.984630 0.064743 -0.046641 -456442.000000 0 0 1
-34.878875 -33.562219 31.904687 57.972990 0.766163 0.988028 0.067154 -0.050141 -494221.000000 0 0 1
-35.386051 -34.225519 33.181580 59.368140 0.768728 0.977723 0.058981 -0.038454 -199993.000000 0 0 1
-35.240153 33.040415 33.266371 58.653123 -0.753193 0.967729 0.059377 -0.032536 213569.000000 0 0 1
-35.996375 32.530915 -34.095280 59.299979 -0.734871 2.183355 0.052268 -0.027929 182833.000000 0 0 1
-35.486448 31.210815 -33.571644 57.969460 -0.721381 2.188453 0.055027 -0.021280 773043.000000 0 0 1
-34.264267 31.319015 -32.822974 56.853041 -0.740520 2.186251 0.057543 -0.020919 214605.000000 0 0 1
-33.766590 30.078415 -32.481204 55.676946 -0.727695 2.193689 0.048704 -0.014128 439403.000000 0 0 1
-32.782940 30.085715 -31.258704 54.378102 -0.742522 2.183205 0.045649 -0.009466 725523.000000 0 0 1
-33.439830 30.273015 -29.984944 54.164329 -0.735735 2.157468 0.054671 -0.017005 -21469.900000 0 0 1
-33.877820 31.554815 -29.620174 54.961512 -0.749911 2.139958 0.049856 -0.004931 179681.000000 0 0 1
-34.819789 31.584115 -28.378734 54.911989 -0.736710 2.113910 0.038115 -0.001699 280905.000000 0 0 1
-34.266331 31.325215 -27.105034 53.759961 -0.740588 2.099236 0.027525 -0.006947 -523238.000000 0 0 1
-35.321306 31.345915 -26.202424 54.006741 -0.725838 2.077353 0.045468 -0.009898 -455410.000000 0 0 1
-34.951276 30.994115 -24.759414 52.870175 -0.725463 2.058169 0.042189 -0.009217 -201892.000000 0 0 1
-34.440767 32.096915 -24.038914 52.860645 -0.750187 2.042899 0.037874 -0.015438 8884.200000 0 0 1
-34.182083 31.867815 -22.627914 51.922971 -0.750374 2.021721 0.026742 -0.017188 -120352.000000 0 0 1
-35.441558 31.548315 -21.801214 52.217748 -0.727347 2.001495 0.019297 -0.022133 671222.000000 0 0 1
35.613451 32.543415 -21.585014 52.851723 0.740385 1.991505 0.022120 -0.025682 708345.000000 0 0 1
35.877411 33.765515 -20.866314 53.504222 0.755083 1.971421 0.019353 -0.023723 -721905.000000 0 0 1
-35.938519 33.440515 -19.374414 52.775118 -0.749409 1.946699 0.017946 -0.021477 -37210.300000 0 0 1
-34.789556 32.679715 -19.044914 51.390522 -0.754137 1.950443 0.014765 -0.024879 52603.700000 0 0 1
-34.601500 32.653115 -17.648314 50.743992 -0.756436 1.926011 0.029190 -0.016709 -272554.000000 0 0 1
-33.405650 31.776015 -17.299514 49.243535 -0.760402 1.929761 0.034360 -0.016257 -289024.000000 0 0 1
-33.255010 31.488715 -15.900314 48.479427 -0.758124 1.904962 0.036148 -0.013062 -974846.000000 0 0 1
-32.146370 30.691615 -15.821114 47.177028 -0.762251 1.912780 0.041519 -0.009985 -960554.000000 0 0 1
-31.823280 30.137815 -14.419514 46.140345 -0.758203 1.888635 0.046549 -0.007819 615088.000000 0 0 1
-32.852840 29.221715 -13.984314 46.138691 -0.726969 1.878733 0.050156 -0.012481 804791.000000 0 0 1
-32.471730 28.900915 -12.668514 45.278774 -0.727281 1.854371 0.067663 -0.014177 109700.000000 0 0 1
-33.364270 27.810215 -12.064714 45.079263 -0.694856 1.841732 0.079073 -0.019672 -107634.000000 0 0 1
-32.945290 27.541915 -10.762114 44.269316 -0.696304 1.816362 0.084623 -0.015633 471546.000000 0 0 1
-33.828520 26.633415 -10.075214 44.217842 -0.666953 1.800669 0.096010 -0.014319 411344.000000 0 0 1
-33.177460 26.064315 -8.766414 43.092255 -0.665900 1.775660 0.085627 -0.016837 358440.000000 0 0 1
-32.729400 27.003815 -7.796114 43.141616 -0.689837 1.752504 0.094641 -0.020270 -879678.000000 0 0 1
-31.355910 27.097415 -7.833814 42.176198 -0.712674 1.757621 0.100361 -0.026404 -1334410.000000 0 0 1
-30.735010 27.694915 -6.534014 41.884872 -0.733415 1.727435 0.097318 -0.024161 -210106.000000 0 0 1
-30.266270 26.717015 -5.617714 40.760333 -0.723193 1.709059 0.109782 -0.037284 233156.000000 0 0 1
-30.192650 27.258515 -4.333714 40.907259 -0.734371 1.676935 0.103899 -0.033996 -195184.000000 0 0 1
-29.506860 26.395815 -3.282714 39.726189 -0.729804 1.653524 0.097805 -0.028795 77409.300000 0 0 1
-30.352960 25.365915 -2.766214 39.653295 -0.696132 1.640613 0.103051 -0.012887 290130.000000 0 0 1
-29.591980 24.372015 -2.146714 38.396469 -0.688968 1.626735 0.076038 -0.012269 -224937.000000 0 0 1
-30.445670 23.154415 -1.842914 38.294414 -0.650197 1.618940 0.080814 -0.015468 -318963.000000 0 0 1
-30.643020 22.241315 -2.915814 37.975950 -0.627845 1.647652 0.069892 -0.014730 213639.000000 0 0 1
-31.611180 21.319415 -2.432214 38.206018 -0.593356 1.634500 0.079925 -0.010744 -67728.900000 0 0 1
-32.073930 20.366215 -3.543914 38.158604 -0.565742 1.663804 0.071886 -0.005809 -591884.000000 0 0 1
-31.158220 19.409415 -3.976314 36.923856 -0.557110 1.678695 0.066461 -0.004856 -157771.000000 0 0 1
-31.525290 18.777415 -5.154714 37.054100 -0.537200 1.710362 0.061974 -0.005433 -457288.000000 0 0 1
-30.485580 17.781915 -5.652514 35.742384 -0.528042 1.729609 0.045785 0.000704 -265639.000000 0 0 1
-30.425650 16.603015 -4.878814 35.002616 -0.499529 1.710636 0.054888 0.004751 -262271.000000 0 0 1
-29.431090 15.765415 -5.350314 33.813655 -0.491776 1.729694 0.046540 -0.001399 -812230.000000 0 0 1
-29.144240 14.620415 -4.424814 32.904745 -0.464972 1.705678 0.054832 -0.002110 180207.000000 0 0 1
-30.245840 13.816715 -3.967914 33.488159 -0.428506 1.689562 0.070735 -0.001428 445445.000000 0 0 1
-29.829400 12.706215 -3.274214 32.587751 -0.402686 1.671440 0.069233 -0.008860 -650467.000000 0 0 1
-30.944360 11.859415 -2.680214 33.247296 -0.365984 1.651498 0.076370 -0.006944 -477395.000000 0 0 1
-31.664770 11.201215 -3.726914 33.793709 -0.340006 1.681305 0.066547 -0.000525 174959.000000 0 0 1
-32.745080 10.468615 -3.195914 34.526020 -0.309431 1.663494 0.052494 0.003977 -126207.000000 0 0 1
-33.775770 10.213115 -4.323514 35.550009 -0.293639 1.692716 0.047774 -0.001406 65509.700000 0 0 1
-33.230200 9.276515 -5.288914 34.903761 -0.272229 1.722911 0.050467 -0.010624 532350.000000 0 0 1
-34.189775 8.811815 -6.206414 35.848408 -0.252243 1.744803 0.060679 -0.010932 -132486.000000 0 0 1
-33.576290 7.866815 -7.280514 35.245708 -0.230145 1.778859 0.063565 -0.021452 -255889.000000 0 0 1
-33.036490 6.653515 -6.738614 34.366959 -0.198740 1.768153 0.056944 -0.022137 551626.000000 0 0 1
-32.612980 5.751915 -7.739214 34.008623 -0.174574 1.800374 0.060646 -0.022720 -601364.000000 0 0 1
-31.595030 4.720215 -7.279014 32.764469 -0.148301 1.794827 0.065667 -0.023013 -940846.000000 0 0 1
-30.277610 5.146815 -7.227514 31.550917 -0.168378 1.801923 0.058658 -0.021550 -245725.000000 0 0 1
-29.452780 4.209315 -6.529014 30.460017 -0.141956 1.786820 0.059177 -0.023651 544390.000000 0 0 1
-27.921820 4.492515 -6.470714 29.011737 -0.159529 1.795726 0.087641 -0.019861 297110.000000 0 0 1
-27.369570 4.535015 -7.771514 28.810695 -0.164204 1.843924 0.082420 -0.020593 336908.000000 0 0 1
-25.962280 4.435715 -7.550214 27.399293 -0.169218 1.849971 0.105004 -0.023769 511223.000000 0 0 1
-25.111990 4.833415 -8.820214 27.051250 -0.190149 1.902925 0.099343 -0.016915 -4411.290000 0 0 1
-25.167690 3.846715 -9.892314 27.314240 -0.151670 1.941388 0.092789 -0.034428 1206020.000000 0 0 1
-24.162430 4.125915 -10.907014 26.829259 -0.169126 1.989454 0.091011 -0.036186 559962.000000 0 0 1
-24.607130 3.464415 -12.220314 27.692040 -0.139870 2.027836 0.082694 -0.039544 65880.700000 0 0 1
-25.517420 4.310915 -12.899314 28.915653 -0.167360 2.033201 0.071579 -0.034832 106634.000000 0 0 1
-26.090140 3.612715 -13.964214 29.811850 -0.137596 2.058288 0.065277 -0.042608 -538005.000000 0 0 1
-26.892840 4.501015 -14.856214 31.051426 -0.165832 2.069673 0.050510 -0.039591 -306103.000000 0 0 1
-26.087530 5.499815 -15.522414 30.850487 -0.207779 2.098036 0.037297 -0.034663 814410.000000 0 0 1
-26.847050 6.334515 -16.394214 32.088322 -0.231710 2.107038 0.059581 -0.027921 -7923.810000 0 0 1
-27.578750 5.753915 -17.634314 33.236486 -0.205685 2.130070 0.020885 -0.026224 -157491.000000 0 0 1
-28.810340 5.182515 -17.284014 33.994577 -0.177980 2.104162 0.026177 -0.031075 -501783.000000 0 0 1
-29.506470 4.665715 -18.385214 35.077297 -0.156827 2.122495 0.032873 -0.022610 33409.100000 0 0 1
-30.851140 4.016215 -17.987214 35.936926 -0.129452 2.094998 0.031092 -0.027830 -128651.000000 0 0 1
-30.689790 2.980915 -17.043614 35.231149 -0.096827 2.075748 0.041602 -0.030673 62599.000000 0 0 1
-30.301010 1.788815 -17.602814 35.088604 -0.058966 2.096322 0.071610 -0.026409 -230080.000000 0 0 1
-30.656250 0.562815 -16.782014 34.953661 -0.018357 2.071590 0.063637 -0.028826 -584251.000000 0 0 1
-29.936270 -0.612285 -17.052614 34.457899 0.020450 2.088496 0.066951 -0.017464 221463.000000 0 0 1
-30.363920 -1.622085 -16.166114 34.437509 0.053371 2.059445 0.083763 -0.031355 -297320.000000 0 0 1
-30.251260 -3.080185 -16.678614 34.681442 0.101470 2.072487 0.076275 -0.021469 286492.000000 0 0 1
-31.138710 -3.337485 -17.782114 36.013354 0.106774 2.087210 0.076307 -0.022557 619525.000000 0 0 1
-30.828460 -4.575485 -18.419314 36.202212 0.147342 2.104575 0.073551 -0.019011 -35465.100000 0 0 1
-31.825410 -4.868285 -19.549914 37.666378 0.151792 2.116510 0.085355 -0.015362 64078.700000 0 0 1
-31.541520 -6.077485 -20.205714 37.948309 0.190349 2.132293 0.074099 -0.011979 572123.000000 0 0 1
-32.661610 -6.408985 -21.018014 39.365121 0.193762 2.134032 0.065290 -0.006724 95455.000000 0 0 1
-32.303860 -7.631485 -21.898114 39.765642 0.231987 2.153974 0.059370 -0.010728 273542.000000 0 0 1
-31.339430 -7.270985 -22.897214 39.488093 0.227974 2.189342 0.060113 -0.014305 435095.000000 0 0 1
-31.333560 -8.260685 -23.906214 40.268324 0.257772 2.206412 0.047140 0.000652 116560.000000 0 0 1
-30.043580 -8.184785 -24.769614 39.788706 0.265976 2.242766 0.041838 -0.002062 -35003.700000 0 0 1
-29.863460 -6.955185 -25.457444 39.853259 0.228820 2.263707 0.043755 -0.003884 -51872.500000 0 0 1
-29.865020 -7.031585 -26.868294 40.783180 0.231234 2.290030 0.045361 -0.002221 514329.000000 0 0 1
-31.224450 -7.271985 -27.622964 42.318745 0.228815 2.281986 0.055803 -0.000027 569771.000000 0 0 1
-31.904670 -8.503185 -27.418664 42.918472 0.260464 2.263805 0.041816 -0.007176 -57344.000000 0 0 1
-32.973730 -8.674485 -28.320374 44.323325 0.257244 2.263928 0.036881 -0.006365 -278295.000000 0 0 1
-33.970250 -9.728385 -27.878484 45.009212 0.278915 2.238768 0.031152 0.002646 -1104750.000000 0 0 1
-33.528290 -11.079485 -28.110464 45.134237 0.319155 2.243137 0.026753 0.005884 39238.100000 0 0 1
-34.474224 -12.021485 -27.659704 45.804448 0.335525 2.219138 0.013733 0.003681 563728.000000 0 0 1
-35.907008 -12.056685 -28.295734 47.279228 0.323947 2.212400 0.025479 0.000143 158055.000000 0 0 1
35.354311 -10.993585 -27.986954 46.411807 -0.301476 2.218070 0.011181 -0.001298 -419572.000000 0 0 1
34.343331 -10.681685 -28.925074 46.154335 -0.301542 2.248112 0.011038 -0.004820 417124.000000 0 0 1
33.354531 -9.608185 -28.303804 44.787803 -0.280469 2.254867 0.018842 -0.000439 357692.000000 0 0 1
32.483901 -10.220485 -27.353274 43.679099 -0.304826 2.247508 0.002133 0.007376 196863.000000 0 0 1
31.511431 -9.236285 -26.981514 42.500369 -0.285123 2.258615 0.007021 -0.003768 709401.000000 0 0 1
30.486841 -9.650185 -25.867864 41.130523 -0.306558 2.250961 0.009269 0.006187 134352.000000 0 0 1
31.052611 -9.808585 -24.614214 40.820736 -0.305952 2.218032 0.006021 0.008432 146395.000000 0 0 1
30.098271 -10.283185 -23.663314 39.643439 -0.329220 2.210433 0.008158 0.006373 249142.000000 0 0 1
30.669011 -10.358885 -22.217314 39.261989 -0.325733 2.172288 0.006604 -0.003308 -202404.000000 0 0 1
31.546161 -11.431985 -22.031614 40.140286 -0.347669 2.151803 0.007739 0.002799 -39502.900000 0 0 1
31.866671 -11.513985 -20.657514 39.683617 -0.346721 2.118297 0.019313 0.001218 -56446.600000 0 0 1
32.979531 -12.535685 -20.317214 40.713414 -0.363239 2.093275 0.030413 -0.001652 58220.900000 0 0 1
34.227781 -12.262385 -20.917214 41.945642 -0.344013 2.092865 0.033814 0.001199 932206.000000 0 0 1
35.278331 -13.097185 -20.311614 42.762817 -0.355482 2.065741 0.036272 0.008259 2055980.000000 0 0 1
-35.358594 -12.802185 -20.877014 43.011345 0.347384 2.077599 0.019898 0.001175 736894.000000 0 0 1
-34.904404 -11.469785 -20.807014 42.223278 0.317490 2.086084 0.030215 0.004534 102106.000000 0 0 1
-35.360804 -10.517985 -21.803014 42.853073 0.289113 2.104570 0.039669 0.002607 -384943.000000 0 0 1
-34.932649 -10.807185 -23.309314 43.363687 0.300033 2.138302 0.026567 0.000557 39075.100000 0 0 1
-35.401799 -11.967785 -23.940514 44.380890 0.325995 2.140560 0.026531 0.002947 104389.000000 0 0 1
35.308301 -11.969085 -24.225014 44.461066 -0.326831 2.147017 0.022363 0.011184 -236249.000000 0 0 1
34.809891 -13.108285 -25.144164 44.897490 -0.360144 2.165224 0.012688 -0.004548 -239967.000000 0 0 1
34.682701 -14.409585 -24.605014 44.899138 -0.393770 2.150775 0.017443 -0.014325 346280.000000 0 0 1
33.588491 -14.513685 -23.713914 43.602563 -0.407871 2.145832 0.022600 -0.010464 -362115.000000 0 0 1
-29.482200 8.859815 -19.515314 36.449196 -0.291928 2.135791 0.007508 -0.015130 477786.000000 0 0 1
-28.418640 7.873715 -19.571314 35.392807 -0.270282 2.156726 0.005973 -0.011585 261749.000000 0 0 1
-27.519070 8.344415 -20.532714 35.334414 -0.294411 2.190872 0.016495 -0.022738 383793.000000 0 0 1
-26.240740 7.432115 -20.668114 34.219639 -0.276000 2.219287 0.021838 -0.017867 684914.000000 0 0 1
-25.201140 7.531415 -19.712914 32.869722 -0.290403 2.213958 0.029111 -0.027823 -98825.400000 0 0 1
-24.273930 6.520115 -19.871014 32.040486 -0.262412 2.239774 0.057216 -0.029843 -455778.000000 0 0 1
-22.809930 6.866015 -19.567114 30.827050 -0.292383 2.258466 0.059464 -0.020127 -2591.580000 0 0 1
-22.248830 7.869715 -20.409814 31.201015 -0.339979 2.283841 0.063800 -0.012261 828046.000000 0 0 1
-20.969630 8.314615 -19.899114 30.080441 -0.377492 2.293653 0.070573 -0.004334 1058040.000000 0 0 1
-20.323330 9.405815 -20.845314 30.594676 -0.433454 2.320385 0.063168 0.001322 -41192.400000 0 0 1
-19.878930 8.961715 -22.103014 31.048791 -0.423531 2.362968 0.077969 -0.006360 -20809.200000 0 0 1
-19.310330 10.044915 -22.815614 31.533179 -0.479664 2.379718 0.065164 -0.001474 -434325.000000 0 0 1
-18.230730 9.530715 -23.739714 31.412864 -0.481707 2.427568 0.083830 -0.001898 -422641.000000 0 0 1
-18.743230 8.730915 -24.829114 32.311336 -0.435929 2.447186 0.085482 -0.002813 -272927.000000 0 0 1
-17.744830 8.236215 -25.653574 32.261743 -0.434556 2.490084 0.064737 -0.003059 -1328280.000000 0 0 1
-18.363630 7.200215 -26.624924 33.135367 -0.373670 2.503981 0.049763 -0.001830 47116.700000 0 0 1
-18.780230 6.020715 -25.945994 32.590499 -0.310236 2.491655 0.058919 0.001247 353876.000000 0 0 1
-19.355730 5.039315 -26.813864 33.451790 -0.254698 2.500708 0.047393 -0.002189 -372823.000000 0 0 1
-19.728530 3.633215 -26.113784 32.929392 -0.182120 2.486553 0.042743 0.005070 277938.000000 0 0 1
-18.689030 2.689015 -25.847054 32.009074 -0.142901 2.510683 0.049424 0.006154 591934.000000 0 0 1
-17.658830 3.204215 -24.993014 30.769335 -0.179498 2.518830 0.045153 0.002472 1334.010000 0 0 1
-16.803230 2.053815 -24.397714 29.695372 -0.121624 2.535008 0.045991 0.001241 -14499.900000 0 0 1
-17.365530 1.394215 -23.279414 29.076392 -0.080115 2.499141 0.040975 0.001420 -218740.000000 0 0 1
-18.513430 0.625215 -23.472814 29.901688 -0.033758 2.473492 0.035000 0.001918 -319612.000000 0 0 1
-18.949630 -0.077985 -22.162014 29.159036 0.004115 2.434170 0.053113 -0.006576 470436.000000 0 0 1
-18.211830 -1.315585 -21.926914 28.534033 0.072113 2.447208 0.041228 -0.008385 600690.000000 0 0 1
-18.824930 -2.064885 -20.912114 28.212732 0.109252 2.405697 0.053271 -0.012498 -49955.500000 0 0 1
-18.316230 -3.542685 -20.779214 27.925089 0.191059 2.409991 0.034748 -0.018987 -160808.000000 0 0 1
-18.530230 -4.327585 -21.888814 29.003751 0.229430 2.425976 0.033420 -0.020767 327091.000000 0 0 1
-18.951330 -5.593185 -21.444014 29.159601 0.286987 2.397055 0.030809 -0.022337 -336206.000000 0 0 1
-18.903030 -6.649485 -22.558114 30.172979 0.338249 2.415277 0.012038 -0.025087 415838.000000 0 0 1
-17.577330 -6.948585 -23.004014 29.772974 0.376461 2.453797 0.020922 -0.015240 622149.000000 0 0 1
-17.673130 -7.767385 -24.182014 30.942553 0.414090 2.467884 0.036055 -0.019161 -112725.000000 0 0 1
-16.258930 -8.043785 -24.680414 30.629693 0.459423 2.507767 0.044657 -0.020342 -1844070.000000 0 0 1
-16.332230 -8.768585 -25.879424 31.833542 0.492721 2.520015 0.051718 -0.036765 52247.600000 0 0 1
-15.133630 -8.978185 -26.617214 31.907846 0.535449 2.557459 0.058986 -0.042404 207199.000000 0 0 1
-14.066330 -9.758285 -25.790574 30.955443 0.606508 2.555578 0.058220 -0.045928 -979728.000000 0 0 1
-13.474130 -9.011785 -24.741214 29.578575 0.589493 2.561583 0.050616 -0.038537 -52540.800000 0 0 1
-12.492430 -9.799985 -24.065714 28.831564 0.665202 2.558385 0.037732 -0.038828 352627.000000 0 0 1
-11.804130 -8.993585 -22.898214 27.286448 0.651075 2.566568 0.047552 -0.032047 -191081.000000 0 0 1
-12.581430 -8.777285 -21.766414 26.629117 0.609139 2.527665 0.052692 -0.028894 221957.000000 0 0 1
-11.786330 -8.281185 -20.700914 25.219505 0.612475 2.533658 0.049454 -0.026081 -242011.000000 0 0 1
-12.659130 -8.385485 -19.431414 24.660693 0.585047 2.478270 0.033023 -0.020602 764193.000000 0 1 0
-13.550330 -7.271485 -19.259714 24.645943 0.492519 2.467792 0.019437 -0.010654 1846890.000000 0 1 0
-14.856030 -7.352585 -19.920914 25.915342 0.459577 2.447590 0.028403 -0.016732 1159760.000000 0 0 1
-15.626030 -5.997885 -19.795014 25.922770 0.366498 2.439690 0.022502 -0.008766 -232962.000000 0 0 1
-15.836830 -5.571385 -18.465214 24.956154 0.338277 2.403727 0.017669 -0.004329 180565.000000 0 1 0
-15.487130 -4.264785 -18.225014 24.293841 0.268716 2.419147 0.016204 -0.003841 -613149.000000 0 1 0
-15.253430 -3.977285 -16.680114 22.950209 0.255068 2.384442 0.031133 -0.001920 327719.000000 0 1 0
-16.383430 -3.809485 -15.812514 23.086025 0.228461 2.325316 0.043423 -0.010362 333015.000000 0 1 0
-16.877430 -2.484285 -15.887514 23.311637 0.146146 2.320644 0.022027 -0.011413 -254375.000000 0 1 0
-17.999730 -2.324485 -14.860714 23.457074 0.128429 2.256901 0.021600 -0.014294 -84177.300000 0 1 0
-17.498030 -2.444285 -13.485514 22.226441 0.138791 2.222740 0.028852 -0.024417 698582.000000 0 1 0
-18.458930 -1.935885 -12.602214 22.434249 0.104493 2.167284 0.027965 -0.028053 -245330.000000 0 1 0
-18.108130 -0.608085 -11.943714 21.700840 0.033568 2.153616 0.035160 -0.023977 -86558.400000 0 1 0
-17.954030 0.444115 -12.854114 22.085576 -0.024731 2.191999 0.058983 -0.026047 633303.000000 0 1 0
-16.973730 1.395615 -12.439814 21.090382 -0.082038 2.201649 0.061092 -0.016325 -338664.000000 0 1 0
-16.488430 2.328415 -13.570414 21.481293 -0.140287 2.254581 0.074159 -0.015046 240590.000000 0 1 0
-15.754830 1.678215 -14.614814 21.555135 -0.106121 2.315862 0.074394 -0.021639 2150310.000000 0 1 0
-14.343530 1.389015 -14.290214 20.294739 -0.096538 2.351999 0.052592 -0.013049 1725480.000000 0 1 0
-13.623830 0.363415 -15.244614 20.448449 -0.026669 2.412103 0.038312 -0.014215 85643.100000 0 1 0
-13.222530 0.772815 -16.485614 21.147293 -0.058380 2.464762 0.037665 -0.019410 40464.300000 0 1 0
-12.722330 -0.301885 -17.245114 21.432283 0.023724 2.505853 0.010619 -0.013052 -235090.000000 0 1 0
-12.227530 0.252315 -18.537414 22.208374 -0.020632 2.558391 0.025368 -0.022016 -260595.000000 0 1 0
-10.975930 0.910215 -18.451514 21.488552 -0.082739 2.603460 0.011724 -0.013273 -85051.300000 0 1 0
-10.677530 1.753415 -19.539014 22.335111 -0.162763 2.635843 0.013655 -0.009203 684270.000000 0 1 0
-9.240530 2.366515 -19.425814 21.641396 -0.250713 2.685143 0.006349 -0.005846 -114609.000000 0 1 0
-8.235930 1.430515 -19.737214 21.434424 -0.171976 2.740970 0.010539 -0.003522 -182312.000000 0 1 0
-6.911530 1.908415 -19.605314 20.875335 -0.269408 2.790978 0.012402 0.004693 363022.000000 0 1 0
-6.450330 3.154815 -20.490014 21.711754 -0.454885 2.804527 0.013154 0.008209 -1036020.000000 0 1 0
-6.377130 2.786815 -21.852414 22.933864 -0.411992 2.833273 0.015653 0.005607 169608.000000 0 1 0
-5.956230 3.899915 -22.609714 23.704117 -0.579716 2.836538 0.012056 0.000512 -229223.000000 0 1 0
-5.292530 3.291915 -23.877214 24.677295 -0.556434 2.886256 0.027645 -0.014820 833075.000000 0 1 0
-3.974130 2.737815 -23.701314 24.187633 -0.603244 2.940725 0.043417 -0.022776 708244.000000 0 1 0
-3.500130 2.208215 -24.933914 25.275031 -0.562827 2.977114 0.062246 -0.023971 221026.000000 0 0 1
-2.060230 1.666015 -25.009814 25.149770 -0.679996 3.036046 0.046653 -0.021532 -313390.000000 0 0 1
-0.994930 2.573715 -24.884114 25.036633 -1.201918 3.031157 0.036926 -0.022789 -164165.000000 0 0 1
0.288770 2.022715 -24.796514 24.880552 1.428991 3.059379 0.033959 -0.018038 -195765.000000 0 1 0
0.695770 1.141615 -23.582414 23.620280 1.023449 3.084961 0.030037 -0.021708 -1226000.000000 0 1 0
0.380870 -0.230485 -23.661914 23.666101 -0.544200 3.122781 0.032421 -0.023501 -60214.500000 0 1 0
0.829670 -0.961385 -22.542814 22.578553 -0.858806 3.085320 0.027640 -0.023220 -745114.000000 0 1 0
0.432270 -2.482885 -22.578114 22.718336 -1.398424 3.030430 0.034431 -0.025202 710957.000000 0 1 0
-0.871730 -2.903285 -22.139314 22.345876 1.279104 3.005518 0.037461 -0.019779 660422.000000 0 1 0
-1.992430 -2.716485 -22.985414 23.230977 0.937966 2.996065 0.051150 -0.023504 -21782.400000 0 1 0
-2.693930 -1.363385 -22.850914 23.049519 0.468512 3.010224 0.045534 -0.025698 -1848660.000000 0 1 0
-3.291430 -1.231585 -21.595214 21.879295 0.358051 2.980272 0.035718 -0.023835 17019.400000 0 1 0
-4.092030 -0.071385 -21.459514 21.846293 0.017443 2.953141 0.030397 -0.024377 837310.000000 0 1 0
-5.480630 -0.185285 -22.175714 22.843684 0.033794 2.899169 0.029098 -0.019308 -284366.000000 0 1 0
-6.325730 -1.240685 -21.748814 22.684026 0.193675 2.853446 0.027961 -0.016192 695257.000000 0 1 0
-7.696930 -0.856885 -21.959114 23.284752 0.110872 2.802535 0.017649 -0.012684 1234720.000000 0 1 0
-8.707930 -1.997185 -21.562814 23.340345 0.225453 2.748798 0.027167 -0.014291 301678.000000 0 1 0
-8.611030 -3.101885 -22.474514 24.266753 0.345752 2.754854 0.044332 -0.021415 228369.000000 0 1 0
-9.247530 -4.247185 -21.870514 24.122080 0.430542 2.706093 0.035915 -0.027247 -490361.000000 0 1 0
-10.052330 -5.046985 -22.838314 25.458004 0.465303 2.683952 0.026108 -0.030059 -1088340.000000 0 0 1
-11.423630 -4.808785 -22.769314 25.924224 0.398436 2.643097 0.017098 -0.027151 -900955.000000 0 0 1
-12.016730 -5.445585 -23.853814 27.259138 0.425484 2.636389 0.014936 -0.033691 -161941.000000 0 0 1
-13.555330 -5.607085 -23.745914 27.911553 0.392213 2.588218 0.034612 -0.020843 -159332.000000 0 0 1
-14.052030 -4.304185 -23.925414 28.078657 0.297230 2.590753 0.025624 -0.021352 -363655.000000 0 0 1
-15.462530 -4.342785 -23.903914 28.798380 0.273805 2.549982 0.033700 -0.016676 99074.400000 0 0 1
-16.008530 -2.933485 -24.297014 29.244200 0.181234 2.551397 0.035187 -0.016682 -72753.900000 0 0 1
-15.543530 -2.561485 -25.637274 30.090403 0.163326 2.590606 0.036290 -0.022053 396193.000000 0 0 1
-16.051430 -1.338485 -26.143134 30.706732 0.083195 2.589409 0.027198 -0.014046 210633.000000 0 0 1
-17.563330 -1.273385 -26.518914 31.833078 0.072376 2.555416 0.040584 -0.013308 92993.400000 0 0 1
-17.910730 -1.784885 -27.802254 33.120166 0.099327 2.567041 0.044021 -0.027010 155103.000000 0 0 1
-17.556530 -0.813185 -28.845184 33.777768 0.046285 2.594363 0.021934 -0.016994 -374238.000000 0 0 1
-17.612130 -1.530085 -30.179014 34.975722 0.086659 2.611690 0.020346 -0.017631 106738.000000 0 0 1
-18.865930 -1.928185 -30.699664 36.084769 0.101851 2.588236 0.031125 -0.019354 6649.490000 0 0 1
-18.801430 -2.428085 -32.045474 37.233073 0.128433 2.607385 0.037316 -0.026984 -858143.000000 0 0 1
-20.100130 -3.126685 -32.542464 38.377120 0.154319 2.582931 0.017272 -0.022062 102399.000000 0 0 1
-21.142330 -2.263785 -32.874104 39.151367 0.106667 2.567466 0.017858 -0.020976 19587.700000 0 0 1
-21.798430 -1.601385 -31.808684 38.594408 0.073332 2.539547 0.014109 -0.008209 -888542.000000 0 0 1
-22.755430 -0.456585 -32.244464 39.468006 0.020062 2.526946 0.017992 -0.004759 81788.500000 0 0 1
-22.126830 0.655815 -32.854834 39.616496 -0.029630 2.548690 0.015808 -0.002616 330449.000000 0 0 1
-23.107330 1.503815 -33.417354 40.656238 -0.064988 2.535621 0.005597 0.001568 30279.000000 0 0 1
-22.541130 2.868415 -33.760484 40.695216 -0.126572 2.549175 0.010426 0.002714 -729433.000000 0 0 1
-22.395230 3.771915 -32.665114 39.784209 -0.166859 2.534057 0.005607 -0.003499 714537.000000 0 0 1
-23.536530 4.227615 -31.898494 39.866714 -0.177724 2.498306 -0.000756 -0.000699 127387.000000 0 0 1
-24.612830 5.027615 -32.629874 41.179813 -0.201496 2.485490 0.000573 0.000833 -279114.000000 0 0 1
-25.692640 4.219815 -33.069854 42.089593 -0.162789 2.474626 0.021872 -0.006764 552957.000000 0 0 1
-26.661570 4.929215 -33.841184 43.363143 -0.182817 2.466123 0.029376 -0.007754 1256740.000000 0 0 1
-27.955520 4.108115 34.206498 44.367468 -0.145908 0.690415 0.042969 -0.002891 871910.000000 0 0 1
-27.658450 3.021415 33.305841 43.398132 -0.108809 0.695944 0.052543 -0.002571 968658.000000 0 0 1
-28.853640 2.448615 32.747092 43.713846 -0.084660 0.724058 0.055190 -0.003535 698099.000000 0 0 1
-28.683860 0.956215 32.677439 43.491300 -0.033324 0.720682 0.060507 0.005330 -153561.000000 0 0 1
-28.983910 0.319915 33.898917 44.601636 -0.011037 0.707425 0.054552 0.009690 194901.000000 0 0 1
-29.093970 -1.086185 33.722542 44.551641 0.037316 0.712192 0.046848 0.009521 -649664.000000 0 0 1
-28.679650 -1.970985 -33.535104 44.170242 0.068616 2.432916 0.008343 0.013688 287262.000000 0 0 1
-27.287880 -2.094385 -33.244534 43.060584 0.076601 2.452842 0.021456 0.006099 862191.000000 0 0 1
-26.706380 -0.892385 -32.696954 42.226980 0.033402 2.456427 0.022137 0.015693 -688452.000000 0 0 1
-26.946790 -0.519685 -31.246114 41.264018 0.019283 2.429849 0.050106 0.011944 -899991.000000 0 0 1
-26.389440 -1.319985 -30.312504 40.211849 0.049978 2.424653 0.038916 0.002174 51780.600000 0 0 1
-26.489360 -0.804985 -28.936594 39.238510 0.030380 2.400089 0.043519 -0.002962 -79086.200000 0 0 1
-25.290490 -1.280085 -28.081414 37.812872 0.050572 2.407803 0.045786 -0.007262 -34200.100000 0 0 1
-25.358550 -2.662885 -27.693164 37.643835 0.104626 2.397441 0.031179 0.001880 128529.000000 0 0 1
-24.366930 -2.925585 -26.727674 36.286015 0.119492 2.398801 0.042189 -0.004259 -243268.000000 0 0 1
-24.532230 -4.338885 -26.120164 36.095972 0.175054 2.379845 0.031931 -0.007291 943236.000000 0 0 1
-25.738900 -4.490285 -25.319184 36.382890 0.172717 2.340481 0.041506 -0.006321 922794.000000 0 0 1
-25.854190 -5.727985 -24.690414 36.205876 0.218028 2.321215 0.031015 -0.010058 288768.000000 0 0 1
-27.082080 -5.690685 -23.737114 36.459203 0.207114 2.279776 0.045203 -0.020175 241935.000000 0 0 1
-27.171880 -6.751685 -22.776414 36.092400 0.243548 2.253713 0.039974 -0.017019 -114724.000000 0 0 1
-28.178590 -6.538985 -21.812514 36.229505 0.228019 2.216881 0.057504 -0.017289 -237349.000000 0 0 1
-28.409070 -7.735985 -20.860114 36.084139 0.265861 2.187190 0.059491 -0.015130 -730271.000000 0 0 1
-27.418490 -7.937485 -19.904514 34.798950 0.281790 2.179721 0.049200 -0.018064 -394882.000000 0 0 1
-27.861600 -8.695085 -18.773614 34.703340 0.302503 2.142391 0.055560 -0.012173 -212348.000000 0 0 1
-28.595420 -7.859485 -17.702114 34.537434 0.268228 2.108947 0.057560 -0.012444 41287.500000 0 0 1
-27.782450 -6.916385 -17.048914 33.322160 0.243988 2.107888 0.065232 -0.025393 368504.000000 0 0 1
-28.537720 -6.206785 -16.078114 33.338137 0.214159 2.074045 0.065108 -0.023118 51287.600000 0 0 1
-27.605190 -5.713685 -14.944614 31.906648 0.204097 2.058259 0.075341 -0.031319 -41388.400000 0 0 1
-26.589130 -4.887985 -15.428514 31.127372 0.181804 2.089388 0.082430 -0.023110 347283.000000 0 0 1
-25.719130 -4.441485 -14.367814 29.793196 0.171005 2.074019 0.067512 -0.030151 -259426.000000 0 0 1
-14.026730 21.794515 -5.213114 26.437220 -0.998941 1.769286 0.050731 -0.014869 -94030.700000 0 0 1
-14.121230 21.093115 -6.394614 26.176702 -0.980855 1.817580 0.071015 -0.024857 582042.000000 0 0 1
-14.880130 19.854215 -6.204414 25.575435 -0.927635 1.815834 0.071136 -0.029894 399363.000000 0 0 1
-15.153530 19.076815 -7.539714 25.502973 -0.899514 1.870922 0.082851 -0.032976 -122375.000000 0 0 1
-14.024930 18.418115 -8.093014 24.523917 -0.919992 1.907105 0.070507 -0.031052 27355.000000 0 1 0
-14.328330 17.471315 -9.039314 24.336333 -0.883915 1.951348 0.057578 -0.030587 -392782.000000 0 1 0
-14.698130 16.025515 -8.561614 23.369925 -0.828575 1.945881 0.048908 -0.024867 1100030.000000 0 1 0
-16.084730 15.974715 -8.152214 24.090842 -0.781967 1.916007 0.055611 -0.014938 1111660.000000 0 1 0
-16.348330 14.923415 -7.257114 23.294676 -0.739864 1.887605 0.060775 -0.012772 -859783.000000 0 1 0
-17.734230 15.027215 -6.636914 24.173720 -0.702957 1.848919 0.072497 -0.023803 -1298610.000000 0 1 0
-18.633630 14.677115 -7.608014 24.910073 -0.667176 1.881175 0.063115 -0.020630 -728830.000000 0 1 0
-19.910030 15.245815 -7.346114 26.130625 -0.653496 1.855768 0.043121 -0.014541 530101.000000 0 0 1
-20.938330 14.683715 -8.396314 26.916969 -0.611587 1.888024 0.044878 0.000532 230685.000000 0 0 1
-21.250430 13.276615 -8.146214 26.347867 -0.558433 1.885126 0.060982 -0.008953 -13820.600000 0 0 1
-22.105030 12.723315 -9.099114 27.079678 -0.522274 1.913476 0.059914 -0.007895 -27680.100000 0 0 1
-22.516030 11.218615 -8.841114 26.664475 -0.462247 1.908763 0.070155 -0.007577 313334.000000 0 0 1
-21.400330 10.354215 -8.655214 25.300131 -0.450632 1.919949 0.068699 -0.007238 303298.000000 0 0 1
-21.759130 9.436015 -7.679514 24.929361 -0.409181 1.883940 0.087564 -0.009960 552467.000000 0 1 0
-20.702530 8.266015 -7.399114 23.487627 -0.379882 1.891276 0.063684 -0.005405 389332.000000 0 1 0
-20.598330 7.219815 -8.342114 23.366810 -0.337125 1.935858 0.067008 -0.011071 922827.000000 0 1 0
-19.498230 6.351915 -8.009114 22.015306 -0.314927 1.943138 0.048236 -0.003749 311126.000000 0 1 0
-19.351030 5.143515 -8.963914 21.937864 -0.259794 1.991721 0.042990 -0.013422 -1118340.000000 0 1 0
-20.359430 4.192215 -8.928214 22.622866 -0.203072 1.976488 0.058513 -0.008886 15472.100000 0 1 0
-20.184030 3.073315 -9.804514 22.648815 -0.151104 2.018496 0.047623 -0.011975 -848913.000000 0 1 0
-21.144830 1.964115 -9.557414 23.287459 -0.092623 1.993700 0.047540 -0.016386 -577950.000000 0 1 0
-20.757030 1.197315 -8.415214 22.429973 -0.057619 1.955384 0.047283 -0.020893 800659.000000 0 1 0
-21.739330 0.265815 -7.953814 23.150211 -0.012227 1.921516 0.062924 -0.022485 -25212.100000 0 1 0
-21.748730 -1.110785 -8.666914 23.438355 0.051029 1.949563 0.052836 -0.029592 -93776.000000 0 1 0
-20.605130 -1.924185 -8.500614 22.372624 0.093114 1.960545 0.039400 -0.023235 -21679.800000 0 1 0
-20.705030 -3.206685 -9.062214 22.827720 0.153654 1.979024 0.031928 -0.021729 84555.800000 0 1 0
-21.736430 -4.189385 -8.397014 23.675582 0.190401 1.933357 0.046713 -0.021518 -863.534000 0 1 0
-21.379730 -4.518285 -7.102814 22.977330 0.208270 1.885067 0.036101 -0.019078 674888.000000 0 1 0
-22.332030 -5.364785 -6.422914 23.848570 0.235761 1.843484 0.048299 -0.018410 71565.700000 0 1 0
-22.227530 -6.890985 -6.725214 24.223486 0.300624 1.852125 0.036286 -0.021862 -893841.000000 0 1 0
-21.133130 -7.550985 -6.214314 23.286139 0.343168 1.840938 0.023816 -0.020302 -137620.000000 0 1 0
-21.163830 -8.921285 -6.641014 23.908159 0.398932 1.852270 0.022616 -0.014741 -510139.000000 0 1 0
-20.150330 -9.788485 -5.911514 23.168863 0.452201 1.828798 0.025769 -0.007868 -564701.000000 0 1 0
-18.846430 -9.677485 -6.384814 22.127076 0.474383 1.863511 0.012136 -0.010632 29345.800000 0 1 0
-17.860930 -10.455285 -5.707414 21.468590 0.529594 1.839881 0.018943 -0.003232 422574.000000 0 1 0
-17.074830 -11.479385 -6.545814 21.591058 0.591892 1.878816 0.005792 -0.000654 -399999.000000 0 1 0
-16.066130 -11.036485 -7.436614 20.862113 0.601908 1.935278 0.014129 -0.011017 341562.000000 0 1 0
-16.486930 -10.416085 -8.640614 21.330117 0.563459 1.987873 0.012949 -0.020107 -251745.000000 0 1 0
-15.546630 -10.851685 -9.795214 21.340173 0.609388 2.047670 0.019449 -0.011109 253670.000000 0 1 0
-15.754630 -12.110585 -10.325514 22.393992 0.655362 2.050013 0.030759 -0.004847 786856.000000 0 1 0
-14.647530 -12.489085 -11.170414 22.255460 0.706025 2.096611 0.033709 0.008453 599623.000000 0 1 0
-14.784530 -13.958785 -11.706314 23.462050 0.756678 2.093179 0.050570 0.002266 375063.000000 0 1 0
-15.693030 -14.035385 -12.812714 24.646072 0.729696 2.117493 0.050252 0.002959 324344.000000 0 1 0
-15.686330 -15.348285 -13.434114 25.731424 0.774506 2.120096 0.041129 0.005528 643560.000000 0 0 1
-16.522530 -15.345585 -14.808014 26.976995 0.748483 2.151859 0.069744 0.004422 509449.000000 0 0 1
-16.470330 -16.585085 -15.468514 28.028766 0.788870 2.155413 0.070247 0.008391 173157.000000 0 0 1
-16.741130 -16.459185 -16.877514 28.914022 0.776906 2.194091 0.069719 -0.000021 -185693.000000 0 0 1
-17.342130 -17.656985 -17.598014 30.367889 0.794394 2.188904 0.073227 -0.010190 -1330390.000000 0 0 1
-18.637830 -17.884485 -17.229814 31.049798 0.764774 2.159050 0.055895 -0.007039 -1036340.000000 0 0 1
-19.456030 -18.340485 -18.348814 32.428220 0.755892 2.172234 0.067571 -0.005262 204751.000000 0 0 1
-20.945130 -18.314985 -17.986714 33.130937 0.718505 2.144680 0.053935 -0.004080 -287184.000000 0 0 1
-21.424730 -17.000785 -17.619014 32.534219 0.670772 2.143080 0.044814 0.013068 321959.000000 0 0 1
-21.489230 -16.977485 -16.184814 31.811479 0.668642 2.104555 0.038633 0.009545 -440563.000000 0 0 1
-21.134830 -15.599285 -15.585214 30.543700 0.635831 2.106283 0.035654 0.005835 -29694.600000 0 0 1
-22.222730 -14.697085 -15.543414 30.845611 0.584315 2.098916 0.031917 0.005618 385671.000000 0 0 1
-21.828930 -13.481085 -14.910114 29.674119 0.553245 2.097240 0.038122 -0.000108 -680299.000000 0 0 1
-22.928030 -12.554585 -14.433314 29.860219 0.500972 2.075288 0.036431 -0.007753 -817444.000000 0 0 1
-23.727930 -13.108785 -13.415114 30.245994 0.504732 2.030334 0.041357 -0.000105 104992.000000 0 0 1
-24.694130 -12.161785 -13.038614 30.458406 0.457627 2.013163 0.064861 -0.012451 -153533.000000 0 0 1
-25.751930 -12.752985 -12.046814 31.159689 0.459820 1.967755 0.057956 -0.018497 -99195.900000 0 0 1
-26.571610 -11.747885 -11.499614 31.245870 0.416283 1.947693 0.050453 -0.025010 -305388.000000 0 0 1
-27.481230 -12.330185 -10.620714 31.938238 0.421753 1.909791 0.048625 -0.030131 -263612.000000 0 0 1
-28.335900 -11.247085 -9.866814 32.043317 0.377848 1.883804 0.060089 -0.036370 -208672.000000 0 0 1
-27.553450 -10.324585 -9.235314 30.839596 0.358517 1.874926 0.067299 -0.045384 -366545.000000 0 0 1
-28.432240 -9.498385 -8.514014 31.162478 0.322414 1.847529 0.091354 -0.047048 11559.700000 0 0 1
-27.846400 -8.228185 -7.850214 30.079077 0.287309 1.834840 0.088138 -0.036252 -122631.000000 0 0 1
-27.000980 -8.644885 -6.790414 29.152987 0.309857 1.805879 0.069925 -0.034757 739980.000000 0 0 1
-26.080160 -7.654185 -6.231814 27.885423 0.285471 1.796179 0.065941 -0.033124 443565.000000 0 0 1
-26.651810 -6.496685 -5.411514 27.960872 0.239099 1.765564 0.077473 -0.037614 -445972.000000 0 0 1
-27.571770 -6.866385 -4.371714 28.748246 0.244072 1.723457 0.070235 -0.037191 275643.000000 0 0 1
-27.111820 -7.239785 -3.104114 28.232973 0.260946 1.680965 0.081350 -0.027030 -608295.000000 0 0 1
-26.434980 -6.142385 -2.275114 27.234412 0.228307 1.654432 0.074915 -0.026142 146259.000000 0 0 1
-27.395920 -5.244485 -1.763714 27.949092 0.189145 1.633943 0.073891 -0.037195 277576.000000 0 0 1
-26.768590 -4.140485 -1.197814 27.113388 0.153461 1.614989 0.057653 -0.031308 -989731.000000 0 0 1
-27.722040 -3.077785 -0.744314 27.902299 0.110570 1.597475 0.061092 -0.038928 -573741.000000 0 0 1
-28.546130 -3.366685 0.412686 28.746938 0.117396 1.556440 0.056216 -0.038078 360068.000000 0 0 1
-27.948480 -3.408085 1.685286 28.205900 0.121343 1.511011 0.048533 -0.029804 474563.000000 0 0 1
-29.052070 -3.592385 2.822186 29.409059 0.123029 1.474685 0.035016 -0.026815 816574.000000 0 0 1
-29.498620 -4.910585 3.138586 30.068807 0.164956 1.466226 0.046639 -0.032270 -782496.000000 0 0 1
-30.651330 -4.890485 3.878386 31.280389 0.158219 1.446489 0.066039 -0.032589 -1146430.000000 0 0 1
-31.418330 -6.197185 3.669986 32.233296 0.194747 1.456692 0.058062 -0.026414 -464879.000000 0 0 1
-30.710200 -7.377785 4.073086 31.845535 0.235771 1.442544 0.056837 -0.019812 392849.000000 0 0 1
-31.294620 -8.581085 3.617886 32.650840 0.267625 1.459763 0.082873 -0.033939 -480972.000000 0 0 1
-30.453010 -9.829585 4.001986 32.249379 0.312222 1.446381 0.072501 -0.015855 242325.000000 0 0 1
-30.739610 -10.204285 5.334086 32.825349 0.320513 1.407574 0.057499 -0.002787 662654.000000 0 0 1
-29.657290 -11.026885 5.735786 32.156590 0.355971 1.391466 0.037441 0.009711 208528.000000 0 0 1
-29.787110 -11.498185 7.199786 32.730981 0.368390 1.349014 0.043265 0.005750 -84593.500000 0 0 1
-29.407880 -10.484485 8.102686 32.255253 0.342471 1.316871 0.052571 0.002997 404868.000000 0 0 1
-29.719390 -10.816385 9.429986 33.002439 0.349048 1.281022 0.059844 -0.002819 -128629.000000 0 0 1
-29.871380 -9.664585 10.386086 33.069235 0.312911 1.251318 0.052822 0.002364 -270220.000000 0 0 1
-28.607890 -9.154585 10.724086 31.893947 0.309705 1.227873 0.051600 0.010474 206421.000000 0 0 1
-28.745730 -8.085085 11.648986 32.052839 0.274179 1.198849 0.042533 0.009539 400453.000000 0 0 1
-27.684270 -6.942385 11.468386 30.759379 0.245703 1.188726 0.053986 0.006099 367933.000000 0 0 1
-27.994910 -6.177885 10.346386 30.478336 0.217198 1.224446 0.051830 0.004930 -74947.700000 0 0 1
-27.093250 -5.143585 10.266786 29.426307 0.187615 1.214401 0.053097 0.004357 -809095.000000 0 0 1
-27.367360 -4.194585 9.150486 29.159876 0.152086 1.251600 0.048770 -0.001606 -189239.000000 0 0 1
-26.911630 -4.680185 7.924486 28.441826 0.172187 1.288439 0.059523 -0.007673 353586.000000 0 0 1
-27.372700 -3.815385 6.866786 28.477616 0.138494 1.327267 0.043319 -0.019191 -66977.900000 0 0 1
-26.554540 -3.919685 5.560486 27.412160 0.146551 1.366531 0.047659 -0.011256 -305860.000000 0 0 1
-25.218030 -3.495885 5.637986 26.075988 0.137748 1.352862 0.089218 -0.021460 40062.200000 0 0 1
-24.538730 -3.881585 4.500186 25.248122 0.156882 1.391600 0.113402 -0.014690 74958.700000 0 0 1
-22.994630 -3.679085 4.415486 23.702008 0.158653 1.383410 0.121011 -0.015580 590005.000000 0 1 0
-22.596930 -2.327685 4.346886 23.128657 0.102647 1.381728 0.081270 -0.010894 480982.000000 0 1 0
-21.182830 -2.216285 4.428086 21.753900 0.104247 1.365810 0.078456 -0.005394 242081.000000 0 1 0
-20.647830 -0.799685 4.723586 21.196336 0.038710 1.346060 0.049022 -0.009944 -281036.000000 0 1 0
-20.794330 0.201515 3.693186 21.120710 -0.009691 1.395032 0.054792 -0.006190 1197460.000000 0 1 0
-22.134330 0.670615 3.467186 22.414274 -0.030288 1.415486 0.050582 -0.016995 273883.000000 0 1 0
-22.275330 1.851415 2.462286 22.487350 -0.082924 1.461080 0.076909 -0.013200 -472706.000000 0 1 0
-21.779930 3.075715 2.999586 22.199615 -0.140290 1.435263 0.056591 -0.010603 375633.000000 0 1 0
-21.768330 4.152015 2.111486 22.261128 -0.188473 1.475803 0.067964 -0.009515 684122.000000 0 1 0
-20.503230 4.126015 1.181186 20.947593 -0.198585 1.514379 0.047260 -0.002287 -246299.000000 0 1 0
-20.623230 5.064115 0.143386 21.236371 -0.240790 1.564044 0.054232 -0.000114 770718.000000 0 1 0
-21.531430 4.740215 -0.928714 22.066595 -0.216697 1.612896 0.074648 -0.005045 311898.000000 0 1 0
-21.137030 3.527115 -1.870314 21.510757 -0.165346 1.657854 0.076024 -0.006917 -283716.000000 0 1 0
-21.163630 2.263615 -1.173114 21.316646 -0.106553 1.625857 0.057967 -0.007765 602995.000000 0 1 0
-20.774030 1.114815 -1.967514 20.896752 -0.053612 1.665090 0.056702 -0.010902 -371748.000000 0 1 0
-19.903530 0.204615 -1.098014 19.934844 -0.010280 1.625904 0.047764 -0.009027 -646475.000000 0 1 0
-20.605530 -0.459685 -0.085714 20.610835 0.022305 1.574955 0.051990 -0.013462 614578.000000 0 1 0
-19.856230 -1.245885 0.886086 19.915001 0.062663 1.526288 0.043237 -0.012248 -431506.000000 0 1 0
-19.310430 -2.551485 0.333686 19.481122 0.131369 1.553667 0.045987 -0.011663 -2520.670000 0 1 0
-18.409030 -3.239585 1.204486 18.730672 0.174194 1.506446 0.036641 -0.009314 576531.000000 0 1 0
-17.886830 -4.444585 0.734386 18.445388 0.243551 1.530972 0.034682 -0.008973 -607236.000000 0 1 0
-18.830930 -5.610885 0.561686 19.657097 0.289585 1.542218 0.035948 -0.007368 -548345.000000 0 1 0
-19.308930 -6.203985 1.752886 20.356739 0.310883 1.484581 0.056801 -0.011168 -156212.000000 0 1 0
-20.509230 -6.859285 1.537786 21.680477 0.322754 1.499807 0.052291 -0.012515 -865418.000000 0 1 0
-21.113730 -7.360085 2.841086 22.539570 0.335420 1.444411 0.062756 -0.010948 -201448.000000 0 1 0
-20.357530 -8.372285 3.470386 22.283800 0.390177 1.414424 0.068047 -0.006334 573590.000000 0 1 0
-20.981530 -8.695885 4.721686 23.197787 0.392905 1.365824 0.065693 -0.006242 -103853.000000 0 1 0
-19.987130 -9.423585 5.592186 22.793900 0.440575 1.322929 0.057064 0.000905 -401976.000000 0 1 0
-19.582030 -10.709185 5.127786 22.900584 0.500451 1.344967 0.056476 0.000305 -140872.000000 0 1 0
-18.784430 -11.283885 6.099086 22.745983 0.540937 1.299335 0.075853 -0.004224 -202295.000000 0 1 0
-18.042430 -12.564185 5.580786 22.683324 0.608285 1.322214 0.051461 -0.003577 134283.000000 0 1 0
-18.898630 -13.645385 5.345586 23.915059 0.625359 1.345368 0.062270 0.001251 -246644.000000 0 1 0
-18.116130 -14.755485 5.129786 23.921396 0.683517 1.354674 0.042892 -0.000375 -596221.000000 0 1 0
-18.896930 -16.045485 4.977086 25.284836 0.703974 1.372662 0.050069 0.003377 -472480.000000 0 0 1
-18.131730 -17.164185 4.677886 25.401801 0.757993 1.385584 0.052853 -0.009127 -470627.000000 0 0 1
-18.943930 -18.285885 4.679486 26.742170 0.767725 1.394905 0.050907 -0.003773 -211530.000000 0 0 1
-18.194730 -19.641685 4.520086 27.152811 0.823622 1.403549 0.052123 -0.005592 -864454.000000 0 0 1
-17.753030 -19.837085 3.211186 26.814021 0.840783 1.450750 0.052190 -0.010578 223332.000000 0 0 1
-17.042430 -21.050585 2.963086 27.246127 0.890233 1.461828 0.048406 -0.001532 -513885.000000 0 0 1
-15.653630 -21.110085 3.568186 26.521760 0.932742 1.435849 0.055272 -0.002971 -1275190.000000 0 0 1
-15.090830 -22.399985 3.474786 27.231721 0.977942 1.442847 0.049466 -0.004302 233624.000000 0 0 1
-13.729030 -22.410685 3.879386 26.566420 1.021156 1.424246 0.057431 -0.003525 620679.000000 0 0 1
-13.063430 -23.787485 4.311786 27.478885 1.068589 1.413232 0.068944 0.001572 237296.000000 0 0 1
-12.786030 -24.693685 3.204986 27.991652 1.093022 1.456047 0.069290 -0.011337 162053.000000 0 0 1
-12.481230 -26.013425 3.722786 29.091898 1.123439 1.442478 0.062706 -0.005201 112724.000000 0 0 1
18.762870 19.123915 -24.312314 36.178143 0.794927 2.307725 0.050333 -0.005295 178394.000000 0 0 1
17.876470 19.467015 -25.362914 36.630728 0.827965 2.335599 0.043971 -0.012512 221596.000000 0 0 1
18.452270 19.111015 -26.599494 37.593221 0.802933 2.356837 0.050778 -0.009522 142883.000000 0 0 1
17.496870 19.498615 -27.731694 38.149486 0.839453 2.384625 0.042276 -0.010670 67756.800000 0 0 1
17.267670 20.863215 -27.901264 38.883502 0.879415 2.371090 0.042421 -0.007621 498787.000000 0 0 1
16.234970 21.052015 -28.873274 39.248281 0.913875 2.397432 0.031998 -0.007682 215973.000000 0 0 1
15.807870 22.503815 -29.117534 40.051732 0.958426 2.384736 0.039712 -0.011029 -127010.000000 0 0 1
15.137970 23.185015 -28.039994 39.407414 0.992371 2.362485 0.045949 -0.012025 438005.000000 0 0 1
14.884670 24.497215 -28.458474 40.392471 1.024802 2.352584 0.047704 -0.000381 152289.000000 0 0 1
13.926070 25.304315 -27.519294 39.894302 1.067689 2.332016 0.041678 -0.003746 337232.000000 0 0 1
12.626070 24.771215 -27.399504 39.035414 1.099413 2.348877 0.046542 -0.015160 -205470.000000 0 0 1
11.868770 25.486715 -26.479604 38.621364 1.134976 2.326252 0.035456 -0.009616 -1997750.000000 0 0 1
10.517970 25.003115 -26.018604 37.586583 1.172602 2.335372 0.046088 -0.009334 -179500.000000 0 0 1
9.773370 25.952715 -25.237804 37.496786 1.210638 2.309143 0.037288 -0.015512 260892.000000 0 0 1
9.468970 27.172515 -25.924564 38.730995 1.235480 2.304129 0.043310 -0.017143 -1216890.000000 0 0 1
8.967870 28.252715 -24.994014 38.772920 1.263439 2.271330 0.043319 -0.021849 43749.000000 0 0 1
9.963470 28.661615 -24.049714 38.718828 1.236240 2.240990 0.040313 -0.013370 289517.000000 0 0 1
9.411970 29.559815 -23.146114 38.705432 1.262542 2.211808 0.051849 -0.023395 88760.400000 0 0 1
10.397570 29.977715 -21.994414 38.607345 1.236936 2.176931 0.034016 -0.023310 319003.000000 0 0 1
11.412370 30.854915 -22.411114 39.806105 1.216529 2.168816 0.022273 -0.026713 312433.000000 0 0 1
12.378970 31.223215 -21.426614 39.840028 1.193339 2.138641 0.019185 -0.018172 755932.000000 0 0 1
13.563270 32.052615 -22.015214 41.182546 1.170488 2.134803 0.017529 0.000637 519813.000000 0 0 1
14.575870 31.266515 -22.629814 41.257235 1.134568 2.151372 0.014871 0.003984 424254.000000 0 0 1
15.750770 32.067515 -22.816114 42.390887 1.114233 2.139134 0.013871 0.002276 129803.000000 0 0 1
16.973170 31.316315 -23.315414 42.572393 1.074123 2.150367 0.004168 0.011385 -242398.000000 0 0 1
17.643570 30.582315 -22.269614 41.743374 1.047520 2.133516 0.001504 0.016795 509027.000000 0 0 1
18.889670 30.123015 -22.804514 42.240520 1.010700 2.141082 0.006550 0.014852 673530.000000 0 0 1
19.868870 29.432115 -21.766214 41.650804 0.976995 2.120680 0.010900 0.018862 252327.000000 0 0 1
20.541870 30.334415 -20.946914 42.200928 0.975550 2.090199 0.012765 0.022334 -263822.000000 0 0 1
21.186170 29.596115 -19.951914 41.507381 0.949516 2.072230 0.017325 0.008725 -50233.700000 0 0 1
21.918470 30.515215 -18.909914 42.061651 0.947907 2.037087 0.026905 0.009681 -226229.000000 0 0 1
22.989470 31.243615 -19.448914 43.392850 0.936437 2.035553 0.040142 0.005918 -157778.000000 0 0 1
23.658370 31.786615 -18.329714 43.658742 0.930961 2.004066 0.047315 0.005775 12257.200000 0 0 1
24.925370 32.633815 -18.635814 45.094717 0.918528 1.996827 0.050406 0.006396 -187342.000000 0 0 1
25.999870 31.880615 -19.080214 45.347783 0.886652 2.005071 0.053855 0.009490 -1031100.000000 0 0 1
27.187170 32.536815 -18.752914 46.362251 0.874733 1.987214 0.054019 0.006328 -787777.000000 0 0 1
28.457870 31.906615 -19.275514 46.898058 0.842468 1.994357 0.062195 -0.002356 -439102.000000 0 0 1
28.879570 30.747615 -18.613214 46.107452 0.816717 1.986345 0.075096 -0.001377 821454.000000 0 0 1
30.295370 30.521615 -18.770914 46.922549 0.789118 1.982357 0.059684 -0.002676 813855.000000 0 0 1
30.751670 29.320315 -17.975114 46.135136 0.761575 1.971014 0.049490 -0.014898 -581798.000000 0 0 1
30.927070 29.646315 -16.571714 45.934838 0.764257 1.939885 0.046217 -0.013444 80862.200000 0 0 1
31.169270 28.573615 -15.713414 45.109713 0.741978 1.926593 0.048383 -0.015253 -466237.000000 0 0 1
31.700070 28.949415 -14.314714 45.253443 0.740076 1.892647 0.057077 -0.020355 500036.000000 0 0 1
33.023870 29.486315 -14.238614 46.505450 0.728867 1.881964 0.025909 -0.018678 455297.000000 0 0 1
33.073270 30.848415 -14.679614 47.549521 0.750606 1.884646 0.034088 -0.020841 348087.000000 0 0 1
34.551870 31.352515 -14.860914 48.965893 0.736891 1.879155 0.028198 -0.023840 1086040.000000 0 0 1
35.168070 31.643715 -13.600614 49.224938 0.732697 1.850733 0.024155 -0.028660 220996.000000 0 0 1
-35.526112 31.761515 -13.763614 49.601769 -0.729509 1.851969 0.032525 -0.031313 -85777.500000 0 0 1
-34.657012 31.944915 -12.546914 48.775107 -0.744700 1.830961 0.034409 -0.022845 -289065.000000 0 0 1
-34.962112 33.169115 -11.825014 49.622277 -0.759087 1.811412 0.038432 -0.030010 527175.000000 0 0 1
-33.916812 33.364715 -10.902314 48.809986 -0.777193 1.796059 0.024327 -0.018199 -152835.000000 0 0 1
-34.261912 -34.081019 -10.104714 49.371041 0.782751 1.776922 0.022538 -0.012445 -20941.100000 0 0 1
-33.413412 -33.529619 -9.097514 48.202242 0.787134 1.760672 0.010012 -0.002288 -214202.000000 0 0 1
-33.297412 -34.278319 -7.877514 48.433212 0.799913 1.734169 0.016186 -0.001385 68268.300000 0 0 1
-32.948912 -33.269819 -6.786014 47.313440 0.790244 1.714719 0.019331 0.013878 508781.000000 0 0 1
-34.070212 -32.452319 -6.384614 47.483635 0.761082 1.705664 0.024481 0.006101 776994.000000 0 0 1
-33.662312 -31.404819 -5.512914 46.366002 0.750717 1.689978 0.026044 0.010487 -182158.000000 0 0 1
-34.912212 -30.550119 -5.350214 46.699005 0.718861 1.685616 0.031435 0.003072 -414667.000000 0 0 1
-35.841812 -31.148619 -4.512914 47.699458 0.715455 1.665549 0.035794 -0.003939 -676093.000000 0 0 1
34.954970 -30.646619 -4.639414 46.718191 -0.719818 1.670267 0.033800 0.000193 -183670.000000 0 0 1
34.497470 -29.802819 -3.463214 45.719551 -0.712516 1.646618 0.034857 0.002361 -442401.000000 0 0 1
35.071370 -28.522819 -3.452114 45.337284 -0.682786 1.647013 0.049182 -0.006768 60608.300000 0 0 1
34.299270 -27.657019 -2.661414 44.141066 -0.678597 1.631126 0.048303 -0.009070 -182640.000000 0 0 1
34.741870 -26.184919 -2.665514 43.586150 -0.645864 1.631990 0.058409 -0.023731 -286019.000000 0 0 1
34.568270 -25.582119 -3.890114 43.180355 -0.637100 1.661009 0.052586 -0.025839 416245.000000 0 0 1
34.036570 -24.244319 -3.874614 41.967699 -0.618935 1.663252 0.054380 -0.025542 -258147.000000 0 0 1
33.547470 -23.807919 -5.241814 41.469584 -0.617192 1.697537 0.053002 -0.029467 -529574.000000 0 0 1
34.598670 -23.655119 -6.158814 42.362290 -0.599703 1.716698 0.050003 -0.029453 279032.000000 0 0 1
34.108770 -23.387419 -7.484914 42.028603 -0.601045 1.749842 0.038561 -0.027744 -146290.000000 0 0 1
35.284070 -23.296419 -8.469614 43.121028 -0.583549 1.768497 0.028070 -0.032818 -335427.000000 0 0 1
35.891870 -24.551319 -8.715814 44.350412 -0.599931 1.768605 0.025237 -0.024041 165790.000000 0 0 1
-35.085312 -24.283319 -9.552414 43.725362 0.605419 1.791036 0.025181 -0.019025 389243.000000 0 0 1
-34.462312 -25.524819 -10.266614 44.097286 0.637496 1.805770 0.028581 -0.021095 79229.700000 0 0 1
-33.749312 -26.499419 -9.499014 43.948453 0.665641 1.788655 0.016230 -0.014912 -224138.000000 0 0 1
-34.557612 -27.433319 -8.871614 45.005789 0.670975 1.769217 0.019105 -0.010067 -439548.000000 0 0 1
-33.749412 -28.640819 -8.311414 45.037750 0.703699 1.756403 0.010553 -0.001386 -88570.000000 0 0 1
-33.179112 -29.353519 -9.373114 45.280656 0.724297 1.779304 -0.002414 -0.003302 21386.700000 0 0 1
-32.419912 -30.453919 -8.933114 45.368407 0.754139 1.768993 -0.005673 -0.000093 -39534.900000 0 0 1
-31.845612 -31.216819 -10.164114 45.737752 0.775428 1.794893 -0.016684 0.008022 119499.000000 0 0 1
-30.913812 -30.553719 -11.043914 44.845976 0.779540 1.819619 -0.034176 0.013231 580956.000000 0 0 1
-30.705612 -31.263119 -12.244714 45.498903 0.794395 1.843277 -0.023524 0.010007 -116818.000000 0 0 1
-30.751912 -30.418219 -13.521414 45.318614 0.779943 1.873774 -0.028522 0.007402 259088.000000 0 0 1
-29.652712 -29.510519 -13.601414 43.990368 0.782995 1.885138 -0.019770 0.008225 112409.000000 0 0 1
-29.781012 -28.659919 -14.763014 43.889021 0.766217 1.913857 -0.023375 0.004966 976625.000000 0 0 1
-28.416412 -27.957919 -15.157814 42.648529 0.777265 1.934152 -0.005351 0.001864 829352.000000 0 0 1
-27.420612 -28.811519 -15.650714 42.742700 0.810128 1.945677 0.010920 -0.007606 -443422.000000 0 0 1
-26.345412 -28.074219 -16.148014 41.749261 0.817156 1.967940 0.015470 0.000566 -342645.000000 0 0 1
-25.202512 -28.864019 -16.808014 41.842652 0.853017 1.984164 0.031408 -0.007677 -585076.000000 0 0 1
-25.519912 -29.447919 -18.060614 42.949174 0.856737 2.004805 0.021827 -0.004413 -195184.000000 0 0 1
-25.753112 -28.575119 -19.170314 42.979776 0.837295 2.033122 0.020905 0.003833 -223212.000000 0 0 1
-24.619812 -27.679419 -19.689514 41.951905 0.843834 2.059334 0.035543 -0.001145 -151813.000000 0 0 1
-24.257212 -26.664519 -18.792914 40.651968 0.832638 2.051370 0.041266 -0.004000 -280379.000000 0 0 1
-22.910912 -26.307219 -19.026414 39.736432 0.854294 2.070101 0.048079 -0.006640 58146.800000 0 0 1
-22.517412 -25.223219 -17.994714 38.302145 0.842015 2.059871 0.040300 -0.012819 -334545.000000 0 0 1
-22.610612 -25.625619 -16.656614 38.017823 0.847822 2.024310 0.043663 -0.007688 288938.000000 0 0 1
-22.042512 -24.673019 -15.756814 36.645700 0.841648 2.015264 0.047634 -0.011815 -212266.000000 0 0 1
-22.532212 -24.839619 -14.322814 36.467112 0.834068 1.974427 0.043191 -0.007125 131496.000000 0 0 1
-23.863512 -24.357619 -14.189114 36.933613 0.795645 1.965115 0.003242 0.007089 223071.000000 0 0 1
-24.302512 -24.420319 -12.869114 36.777413 0.787816 1.928281 0.002442 0.007915 -132053.000000 0 0 1
-25.815112 -24.279819 -12.640814 37.626052 0.754760 1.913420 -0.007100 0.017025 -97917.300000 0 0 1
-26.656212 -25.355419 -13.018414 39.024736 0.760394 1.910910 0.007817 0.008759 136622.000000 0 0 1
-27.918812 -25.448219 -12.418514 39.765455 0.739137 1.888403 -0.004840 0.010982 -460050.000000 0 0 1
-29.079412 -24.616519 -12.990614 40.253462 0.702475 1.899399 0.001318 0.005510 -1252790.000000 0 0 1
-29.190612 -23.283919 -12.579714 39.401547 0.673307 1.895755 -0.001839 0.014477 -94484.400000 0 0 1
-29.681012 -23.156619 -11.266714 39.295423 0.662540 1.861596 0.019332 0.002743 -445415.000000 0 0 1
-31.185212 -23.538119 -11.071614 40.609618 0.646556 1.846927 0.011074 -0.000257 -120715.000000 0 0 1
-32.101212 -22.580319 -11.582114 40.920703 0.613011 1.857756 0.031030 -0.013784 134664.000000 0 0 1
-32.213112 -22.522019 -13.018514 41.405405 0.610160 1.890638 0.036067 -0.005188 -821165.000000 0 0 1
-33.671612 -22.195819 -13.436314 42.508427 0.582805 1.892397 0.020391 -0.015625 758151.000000 0 0 1
-34.507412 -23.366919 -13.229414 43.724041 0.595230 1.878180 0.024654 -0.014650 32715.200000 0 0 1
-35.871712 -23.127019 -13.451114 44.750097 0.572651 1.876100 0.037644 -0.020198 165014.000000 0 0 1
35.302770 -24.336719 -13.050914 44.820618 -0.603557 1.866257 0.024295 -0.012298 163884.000000 0 0 1
35.434870 -25.507719 -13.881314 45.814458 -0.623923 1.878625 0.006951 0.003431 333398.000000 0 0 1
34.532070 -26.524719 -13.418614 45.564062 -0.654996 1.869729 -0.004483 -0.002253 548051.000000 0 0 1
34.378070 -27.801119 -14.274614 46.459859 -0.680016 1.883094 -0.005196 0.002463 233673.000000 0 0 1
33.759270 -27.598419 -15.530814 46.287873 -0.685325 1.912961 0.001689 -0.005332 -138834.000000 0 0 1
33.693170 -28.792219 -16.265514 47.210047 -0.707125 1.922540 -0.008039 0.010103 -96687.100000 0 0 1
32.862170 -28.694719 -17.579514 47.035608 -0.717801 1.953844 -0.013472 0.009857 -160679.000000 0 0 1
31.509970 -28.564519 -17.240414 45.891631 -0.736407 1.955923 0.033963 0.008848 -175096.000000 0 0 1
30.611970 -28.515019 -18.345714 45.681115 -0.749948 1.984064 0.020445 0.006298 1931130.000000 0 0 1
29.054070 -28.528719 -18.028414 44.531455 -0.776275 1.987608 0.033186 0.000399 1579380.000000 0 0 1
28.618670 -27.366319 -17.331814 43.224246 -0.763032 1.983377 0.023763 -0.002217 -180220.000000 0 0 1
27.254470 -27.463019 -16.973314 42.250644 -0.789210 1.984201 0.048327 -0.007347 97471.800000 0 0 1
26.816270 -26.394619 -15.949214 40.867660 -0.777474 1.971716 0.036804 -0.008819 -124787.000000 0 0 1
26.591570 -25.085019 -16.397614 40.065590 -0.756253 1.992449 0.033642 -0.012371 -24260.100000 0 0 1
26.335170 -24.277719 -15.233214 38.922996 -0.744770 1.972914 0.038659 -0.012286 -25246.400000 0 0 1
26.138970 -22.762019 -15.500314 37.968605 -0.716451 1.991322 0.036589 -0.016312 -366200.000000 0 0 1
24.954670 -22.347819 -16.107614 37.170093 -0.730344 2.019002 0.047881 -0.012760 -447251.000000 0 0 1
24.886670 -20.918419 -16.112514 36.284152 -0.698981 2.030927 0.040751 -0.020179 -1110850.000000 0 0 1
23.533770 -20.350919 -16.430714 35.184749 -0.712997 2.056673 0.059489 -0.014656 -1098970.000000 0 0 1
22.709070 -20.472019 -15.300014 34.189119 -0.733638 2.034777 0.069879 -0.025164 -562781.000000 0 0 1
21.516970 -19.758319 -15.416414 33.030849 -0.742816 2.056384 0.068845 -0.030527 -327829.000000 0 0 1
21.387370 -18.667719 -14.315114 31.793487 -0.717604 2.037845 0.067791 -0.020117 -157688.000000 0 0 1
20.854470 -19.073219 -13.051314 31.129301 -0.740816 2.003428 0.058967 -0.030525 156250.000000 0 0 1
20.543170 -17.866019 -12.291614 29.871395 -0.715810 1.994878 0.061929 -0.037387 -418691.000000 0 0 1
19.569470 -17.961019 -11.124014 28.797674 -0.742567 1.967393 0.063733 -0.031259 -462044.000000 0 0 1
19.997670 -18.788219 -10.048314 29.221098 -0.754226 1.921833 0.066683 -0.039940 301554.000000 0 0 1
18.962770 -18.883719 -9.068914 28.256445 -0.783309 1.897529 0.060797 -0.038849 165497.000000 0 0 1
19.418770 -19.551819 -7.783114 28.634579 -0.788812 1.846068 0.068235 -0.039040 77904.700000 0 0 1
20.257570 -18.740219 -6.950214 28.458222 -0.746509 1.817517 0.063081 -0.042909 602897.000000 0 0 1
21.115770 -19.550919 -6.129314 29.422486 -0.746937 1.780654 0.059018 -0.030001 673449.000000 0 0 1
22.454170 -18.845819 -5.734014 29.870279 -0.698250 1.763959 0.061086 -0.024682 859511.000000 0 0 1
23.443070 -18.828219 -6.786914 30.824366 -0.676657 1.792795 0.062844 -0.037205 695853.000000 0 0 1
24.457970 -17.881619 -6.454014 30.977393 -0.631306 1.780680 0.079492 -0.034348 -432313.000000 0 0 1
25.591770 -17.891419 -7.489814 32.111351 -0.610127 1.806210 0.085220 -0.048202 -640695.000000 0 0 1
26.475870 -18.933219 -7.291814 33.355794 -0.620797 1.791183 0.088891 -0.053473 -276834.000000 0 0 1
26.564470 -19.751419 -8.481114 34.171902 -0.639346 1.821607 0.085332 -0.056718 -3505.410000 0 0 1
27.612870 -20.912419 -8.389914 35.639732 -0.648184 1.808436 0.069930 -0.058094 -83768.700000 0 0 1
28.910570 -20.448319 -8.557414 36.430538 -0.615606 1.807909 0.062512 -0.051154 -716638.000000 0 0 1
29.899670 -21.441819 -8.461914 37.753753 -0.622127 1.796851 0.047797 -0.040997 -136308.000000 0 0 1
-29.558350 29.976915 3.791586 42.269228 -0.792429 1.480975 0.039056 -0.008387 199945.000000 0 0 1
-28.909490 30.838815 2.891486 42.369232 -0.817678 1.502498 0.024955 0.002045 -366208.000000 0 0 1
-27.946510 31.618215 3.543586 42.347089 -0.846963 1.487019 0.031218 0.011159 -320919.000000 0 0 1
-27.370520 32.655915 2.593286 42.688164 -0.873223 1.510009 0.023976 0.019368 -1103300.000000 0 0 1
-26.401980 32.105515 1.759486 41.604380 -0.882575 1.528493 0.024825 0.011113 -395964.000000 0 0 1
-25.792580 33.089415 0.949886 41.965091 -0.908693 1.548159 0.021809 -0.002018 -219326.000000 0 0 1
-24.595830 33.835815 1.605286 41.861608 -0.942233 1.532439 0.015708 0.001896 -683100.000000 0 0 1
-23.433230 33.126915 1.293886 40.597819 -0.955136 1.538920 0.013062 0.004150 38605.300000 0 0 1
-22.247630 33.697915 1.885586 40.423533 -0.987279 1.524134 0.017293 0.000258 1447550.000000 0 0 1
-20.896230 33.419415 1.161586 39.431701 -1.012001 1.541334 0.022504 0.005093 459130.000000 0 0 1
-20.546030 34.143815 -0.031714 39.848971 -1.029091 1.571592 0.038366 -0.007769 -1876.940000 0 0 1
-19.265030 33.716515 -0.440214 38.834760 -1.051685 1.582132 0.046406 -0.015053 -139003.000000 0 0 1
-18.615730 -34.058219 -1.546414 38.844550 1.070578 1.610617 0.061182 -0.025916 173337.000000 0 0 1
-18.437330 -32.676119 -1.210514 37.538370 1.057082 1.603049 0.065126 -0.027355 439477.000000 0 0 1
-17.525230 -32.410519 -0.130814 36.845523 1.075101 1.574347 0.065590 -0.025915 17293.200000 0 0 1
-17.319530 -30.920119 0.149586 35.440687 1.060203 1.566576 0.057250 -0.027596 -430655.000000 0 0 1
-16.586530 -30.266019 -0.835114 34.523069 1.069471 1.594989 0.053493 -0.024616 -186559.000000 0 0 1
-16.640930 -28.859019 -0.777814 33.322193 1.047739 1.594141 0.033638 -0.023923 -26626.700000 0 0 1
-15.681830 -28.206919 -1.798514 32.323130 1.063391 1.626467 0.033216 -0.020765 -54884.900000 0 0 1
-16.109330 -28.313019 -3.129514 32.725089 1.053504 1.666573 0.042264 -0.025437 805249.000000 0 0 1
-15.092530 -27.745019 -4.027014 31.840028 1.072592 1.697612 0.039884 -0.015310 909737.000000 0 0 1
-15.528130 -27.781419 -5.505314 32.299204 1.061116 1.742080 0.075071 -0.025868 -289457.000000 0 0 1
-16.406830 -26.734519 -5.747414 31.889675 1.020368 1.752015 0.092464 -0.022262 -720206.000000 0 0 1
-17.053930 -26.836019 -6.985914 32.554745 1.004692 1.787068 0.112588 -0.031731 413071.000000 0 0 1
-17.954530 -25.572819 -7.211914 32.067833 0.958666 1.797632 0.101254 -0.026780 326764.000000 0 0 1
-17.084930 -24.487719 -7.401314 30.762358 0.961620 1.813777 0.069440 -0.010043 107688.000000 0 0 1
-17.705830 -23.237619 -7.637214 30.196198 0.919693 1.826493 0.047366 0.000374 -444583.000000 0 0 1
-16.744830 -22.134219 -7.201514 28.673590 0.923140 1.824670 0.057300 0.007212 -242349.000000 0 0 1
-15.664630 -22.146019 -8.089814 28.306746 0.955165 1.860628 0.074859 -0.002499 -107533.000000 0 0 1
-14.580830 -21.278219 -7.667514 26.910109 0.970041 1.859730 0.074346 -0.007704 386599.000000 0 0 1
-13.686230 -20.912319 -8.814414 26.501545 0.991294 1.909856 0.072807 -0.008000 -731680.000000 0 0 1
-14.164130 -20.139719 -9.869714 26.526253 0.957863 1.952038 0.080844 -0.006424 -560809.000000 0 0 1
-13.276330 -20.142219 -10.971114 26.501609 0.988030 1.997617 0.076859 -0.001038 78383.100000 0 0 1
-13.772430 -19.318819 -12.178214 26.668436 0.951464 2.045025 0.095691 -0.001125 -18884.600000 0 0 1
-14.830230 -19.970519 -12.855914 28.000569 0.932044 2.047812 0.079509 0.017226 -54171.100000 0 0 1
-15.172930 -19.270319 -14.070614 28.276230 0.903802 2.091641 0.085090 -0.005868 -626137.000000 0 0 1
-16.374830 -19.897919 -14.747814 29.691080 0.882222 2.090599 0.093429 -0.016589 154144.000000 0 0 1
-17.543630 -19.717919 -13.886814 29.823127 0.843684 2.055153 0.087416 -0.010444 641660.000000 0 0 1
-18.666930 -19.901719 -14.705214 30.996387 0.817403 2.065098 0.067655 -0.009167 25414.900000 0 0 1
-20.090330 -19.840219 -14.072014 31.548015 0.779135 2.033144 0.047311 -0.000482 422314.000000 0 0 1
-21.043130 -20.399019 -14.914314 32.884192 0.769857 2.041530 0.052169 -0.009640 -482169.000000 0 0 1
-22.386030 -20.270219 -14.490314 33.496049 0.735837 2.018168 0.013791 0.004327 259743.000000 0 0 1
-23.298530 -20.923519 -15.582814 34.977696 0.731743 2.032537 0.015845 -0.003301 -284526.000000 0 0 1
-23.539330 -20.278219 -16.775814 35.309123 0.711110 2.065888 0.024421 -0.022010 449150.000000 0 0 1
-24.159130 -21.113919 -17.756514 36.670900 0.718236 2.076259 0.020293 -0.025939 -97413.800000 0 0 1
-24.430130 -20.347219 -19.049914 37.063996 0.694467 2.110607 0.020672 -0.024007 583167.000000 0 0 1
-23.254530 -20.185819 -19.868014 36.646670 0.714873 2.143791 0.039749 -0.024901 913794.000000 0 0 1
-23.602530 -19.753819 -21.105914 37.319598 0.696861 2.171890 0.034085 -0.022446 -357131.000000 0 0 1
-22.435230 -19.087819 -21.852214 36.677018 0.704956 2.209059 0.035379 -0.009442 -21844.600000 0 0 1
-21.387930 -19.995119 -22.163014 36.721213 0.751754 2.218740 0.042801 -0.013425 -836262.000000 0 0 1
-20.310530 -19.280019 -22.633714 36.007246 0.759375 2.250532 0.052774 -0.008919 -950915.000000 0 0 1
-19.011730 -20.088919 -22.622714 35.732306 0.812940 2.256369 0.056196 -0.005322 -377122.000000 0 0 1
-18.927630 -21.235219 -23.413314 36.842543 0.842791 2.259448 0.040191 -0.004078 576184.000000 0 0 1
-17.592130 -21.766019 -23.371614 36.461966 0.891052 2.266579 0.041523 0.003679 758335.000000 0 0 1
-17.457630 -23.070519 -24.263314 37.758788 0.923016 2.268666 0.034851 0.003799 -379059.000000 0 0 1
-17.461530 -22.842519 -25.647884 38.529205 0.918123 2.299193 0.036677 0.002587 157850.000000 0 0 1
-17.582330 -24.023919 -26.371214 39.770943 0.939001 2.295719 0.040825 -0.005259 -140392.000000 0 0 1
-17.442030 -23.906419 -27.919464 40.684613 0.940482 2.327105 0.048138 0.000678 -1208710.000000 0 0 1
-16.159130 -23.811119 -28.372244 40.411274 0.974552 2.349121 0.021503 0.001250 -1291920.000000 0 0 1
-16.092630 -23.845119 -29.801504 41.420913 0.977128 2.373849 0.043411 -0.007329 -756340.000000 0 0 1
-14.675830 -23.936219 -30.324044 41.326386 1.020784 2.394650 0.011232 -0.012484 -834489.000000 0 0 1
-13.939430 -25.072019 -29.999764 41.507827 1.063377 2.378569 0.024742 -0.012221 79553.800000 0 0 1
-12.691330 -25.013019 -30.678554 41.567952 1.101255 2.400948 0.036917 -0.017035 -184628.000000 0 0 1
-11.752430 -26.129719 -30.232064 41.651645 1.148132 2.383038 0.044110 -0.016772 -1411660.000000 0 0 1
-12.077930 -27.451219 -30.589114 42.838530 1.156308 2.366071 0.050584 -0.014694 438477.000000 0 0 1
-11.093430 -28.456619 -30.302734 43.024400 1.199082 2.352254 0.054961 -0.015481 954139.000000 0 0 1
-9.679930 -28.346719 -30.956394 43.075931 1.241729 2.372651 0.057982 -0.016712 -9134.540000 0 0 1
-8.856930 -27.356519 -30.468484 41.894544 1.257687 2.385127 0.055406 -0.021346 235148.000000 0 0 1
-7.726130 -27.040119 -31.311894 42.086765 1.292484 2.409810 0.063401 -0.019925 623580.000000 0 0 1
-7.149730 -25.578419 -30.985594 40.810307 1.298231 2.432970 0.066471 -0.024369 294071.000000 0 0 1
-8.016430 -24.416119 -31.176034 40.402414 1.253560 2.452209 0.061799 -0.023886 614151.000000 0 0 1
-8.796130 -24.101719 -30.024934 39.493815 1.220858 2.434485 0.061793 -0.020133 -340938.000000 0 0 1
-9.338930 -22.677719 -29.973104 38.728304 1.180150 2.455824 0.055953 -0.022515 -610044.000000 0 0 1
-10.264230 -22.310019 -30.925904 39.490542 1.139598 2.470466 0.047417 -0.022603 -384275.000000 0 0 1
-10.405430 -20.895819 -30.833704 38.673318 1.108776 2.493582 0.037152 -0.015892 196409.000000 0 0 1
-11.293130 -20.401519 -32.017074 39.608708 1.065237 2.512113 0.023984 -0.013587 165695.000000 0 0 1
-11.663930 -19.042819 -31.896254 38.936451 1.021229 2.530789 0.026700 -0.015844 312267.000000 0 0 1
-12.408030 -18.718319 -33.090704 39.991616 0.985419 2.545332 0.028357 -0.016580 -228086.000000 0 0 1
-13.119330 -17.322319 -32.942794 39.463999 0.922598 2.558485 0.045657 -0.018975 -238355.000000 0 0 1
-12.338330 -16.151219 -33.044944 38.795162 0.918442 2.590170 0.052673 -0.022077 198285.000000 0 0 1
-11.443430 -15.824719 -31.972054 37.464464 0.944711 2.593264 0.029372 -0.017014 373481.000000 0 0 1
-11.332830 -14.257519 -31.885584 36.720571 0.899193 2.622622 0.036476 -0.013617 -19727.700000 0 0 1
-10.588230 -13.565919 -32.899494 37.128445 0.908058 2.659657 0.041909 -0.022881 208552.000000 0 0 1
-11.063730 -13.714919 34.227899 38.497457 0.891988 0.475432 0.056076 -0.025198 -351813.000000 0 0 1
-11.684530 -12.467119 33.595265 37.690836 0.817790 0.470509 0.059822 -0.021737 932068.000000 0 0 1
-12.923530 -12.022319 34.207229 38.492704 0.749287 0.476365 0.045331 -0.018190 573124.000000 0 0 1
-13.637830 -11.235319 33.255620 37.658453 0.689106 0.488399 0.030172 -0.017835 852626.000000 0 0 1
-14.684130 -10.340219 34.030299 38.478631 0.613523 0.485601 0.042839 -0.016583 541624.000000 0 0 1
-14.021730 -9.328319 -33.736754 37.706697 0.587039 2.678589 0.037712 -0.014645 320901.000000 0 0 1
-14.894530 -8.650419 -32.787604 37.036519 0.526166 2.657887 0.044832 -0.016475 632768.000000 0 0 1
-14.216230 -7.499919 -31.998844 35.808881 0.485452 2.676100 0.044222 -0.028739 -415484.000000 0 0 1
-14.138530 -6.186419 -32.604504 36.072475 0.412459 2.699506 0.035977 -0.034642 296940.000000 0 0 1
-15.264430 -5.318219 -32.447514 36.250895 0.335254 2.679411 0.039633 -0.023710 271483.000000 0 0 1
-15.709630 -4.870119 -31.069734 35.154500 0.300613 2.654731 0.048445 -0.030139 -352982.000000 0 0 1
-16.104730 -5.918419 -30.210144 34.742521 0.352175 2.625074 0.050224 -0.033581 -157109.000000 0 0 1
-16.397430 -5.542319 -28.884304 33.673372 0.325944 2.601729 0.059872 -0.037972 431994.000000 0 0 1
-15.152230 -5.011619 -28.098064 32.314201 0.319425 2.625040 0.047214 -0.037189 686696.000000 0 0 1
-14.648930 -3.747919 -28.590574 32.342835 0.250476 2.655114 0.042670 -0.030843 -364245.000000 0 0 1
-13.387230 -3.421519 -28.078244 31.293969 0.250224 2.684278 0.031420 -0.025297 -173371.000000 0 0 1
-12.972930 -2.062519 -28.724654 31.585703 0.157667 2.712682 0.004669 -0.011106 -6295.170000 0 0 1
-12.840530 -2.046519 -30.131944 32.817701 0.158050 2.734211 0.003866 -0.021569 32331.500000 0 0 1
-12.921030 -0.762519 -30.727224 33.342116 0.058945 2.742912 -0.000803 -0.022507 -46274.100000 0 0 1
-13.069930 -0.873519 -32.237014 34.796712 0.066735 2.755635 -0.007668 -0.022409 -288409.000000 0 0 1
-14.369530 -1.250519 -32.666454 35.709164 0.086807 2.725789 0.002214 -0.027448 298365.000000 0 0 1
-14.432130 -1.548519 -34.067014 37.030335 0.106888 2.738815 -0.007992 -0.021076 -655089.000000 0 0 1
-15.820430 -1.859519 33.862750 37.422315 0.117002 0.439696 -0.004324 -0.021138 -521725.000000 0 0 1
-15.749530 -2.026519 32.467778 36.142926 0.127969 0.454874 0.000275 -0.026610 132114.000000 0 0 1
-17.018130 -2.170519 31.871807 36.195856 0.126857 0.493801 0.002895 -0.019604 -74895.700000 0 0 1
-17.020930 -1.977519 30.323007 34.829691 0.115663 0.514360 0.014034 -0.013062 -154433.000000 0 0 1
-16.659130 -0.730519 29.843337 34.186036 0.043823 0.509541 0.010359 0.005120 -90664.700000 0 0 1
-16.719830 -0.708519 28.399377 32.963303 0.042351 0.532491 0.017918 -0.005039 -103298.000000 0 0 1
-16.152230 0.607481 27.701617 32.072467 -0.037592 0.528192 0.015201 -0.004032 -66146.800000 0 0 1
-16.707130 1.853481 28.087217 32.733092 -0.110488 0.539301 0.015480 -0.002136 77819.800000 0 0 1
-17.964130 2.068481 27.451037 32.871690 -0.114640 0.582488 0.020892 -0.008643 121622.000000 0 0 1
-17.990230 2.706481 26.021397 31.750378 -0.149322 0.610150 0.032461 -0.017816 -735979.000000 0 0 1
-17.772730 4.119481 26.111987 31.853978 -0.227765 0.609839 0.033649 -0.012241 458615.000000 0 0 1
-18.431430 4.819481 25.024537 31.451112 -0.255755 0.650692 0.041740 -0.013585 -361744.000000 0 0 1
-18.312130 6.327481 25.301037 31.867124 -0.332692 0.653511 0.041965 -0.006920 -704884.000000 0 0 1
-17.061130 6.937481 25.328557 31.316874 -0.386204 0.628716 0.021340 -0.004230 -553349.000000 0 0 1
-16.574930 7.070481 24.001967 30.013571 -0.403205 0.643995 0.023835 -0.007010 -90064.000000 0 0 1
-15.410130 8.098481 23.903417 29.570777 -0.483862 0.629459 0.023368 -0.007678 743515.000000 0 0 1
-14.105630 7.568481 24.100207 28.932174 -0.492464 0.586307 0.004769 0.000094 558174.000000 0 0 1
-13.066930 8.452481 23.668717 28.326617 -0.574165 0.581637 0.030270 -0.002980 1885.660000 0 0 1
-11.690730 8.018481 24.177597 28.027226 -0.601189 0.530317 0.027465 -0.001120 -261487.000000 0 0 1
-10.689930 8.872481 23.632657 27.413464 -0.692759 0.531432 0.023728 -0.001063 171059.000000 0 0 1
-9.513430 8.858481 24.433047 27.675835 -0.749764 0.488943 0.012165 -0.000843 155787.000000 0 0 1
-9.242030 10.180481 25.216167 28.721288 -0.833678 0.499210 0.018161 -0.012868 -3007.370000 0 0 1
-10.299430 10.509481 26.136457 29.994030 -0.795492 0.512771 0.005683 -0.015364 635204.000000 0 0 1
-10.120930 11.779481 26.818187 30.990394 -0.860985 0.524906 0.011018 -0.014692 -601420.000000 0 0 1
-10.766530 12.942481 26.011857 30.984556 -0.876919 0.574415 -0.001973 -0.019611 762191.000000 0 0 1
-12.192230 13.001481 25.866557 31.412860 -0.817508 0.603352 0.004165 -0.017655 796199.000000 0 0 1
-12.663130 12.046481 24.948367 30.461346 -0.760447 0.611100 0.009688 -0.006534 -691305.000000 0 0 1
-14.186930 11.840481 24.793397 30.922136 -0.695488 0.640494 -0.003739 -0.005505 54344.400000 0 0 1
-14.752230 12.927481 24.125767 31.093419 -0.719570 0.682636 0.007806 -0.014660 122502.000000 0 0 1
-16.041930 12.738481 23.546707 31.209931 -0.671117 0.715962 0.023395 -0.005917 333161.000000 0 0 1
-16.128930 12.132481 22.131067 29.952022 -0.644919 0.739384 0.018497 -0.004190 -292689.000000 0 0 1
-16.005730 10.685481 22.027967 29.250542 -0.588651 0.718067 0.021160 -0.000675 66014.300000 0 0 1
-15.813230 10.251481 20.704467 27.996894 -0.575169 0.738429 0.022279 -0.007912 -133721.000000 0 0 1
-16.275930 8.776481 20.438467 27.561993 -0.494537 0.735426 0.026580 -0.015373 -513796.000000 0 0 1
-17.654130 8.662481 20.486267 28.397078 -0.456162 0.764943 0.023184 -0.014542 -1045420.000000 0 0 1
-18.134530 7.342481 20.487767 28.328816 -0.384714 0.762353 0.024480 -0.007002 -330190.000000 0 0 1
-19.622430 7.289481 20.820967 29.524379 -0.355687 0.788073 0.033881 -0.003464 -421753.000000 0 0 1
-19.850230 7.392481 22.181567 30.670871 -0.356501 0.762353 0.035277 -0.010380 -336349.000000 0 0 1
-21.210630 7.383481 22.513967 31.800713 -0.334984 0.784176 0.030217 -0.005765 -282887.000000 0 0 1
-21.284730 8.025481 23.948167 33.029726 -0.360570 0.759691 0.043587 0.001341 -575954.000000 0 0 1
-21.286430 9.472481 24.118277 33.534032 -0.418689 0.768120 0.047786 -0.008529 192030.000000 0 0 1
-20.209230 10.299481 23.684657 32.794135 -0.471332 0.763786 0.045250 -0.004215 20739.900000 0 0 1
-18.861030 10.211481 24.406377 32.491292 -0.496221 0.720969 0.048005 -0.003688 -495578.000000 0 0 1
-18.880030 10.661481 25.798937 33.700265 -0.514056 0.698914 0.058649 -0.007291 44072.300000 0 0 1
-19.353230 9.715481 26.706947 34.383122 -0.465253 0.681314 0.031395 -0.005931 -272223.000000 0 0 1
-30.902840 -14.412985 20.732267 39.906723 0.436406 1.024509 0.046759 -0.016218 219293.000000 0 0 1
-30.235000 -15.679185 20.695167 39.853256 0.478399 1.024783 0.041471 -0.007517 283408.000000 0 0 1
-30.929390 -16.664785 19.925267 40.390079 0.494204 1.054893 0.030925 0.002006 192544.000000 0 0 1
-30.591650 -16.634385 18.444567 39.404998 0.498036 1.083683 0.026475 -0.001634 326286.000000 0 0 1
-31.133450 -15.488785 17.792067 39.060873 0.461643 1.097867 0.036257 -0.013711 128968.000000 0 0 1
-30.353000 -15.266885 16.650467 37.836760 0.466027 1.115130 0.033994 -0.011954 -558561.000000 0 0 1
-30.912140 -14.004385 15.933767 37.490907 0.425378 1.131831 0.029023 -0.007358 -444250.000000 0 0 1
-32.076120 -14.135285 15.188667 38.201824 0.415076 1.161907 0.056522 -0.007627 412598.000000 0 0 1
-33.357990 -14.130085 15.844167 39.540516 0.400675 1.158508 0.057359 -0.013466 554076.000000 0 0 1
-33.860570 -12.909785 16.535467 39.832429 0.364250 1.142715 0.053163 -0.016052 -340051.000000 0 0 1
-35.123227 -13.016785 17.188167 41.212994 0.354910 1.140591 0.027060 -0.013173 240760.000000 0 0 1
-35.505105 -11.795785 17.670967 41.376516 0.320755 1.129538 0.031056 -0.006942 368766.000000 0 0 1
35.394621 -11.769485 18.669767 41.711631 -0.321020 1.106726 0.018995 0.009405 554529.000000 0 0 1
35.805441 -12.414285 19.882967 42.795753 -0.333745 1.087612 0.019939 0.000829 153824.000000 0 0 1
34.875031 -12.144185 20.902167 42.434062 -0.335088 1.055745 0.024514 -0.000772 -902880.000000 0 0 1
35.373641 -12.612085 22.305767 43.679588 -0.342488 1.034835 0.021722 -0.010211 536759.000000 0 0 1
-35.525785 -11.918285 22.687767 43.804813 0.323684 1.026369 0.018631 -0.005963 1155150.000000 0 0 1
-34.309441 -12.535985 22.234667 42.762940 0.350310 1.024002 0.019567 -0.010909 -593217.000000 0 0 1
-33.074450 -11.752085 22.570267 41.730656 0.341408 0.999342 0.036171 -0.008785 -695649.000000 0 0 1
-33.037110 -10.553085 21.827967 40.978999 0.309187 1.009053 0.049586 -0.016361 -589906.000000 0 0 1
-31.727840 -10.082585 21.794967 39.791141 0.307691 0.991143 0.064072 -0.026728 -805113.000000 0 0 1
-31.674690 -8.708485 21.121667 39.054430 0.268306 0.999377 0.066536 -0.009676 24224.900000 0 0 1
-31.910290 -8.670885 19.727267 38.504752 0.265321 1.032897 0.060027 -0.009414 -214061.000000 0 0 1
-33.283840 -8.705785 19.466267 39.528980 0.255831 1.055887 0.058279 -0.014853 -818124.000000 0 0 1
-33.520920 -8.532485 17.926267 38.959035 0.249249 1.092653 0.054320 -0.019273 -125982.000000 0 0 1
-34.890966 -8.599185 17.579967 40.004759 0.241643 1.115813 0.023717 -0.011943 100765.000000 0 0 1
-35.109603 -8.379485 16.211267 39.568992 0.234284 1.148675 0.038086 -0.013804 1108850.000000 0 0 1
35.448341 -8.347485 15.842367 39.714556 -0.231270 1.160473 0.037004 -0.007527 1096540.000000 0 0 1
34.916181 -9.637285 15.784667 39.511678 -0.269307 1.159832 0.026923 0.002614 -367067.000000 0 0 1
33.525221 -9.593085 15.626167 38.211842 -0.278698 1.149509 0.023224 -0.000101 21961.800000 0 0 1
32.671021 -10.892085 15.614167 37.813164 -0.321799 1.145128 0.024190 -0.001162 163083.000000 0 0 1
32.472071 -11.572285 16.824767 38.359171 -0.342344 1.116743 0.015000 -0.001498 784995.000000 0 0 1
31.311631 -12.433085 16.703867 37.603444 -0.377983 1.110503 0.022731 0.001792 680177.000000 0 0 1
30.909791 -12.972685 18.090367 38.091562 -0.397369 1.075926 0.017574 0.002055 -195124.000000 0 0 1
31.679441 -14.057485 18.543967 39.307488 -0.417637 1.079503 0.025487 0.001709 -38724.700000 0 0 1
31.944071 -14.009685 19.954967 40.185764 -0.413307 1.051156 0.015547 0.000393 -104527.000000 0 0 1
32.581621 -15.304085 20.540767 41.445146 -0.439128 1.052255 0.012253 0.009910 142002.000000 0 0 1
33.009181 -15.133485 21.858367 42.384155 -0.429869 1.028948 0.002787 0.004027 -323055.000000 0 0 1
33.322861 -16.323385 22.482667 43.385900 -0.455499 1.026049 0.010316 0.019801 41050.300000 0 0 1
33.642881 -16.117885 23.974227 44.344033 -0.446778 0.999597 0.025085 0.008322 932859.000000 0 0 1
34.868191 -15.381285 24.171707 45.129216 -0.415450 1.005565 0.022121 0.005466 851830.000000 0 0 1
35.130831 -14.999985 25.542887 45.952301 -0.403542 0.981403 0.024908 0.003249 -75637.400000 0 0 1
-35.787829 -14.025185 25.713947 46.245882 0.373503 0.981199 0.027010 -0.004351 -165010.000000 0 0 1
-34.527746 -14.526185 25.358707 45.235377 0.398232 0.975693 0.015188 -0.001694 -93244.400000 0 0 1
-33.468310 -13.833185 25.996127 44.578957 0.391938 0.948198 0.025036 -0.003153 742749.000000 0 0 1
-32.091350 -14.547285 25.813407 43.678487 0.425602 0.938515 0.023450 0.001268 -436375.000000 0 0 1
-31.616630 -14.559585 24.500267 42.565900 0.431555 0.957478 0.017511 -0.000449 -206217.000000 0 0 1
-30.346050 -15.125685 24.306467 41.718982 0.462399 0.948843 0.028577 -0.013640 -149088.000000 0 0 1
-30.139590 -16.619885 24.818327 42.433063 0.503941 0.946062 0.029628 -0.005476 -918795.000000 0 0 1
-30.060130 -16.782785 26.217237 43.273743 0.509199 0.919967 0.031452 -0.003152 116099.000000 0 0 1
-29.817970 -18.118385 26.570157 43.856133 0.546013 0.919965 0.033594 -0.009773 -211882.000000 0 0 1
-29.471090 -18.287985 28.048207 44.606025 0.555386 0.890789 0.036276 -0.020909 -460375.000000 0 0 1
-28.345160 -17.518285 28.365227 43.759850 0.553575 0.865575 0.033150 -0.016142 -470291.000000 0 0 1
-27.765340 -17.973085 29.555567 44.356256 0.574490 0.841530 0.052397 -0.019928 -495672.000000 0 0 1
-26.597650 -17.103785 29.961267 43.562047 0.571478 0.812365 0.049677 -0.019755 -783117.000000 0 0 1
-26.908630 -15.801285 30.456887 43.604781 0.530969 0.797531 0.058150 -0.024818 40158.900000 0 0 1
-25.820940 -14.892885 30.266347 42.480239 0.523168 0.777769 0.036133 -0.020515 -28993.100000 0 0 1
-25.808900 -13.615585 31.124307 42.663872 0.485447 0.753171 0.042826 -0.016028 -278039.000000 0 0 1
-25.258510 -13.797485 32.396557 43.334741 0.499960 0.726373 0.053238 -0.017591 -42313.900000 0 0 1
-24.745830 -12.565085 32.796402 42.963257 0.469841 0.702299 0.045035 -0.009027 -558342.000000 0 0 1
-23.859530 -12.607085 34.017335 43.421133 0.486099 0.670634 0.059910 -0.010852 -223617.000000 0 0 1
-22.504630 -12.987485 33.870056 42.688568 0.523413 0.654385 0.025629 -0.009375 37674.100000 0 0 1
-22.300530 -14.390985 34.019404 43.147815 0.573078 0.662530 0.041001 -0.010886 -224671.000000 0 0 1
-22.322530 -14.984785 -33.025624 42.585572 0.591193 2.458322 0.051841 -0.012480 -818235.000000 0 0 1
-21.156330 -14.811285 -32.298954 41.354406 0.610785 2.467107 0.037265 -0.008898 -498625.000000 0 0 1
-21.249930 -15.515185 -31.042304 40.692814 0.630662 2.438498 0.065974 -0.014694 254981.000000 0 0 1
-19.923030 -15.525485 -30.228214 39.391785 0.661974 2.445531 0.065085 -0.008033 233827.000000 0 0 1
-19.670730 -14.427385 -29.449724 38.240989 0.632821 2.449808 0.053601 -0.001525 -13967.900000 0 0 1
-20.359730 -14.319385 -28.213414 37.623930 0.612950 2.418676 0.058135 0.001789 -129147.000000 0 0 1
-19.985530 -13.092985 -27.339884 36.308634 0.579968 2.423384 0.057896 0.000652 548323.000000 0 0 1
-18.671730 -13.257385 -26.787424 35.241422 0.617422 2.434282 0.066549 -0.007516 390085.000000 0 0 1
-18.334330 -12.068885 -26.147954 34.139729 0.582165 2.443252 0.056821 -0.010028 -349374.000000 0 0 1
-16.971330 -12.094885 -25.470404 32.909782 0.619176 2.455846 0.079367 -0.025377 -1417810.000000 0 0 1
-17.066330 -12.780085 -24.201414 32.253660 0.642763 2.419382 0.087097 -0.024152 285452.000000 0 0 1
-15.829230 -12.818185 -23.492114 31.092600 0.680676 2.427295 0.080067 -0.027492 844860.000000 0 0 1
-14.778030 -13.764485 -24.203814 31.522624 0.749903 2.446233 0.054474 -0.022698 -400538.000000 0 0 1
-14.048930 -13.122985 -25.241664 31.728957 0.751334 2.490695 0.050251 -0.031055 -234365.000000 0 0 1
-13.222230 -14.036285 -25.922764 32.308425 0.815254 2.502024 0.043985 -0.030739 -203036.000000 0 0 1
-12.176530 -13.236985 -26.731594 32.218997 0.827102 2.549338 0.045779 -0.024199 -478215.000000 0 0 1
-12.816030 -12.414585 -27.672244 32.926063 0.769488 2.568883 0.061527 -0.025685 -577577.000000 0 0 1
-11.960530 -11.831085 -28.564474 33.150535 0.779957 2.609327 0.052908 -0.023282 -663552.000000 0 0 1
-12.661130 -10.892285 -29.609374 33.995016 0.710440 2.628013 0.033061 -0.021200 94132.300000 0 0 1
-11.800730 -10.080485 -30.391134 34.124689 0.706942 2.669439 0.025629 -0.019073 273186.000000 0 0 1
-11.199230 -10.748585 -31.506404 35.122760 0.764868 2.683814 0.037585 -0.021179 404215.000000 0 0 1
-10.515730 -9.808485 -32.592974 35.624274 0.750614 2.726079 0.028879 -0.014683 -199837.000000 0 0 1
-9.356130 -9.197385 -32.135524 34.710531 0.776842 2.753982 0.018500 -0.017314 -681001.000000 0 0 1
-9.092230 -7.871685 -32.603844 34.751154 0.713572 2.788214 0.012558 -0.013355 471093.000000 0 0 1
-7.603830 -7.480085 -32.332694 34.046629 0.777195 2.822942 0.022012 -0.009946 431393.000000 0 0 1
-7.206130 -7.363485 -30.940584 32.610871 0.796198 2.820152 0.014925 -0.008558 -21617.200000 0 0 1
-7.433030 -6.096885 -30.295194 31.783969 0.686962 2.834312 0.009198 -0.010185 -767467.000000 0 0 1
-6.657130 -4.899685 -30.755694 31.847087 0.634484 2.879038 0.013367 -0.009739 -767611.000000 0 0 1
-5.343930 -4.812085 -30.284654 31.126741 0.733078 2.908456 0.033809 -0.011281 -487964.000000 0 0 1
-4.775430 -3.603385 -30.740994 31.317691 0.646418 2.949388 0.045519 -0.019764 661638.000000 0 0 1
-3.243830 -3.475785 -30.453174 30.822059 0.819903 2.986724 0.035370 -0.007324 686116.000000 0 0 1
-2.369830 -4.366385 -31.173244 31.566636 1.073541 2.983553 0.030773 -0.006116 1058140.000000 0 0 1
-0.976030 -4.226585 -30.877554 31.180763 1.343848 3.002022 0.044806 -0.003187 1260140.000000 0 0 1
-0.190630 -2.969885 -31.412624 31.553280 1.506697 3.047136 0.037212 -0.000477 -562491.000000 0 0 1
0.299570 -2.082085 -30.343634 30.416458 -1.427897 3.072380 0.038509 -0.007694 305840.000000 0 0 1
0.762070 -0.848785 -30.929224 30.950251 -0.839178 3.104729 0.019143 -0.006288 282727.000000 0 0 1
1.322470 0.026115 -29.790984 29.820334 0.019745 3.097222 0.021045 -0.015694 266746.000000 0 0 1
0.269570 0.518215 -28.997434 29.003317 1.091128 3.121451 0.048317 -0.017259 -148354.000000 0 0 1
0.548270 1.892915 -28.921494 28.988558 1.288868 3.073558 0.062793 -0.023261 -358154.000000 0 0 1
-0.574230 2.749915 -28.345464 28.484330 -1.364937 3.042808 0.047828 -0.020805 -668200.000000 0 0 1
-1.679430 2.894415 -29.179104 29.370363 -1.045040 3.027408 0.032148 -0.024844 -859130.000000 0 0 1
-2.581230 3.794015 -28.629884 28.995302 -0.973385 2.982664 0.063953 -0.023006 -918108.000000 0 0 1
-3.873130 3.941015 -29.391944 29.906840 -0.794085 2.955763 0.074138 -0.020980 -805507.000000 0 0 1
-3.583830 4.544215 -30.641564 31.183315 -0.903010 2.954918 0.076667 -0.023291 525880.000000 0 0 1
-4.776730 4.707915 -31.412454 32.120459 -0.778143 2.931242 0.084830 -0.009720 -78940.200000 0 0 1
-4.646930 5.512615 -32.720004 33.504948 -0.870402 2.924707 0.086735 -0.009200 -112283.000000 0 0 1
-4.253430 4.790415 -33.837594 34.438677 -0.844704 2.954484 0.099818 -0.018846 -456371.000000 0 0 1
-2.950930 4.294515 -33.855884 34.254514 -0.968754 2.988884 0.090111 -0.017248 -829948.000000 0 0 1
-2.306330 3.853515 33.298021 33.599508 -1.031480 0.134063 0.088109 -0.028417 -396881.000000 0 0 1
-2.892430 2.680115 32.792397 33.028631 -0.747316 0.119674 0.085162 -0.021578 -199785.000000 0 0 1
-2.534030 2.135615 31.517297 31.691042 -0.700284 0.104762 0.091886 -0.027725 -188809.000000 0 0 1
-2.560930 3.086215 30.249907 30.514586 -0.878149 0.131806 0.095265 -0.036626 694029.000000 0 0 1
-3.836130 3.718615 30.028737 30.500312 -0.769844 0.176076 0.067989 -0.035040 551617.000000 0 0 1
-3.769230 4.551915 28.915097 29.512876 -0.879182 0.201612 0.072153 -0.042382 -115895.000000 0 0 1
-4.972230 5.487115 28.840387 29.775819 -0.834586 0.251323 0.077881 -0.034528 -101079.000000 0 0 1
-4.987930 6.316815 27.715947 28.860965 -0.902412 0.282626 0.070424 -0.023709 -624650.000000 0 0 1
-6.269030 6.850715 27.572177 29.093951 -0.829706 0.324863 0.062989 -0.019154 -1252600.000000 0 0 1
-6.303830 7.716915 26.285497 28.110788 -0.885844 0.362346 0.056364 -0.017966 -286707.000000 0 0 1
-5.395430 8.782915 26.408227 28.348628 -1.019921 0.372138 0.060012 -0.011103 -188559.000000 0 0 1
-5.146030 9.351515 25.148387 27.319843 -1.067732 0.401394 0.041428 -0.006131 -384988.000000 0 0 1
-4.275930 10.580315 25.215827 27.677872 -1.186726 0.424981 0.050689 -0.014932 -703078.000000 0 0 1
-4.149430 11.270515 23.943677 26.786974 -1.218030 0.464925 0.057846 -0.008071 151843.000000 0 0 1
-3.811530 12.645815 24.124397 27.503289 -1.278050 0.500910 0.042575 0.004048 -675173.000000 0 0 1
-2.326030 12.979915 24.247267 27.601061 -1.393476 0.498103 0.040576 0.004610 -710003.000000 0 0 1
-1.571130 12.569815 25.360727 28.348460 -1.446449 0.463246 0.043122 0.004429 29632.400000 0 0 1
-1.974430 13.094615 26.664007 29.771406 -1.421142 0.460963 0.055686 -0.003902 -481002.000000 0 0 1
-1.143030 12.477415 27.811437 30.503581 -1.479443 0.423288 0.052422 -0.006635 184081.000000 0 0 1
0.213070 12.880915 27.774707 30.616952 1.554256 0.434293 0.045928 -0.006708 -769052.000000 0 0 1
0.891670 12.371715 28.829207 31.384353 1.498847 0.406310 0.047792 -0.016334 -551557.000000 0 0 1
2.399570 12.621115 28.621897 31.372974 1.382915 0.421905 0.038640 -0.014943 -87391.600000 0 0 1
2.724870 14.001515 28.606957 31.966003 1.378586 0.462549 0.033162 -0.010194 -10334.400000 0 0 1
4.118070 14.132915 28.373427 31.964811 1.287265 0.478589 0.039200 -0.013153 274871.000000 0 0 1
4.684070 15.545715 28.619097 32.903837 1.278139 0.516040 0.031231 -0.008822 -277507.000000 0 0 1
4.582170 15.865715 29.990477 34.236616 1.289637 0.503339 0.040140 -0.004773 420350.000000 0 0 1
3.442170 16.619415 30.394937 34.812436 1.366567 0.509260 0.024313 0.001077 215601.000000 0 0 1
3.590370 18.109815 29.912937 35.151671 1.375079 0.552971 0.028900 0.005508 -139765.000000 0 0 1
4.578070 18.910315 30.519567 36.193960 1.333273 0.567546 0.050764 0.005694 -36941.900000 0 0 1
4.969870 19.981215 29.675647 36.119144 1.327016 0.606577 0.033325 0.009532 164831.000000 0 0 1
6.197770 20.762015 30.200247 37.168919 1.280703 0.622345 0.041697 0.007950 59388.600000 0 0 1
5.860370 21.647115 31.277017 38.486274 1.306411 0.622060 0.038965 -0.013993 -121085.000000 0 0 1
7.005570 22.354615 31.667047 39.390465 1.267107 0.636928 0.022615 -0.012756 -279701.000000 0 0 1
7.126970 23.787315 31.045937 39.755255 1.279695 0.674648 0.011705 -0.003090 -173997.000000 0 0 1
7.513470 23.716915 29.717137 38.756322 1.264001 0.697004 0.002633 0.003181 151762.000000 0 0 1
7.667270 25.039215 29.132277 39.171915 1.273652 0.732203 0.000583 0.006219 -123577.000000 0 0 1
8.154470 24.991615 27.710547 38.196212 1.255400 0.759066 0.012502 0.007545 -428482.000000 0 0 1
7.179870 24.548115 26.796757 37.043578 1.286251 0.762104 0.005749 0.009842 30499.000000 0 0 1
7.596770 24.639515 25.444187 36.224623 1.271727 0.792032 0.016474 0.001501 -300204.000000 0 0 1
28.419411 2.138315 6.719986 29.281283 0.075100 1.339235 0.063185 0.013657 8695.080000 0 0 1
28.873201 3.067615 7.654186 30.027630 0.105847 1.313047 0.064738 -0.001123 329257.000000 0 0 1
27.953761 3.204015 8.737186 29.462127 0.114120 1.269711 0.059902 0.007811 -182340.000000 0 0 1
28.381841 4.189815 9.820886 30.323807 0.146565 1.240982 0.068391 -0.000083 -80073.100000 0 0 1
28.187861 5.547715 9.644986 30.304429 0.194329 1.246892 0.066651 0.000768 582692.000000 0 0 1
29.186491 6.130215 8.773086 31.086940 0.207027 1.284698 0.074896 -0.016378 376511.000000 0 0 1
29.123861 7.629815 8.509586 31.286202 0.256220 1.295334 0.086675 -0.027022 -637532.000000 0 0 1
28.050321 8.012915 7.722086 30.177110 0.278251 1.312026 0.085879 -0.024225 -580350.000000 0 0 1
28.169601 9.304915 7.192786 30.526121 0.319034 1.332932 0.110029 -0.044000 39266.700000 0 0 1
27.229241 9.604015 5.984586 29.487014 0.339087 1.366420 0.097570 -0.037025 1562390.000000 0 0 1
25.846551 9.922815 6.273886 28.387817 0.366561 1.347950 0.081853 -0.027150 1308720.000000 0 0 1
25.008851 9.923015 5.118186 27.388040 0.377728 1.382814 0.107284 -0.030943 367304.000000 0 0 1
23.546351 10.342815 5.369886 26.272422 0.413881 1.364953 0.052874 -0.025128 54855.700000 0 0 1
23.416051 11.626415 5.941286 26.810145 0.460856 1.347335 0.052148 -0.020999 216500.000000 0 0 1
22.038951 11.893315 6.131386 25.782945 0.494862 1.330688 0.046033 -0.011553 -100385.000000 0 0 1
21.799151 13.341615 6.612686 26.399419 0.549214 1.317614 0.024380 0.000665 -347351.000000 0 0 1
21.937251 14.369315 5.653886 26.826976 0.579895 1.358450 0.028005 0.001317 314421.000000 0 0 1
21.782251 15.633115 6.256286 27.531834 0.622506 1.341556 0.044810 -0.008995 -251819.000000 0 0 1
21.539051 16.668515 5.177486 27.723212 0.658606 1.382937 0.047240 -0.011102 -260078.000000 0 0 1
20.227651 16.581915 4.666286 26.568629 0.686677 1.394249 0.056165 -0.009000 132158.000000 0 0 1
20.026951 17.505715 3.628286 26.845732 0.718324 1.435228 0.060032 -0.015392 207225.000000 0 0 1
18.546551 17.619015 3.157186 25.775417 0.759757 1.448000 0.048074 -0.008240 217044.000000 0 0 1
17.686151 18.055015 4.178686 25.617278 0.795718 1.406944 0.049503 -0.016207 1050870.000000 0 0 1
16.327851 18.065915 3.689386 24.628999 0.835889 1.420432 0.021119 -0.018009 984286.000000 0 1 0
15.442951 19.354915 3.802686 25.051106 0.897348 1.418410 0.034617 -0.009697 -541551.000000 0 0 1
14.105451 18.967115 3.963786 23.967203 0.931353 1.404649 0.029176 -0.019975 -727449.000000 0 1 0
13.419651 20.161115 4.199186 24.580293 0.983518 1.399119 0.016177 -0.013702 343055.000000 0 1 0
11.866851 19.940015 4.136686 23.569865 1.033967 1.394375 0.011525 -0.006330 379336.000000 0 1 0
11.417751 19.229715 5.195586 22.959554 1.034981 1.342526 0.005979 -0.017981 340366.000000 0 1 0
9.987451 19.270415 5.091386 22.293952 1.092633 1.340388 0.010021 -0.008926 786141.000000 0 1 0
9.218151 18.673215 6.285586 21.752514 1.112237 1.277657 0.015117 -0.013541 -591014.000000 0 1 0
9.186651 19.436315 7.462386 22.756365 1.129264 1.236690 0.021604 -0.016235 -160208.000000 0 1 0
8.498151 18.701415 8.475186 22.221393 1.144279 1.179489 0.027694 -0.015066 -76058.900000 0 1 0
7.419151 19.579515 9.228486 22.881569 1.208590 1.155659 0.030500 -0.020026 958475.000000 0 1 0
6.339351 19.767615 8.298386 22.356413 1.260464 1.190510 0.029356 -0.030491 -11279.000000 0 1 0
6.430351 21.024415 7.646986 23.277712 1.273980 1.236070 0.022304 -0.014118 -574138.000000 0 1 0
5.285351 21.223515 6.569086 22.836932 1.326728 1.279022 0.014884 -0.002641 1931550.000000 0 1 0
3.974751 21.443615 7.191986 22.964145 1.387518 1.252253 0.009265 -0.009168 1250300.000000 0 1 0
3.753551 22.569815 8.023986 24.246032 1.405996 1.233497 0.005343 -0.014585 -962823.000000 0 1 0
3.702451 23.951315 7.381886 25.335073 1.417428 1.275137 0.008214 -0.008456 874239.000000 0 0 1
2.567551 24.201415 6.495486 25.189128 1.465101 1.309981 0.007906 -0.009420 1065920.000000 0 0 1
2.895551 25.177615 5.531786 25.940262 1.456294 1.355895 0.021350 0.000634 -166093.000000 0 0 1
1.737451 25.479215 4.546386 25.939907 1.502711 1.394620 0.032023 -0.004810 1116360.000000 0 0 1
0.644451 26.179315 5.283886 26.715002 1.546184 1.371696 0.047942 -0.006154 354814.000000 0 0 1
-0.356349 26.325615 4.356986 26.686108 -1.557261 1.406794 0.053882 -0.008326 -1304890.000000 0 0 1
-1.635749 26.929115 4.907486 27.421458 -1.510128 1.390862 0.048014 -0.008413 -13710.600000 0 0 1
-2.622549 27.232715 3.895686 27.634669 -1.474791 1.429354 0.073308 -0.012352 109598.000000 0 0 1
-3.765749 27.739415 4.528186 28.357724 -1.435867 1.410429 0.062354 -0.015520 -619254.000000 0 0 1
-4.822349 28.216915 3.537986 28.843833 -1.401529 1.447827 0.067507 -0.017235 -364213.000000 0 0 1
-4.476649 29.433215 2.903386 29.912944 -1.419858 1.473582 0.066508 -0.017581 -52166.300000 0 0 1
-5.197249 29.696115 1.714186 30.196177 -1.397537 1.513997 0.070442 -0.021281 -136995.000000 0 0 1
-4.552649 30.675915 0.681986 31.019405 -1.423461 1.548809 0.068050 -0.028365 177231.000000 0 0 1
-4.097649 31.981315 0.980686 32.257666 -1.443364 1.540390 0.058483 -0.020923 671608.000000 0 0 1
-2.987249 32.112115 1.897686 32.306545 -1.478038 1.512022 0.058090 -0.024039 156544.000000 0 0 1
-2.384149 33.539915 1.812986 33.673387 -1.499832 1.516930 0.052206 -0.021258 -720330.000000 0 0 1
-1.666649 33.759215 0.621986 33.806053 -1.521468 1.552397 0.040604 -0.021674 -442896.000000 0 0 1
-0.751949 -33.907419 0.668286 33.922339 1.548623 1.551095 0.037343 -0.019776 1245460.000000 0 0 1
0.617451 -34.102319 1.470486 34.139592 -1.552692 1.527710 0.035692 -0.015795 687770.000000 0 0 1
0.408551 -33.930919 2.898286 34.056927 -1.558756 1.485592 0.037923 -0.012926 -435226.000000 0 0 1
1.526551 -34.313719 3.636886 34.539667 -1.526338 1.465305 0.031277 -0.011067 -251274.000000 0 0 1
1.240151 -34.343619 5.205486 34.758010 -1.534702 1.420467 0.035938 -0.010010 438458.000000 0 0 1
0.211851 33.417415 5.530486 33.872626 1.564457 1.406789 0.037319 -0.024484 184829.000000 0 0 1
-0.334749 33.574315 6.834086 34.264434 -1.560826 1.369998 0.028993 -0.015071 -351431.000000 0 0 1
0.601551 33.393415 8.013986 34.346849 1.552784 1.335300 0.024821 -0.007407 -441541.000000 0 0 1
1.169551 32.109015 8.007986 33.113208 1.534388 1.326538 0.018314 -0.012734 45374.200000 0 0 1
2.012251 31.874115 9.129986 33.216939 1.507749 1.292353 0.029788 -0.004481 -91303.000000 0 0 1
2.614051 30.456015 9.179886 31.916649 1.485176 1.279055 0.021641 -0.008547 -15206.200000 0 0 1
1.904751 29.474615 9.926586 31.159559 1.506263 1.246573 0.029862 -0.018221 99437.300000 0 0 1
2.546951 28.222115 9.911486 30.020199 1.480793 1.234323 0.026878 -0.018282 -279344.000000 0 0 1
2.271151 27.338815 11.121886 29.601779 1.487912 1.185626 0.029368 -0.033352 -776555.000000 0 0 1
2.855051 27.851315 12.273386 30.569316 1.468643 1.157649 0.026870 -0.017476 -294321.000000 0 0 1
2.743251 27.132715 13.489986 30.425144 1.470034 1.111427 0.032386 -0.017210 730113.000000 0 0 1
1.268651 26.876015 14.034086 30.346091 1.523627 1.090020 0.032597 -0.026518 1163300.000000 0 0 1
0.603251 27.980715 14.630686 31.580711 1.549240 1.089104 0.030223 -0.023871 226588.000000 0 0 1
0.047651 28.871015 13.630586 31.926959 1.569146 1.129701 0.027852 -0.024368 -767550.000000 0 0 1
-0.686749 30.007915 14.314286 33.254254 -1.547915 1.125805 0.016539 -0.017741 -37369.900000 0 0 1
-1.887049 29.695915 15.000086 33.322829 -1.507336 1.103869 0.011275 -0.013027 151469.000000 0 0 1
-2.519449 30.880815 15.418386 34.607788 -1.489390 1.109044 0.005496 -0.006452 145356.000000 0 0 1
-3.893849 30.618315 16.115786 34.818987 -1.444302 1.089595 0.007776 0.009013 380412.000000 0 0 1
-4.856249 30.166615 15.168386 34.112868 -1.411185 1.110010 0.006351 -0.002893 105724.000000 0 0 1
-6.063349 29.943615 15.880286 34.432075 -1.371006 1.091442 0.009921 0.006858 -428987.000000 0 0 1
-7.229849 29.416915 15.057986 33.828517 -1.329801 1.109480 0.008708 -0.003301 -42216.400000 0 0 1
-8.449949 29.223715 15.749286 34.255907 -1.289326 1.093078 0.007522 0.001645 100944.000000 0 0 1
-9.417449 28.570915 14.955286 33.595329 -1.252395 1.109444 0.011832 -0.001766 429336.000000 0 0 1
-10.575849 27.956315 15.814186 33.815568 -1.209136 1.084155 0.008481 0.005091 459026.000000 0 0 1
-11.377549 28.918715 16.478686 35.175102 -1.195965 1.083231 0.009151 -0.002514 601700.000000 0 0 1
-10.834049 29.131315 17.788386 35.811127 -1.214743 1.050972 0.014489 -0.002444 -76565.900000 0 0 1
-11.501049 30.344715 18.470686 37.339552 -1.208512 1.053343 0.012454 -0.003301 396268.000000 0 0 1
-12.781249 30.092015 19.061686 37.844915 -1.169147 1.042944 0.018180 -0.003138 279342.000000 0 0 1
-13.473849 31.283615 19.156486 39.079152 -1.164108 1.058480 0.021851 -0.009596 149170.000000 0 0 1
-14.718049 31.069015 20.060486 39.803615 -1.128392 1.042588 0.034269 -0.008662 -53742.400000 0 0 1
-14.270149 31.081815 21.383586 40.335768 -1.140388 1.012031 0.034838 -0.009752 -10323.200000 0 0 1
-15.265349 30.762215 22.333886 40.965196 -1.110164 0.994179 0.030882 -0.003718 -142897.000000 0 0 1
-14.685749 30.688615 23.787386 41.512674 -1.124463 0.960616 0.035952 0.006163 -605618.000000 0 0 1
-13.815849 29.595215 23.924486 40.486238 -1.134037 0.938587 0.030529 -0.001930 244278.000000 0 0 1
-13.362949 29.190915 25.246686 40.842051 -1.141493 0.904404 0.042183 -0.002412 508663.000000 0 0 1
-12.579249 30.229415 26.085786 41.863150 -1.176466 0.898070 0.038857 -0.000406 -559507.000000 0 0 1
-13.513049 31.184515 26.489286 43.090124 -1.161895 0.908738 0.033438 0.003006 -223239.000000 0 0 1
-13.028649 32.290015 27.175486 44.168969 -1.187286 0.908078 0.029267 0.000504 -871479.000000 0 0 1
-14.025349 33.425415 27.431986 45.458582 -1.173507 0.922976 0.022991 -0.007093 -94964.600000 0 0 1
-14.917349 33.262215 28.551786 46.304501 -1.149209 0.906368 0.009169 -0.006703 588568.000000 0 0 1
-14.373349 33.575915 29.833486 47.159009 -1.166315 0.885872 0.032387 0.004892 -548318.000000 0 0 1
-14.941249 32.742915 30.960786 47.475359 -1.142699 0.860387 0.024527 0.001381 228267.000000 0 0 1
-16.246949 33.101915 31.387286 48.423774 -1.114523 0.865605 0.007854 0.008998 109393.000000 0 0 1
-16.656549 32.393815 32.581386 48.870713 -1.095862 0.841044 0.002186 0.015821 335967.000000 0 0 1
-18.115049 32.645215 33.007486 49.833314 -1.064194 0.846835 0.005129 0.004988 -95530.800000 0 0 1
-18.361749 33.982215 33.419986 51.076808 -1.075404 0.857529 0.020362 0.005631 -90459.800000 0 0 1
-19.740149 34.276315 33.486186 51.825321 -1.048277 0.868286 0.017324 -0.001240 -288981.000000 0 0 1
-19.933549 -32.928419 33.691986 51.154444 1.026445 0.851796 0.023016 -0.001198 -184188.000000 0 0 1
-19.629349 -32.400019 -33.522394 50.584815 1.026091 2.295210 0.030910 -0.002594 507833.000000 0 0 1
-20.688449 -32.542819 -32.541894 50.458120 1.004518 2.271726 0.025064 0.000467 625638.000000 0 0 1
-20.479849 -31.828019 -31.197594 49.048312 0.999037 2.260176 0.029051 -0.011310 -14211.400000 0 0 1
-20.288449 -30.480119 -31.392594 48.230216 0.983513 2.279553 0.054778 -0.012050 -11798.400000 0 0 1
-19.751449 -29.808119 -30.286894 46.860854 0.985601 2.273542 0.060553 -0.014035 37192.500000 0 0 1
-20.002749 -28.243419 -30.319594 46.011721 0.954570 2.290223 0.066458 -0.020379 -44407.600000 0 0 1
-21.330449 -27.843819 -30.091394 46.214265 0.917086 2.279866 0.062453 -0.018742 -255126.000000 0 0 1
-21.439649 -26.416919 -30.030494 45.379981 0.889029 2.293955 0.065888 -0.018520 378783.000000 0 0 1
-22.664449 -25.870419 -29.237094 45.141594 0.851357 2.275326 0.065156 -0.016711 195191.000000 0 0 1
-22.612949 -26.188619 -27.846694 44.414272 0.858537 2.248462 0.064973 -0.016714 -184496.000000 0 0 1
-21.771649 -25.432319 -27.046494 43.038592 0.862793 2.250322 0.066861 -0.021730 -444659.000000 0 0 1
-21.832949 -25.824219 -25.553794 42.385898 0.868953 2.217908 0.070613 -0.013269 269648.000000 0 0 1
-23.006449 -25.370119 -24.893894 42.339645 0.834219 2.199327 0.058345 -0.013446 378847.000000 0 0 1
-22.959249 -26.001719 -23.627894 41.970155 0.847459 2.168770 0.054101 -0.004628 -667523.000000 0 0 1
-24.238649 -25.643419 -22.817094 42.020433 0.813553 2.144802 0.044289 -0.008146 266204.000000 0 0 1
-25.442549 -26.284219 -23.154494 43.293349 0.801668 2.135100 0.036804 -0.004981 -150430.000000 0 0 1
-25.406049 -27.741119 -23.161394 44.175640 0.829306 2.122692 0.040096 0.005385 -1654740.000000 0 0 1
-26.821449 -28.299019 -23.310694 45.427008 0.812198 2.109643 0.018052 0.003818 41261.500000 0 0 1
-27.521949 -28.231319 -22.063994 45.180581 0.798121 2.080996 0.017584 0.008200 406172.000000 0 0 1
-28.714849 -27.449419 -22.200494 45.506868 0.762871 2.080421 0.019322 0.007463 418898.000000 0 0 1
-29.371449 -27.005719 -20.874694 45.030475 0.743460 2.052814 0.024998 0.012454 55331.200000 0 0 1
-30.041249 -28.066019 -20.213594 45.812307 0.751418 2.027761 0.016582 0.014916 56111.900000 0 0 1
-30.331349 -27.689919 -18.882394 45.202512 0.739904 2.001741 0.018331 0.019877 -390974.000000 0 0 1
-31.297049 -28.698219 -18.116094 46.165852 0.742108 1.974050 0.006485 0.008776 248602.000000 0 0 1
-32.620249 -28.752719 -18.632094 47.307023 0.722465 1.975618 -0.000387 0.012041 447039.000000 0 0 1
-33.458549 -27.652819 -18.367994 47.133174 0.690680 1.971107 -0.008059 0.016665 -555449.000000 0 0 1
-33.828449 -27.273619 -16.910494 46.628093 0.678530 1.941925 -0.000499 0.012668 -234828.000000 0 0 1
-32.742049 -26.612319 -16.255994 45.216309 0.682490 1.938546 0.003244 0.013539 602298.000000 0 0 1
-33.192749 -25.951219 -15.090494 44.754300 0.663566 1.914722 -0.004366 0.010246 119885.000000 0 0 1
-33.055049 -26.680419 -13.756494 44.651116 0.679086 1.883979 0.003888 0.007779 -94361.500000 0 0 1
-33.906049 -27.806919 -13.670694 45.931827 0.686887 1.873006 0.001389 0.015078 262471.000000 0 0 1
-33.723349 -28.441519 -12.468994 45.843866 0.700637 1.846255 -0.010473 0.007010 -44352.100000 0 0 1
-34.740449 -29.609319 -12.447894 47.313430 0.705828 1.837024 -0.000403 0.000372 4937.730000 0 0 1
-34.405749 -30.610019 -13.382294 47.956382 0.727083 1.853602 -0.008189 -0.004925 187053.000000 0 0 1
-34.857949 -31.938919 -13.055194 49.047010 0.741726 1.840221 0.002465 -0.013995 -314490.000000 0 0 1
-34.299049 -33.015719 -13.975494 49.616296 0.766336 1.856332 0.003048 -0.006013 -1814320.000000 0 0 1
-32.933349 -33.079219 -13.930294 48.712352 0.787608 1.860815 0.006006 -0.003324 -1240450.000000 0 0 1
-32.416049 -33.984819 -14.876794 49.265476 0.809020 1.877557 0.017417 -0.013352 -703220.000000 0 0 1
-30.915149 -34.159819 -14.961994 48.440695 0.835217 1.884804 0.013977 -0.009472 -481947.000000 0 0 1
-30.471249 33.746815 -16.074594 48.225897 -0.836361 1.910618 0.025504 -0.010796 -87869.000000 0 0 1
-29.116649 33.343915 -15.935594 47.048263 -0.852974 1.916339 0.026189 -0.012160 213110.000000 0 0 1
9.915770 19.873015 -8.898614 23.925814 1.107984 1.951878 0.064435 -0.016664 -1164110.000000 0 1 0
8.551870 20.153215 -8.807314 23.597783 1.169483 1.953281 0.057463 -0.011700 -320681.000000 0 1 0
7.992570 20.462015 -10.099014 24.177786 1.198415 2.001707 0.056206 -0.013240 205145.000000 0 1 0
7.836770 19.285215 -11.154414 23.616846 1.184818 2.062703 0.041672 0.001214 -604000.000000 0 1 0
9.002370 18.624515 -11.578014 23.705814 1.120548 2.081056 0.060255 -0.009011 -576577.000000 0 1 0
8.782270 17.624115 -12.551314 23.351085 1.108502 2.138271 0.049691 -0.007923 -419393.000000 0 1 0
10.033670 16.893015 -13.057314 23.591141 1.034834 2.157338 0.060981 -0.015790 86566.000000 0 1 0
9.723670 15.921715 -14.068014 23.365782 1.022534 2.216897 0.052710 -0.019363 17951.500000 0 1 0
10.937370 15.501015 -14.654414 23.972054 0.956328 2.228514 0.070973 -0.026057 -358663.000000 0 1 0
10.843170 14.390715 -15.699114 23.898309 0.925069 2.287514 0.067375 -0.025196 -307183.000000 0 1 0
10.835770 13.009315 -15.188814 22.745467 0.876300 2.302010 0.068873 -0.020193 197340.000000 0 1 0
12.030170 12.561715 -14.571214 22.690129 0.807009 2.268139 0.086172 -0.023202 -684604.000000 0 1 0
12.988370 11.792415 -15.448914 23.375794 0.737174 2.292805 0.092485 -0.030503 -694955.000000 0 1 0
13.547270 12.604615 -16.436414 24.749960 0.749368 2.297084 0.075799 -0.026589 -49911.100000 0 1 0
14.359070 11.882115 -17.330614 25.450299 0.691285 2.319868 0.075514 -0.029253 -555139.000000 0 0 1
15.020770 12.775515 -18.333414 26.924921 0.704798 2.319799 0.062689 -0.026198 562603.000000 0 0 1
16.023570 13.643715 -17.696214 27.496577 0.705351 2.269961 0.048244 -0.018705 688545.000000 0 0 1
16.820170 14.159915 -18.753514 28.898367 0.699738 2.276996 0.039604 -0.014931 338051.000000 0 0 1
18.052870 15.012215 -18.332414 29.788422 0.693696 2.233716 0.040579 -0.006097 123880.000000 0 0 1
17.701470 16.262415 -17.755914 29.884455 0.743053 2.207008 0.042295 -0.006366 260151.000000 0 0 1
17.231670 17.240815 -18.663414 30.700149 0.785663 2.224242 0.041639 -0.003981 -111108.000000 0 0 1
17.044670 18.692415 -18.057914 31.080788 0.831473 2.190752 0.037183 -0.005465 762989.000000 0 0 1
18.246670 19.489415 -17.959914 32.176649 0.818319 2.162970 0.036631 -0.001451 908672.000000 0 0 1
17.936970 20.752215 -17.360214 32.461767 0.858036 2.135055 0.021107 0.004587 62012.700000 0 0 1
19.001670 21.839715 -17.600014 33.879154 0.854776 2.117055 0.028155 0.002610 1041370.000000 0 0 1
20.162970 21.889315 -16.733714 34.142417 0.826427 2.083018 0.036960 -0.007636 548722.000000 0 0 1
19.938470 22.778415 -15.641314 34.074176 0.851783 2.047707 0.039773 -0.006576 -525161.000000 0 0 1
21.164070 23.148815 -14.821914 34.691132 0.830158 2.012249 0.029679 -0.005907 -597983.000000 0 0 1
21.797170 22.222615 -13.925714 34.101125 0.795063 1.991459 0.040150 -0.009832 603224.000000 0 0 1
22.799070 22.855915 -13.116114 34.845701 0.786643 1.956710 0.033271 -0.009045 527583.000000 0 0 1
24.222070 22.976815 -13.698314 36.087207 0.759021 1.960149 0.030273 -0.010539 -446801.000000 0 0 1
24.371670 23.844315 -14.773414 37.158894 0.774461 1.979668 0.030998 -0.005506 -712988.000000 0 0 1
25.644670 23.598715 -15.252914 38.042080 0.743874 1.983348 0.038508 0.002471 -891932.000000 0 0 1
25.736270 24.181215 -16.696814 39.062390 0.754256 2.012455 0.041432 -0.007113 -289831.000000 0 0 1
26.837370 23.610015 -17.353314 39.734302 0.721511 2.022761 0.051725 -0.012535 -109576.000000 0 0 1
26.777970 23.956915 -18.724314 40.516582 0.729852 2.051203 0.055333 -0.012549 -435768.000000 0 0 1
27.353970 22.863415 -19.638414 40.701876 0.696213 2.074296 0.044226 -0.016833 1500390.000000 0 0 1
28.784070 22.929715 -19.892414 41.833033 0.672671 2.066351 0.058479 -0.019851 1080940.000000 0 0 1
29.195970 22.016015 -20.903914 42.119867 0.646105 2.090123 0.053802 -0.015745 -480011.000000 0 0 1
30.703770 22.142115 -21.052214 43.315014 0.624782 2.078333 0.075023 -0.018467 -735159.000000 0 0 1
31.080470 23.369815 -21.675414 44.519293 0.644724 2.079307 0.058088 -0.018900 -359192.000000 0 0 1
32.440270 23.497215 -21.958114 45.679853 0.626864 2.072244 0.052571 -0.016882 -624318.000000 0 0 1
32.844570 24.900115 -22.617614 47.014231 0.648677 2.072683 0.040458 -0.014671 -313769.000000 0 0 1
32.877670 25.102215 -24.029414 47.838009 0.652087 2.097062 0.042453 -0.016484 -9874.000000 0 0 1
31.642670 25.039715 -24.714414 47.318581 0.669430 2.120340 0.040155 -0.020187 -359155.000000 0 0 1
31.633270 25.327815 -26.233704 48.273898 0.675149 2.145319 0.041671 -0.027820 -646155.000000 0 0 1
31.605070 26.721715 -26.440404 49.112376 0.701869 2.139293 0.046345 -0.027391 -504752.000000 0 0 1
30.317070 27.241715 -26.689124 48.719043 0.732019 2.150549 0.040686 -0.011343 176730.000000 0 0 1
29.749270 26.890315 -28.122114 48.979193 0.734965 2.182380 0.038973 -0.010876 -311952.000000 0 0 1
29.451970 25.554215 -28.326454 48.195689 0.714656 2.199057 0.027438 -0.019336 -238415.000000 0 0 1
29.262470 25.254715 -29.705774 48.749623 0.712017 2.226042 0.028291 -0.020751 -431667.000000 0 0 1
28.467470 23.978015 -30.029604 47.823835 0.700004 2.249676 0.022444 -0.020322 818907.000000 0 0 1
27.141370 23.986815 -29.467854 46.694493 0.723777 2.253738 0.021395 -0.017145 890704.000000 0 0 1
26.394170 22.782315 -29.665664 45.779228 0.712083 2.275773 0.036219 -0.025946 167436.000000 0 0 1
24.961470 22.808415 -29.115674 44.620861 0.740357 2.281692 0.031046 -0.010452 -176273.000000 0 0 1
24.921470 22.716215 -27.695784 43.636711 0.739139 2.258404 0.014030 0.004489 -684681.000000 0 0 1
23.653770 22.714115 -27.139794 42.567596 0.765136 2.262135 0.008141 0.001537 -896705.000000 0 0 1
23.590670 23.040015 -25.636714 41.768446 0.773590 2.231638 0.020649 0.005464 -88166.300000 0 0 1
24.097670 21.958615 -24.853814 40.995006 0.738987 2.222151 0.017604 0.000264 259522.000000 0 0 1
24.451770 22.385415 -23.562014 40.671419 0.741309 2.188698 0.024613 0.000186 -317278.000000 0 0 1
24.849570 21.252215 -22.615714 39.757116 0.707525 2.175899 0.032991 -0.002417 -699494.000000 0 0 1
26.030070 20.726815 -23.106314 40.510087 0.672459 2.177770 0.026539 -0.004771 -662267.000000 0 0 1
26.376770 19.548015 -22.422914 39.757338 0.637785 2.170011 0.049587 -0.016552 -1084.830000 0 0 1
27.578770 18.755315 -22.962114 40.492086 0.597220 2.173749 0.070721 -0.021301 950798.000000 0 0 1
28.831070 18.885115 -22.270014 41.034518 0.579901 2.144462 0.092304 -0.026960 799512.000000 0 0 1
29.902470 18.151915 -22.779614 41.743988 0.545578 2.148018 0.063944 -0.023070 351662.000000 0 0 1
31.260270 18.034215 -22.057014 42.295972 0.523265 2.119395 0.059606 -0.016791 -18010.700000 0 0 1
32.002470 19.212015 -21.958214 43.306152 0.540661 2.102550 0.050215 -0.017602 -460875.000000 0 0 1
33.126470 18.857815 -21.204314 43.618839 0.517515 2.078449 0.059920 -0.018391 -106139.000000 0 0 1
33.734770 20.002115 -20.354314 44.186168 0.535199 2.049523 0.043349 -0.025414 87898.200000 0 0 1
32.844470 20.192615 -19.284214 43.108953 0.551227 2.034581 0.047885 -0.019163 313389.000000 0 0 1
33.367370 21.121715 -18.388214 43.561848 0.564335 2.006576 0.029229 -0.003411 -146977.000000 0 0 1
32.719970 21.006915 -16.977214 42.427735 0.570746 1.982471 0.033302 -0.013814 -94912.000000 0 0 1
33.036470 19.796215 -16.305214 41.822942 0.539848 1.971279 0.033583 -0.023232 225538.000000 0 0 1
32.712070 19.841215 -14.939714 41.072477 0.545215 1.943076 0.037890 -0.019675 -389376.000000 0 0 1
33.133570 18.530115 -14.139614 40.510829 0.509921 1.927335 0.041546 -0.014339 -442428.000000 0 0 1
34.493770 18.181815 -14.251814 41.515211 0.485095 1.921215 0.044278 -0.017863 173978.000000 0 0 1
34.997970 17.155915 -13.359514 41.202669 0.455775 1.901004 0.044838 -0.017290 139673.000000 0 0 1
34.957670 17.428815 -11.842914 40.817360 0.462502 1.865174 0.059535 -0.020415 -28831.400000 0 0 1
35.847670 18.510015 -11.465814 41.942115 0.476643 1.847693 0.054253 -0.018688 368700.000000 0 0 1
35.613570 19.122015 -10.185114 41.685901 0.492754 1.817625 0.053715 -0.015836 -276468.000000 0 0 1
34.503770 20.204115 -10.064814 41.231261 0.529736 1.817394 0.063838 -0.018240 -208531.000000 0 0 1
33.239170 19.674515 -10.380514 39.996050 0.534448 1.833341 0.067439 -0.026645 -300013.000000 0 0 1
32.180870 20.587315 -10.124414 39.521509 0.569127 1.829859 0.041804 -0.006977 -76641.300000 0 0 1
30.839470 19.898215 -10.397514 38.146037 0.573007 1.846861 0.022562 -0.003723 -323444.000000 0 0 1
30.521170 19.629015 -11.787614 38.154789 0.571529 1.884877 0.038715 -0.012598 -440540.000000 0 0 1
29.360570 18.898515 -11.998014 36.920852 0.571912 1.901772 0.031417 -0.008546 -533330.000000 0 0 1
29.211870 18.362615 -13.403314 37.015778 0.561185 1.941313 0.056422 -0.010282 -257722.000000 0 0 1
30.045970 17.251115 -13.676214 37.247820 0.521201 1.946759 0.056989 -0.005702 214834.000000 0 0 1
29.641070 16.487415 -14.792014 37.003129 0.507618 1.982041 0.049312 -0.004089 -122342.000000 0 0 1
30.876170 15.770915 -15.373814 37.926426 0.472234 1.988168 0.055235 -0.019130 75478.600000 0 0 1
31.511070 14.944115 -14.414314 37.736541 0.442836 1.962726 0.048581 -0.019607 -644731.000000 0 0 1
32.722070 14.524515 -14.917514 38.784373 0.417749 1.965600 0.055711 -0.023118 -1015450.000000 0 0 1
33.538270 13.485615 -14.158714 38.821985 0.382312 1.944116 0.049543 -0.035185 -250067.000000 0 0 1
34.271270 14.119315 -13.104414 39.314128 0.390797 1.910625 0.053514 -0.018808 368019.000000 0 0 1
35.027970 13.164215 -12.355714 39.407092 0.359489 1.889715 0.054330 -0.014042 -6621.680000 0 0 1
-35.928812 13.793715 -11.530114 40.175734 -0.366566 1.861882 0.074989 -0.002852 -45058.500000 0 0 1
-34.842812 14.158315 -12.379414 39.594561 -0.385967 1.888783 0.051017 -0.010136 294568.000000 0 0 1
-33.806812 14.560015 -11.466714 38.553600 -0.406674 1.872788 0.034780 -0.008690 -119818.000000 0 0 1
-32.387612 14.825115 -12.067114 37.607933 -0.429272 1.897440 0.046129 -0.015750 886524.000000 0 0 1
-31.546012 13.697915 -12.452714 36.576684 -0.409654 1.918197 0.030844 -0.023113 521162.000000 0 0 1
-31.394812 12.694315 -11.461714 35.751234 -0.384246 1.897155 0.058267 -0.009965 -638127.000000 0 0 1
-30.351112 11.566815 -11.780314 34.550788 -0.364108 1.918730 0.056219 -0.016430 150692.000000 0 0 1
-30.752612 10.665915 -12.783014 34.969848 -0.333848 1.945013 0.038387 -0.013859 761714.000000 0 0 1
-29.863412 9.504615 -12.842714 33.868811 -0.308132 1.959717 0.046821 -0.029879 417681.000000 0 0 1
-29.722512 8.820415 -14.188214 34.095936 -0.288481 1.999977 0.041257 -0.033648 182817.000000 0 0 1
-30.939512 8.170915 -14.514514 35.138132 -0.258198 1.996619 0.028971 -0.025179 791942.000000 0 0 1
-30.686312 7.416415 -15.701914 35.259084 -0.237137 2.032339 0.030099 -0.038439 -245806.000000 0 0 1
-32.079112 7.239615 -16.295414 36.701797 -0.221962 2.030849 0.028137 -0.039048 -146085.000000 0 0 1
-32.835212 6.248515 -15.614914 36.892013 -0.188051 2.007837 0.046176 -0.039642 122800.000000 0 0 1
-33.989212 5.781615 -16.283014 38.129124 -0.168489 2.012023 0.037540 -0.040329 -613922.000000 0 0 1
-34.878812 5.083715 -15.311014 38.429192 -0.144735 1.980591 0.051238 -0.035142 -653251.000000 0 0 1
36.042670 4.533915 -15.896714 39.652692 0.125136 1.983294 0.058727 -0.029765 10491.000000 0 0 1
35.336570 3.989715 -14.836314 38.531899 0.112430 1.966047 0.068265 -0.032546 -3651.140000 0 0 1
34.225670 2.962015 -15.156114 37.548339 0.086329 1.986291 0.065551 -0.028676 371645.000000 0 0 1
34.805570 1.646715 -15.362314 38.080704 0.047277 1.986042 0.074389 -0.035358 928041.000000 0 0 1
33.758370 0.666515 -15.507614 37.155859 0.019741 2.001342 0.074681 -0.030083 576206.000000 0 0 1
33.166070 0.288615 -14.163714 36.064973 0.008702 1.974392 0.076247 -0.036004 -416494.000000 0 0 1
34.178670 -0.157685 -13.273414 36.665922 -0.004614 1.941219 0.095552 -0.043449 273125.000000 0 0 1
33.869570 -0.135385 -11.896414 35.898339 -0.003997 1.908575 0.094939 -0.037532 -418666.000000 0 0 1
33.927570 1.206015 -11.143414 35.731081 0.035532 1.887956 0.096009 -0.039216 -559400.000000 0 0 1
32.819270 1.970315 -11.478314 34.824392 0.059963 1.906682 0.084448 -0.025183 -53843.300000 0 0 1
32.967670 3.298615 -11.086814 34.938025 0.099724 1.893707 0.092697 -0.027468 -234982.000000 0 0 1
31.980770 4.366415 -11.645314 34.313970 0.135694 1.917049 0.086285 -0.024308 -99536.000000 0 0 1
32.072470 4.503315 -13.034714 34.911702 0.139499 1.953427 0.080726 -0.023368 748850.000000 0 0 1
31.306170 5.632315 -13.508114 34.558188 0.178006 1.972384 0.088390 -0.028669 902.571000 0 0 1
31.817970 6.191015 -14.842114 35.651090 0.192175 2.000186 0.062783 -0.023228 -474687.000000 0 0 1
31.654970 5.376915 -15.978714 35.864573 0.168254 2.032562 0.054575 -0.016778 64898.600000 0 0 1
32.083070 5.925915 -17.203514 36.883611 0.182647 2.056044 0.045835 -0.014662 -1164620.000000 0 0 1
31.160770 7.054015 -17.733214 36.540657 0.222623 2.077504 0.043899 -0.015748 278274.000000 0 0 1
29.872870 6.672515 -18.167514 35.594513 0.219756 2.106449 0.033615 -0.019478 1080310.000000 0 0 1
28.963270 6.060915 -17.208614 34.230718 0.206285 2.097544 0.034710 -0.011917 -75131.500000 0 0 1
27.478670 5.909915 -17.682014 33.206295 0.211846 2.132336 0.027934 -0.010900 589966.000000 0 0 1
27.374670 4.840515 -18.600514 33.448202 0.175016 2.160481 0.027710 -0.014987 -512983.000000 0 0 1
26.262670 5.073515 -19.379114 33.030568 0.190833 2.197777 0.016603 -0.014878 -811291.000000 0 0 1
25.891970 3.914015 -20.271814 33.115858 0.150031 2.229571 0.021168 0.011923 -101566.000000 0 0 1
25.081770 2.890315 -19.716014 32.033893 0.114730 2.233783 0.033843 -0.007311 309443.000000 0 0 1
24.773970 1.838415 -20.574714 32.255979 0.074072 2.262509 0.023199 0.000464 -22443.500000 0 0 1
23.765670 0.804215 -19.948414 31.038573 0.033826 2.268810 0.027721 -0.008140 593514.000000 0 0 1
22.504970 1.404315 -19.682614 29.930771 0.062319 2.288431 0.023609 -0.005758 227791.000000 0 0 1
21.672270 0.636315 -18.857114 28.734699 0.029352 2.286633 0.028215 -0.011440 -161559.000000 0 0 1
20.354370 1.358315 -18.516014 27.549740 0.066635 2.307829 0.032362 -0.014883 -723241.000000 0 0 1
19.589170 1.596115 -19.687314 27.818582 0.081300 2.357039 0.034068 -0.020527 1090840.000000 0 0 1
18.393070 2.396115 -19.571614 26.964689 0.129543 2.383028 0.020046 -0.013774 1248470.000000 0 0 1
17.241170 2.044815 -18.599714 25.443831 0.118049 2.390598 0.041684 -0.021191 -729551.000000 0 0 1
17.450770 2.361015 -17.228514 24.635857 0.134479 2.345252 0.040950 -0.019151 600590.000000 0 1 0
16.281070 2.290715 -16.390214 23.215506 0.139781 2.354635 0.025308 -0.004974 962784.000000 0 1 0
15.308270 3.527215 -16.491914 22.776470 0.226460 2.380491 0.038864 -0.008275 134711.000000 0 1 0
14.680570 3.769715 -17.714214 23.313585 0.251352 2.433838 0.044422 -0.004241 425854.000000 0 1 0
13.499670 4.520115 -17.434814 22.508782 0.323098 2.456844 0.047962 -0.016925 202726.000000 0 1 0
-19.689430 -22.051285 -17.429714 34.318038 0.841922 2.103527 0.061570 -0.025533 189878.000000 0 0 1
-19.349830 -22.461485 -18.745014 35.075772 0.859683 2.134612 0.061300 -0.019814 -102622.000000 0 0 1
-20.514930 -22.390785 -19.501514 36.090423 0.829091 2.141651 0.065583 -0.020167 -170084.000000 0 0 1
-20.204030 -23.168385 -20.788114 37.109602 0.853639 2.165401 0.053803 -0.013949 49665.200000 0 0 1
-20.302630 -24.556085 -20.522214 37.899332 0.879934 2.143008 0.045850 -0.011601 8349.730000 0 0 1
-19.701530 -25.255075 -21.556314 38.608856 0.908307 2.163163 0.045678 -0.011369 -418422.000000 0 0 1
-19.714430 -26.751625 -21.457514 39.556707 0.935704 2.144146 0.042247 0.006169 -84464.500000 0 0 1
-20.976230 -27.361185 -21.575914 40.671325 0.916729 2.129980 0.048584 0.009438 -363582.000000 0 0 1
-20.757130 -28.746755 -21.688614 41.564772 0.945412 2.119759 0.075784 -0.004327 -70919.300000 0 0 1
-21.960730 -29.711615 -21.800114 42.898702 0.934289 2.103863 0.059974 -0.002441 195775.000000 0 0 1
-22.710430 -29.583145 -23.014714 43.824686 0.916075 2.123693 0.035040 -0.000868 222394.000000 0 0 1
-22.142130 -30.277475 -24.119514 44.595407 0.939366 2.142246 0.042351 -0.009957 -127913.000000 0 0 1
-22.530330 -29.653565 -25.474324 45.120847 0.921062 2.170721 0.032960 -0.003158 756969.000000 0 0 1
-23.894730 -29.893255 -25.875124 46.196178 0.896461 2.165320 0.028311 -0.003639 1048960.000000 0 0 1
-24.369930 -29.037005 -26.891144 46.477680 0.872564 2.187785 0.029910 0.004763 37940.700000 0 0 1
-23.790930 -29.345935 -28.315764 47.212019 0.889561 2.213994 0.038147 -0.015082 -381787.000000 0 0 1
-24.284030 -30.581075 -28.773184 48.505797 0.899671 2.205813 0.022121 -0.009432 83316.600000 0 0 1
-24.073830 -30.716735 -30.188724 49.339904 0.906051 2.229196 0.056054 -0.011801 -312940.000000 0 0 1
-24.620730 -32.015175 -30.791174 50.786299 0.915225 2.222182 0.022355 -0.011471 -688041.000000 0 0 1
-23.822130 -33.100605 -30.459264 50.900989 0.946978 2.212302 0.022111 -0.010319 -131656.000000 0 0 1
-24.449630 -34.244152 -31.012204 52.270480 0.950749 2.205952 0.017922 -0.007338 239748.000000 0 0 1
-23.583730 33.148979 -30.996224 51.145019 -0.952429 2.221876 0.023532 -0.007926 644941.000000 0 0 1
-22.525030 33.042478 -31.942964 51.181395 -0.972459 2.244792 0.024608 -0.013098 86311.200000 0 0 1
-21.908830 31.779610 -31.841534 50.038222 -0.967221 2.260546 0.017926 0.000525 -186004.000000 0 0 1
-20.651630 31.584020 -32.707254 49.938007 -0.991710 2.284922 0.020585 0.002954 -307914.000000 0 0 1
-20.766830 31.477790 -34.103216 50.844290 -0.987612 2.306000 0.017225 -0.005392 -113429.000000 0 0 1
-20.789730 30.113240 33.882754 49.870443 -0.966553 0.823831 0.002282 0.004466 -24145.900000 0 0 1
-21.143130 29.798630 32.348167 48.799531 -0.953701 0.846139 0.008690 -0.000789 217471.000000 0 0 1
-20.253730 30.489340 31.482947 48.280321 -0.984442 0.860463 0.006948 0.004739 600232.000000 0 0 1
-20.650530 30.298350 30.105367 47.442254 -0.972545 0.883346 0.015163 0.001566 83336.900000 0 0 1
-19.983630 31.374130 29.191037 47.284227 -1.003653 0.905423 0.024875 -0.012727 -240469.000000 0 0 1
-20.648830 32.611970 29.377277 48.507104 -1.006346 0.920241 0.020596 -0.011906 57706.600000 0 0 1
-19.918730 33.671052 28.872317 48.622076 -1.036600 0.935009 0.019673 -0.021333 -441942.000000 0 0 1
-20.736830 -33.759255 28.995487 49.096249 1.019960 0.939013 0.019657 -0.026745 -244851.000000 0 0 1
-20.956630 -33.405525 30.344937 49.758664 1.010516 0.914935 0.011729 -0.015261 -200463.000000 0 0 1
-21.814230 -32.309185 30.558507 49.533488 0.976929 0.905965 0.041239 -0.020905 -241403.000000 0 0 1
-21.539730 -30.872865 29.998197 48.135076 0.961621 0.897957 0.037291 -0.016736 -399942.000000 0 0 1
-21.778230 -30.704165 28.600677 47.276165 0.953861 0.921068 0.032862 -0.012794 -238558.000000 0 0 1
-21.567330 -29.372635 28.252407 46.109651 0.937441 0.911296 0.041840 -0.017335 -783379.000000 0 0 1
-22.840130 -28.594545 27.972157 46.062578 0.896813 0.918184 0.043775 -0.013944 -670673.000000 0 0 1
-23.840230 -28.551755 28.986177 47.156736 0.875085 0.908819 0.044624 -0.013293 520708.000000 0 0 1
-24.836030 -29.561615 28.981357 48.276666 0.872052 0.926898 0.042055 -0.012244 -265089.000000 0 0 1
-25.968760 -29.327455 27.965767 48.130658 0.846064 0.950792 0.029632 -0.011507 -792152.000000 0 0 1
-25.639240 -29.606345 26.600847 47.344602 0.857084 0.974169 0.038168 -0.003475 -148440.000000 0 0 1
-26.771280 -29.725445 25.777057 47.589496 0.837640 0.998392 0.034340 -0.002083 -45374.200000 0 0 1
-26.387370 -30.139075 24.313137 46.859212 0.851672 1.025285 0.046494 -0.006774 75287.000000 0 0 1
-25.728030 -29.136815 23.545827 45.445478 0.847449 1.026155 0.018596 0.000586 133543.000000 0 0 1
-25.412110 -29.491765 22.245567 44.837537 0.859567 1.051652 0.050981 -0.001675 264683.000000 0 0 1
-24.008930 -30.070935 21.894367 44.272487 0.897026 1.053495 0.045522 -0.007480 68221.500000 0 0 1
-23.889130 -31.365725 22.435667 45.363624 0.919892 1.053452 0.051485 -0.032409 4568.330000 0 0 1
-22.690730 -32.022685 22.089767 45.036423 0.954333 1.058148 0.056526 -0.010580 -198833.000000 0 0 1
-21.872930 -32.502375 23.288467 45.576113 0.978447 1.034472 0.064652 -0.020246 1791.740000 0 0 1
-21.050330 -31.571775 24.003227 44.900426 0.982739 1.006776 0.060060 -0.029544 209952.000000 0 0 1
-20.784630 -32.087385 25.290077 45.838729 0.996004 0.986373 0.043049 -0.034075 -349328.000000 0 0 1
-19.485430 -31.584355 25.944597 45.281073 1.018019 0.960674 0.029789 -0.007921 -715480.000000 0 0 1
-18.346330 -31.937645 25.175787 44.614137 1.049381 0.971210 0.039916 -0.011482 -164732.000000 0 0 1
-17.133030 -31.494055 25.722577 44.125584 1.072565 0.948454 0.065158 -0.010022 60418.900000 0 0 1
-16.599230 -32.290905 26.972257 45.229853 1.095970 0.931866 0.031740 -0.023845 -768231.000000 0 0 1
-17.259830 -31.869245 28.158027 45.895806 1.074439 0.910285 0.024119 -0.016471 324227.000000 0 0 1
-16.900230 -32.618795 29.298087 46.989163 1.092763 0.897575 0.022918 -0.016059 -144442.000000 0 0 1
-17.478130 -31.896325 30.540007 47.492658 1.069515 0.872326 0.035127 -0.012815 134903.000000 0 0 1
-16.896630 -30.630755 30.560527 46.450888 1.066708 0.852755 0.036942 -0.014661 425536.000000 0 0 1
-17.345630 -30.034895 31.790417 47.048872 1.047073 0.828897 0.038288 -0.009755 76672.200000 0 0 1
-17.153030 -28.440535 31.740497 45.940718 1.028087 0.808061 0.051065 -0.013585 -217966.000000 0 0 1
-18.122630 -27.686685 31.061347 45.384904 0.991221 0.817018 0.051005 -0.013739 -112772.000000 0 0 1
-18.213230 -27.901215 29.680777 44.622282 0.992472 0.843094 0.049440 -0.014267 -324794.000000 0 0 1
-17.010030 -27.531715 28.791847 43.316358 1.017367 0.843721 0.038192 -0.011244 -162639.000000 0 0 1
-16.849230 -26.131345 28.552227 42.213427 0.998092 0.827963 0.042442 -0.002963 -520844.000000 0 0 1
-15.712230 -25.787045 27.844957 41.075388 1.023561 0.825896 0.036694 -0.003199 -673743.000000 0 0 1
-15.665830 -24.399685 27.247837 39.789540 1.000030 0.816468 0.033643 0.002887 412426.000000 0 0 1
-16.660430 -24.288385 26.180247 39.406863 0.969568 0.844162 0.046619 0.003490 667780.000000 0 0 1
-16.505730 -23.271785 25.234557 38.089342 0.953883 0.846632 0.046396 0.007578 -141129.000000 0 0 1
-16.897730 -21.876685 25.692077 37.738646 0.913108 0.821956 0.050719 0.002124 -560422.000000 0 0 1
-16.644130 -20.809085 24.798307 36.400564 0.896147 0.821312 0.043363 -0.000685 205796.000000 0 0 1
-17.323130 -19.609485 25.183127 36.315460 0.847225 0.804523 0.045984 0.001757 90190.500000 0 0 1
-16.962230 -18.433885 24.275857 34.883271 0.826951 0.801100 0.036552 -0.007316 773191.000000 0 0 1
-15.571730 -18.098885 24.428367 34.158359 0.860313 0.773957 0.035621 -0.013476 541348.000000 0 0 1
-15.181230 -17.046685 23.569967 32.811622 0.843217 0.769380 0.032738 -0.009706 -333431.000000 0 0 1
-13.822130 -16.370885 23.791107 32.016775 0.869614 0.733131 0.031092 -0.012232 -800027.000000 0 0 1
-12.807730 -17.318285 23.567667 31.927979 0.934017 0.740471 0.011586 -0.011750 -708071.000000 0 0 1
-11.524530 -16.758685 23.567077 31.129976 0.968390 0.712004 0.014526 -0.014991 -823242.000000 0 0 1
-11.036930 -16.061485 22.296367 29.612718 0.968735 0.718290 0.022406 -0.014399 -636503.000000 0 0 1
-10.670030 -16.920585 21.213767 29.157840 1.008184 0.756053 0.042570 -0.012460 -315656.000000 0 0 1
-9.458830 -17.592185 21.438967 29.301599 1.077467 0.750034 0.035157 -0.016990 -1031050.000000 0 0 1
-9.048130 -18.630385 20.400967 29.071624 1.118682 0.792948 0.040447 -0.011356 -213432.000000 0 0 1
-8.797330 -18.149385 19.042967 27.738561 1.119449 0.814110 0.040307 -0.006432 98178.300000 0 0 1
-8.212930 -19.207485 18.250667 27.739260 1.166734 0.852721 0.040704 -0.005570 193145.000000 0 0 1
-7.966430 -18.790385 16.819567 26.446935 1.169804 0.881526 0.033569 -0.010153 -166589.000000 0 0 1
-6.980330 -17.787585 16.740667 25.404195 1.196835 0.851344 0.035974 -0.011079 -424137.000000 0 0 1
-6.637230 -17.628585 15.407867 24.335615 1.210708 0.885192 0.039082 -0.020290 53340.300000 0 1 0
-5.603230 -16.497885 15.290667 23.181477 1.243387 0.850500 0.027326 -0.012944 33040.600000 0 1 0
-6.135630 -15.280685 15.735867 22.776365 1.188973 0.808083 0.034164 -0.023885 -785900.000000 0 1 0
-5.139330 -14.390885 16.063467 22.170820 1.227789 0.760441 0.022849 -0.007096 -886861.000000 0 1 0
-5.425230 -13.457985 17.269067 22.555956 1.187600 0.698807 0.007260 0.008487 -447666.000000 0 1 0
-5.313530 -14.188785 18.510667 23.920702 1.212475 0.685923 0.019555 0.011103 136219.000000 0 1 0
-6.451930 -14.844985 19.065267 25.009706 1.160806 0.703914 0.044682 -0.011128 82663.400000 0 0 1
-7.640630 -14.024785 19.555467 25.248566 1.071958 0.684844 0.051943 -0.017809 -525086.000000 0 0 1
-7.373130 -13.250585 20.680367 25.644076 1.063024 0.632692 0.051899 -0.019325 -527130.000000 0 0 1
-8.456530 -12.463485 21.060967 25.892386 0.974643 0.620816 0.057419 -0.023665 -109310.000000 0 0 1
-8.010930 -11.546785 22.193667 26.269033 0.964257 0.564492 0.061197 -0.024924 -407097.000000 0 0 1
-7.295430 -10.474285 21.654167 25.136366 0.962417 0.532643 0.041074 -0.019514 -22100.100000 0 0 1
-6.882030 -9.576485 22.698167 25.578862 0.947671 0.479166 0.035871 -0.021363 473099.000000 0 0 1
-5.473130 -9.849285 23.321667 25.901037 1.063597 0.450075 0.049664 -0.017015 287343.000000 0 0 1
-5.455330 -11.108885 23.987147 26.991687 1.114312 0.476324 0.068250 -0.017257 -48882.000000 0 0 1
-4.149030 -11.476785 24.394417 27.276705 1.223900 0.463861 0.054602 -0.012158 -416996.000000 0 0 1
-3.997530 -12.832185 25.131857 28.500095 1.268801 0.491096 0.052870 -0.018165 1128830.000000 0 0 1
-2.728230 -13.069085 25.835077 29.080843 1.364997 0.476974 0.049237 -0.015564 1394720.000000 0 0 1
-2.784630 -14.221285 26.610947 30.300851 1.377436 0.498660 0.045846 -0.018648 124867.000000 0 0 1
-2.765230 -15.611185 25.902707 30.369488 1.395483 0.549245 0.049133 -0.032723 452272.000000 0 0 1
-1.501230 -15.929185 25.314337 29.946757 1.476830 0.563648 0.042135 -0.026017 434136.000000 0 0 1
-1.639030 -17.115985 24.548647 29.971310 1.475327 0.611006 0.047612 -0.020503 682312.000000 0 0 1
-0.417730 -18.119485 24.755757 30.681227 1.547746 0.631962 0.064391 -0.028720 965361.000000 0 0 1
-0.203830 -18.618185 26.054827 32.023934 1.559849 0.620471 0.072985 -0.030814 -232985.000000 0 0 1
0.299370 -17.722685 26.980527 32.282069 -1.553906 0.581255 0.086497 -0.031769 -645384.000000 0 0 1
0.994470 -18.400985 28.197067 33.684711 -1.516804 0.578858 0.078910 -0.029257 -536237.000000 0 0 1
2.212570 -18.984785 27.758817 33.702662 -1.454775 0.602999 0.074925 -0.039114 574979.000000 0 0 1
3.183470 -19.152885 28.820917 34.750723 -1.406089 0.592832 0.079035 -0.039005 674957.000000 0 0 1
4.011570 -17.892485 29.068117 34.368432 -1.350239 0.562772 0.088387 -0.032269 -568501.000000 0 0 1
3.261870 -16.911685 29.762507 34.386795 -1.380259 0.524606 0.071313 -0.038643 850756.000000 0 0 1
4.182970 -15.862985 30.153547 34.327364 -1.312972 0.498268 0.076197 -0.041960 938711.000000 0 0 1
3.390070 -14.749685 30.871887 34.381960 -1.344880 0.455799 0.076757 -0.044923 249095.000000 0 0 1
2.784470 -15.224785 32.052707 35.593867 -1.389905 0.449851 0.067891 -0.044167 -182743.000000 0 0 1
2.036470 -14.165285 32.625228 35.625946 -1.428010 0.413372 0.048341 -0.030030 444216.000000 0 0 1
1.062070 -14.669185 33.761159 36.825654 -1.498521 0.410845 0.033530 -0.026397 373494.000000 0 0 1
1.789670 -14.879185 -33.544874 36.740327 -1.451091 2.721438 0.056096 -0.025054 -605354.000000 0 0 1
1.041370 -15.409085 -32.504894 35.987393 -1.503317 2.698034 0.037164 -0.030828 -234152.000000 0 0 1
1.863270 -15.644485 -31.211334 34.962394 -1.452254 2.674123 0.041171 -0.018077 59719.600000 0 0 1
1.295070 -16.592385 -30.316104 34.583964 -1.492902 2.639535 0.039732 -0.022818 -72106.100000 0 0 1
1.888070 -16.522485 -29.017114 33.444733 -1.457017 2.621180 0.034284 -0.016897 -34662.000000 0 0 1
1.431170 -17.603385 -27.991434 33.097549 -1.489674 2.578719 0.041951 -0.021297 -187627.000000 0 0 1
1.904570 -18.851985 -28.402804 34.142993 -1.470110 2.553279 0.062191 -0.019698 106488.000000 0 0 1
1.576270 -19.874385 -27.495594 33.962972 -1.491650 2.514225 0.039396 -0.013024 -687814.000000 0 0 1
2.458970 -21.164085 -27.697764 34.944687 -1.455129 2.485886 0.049384 -0.023068 250029.000000 0 0 1
3.790970 -21.082185 -27.238234 34.651859 -1.392879 2.475196 0.055291 -0.021098 -27360.300000 0 0 1
3.967370 -20.949685 -25.842074 33.502867 -1.383637 2.451739 0.056176 -0.020754 -1084420.000000 0 0 1
5.365870 -21.377485 -25.337854 33.582678 -1.324871 2.425676 0.037129 -0.020646 79652.000000 0 0 1
5.724370 -22.756285 -25.330044 34.528655 -1.324358 2.394393 0.042193 -0.021422 206084.000000 0 0 1
5.976470 -23.207985 -26.690984 35.871121 -1.318755 2.409953 0.038239 -0.015262 -632727.000000 0 0 1
5.329170 -24.574885 -26.956954 36.864649 -1.357248 2.390936 0.026296 -0.018701 74130.400000 0 0 1
5.917770 -25.664375 -26.265314 37.196059 -1.344174 2.354816 0.031635 -0.015907 7825.880000 0 0 1
5.272370 -26.881835 -26.645794 38.215563 -1.377123 2.342350 0.030773 -0.013344 113398.000000 0 0 1
5.686070 -28.175765 -25.897254 38.689441 -1.371664 2.304146 0.033144 -0.014433 -153642.000000 0 0 1
7.035870 -28.584315 -25.994524 39.271895 -1.329450 2.294162 0.047745 -0.020589 -171674.000000 0 0 1
7.394370 -29.518005 -25.030814 39.402169 -1.325344 2.259148 0.044168 -0.025170 1151140.000000 0 0 1
8.932870 -29.911275 -25.088744 40.049040 -1.280583 2.247787 0.045118 -0.028061 1338750.000000 0 0 1
9.340070 -30.562995 -26.289324 41.381905 -1.274209 2.259174 0.055340 -0.023690 223047.000000 0 0 1
10.527770 -30.023265 -26.860154 41.637702 -1.233539 2.271940 0.069958 -0.023789 454325.000000 0 0 1
10.498170 -30.004765 -28.391594 42.621357 -1.234225 2.299811 0.078052 -0.036531 24161.100000 0 0 1
10.789470 -31.251515 -29.015324 43.988167 -1.238363 2.291105 0.079975 -0.031282 9010.290000 0 0 1
10.725770 -31.041285 -30.416344 44.763349 -1.238107 2.317867 0.076463 -0.026455 -169850.000000 0 0 1
-34.688145 -4.921085 -5.742314 35.502939 0.140926 1.733252 0.126429 -0.039347 -76195.600000 0 0 1
-34.450375 -4.159285 -4.586814 35.002383 0.120151 1.702217 0.119482 -0.048729 187228.000000 0 0 1
-33.685050 -2.984785 -4.666014 34.137417 0.088378 1.707909 0.112812 -0.052437 -321695.000000 0 0 1
-34.355903 -1.728785 -5.237214 34.795764 0.050277 1.721883 0.128726 -0.037544 -407206.000000 0 0 1
-35.166387 -0.977185 -4.393714 35.453270 0.027780 1.695045 0.114067 -0.034912 141367.000000 0 0 1
-35.967944 -0.095585 -5.165114 36.337041 0.002657 1.713424 0.121616 -0.038052 -14508.300000 0 0 1
35.358231 0.861615 -4.232614 35.621088 0.024363 1.689901 0.128540 -0.033419 -342195.000000 0 0 1
-35.955192 1.770815 -3.503214 36.168828 -0.049211 1.667806 0.113239 -0.027320 -91255.400000 0 0 1
35.372881 2.694315 -2.777914 35.583941 0.076022 1.648942 0.106286 -0.028005 -376023.000000 0 0 1
-35.965492 4.033315 -2.465414 36.274819 -0.111677 1.638814 0.080361 -0.030992 -192248.000000 0 0 1
-35.614893 4.760915 -3.596414 36.111233 -0.132890 1.670554 0.099289 -0.027828 -242192.000000 0 0 1
-34.355489 4.441415 -4.111214 34.884493 -0.128565 1.688923 0.070572 -0.029756 -1254540.000000 0 0 1
-33.346080 5.527315 -3.770114 34.010675 -0.164263 1.681876 0.047746 -0.033654 -1005520.000000 0 0 1
-32.988640 5.562615 -2.432414 33.542655 -0.167051 1.643377 0.060484 -0.029196 342073.000000 0 0 1
-32.824730 6.908615 -2.032214 33.605383 -0.207442 1.631306 0.067343 -0.033201 -295048.000000 0 0 1
-32.521380 6.981715 -0.532014 33.266613 -0.211471 1.586789 0.074540 -0.035874 -663283.000000 0 0 1
-31.160280 6.693315 -0.383514 31.873353 -0.211588 1.582829 0.075297 -0.025414 -55131.400000 0 0 1
-30.510500 7.135915 0.802386 31.344150 -0.229754 1.545194 0.081018 -0.022355 268681.000000 0 0 1
-30.153450 8.644815 1.003686 31.384244 -0.279205 1.538810 0.084139 -0.023386 -415697.000000 0 0 1
-31.314340 9.436015 1.077486 32.722886 -0.292678 1.537863 0.067910 -0.025784 72987.400000 0 0 1
-31.037870 10.803415 1.319586 32.890796 -0.334956 1.530665 0.067357 -0.005473 -228597.000000 0 0 1
-32.319670 11.645315 1.340286 34.379802 -0.345836 1.531802 0.063281 -0.016831 -545932.000000 0 0 1
-32.877100 11.770715 0.008886 34.920675 -0.343803 1.570542 0.053956 -0.010003 1316590.000000 0 0 1
-34.070397 12.604115 -0.080314 36.327154 -0.354330 1.573007 0.035652 -0.003243 526001.000000 0 0 1
-35.366448 11.910415 0.287586 37.319249 -0.324842 1.563090 0.043422 -0.012982 -1032280.000000 0 0 1
-35.750350 10.932615 -0.678714 37.390778 -0.296773 1.588949 0.046363 -0.007281 397891.000000 0 0 1
35.130251 10.290015 -0.299114 36.607492 0.284940 1.578967 0.054773 -0.013844 574957.000000 0 0 1
34.706231 9.140915 -1.250514 35.911594 0.257531 1.605625 0.049657 -0.019109 70044.500000 0 0 1
34.438091 9.561215 -2.526214 35.829886 0.270814 1.641361 0.055375 -0.010592 155154.000000 0 0 1
34.162651 8.430615 -3.293914 35.341362 0.241945 1.664135 0.044928 -0.018926 -114329.000000 0 0 1
33.766221 8.686915 -4.778814 35.191722 0.251806 1.707011 0.053969 -0.011825 -708830.000000 0 0 1
32.475241 9.195915 -4.796414 34.091227 0.275943 1.711958 0.067091 -0.016313 -370695.000000 0 0 1
31.960101 9.266415 -6.120114 33.834455 0.282199 1.752682 0.049464 -0.013122 -210408.000000 0 0 1
30.563501 9.861515 -6.270514 32.721498 0.312111 1.763622 0.057687 -0.005742 -444619.000000 0 0 1
29.430931 9.100915 -5.969214 31.378940 0.299903 1.762193 0.045503 -0.006130 525807.000000 0 0 1
28.230551 9.759915 -6.335614 30.534570 0.332858 1.779805 0.056281 0.001748 39302.200000 0 0 1
27.003451 8.857815 -6.507614 29.154696 0.316966 1.795902 0.069603 0.007004 -465768.000000 0 0 1
27.144491 7.986015 -7.590114 29.295216 0.286131 1.832877 0.067233 0.002326 827623.000000 0 0 1
25.984651 7.148115 -7.682914 28.023648 0.268450 1.848511 0.077926 -0.004920 349589.000000 0 0 1
26.019851 6.167715 -8.850214 28.167351 0.232743 1.890411 0.064259 -0.008689 -1201360.000000 0 0 1
26.953851 5.209215 -8.738814 28.809944 0.190911 1.878978 0.071099 -0.012660 -342323.000000 0 0 1
26.832151 4.386415 -9.888514 28.930740 0.162043 1.919627 0.067184 -0.013954 -323226.000000 0 0 1
27.708181 3.123815 -9.726014 29.531286 0.112266 1.906407 0.067331 -0.010362 -1310510.000000 0 0 1
29.053781 3.408915 -9.909314 30.885877 0.116797 1.897409 0.112243 -0.012839 -553739.000000 0 0 1
29.880821 2.864715 -8.920214 31.315177 0.095579 1.859649 0.079222 -0.021945 -348580.000000 0 0 1
30.070761 1.314115 -8.804914 31.360869 0.043673 1.855383 0.088192 -0.024535 447146.000000 0 0 1
28.871881 0.733815 -8.184514 30.018499 0.025411 1.846942 0.092677 -0.025635 1523460.000000 0 0 1
29.055501 -0.600785 -7.700414 30.064588 -0.020674 1.829812 0.084467 -0.025801 -188259.000000 0 0 1
29.052051 -1.772085 -8.737814 30.389330 -0.060921 1.862442 0.071896 -0.017886 -284468.000000 0 0 1
30.203241 -1.734985 -9.541114 31.721898 -0.057381 1.876300 0.083705 -0.029819 230292.000000 0 0 1
30.048531 -2.825685 -10.430314 31.932588 -0.093762 1.903538 0.064941 -0.036512 80836.700000 0 0 1
31.170711 -2.895985 -11.512114 33.354591 -0.092641 1.923188 0.075669 -0.041624 -285242.000000 0 0 1
32.442471 -3.232785 -11.026014 34.417115 -0.099319 1.896910 0.095674 -0.039259 15906.200000 0 0 1
33.263431 -3.678285 -12.095714 35.584996 -0.110133 1.917618 0.077889 -0.058088 207194.000000 0 0 1
34.728401 -3.985285 -11.690314 36.859297 -0.114256 1.893530 0.088093 -0.046764 -18694.800000 0 0 1
34.892961 -5.165085 -10.958114 36.936122 -0.146959 1.872008 0.082625 -0.041416 -213660.000000 0 0 1
-35.935337 -5.245685 -10.389014 37.772970 0.144952 1.849426 0.098756 -0.038287 -604888.000000 0 0 1
-35.665196 -6.578785 -9.681714 37.536944 0.182409 1.831670 0.090716 -0.042690 -294644.000000 0 0 1
35.775811 -6.665485 -8.452914 37.360261 -0.184201 1.799027 0.088018 -0.038797 361307.000000 0 0 1
35.686361 -7.997085 -7.986614 37.433351 -0.220452 1.785805 0.075205 -0.024807 -275244.000000 0 0 1
35.334781 -8.169585 -6.460214 36.837796 -0.227213 1.747077 0.083304 -0.014233 13044.800000 0 0 1
-35.648845 -7.990585 -5.592414 36.958960 0.220502 1.722694 0.077894 -0.018242 682042.000000 0 0 1
-35.860680 -8.669285 -4.324914 37.146329 0.237198 1.687490 0.085647 -0.021932 -63097.400000 0 0 1
-35.422533 -10.176685 -4.345614 37.110714 0.279760 1.688164 0.082570 -0.025355 -663489.000000 0 0 1
35.857681 -10.832385 -5.234314 37.822109 -0.293377 1.709635 0.066868 -0.022506 -537.944000 0 0 1
-35.654977 -11.960585 -5.890614 38.066157 0.323657 1.726167 0.049676 -0.018267 -14237.300000 0 0 1
35.774101 -12.161685 -7.281314 38.480000 -0.327701 1.761167 0.041936 -0.013564 64096.900000 0 0 1
-36.025620 -11.197985 -8.244014 38.616110 0.301366 1.785939 0.064817 -0.018896 169880.000000 0 0 1
35.650601 -11.587585 -9.548114 38.683381 -0.314261 1.820201 0.060023 -0.010143 -72970.100000 0 0 1
35.889721 -10.617085 -10.687114 38.923116 -0.287622 1.848939 0.052120 -0.015166 -255740.000000 0 0 1
34.953601 -9.536885 -10.684514 37.773870 -0.266361 1.857565 0.057426 -0.015890 574627.000000 0 0 1
35.036251 -8.910085 -11.927214 38.068188 -0.249031 1.889475 0.062693 -0.021792 -952623.000000 0 0 1
33.901931 -8.044985 -12.390114 36.980774 -0.232992 1.912446 0.070058 -0.032039 -918634.000000 0 0 1
34.283421 -7.555985 -13.634714 37.661005 -0.216930 1.941250 0.073770 -0.032188 849706.000000 0 0 1
33.203131 -6.811585 -14.173414 36.738689 -0.202341 1.966860 0.077948 -0.038942 136620.000000 0 0 1
33.585531 -6.005585 -15.435614 37.447472 -0.176945 1.995657 0.071380 -0.038257 -52102.000000 0 0 1
34.536591 -4.961685 -15.281714 38.091012 -0.142688 1.983611 0.075527 -0.031336 469115.000000 0 0 1
34.172841 -3.727785 -15.928214 37.886508 -0.108657 2.004704 0.091121 -0.040198 27064.200000 0 0 1
35.345581 -2.708585 -15.777514 38.801759 -0.076482 1.989546 0.086567 -0.042289 -523285.000000 0 0 1
-35.816030 -3.011085 -16.775814 39.664626 0.083874 2.007485 0.086796 -0.033086 306831.000000 0 0 1
-34.491528 -2.501285 -16.600114 38.359949 0.072392 2.018333 0.081273 -0.031173 606287.000000 0 0 1
-34.283153 -0.998085 -16.327614 37.985809 0.029105 2.015106 0.073340 -0.026460 -1077390.000000 0 0 1
-34.671350 -0.174485 -17.466614 38.822874 0.005032 2.037456 0.060651 -0.019437 416260.000000 0 0 1
-34.566282 1.148415 -17.133614 38.596728 -0.033211 2.030758 0.061715 -0.028961 -133287.000000 0 0 1
-34.810702 2.178315 -18.237414 39.359031 -0.062495 2.052580 0.056513 -0.028445 224977.000000 0 0 1
-33.729050 2.272115 -19.151814 38.853614 -0.067262 2.086242 0.041395 -0.019495 419279.000000 0 0 1
-34.038191 3.238815 -20.129314 39.677168 -0.094867 2.102877 0.039154 -0.022478 -651426.000000 0 0 1
-33.074110 3.407715 -21.262214 39.466328 -0.102670 2.139741 0.038889 -0.013497 -823457.000000 0 0 1
-31.758870 3.823115 -21.011214 38.271571 -0.119803 2.151967 0.045248 -0.019849 -133253.000000 0 0 1
-31.147640 4.133115 -22.257814 38.505433 -0.131924 2.187125 0.047628 -0.018956 991384.000000 0 0 1
-29.684650 4.742915 -22.048614 37.280223 -0.158438 2.203626 0.049079 -0.024541 1478850.000000 0 0 1
-28.803500 3.723515 -21.537514 36.157581 -0.128560 2.208880 0.056287 -0.015967 991810.000000 0 0 1
-27.441040 4.191415 -21.650214 35.203841 -0.151571 2.233177 0.032725 -0.017503 832464.000000 0 0 1
-26.445000 3.163915 -21.060914 33.954535 -0.119075 2.239881 0.047543 -0.013748 -92633.000000 0 0 1
-26.624110 3.049815 -19.644114 33.227034 -0.114054 2.203353 0.042205 -0.013590 -132293.000000 0 0 1
-25.965120 1.944015 -19.148614 32.320830 -0.074731 2.204898 0.047303 -0.018794 -922919.000000 0 0 1
-25.176260 2.283715 -17.845614 30.943907 -0.090462 2.185490 0.052419 -0.025974 236302.000000 0 0 1
-24.005330 3.056115 -18.097114 30.217565 -0.126629 2.212915 0.050960 -0.026247 329954.000000 0 0 1
-23.482330 3.484415 -16.830814 29.100468 -0.147310 2.187524 0.052226 -0.035687 -93153.100000 0 0 1
-22.257330 4.418515 -16.889914 28.287474 -0.195972 2.210654 0.068454 -0.035998 113089.000000 0 0 1
-21.085330 3.767615 -17.345814 27.561990 -0.176818 2.251498 0.084030 -0.041028 -159116.000000 0 0 1
-20.060130 4.684015 -17.573614 27.077310 -0.229389 2.277087 0.078008 -0.034820 -963400.000000 0 0 1
-18.743630 4.083615 -18.018114 26.318283 -0.214515 2.324883 0.096396 -0.034515 -427745.000000 0 0 1
-18.046730 3.396215 -16.937114 24.981685 -0.186014 2.315809 0.101593 -0.038140 291564.000000 0 1 0
-16.968430 2.629615 -17.440314 24.474620 -0.153748 2.363976 0.080621 -0.037656 -359803.000000 0 1 0
-17.066330 1.120115 -17.206714 24.260776 -0.065539 2.359216 0.068600 -0.017840 -122905.000000 0 1 0
-18.013330 0.336415 -17.884014 25.385649 -0.018674 2.352505 0.062238 -0.023717 897974.000000 0 0 1
-19.377530 0.381415 -17.419714 26.059174 -0.019681 2.302943 0.063643 -0.030100 348351.000000 0 0 1
-20.294030 -0.629485 -18.018314 27.145967 0.031008 2.296626 0.045211 -0.030486 -738022.000000 0 0 1
-20.171030 -1.892885 -17.431914 26.726861 0.093568 2.281312 0.029617 -0.032035 -439658.000000 0 0 1
-21.262430 -2.674085 -17.684914 27.784849 0.125109 2.260741 0.038843 -0.023451 -884282.000000 0 0 1
-21.290930 -3.835285 -16.704414 27.332225 0.178226 2.228324 0.046202 -0.026406 -43481.300000 0 0 1
-21.455030 -3.409485 -15.355814 26.603457 0.157595 2.186106 0.041460 -0.027469 306113.000000 0 0 1
-21.798830 -4.498685 -14.565314 26.600292 0.203516 2.150244 0.034166 -0.035347 -321328.000000 0 0 1
-22.152030 -4.049785 -13.124214 26.064500 0.180821 2.098474 0.047590 -0.030195 408779.000000 0 0 1
-23.332730 -3.226285 -13.077414 26.941491 0.137402 2.077618 0.042240 -0.033826 675027.000000 0 0 1
-23.583930 -2.636485 -11.761414 26.485537 0.111329 2.030932 0.048558 -0.038973 -143565.000000 0 0 1
-24.702330 -1.567185 -11.698914 27.377468 0.063358 2.012322 0.087718 -0.046980 -87951.100000 0 0 1
-25.089030 -1.269685 -10.370214 27.177433 0.050564 1.962295 0.086620 -0.047026 463803.000000 0 0 1
-25.758080 -0.032585 -10.341714 27.756635 0.001265 1.952590 0.096994 -0.043896 -435331.000000 0 0 1
-26.300550 0.262415 -8.958514 27.785657 -0.009977 1.899076 0.103807 -0.034137 -485965.000000 0 0 1
-25.297390 0.578815 -8.017014 26.543652 -0.022876 1.877619 0.089791 -0.032668 566850.000000 0 0 1
-25.840950 0.847415 -6.746614 26.720584 -0.032782 1.826047 0.094490 -0.036993 140093.000000 0 0 1
-24.756630 1.217515 -5.695514 25.432498 -0.049140 1.796658 0.075110 -0.030789 135127.000000 0 0 1
-24.200130 2.521915 -5.753014 25.002070 -0.103836 1.802978 0.084903 -0.026695 764181.000000 0 0 1
-22.939330 2.603115 -5.091414 23.641311 -0.112995 1.787858 0.078613 -0.019458 170435.000000 0 1 0
-22.288930 3.976215 -5.288514 23.250270 -0.176537 1.800265 0.091437 -0.013202 -340375.000000 0 1 0
-22.916830 5.010215 -4.553614 23.895999 -0.215239 1.762529 0.099103 -0.013211 643251.000000 0 1 0
-22.352530 6.218715 -4.940914 23.721734 -0.271349 1.780619 0.094261 -0.013561 -406599.000000 0 1 0
-22.791230 7.455515 -4.133114 24.333259 -0.316150 1.741478 0.089201 -0.015747 -408589.000000 0 1 0
-22.404530 7.421715 -2.777914 23.764714 -0.319883 1.687957 0.091672 -0.009634 1728390.000000 0 1 0
-21.058330 7.923015 -2.515214 22.639650 -0.359859 1.682124 0.095224 -0.011481 1228880.000000 0 1 0
-20.767830 9.441515 -2.580314 22.958724 -0.426691 1.683424 0.098464 -0.009567 -371250.000000 0 1 0
-20.594530 9.867615 -3.924414 23.171222 -0.446819 1.740983 0.082131 -0.008387 870557.000000 0 1 0
-19.696830 10.982915 -4.014414 22.906441 -0.508658 1.746959 0.062914 -0.010003 -74213.600000 0 1 0
-19.440830 11.570515 -5.459514 23.272924 -0.536857 1.807589 0.046621 -0.011692 -250569.000000 0 1 0
-18.360030 10.918615 -6.097114 22.214447 -0.536510 1.848831 0.026131 -0.009366 167381.000000 0 1 0
-18.303830 11.416615 -7.421914 22.813463 -0.557684 1.902157 0.034372 -0.008388 409336.000000 0 1 0
-16.990930 11.102515 -8.217814 21.897260 -0.578788 1.955505 0.024573 -0.005672 -427495.000000 0 1 0
-16.751530 9.727815 -8.575114 21.184351 -0.526116 1.987540 0.015078 -0.005759 676895.000000 0 1 0
-17.704730 9.045715 -9.419114 22.000049 -0.472346 2.013231 0.033866 -0.010922 47021.800000 0 1 0
-17.910730 9.770815 -10.812614 23.090598 -0.499404 2.058127 0.046306 -0.008481 190531.000000 0 1 0
-16.699830 9.581815 -11.507614 22.430352 -0.520907 2.109516 0.040089 -0.015829 170694.000000 0 1 0
-16.792530 10.283015 -12.740514 23.453148 -0.549456 2.145079 0.047414 -0.014336 -242024.000000 0 1 0
-15.680730 9.965715 -13.720114 23.096370 -0.566142 2.206865 0.037491 -0.010515 -543022.000000 0 1 0
-15.776130 8.785615 -14.518514 23.170251 -0.508120 2.247981 0.052371 -0.022322 -89021.300000 0 1 0
-15.646830 7.544315 -13.825414 22.200947 -0.449276 2.243036 0.048086 -0.022322 -363841.000000 0 1 0
-15.467930 6.324515 -14.738714 22.281967 -0.388137 2.293565 0.044998 -0.022140 -173318.000000 0 1 0
-14.235330 6.318215 -15.423414 21.919082 -0.417720 2.351321 0.039517 -0.021261 228906.000000 0 1 0
-14.015230 5.063015 -16.049914 21.901153 -0.346663 2.393274 0.022534 -0.025735 -190446.000000 0 1 0
32.068261 -15.733985 28.435537 45.656450 -0.456132 0.898460 0.013631 0.011218 -368691.000000 0 0 1
31.254111 -14.616385 28.609967 44.821740 -0.437445 0.878501 0.017015 0.011305 -764797.000000 0 0 1
30.244281 -14.777985 29.554107 44.794538 -0.454503 0.850283 0.021974 0.008705 -232689.000000 0 0 1
30.652131 -14.865585 31.051067 46.094550 -0.451557 0.831675 0.017112 -0.002389 -102365.000000 0 0 1
31.194671 -13.606785 31.465917 46.350362 -0.411310 0.824572 0.019817 -0.002924 -29368.400000 0 0 1
31.197061 -13.552085 32.892788 47.316500 -0.409808 0.802147 0.013958 -0.007300 -126787.000000 0 0 1
31.503071 -12.168585 33.500083 47.568619 -0.368611 0.789434 0.031305 -0.012081 -58204.700000 0 0 1
31.195741 -12.076585 -33.629574 47.433811 -0.369356 2.358846 0.020242 -0.016688 5948.160000 0 0 1
31.329291 -10.692985 -33.333034 46.978245 -0.328912 2.359644 0.020514 -0.012499 -6680.960000 0 0 1
30.990311 -10.277585 -31.888344 45.638740 -0.320225 2.344392 0.020844 -0.011487 -507489.000000 0 0 1
29.632241 -10.373085 -31.590224 44.537769 -0.336729 2.359288 0.039500 -0.018351 -435835.000000 0 0 1
29.383191 -9.924685 -30.284104 43.347413 -0.325736 2.344287 0.040878 -0.013943 -222070.000000 0 0 1
28.227591 -10.730285 -29.675794 42.338973 -0.363265 2.347468 0.040412 -0.007940 -323992.000000 0 0 1
27.894581 -10.364885 -28.383274 41.123579 -0.355763 2.332554 0.037976 -0.009303 117207.000000 0 0 1
26.989751 -11.272985 -27.787864 40.344668 -0.395651 2.330576 0.050890 -0.010413 -759648.000000 0 0 1
26.676451 -10.920385 -26.330524 39.040803 -0.388553 2.310997 0.054541 -0.008314 -372945.000000 0 0 1
25.897051 -9.733485 -26.080854 38.021164 -0.359518 2.326713 0.049364 -0.009636 2181980.000000 0 0 1
24.601951 -9.495885 -26.758434 37.569158 -0.368363 2.363487 0.044487 -0.009393 1847700.000000 0 0 1
23.514651 -10.612385 -26.777084 37.182977 -0.423942 2.374806 0.052184 -0.008162 -803574.000000 0 0 1
23.850551 -11.738485 -27.516754 38.259803 -0.457363 2.373458 0.041400 -0.009164 149831.000000 0 0 1
22.957851 -12.844785 -27.272794 37.892700 -0.510103 2.374220 0.045423 -0.026288 263903.000000 0 0 1
23.615851 -14.087485 -27.848984 39.137342 -0.537862 2.362527 0.049254 -0.004508 163707.000000 0 0 1
23.710751 -13.992385 -29.268534 40.182504 -0.533129 2.386766 0.050797 -0.015984 102200.000000 0 0 1
24.758651 -14.797985 -29.756104 41.441487 -0.538719 2.371760 0.041456 -0.011303 -295471.000000 0 0 1
24.790251 -14.830885 -31.333374 42.617977 -0.539135 2.396780 0.043527 -0.014326 431896.000000 0 0 1
23.701251 -15.521985 -32.025384 42.758701 -0.579813 2.417317 0.059651 -0.013987 944375.000000 0 0 1
23.917651 -15.758585 -33.423154 44.016977 -0.582584 2.433070 0.064599 -0.012584 80124.100000 0 0 1
24.080751 -14.526985 33.971984 44.102285 -0.542814 0.691485 0.038559 -0.012052 16350.300000 0 0 1
22.838951 -13.902985 33.780560 43.081747 -0.546821 0.669546 0.046450 -0.012829 -175600.000000 0 0 1
22.934051 -13.026485 32.691349 42.004575 -0.516556 0.678873 0.037668 -0.012795 -978077.000000 0 0 1
22.073751 -11.745485 32.812584 41.253758 -0.488998 0.651155 0.043539 -0.017647 323467.000000 0 0 1
20.682951 -11.991885 32.672822 40.485838 -0.525431 0.631711 0.042247 -0.013846 398097.000000 0 0 1
20.256451 -12.330985 31.349397 39.308545 -0.546824 0.647621 0.034207 -0.008360 -458312.000000 0 0 1
18.714351 -12.535085 31.292847 38.556420 -0.590177 0.623890 0.044873 -0.009163 604777.000000 0 0 1
17.864751 -11.432185 31.456057 37.938473 -0.569263 0.593240 0.048061 -0.006147 -90106.300000 0 0 1
16.951151 -11.500585 32.513031 38.427883 -0.596119 0.562210 0.036790 -0.002166 -193521.000000 0 0 1
16.226151 -10.216185 32.820856 38.011406 -0.561909 0.528732 0.040475 -0.003952 -1221470.000000 0 0 1
15.348451 -9.848185 31.776517 36.637532 -0.570476 0.521001 0.052573 -0.008154 530387.000000 0 0 1
14.539951 -8.622285 32.061477 36.244893 -0.535261 0.485205 0.057750 -0.006783 1028260.000000 0 0 1
13.488951 -8.899385 33.143755 36.873559 -0.583201 0.453661 0.060289 -0.008739 -1785460.000000 0 0 1
12.590451 -9.948885 32.906942 36.611017 -0.668732 0.453712 0.055244 -0.004027 497988.000000 0 0 1
11.458951 -9.965585 33.796745 37.051861 -0.715807 0.422304 0.037741 0.000862 904635.000000 0 0 1
10.241651 -9.167685 33.249553 35.978753 -0.730122 0.392007 0.042543 0.001746 -538366.000000 0 0 1
10.565351 -7.792085 33.173463 35.676629 -0.635461 0.376826 0.058240 -0.004925 301544.000000 0 0 1
9.601651 -7.014085 32.474159 34.582656 -0.630909 0.350997 0.051377 -0.000771 160232.000000 0 0 1
10.070051 -5.506185 32.333657 34.310193 -0.500374 0.341085 0.052972 -0.000469 76384.100000 0 0 1
9.970551 -4.786685 33.540061 35.316567 -0.447587 0.318527 0.039318 -0.009146 282040.000000 0 0 1
10.611151 -3.541385 33.396189 35.219928 -0.322118 0.323217 0.021857 -0.006684 -369084.000000 0 0 1
10.407651 -2.630885 -33.832014 35.494308 -0.247597 2.834337 0.017518 -0.016998 -1129830.000000 0 0 1
9.103051 -2.285485 -33.544854 34.833119 -0.245984 2.868777 0.016601 -0.004931 -974690.000000 0 0 1
8.948751 -1.673785 -32.309774 33.567889 -0.184905 2.866943 0.016214 -0.009132 -416995.000000 0 0 1
7.476751 -1.349185 -32.038404 32.926910 -0.178529 2.908756 0.014333 -0.003203 -426066.000000 0 0 1
6.941551 -0.385685 -32.873024 33.600142 -0.055505 2.933176 0.012208 -0.001517 121821.000000 0 0 1
5.614251 -0.085085 -32.432954 32.915400 -0.015154 2.970169 0.006724 0.003647 560336.000000 0 0 1
4.888751 0.954315 -33.305094 33.675508 0.192782 2.993136 0.028226 0.002372 43092.000000 0 0 1
5.407851 2.305415 -33.081794 33.600072 0.402979 2.965725 0.018510 -0.007473 104645.000000 0 0 1
4.866751 3.231315 -34.033314 34.531045 0.586125 2.971600 0.039048 -0.012866 143182.000000 0 0 1
5.612851 4.599015 -34.045424 34.810141 0.686442 2.931597 0.037258 -0.013039 38861.100000 0 0 1
5.303351 5.409615 33.330649 34.180721 0.795317 0.223489 0.059384 -0.029006 134358.000000 0 0 1
6.185651 6.532915 33.301045 34.494940 0.812695 0.263864 0.066040 -0.031046 175274.000000 0 0 1
5.729251 7.632915 32.316027 33.695865 0.926913 0.287167 0.090950 -0.031532 -974519.000000 0 0 1
4.469451 8.103215 32.629098 33.916016 1.066752 0.276357 0.094642 -0.034534 -929704.000000 0 0 1
4.100951 9.292515 31.950717 33.526362 1.155186 0.307799 0.101734 -0.038831 115096.000000 0 0 1
3.564851 9.169215 30.487667 32.035613 1.199995 0.312134 0.094626 -0.037622 -594471.000000 0 0 1
2.449751 8.399315 30.237997 31.478346 1.287008 0.281655 0.094911 -0.038197 -861020.000000 0 0 1
2.150651 8.273115 28.895077 30.132959 1.316469 0.287628 0.062335 -0.025812 1196830.000000 0 0 1
0.737851 7.628715 28.549867 29.560728 1.474376 0.262270 0.066646 -0.029239 1013710.000000 0 0 1
-0.396149 8.355915 28.921777 30.107265 -1.523422 0.281555 0.074125 -0.028411 -479097.000000 0 0 1
-1.424349 8.223915 27.959217 29.178406 -1.399302 0.290097 0.072973 -0.025804 945303.000000 0 0 1
-2.847949 8.690915 28.417707 29.853122 -1.254131 0.311361 0.053904 -0.021053 517196.000000 0 0 1
-2.973549 10.079415 28.646217 30.512987 -1.283922 0.351607 0.069132 -0.021298 -469114.000000 0 0 1
-4.308249 10.342215 28.998957 31.087971 -1.176088 0.368682 0.050221 -0.013636 -382800.000000 0 0 1
-4.614249 11.765015 29.600567 32.185407 -1.197031 0.403508 0.035933 -0.013385 -101580.000000 0 0 1
-4.799549 12.887215 28.750307 31.869988 -1.214283 0.446156 0.041003 -0.012467 179019.000000 0 0 1
-6.024949 12.878815 28.050267 31.448074 -1.133224 0.469145 0.031982 -0.013493 -153550.000000 0 0 1
-6.131449 14.250515 27.332087 31.427931 -1.164478 0.516253 0.018779 -0.006363 225805.000000 0 0 1
-5.175349 14.485415 26.300807 30.468737 -1.227651 0.529210 0.030525 -0.002432 163145.000000 0 0 1
-5.401349 15.809715 25.739887 30.686535 -1.241582 0.575720 0.018122 0.003614 -653461.000000 0 0 1
-4.198149 16.372415 25.035627 30.207003 -1.319788 0.593833 0.042302 0.007292 -763738.000000 0 0 1
-3.876049 15.719615 23.863457 28.837383 -1.329045 0.596124 0.031023 -0.001518 -643468.000000 0 0 1
-3.007449 16.531415 23.150667 28.605696 -1.390841 0.627832 0.043499 0.007281 -400111.000000 0 0 1
-2.735649 16.197115 21.683567 27.203077 -1.403478 0.648319 0.041608 0.009370 100796.000000 0 0 1
-1.853949 15.090915 21.481767 26.318039 -1.448557 0.615929 0.032529 0.009311 149523.000000 0 0 1
-1.613149 15.085515 20.068667 25.158029 -1.464268 0.647318 0.023834 0.005824 -229423.000000 0 0 1
-0.804149 13.897515 19.574067 24.019402 -1.512998 0.618193 0.033472 -0.001346 -87767.200000 0 1 0
-1.502149 12.639615 19.538567 23.318918 -1.452507 0.577400 0.030927 -0.000744 381773.000000 0 1 0
-0.656649 11.566715 19.141467 22.374446 -1.514087 0.544270 0.037659 -0.000841 160295.000000 0 1 0
-1.485249 10.245415 19.016667 21.651977 -1.426832 0.498527 0.015766 0.001525 -60656.300000 0 1 0
-1.849149 9.491915 20.177667 22.375300 -1.378393 0.446919 0.026447 -0.003843 241202.000000 0 1 0
-2.620449 10.117415 21.226067 23.659560 -1.317362 0.457532 0.047258 0.000101 -632490.000000 0 1 0
-4.094449 10.147415 20.871867 23.566276 -1.187279 0.482868 0.040937 -0.001714 -862650.000000 0 1 0
-4.770849 8.873715 20.985967 23.279060 -1.077493 0.447584 0.037569 -0.001325 512653.000000 0 1 0
-6.171449 8.974815 20.762167 23.445717 -0.968413 0.483137 0.038097 -0.002405 702114.000000 0 1 0
-6.986049 7.651415 20.754467 23.196916 -0.830823 0.463019 0.035485 -0.009487 101242.000000 0 1 0
-6.999849 7.082715 22.064367 24.207417 -0.791282 0.423950 0.038127 -0.014158 171516.000000 0 1 0
-7.729249 5.864015 21.927067 23.977577 -0.649032 0.416570 0.040573 -0.022604 287051.000000 0 1 0
-7.663849 5.016315 23.200767 24.943408 -0.579562 0.376013 0.035065 -0.030845 191243.000000 0 1 0
-8.470149 5.615115 24.218377 26.264096 -0.585411 0.397298 0.014267 -0.018758 276491.000000 0 0 1
-8.431949 4.847115 25.408847 27.206650 -0.521722 0.365569 0.025177 -0.014755 -382369.000000 0 0 1
-9.494849 5.294215 26.407687 28.557780 -0.508650 0.390521 0.011942 -0.003284 -382003.000000 0 0 1
-9.180749 6.529815 27.052997 29.305107 -0.618237 0.394602 0.006916 -0.006842 -619302.000000 0 0 1
-10.181549 6.793215 27.990687 30.549800 -0.588378 0.412226 0.004423 -0.000831 -158601.000000 0 0 1
-9.782649 8.012515 28.785227 31.440259 -0.686252 0.413915 0.011248 -0.006628 -61584.300000 0 0 1
-8.599449 7.764215 29.498377 31.692078 -0.734400 0.374254 0.010595 -0.005173 -224933.000000 0 0 1
-8.153049 8.858015 30.272937 32.578940 -0.826816 0.378505 0.016512 -0.008133 233057.000000 0 0 1
-7.186049 8.736515 31.478697 33.449579 -0.882468 0.344989 0.041922 -0.012208 8521.550000 0 0 1
-5.922849 8.255615 31.114267 32.731222 -0.948466 0.315637 0.047180 -0.020519 -948530.000000 0 0 1
-5.257649 7.778215 32.234387 33.573787 -0.976397 0.283416 0.072522 -0.027465 127597.000000 0 0 1
-3.718349 7.697515 32.084177 33.203498 -1.120794 0.260392 0.059577 -0.022918 109798.000000 0 0 1
-3.143849 8.924615 31.879827 33.254412 -1.232103 0.288525 0.046398 -0.019645 -1669280.000000 0 0 1
-1.767549 8.827415 31.870187 33.117311 -1.373176 0.275305 0.062278 -0.022688 -872041.000000 0 0 1
-1.091149 10.160615 31.512287 33.127827 -1.463816 0.313587 0.064661 -0.023169 -193551.000000 0 0 1
-1.319149 11.186715 32.413539 34.315015 -1.453417 0.334460 0.068997 -0.028680 32737.900000 0 0 1
-1.349749 12.459115 31.780837 34.162450 -1.462883 0.375606 0.055794 -0.020675 -239583.000000 0 0 1
-1.455849 13.628515 32.799601 35.548133 -1.464376 0.395818 0.054113 -0.029547 -1210090.000000 0 0 1
-0.277949 13.991015 33.378488 36.193221 -1.550933 0.396986 0.084225 -0.035131 -1486880.000000 0 0 1
-0.396749 14.976915 -34.038234 37.189605 -1.544312 2.726954 0.076551 -0.033941 -70133.800000 0 0 1
0.954351 15.437715 -33.460414 36.862354 1.509055 2.708596 0.071638 -0.036251 -223367.000000 0 0 1
1.755351 16.153615 34.087433 37.762066 1.462555 0.444816 0.066072 -0.029225 119852.000000 0 0 1
3.040151 16.270515 -33.789964 37.626239 1.386076 2.686096 0.077844 -0.034711 -41819.500000 0 0 1
3.883551 17.350315 34.016765 38.383013 1.350594 0.481621 0.084461 -0.025855 -188767.000000 0 0 1
3.434951 18.616115 -34.059814 38.967031 1.388334 2.634309 0.060537 -0.016429 166512.000000 0 0 1
4.421451 19.578915 34.078783 39.550558 1.348695 0.532282 0.042759 -0.001716 -241420.000000 0 0 1
3.872351 21.006315 33.944602 40.106064 1.388501 0.561663 0.043009 -0.010552 -89584.900000 0 0 1
3.674751 21.611115 -33.258324 39.832903 1.402367 2.558831 0.051776 -0.024177 64871.400000 0 0 1
3.690151 23.025715 -33.353384 40.697039 1.411885 2.531427 0.044565 -0.019059 71027.800000 0 0 1
3.480251 23.815415 -31.973144 40.019596 1.425689 2.496322 0.051353 -0.015091 63381.400000 0 0 1
3.410051 25.226515 -32.092374 40.962495 1.436434 2.471006 0.060121 -0.017761 63808.100000 0 0 1
2.859651 25.707815 -30.903214 40.299851 1.460015 2.444687 0.052708 -0.019923 -77720.800000 0 0 1
2.602651 27.222915 -30.737474 41.141867 1.475481 2.414499 0.060949 -0.018380 -46711.100000 0 0 1
3.788751 27.955315 -30.582474 41.606994 1.436088 2.396510 0.057019 -0.017697 -24086.500000 0 0 1
3.483151 29.307515 -30.348014 42.332786 1.452503 2.370130 0.049068 -0.015686 620610.000000 0 0 1
4.762051 30.179715 -30.033774 42.842968 1.414297 2.347623 0.060394 -0.022779 808659.000000 0 0 1
5.428651 29.910815 -28.792504 41.870460 1.391256 2.329053 0.048901 -0.026795 -266617.000000 0 0 1
6.147251 31.055915 -28.541184 42.624614 1.375381 2.304458 0.063125 -0.030973 -818271.000000 0 0 1
7.158951 30.983815 -27.330864 41.931176 1.343727 2.280756 0.059203 -0.025730 759397.000000 0 0 1
8.405851 30.431515 -27.757024 42.037933 1.301294 2.291995 0.057202 -0.017121 828103.000000 0 0 1
9.541651 31.265615 -28.011814 43.049315 1.274594 2.279291 0.059884 -0.026619 423859.000000 0 0 1
9.454751 32.293515 -29.110394 44.493578 1.285981 2.284001 0.070940 -0.027603 -1163710.000000 0 0 1
8.908551 33.535315 -28.706854 45.034022 1.311146 2.261978 0.075562 -0.029691 74364.500000 0 0 1
8.592451 -34.242119 -29.733284 46.156485 -1.324940 2.270753 0.066947 -0.027318 -134254.000000 0 0 1
7.191751 34.222515 -30.326394 46.288141 1.363664 2.285198 0.054892 -0.004484 -245129.000000 0 0 1
7.246851 33.275715 -31.348684 46.287472 1.356363 2.314829 0.044401 0.000356 942302.000000 0 0 1
5.974451 33.236415 -32.034644 46.546447 1.392940 2.329842 0.035787 0.002358 923973.000000 0 0 1
6.122351 32.459815 -33.382324 46.962776 1.384373 2.361467 0.033975 -0.011095 89883.300000 0 0 1
6.714651 33.172515 34.031055 47.995990 1.371079 0.782661 0.038694 -0.007438 -11029.700000 0 0 1
6.707451 32.397915 32.824738 46.605560 1.366647 0.789346 0.027807 -0.007041 150027.000000 0 0 1
5.821451 32.999915 31.649887 46.093373 1.396185 0.813929 0.030487 -0.011124 611410.000000 0 0 1
6.283251 34.214915 31.105067 46.665457 1.389179 0.841219 0.034943 -0.016552 -137210.000000 0 0 1
5.209151 -33.907619 30.427937 45.855438 -1.418360 0.845226 0.027641 -0.024429 -76425.600000 0 0 1
18.100070 -22.034785 29.547687 41.063488 -0.883123 0.767626 0.044027 0.000834 -692817.000000 0 0 1
17.343070 -21.029785 30.151527 40.646629 -0.881180 0.735051 0.039234 -0.001184 498384.000000 0 0 1
15.952570 -21.381585 30.184817 40.283741 -0.929803 0.723784 0.031831 -0.003488 717429.000000 0 0 1
15.544970 -22.175785 31.455607 41.507430 -0.959407 0.710814 0.031255 -0.009980 -675405.000000 0 0 1
16.210570 -23.372385 31.768187 42.641161 -0.964393 0.730243 0.035237 -0.013808 10930.200000 0 0 1
15.832070 -23.764785 33.080694 43.700706 -0.983118 0.712113 0.051163 -0.018593 354774.000000 0 0 1
16.657870 -24.986985 33.630893 45.087371 -0.982797 0.728904 0.052273 -0.023094 319219.000000 0 0 1
16.266770 -26.253135 33.183811 45.332110 -1.016081 0.749521 0.063350 -0.025842 385665.000000 0 0 1
16.966070 -27.223775 34.033955 46.768489 -1.013487 0.755817 0.067506 -0.019523 539258.000000 0 0 1
16.620670 -28.676715 33.647550 47.230903 -1.045521 0.777876 0.060882 -0.015313 -70569.700000 0 0 1
17.245070 -29.189545 32.493059 46.959779 -1.037172 0.806632 0.052865 -0.019897 49997.000000 0 0 1
16.724570 -30.450705 32.208737 47.374670 -1.068541 0.823208 0.054003 -0.016163 293883.000000 0 0 1
17.700370 -31.175895 31.241207 47.552629 -1.054421 0.853988 0.050174 -0.010310 715618.000000 0 0 1
18.853170 -31.850835 31.731817 48.752701 -1.036339 0.862063 0.041999 -0.009830 265702.000000 0 0 1
19.642670 -32.379345 30.666717 48.730934 -1.025507 0.890135 0.028788 -0.007969 -101429.000000 0 0 1
21.035970 -32.742555 31.225517 49.896090 -0.999736 0.894626 0.044032 -0.017513 -535229.000000 0 0 1
21.761270 -31.599215 31.491787 49.636638 -0.967718 0.883504 0.043210 -0.012243 -629352.000000 0 0 1
23.088070 -31.952505 31.770147 50.629673 -0.945080 0.892457 0.035241 -0.019277 -230479.000000 0 0 1
24.146670 -30.819005 31.732407 50.396611 -0.906198 0.889689 0.030743 -0.012624 161925.000000 0 0 1
24.560570 -30.542725 30.405177 49.603976 -0.893537 0.910997 0.032804 -0.011045 59411.900000 0 0 1
25.545970 -29.498375 30.490137 49.521704 -0.857079 0.907532 0.023177 -0.007113 170736.000000 0 0 1
26.537170 -29.621905 29.308797 49.403281 -0.840272 0.935699 0.031640 -0.007536 -92229.000000 0 0 1
27.457470 -30.670465 29.588347 50.695762 -0.840617 0.947586 0.022860 -0.007641 157522.000000 0 0 1
28.600070 -30.588435 28.738747 50.789092 -0.818979 0.969339 0.014447 -0.019995 200646.000000 0 0 1
29.707470 -31.566425 29.098697 52.208305 -0.815727 0.979596 -0.004188 -0.013826 -166097.000000 0 0 1
29.226970 -32.908825 29.050967 52.736754 -0.844584 0.987393 -0.003267 -0.014903 539960.000000 0 0 1
30.255070 -33.825555 29.487957 54.120948 -0.841059 0.994583 0.001772 -0.004291 -45926.100000 0 0 1
29.654870 33.592143 30.122757 53.992813 0.847570 0.978939 -0.001373 -0.002576 -297237.000000 0 0 1
29.089970 33.787006 31.453687 54.563014 0.859962 0.956400 0.007019 0.004921 366913.000000 0 0 1
27.990770 -34.048026 31.638397 54.256238 -0.882726 0.948221 -0.003892 0.011688 -135427.000000 0 0 1
26.687470 -34.287696 30.835047 53.279145 -0.909403 0.953607 0.000311 0.004049 -663395.000000 0 0 1
26.042470 33.224560 31.182687 52.482774 0.905992 0.934587 0.000203 0.001858 203827.000000 0 0 1
24.662870 33.252999 30.797167 51.599269 0.932645 0.931223 -0.000784 -0.001494 690812.000000 0 0 1
24.111570 31.858140 30.793857 50.443736 0.922931 0.914156 0.002703 -0.008392 -424174.000000 0 0 1
24.246770 31.143290 29.597047 49.333513 0.909269 0.927373 0.007762 -0.009981 60732.400000 0 0 1
23.704670 29.867310 29.877417 48.442003 0.899929 0.906168 0.038594 -0.022080 -125084.000000 0 0 1
23.052270 29.162910 28.654997 46.936034 0.901896 0.914090 0.038798 -0.026336 -626790.000000 0 0 1
21.813170 29.728400 28.352907 46.513218 0.937778 0.915282 0.050161 -0.034307 -547810.000000 0 0 1
21.485370 29.201390 27.058827 45.238506 0.936468 0.929622 0.055738 -0.027169 751852.000000 0 0 1
20.052070 29.656160 26.595487 44.597009 0.976256 0.931848 0.075790 -0.025645 785008.000000 0 0 1
20.036270 30.997300 26.128577 45.221535 0.996965 0.954777 0.077408 -0.033374 625775.000000 0 0 1
18.684970 31.275730 25.728137 44.600857 1.032271 0.955926 0.075285 -0.030088 400553.000000 0 0 1
18.475270 32.562100 24.964967 44.998617 1.054703 0.982681 0.084788 -0.030212 -663508.000000 0 0 1
19.124370 32.660105 23.744697 44.679241 1.041064 1.010487 0.073658 -0.026637 -503043.000000 0 0 1
20.309670 33.383461 23.869027 45.789394 1.024241 1.022448 0.061232 -0.021478 -345233.000000 0 0 1
21.103670 33.659127 22.563267 45.688103 1.010773 1.054280 0.068776 -0.024589 140310.000000 0 0 1
20.644770 -33.860715 21.959567 45.331855 -1.023277 1.065099 0.065584 -0.012144 558285.000000 0 0 1
21.260370 -33.725235 20.645867 44.895953 -1.008324 1.092958 0.072347 -0.010983 310782.000000 0 0 1
20.871170 -32.392265 19.891167 43.364998 -0.998420 1.094274 0.065269 -0.006693 -120408.000000 0 0 1
21.356670 -31.241635 20.506867 43.042754 -0.971165 1.074206 0.060741 -0.002607 -41210.100000 0 0 1
21.111170 -29.988705 19.858667 41.705762 -0.957410 1.074512 0.064807 -0.004041 -369957.000000 0 0 1
21.959470 -29.522205 18.682467 41.265160 -0.931256 1.100958 0.047579 -0.000153 -530900.000000 0 0 1
21.738370 -30.313235 17.492867 41.200113 -0.948669 1.132295 0.036776 -0.009154 316879.000000 0 0 1
22.037670 -29.559135 16.316067 40.318921 -0.930152 1.154173 0.031953 -0.007135 -481767.000000 0 0 1
21.692970 -30.260735 15.025467 40.150488 -0.948839 1.187231 0.029838 -0.013746 -136987.000000 0 0 1
22.559770 -31.317925 14.623567 41.274742 -0.946545 1.208633 0.052774 -0.011752 81722.700000 0 0 1
22.690470 -31.556775 13.224567 41.055774 -0.947408 1.242837 0.062297 -0.021003 -296624.000000 0 0 1
21.450370 -31.813935 12.334067 40.303524 -0.977566 1.259777 0.052125 -0.017853 -150196.000000 0 0 1
20.684570 -32.910865 12.732367 40.903418 -1.009682 1.254258 0.055845 -0.014967 -8487.890000 0 0 1
19.413770 -32.940595 12.121767 40.111276 -1.038239 1.263793 0.058486 -0.010669 516399.000000 0 0 1
18.331470 -33.805685 12.862567 40.550126 -1.073915 1.248019 0.059116 -0.003021 267490.000000 0 0 1
17.884570 -33.280195 14.097867 40.325910 -1.077683 1.213654 0.047713 -0.000354 358336.000000 0 0 1
18.397570 -33.971775 15.267867 41.541062 -1.074460 1.194437 0.035987 -0.002479 -340149.000000 0 0 1
18.393170 -33.139065 16.565267 41.363201 -1.064100 1.158752 0.045733 -0.007436 687636.000000 0 0 1
17.104270 -32.701945 17.009467 40.636132 -1.088891 1.138915 0.050388 -0.007712 381909.000000 0 0 1
16.110570 -33.537895 17.506167 41.119420 -1.122976 1.131017 0.046095 -0.001923 -533054.000000 0 0 1
16.389070 -34.241915 18.834667 42.377530 -1.124394 1.110237 0.047606 -0.014055 244506.000000 0 0 1
17.344070 33.352009 18.745467 42.006735 1.091253 1.108227 0.045102 -0.009588 599848.000000 0 0 1
17.653770 32.794024 19.999567 42.273943 1.076963 1.077996 0.041197 -0.012284 -65279.400000 0 0 1
18.654670 31.678920 19.762667 41.738635 1.038603 1.077552 0.048180 -0.008215 -164480.000000 0 0 1
17.980470 30.513290 19.320267 40.343907 1.038306 1.071407 0.037684 -0.014848 -53208.200000 0 0 1
18.876970 29.482140 19.038867 39.849906 1.001281 1.072688 0.034012 -0.021672 -75391.400000 0 0 1
18.101070 28.171170 18.875567 38.438920 0.999684 1.057498 0.040516 -0.018186 162348.000000 0 0 1
17.715770 27.475250 20.038167 38.344048 0.998092 1.020912 0.042773 -0.023087 -104700.000000 0 0 1
17.465770 26.126820 19.721367 37.102509 0.981526 1.010382 0.050715 -0.027559 -388880.000000 0 0 1
17.106370 25.297100 21.047467 37.088637 0.976210 0.967341 0.065394 -0.022955 479733.000000 0 0 1
15.808970 25.422120 21.627767 36.931937 1.014459 0.945162 0.075780 -0.018731 426818.000000 0 0 1
14.812370 24.601970 21.042567 35.601304 1.028848 0.938422 0.076333 -0.020187 657822.000000 0 0 1
13.396070 24.865410 21.690267 35.611950 1.076637 0.915905 0.083071 -0.026033 571087.000000 0 0 1
12.808570 26.011490 21.178967 35.905511 1.113231 0.939920 0.082837 -0.025484 -271166.000000 0 0 1
11.499470 26.197210 21.676667 35.894422 1.157163 0.922410 0.061536 -0.026736 185813.000000 0 0 1
10.765670 27.399510 20.998567 36.160373 1.196413 0.951200 0.054821 -0.031807 306852.000000 0 0 1
11.397470 28.647510 21.314767 37.482015 1.192143 0.965912 0.058384 -0.032027 264789.000000 0 0 1
10.760570 29.684210 20.569367 37.683432 1.223028 0.993397 0.050260 -0.030636 274568.000000 0 0 1
11.312170 31.139330 20.886967 39.164888 1.222344 1.008289 0.051516 -0.034641 -42878.800000 0 0 1
10.793770 31.879240 21.972467 40.194287 1.244329 0.992430 0.050158 -0.035373 -174776.000000 0 0 1
11.257970 31.488760 23.280167 40.746166 1.227435 0.962651 0.044028 -0.031482 26415.800000 0 0 1
10.524070 32.377120 24.288197 41.820455 1.256522 0.951118 0.036706 -0.027110 216969.000000 0 0 1
9.156870 32.047600 24.462937 41.344071 1.292485 0.937641 0.031237 -0.021888 -189702.000000 0 0 1
8.641870 33.003953 25.369827 42.515538 1.314702 0.931390 0.037846 -0.016537 106099.000000 0 0 1
7.228470 32.802508 26.029427 42.494545 1.353899 0.911532 0.058896 -0.028899 377015.000000 0 0 1
6.162970 33.453503 25.342417 42.418830 1.388614 0.930500 0.048242 -0.028784 364054.000000 0 0 1
5.683870 32.883553 24.114927 41.172371 1.399639 0.945045 0.046472 -0.030828 -524598.000000 0 0 1
4.878670 31.606280 24.248347 40.134034 1.417647 0.922055 0.034298 -0.029408 -943517.000000 0 0 1
5.714070 30.609860 24.670147 39.726946 1.386246 0.900788 0.021230 -0.016939 -637982.000000 0 0 1
5.036770 29.366370 24.529167 38.593170 1.400934 0.882033 0.013238 -0.009029 -687993.000000 0 0 1
5.914970 28.136400 24.898647 38.034017 1.363589 0.857088 0.014356 -0.001899 -458445.000000 0 0 1
6.988670 27.871820 24.045947 37.468486 1.325118 0.873999 0.030953 -0.005310 -250542.000000 0 0 1
8.067970 28.779680 24.120597 38.407881 1.297476 0.891801 0.048273 -0.013720 -988311.000000 0 0 1
9.172870 28.284010 25.094497 38.908361 1.257186 0.869820 0.037758 -0.018200 -1303820.000000 0 0 1
8.887370 28.200180 26.476057 39.689004 1.265496 0.840503 0.032775 -0.012388 38618.800000 0 0 1
10.006670 27.881190 27.301357 40.284715 1.226211 0.826152 0.050118 -0.013112 858910.000000 0 0 1
11.183770 28.952610 27.291197 41.329647 1.202175 0.849539 0.040855 -0.011812 159232.000000 0 0 1
10.898370 30.036710 28.102797 42.552857 1.222733 0.849417 0.037294 -0.014876 78105.100000 0 0 1
11.807270 31.101260 27.930117 43.437212 1.207964 0.872388 0.034350 -0.010201 -25408.900000 0 0 1
11.389270 32.332870 28.790687 44.766434 1.232118 0.872216 0.021214 -0.014253 -1650.740000 0 0 1
11.518670 32.041770 30.145717 45.476577 1.225693 0.846132 0.026408 -0.026743 225734.000000 0 0 1
10.275670 32.016930 30.834737 45.622957 1.260236 0.828665 0.039433 -0.022404 -14123.700000 0 0 1
10.356570 31.783800 32.324747 46.501158 1.255801 0.802184 0.053703 -0.019498 -375020.000000 0 0 1
10.632470 30.451430 32.724749 45.948321 1.234869 0.778158 0.041072 -0.016630 206528.000000 0 0 1
10.777170 30.383340 34.143272 46.958042 1.229935 0.756706 0.059122 -0.010333 -146956.000000 0 0 1
10.692870 28.940990 -33.747864 45.725667 1.216881 2.400973 0.046318 -0.007340 -234346.000000 0 0 1
11.827270 28.151810 -34.071684 45.752468 1.173062 2.410876 0.060290 -0.006922 347157.000000 0 0 1
11.738770 26.899110 -33.421244 44.478538 1.159310 2.420980 0.065515 -0.014116 269690.000000 0 0 1
12.934470 25.981270 -33.840374 44.581361 1.108880 2.432680 0.069856 -0.019959 341939.000000 0 0 1
12.830170 24.607690 -33.498874 43.500876 1.090185 2.449753 0.051215 -0.020159 -391798.000000 0 0 1
12.971270 24.258270 -32.132474 42.299094 1.079764 2.433570 0.057148 -0.015596 -173511.000000 0 0 1
13.143570 22.701650 -31.970404 41.354867 1.045984 2.454471 0.047609 -0.031697 499072.000000 0 0 1
14.340370 22.181550 -32.588704 41.948671 0.996886 2.460477 0.031054 -0.018214 823366.000000 0 0 1
14.251870 20.767450 -32.711994 41.285316 0.969351 2.485431 0.029280 -0.012790 -741034.000000 0 0 1
15.596970 20.329750 -33.212864 41.948284 0.916378 2.484477 0.034899 -0.020659 -26180.500000 0 0 1
16.687070 20.343650 -32.270914 41.638135 0.883824 2.457563 0.027499 -0.022254 720862.000000 0 0 1
17.896970 19.887550 -32.860104 42.374551 0.838032 2.458252 0.026230 -0.017428 -218906.000000 0 0 1
19.093470 20.062750 -31.941574 42.276928 0.810147 2.427262 0.020352 -0.014272 -376108.000000 0 0 1
19.700670 21.361450 -32.045914 43.259317 0.825822 2.405037 0.014844 -0.017752 -421225.000000 0 0 1
20.589370 21.625850 -31.001694 43.043054 0.809946 2.374957 0.009431 -0.006792 -359431.000000 0 0 1
20.083570 22.105650 -29.642424 42.079482 0.833290 2.352429 0.007151 -0.012352 -177227.000000 0 0 1
19.496070 23.399650 -29.632614 42.493907 0.876150 2.342473 0.012194 -0.001575 59928.800000 0 0 1
19.169870 23.963620 -28.356634 41.783222 0.896081 2.316734 0.017098 0.004931 958898.000000 0 0 1
20.426070 24.606340 -27.598454 42.241815 0.877961 2.282790 0.009125 0.005256 1320100.000000 0 0 1
21.279270 25.542010 -28.238444 43.618933 0.876191 2.274951 0.009804 0.010115 -264745.000000 0 0 1
20.644970 26.749890 -28.532074 44.225000 0.913503 2.272025 0.009144 0.012655 -480637.000000 0 0 1
21.415870 27.714430 -29.462014 45.768323 0.912904 2.270147 -0.001383 0.013420 -483142.000000 0 0 1
21.372270 27.529340 -30.859344 46.550377 0.910646 2.295513 0.015075 0.008854 124629.000000 0 0 1
21.937270 26.318360 -31.402024 46.475660 0.875939 2.312664 0.011924 0.007263 932456.000000 0 0 1
23.377270 25.844060 -30.945354 46.605011 0.835473 2.296941 0.021367 0.002285 137024.000000 0 0 1
24.321570 26.772760 -31.329894 47.852708 0.833335 2.284602 0.022026 0.005126 -1248310.000000 0 0 1
25.617170 26.346310 -31.061444 48.116325 0.799429 2.272538 0.026995 -0.008510 -913398.000000 0 0 1
26.707170 27.392090 -31.234834 49.388403 0.798058 2.255486 0.008007 -0.003429 -561205.000000 0 0 1
26.718070 28.394670 -30.271614 49.360745 0.815810 2.230994 -0.000320 0.004765 503784.000000 0 0 1
27.595670 29.469880 -30.706234 50.723442 0.818229 2.221022 0.005826 0.001796 560118.000000 0 0 1
27.559270 30.723050 -29.809474 50.911923 0.839629 2.196306 0.002525 0.007379 33098.100000 0 0 1
28.078170 30.424540 -28.477584 50.249468 0.825484 2.173321 0.015790 -0.001282 553168.000000 0 0 1
27.259770 31.063720 -27.490634 49.636526 0.850527 2.157764 0.007892 0.007268 -548832.000000 0 0 1
27.894770 31.062760 -26.082834 49.227304 0.839080 2.129214 0.033472 0.002379 -340565.000000 0 0 1
28.153670 29.812180 -25.472534 48.272613 0.814002 2.126664 0.028699 0.009702 509752.000000 0 0 1
27.046070 29.043770 -24.972714 46.889944 0.820999 2.132444 0.031017 0.010438 300253.000000 0 0 1
26.341170 29.422440 -23.668614 46.040639 0.840598 2.110732 0.035106 0.016149 33970.000000 0 0 1
25.566670 30.612140 -23.667314 46.377790 0.874969 2.106348 0.057404 0.009786 130408.000000 0 0 1
24.936170 30.708860 -22.413014 45.466359 0.888770 2.086283 0.044022 0.020694 28335.400000 0 0 1
3.678370 -26.152325 -19.347314 32.738250 -1.431061 2.203057 0.044184 -0.003546 -101101.000000 0 0 1
3.456070 -27.382195 -18.660214 33.315651 -1.445244 2.165307 0.054840 -0.002168 369998.000000 0 0 1
3.010970 -27.186015 -17.322514 32.376146 -1.460492 2.135351 0.051972 -0.006203 -232766.000000 0 0 1
2.895670 -28.479865 -16.518514 33.050702 -1.469470 2.094156 0.051815 -0.004028 -204528.000000 0 0 1
4.157170 -28.850165 -16.033014 33.266674 -1.427686 2.073680 0.042031 0.002091 -178747.000000 0 0 1
4.100270 -29.835745 -14.998814 33.644439 -1.434224 2.032868 0.041495 -0.001908 404187.000000 0 0 1
5.576670 -30.198335 -14.636114 34.018443 -1.388185 2.015556 0.065052 -0.007115 53465.300000 0 0 1
6.233470 -29.020975 -14.195514 32.902670 -1.359219 2.016884 0.048378 -0.004231 402594.000000 0 0 1
7.610570 -29.270915 -13.862814 33.269879 -1.316424 2.000584 0.055962 -0.000559 929980.000000 0 0 1
7.910570 -30.243405 -12.631214 33.716290 -1.314964 1.954797 0.059503 -0.007742 -1017150.000000 0 0 1
8.176170 -29.742705 -11.288514 32.846747 -1.302526 1.921621 0.059025 -0.025054 73857.700000 0 0 1
8.509570 -30.728155 -10.298314 33.506530 -1.300636 1.883206 0.071640 -0.020611 912719.000000 0 0 1
9.854470 -31.547665 -10.452014 34.664251 -1.268032 1.877084 0.061405 -0.016044 830358.000000 0 0 1
10.993370 -30.917185 -9.905914 34.276138 -1.229164 1.863982 0.072752 -0.023587 -316100.000000 0 0 1
12.004370 -31.819335 -9.588614 35.334352 -1.210040 1.845610 0.070786 -0.019529 -137377.000000 0 0 1
13.131070 -31.317755 -8.670214 35.048529 -1.173776 1.820769 0.069771 -0.018891 -285562.000000 0 0 1
14.010470 -30.391535 -9.212214 34.710280 -1.138833 1.839418 0.070116 -0.021860 247050.000000 0 0 1
15.172570 -30.349615 -8.356914 34.944871 -1.107208 1.812282 0.062054 -0.021976 479300.000000 0 0 1
16.320970 -29.484705 -8.919514 34.860860 -1.065239 1.829534 0.073535 -0.025536 -65294.200000 0 0 1
15.986470 -28.132685 -9.210614 33.642987 -1.054048 1.848112 0.068486 -0.022655 204503.000000 0 0 1
15.335070 -27.904695 -10.475614 33.519768 -1.068297 1.888642 0.057654 -0.022007 112312.000000 0 0 1
15.120870 -26.389425 -10.796614 32.273973 -1.050474 1.911903 0.061610 -0.021174 -812373.000000 0 0 1
14.180570 -25.701825 -10.017714 31.016559 -1.066623 1.899672 0.052863 -0.015758 -26058.100000 0 0 1
13.755070 -24.420685 -10.468614 29.919286 -1.057834 1.928256 0.035055 -0.003579 550641.000000 0 0 1
13.108870 -24.318185 -11.953114 30.101387 -1.076394 1.979146 0.021924 -0.009137 303858.000000 0 0 1
14.044770 -24.001785 -12.999814 30.697498 -1.041364 2.008081 0.038447 -0.014159 -87598.300000 0 0 1
13.440870 -23.897985 -14.270714 30.909932 -1.058462 2.050692 0.038384 -0.017350 32791.000000 0 0 1
14.275670 -23.386685 -15.474414 31.467273 -1.022751 2.084909 0.050687 -0.017283 449530.000000 0 0 1
15.443570 -24.106985 -15.854314 32.726286 -1.001039 2.076533 0.051727 -0.022635 391761.000000 0 0 1
16.063670 -23.476085 -16.937014 33.106351 -0.970715 2.107835 0.067700 -0.019914 -244567.000000 0 0 1
17.087570 -24.389385 -17.708414 34.647006 -0.959658 2.107271 0.072368 -0.019132 562324.000000 0 0 1
18.170270 -24.852785 -16.942114 35.140501 -0.939491 2.073875 0.078847 -0.019183 -76025.400000 0 0 1
19.291470 -24.005485 -16.803414 35.082457 -0.893847 2.070276 0.079672 -0.018273 133473.000000 0 0 1
20.629170 -24.674485 -16.410714 36.106846 -0.874455 2.042612 0.072293 -0.018987 340366.000000 0 0 1
21.191970 -25.510275 -17.416514 37.459427 -0.877601 2.054367 0.080892 -0.017512 718562.000000 0 0 1
22.506870 -25.881075 -16.950914 38.258629 -0.855018 2.029807 0.086368 -0.015033 1236560.000000 0 0 1
23.460370 -26.671385 -17.907314 39.779688 -0.849362 2.037743 0.063107 -0.011296 46552.400000 0 0 1
23.932070 -25.930125 -19.012514 40.082303 -0.825448 2.065007 0.069594 -0.008427 -130746.000000 0 0 1
24.418170 -26.832225 -19.981114 41.418114 -0.832467 2.074217 0.061669 -0.009370 731249.000000 0 0 1
25.531570 -26.141545 -20.885714 42.088650 -0.797202 2.090049 0.044944 -0.010319 548431.000000 0 0 1
25.010470 -25.059935 -21.634614 41.491932 -0.786386 2.119307 0.058643 -0.013622 -39497.000000 0 0 1
25.470670 -23.776385 -21.168714 40.769914 -0.751008 2.116739 0.059938 -0.009730 -811115.000000 0 0 1
24.441170 -22.639785 -21.185614 39.481146 -0.747155 2.137200 0.074305 -0.009210 -227844.000000 0 0 1
23.998570 -22.080185 -22.410814 39.569060 -0.743789 2.172894 0.076486 -0.005555 92742.400000 0 0 1
23.483270 -22.932585 -23.372014 40.294149 -0.773535 2.189568 0.048874 -0.013363 -591373.000000 0 0 1
22.674570 -22.218185 -24.436614 40.061602 -0.775232 2.226827 0.042610 -0.014383 90008.600000 0 0 1
23.577370 -21.784585 -25.434584 40.955812 -0.745897 2.240846 0.035072 -0.011740 382992.000000 0 0 1
22.960270 -20.768785 -26.239554 40.583625 -0.735325 2.273856 0.033429 -0.004781 -179151.000000 0 0 1
23.736470 -20.264185 -27.447984 41.562591 -0.706647 2.292149 0.032496 -0.006432 -395544.000000 0 0 1
22.970570 -19.271485 -28.131164 41.114469 -0.698052 2.324324 0.034256 -0.010163 512162.000000 0 0 1
23.468770 -18.847385 -29.413724 42.085321 -0.676618 2.344664 0.042021 -0.016690 -650226.000000 0 0 1
22.557270 -17.756985 -29.894184 41.446389 -0.666884 2.376436 0.061365 -0.020558 -173012.000000 0 0 1
21.343270 -18.328185 -30.401984 41.421469 -0.709543 2.394941 0.056556 -0.020802 534880.000000 0 0 1
20.618770 -17.321885 -31.075734 41.120343 -0.698720 2.427559 0.067057 -0.024703 204492.000000 0 0 1
19.285170 -17.801485 -31.729634 41.177424 -0.745414 2.450514 0.047026 -0.020475 274821.000000 0 0 1
19.460070 -18.469985 -32.979094 42.514177 -0.759301 2.458651 0.049225 -0.017234 621426.000000 0 0 1
18.239370 -19.088485 -33.385884 42.563624 -0.808142 2.472486 0.053602 -0.022404 269028.000000 0 0 1
18.368770 -20.036985 33.862434 43.423000 -0.828807 0.676407 0.069127 -0.018308 150810.000000 0 0 1
19.194870 -21.174285 34.159603 44.538431 -0.834392 0.696692 0.070299 -0.011438 212769.000000 0 0 1
19.585070 -21.819585 32.998230 44.142411 -0.839314 0.726445 0.056144 -0.011270 131816.000000 0 0 1
20.625870 -22.961985 33.215205 45.342354 -0.838942 0.748747 0.048634 -0.011200 216734.000000 0 0 1
20.181170 -23.976785 34.119117 46.327961 -0.871143 0.742960 0.059441 -0.017884 -35054.200000 0 0 1
20.290570 -23.686885 -32.971704 45.386220 -0.862474 2.383967 0.060482 -0.023267 -495051.000000 0 0 1
19.456970 -24.527685 -32.028304 44.788316 -0.900175 2.367569 0.061753 -0.024159 -314590.000000 0 0 1
19.739470 -25.897675 -32.027344 45.673701 -0.919526 2.347905 0.057982 -0.028915 -188474.000000 0 0 1
20.699270 -26.351595 -31.107664 45.722566 -0.904957 2.319046 0.045854 -0.030799 -259002.000000 0 0 1
20.808970 -27.850835 -30.949624 46.546336 -0.929117 2.298184 0.047477 -0.034761 -391452.000000 0 0 1
19.625870 -28.478625 -30.534394 46.136277 -0.967394 2.294054 0.045398 -0.031309 -239956.000000 0 0 1
19.869670 -29.849285 -30.476504 47.059546 -0.983486 2.275248 0.046241 -0.028811 79817.800000 0 0 1
18.669470 -30.701595 -29.970344 46.790581 -1.024446 2.265973 0.052263 -0.026175 955037.000000 0 0 1
17.432170 -30.783405 -30.678744 46.826102 -1.055537 2.285195 0.057137 -0.034851 479679.000000 0 0 1
17.515970 -31.324025 -31.987054 48.074685 -1.060928 2.298775 0.059976 -0.037349 98801.200000 0 0 1
16.111970 -31.897185 -32.394704 48.233212 -1.103060 2.307198 0.068529 -0.045377 728586.000000 0 0 1
15.276370 -30.977625 -33.043864 47.800394 -1.112650 2.334067 0.071466 -0.038900 487716.000000 0 0 1
13.988070 -31.562895 -33.335724 47.991175 -1.153628 2.338691 0.056610 -0.027637 1041850.000000 0 0 1
13.088070 -30.648425 -34.211890 47.760621 -1.167200 2.369310 0.060841 -0.014917 128041.000000 0 0 1
12.527970 -29.525995 -33.578604 46.435515 -1.169516 2.379110 0.079928 -0.026427 -538421.000000 0 0 1
11.608670 -28.852835 34.140243 46.182285 -1.188274 0.738841 0.063802 -0.015926 -946290.000000 0 0 1
10.606270 -28.017935 -33.558394 44.985146 -1.208914 2.412814 0.069916 -0.020148 -681375.000000 0 0 1
9.621770 -28.784715 -32.940824 44.791027 -1.248206 2.397103 0.064013 -0.012798 -155740.000000 0 0 1
8.742070 -27.864705 -32.251694 43.509048 -1.266789 2.405748 0.043856 -0.008067 724064.000000 0 0 1
7.713270 -28.657875 -31.365544 43.180616 -1.307877 2.383837 0.023415 -0.007045 872416.000000 0 0 1
6.503570 -29.266465 -31.812174 43.713119 -1.352130 2.385830 0.025341 -0.003520 620620.000000 0 0 1
6.702970 -30.473345 -32.611264 45.133680 -1.354283 2.378278 0.026410 -0.004706 111369.000000 0 0 1
5.337070 -31.007955 -33.126294 45.687295 -1.400347 2.381926 0.048073 -0.010891 408395.000000 0 0 1
4.645770 -31.630975 -32.058044 45.274937 -1.424965 2.357564 0.054133 -0.019468 -266593.000000 0 0 1
3.518570 -32.303815 -32.554074 45.996570 -1.462303 2.357105 0.064195 -0.025572 -728313.000000 0 0 1
2.680870 -32.943975 -31.405764 45.594018 -1.489599 2.330647 0.057127 -0.038093 474017.000000 0 0 1
1.735070 -32.097615 -30.754754 44.487326 -1.516793 2.334104 0.043788 -0.037273 1038350.000000 0 0 1
0.493670 -31.882735 -31.446914 44.784605 -1.555314 2.349253 0.029629 -0.004984 306553.000000 0 0 1
-0.294130 -30.620605 -31.084194 43.634104 1.561191 2.363684 0.013196 0.004207 362825.000000 0 0 1
-1.021330 -30.762315 -29.810774 42.849100 1.537608 2.340212 0.006135 -0.004295 372723.000000 0 0 1
-1.527130 -29.511595 -29.415804 41.695993 1.519096 2.353900 0.030352 -0.003696 87995.900000 0 0 1
-2.301130 -29.599635 -28.058414 40.849824 1.493211 2.327966 0.030810 -0.005031 -281633.000000 0 0 1
-1.461130 -29.915845 -26.992394 40.319747 1.521994 2.304276 0.028153 -0.007087 -161871.000000 0 0 1
-2.152630 -30.025765 -25.742544 39.608824 1.499226 2.278275 0.041129 -0.010402 114074.000000 0 0 1
-1.195530 -30.336855 -24.596914 39.073805 1.531408 2.251704 0.028156 -0.010096 138530.000000 0 0 1
-1.893730 -30.268275 -23.388614 38.298589 1.508313 2.227730 0.051879 -0.010692 -351172.000000 0 0 1
-1.049530 -30.767905 -22.387514 38.065289 1.536698 2.199547 0.041999 -0.005899 -34622.600000 0 0 1
-1.455930 -30.602795 -20.877214 37.074369 1.523257 2.168949 0.023075 0.006259 -89833.500000 0 0 1
-1.397230 -29.228505 -20.450214 35.699705 1.523029 2.180763 0.022196 -0.007699 70876.300000 0 0 1
-0.093830 -28.822345 -20.080214 35.127643 1.567541 2.179294 0.037952 -0.022056 98850.200000 0 0 1
-0.079630 -27.517945 -19.313214 33.619099 1.567903 2.182755 0.045046 -0.022538 289483.000000 0 0 1
-0.860130 -27.557315 -18.076114 32.968034 1.539594 2.151117 0.046520 -0.023582 495920.000000 0 0 1
-0.647830 -26.406725 -17.261314 31.554520 1.546268 2.149610 0.055311 -0.022138 -194092.000000 0 0 1
-1.621630 -26.285415 -16.070414 30.851433 1.509181 2.118698 0.043870 -0.018093 -138978.000000 0 0 1
-1.611230 -25.001785 -15.463914 29.441772 1.506441 2.123790 0.034479 -0.010034 -484273.000000 0 0 1
-2.602530 -24.911285 -14.514014 28.948262 1.466702 2.095987 0.032689 -0.008774 -614813.000000 0 0 1
-2.465230 -23.657485 -13.592414 27.395395 1.466966 2.089963 0.031030 -0.002908 -110138.000000 0 0 1
-1.446830 -23.815885 -12.636314 26.999372 1.510120 2.057848 0.031564 -0.004138 -230285.000000 0 0 1
-1.238630 -22.633585 -11.850314 25.578180 1.516126 2.052509 0.030779 0.000514 535502.000000 0 0 1
0.036770 -22.709885 -10.951214 25.212483 -1.569177 2.020120 0.024662 -0.000290 568736.000000 0 0 1
0.221370 -21.511685 -10.182614 23.800992 -1.560506 2.012879 0.015249 -0.002779 -4641.370000 0 1 0
1.513170 -21.490585 -9.595014 23.583876 -1.500502 1.989795 0.018819 -0.002953 586788.000000 0 1 0
2.129570 -20.104285 -9.282114 22.245785 -1.465264 2.001216 0.018484 0.001724 -1172470.000000 0 1 0
2.711170 -19.506785 -10.417814 22.279945 -1.432695 2.057355 0.010663 0.014645 -39995.300000 0 1 0
3.503370 -18.356385 -10.173414 21.277425 -1.382211 2.069323 0.006799 0.008363 -448005.000000 0 1 0
4.854570 -18.657285 -9.562114 21.519645 -1.316244 2.031238 0.017987 -0.007599 -1480910.000000 0 1 0
4.749670 -19.250385 -8.304514 21.496549 -1.328897 1.967433 0.022663 -0.007030 -43108.400000 0 1 0
5.915170 -19.982885 -7.895414 22.285477 -1.283002 1.932946 0.026383 -0.011197 449516.000000 0 1 0
5.471870 -21.097885 -6.939814 22.874071 -1.317031 1.879047 0.031595 -0.005582 147372.000000 0 1 0
4.704070 -22.086885 -7.621114 23.833592 -1.360951 1.896276 0.030946 -0.006614 69286.500000 0 1 0
4.351770 -23.077385 -6.693014 24.419255 -1.384412 1.848437 0.043129 -0.007945 -186945.000000 0 1 0
3.335270 -24.086585 -7.237314 25.370579 -1.433201 1.860078 0.041660 -0.012784 126004.000000 0 0 1
3.867670 -24.925785 -8.216114 26.528440 -1.416857 1.885684 0.039515 -0.011655 238325.000000 0 0 1
2.756270 -25.547495 -8.836114 27.172567 -1.463324 1.902004 0.024066 -0.008521 608742.000000 0 0 1
3.156470 -26.326295 -10.144914 28.389371 -1.451468 1.936224 0.024812 -0.014885 -128688.000000 0 0 1
3.942570 -27.444925 -9.833914 29.418933 -1.428119 1.911629 0.034957 -0.020469 -218705.000000 0 0 1
4.494570 -28.062345 -10.956614 30.458886 -1.411981 1.938762 0.047941 -0.017795 100283.000000 0 0 1
4.638370 -29.601295 -10.825914 31.858304 -1.415365 1.917516 0.055707 -0.024220 -481048.000000 0 0 1
3.432670 -30.271485 -11.043614 32.405361 -1.457882 1.918560 0.059848 -0.019558 -352804.000000 0 0 1
3.440870 -31.656905 -10.912914 33.661415 -1.462529 1.900959 0.074220 -0.019474 -842252.000000 0 0 1
2.238670 -32.342955 -11.495614 34.398074 -1.501690 1.911546 0.057427 -0.017815 -791041.000000 0 0 1
2.081970 -32.236005 -12.912814 34.788437 -1.506301 1.951077 0.063186 -0.017579 471132.000000 0 0 1
1.132770 -33.166295 -13.422814 35.797461 -1.536655 1.955156 0.039625 -0.008919 120586.000000 0 0 1
0.752870 -32.918465 -14.932114 36.154670 -1.547930 1.996549 0.042327 0.000837 3663.090000 0 0 1
-0.040830 -31.776425 -15.170814 35.212163 1.569511 2.016220 0.033344 -0.008156 -27534.000000 0 0 1
-0.337730 -31.594605 -16.552014 35.669346 1.560107 2.053347 0.021326 -0.006027 477959.000000 0 0 1
-1.645430 -30.768115 -16.760214 35.075477 1.517369 2.068982 0.020534 0.004918 726033.000000 0 0 1
-2.853630 -31.387225 -16.368614 35.513837 1.480129 2.049814 0.024372 -0.005923 -14410.700000 0 0 1
-3.973730 -30.892885 -17.055314 35.511189 1.442869 2.071770 0.040620 -0.005737 228452.000000 0 0 1
-5.346830 -30.981985 -16.369014 35.445967 1.399901 2.050822 0.037904 -0.008023 -312873.000000 0 0 1
-5.537230 -29.892995 -15.482414 34.116817 1.387637 2.041828 0.024811 -0.003349 -90945.700000 0 0 1
-6.860730 -29.726105 -15.026614 34.007500 1.343970 2.028469 0.030378 -0.009198 46446.300000 0 0 1
-7.468630 -30.793155 -14.041714 34.657878 1.332849 1.987942 0.018276 -0.013902 -186688.000000 0 0 1
-7.694030 -32.050095 -14.594114 36.047119 1.335192 1.987624 0.021161 -0.011005 -150726.000000 0 0 1
-8.396930 -32.771705 -13.591114 36.458352 1.319967 1.952804 0.025376 -0.011436 196605.000000 0 0 1
-9.013930 -34.118327 -14.079414 37.993960 1.312502 1.950419 0.054292 -0.017415 -417664.000000 0 0 1
-8.119730 33.530017 -14.328514 37.356370 -1.333207 1.964447 0.042684 -0.011265 189701.000000 0 0 1
-8.903830 32.372370 -14.671214 36.640047 -1.302389 1.982766 0.065792 -0.023053 423785.000000 0 0 1
-6.812230 -21.950185 -3.356614 23.226794 1.269872 1.715819 0.013752 -0.010597 228593.000000 0 1 0
-7.038630 -20.945585 -4.331014 22.517049 1.246609 1.764346 0.015403 -0.007159 -479420.000000 0 1 0
-5.816230 -20.713485 -4.960514 22.079032 1.297051 1.797401 0.009497 -0.014083 -132797.000000 0 1 0
-5.959430 -19.717685 -6.110014 21.485673 1.277288 1.859152 0.015605 -0.016091 -119960.000000 0 1 0
-6.598530 -20.228885 -7.223414 22.470560 1.255485 1.898069 0.006588 -0.004540 -560221.000000 0 1 0
-6.850530 -19.160685 -8.084814 21.895794 1.227429 1.948988 0.013453 -0.011144 146937.000000 0 1 0
-7.792230 -19.456985 -9.292414 22.926885 1.189872 1.988110 0.022651 -0.008149 119611.000000 0 1 0
-7.225330 -20.272085 -10.255114 23.839676 1.228416 2.015477 0.025274 -0.000733 497955.000000 0 1 0
-8.127630 -20.488585 -11.422914 24.825862 1.193146 2.048928 0.040404 0.002651 942377.000000 0 1 0
-7.487830 -21.465585 -12.430214 25.910406 1.235165 2.071153 0.031300 -0.000025 608758.000000 0 0 1
-6.297230 -21.012485 -13.088314 25.543758 1.279624 2.108760 0.032813 0.001229 340545.000000 0 0 1
-6.174330 -21.656385 -14.313814 26.683452 1.293061 2.136998 0.024942 0.001819 -9675.540000 0 0 1
-5.237830 -20.860585 -15.229714 26.354184 1.324794 2.186932 0.029546 0.007106 -730107.000000 0 0 1
-3.893730 -20.870785 -14.836514 25.901215 1.386353 2.180728 0.036507 0.000075 -136364.000000 0 0 1
-3.009630 -20.014585 -15.560014 25.529502 1.421543 2.226215 0.043261 0.008069 275438.000000 0 0 1
-3.358030 -18.472985 -15.565414 24.388719 1.390979 2.262983 0.035491 0.013051 -1074760.000000 0 1 0
-4.446530 -18.078485 -16.355014 24.780833 1.329626 2.291597 0.042742 0.016095 -619671.000000 0 1 0
-4.255330 -18.215985 -17.765614 25.798197 1.341308 2.330405 0.053306 0.008873 -294112.000000 0 0 1
-5.535730 -17.949885 -18.588914 26.427077 1.271652 2.350972 0.039649 0.025099 1223730.000000 0 0 1
-6.556530 -18.971185 -18.289314 27.154980 1.238043 2.309752 0.037620 0.025306 251529.000000 0 0 1
-7.755130 -18.825285 -18.975714 27.831836 1.180028 2.321015 0.034634 0.021872 -428760.000000 0 0 1
-8.878430 -19.674085 -18.375314 28.346927 1.146882 2.276053 0.042050 0.005562 -343397.000000 0 0 1
-8.568230 -21.038885 -18.492414 29.291954 1.184050 2.254042 0.044182 0.010894 420952.000000 0 0 1
-9.451530 -21.888385 -17.753114 29.725508 1.163175 2.210846 0.044890 -0.003769 -174865.000000 0 0 1
-9.027630 -23.302285 -17.870714 30.722255 1.201187 2.191597 0.048697 -0.009285 -746881.000000 0 0 1
-9.133930 -23.730085 -19.200414 31.862226 1.203366 2.217561 0.041984 -0.010621 430143.000000 0 0 1
-8.232630 -24.783585 -19.504514 32.594912 1.250083 2.212288 0.072278 -0.027664 -277374.000000 0 0 1
-6.727430 -24.567085 -19.488414 32.071767 1.303510 2.223895 0.087120 -0.027707 -1483580.000000 0 0 1
-6.110530 -23.769685 -20.451614 31.946909 1.319172 2.265522 0.089736 -0.012758 10146.900000 0 0 1
-5.903330 -22.401485 -20.182414 30.724675 1.313130 2.287469 0.072417 -0.010114 -309213.000000 0 0 1
-4.883730 -22.113385 -19.056514 29.597353 1.353436 2.270327 0.090080 0.000566 -116931.000000 0 0 1
-3.564630 -22.363085 -19.495414 29.881186 1.412728 2.281584 0.077103 -0.008370 -228184.000000 0 0 1
-2.577230 -22.109785 -18.526614 28.960665 1.454755 2.264926 0.045916 -0.002749 549457.000000 0 0 1
-1.303030 -23.015085 -18.677514 29.668865 1.514240 2.251748 0.057074 -0.005139 942756.000000 0 0 1
-0.363630 -22.380785 -19.573014 29.734401 1.554550 2.289303 0.060404 -0.005119 85662.200000 0 0 1
0.896370 -23.024285 -19.484114 30.175352 -1.531884 2.272731 0.040565 -0.008145 1023610.000000 0 0 1
2.020570 -22.398185 -20.418214 30.375398 -1.480829 2.307967 0.047240 -0.009345 788531.000000 0 0 1
1.718670 -22.491685 -21.778714 31.355096 -1.494531 2.338636 0.046944 -0.020611 -237004.000000 0 0 1
1.173270 -21.335685 -22.338514 30.912735 -1.515861 2.378398 0.050265 -0.011523 -342017.000000 0 0 1
0.802070 -21.516685 -23.828414 32.115484 -1.533537 2.406786 0.059974 -0.015305 -136179.000000 0 0 1
0.391670 -20.360685 -24.549514 31.896544 -1.551562 2.449106 0.047725 -0.010183 -120346.000000 0 0 1
-1.005030 -20.159185 -24.453914 31.707991 1.520983 2.451556 0.045639 -0.010134 -89597.900000 0 0 1
-1.511630 -19.111885 -25.465264 31.875207 1.491867 2.496269 0.037180 0.002166 -136720.000000 0 0 1
-0.993230 -17.834485 -25.111014 30.815878 1.515162 2.523306 0.032769 -0.001209 -207747.000000 0 0 1
-1.743430 -16.762785 -25.539564 30.599016 1.467163 2.558299 0.034743 -0.004631 -665493.000000 0 0 1
-1.199530 -15.422385 -25.062614 29.452053 1.493174 2.588613 0.040879 -0.001963 -153619.000000 0 0 1
-0.045630 -15.117585 -25.829094 29.928006 1.567778 2.612055 0.045951 -0.009929 -186651.000000 0 0 1
0.667970 -13.960285 -25.436144 29.022976 -1.522985 2.639161 0.043049 -0.014214 323751.000000 0 0 1
0.094670 -12.555785 -25.816964 28.708401 -1.563257 2.688923 0.047646 -0.012498 483821.000000 0 0 1
1.121970 -11.550985 -25.628324 28.133521 -1.473968 2.716385 0.037358 -0.010469 768693.000000 0 0 1
0.807270 -10.340585 -26.209234 28.186935 -1.492886 2.764764 0.031525 -0.009276 -945735.000000 0 0 1
1.783970 -9.258085 -25.765884 27.436753 -1.380436 2.790801 0.050756 -0.019305 1161390.000000 0 0 1
3.145470 -9.337885 -26.258944 28.046786 -1.245884 2.782611 0.057582 -0.016542 871311.000000 0 0 1
3.392370 -9.434085 -27.664394 29.424969 -1.225607 2.793917 0.050256 -0.013360 -233212.000000 0 0 1
4.801270 -8.961285 -28.135284 29.915732 -1.078937 2.794850 0.040051 -0.010707 94352.800000 0 0 1
4.968170 -7.595085 -28.257964 29.679632 -0.991524 2.830826 0.040944 -0.010213 184588.000000 0 0 1
6.240870 -7.233385 -28.777504 30.321857 -0.858925 2.821061 0.031655 -0.008554 18823.100000 0 0 1
7.434170 -7.056585 -27.796554 29.626182 -0.759347 2.788312 0.038958 -0.015383 145138.000000 0 0 1
7.933170 -8.303485 -27.255794 29.576364 -0.808202 2.742824 0.032052 -0.017475 510803.000000 0 0 1
8.740670 -9.067585 -28.151254 30.840128 -0.803754 2.720915 0.037492 -0.014814 -415970.000000 0 0 1
9.108270 -10.506985 -27.704594 30.998416 -0.856585 2.676416 0.034390 -0.014063 -482521.000000 0 0 1
7.965870 -11.290285 -27.531964 30.804783 -0.956355 2.676447 0.033729 -0.019968 -414504.000000 0 0 1
8.042270 -12.515785 -26.801724 30.653798 -0.999662 2.634863 0.034549 -0.017290 -550102.000000 0 0 1
8.990170 -13.564285 -27.362544 31.835857 -0.985488 2.605064 0.032278 -0.023384 -417084.000000 0 0 1
8.527170 -14.205085 -28.529904 32.991703 -1.030164 2.615469 0.043289 -0.029810 -264956.000000 0 0 1
9.392170 -15.265285 -28.803124 33.924353 -1.019229 2.584961 0.042771 -0.033985 -76927.300000 0 0 1
8.803170 -16.141385 -29.910584 35.109587 -1.071508 2.590438 0.053024 -0.034499 -139657.000000 0 0 1
8.666170 -15.472985 -31.143114 35.838656 -1.060244 2.623936 0.048280 -0.029346 135402.000000 0 0 1
8.037670 -16.411285 -32.008814 36.857815 -1.115370 2.622844 0.059701 -0.030584 -248862.000000 0 0 1
6.735370 -15.830185 -32.591314 36.853137 -1.168522 2.655910 0.062478 -0.024053 -300502.000000 0 0 1
6.935370 -14.745285 -33.486194 37.240407 -1.131153 2.688711 0.071201 -0.023664 270984.000000 0 0 1
5.713470 -14.283485 -34.044194 37.358651 -1.190285 2.717178 0.050756 -0.027344 396611.000000 0 0 1
5.911470 -12.871485 33.798361 36.646279 -1.140261 0.396842 0.084855 -0.023086 -179181.000000 0 0 1
6.468070 -12.909485 32.512448 35.574569 -1.106323 0.417948 0.079411 -0.014986 -71367.700000 0 0 1
6.612570 -11.641685 31.946107 34.638254 -1.054233 0.396863 0.075218 -0.021180 -310506.000000 0 0 1
7.166570 -11.658385 30.516797 33.444769 -1.019628 0.421556 0.054995 -0.021088 25747.800000 0 0 1
6.280170 -12.221285 29.564977 32.601966 -1.096113 0.435056 0.062439 -0.018634 -25882.500000 0 0 1
6.720670 -12.003485 28.261077 31.431505 -1.060389 0.453014 0.048041 -0.021863 -226946.000000 0 0 1
6.139770 -12.754085 27.042017 30.522682 -1.122142 0.482226 0.043576 -0.029982 -259515.000000 0 0 1
6.339070 -14.085885 27.057087 31.155768 -1.147917 0.518738 0.053173 -0.022024 -224215.000000 0 0 1
6.064170 -14.740785 25.898587 30.410552 -1.180512 0.551706 0.039102 -0.021746 906080.000000 0 0 1
4.585070 -15.228385 25.593817 30.132541 -1.278343 0.555997 0.034735 -0.028771 1094890.000000 0 0 1
3.664670 -14.166585 25.485977 29.388041 -1.317661 0.521199 0.016689 -0.030024 744944.000000 0 0 1
2.361770 -14.657985 25.058267 29.126469 -1.411044 0.534887 0.018837 -0.026940 1225880.000000 0 0 1
1.354370 -13.511785 24.919407 28.379209 -1.470894 0.498947 0.017874 -0.021934 -446265.000000 0 0 1
1.639170 -12.737185 23.736067 26.987472 -1.442808 0.495940 -0.003196 -0.003330 343679.000000 0 0 1
0.845370 -11.514585 23.617137 26.288200 -1.497510 0.454699 0.002814 0.003637 2029710.000000 0 0 1
-0.715230 -11.713585 23.361767 26.143676 1.509812 0.465513 0.028941 -0.000837 670031.000000 0 0 1
-0.901630 -12.395785 22.124667 25.376550 1.498187 0.511820 0.028752 -0.001380 1490070.000000 0 0 1
-2.246130 -12.929185 21.842667 25.481582 1.398787 0.541000 0.041269 -0.010009 1710590.000000 0 0 1
-2.415930 -13.522285 20.462667 24.645682 1.393999 0.591197 0.044788 -0.019093 -1431.710000 0 1 0
-1.444130 -14.507385 20.218367 24.926534 1.471579 0.624735 0.053910 -0.023753 -696327.000000 0 1 0
-1.646630 -15.298885 19.036267 24.477474 1.463578 0.679789 0.055900 -0.030032 -108454.000000 0 1 0
-2.666930 -16.454885 19.108467 25.357627 1.410118 0.717337 0.027926 -0.026440 262499.000000 0 0 1
-2.368730 -17.432885 18.099767 25.241195 1.435746 0.771203 0.015042 -0.016141 -64858.800000 0 0 1
-3.316430 -18.491785 18.247767 26.190185 1.393337 0.799953 0.016647 -0.007912 346375.000000 0 0 1
-2.946330 -19.835585 17.565967 26.658854 1.423337 0.851418 0.019512 -0.005875 589820.000000 0 0 1
-1.801030 -20.512085 18.094667 27.411791 1.483218 0.849837 0.025853 -0.017104 210272.000000 0 0 1
-1.925630 -21.912885 17.842367 28.323711 1.483145 0.889315 0.019690 -0.023742 -30641.800000 0 0 1
-0.714130 -22.652385 18.437767 29.216293 1.539281 0.887854 0.039321 -0.018724 -245147.000000 0 0 1
0.456470 -22.526985 17.718367 28.663809 -1.550536 0.904417 0.071735 -0.022806 -1009360.000000 0 0 1
1.422970 -23.515785 17.968467 29.629087 -1.510359 0.919212 0.079251 -0.023519 228331.000000 0 0 1
2.623270 -23.442285 16.981867 29.065548 -1.459357 0.946827 0.078626 -0.028359 228580.000000 0 0 1
3.443570 -22.342985 17.307467 28.471311 -1.417876 0.917394 0.070744 -0.027015 -758039.000000 0 0 1
4.515270 -22.173085 16.432167 27.965147 -1.369906 0.942714 0.063234 -0.020841 162194.000000 0 0 1
5.217970 -20.770885 16.831067 27.238606 -1.324674 0.904712 0.059010 -0.021558 -591389.000000 0 0 1
5.897770 -20.951985 18.040167 28.270426 -1.296407 0.878731 0.060896 -0.017283 -296116.000000 0 0 1
6.345770 -19.675485 18.611567 27.816972 -1.258808 0.837836 0.057374 -0.020124 1035080.000000 0 0 1
7.354370 -18.804585 17.732567 26.872720 -1.197991 0.850147 0.073022 -0.020893 -189872.000000 0 0 1
6.739370 -18.046685 16.733367 25.516808 -1.213393 0.855583 0.062663 -0.023980 -95706.100000 0 0 1
7.675970 -17.234385 16.027867 24.755546 -1.151785 0.866569 0.066963 -0.017475 113683.000000 0 1 0
7.087870 -16.348885 14.919867 23.240619 -1.161716 0.873727 0.043237 -0.011196 -260821.000000 0 1 0
6.471770 -17.053885 13.894367 22.929723 -1.208095 0.919831 0.046442 -0.012329 11065.700000 0 1 0
5.829670 -16.162185 12.987667 21.537891 -1.224623 0.923521 0.034869 -0.016391 115671.000000 0 1 0
6.154670 -16.441985 11.500367 20.987550 -1.212616 0.990871 0.032997 -0.011580 -255179.000000 0 1 0
7.507970 -16.162085 11.293967 21.098253 -1.135915 1.005929 0.044555 -0.007116 -460480.000000 0 1 0
7.947870 -16.335385 9.966167 20.720471 -1.117972 1.069022 0.047059 -0.010422 -261773.000000 0 1 0
9.421070 -15.962985 9.830467 20.981218 -1.037627 1.083163 0.051266 -0.006418 -208574.000000 0 1 0
10.094670 -16.632785 8.779267 21.345431 -1.025309 1.146922 0.051796 -0.003518 -441850.000000 0 1 0
11.435970 -16.217085 8.759467 21.691093 -0.956602 1.155099 0.049555 -0.003587 -13163.300000 0 1 0
12.453870 -16.995085 7.918767 22.508635 -0.938399 1.211292 0.060416 -0.015280 53467.000000 0 1 0
12.682970 -18.300285 8.426067 23.806653 -0.964752 1.209019 0.070228 -0.018703 81832.300000 0 1 0
13.582770 -19.004085 7.566467 24.553987 -0.950253 1.257542 0.075793 -0.022282 383280.000000 0 1 0
14.220770 -20.164685 8.345467 26.047872 -0.956568 1.244656 0.072998 -0.024305 -203981.000000 0 0 1
13.236170 -21.093085 8.693667 26.376017 -1.010392 1.234911 0.075413 -0.022949 -203093.000000 0 0 1
13.819770 -22.134385 9.425567 27.744519 -1.012659 1.224170 0.060030 -0.014009 611188.000000 0 0 1
12.757570 -23.163085 10.011767 28.275777 -1.067361 1.208871 0.059276 -0.015854 675228.000000 0 0 1
12.426070 -22.692885 11.307367 28.235275 -1.069816 1.158767 0.063105 -0.021170 -400394.000000 0 0 1
11.458570 -23.349985 12.104767 28.688778 -1.114591 1.135219 0.073780 -0.019186 58967.900000 0 0 1
11.713070 -24.839285 12.465267 30.159061 -1.130163 1.144702 0.053743 -0.025152 -524314.000000 0 0 1
12.718570 -24.973785 13.411067 31.069417 -1.099755 1.124477 0.035552 -0.021597 -456271.000000 0 0 1
12.611770 -26.261565 13.974467 32.311178 -1.123084 1.123537 0.036727 -0.028228 -516923.000000 0 0 1
13.755470 -26.601745 14.911267 33.454621 -1.093571 1.108822 0.031516 -0.021504 -357813.000000 0 0 1
13.748570 -25.795665 16.092467 33.367754 -1.081114 1.067545 0.031727 -0.011563 235159.000000 0 0 1
14.643370 -26.308075 17.056967 34.604670 -1.062891 1.055366 0.031874 -0.007207 -270199.000000 0 0 1
14.358570 -25.588875 18.454367 34.662987 -1.059452 1.009370 0.033313 -0.001034 -242749.000000 0 0 1
14.852870 -24.281085 18.700067 34.056884 -1.021814 0.989529 0.032164 -0.005638 604687.000000 0 0 1
16.273770 -24.292885 18.883567 34.807599 -0.980560 0.997371 0.040030 -0.002384 291697.000000 0 0 1
16.928670 -22.951385 19.128267 34.340013 -0.935286 0.979996 0.038980 -0.006558 -250465.000000 0 0 1
16.956870 -22.005985 18.050967 33.130593 -0.914268 0.994595 0.033939 -0.006235 -1091490.000000 0 0 1
15.752470 -21.401485 17.856767 32.016058 -0.936286 0.979131 0.048270 -0.005348 -1648140.000000 0 0 1
15.786570 -20.252785 16.818667 30.696232 -0.908696 0.990937 0.029546 -0.009663 205537.000000 0 0 1
16.499770 -19.077185 17.245967 30.554946 -0.857718 0.971060 0.028533 -0.006588 997588.000000 0 0 1
17.912870 -19.174285 17.005867 31.268572 -0.819397 0.995761 0.023431 -0.009058 687343.000000 0 0 1
18.791270 -17.947185 17.382767 31.262979 -0.762427 0.981210 0.031052 -0.009321 -286807.000000 0 0 1
18.881670 -17.847185 18.779467 32.057883 -0.757240 0.944931 0.031880 -0.013195 217949.000000 0 0 1
19.435470 -16.571885 19.088767 31.886453 -0.706037 0.928984 0.039282 -0.018138 -252089.000000 0 0 1
19.857270 -16.378185 20.545867 32.934613 -0.689678 0.897152 0.037223 -0.012452 221926.000000 0 0 1
21.112170 -16.991885 20.801867 34.163804 -0.677684 0.916141 0.032775 -0.007485 123804.000000 0 0 1
21.550270 -16.909985 22.149367 35.227208 -0.665327 0.890842 0.032798 -0.001377 196479.000000 0 0 1
33.080031 -1.850585 -8.182614 34.127237 -0.055884 1.812923 0.129368 -0.031548 -413885.000000 0 0 1
34.369511 -1.303285 -8.402714 35.405755 -0.037902 1.810409 0.115350 -0.037661 -563399.000000 0 0 1
35.206981 -2.385385 -8.451214 36.285598 -0.067650 1.805863 0.124307 -0.048085 -1315040.000000 0 0 1
-35.497515 -1.898985 -8.850514 36.633473 0.053445 1.814807 0.094785 -0.047638 -286356.000000 0 0 1
-34.532818 -2.900785 -8.571614 35.698776 0.083804 1.813275 0.100414 -0.045239 713330.000000 0 0 1
-33.186440 -2.608285 -8.950114 34.470966 0.078434 1.833448 0.143835 -0.047380 644229.000000 0 0 1
-32.153350 -3.728185 -8.765614 33.534658 0.115435 1.835258 0.139795 -0.044623 -228591.000000 0 0 1
-31.735300 -3.849285 -7.384014 32.809601 0.120704 1.797797 0.116214 -0.045813 956171.000000 0 0 1
-30.401750 -4.380585 -7.337414 31.579955 0.143105 1.805283 0.109619 -0.045113 852130.000000 0 0 1
-29.800860 -4.446185 -5.872614 30.697678 0.148104 1.763288 0.097120 -0.052859 -80609.800000 0 0 1
-29.522210 -3.149585 -5.383614 30.173897 0.106283 1.750176 0.093904 -0.048430 445005.000000 0 0 1
-29.648530 -3.190585 -3.992614 30.085813 0.107201 1.703896 0.090701 -0.047736 -275339.000000 0 0 1
-29.550320 -1.756885 -3.418614 29.799245 0.059384 1.685771 0.096145 -0.046131 430721.000000 0 0 1
-28.240400 -1.167285 -3.573514 28.489520 0.041310 1.696560 0.085004 -0.039220 1345910.000000 0 0 1
-28.141190 0.132615 -3.076914 28.309213 -0.004712 1.679701 0.094478 -0.046502 -539709.000000 0 0 1
-26.690100 0.465315 -2.666914 26.827046 -0.017432 1.670372 0.105554 -0.030733 -169556.000000 0 0 1
-26.239990 -0.277385 -1.536214 26.286384 0.010571 1.629271 0.077183 -0.034577 280527.000000 0 0 1
-24.875630 0.038715 -1.402814 24.915183 -0.001556 1.627130 0.084938 -0.027154 -326295.000000 0 1 0
-24.091530 -0.664085 -0.296714 24.102508 0.027558 1.583107 0.064252 -0.023396 -274966.000000 0 1 0
-24.058630 -2.087985 -0.353614 24.151654 0.086570 1.585438 0.062269 -0.025947 691661.000000 0 1 0
-23.199930 -2.659385 0.641686 23.360669 0.114131 1.543324 0.055490 -0.019336 -281796.000000 0 1 0
-23.341330 -4.182285 0.689086 23.723070 0.177298 1.541745 0.052936 -0.015420 1268680.000000 0 1 0
-24.642630 -4.700685 1.126286 25.112232 0.188490 1.525931 0.047817 -0.018609 1710740.000000 0 0 1
-24.574130 -6.112585 1.070086 25.345545 0.243793 1.528564 0.033058 -0.006000 124648.000000 0 0 1
-25.855180 -6.772985 1.644786 26.778144 0.256202 1.509335 0.044994 -0.011120 151334.000000 0 0 1
-25.852040 -6.719985 3.047586 26.884456 0.254312 1.457193 0.045129 -0.010841 -378466.000000 0 0 1
-27.028330 -7.326985 3.441786 28.214557 0.264723 1.448506 0.053700 -0.002363 -681268.000000 0 0 1
-27.155310 -7.641485 4.942586 28.639698 0.274306 1.397350 0.049385 -0.010195 156588.000000 0 0 1
-26.317360 -8.757685 5.324186 28.242653 0.321245 1.381146 0.063023 0.005717 573437.000000 0 0 1
-26.384150 -9.082185 6.705786 28.698032 0.331524 1.334949 0.051718 0.005860 76739.000000 0 0 1
-25.825230 -7.916985 7.721686 28.093515 0.297464 1.292356 0.049770 0.013455 -653167.000000 0 0 1
-24.452530 -7.772585 7.579486 26.754213 0.307764 1.283562 0.075930 -0.006079 -849580.000000 0 0 1
-24.036430 -6.437185 7.772986 26.069266 0.261669 1.268025 0.070674 -0.004407 1006800.000000 0 0 1
-22.517030 -6.236385 7.359386 24.496320 0.270190 1.265655 0.084771 -0.005922 1189620.000000 0 1 0
-21.613330 -6.594985 8.370686 24.097681 0.296161 1.216037 0.102299 -0.019705 815658.000000 0 1 0
-20.252830 -6.692585 7.900486 22.746110 0.319155 1.216070 0.089917 -0.014853 1159680.000000 0 1 0
-19.237130 -7.000285 9.027086 22.373186 0.348999 1.155482 0.105086 -0.013981 81858.500000 0 1 0
-19.134930 -5.994085 9.941386 22.380924 0.303571 1.110526 0.094901 -0.011306 -99237.000000 0 1 0
-17.987330 -6.133685 10.731686 21.825105 0.328635 1.056740 0.078758 -0.018676 -65070.700000 0 1 0
-17.704330 -4.854285 11.550886 21.689407 0.267610 1.009175 0.062288 -0.014035 -3016.900000 0 1 0
-18.704430 -4.729785 12.526586 23.003085 0.247678 0.994931 0.070287 -0.016611 46912.500000 0 1 0
-18.963630 -3.384085 12.872586 23.168400 0.176592 0.981700 0.082376 -0.018187 1057110.000000 0 1 0
-20.118130 -3.357985 13.998886 24.738311 0.165389 0.969298 0.074089 -0.020191 825754.000000 0 1 0
-19.795330 -3.950285 15.222686 25.282208 0.196969 0.924654 0.071041 -0.019536 226217.000000 0 0 1
-20.997030 -4.077185 15.962786 26.689122 0.191792 0.929667 0.060894 -0.014771 314468.000000 0 0 1
-20.818530 -4.948085 17.221386 27.467633 0.233347 0.893138 0.047178 -0.002580 -463920.000000 0 0 1
-21.906330 -4.736285 18.050186 28.777229 0.212929 0.892794 0.044598 -0.005334 40818.500000 0 0 1
-21.647230 -5.402985 19.287986 29.492732 0.244595 0.857948 0.044715 -0.002816 16905.100000 0 0 1
-22.580430 -4.960385 20.449886 30.865500 0.216241 0.846580 0.049778 -0.007664 -497829.000000 0 0 1
-22.600430 -3.538185 20.607486 30.789068 0.155293 0.837514 0.053532 -0.007312 253641.000000 0 0 1
-22.842430 -3.281085 22.008386 31.889045 0.142664 0.809093 0.055106 -0.015234 -185046.000000 0 0 1
-22.909430 -1.750685 22.164986 31.924810 0.076269 0.803367 0.057218 -0.010321 474898.000000 0 0 1
-24.106230 -1.183485 21.621086 32.403431 0.049055 0.840290 0.068392 -0.012805 210342.000000 0 0 1
-23.985730 0.202515 21.782886 32.401395 -0.008443 0.833509 0.063357 -0.013405 -207494.000000 0 0 1
-25.198540 1.071615 21.386986 33.068383 -0.042501 0.867480 0.064627 -0.014597 145414.000000 0 0 1
-26.149880 0.975315 22.435386 34.469030 -0.037280 0.862046 0.066763 -0.011882 -703965.000000 0 0 1
-27.423520 1.448715 22.106586 35.254069 -0.052778 0.893017 0.063161 -0.008210 -79615.600000 0 0 1
-28.358630 1.446715 23.343086 36.758735 -0.050971 0.882742 0.057459 -0.010423 -133403.000000 0 0 1
-27.870010 2.172815 24.445886 37.135696 -0.077805 0.852258 0.056845 -0.011244 263909.000000 0 0 1
-28.735290 1.986515 25.568286 38.514937 -0.069022 0.844836 0.054791 -0.009677 191550.000000 0 0 1
-28.391930 2.897515 26.756986 39.120757 -0.101702 0.817621 0.072103 -0.012206 898212.000000 0 0 1
-27.246300 2.353415 27.469086 38.761452 -0.086162 0.783185 0.061890 -0.018238 1056130.000000 0 0 1
-26.756890 3.234815 28.455486 39.193238 -0.120313 0.758265 0.055929 -0.018427 -457390.000000 0 0 1
-25.621010 2.659515 29.301686 39.014074 -0.103432 0.721139 0.066684 -0.020402 -451540.000000 0 0 1
-25.893080 1.627315 30.201786 39.815169 -0.062765 0.709712 0.068971 -0.017556 -256553.000000 0 0 1
-24.751430 1.319715 30.941086 39.644997 -0.053268 0.675405 0.047603 -0.020637 -111697.000000 0 0 1
-25.050070 0.131015 31.872786 40.538842 -0.005230 0.666115 0.049840 -0.027251 -9581.330000 0 0 1
-25.326700 -0.998785 31.041586 40.075172 0.039416 0.684739 0.053565 -0.022404 -112247.000000 0 0 1
-25.661050 -2.187785 31.741586 40.875472 0.085051 0.681635 0.056776 -0.019108 -620610.000000 0 0 1
-26.460380 -3.229185 30.956186 40.851742 0.121438 0.710909 0.055455 -0.019634 312862.000000 0 0 1
-27.755570 -2.845585 30.506386 41.341367 0.102166 0.740822 0.067788 -0.017987 400177.000000 0 0 1
-27.747330 -1.905185 29.472386 40.523643 0.068554 0.756433 0.069166 -0.012678 -1164150.000000 0 0 1
-29.144340 -1.474685 29.034386 41.165068 0.050556 0.787927 0.062906 -0.012895 -450758.000000 0 0 1
-29.874060 -0.878985 30.049086 42.381360 0.029415 0.782694 0.060087 -0.006095 189861.000000 0 0 1
-31.210960 -0.625085 29.551486 42.986104 0.020025 0.812802 0.038485 -0.007415 1072470.000000 0 0 1
-32.177480 -0.345785 30.722686 44.490373 0.010746 0.808551 0.033602 -0.004285 -202015.000000 0 0 1
-32.244670 -1.365385 31.716486 45.249514 0.042319 0.794104 0.044028 0.001550 -213748.000000 0 0 1
-33.016260 -1.008385 32.819686 46.564172 0.030533 0.788617 0.053843 0.008140 -137562.000000 0 0 1
-33.343480 -2.248185 33.745786 47.493369 0.067323 0.780536 0.052667 0.003040 -68208.800000 0 0 1
-34.218088 -3.218585 33.215486 47.796500 0.093785 0.802466 0.053561 -0.019389 -4945.660000 0 0 1
-34.286027 -4.426085 33.957986 48.458918 0.128383 0.794337 0.042766 -0.012944 -763820.000000 0 0 1
-35.515491 -5.162185 33.508486 49.100070 0.144339 0.819683 0.036860 -0.015554 -724524.000000 0 0 1
35.399301 -4.702185 34.091586 49.370612 -0.132060 0.808583 0.048044 -0.021877 -864582.000000 0 0 1
34.244701 -5.351085 33.650086 48.307991 -0.155007 0.800185 0.048377 -0.025467 -649472.000000 0 0 1
33.006671 -4.783985 -34.075094 47.680592 -0.143938 2.366925 0.067134 -0.031248 -460370.000000 0 0 1
32.705791 -5.331585 -32.778394 46.610275 -0.161595 2.350746 0.062361 -0.026346 95395.900000 0 0 1
32.353971 -6.702785 -32.763894 46.531490 -0.204281 2.351984 0.062601 -0.023283 -384302.000000 0 0 1
30.992741 -7.162585 -33.368294 46.100929 -0.227118 2.380104 0.054014 -0.021418 659842.000000 0 0 1
29.836541 -6.890585 -32.576994 44.709729 -0.226965 2.387121 0.053782 -0.027702 742966.000000 0 0 1
28.626171 -7.122585 -33.295294 44.483317 -0.243862 2.416578 0.045422 -0.023865 -10559.600000 0 0 1
27.367401 -6.910385 -32.464894 43.019733 -0.247334 2.425919 0.057305 -0.026776 -80044.500000 0 0 1
26.163851 -7.310285 -33.141894 42.852917 -0.272456 2.454963 0.047971 -0.018918 421847.000000 0 0 1
25.112751 -6.901385 -32.272894 41.470701 -0.268195 2.462606 0.059646 -0.016499 -212290.000000 0 0 1
23.738551 -7.504085 -32.621894 41.036789 -0.306174 2.489709 0.052878 -0.021079 -170568.000000 0 0 1
23.547951 -8.925985 -32.509994 41.122730 -0.362322 2.482520 0.045412 -0.030118 247158.000000 0 0 1
23.307751 -9.424285 -31.176394 40.050418 -0.384243 2.462955 0.047625 -0.027594 -198955.000000 0 0 1
23.209951 -10.947285 -31.040994 40.275156 -0.440722 2.450772 0.052536 -0.022088 336802.000000 0 0 1
21.932951 -11.436685 -31.443494 40.006817 -0.480651 2.475033 0.060927 -0.024284 628476.000000 0 0 1
21.886051 -12.843185 -31.436894 40.400804 -0.530672 2.462472 0.053616 -0.019747 -755697.000000 0 0 1
20.761851 -13.342385 -32.365694 40.701497 -0.571183 2.490128 0.051043 -0.012694 2078210.000000 0 0 1
19.348851 -13.175685 -31.987494 39.638069 -0.597829 2.509832 0.067652 -0.012220 1945280.000000 0 0 1
18.805551 -11.907085 -32.280394 39.210346 -0.564452 2.537930 0.066470 -0.021062 -810806.000000 0 0 1
17.369351 -11.697085 -31.845594 38.113751 -0.592672 2.559913 0.066782 -0.023951 -797220.000000 0 0 1
16.348251 -12.287985 -32.596894 38.481390 -0.644549 2.581267 0.055696 -0.016715 -475226.000000 0 0 1
15.153051 -11.768685 -32.066994 37.368556 -0.660343 2.602408 0.060003 -0.014854 1349470.000000 0 0 1
13.766451 -12.134285 -32.800894 37.585299 -0.722465 2.631513 0.050754 -0.011946 1054760.000000 0 0 1
13.322551 -13.453585 -32.557594 37.662797 -0.790292 2.614851 0.057011 -0.008404 -311735.000000 0 0 1
12.157951 -13.708085 -33.306194 38.013549 -0.845256 2.638647 0.043967 -0.016170 242349.000000 0 0 1
10.881651 -13.603185 -32.414094 36.798512 -0.896096 2.648458 0.036969 -0.013723 -267066.000000 0 0 1
10.602251 -12.223385 -32.115194 35.961153 -0.856302 2.674880 0.059317 -0.011048 -655418.000000 0 0 1
9.511351 -12.129485 -31.266994 34.859936 -0.905794 2.683578 0.049589 -0.017710 -218902.000000 0 0 1
8.307651 -11.354185 -31.837194 34.807205 -0.939122 2.725493 0.035304 -0.003503 27300.700000 0 0 1
8.635151 -9.965285 -31.785594 34.412160 -0.856788 2.748355 0.034992 -0.003230 99139.600000 0 0 1
7.550651 -9.177785 -32.152394 34.278572 -0.882361 2.787535 0.037326 -0.003462 -336154.000000 0 0 1
7.998951 -7.738985 -32.426794 34.283700 -0.768881 2.810960 0.039818 0.000072 -65328.600000 0 0 1
8.546651 -7.127385 -31.300894 33.220338 -0.695096 2.799995 0.029403 -0.007261 37808.900000 0 0 1
9.069151 -5.906685 -31.669594 33.467919 -0.577284 2.812287 0.031953 -0.004597 -185990.000000 0 0 1
9.363951 -4.939885 -30.454894 32.242621 -0.485438 2.807030 0.037294 -0.008803 -11756.800000 0 0 1
8.158351 -4.551885 -29.845694 31.273692 -0.508920 2.838234 0.035183 -0.009145 -168442.000000 0 0 1
8.383051 -3.536785 -28.935894 30.332662 -0.399239 2.836942 0.041666 -0.005717 362753.000000 0 0 1
7.067051 -2.959485 -28.336794 29.354312 -0.396584 2.877526 0.034473 -0.008126 -82355.200000 0 0 1
6.264051 -2.251385 -29.307594 30.053987 -0.345036 2.918261 0.021836 -0.001558 671263.000000 0 0 1
5.074051 -1.769885 -28.670094 29.169381 -0.335615 2.956304 0.031689 -0.003824 1066300.000000 0 0 1
3.851351 -2.766585 -28.685094 29.074413 -0.622930 2.977761 0.026856 -0.003549 152139.000000 0 0 1
3.983151 -3.774185 -27.724494 28.262299 -0.758467 2.946197 0.030437 -0.011626 -649552.000000 0 0 1
2.975651 -4.702785 -27.847994 28.398617 -1.006649 2.944351 0.053628 -0.011083 -400741.000000 0 0 1
3.111351 -5.771185 -26.675894 27.469809 -1.076346 2.900588 0.052918 -0.023552 -122587.000000 0 0 1
2.771051 -5.162085 -25.443494 26.109332 -1.078137 2.915270 0.054681 -0.023407 -128835.000000 0 0 1
3.126851 -5.995485 -24.405394 25.324816 -1.090070 2.871308 0.065445 -0.033363 -73092.400000 0 0 1
2.876451 -5.302185 -23.047394 23.823717 -1.073727 2.885606 0.056945 -0.032623 260955.000000 0 1 0
3.869351 -4.308585 -22.798594 23.522578 -0.839056 2.892846 0.041774 -0.029301 199546.000000 0 1 0
3.798851 -3.801885 -21.498494 22.160118 -0.785797 2.896618 0.040074 -0.026203 -372937.000000 0 1 0
4.693451 -2.593085 -21.222794 21.889714 -0.504753 2.894112 0.040641 -0.026330 676684.000000 0 1 0
6.037451 -2.942685 -20.879794 21.933445 -0.453521 2.830375 0.038780 -0.025933 176373.000000 0 1 0
6.913451 -1.896885 -20.628894 21.839076 -0.267786 2.807129 0.052021 -0.013256 800055.000000 0 1 0
8.385251 -2.403485 -20.398694 22.185488 -0.279148 2.737504 0.053582 -0.013865 -521026.000000 0 1 0
9.137451 -2.646385 -21.590994 23.593800 -0.281906 2.726585 0.062602 -0.026959 604252.000000 0 1 0
10.440551 -3.172685 -21.334294 23.962954 -0.295013 2.668807 0.057167 -0.029903 830716.000000 0 1 0
11.426051 -2.194785 -20.645494 23.698273 -0.189775 2.628400 0.042834 -0.026861 -1485840.000000 0 1 0
11.231251 -2.183985 -19.259994 22.402191 -0.192059 2.605551 0.039752 -0.014942 482290.000000 0 1 0
12.263551 -1.563285 -18.477794 22.232126 -0.126790 2.551934 0.034022 -0.020475 299545.000000 0 1 0
12.540451 -0.032085 -18.603794 22.435800 -0.002558 2.548474 0.029314 -0.013959 -133457.000000 0 1 0
13.080551 0.465015 -19.793294 23.729550 0.035535 2.557332 0.032149 -0.017992 121809.000000 0 1 0
13.082751 1.873015 -19.825294 23.826642 0.142200 2.553615 0.048928 -0.024514 -81561.500000 0 1 0
13.554451 2.568415 -21.119994 25.226456 0.187268 2.562969 0.050379 -0.026801 504602.000000 0 0 1
14.963451 2.439915 -21.332094 26.170906 0.161636 2.523711 0.049727 -0.024420 553669.000000 0 0 1
15.360251 3.461615 -22.199094 27.216169 0.221659 2.524662 0.057422 -0.035002 263030.000000 0 0 1
16.799151 3.236015 -22.732094 28.450508 0.190299 2.496435 0.037815 -0.026735 171311.000000 0 0 1
16.734851 2.207015 -23.694994 29.092592 0.131125 2.522609 0.032872 -0.021042 298682.000000 0 0 1
17.596451 1.059515 -23.525294 29.397230 0.060139 2.498517 0.018455 -0.011329 -497684.000000 0 0 1
9.193770 27.285015 3.144986 28.963570 1.245792 1.461998 -0.026950 0.014534 82787.300000 0 0 1
9.120370 27.438215 4.538786 29.268368 1.249889 1.415093 -0.026814 0.016664 -502979.000000 0 0 1
10.348570 27.794415 5.074486 30.089414 1.214372 1.401340 -0.011940 0.012172 -865226.000000 0 0 1
10.217670 28.454615 6.521686 30.928923 1.226050 1.358341 -0.012192 0.004135 -104149.000000 0 0 1
10.002670 27.541315 7.585786 30.267501 1.222422 1.317471 -0.018435 -0.000627 -28076.400000 0 0 1
10.018370 28.254115 8.810586 31.245627 1.230046 1.284941 0.001955 -0.004728 -644782.000000 0 0 1
9.912670 27.414215 10.149986 30.867822 1.223835 1.235742 0.005165 -0.013751 -602444.000000 0 0 1
11.027170 26.736415 10.615986 30.808011 1.179612 1.218999 0.013704 -0.005883 -735179.000000 0 0 1
11.523870 25.742415 9.742186 29.839265 1.149889 1.238210 0.016153 -0.006069 287288.000000 0 0 1
12.811170 24.991615 10.278286 29.905687 1.097105 1.219953 0.023913 -0.014128 313540.000000 0 0 1
13.851270 25.933015 10.416186 31.190959 1.080229 1.230306 0.029473 -0.012383 479568.000000 0 0 1
15.018670 25.163615 10.815286 31.236812 1.032703 1.217241 0.045473 -0.012778 1619030.000000 0 0 1
16.347970 25.933715 11.168786 32.627527 1.008341 1.221420 0.045993 -0.012734 454455.000000 0 0 1
16.894770 26.715015 10.128086 33.191918 1.006888 1.260714 0.063888 -0.024242 -1430540.000000 0 0 1
18.234570 26.617815 9.933986 33.759321 0.970174 1.272116 0.081110 -0.031685 -585047.000000 0 0 1
19.222570 27.363515 10.945986 35.186415 0.958402 1.254461 0.075551 -0.030744 146600.000000 0 0 1
19.295570 28.808715 10.858386 36.334084 0.980640 1.267311 0.075650 -0.038045 -194267.000000 0 0 1
18.078670 29.443615 11.159486 36.308386 1.020139 1.258386 0.058035 -0.025939 -184323.000000 0 0 1
18.192070 30.947415 11.302186 37.635533 1.039367 1.265783 0.053295 -0.008206 -681993.000000 0 0 1
18.461570 31.751915 10.189686 38.116183 1.044142 1.300173 0.070786 -0.031638 -136998.000000 0 0 1
17.448970 31.914015 9.229386 37.525358 1.070452 1.322296 0.064317 -0.032169 724537.000000 0 0 1
16.090470 32.585415 9.647286 37.600301 1.112126 1.311320 0.057711 -0.027716 361083.000000 0 0 1
16.290370 33.940715 10.006786 38.954898 1.123304 1.311002 0.054036 -0.026345 -329404.000000 0 0 1
15.099370 -34.114019 10.368286 38.720261 -1.154101 1.299714 0.051272 -0.010904 -175002.000000 0 0 1
15.300070 -32.627119 10.714186 37.595410 -1.132306 1.281804 0.046385 -0.000313 -24026.700000 0 0 1
15.808670 -31.946919 9.553086 36.902319 -1.111284 1.308939 0.047861 -0.010311 187289.000000 0 0 1
15.853770 -30.551419 9.710886 35.763564 -1.092127 1.295814 0.042830 -0.005319 -133719.000000 0 0 1
16.465670 -29.832419 8.487386 35.115912 -1.066466 1.326683 0.036079 -0.009844 -152589.000000 0 0 1
15.754770 -29.898719 7.312186 34.577655 -1.085831 1.357716 0.017986 -0.013376 -573719.000000 0 0 1
16.630570 -29.410919 6.358986 34.380441 -1.056164 1.384766 0.028294 -0.006125 -125904.000000 0 0 1
16.213070 -29.503819 4.881686 34.017199 -1.068318 1.426793 0.028870 0.000160 -297354.000000 0 0 1
16.245670 -30.826419 4.387686 35.120389 -1.085779 1.445536 0.037673 -0.006868 59525.600000 0 0 1
16.111270 -30.792819 3.001786 34.882395 -1.088750 1.484635 0.035654 0.000070 -98058.400000 0 0 1
16.285470 -32.151819 2.291486 36.113805 -1.101948 1.507302 0.024019 -0.004025 684367.000000 0 0 1
17.631970 -32.652319 2.309786 37.180579 -1.075670 1.508633 0.039847 0.000945 604734.000000 0 0 1
17.782370 -33.901019 1.714086 38.320097 -1.087712 1.526051 0.052231 -0.005155 99963.600000 0 0 1
19.209270 34.172115 1.730786 39.239332 1.058686 1.526674 0.061161 -0.009635 358456.000000 0 0 1
19.637270 33.765515 3.028186 39.177829 1.044033 1.493426 0.068552 -0.032243 713358.000000 0 0 1
20.981870 33.249115 2.984286 39.429031 1.007858 1.495036 0.073314 -0.030296 898794.000000 0 0 1
21.581970 33.464015 4.473786 40.070395 0.997993 1.458915 0.073617 -0.038919 -224606.000000 0 0 1
21.168570 32.526715 5.455186 39.189981 0.993855 1.431144 0.083232 -0.039125 -153629.000000 0 0 1
22.033970 31.436315 5.653486 38.803346 0.959461 1.424580 0.062196 -0.039948 -195301.000000 0 0 1
21.394970 30.338315 6.541586 37.695497 0.956580 1.396376 0.077030 -0.038096 223582.000000 0 0 1
20.268170 29.750615 5.925386 36.482983 0.972752 1.407659 0.079806 -0.031100 -601320.000000 0 0 1
19.435470 29.155515 6.885486 35.709823 0.982830 1.376763 0.078732 -0.045413 361760.000000 0 0 1
17.934070 29.064115 6.419386 34.749996 1.017933 1.384999 0.094410 -0.035104 533927.000000 0 0 1
17.287470 30.289615 6.316186 35.443076 1.052170 1.391633 0.078884 -0.034815 9261.260000 0 0 1
17.702970 31.057115 5.196486 36.123995 1.052718 1.426444 0.084071 -0.032352 -778327.000000 0 0 1
17.524670 32.566315 5.375486 37.370775 1.077118 1.426454 0.079562 -0.028554 78695.600000 0 0 1
16.190470 33.016615 5.328186 37.156665 1.114880 1.426902 0.065118 -0.022450 -214299.000000 0 0 1
16.141270 -34.282819 5.378786 38.272492 -1.130758 1.429790 0.056639 -0.028069 286827.000000 0 0 1
14.675870 -33.844619 5.651686 37.319981 -1.161643 1.418773 0.037694 -0.023432 112577.000000 0 0 1
13.829470 -33.941919 4.576786 36.935824 -1.183888 1.446565 0.026875 -0.010636 -171321.000000 0 0 1
12.680470 -33.088019 4.683986 35.742846 -1.204826 1.439371 0.007695 -0.002488 885170.000000 0 0 1
11.931570 -32.776519 3.357586 35.041917 -1.221679 1.474833 0.010488 0.001836 554720.000000 0 0 1
10.885170 -31.800519 3.383286 33.781749 -1.241002 1.470477 0.010868 -0.005381 306520.000000 0 0 1
10.398770 -31.644719 2.059986 33.373136 -1.253303 1.509031 0.019165 -0.008175 -237946.000000 0 0 1
9.471870 -30.331719 1.982686 31.838036 -1.268115 1.508482 0.025445 -0.005228 544166.000000 0 0 1
8.942870 -30.142119 0.696186 31.448481 -1.282379 1.548657 0.042753 -0.008279 -355942.000000 0 0 1
7.964070 -31.030519 0.226886 32.037025 -1.319566 1.563714 0.039940 -0.009018 -847773.000000 0 0 1
8.292370 -31.779219 -1.087914 32.861310 -1.315551 1.603909 0.053196 -0.012773 -239602.000000 0 0 1
9.430670 -32.577519 -0.895414 33.926893 -1.289015 1.597192 0.045358 -0.018719 -447359.000000 0 0 1
9.689670 -33.367519 -2.096914 34.809167 -1.288177 1.631073 0.054841 -0.010341 789828.000000 0 0 1
11.045070 -34.188119 -2.104014 35.989553 -1.258313 1.629291 0.041158 -0.006737 794432.000000 0 0 1
11.154770 33.668515 -0.995714 35.482239 1.250866 1.598862 0.026819 -0.002072 -423032.000000 0 0 1
12.389970 33.024215 -1.084714 35.288621 1.211869 1.601540 0.035948 -0.007910 -312516.000000 0 0 1
12.695370 31.948915 0.037686 34.378875 1.192564 1.569700 0.025429 -0.003316 -381084.000000 0 0 1
12.572670 32.524115 1.350186 34.895746 1.201926 1.532095 0.026372 -0.003276 1508010.000000 0 0 1
13.783370 33.237915 1.823186 36.028660 1.177692 1.520171 0.039694 -0.005227 1092540.000000 0 0 1
15.032070 32.426815 2.100286 35.803250 1.136716 1.512101 0.051774 -0.014100 -916813.000000 0 0 1
15.722370 31.958015 0.962886 35.629129 1.113594 1.543768 0.056387 -0.018274 -298267.000000 0 0 1
16.689470 30.990415 1.294586 35.222439 1.076797 1.534033 0.064929 -0.017578 -85453.600000 0 0 1
17.104870 30.207015 0.043486 34.713718 1.055559 1.569544 0.069874 -0.011374 12660.100000 0 0 1
18.060370 30.888015 -0.755714 35.788512 1.041699 1.591914 0.053509 0.000436 140577.000000 0 0 1
17.506470 31.766815 -1.706214 36.311406 1.067114 1.617802 0.061138 -0.013388 -210376.000000 0 0 1
18.596970 32.564915 -2.429114 37.579537 1.051918 1.635481 0.041049 -0.003032 188096.000000 0 0 1
19.430270 33.273115 -1.508614 38.560492 1.042252 1.609930 0.039247 0.003099 114256.000000 0 0 1
20.480270 33.925415 -2.188714 39.688358 1.027672 1.625972 0.043951 0.005690 -457306.000000 0 0 1
21.466470 -34.050819 -1.205914 40.270608 -1.008306 1.600746 0.042625 0.001417 -424331.000000 0 0 1
22.456270 33.878315 -0.539714 40.648685 0.985440 1.584074 0.039870 0.001908 837053.000000 0 0 1
23.494870 33.288615 -1.332814 40.766619 0.956193 1.603496 0.044592 0.002285 41582.800000 0 0 1
24.386370 34.087015 -2.257714 41.972812 0.949799 1.624612 0.041205 -0.005783 -1296690.000000 0 0 1
23.676470 -34.150619 -3.358514 41.690762 -0.964584 1.651441 0.041384 -0.010923 -6128.290000 0 0 1
24.495870 -33.359919 -4.221214 41.602289 -0.937425 1.672437 0.043837 -0.007035 367601.000000 0 0 1
23.759970 -32.954619 -5.540714 41.002958 -0.946121 1.706341 0.035802 -0.010049 1050710.000000 0 0 1
22.640070 -32.031519 -5.420414 39.597624 -0.955517 1.708115 0.038099 -0.006972 855704.000000 0 0 1
22.199370 -31.715319 -6.706114 39.289254 -0.960099 1.742322 0.033699 -0.014235 61314.600000 0 0 1
21.225770 -30.481519 -6.773014 37.756192 -0.962525 1.751161 0.039814 -0.010015 326477.000000 0 0 1
20.027170 -30.672219 -6.056514 37.128882 -0.992356 1.734650 0.054210 -0.006371 -289856.000000 0 0 1
19.314270 -29.449119 -6.050414 35.733726 -0.990318 1.740935 0.068915 -0.012889 -720879.000000 0 0 1
18.235070 -29.395619 -5.017314 34.954165 -1.015560 1.714834 0.059019 -0.005804 -995899.000000 0 0 1
17.091670 -30.084219 -5.461714 35.028784 -1.054142 1.727356 0.057190 -0.015989 -599393.000000 0 0 1
16.220870 -30.041019 -4.331614 34.414275 -1.075696 1.696998 0.034978 -0.012625 74814.600000 0 0 1
14.805570 -30.620619 -4.574114 34.318358 -1.120422 1.704479 0.040273 -0.020629 129651.000000 0 0 1
14.806070 -31.997019 -4.829414 35.585842 -1.137404 1.706928 0.033226 0.000432 -74317.500000 0 0 1
13.495470 -32.524419 -4.969814 35.562123 -1.177483 1.711005 0.043739 0.001171 240237.000000 0 0 1
13.381270 -34.035119 -5.215314 36.941132 -1.196200 1.712449 0.041035 -0.006975 -121813.000000 0 0 1
13.690870 33.868315 -4.063314 36.756132 1.186642 1.681571 0.045794 -0.014776 -211490.000000 0 0 1
14.085170 32.515515 -4.367414 35.703292 1.162015 1.693429 0.044313 -0.016583 207197.000000 0 0 1
13.013470 31.515015 -4.867214 34.441782 1.179194 1.712588 0.041687 -0.015618 -199311.000000 0 0 1
12.119270 30.846415 -4.001714 33.382507 1.196434 1.690960 0.040086 -0.008728 -172810.000000 0 0 1
12.599970 29.776715 -3.194614 32.490269 1.170495 1.669281 0.047594 -0.014193 -470828.000000 0 0 1
11.537170 28.879715 -2.523014 31.201119 1.190729 1.651748 0.028700 -0.001741 275878.000000 0 0 1
10.709570 29.608315 -1.631114 31.527889 1.223729 1.622555 0.018324 -0.002244 363465.000000 0 0 1
9.676170 28.863115 -0.959414 30.456989 1.247328 1.602302 0.005061 0.008080 667349.000000 0 0 1
8.723270 29.783715 -0.157214 31.035300 1.285878 1.575862 -0.005683 0.012808 453769.000000 0 0 1
7.800770 29.010815 0.589086 30.047070 1.308118 1.551190 -0.010807 0.008458 1074310.000000 0 0 1
6.580370 29.677815 1.045186 30.416548 1.352599 1.536427 0.002737 0.002760 1636840.000000 0 0 1
5.645870 28.784915 1.915386 29.395848 1.377115 1.505592 -0.001215 0.007400 296629.000000 0 0 1
5.084070 27.687415 1.218486 28.176683 1.389195 1.527538 0.000356 0.002705 340786.000000 0 0 1
3.885970 27.212415 1.834086 27.549595 1.428954 1.504173 0.005928 0.001028 549984.000000 0 0 1
3.414970 26.047015 0.893586 26.285120 1.440432 1.536794 0.008832 -0.001412 -647997.000000 0 0 1
2.164670 25.548815 1.207286 25.668761 1.486271 1.523746 0.037105 -0.006017 -561714.000000 0 0 1
1.665470 24.633015 0.211986 24.690164 1.503288 1.562210 0.031447 -0.007166 -498148.000000 0 1 0
0.326070 24.002715 0.479086 24.009710 1.557212 1.550841 0.035444 -0.005320 -416283.000000 0 1 0
-0.741030 24.912615 0.628986 24.931569 -1.541060 1.545565 0.041914 -0.008882 266692.000000 0 1 0
-1.961730 24.294515 0.993786 24.393841 -1.490223 1.530046 0.033021 -0.004571 907119.000000 0 1 0
-3.275630 25.127415 1.226286 25.369677 -1.441167 1.522441 0.053277 -0.016297 1046460.000000 0 0 1
-4.352530 24.163615 1.404086 24.592606 -1.392580 1.513671 0.051031 -0.019305 781872.000000 0 1 0
-5.575230 24.683315 1.901486 25.376463 -1.348654 1.495795 0.051071 -0.018592 214438.000000 0 0 1
-6.527030 25.221615 0.819586 26.065374 -1.317565 1.539348 0.057638 -0.013805 -434760.000000 0 0 1
-6.203430 26.486115 0.314786 27.204704 -1.340729 1.559225 0.063107 -0.016422 -433579.000000 0 0 1
-7.242930 26.787115 -0.551514 27.754527 -1.306722 1.590669 0.060514 -0.014778 -569274.000000 0 0 1
-7.056430 27.966715 -1.529014 28.883702 -1.323640 1.623758 0.058832 -0.013848 -47541.800000 0 0 1
-7.408430 29.203415 -0.988414 30.144672 -1.322354 1.603591 0.070924 -0.025726 -208147.000000 0 0 1
-7.497430 30.140815 -2.086914 31.129334 -1.326998 1.637887 0.062963 -0.022306 -188269.000000 0 0 1
-7.711930 31.602215 -1.700714 32.574013 -1.331443 1.623031 0.058726 -0.023426 -582380.000000 0 0 1
-7.587530 32.543415 -2.718014 33.526588 -1.341737 1.651956 0.042512 -0.015145 1459840.000000 0 0 1
-6.319430 32.674515 -3.471014 33.460530 -1.379750 1.674718 0.034441 -0.015665 1375280.000000 0 0 1
-5.140630 33.225715 -2.668714 33.726789 -1.417295 1.650007 0.044035 -0.027399 -835861.000000 0 0 1
-5.169530 -34.058919 -2.482714 34.538354 1.420164 1.642741 0.034513 -0.019966 673440.000000 0 0 1
-4.019430 -33.594019 -1.740714 33.878371 1.451715 1.622200 0.038862 -0.016765 827921.000000 0 0 1
-3.865130 -32.087519 -2.043814 32.384028 1.450918 1.633950 0.037882 -0.020892 649604.000000 0 0 1
-5.002330 -31.364719 -1.548314 31.798839 1.412639 1.619506 0.036339 -0.016690 343875.000000 0 0 1
-5.313330 -30.135819 -2.213114 30.680563 1.396277 1.642993 0.039420 -0.008745 50390.400000 0 0 1
-6.773730 -29.702519 -1.998214 30.530573 1.346578 1.636293 0.051854 0.000082 16528.800000 0 0 1
-6.961130 -29.248419 -0.627314 30.071928 1.337143 1.591658 0.043499 0.002141 366650.000000 0 0 1
-8.258630 -28.696319 -0.350714 29.863133 1.290575 1.582541 0.020615 -0.003043 698804.000000 0 0 1
-8.356230 -28.028619 1.057286 29.266840 1.281054 1.534663 0.042666 0.000305 -23314.200000 0 0 1
-7.360130 -27.070719 1.338786 28.085364 1.305328 1.523110 0.047351 -0.008215 -507317.000000 0 0 1
-7.307630 -26.632419 2.680886 27.746610 1.302999 1.474025 0.055990 0.004692 239004.000000 0 0 1
-8.314830 -25.546619 3.214786 27.057365 1.256133 1.451701 0.044063 0.005859 547435.000000 0 0 1
-7.925830 -24.161519 3.134586 25.620761 1.253822 1.448143 0.035239 0.000963 -102847.000000 0 0 1
-8.936030 -23.319119 3.697386 25.244893 1.204851 1.423807 0.039121 0.004687 451265.000000 0 0 1
-8.400330 -21.892919 3.926986 23.775758 1.204419 1.404868 0.013834 0.013144 728841.000000 0 1 0
-7.510430 -21.926819 5.070886 23.725637 1.240798 1.355404 0.013218 0.011234 65386.900000 0 1 0
-6.862230 -20.733219 5.433986 22.505217 1.251167 1.326932 -0.007943 0.012241 34895.000000 0 1 0
-7.712730 -19.624019 6.128086 21.957727 1.196317 1.287955 0.005679 0.006846 162161.000000 0 1 0
-8.281630 -20.132919 7.353786 22.978207 1.180546 1.245032 0.016521 0.004038 -20991.500000 0 1 0
-8.938230 -19.082419 7.990986 22.536338 1.132746 1.208329 0.007068 0.000530 -656255.000000 0 1 0
-27.059830 28.874815 -6.217514 40.058043 -0.817835 1.726639 0.073403 -0.017545 -236106.000000 0 0 1
-26.383310 29.796215 -5.480714 40.173769 -0.846074 1.707648 0.054451 -0.019292 508513.000000 0 0 1
-25.121860 29.329615 -4.945014 38.933114 -0.862520 1.698153 0.041335 -0.010195 1168220.000000 0 0 1
-24.529730 30.264215 -3.844914 39.146057 -0.889674 1.669175 0.029028 -0.011255 -109909.000000 0 0 1
-25.213960 30.022315 -2.643914 39.294700 -0.872230 1.638131 0.034554 -0.023261 100539.000000 0 0 1
-24.767630 30.778815 -1.532614 39.536311 -0.893198 1.609571 0.037368 -0.021274 -167503.000000 0 0 1
-23.495930 30.248415 -0.862814 38.311484 -0.910384 1.593319 0.022376 -0.012771 -41839.100000 0 0 1
-22.321430 30.356115 -1.618214 37.714170 -0.936757 1.613717 0.033992 -0.024011 548807.000000 0 0 1
-21.075030 30.464215 -0.903214 37.054569 -0.965597 1.595174 0.027722 -0.021746 826753.000000 0 0 1
-19.892330 30.085215 -1.812714 36.112476 -0.986588 1.621014 0.027999 -0.023032 -430408.000000 0 0 1
-18.652330 30.255415 -1.182114 35.562578 -1.018336 1.604043 0.039277 -0.019182 -204560.000000 0 0 1
-17.603630 29.726115 -2.022414 34.606645 -1.036136 1.629270 0.041747 -0.022591 858348.000000 0 0 1
-16.227030 30.071715 -1.371714 34.198043 -1.075964 1.610918 0.048792 -0.026858 187309.000000 0 0 1
-15.924830 29.345315 -0.193814 33.388401 -1.073598 1.576601 0.042877 -0.021392 -248164.000000 0 0 1
-14.770730 29.907715 0.384286 33.358561 -1.112059 1.559276 0.045805 -0.022303 545.574000 0 0 1
-14.173130 29.158915 1.571586 32.459049 -1.118359 1.522360 0.059457 -0.018886 -274838.000000 0 0 1
-14.899430 29.273015 2.759386 32.962352 -1.099989 1.486985 0.042688 -0.013076 -337472.000000 0 0 1
-14.385230 28.520015 3.881686 32.177533 -1.103642 1.449868 0.051807 -0.017138 101773.000000 0 0 1
-13.206530 29.143015 4.658786 32.333142 -1.145315 1.426206 0.063886 -0.013349 -2086.240000 0 0 1
-13.378030 30.320615 5.434086 33.583340 -1.155269 1.408273 0.055623 -0.013890 -499989.000000 0 0 1
-13.412830 31.479515 4.623886 34.528890 -1.168010 1.436479 0.070306 -0.014021 -180869.000000 0 0 1
-13.193430 32.779415 5.403786 35.745735 -1.188144 1.419042 0.062926 -0.002693 511277.000000 0 0 1
-14.166630 33.100615 6.425086 36.573568 -1.166398 1.394204 0.054963 -0.002192 453781.000000 0 0 1
-13.820130 34.284715 7.038586 37.629502 -1.187621 1.382638 0.072647 -0.011067 -59820.900000 0 0 1
-14.973230 -33.980219 7.947286 37.973837 1.155749 1.359954 0.049184 -0.009246 23371.000000 0 0 1
-15.119330 33.979615 9.108586 38.290661 -1.152147 1.330614 0.037528 -0.004860 35770.300000 0 0 1
-16.276730 34.305715 9.869086 39.232804 -1.127788 1.316513 0.044765 -0.006191 -77322.800000 0 0 1
-16.383230 33.434615 11.148886 38.866199 -1.115174 1.279856 0.038485 -0.004785 4791.290000 0 0 1
-15.605430 33.788815 12.266186 39.187662 -1.138130 1.252434 0.037272 -0.007090 -1449090.000000 0 0 1
-14.347630 33.261215 12.168786 38.213117 -1.163549 1.246707 0.041214 -0.004629 -1228240.000000 0 0 1
-13.538430 33.511615 13.497786 38.581183 -1.186853 1.213381 0.042523 -0.001791 16623.600000 0 0 1
-14.033230 32.748615 14.576986 38.495349 -1.165953 1.182439 0.034228 -0.000151 84528.400000 0 0 1
-13.380630 31.507115 14.794186 37.290851 -1.169192 1.162851 0.023877 0.002960 -72131.900000 0 0 1
-13.978730 30.196315 14.090086 36.135203 -1.137243 1.170244 0.026965 -0.000026 101168.000000 0 0 1
-14.032030 30.261815 12.672186 35.682764 -1.136618 1.207738 0.029956 0.003007 1349490.000000 0 0 1
-15.216830 29.569315 12.186186 35.417502 -1.095525 1.219546 0.027356 0.004876 920575.000000 0 0 1
-15.276730 29.548415 10.690086 34.939452 -1.093636 1.259849 0.028453 0.006655 -275291.000000 0 0 1
-14.422030 28.596015 10.126086 33.589651 -1.103685 1.264568 0.026037 0.006207 37329.500000 0 0 1
-14.395830 28.673115 8.684286 33.238597 -1.105496 1.306457 0.029308 0.005515 33886.400000 0 0 1
-13.576430 27.452515 8.080486 31.674190 -1.111524 1.312832 0.034832 0.001347 974711.000000 0 0 1
-12.160130 27.415215 8.305786 31.119911 -1.153316 1.300625 0.026796 -0.002377 771536.000000 0 0 1
-11.712230 26.088815 8.061786 29.711867 -1.148827 1.296019 0.035789 -0.004169 108281.000000 0 0 1
-10.515030 26.056415 7.069486 28.973786 -1.187235 1.324312 0.054509 -0.011003 17781.000000 0 0 1
-10.821830 26.550115 5.793786 29.250446 -1.183755 1.371403 0.062085 -0.011834 -186455.000000 0 0 1
-9.790430 26.165015 4.954286 28.372619 -1.212745 1.395282 0.076211 -0.010446 -551365.000000 0 0 1
-9.983530 26.515015 3.524786 28.550675 -1.210691 1.447023 0.078918 -0.016703 -10093.500000 0 0 1
-9.812930 27.910215 3.176086 29.755020 -1.232706 1.463851 0.080796 -0.018567 -22716.400000 0 0 1
-9.877530 28.116515 1.777886 29.854060 -1.232958 1.511208 0.078108 -0.020130 76251.900000 0 0 1
-9.624630 29.589115 1.390586 31.146155 -1.256315 1.526134 0.088942 -0.023369 929816.000000 0 0 1
-10.780030 30.437015 1.527386 32.325746 -1.230407 1.523529 0.085011 -0.023133 520417.000000 0 0 1
-10.322030 31.766015 1.392186 33.429960 -1.256619 1.529139 0.081673 -0.024322 185048.000000 0 0 1
-11.053030 32.900715 2.177686 34.775981 -1.246692 1.508135 0.076030 -0.021761 650876.000000 0 0 1
-12.396430 33.181215 1.785286 35.466206 -1.213256 1.520437 0.072050 -0.021697 221253.000000 0 0 1
-12.450130 34.195415 0.843386 36.401147 -1.221627 1.547625 0.065452 -0.024169 -385354.000000 0 0 1
-13.865230 -34.042619 0.456686 36.760755 1.184021 1.558373 0.072864 -0.029781 -259117.000000 0 0 1
-14.543730 33.808915 -0.412514 36.806698 -1.164551 1.582004 0.062941 -0.028888 -328767.000000 0 0 1
-14.313130 34.018615 -1.810214 36.951438 -1.172536 1.619805 0.064908 -0.033731 -566588.000000 0 0 1
-12.979630 33.559915 -2.378014 36.060971 -1.201756 1.636788 0.055968 -0.026761 -586646.000000 0 0 1
-12.968230 32.140415 -2.475914 34.746387 -1.187288 1.642113 0.055062 -0.024721 -467543.000000 0 0 1
-11.628830 31.742915 -2.539614 33.901209 -1.219636 1.645779 0.048875 -0.013314 -321651.000000 0 0 1
-11.373730 30.227815 -2.640314 32.404534 -1.210915 1.652367 0.044936 -0.015478 -120315.000000 0 0 1
-11.582630 29.583715 -3.921814 32.011469 -1.197621 1.693618 0.039924 -0.015062 27496.800000 0 0 1
-10.613530 29.938215 -4.928014 32.143881 -1.230105 1.724714 0.036121 -0.019197 466310.000000 0 0 1
-10.949930 29.099115 -6.187314 31.700825 -1.210888 1.767236 0.036383 -0.009539 59626.700000 0 0 1
-10.947530 27.700915 -6.085914 30.401110 -1.194431 1.772345 0.026534 -0.001809 -46509.200000 0 0 1
-10.992130 27.102215 -7.376814 30.162466 -1.185488 1.817872 0.013154 0.006933 -424546.000000 0 0 1
-11.242230 25.604915 -7.314214 28.904968 -1.157073 1.826621 0.038593 -0.004625 -95105.500000 0 0 1
-10.388130 24.766815 -6.562114 27.647237 -1.173647 1.810435 0.019836 -0.004138 -79500.700000 0 0 1
-10.888330 23.450415 -6.703514 26.709826 -1.136104 1.824484 0.037404 -0.010952 -103598.000000 0 0 1
-10.129730 22.406315 -5.877814 25.282466 -1.146204 1.805429 0.031287 -0.013459 -825431.000000 0 0 1
-8.815530 22.170315 -6.280814 24.671544 -1.192337 1.828207 0.027607 -0.015418 -329171.000000 0 1 0
-8.227030 20.981915 -5.672014 23.239977 -1.197118 1.817349 0.039128 -0.017603 -203997.000000 0 1 0
-8.091730 20.794215 -4.104114 22.687425 -1.199692 1.752696 0.040970 -0.027396 -617569.000000 0 1 0
-9.222830 20.739115 -3.271214 22.931907 -1.152353 1.713934 0.040326 -0.025368 -342543.000000 0 1 0
-10.046730 19.585615 -3.463914 22.282994 -1.096831 1.726880 0.049019 -0.024744 708005.000000 0 1 0
-11.387530 19.746315 -2.630414 22.945847 -1.047692 1.685685 0.050833 -0.023627 692925.000000 0 1 0
-11.330830 19.586515 -1.227914 22.661136 -1.046334 1.625009 0.053876 -0.022579 28081.200000 0 1 0
-11.256630 18.267115 -0.721714 21.469050 -1.018533 1.604419 0.055125 -0.025395 -219192.000000 0 1 0
-11.080830 18.322715 0.817386 21.428365 -1.026885 1.532642 0.049116 -0.016566 617811.000000 0 1 0
-12.248530 18.597215 1.618486 22.327167 -0.988384 1.498243 0.057583 -0.011736 613018.000000 0 1 0
-11.973130 18.433715 2.984786 22.182576 -0.994756 1.435832 0.056262 -0.016211 105435.000000 0 1 0
-13.236430 18.387415 3.879386 22.985860 -0.946863 1.401212 0.045864 -0.014049 -85546.000000 0 1 0
-13.886830 17.189415 3.953286 22.448798 -0.891274 1.393771 0.037243 -0.013188 213348.000000 0 1 0
-15.049930 17.297015 4.774486 23.419711 -0.854755 1.365491 0.037234 -0.019999 390050.000000 0 1 0
-15.473930 15.946415 5.431886 22.874354 -0.800435 1.331040 0.022709 -0.013261 166876.000000 0 1 0
-14.599830 15.577415 6.516286 22.322027 -0.817782 1.274561 0.020828 -0.007933 371010.000000 0 1 0
-15.137230 15.962415 7.724486 23.315277 -0.811926 1.233109 0.018372 -0.007085 -493263.000000 0 1 0
-14.141430 15.737115 8.940286 22.968795 -0.838753 1.170994 0.014930 -0.002235 2250940.000000 0 1 0
-12.898430 16.526215 8.892986 22.772143 -0.908070 1.169600 0.023198 -0.012300 1431500.000000 0 1 0
-11.989230 16.141615 7.892786 21.600682 -0.931950 1.196739 0.027121 -0.013038 -823484.000000 0 1 0
-10.838930 17.147515 7.615586 21.668337 -1.007108 1.211665 0.043916 -0.023156 719943.000000 0 1 0
-9.835630 17.163815 8.638086 21.585938 -1.050433 1.159092 0.051157 -0.022878 -44461.300000 0 1 0
-9.110630 18.342515 8.581986 22.205899 -1.109796 1.173992 0.050713 -0.026332 -215580.000000 0 1 0
-7.806830 18.434015 9.429886 22.128766 -1.170196 1.130578 0.045745 -0.024623 618571.000000 0 1 0
-6.688830 17.830815 8.735786 20.952145 -1.211914 1.140720 0.031731 -0.020532 679029.000000 0 1 0
-5.515830 17.949015 9.544786 21.064057 -1.272651 1.100521 0.023925 -0.020785 690030.000000 0 1 0
-4.507530 19.055815 9.119786 21.601214 -1.338522 1.134938 0.012793 -0.020807 -419236.000000 0 1 0
-4.712830 20.370115 9.568386 22.993616 -1.343437 1.141609 0.016234 -0.021931 5275.270000 0 1 0
-4.339730 21.336915 8.540786 23.388934 -1.370143 1.196988 0.021979 -0.021854 975016.000000 0 1 0
-2.851030 21.840915 8.528586 23.619711 -1.440994 1.201371 0.026619 -0.019775 866163.000000 0 1 0
-1.836930 20.910415 8.185586 22.530504 -1.483174 1.198977 0.018444 -0.010823 -651732.000000 0 1 0
-0.608030 21.569215 8.161686 23.069761 -1.542614 1.209184 0.010608 -0.009788 -458977.000000 0 1 0
0.522970 20.591215 7.809386 22.028576 1.545404 1.208405 0.001616 -0.009162 -76675.000000 0 1 0
0.800270 19.675315 8.832486 21.581735 1.530145 1.149156 0.005082 -0.028288 -1086490.000000 0 1 0
2.173970 19.467715 8.985286 21.551182 1.459587 1.140734 -0.002460 -0.019149 -476886.000000 0 1 0
2.563270 18.824115 10.289586 21.605399 1.435459 1.074410 -0.009435 -0.039274 711489.000000 0 1 0
3.971170 18.721715 10.564586 21.860542 1.361779 1.066408 0.017082 -0.015519 739824.000000 0 1 0
4.254570 18.063415 11.795986 21.989398 1.339477 1.004584 0.010016 -0.023178 458655.000000 0 1 0
5.734270 18.000615 12.253286 22.517705 1.262400 0.995406 0.026076 -0.019931 689818.000000 0 1 0
6.675670 17.298315 11.433786 21.783658 1.202491 1.018223 0.020360 -0.020729 433721.000000 0 1 0
7.783470 16.948315 12.254786 22.316084 1.140279 0.989454 0.025335 -0.010289 -12318.800000 0 1 0
8.922670 16.090715 11.686786 21.796930 1.064487 1.004907 0.029713 -0.013720 159595.000000 0 1 0
9.664170 16.920515 10.807086 22.282126 1.051859 1.064420 0.034611 -0.031961 -150426.000000 0 1 0
10.885370 16.409815 10.327186 22.235649 0.985097 1.087791 0.031985 -0.026884 480216.000000 0 1 0
11.804270 17.521515 9.671786 23.235485 0.977939 1.141478 0.031304 -0.013666 99686.800000 0 1 0
12.871470 17.024015 8.910686 23.127736 0.923417 1.175284 0.031823 -0.009814 -240154.000000 0 1 0
13.802570 18.082715 8.672286 24.345515 0.918836 1.206580 0.028258 -0.003221 145940.000000 0 1 0
14.952570 17.665315 7.762386 24.411009 0.868375 1.247191 0.024008 -0.007698 -831481.000000 0 1 0
15.907970 16.835015 8.266686 24.593075 0.813703 1.227982 0.041540 -0.013532 -190149.000000 0 1 0
16.926670 16.566115 7.284386 24.779238 0.774633 1.272417 0.067607 -0.009241 -3851.810000 0 1 0
18.317470 16.263115 7.821486 25.713698 0.726060 1.261723 0.052387 -0.007674 -678935.000000 0 0 1
18.574870 15.061315 8.518386 25.385664 0.681318 1.228598 0.055159 -0.004916 119101.000000 0 0 1
19.427470 15.335015 9.624586 26.556015 0.668211 1.199927 0.048602 0.000380 -130229.000000 0 0 1
19.802970 14.132615 10.483286 26.491276 0.619836 1.163938 0.047865 -0.003318 139306.000000 0 0 1
20.813770 13.306815 9.929586 26.624820 0.568836 1.188616 0.063414 -0.000820 303917.000000 0 0 1
20.978170 12.179615 10.712186 26.517496 0.526022 1.154947 0.072365 -0.010779 -332273.000000 0 0 1
21.975070 11.130015 10.244986 26.678469 0.468821 1.176653 0.079850 -0.005138 -343886.000000 0 0 1
23.365470 11.444615 10.397486 28.018425 0.455462 1.190609 0.071672 -0.014875 1082870.000000 0 0 1
24.163670 10.650615 9.546986 28.079592 0.415152 1.223882 0.077349 -0.012868 -428721.000000 0 0 1
24.263670 9.105015 9.854386 27.726087 0.358992 1.207434 0.089471 -0.019827 -158499.000000 0 0 1
23.063670 8.336515 9.591186 26.332892 0.346844 1.197992 0.083973 -0.018175 1050810.000000 0 0 1
23.078570 6.947015 9.821586 26.025852 0.292389 1.183833 0.079998 -0.018707 -311594.000000 0 0 1
23.973770 6.099615 8.877786 26.282352 0.249142 1.226234 0.091512 -0.024016 205625.000000 0 0 1
23.622370 6.030615 7.518986 25.513131 0.249954 1.271644 0.077895 -0.012462 777996.000000 0 0 1
24.797570 5.561815 6.875986 26.327409 0.220637 1.306560 0.088607 -0.014205 455657.000000 0 0 1
24.412770 5.085515 5.469186 25.529548 0.205377 1.354893 0.086891 -0.020030 -241566.000000 0 0 1
23.657870 3.884115 5.459186 24.588287 0.162727 1.346907 0.090699 -0.019119 521443.000000 0 1 0
23.323970 3.535615 4.135986 23.950251 0.150442 1.397236 0.083155 -0.017771 -562150.000000 0 1 0
22.460170 2.313515 3.998286 22.930283 0.102643 1.395533 0.082861 -0.016873 -545072.000000 0 1 0
23.099570 1.105715 4.356886 23.532854 0.047831 1.384581 0.092850 -0.015515 -1345.940000 0 1 0
22.365070 0.024015 3.980786 22.716593 0.001074 1.394650 0.075387 -0.014679 -356154.000000 0 1 0
23.006670 -1.330185 4.481186 23.476739 -0.057753 1.378740 0.083709 -0.011003 -84567.100000 0 1 0
22.930870 -1.507585 5.898286 23.725248 -0.065650 1.319553 0.085810 -0.009902 673335.000000 0 1 0
22.751670 -2.895785 6.025786 23.713586 -0.126597 1.313872 0.067332 -0.012614 -630312.000000 0 1 0
22.607370 -3.319985 7.505386 24.050911 -0.145812 1.253433 0.089139 -0.012427 -205257.000000 0 1 0
22.405770 -4.679185 7.629686 24.127275 -0.205879 1.249047 0.066497 -0.018610 424722.000000 0 1 0
22.091470 -4.993885 8.939586 24.349294 -0.222318 1.194864 0.072887 -0.025465 -161800.000000 0 1 0
21.933170 -6.495985 9.125186 24.627846 -0.287941 1.191224 0.070399 -0.036136 -19445.000000 0 1 0
20.653370 -6.989685 8.797286 23.511904 -0.326329 1.187302 0.062717 -0.029447 73216.900000 0 1 0
20.537570 -8.323185 9.142086 23.971753 -0.385038 1.179519 0.073399 -0.031353 -188150.000000 0 1 0
-26.224340 -33.089419 4.666386 42.478239 0.900627 1.460721 0.022305 -0.011676 163155.000000 0 0 1
-26.699020 -34.345919 5.208886 43.813381 0.910016 1.451626 0.028737 -0.010444 203551.000000 0 0 1
-26.898040 -34.206119 6.623886 44.016349 0.904433 1.419736 0.022133 0.010074 -365560.000000 0 0 1
-27.561920 33.297215 7.337786 43.842982 -0.879360 1.402640 0.025311 0.001484 -552743.000000 0 0 1
-28.883620 33.180815 6.936786 44.534807 -0.854525 1.414399 0.037294 -0.009943 -1003060.000000 0 0 1
-29.619370 32.119715 7.519786 44.334303 -0.825875 1.400357 0.052218 -0.005537 251172.000000 0 0 1
-31.066890 32.525315 7.864386 45.660665 -0.808328 1.397698 0.071637 -0.009006 -152693.000000 0 0 1
-31.811410 32.618115 6.669786 46.047729 -0.797918 1.425440 0.052907 -0.007374 144272.000000 0 0 1
-33.209820 32.700315 6.950086 47.122250 -0.777668 1.422766 0.038534 -0.007256 764444.000000 0 0 1
-33.992760 32.611215 5.561186 47.433384 -0.764658 1.453284 0.036437 -0.001589 157805.000000 0 0 1
-33.804720 31.358215 4.884586 46.367618 -0.747871 1.465256 0.035231 -0.001907 67505.300000 0 0 1
-34.526539 31.361915 3.688886 46.789524 -0.737405 1.491874 0.043737 0.003625 -62093.000000 0 0 1
-34.190468 30.120315 2.845686 45.654347 -0.722194 1.508425 0.047603 0.002345 178506.000000 0 0 1
-34.500050 28.881415 3.581586 45.135544 -0.696981 1.491361 0.067564 -0.005198 246733.000000 0 0 1
-34.210495 27.751515 2.777686 44.138647 -0.681532 1.507824 0.055850 0.005368 -216658.000000 0 0 1
-34.553017 26.364815 3.426186 43.597629 -0.651785 1.492129 0.078054 -0.000890 -901193.000000 0 0 1
-35.921447 26.186615 3.282786 44.574274 -0.629923 1.497082 0.074413 0.001112 -1037020.000000 0 0 1
35.831251 25.102415 4.118886 43.942861 0.611111 1.476926 0.083183 -0.008154 -66467.900000 0 0 1
34.326771 24.790615 4.030086 42.534027 0.625467 1.475904 0.079900 -0.010587 -277686.000000 0 0 1
33.845651 23.857515 3.017386 41.518836 0.614001 1.498057 0.067878 -0.005983 75919.600000 0 0 1
34.442721 22.618115 2.854386 41.304088 0.581062 1.501635 0.056930 -0.001728 -1104320.000000 0 0 1
33.502991 21.730215 2.078086 39.987137 0.575394 1.518804 0.045822 -0.003023 -290440.000000 0 0 1
32.285701 21.421415 2.730486 38.841976 0.585804 1.500441 0.048912 -0.015334 224444.000000 0 0 1
32.187661 20.485815 3.761586 38.338802 0.566790 1.472524 0.037860 0.000874 -461595.000000 0 0 1
32.582671 19.038015 3.408386 37.890548 0.528794 1.480721 0.035605 -0.007851 -181542.000000 0 0 1
31.735251 18.502015 2.402986 36.813382 0.527834 1.505475 0.032139 -0.011846 292622.000000 0 0 1
31.944751 17.144515 2.005886 36.310124 0.492569 1.515525 0.021459 -0.008349 -476489.000000 0 0 1
31.528301 15.956715 2.883886 35.453735 0.468522 1.489364 0.044643 -0.011035 -180611.000000 0 0 1
30.138291 15.966815 3.113686 34.248370 0.487191 1.479756 0.059252 -0.010494 -10820.700000 0 0 1
29.785041 14.956615 4.035486 33.572819 0.465368 1.450304 0.084329 -0.024518 -361193.000000 0 0 1
28.292591 14.933915 4.370786 32.289260 0.485669 1.435016 0.082908 -0.021258 85339.900000 0 0 1
27.437761 14.576915 3.263886 31.240521 0.488351 1.466129 0.075151 -0.023271 990213.000000 0 0 1
26.062151 14.937915 3.457286 30.237888 0.520454 1.456209 0.059361 -0.015777 424343.000000 0 0 1
25.243051 14.651115 2.209686 29.270284 0.525884 1.495232 0.048397 -0.016296 -539196.000000 0 0 1
25.623351 15.249015 0.970186 29.833368 0.536825 1.538270 0.053683 -0.015171 346802.000000 0 0 1
26.684251 14.573715 0.294986 30.406076 0.499886 1.561095 0.057635 -0.009544 -235360.000000 0 0 1
27.029351 15.129215 -1.144614 30.996599 0.510285 1.607732 0.057042 -0.006790 -27196.100000 0 0 1
27.624491 16.405015 -1.219314 32.151575 0.535891 1.608729 0.044233 -0.006019 376177.000000 0 0 1
28.926621 16.548115 -0.691914 33.332691 0.519631 1.591556 0.050346 -0.009506 -516829.000000 0 0 1
29.405501 17.965515 -0.468514 34.462483 0.548438 1.584392 0.050341 -0.001361 -176171.000000 0 0 1
29.821451 18.558415 -1.713314 35.166308 0.556668 1.619536 0.019852 0.006298 427866.000000 0 0 1
30.444351 19.796015 -1.368814 36.340259 0.576541 1.608472 0.014829 0.014279 142228.000000 0 0 1
30.394521 20.849515 -2.446814 36.939357 0.601243 1.637084 0.019787 0.009101 18798.700000 0 0 1
31.371101 21.852415 -2.284914 38.300064 0.608426 1.630490 -0.014635 0.017393 185181.000000 0 0 1
31.115481 22.850715 -3.274714 38.743414 0.633432 1.655420 0.002308 0.012110 -51675.600000 0 0 1
32.267551 23.873315 -3.395114 40.282215 0.636977 1.655180 -0.013566 0.014642 -99840.300000 0 0 1
32.479151 24.764115 -2.304114 40.908014 0.651429 1.627150 0.003130 0.014434 164840.000000 0 0 1
33.058851 24.262915 -1.129214 41.022577 0.633137 1.598326 0.020047 0.026381 -495971.000000 0 0 1
32.680001 25.122615 0.069986 41.220543 0.655391 1.569098 0.020320 0.009321 -154825.000000 0 0 1
33.117591 26.479115 0.065186 42.401918 0.674465 1.569259 0.026578 0.013372 312030.000000 0 0 1
34.421141 26.638115 0.623186 43.529215 0.658615 1.556479 0.051391 0.006986 399144.000000 0 0 1
35.130171 27.922515 0.148786 44.875583 0.671581 1.567481 0.042319 0.000490 -252112.000000 0 0 1
35.504901 28.035115 -1.213814 45.255266 0.668375 1.597621 0.031213 0.004851 266163.000000 0 0 1
34.446661 28.104115 -2.158914 44.509265 0.684345 1.619320 0.031443 0.001348 -195384.000000 0 0 1
34.883391 27.653915 -3.529914 44.654791 0.670306 1.649928 0.039112 -0.001962 665150.000000 0 0 1
35.927931 28.421015 -4.178314 46.000312 0.669264 1.661754 0.016551 0.002234 766916.000000 0 0 1
-35.690578 27.821915 -5.411814 45.575915 -0.662135 1.689820 0.019076 -0.003682 283309.000000 0 0 1
35.457021 27.825915 -6.636914 45.557991 0.665391 1.716997 0.022677 -0.005575 -34337.300000 0 0 1
34.313371 27.030215 -6.583214 44.174412 0.667224 1.720381 0.026026 0.004426 -916207.000000 0 0 1
33.419431 27.260115 -7.608314 43.793364 0.684239 1.745414 0.017626 -0.002398 -2604.130000 0 0 1
32.196021 26.303015 -7.524714 42.249896 0.685000 1.749852 0.005283 0.016537 -295107.000000 0 0 1
32.440611 24.947915 -7.814214 41.663577 0.655572 1.759469 0.004756 0.013209 340094.000000 0 0 1
33.501451 24.272815 -7.108814 41.976804 0.627000 1.740967 0.013390 0.009327 584404.000000 0 0 1
33.591421 22.705615 -7.361014 41.208168 0.594392 1.750390 0.015013 0.015283 349881.000000 0 0 1
32.572681 22.089315 -6.562814 39.899724 0.595914 1.736030 0.003523 0.021494 541309.000000 0 0 1
32.579001 20.693915 -6.698814 39.172740 0.565895 1.742648 0.023884 0.003988 111979.000000 0 0 1
31.426661 19.978215 -5.920214 37.706937 0.566263 1.728455 0.022771 0.004006 736771.000000 0 0 1
30.294631 19.775015 -6.789514 36.809149 0.578311 1.756310 0.028301 -0.001362 332232.000000 0 0 1
29.313891 19.055315 -6.080514 35.487771 0.576406 1.742987 0.039553 -0.008136 -534985.000000 0 0 1
27.996231 18.813015 -6.806314 34.409947 0.591675 1.769910 0.025317 -0.012279 -502931.000000 0 0 1
28.053251 17.686515 -7.642714 34.032467 0.562518 1.797299 0.036486 -0.012861 74987.400000 0 0 1
26.938851 17.587015 -8.498214 33.274982 0.578376 1.829051 0.038001 -0.011987 -2683.800000 0 0 1
27.212991 16.360415 -9.358814 33.102832 0.541300 1.857424 0.046826 -0.012058 60833.700000 0 0 1
26.475651 16.519715 -10.555014 32.943428 0.557850 1.896946 0.047879 -0.013731 285601.000000 0 0 1
26.652751 15.399515 -11.425114 32.833633 0.523924 1.926201 0.048620 -0.010475 -85350.300000 0 0 1
26.028751 15.745215 -12.800414 33.003913 0.544027 1.969089 0.048716 -0.003119 -447552.000000 0 0 1
24.627951 15.863015 -12.782614 31.961953 0.572221 1.982239 0.031950 -0.000665 39819.600000 0 0 1
23.970151 15.824115 -14.045214 31.972470 0.583484 2.025605 0.035542 -0.005158 -55569.300000 0 0 1
23.813751 14.433415 -14.720914 31.497992 0.544890 2.057099 0.042310 -0.009336 -861041.000000 0 0 1
24.976151 13.831915 -15.216714 32.352409 0.505760 2.060475 0.047998 -0.015105 -148179.000000 0 0 1
25.333551 14.327215 -16.527814 33.469786 0.514698 2.087266 0.052756 -0.020068 162306.000000 0 0 1
26.750151 13.866015 -17.018614 34.604482 0.478222 2.084956 0.061766 -0.014039 579727.000000 0 0 1
26.783351 12.478415 -17.250714 34.214703 0.435999 2.099240 0.058605 -0.025442 319716.000000 0 0 1
28.077461 11.883115 -17.265914 35.038037 0.400367 2.086074 0.057418 -0.020654 420008.000000 0 0 1
28.029451 10.453215 -17.879914 34.851272 0.356961 2.109513 0.051890 -0.016940 -56092.600000 0 0 1
27.642011 10.357815 -19.235914 35.233301 0.358519 2.148329 0.046100 -0.024467 -58788.300000 0 0 1
27.906621 9.124615 -19.829414 35.429419 0.316012 2.164805 0.036905 -0.014834 573846.000000 0 0 1
29.369551 8.815615 -20.321814 36.786706 0.291605 2.156064 0.031078 -0.015926 -126997.000000 0 0 1
29.705051 9.631615 -21.386414 37.848868 0.313546 2.171287 0.029551 -0.023197 128472.000000 0 0 1
30.166751 9.020215 -22.574214 38.742642 0.290550 2.192808 0.020298 -0.015051 -1782480.000000 0 0 1
31.574541 8.538015 -22.570014 39.739840 0.264092 2.174802 0.010404 -0.010370 -1762630.000000 0 0 1
32.528671 9.577115 -22.607114 40.754352 0.286330 2.158819 0.016003 -0.008484 15160.000000 0 0 1
33.833821 9.027715 -22.542914 41.646249 0.260750 2.142773 0.004965 -0.007624 582215.000000 0 0 1
34.945581 10.120015 -22.337714 42.691707 0.281882 2.121437 0.027889 -0.009934 126718.000000 0 0 1
34.913471 10.700815 -21.043414 42.145975 0.297405 2.093585 0.018187 -0.010655 165577.000000 0 0 1
35.857601 11.741815 -20.998414 43.180681 0.316452 2.078637 0.000329 -0.001559 -181885.000000 0 0 1
35.789981 12.523815 -19.650314 42.707184 0.336608 2.048924 -0.003548 -0.000880 4236.040000 0 0 1
-35.788936 11.758015 -18.594614 42.010219 -0.317428 2.029316 0.000238 -0.005934 214096.000000 0 0 1
35.877261 12.384515 -17.447614 41.772878 0.332384 2.001685 0.017060 -0.012017 -45102.600000 0 0 1
-35.872540 11.516315 -16.205314 41.013130 -0.310641 1.977000 0.005189 -0.011345 163860.000000 0 0 1
35.504951 10.288715 -16.185514 40.353811 0.282057 1.983503 0.017780 -0.010440 457832.000000 0 0 1
-35.899053 9.478315 -15.257214 40.141787 -0.258136 1.960682 0.019421 -0.017975 -65683.400000 0 0 1
35.479631 8.195415 -14.895114 39.342515 0.227008 1.959081 0.056237 -0.016415 -304780.000000 0 0 1
34.357581 8.385015 -14.046114 38.053189 0.239372 1.948856 0.077527 -0.016741 546713.000000 0 0 1
34.569651 8.235015 -12.698614 37.737661 0.233857 1.913991 0.073273 -0.023106 -546953.000000 0 0 1
33.326541 8.744015 -11.957414 36.470480 0.256590 1.904840 0.080050 -0.022576 -165919.000000 0 0 1
32.998711 10.158715 -12.002514 36.553725 0.298645 1.905355 0.085434 -0.022069 471553.000000 0 0 1
32.107061 10.708015 -11.028714 35.597156 0.321909 1.885800 0.062578 -0.014541 -22034.400000 0 0 1
32.591501 10.605015 -9.554214 35.580266 0.314586 1.842658 0.063817 -0.008446 -684919.000000 0 0 1
33.728411 11.306115 -9.182914 36.739078 0.323439 1.823424 0.059214 -0.005617 -398541.000000 0 0 1
33.612721 12.630915 -8.700714 36.946684 0.359452 1.808523 0.063857 -0.008136 -534080.000000 0 0 1
33.123941 12.868315 -7.285414 36.274871 0.370545 1.773011 0.053044 -0.005931 -579232.000000 0 0 1
34.022161 12.446115 -6.313414 36.773257 0.350702 1.743336 0.063126 -0.001624 41975.100000 0 0 1
33.579001 12.690315 -5.016714 36.245839 0.361332 1.709650 0.044968 0.001178 -438638.000000 0 0 1
34.782591 12.674215 -4.092014 37.245254 0.349431 1.680885 0.051661 0.008827 163791.000000 0 0 1
35.640381 13.815615 -4.169214 38.451142 0.369805 1.679439 0.057726 0.013844 -219504.000000 0 0 1
-35.185572 13.605015 -3.646014 37.900057 -0.368958 1.667146 0.043103 0.001505 108595.000000 0 0 1
-34.258022 14.873115 -3.650514 37.525297 -0.409595 1.668232 0.050774 -0.003028 447010.000000 0 0 1
-34.577615 15.711015 -2.590714 38.067825 -0.426482 1.638904 0.050561 -0.003878 -24222.900000 0 0 1
-33.578290 16.663315 -2.365514 37.560129 -0.460645 1.633817 0.074442 -0.002870 -909.387000 0 0 1
-34.055116 17.673515 -1.260014 38.388692 -0.478707 1.603625 0.060173 -0.003142 -298443.000000 0 0 1
-35.043221 18.516815 -1.743614 39.672912 -0.486108 1.614760 0.038193 0.006530 -227276.000000 0 0 1
-35.431373 19.440515 -0.707614 40.420497 -0.501830 1.588304 0.020324 0.006208 730916.000000 0 0 1
35.388981 20.356115 -0.934914 40.836571 0.521992 1.593692 0.013522 0.012463 793764.000000 0 0 1
35.541121 21.475915 -1.762814 41.563130 0.543543 1.613222 0.040780 0.012804 -81519.700000 0 0 1
35.583921 21.223615 -3.162914 41.553115 0.537797 1.646987 0.016459 0.014715 -126353.000000 0 0 1
35.959541 22.452215 -3.991214 42.580751 0.558149 1.664667 0.041838 -0.008546 349018.000000 0 0 1
-34.739932 22.702115 -3.924314 41.685119 -0.578823 1.665078 0.057577 -0.001278 134265.000000 0 0 1
-34.381829 23.968315 -4.485614 42.151050 -0.608792 1.677416 0.069457 -0.016947 578971.000000 0 0 1
-32.861800 24.250815 -4.688214 41.109358 -0.635753 1.685087 0.080538 -0.024667 301253.000000 0 0 1
-32.275000 23.304915 -5.587514 40.199689 -0.625387 1.710242 0.063430 -0.013459 -161531.000000 0 0 1
-31.010240 23.828815 -5.952414 39.558547 -0.655185 1.721841 0.063310 -0.003109 -526064.000000 0 0 1
-30.384130 22.983615 -6.993714 38.734403 -0.647607 1.752348 0.052154 -0.027562 -611765.000000 0 0 1
-31.092450 22.884715 -8.246914 39.477364 -0.634495 1.781249 0.055282 -0.040169 -79482.300000 0 0 1
-30.244070 22.532215 -9.303214 38.845261 -0.640302 1.812641 0.025900 -0.039965 -20397.500000 0 0 1
-30.940110 22.303015 -10.680414 39.607905 -0.624579 1.843830 0.028380 -0.018115 2521.060000 0 0 1
-31.531090 23.432615 -11.297214 40.876939 -0.639109 1.850813 0.040628 -0.017700 210025.000000 0 0 1
-32.007240 23.064915 -12.625214 41.422817 -0.624428 1.880513 0.007207 -0.011650 -247230.000000 0 0 1
-32.563630 24.301615 -13.330214 42.762754 -0.641117 1.887804 0.043834 -0.007372 -187033.000000 0 0 1
-31.690130 25.405915 -13.468414 42.791624 -0.675775 1.890983 0.047174 -0.015015 -520108.000000 0 0 1
-30.992640 25.368715 -14.717214 42.669800 -0.685944 1.922939 0.043084 -0.017405 -277046.000000 0 0 1
-29.651980 26.148415 -14.654914 42.163326 -0.722693 1.925780 0.030381 -0.012513 452935.000000 0 0 1
-28.647410 25.478515 -13.840514 40.760136 -0.726918 1.917245 0.039881 -0.012013 486531.000000 0 0 1
-28.830050 25.169415 -12.446514 40.244092 -0.717712 1.885227 0.045954 -0.013259 -1206460.000000 0 0 1
-29.106170 26.322615 -11.430814 40.874353 -0.735222 1.854234 0.060648 -0.010865 -653764.000000 0 0 1
-28.023700 27.145015 -11.211614 40.594087 -0.769472 1.850622 0.049941 -0.011231 -801493.000000 0 0 1
-28.325500 28.328315 -10.488514 41.410582 -0.785448 1.826867 0.040671 -0.016307 -272405.000000 0 0 1
-27.074550 29.158615 -10.215914 41.080665 -0.822442 1.822113 0.052840 -0.018384 -309210.000000 0 0 1
-27.306780 30.367215 -9.558714 41.942783 -0.838413 1.800716 0.018399 -0.015308 -267624.000000 0 0 1
-26.133070 31.018215 -9.119914 41.572104 -0.870668 1.791971 0.032735 -0.012512 -322877.000000 0 0 1
34.312931 -25.119985 33.798260 54.320468 -0.631937 0.899245 -0.001168 0.012362 -140768.000000 0 0 1
34.064961 -23.838085 -34.147641 53.802762 -0.610580 2.258393 -0.007959 0.003171 -622913.000000 0 0 1
32.989211 -23.817285 -33.285574 52.568817 -0.625321 2.256452 -0.014462 0.014536 -475311.000000 0 0 1
32.629681 -22.359785 -32.868364 51.429422 -0.600764 2.264119 -0.018096 0.016624 23742.600000 0 0 1
32.077331 -21.693185 -33.973214 51.514354 -0.594627 2.290937 -0.018485 0.011449 -84458.600000 0 0 1
31.722271 -20.378085 -33.596244 50.500262 -0.571007 2.298650 -0.025123 0.016830 -6666.180000 0 0 1
31.229541 -19.516085 33.689872 49.911615 -0.558545 0.829844 -0.020102 0.018220 136742.000000 0 0 1
32.269301 -19.269485 32.737466 49.843380 -0.538318 0.854220 -0.011228 0.010092 144560.000000 0 0 1
31.910391 -18.659385 31.553467 48.601101 -0.529126 0.864220 -0.004615 0.013319 -962183.000000 0 0 1
33.053291 -18.690385 30.523437 48.718895 -0.514637 0.893714 -0.003762 0.016610 -708101.000000 0 0 1
34.028061 -17.768085 30.877807 49.265127 -0.481218 0.893398 -0.004108 0.004047 -14778.800000 0 0 1
35.118941 -17.740885 29.957267 49.452168 -0.467772 0.920047 0.011870 -0.000142 550979.000000 0 0 1
-35.840725 -16.727085 30.269197 49.805393 0.436660 0.917573 0.017493 -0.010568 314280.000000 0 0 1
-34.838078 -16.638885 29.235097 48.427627 0.445573 0.922679 0.032023 -0.009703 1298050.000000 0 0 1
-33.768420 -15.698785 29.457377 47.481524 0.435172 0.901548 0.035106 -0.012225 798009.000000 0 0 1
-32.608110 -16.141785 30.364527 47.390406 0.459659 0.875346 0.044047 -0.016973 -733149.000000 0 0 1
-31.641200 -15.150685 30.655177 46.588074 0.446567 0.852630 0.044873 -0.015666 -787715.000000 0 0 1
-30.691540 -15.861085 31.359127 46.657684 0.476989 0.833741 0.046334 -0.022273 -801199.000000 0 0 1
-29.586180 -14.887885 31.826347 45.933730 0.466208 0.805327 0.048207 -0.023383 -209510.000000 0 0 1
-30.032940 -14.117985 32.941062 46.759048 0.439429 0.789099 0.054134 -0.020580 424359.000000 0 0 1
-28.973570 -13.341085 33.442812 46.215516 0.431516 0.761753 0.054879 -0.020953 -26868.600000 0 0 1
-29.406890 -12.706885 -33.696274 46.493752 0.407874 2.381466 0.044945 -0.016594 -42286.700000 0 0 1
-29.349200 -13.654785 -32.641694 45.970739 0.435465 2.360371 0.060587 -0.021483 223141.000000 0 0 1
-29.425230 -13.009785 -31.375274 44.938919 0.416290 2.343643 0.055934 -0.013361 -420713.000000 0 0 1
-29.530840 -14.030685 -30.220214 44.521814 0.443546 2.316887 0.055046 -0.016133 -56056.700000 0 0 1
-30.735700 -14.764985 -30.260624 45.589400 0.447833 2.296637 0.044033 -0.020149 -150627.000000 0 0 1
-30.952510 -15.241785 -28.937864 45.030765 0.457569 2.268715 0.027282 -0.011785 128154.000000 0 0 1
-32.198670 -16.132185 -28.875214 46.160369 0.464463 2.246621 0.016055 -0.015440 -103922.000000 0 0 1
-32.020890 -17.382085 -29.594874 46.939651 0.497326 2.252978 0.022264 -0.013400 63949.800000 0 0 1
-33.162000 -18.200885 -29.483414 47.961048 0.501958 2.232848 0.009617 -0.007176 -137642.000000 0 0 1
-33.083200 -19.366085 -30.489694 48.981270 0.529597 2.242699 0.014259 -0.005874 556426.000000 0 0 1
-34.155972 -20.335285 -30.415674 50.052647 0.537005 2.223924 -0.011902 -0.008319 298228.000000 0 0 1
-33.772470 -21.493585 -31.072674 50.676079 0.566772 2.230854 -0.015336 -0.003548 12843.100000 0 0 1
-34.907997 -22.524185 -31.272164 51.998609 0.573025 2.216053 -0.028060 0.008590 44436.100000 0 0 1
-35.490686 -23.023485 -30.105254 51.922981 0.575474 2.189287 -0.022306 0.001719 -63180.900000 0 0 1
35.857691 -24.234985 -30.259964 52.808843 -0.594344 2.180970 -0.011250 0.005035 275518.000000 0 0 1
-35.432885 -25.541455 -30.590884 53.325954 0.624576 2.181762 -0.010411 0.008154 58055.000000 0 0 1
-35.173923 -25.718985 -31.982404 54.051320 0.631357 2.203968 -0.007142 0.009740 -389759.000000 0 0 1
-34.651224 -27.004525 -32.126584 54.424894 0.662006 2.202217 -0.005198 0.005800 -246839.000000 0 0 1
-34.892574 -27.515265 -33.488764 55.642419 0.667733 2.216620 0.006899 -0.006874 486103.000000 0 0 1
35.846281 -27.913285 -33.653894 56.539295 -0.661614 2.208348 0.015053 -0.003477 30957.600000 0 0 1
35.657721 -29.085495 33.985414 57.205310 -0.684233 0.934656 0.015724 -0.002676 394186.000000 0 0 1
-35.794646 -30.461465 -33.962684 57.988114 0.705078 2.196519 0.018106 -0.008406 477865.000000 0 0 1
35.732701 -30.893835 -32.702954 57.452051 -0.712899 2.176355 0.025983 -0.015004 99330.200000 0 0 1
-35.539508 -31.914085 -32.228604 57.621596 0.731703 2.164355 0.027199 -0.020576 -231424.000000 0 0 1
-35.829106 -32.123825 -30.722954 57.092599 0.730925 2.139007 0.032762 -0.023225 646422.000000 0 0 1
35.175671 -33.053585 -30.587124 57.144024 -0.754306 2.135616 0.042843 -0.017482 707927.000000 0 0 1
34.698681 -33.194665 -29.293314 56.249289 -0.763249 2.118557 0.028225 -0.020080 -425262.000000 0 0 1
33.699631 -34.322499 -29.051274 56.193199 -0.794555 2.114126 0.034636 -0.015488 254367.000000 0 0 1
32.434921 -34.137478 -29.682974 55.663906 -0.810967 2.133238 0.032959 -0.011140 -30748.100000 0 0 1
31.493041 33.607496 -29.269354 54.570784 0.817867 2.136910 0.032505 -0.016186 16571.300000 0 0 1
30.096941 33.960013 -29.827764 54.302890 0.845632 2.152305 0.018781 -0.004009 -76589.500000 0 0 1
29.911581 33.782706 -31.238544 54.880056 0.846100 2.176347 0.019927 -0.003299 -53305.500000 0 0 1
28.556891 33.939812 -31.619344 54.471917 0.871317 2.190103 0.019365 -0.001157 63209.500000 0 0 1
28.121211 33.511410 -33.007784 54.802654 0.872633 2.217179 0.018327 -0.006283 -33647.700000 0 0 1
28.041051 32.153920 -33.160444 54.035083 0.853618 2.231514 0.003343 -0.000102 -71497.800000 0 0 1
27.822341 31.833480 33.961562 54.229520 0.852535 0.894055 0.007913 0.004232 35709.600000 0 0 1
27.640291 30.312660 33.746584 53.119441 0.831478 0.882404 0.011381 -0.003085 175918.000000 0 0 1
28.810661 29.535530 33.927192 53.417751 0.797821 0.882620 0.019101 -0.002966 -173615.000000 0 0 1
28.525191 28.179020 34.217888 52.712499 0.779293 0.864341 0.031764 -0.011001 50623.400000 0 0 1
29.804231 27.360840 -33.994814 52.844632 0.742681 2.269594 0.040270 -0.019113 120845.000000 0 0 1
30.477031 27.734390 -32.812924 52.675742 0.738318 2.243270 0.036297 -0.015977 -870418.000000 0 0 1
31.672921 27.026410 -32.761824 52.980542 0.706405 2.237469 0.043708 -0.020488 -518362.000000 0 0 1
32.407181 27.119580 -31.437624 52.668978 0.696803 2.210416 0.057885 -0.018870 -251162.000000 0 0 1
33.157611 28.295700 -31.137044 53.568548 0.706447 2.191068 0.043643 -0.015564 567016.000000 0 0 1
32.385171 29.508980 -31.057024 53.703984 0.738962 2.187440 0.067053 -0.021675 42079.600000 0 0 1
31.439561 29.552050 -29.839574 52.461127 0.754461 2.175835 0.055192 -0.016218 -478244.000000 0 0 1
32.088441 29.822200 -28.656764 52.347319 0.748809 2.150093 0.027166 -0.015962 -353835.000000 0 0 1
31.249991 30.434870 -27.701244 51.673999 0.772185 2.136579 0.037192 -0.006209 -397317.000000 0 0 1
32.008111 30.754660 -26.404954 51.648716 0.765430 2.107425 0.043337 -0.012409 31814.000000 0 0 1
32.697331 31.996950 -26.516314 52.877549 0.774573 2.096089 0.045358 -0.014049 154815.000000 0 0 1
33.147441 32.441880 -25.265394 52.816366 0.774641 2.069586 0.032644 -0.019431 -72348.200000 0 0 1
33.543711 33.901843 -25.199184 53.939914 0.790708 2.056885 0.033738 -0.016905 53233.800000 0 0 1
32.377741 -34.010395 -25.360644 53.368411 -0.809986 2.065987 0.030835 -0.004584 274977.000000 0 0 1
32.524891 -32.612755 -25.019114 52.415803 -0.786747 2.068399 0.025298 -0.010166 -869843.000000 0 0 1
33.092641 -31.776045 -26.113964 52.789952 -0.765105 2.088259 0.020000 -0.015651 184777.000000 0 0 1
34.450871 -31.945495 -26.514534 53.948102 -0.747682 2.084587 0.026078 -0.019281 -352218.000000 0 0 1
35.274341 -31.111935 -25.772934 53.632786 -0.722780 2.072072 0.022284 -0.015456 -1022270.000000 0 0 1
-35.378569 -31.512325 -26.134504 54.108059 0.727663 2.074881 0.014591 -0.015329 -393108.000000 0 0 1
-34.870627 -32.865795 -25.928004 54.482864 0.755809 2.066775 0.020740 -0.017336 89070.100000 0 0 1
-34.826114 -33.321515 -24.546614 54.089905 0.763323 2.041834 0.022773 -0.012918 167823.000000 0 0 1
-33.606620 -32.794155 -23.708914 52.602035 0.773163 2.038371 0.008233 -0.010819 343921.000000 0 0 1
-33.539000 -31.378415 -23.601314 51.638081 0.752128 2.045475 -0.017264 -0.008917 -159670.000000 0 0 1
-32.752390 -30.959025 -22.480114 50.364032 0.757257 2.033481 0.012165 -0.014622 -90070.400000 0 0 1
-32.630610 -29.426855 -22.259714 49.256384 0.733818 2.039708 0.008906 0.002359 -105629.000000 0 0 1
-33.839170 -28.722705 -22.453814 49.741903 0.703797 2.039137 -0.010930 0.008690 -363616.000000 0 0 1
-34.029622 -28.341145 -23.810714 50.281067 0.694446 2.064116 -0.010594 0.003641 -426235.000000 0 0 1
-35.268501 -27.501975 -24.091014 50.799633 0.662295 2.064892 -0.013774 0.002280 -435845.000000 0 0 1
-35.229353 -26.185395 -23.541714 49.809582 0.639189 2.063074 -0.017083 0.009308 -407464.000000 0 0 1
36.039771 -25.244665 -24.167314 50.201766 -0.611039 2.073052 -0.009722 0.006321 -364924.000000 0 0 1
-35.595446 -24.791185 -25.580744 50.358843 0.608353 2.103622 -0.003020 -0.002839 -917629.000000 0 0 1
-34.709172 -23.747285 -25.606934 49.237945 0.600029 2.117723 -0.008126 -0.003238 -647956.000000 0 0 1
-34.609450 -23.091685 -26.833504 49.508351 0.588377 2.143611 0.000366 -0.009290 596765.000000 0 0 1
-33.417270 -22.031085 -26.921194 48.237260 0.582866 2.162890 -0.001944 -0.015746 552612.000000 0 0 1
-33.444520 -20.873485 -26.077534 47.268129 0.557968 2.155190 0.002255 -0.006551 -52936.000000 0 0 1
-34.395526 -19.837685 -26.294954 47.623634 0.523150 2.155726 -0.001914 -0.006357 618465.000000 0 0 1
-35.499147 -19.808085 -25.130604 47.792226 0.508955 2.124487 0.011954 -0.009532 511881.000000 0 0 1
-35.060632 -19.550885 -23.840014 46.688663 0.508683 2.106698 0.018007 -0.009496 -675895.000000 0 0 1
-34.347656 -20.541485 -23.196514 46.257889 0.538982 2.096083 -0.000966 -0.009420 -322246.000000 0 0 1
-35.174670 -21.781585 -22.770614 47.224948 0.554447 2.073930 0.024905 -0.002867 -239174.000000 0 0 1
-35.979380 -21.515685 -21.682214 47.197022 0.538948 2.048114 0.020624 -0.002585 -483635.000000 0 0 1
35.377151 -22.645885 -21.309014 47.100456 -0.569404 2.040269 0.016533 0.003314 511145.000000 0 0 1
34.290641 -22.339985 -20.192514 45.636176 -0.577421 2.029144 0.013130 -0.004782 1865720.000000 0 0 1
33.110821 -21.559685 -20.607714 44.562589 -0.577174 2.051546 0.031055 -0.001368 795342.000000 0 0 1
32.085551 -21.750685 -19.654914 43.461368 -0.595737 2.040070 0.028572 -0.005091 -363337.000000 0 0 1
30.797181 -21.249685 -20.301214 42.569411 -0.603975 2.067917 0.024744 -0.000273 -899099.000000 0 0 1
30.239801 -22.053285 -21.354014 43.090450 -0.630108 2.089279 0.026404 0.002259 275902.000000 0 0 1
29.001731 -21.676085 -21.911714 42.321109 -0.641839 2.115014 0.045328 -0.002356 50322.300000 0 0 1
28.967631 -20.252385 -22.621414 41.964403 -0.610148 2.140119 0.059916 -0.008579 -585705.000000 0 0 1
28.952441 -19.200585 -21.709314 40.965847 -0.585583 2.129322 0.053512 -0.003912 89497.500000 0 0 1
29.025461 -17.982385 -22.430214 40.852883 -0.554662 2.152022 0.064331 -0.006247 -776172.000000 0 0 1
29.985921 -17.009685 -21.859114 40.820408 -0.515995 2.135890 0.058825 -0.005756 -1247110.000000 0 0 1
29.523001 -16.385485 -20.663814 39.586423 -0.506680 2.119982 0.045381 -0.009292 95698.400000 0 0 1
30.401271 -15.694585 -19.761014 39.510188 -0.476561 2.094568 0.033102 -0.013595 664807.000000 0 0 1
31.596561 -16.512185 -19.140914 40.464423 -0.481559 2.063524 0.044953 -0.014523 576942.000000 0 0 1
32.611091 -16.956285 -20.006314 41.847956 -0.479483 2.069254 0.043341 -0.014269 283271.000000 0 0 1
33.433661 -18.013185 -19.501114 42.691662 -0.494184 2.045179 0.044613 -0.015596 408566.000000 0 0 1
34.682651 -18.357385 -20.352414 44.205210 -0.486809 2.049251 0.026129 -0.011582 -230465.000000 0 0 1
35.678831 -17.408285 -20.216014 44.550136 -0.453934 2.041800 0.033191 -0.007728 32427.100000 0 0 1
-35.350183 -17.600285 -21.147014 44.795107 0.461953 2.062449 0.026940 0.002230 779540.000000 0 0 1
-34.462176 -16.341385 -21.411214 43.739256 0.442782 2.082335 0.014315 0.002453 287785.000000 0 0 1
-33.626560 -15.892985 -20.364214 42.403227 0.441514 2.071738 0.007757 -0.002857 284604.000000 0 0 1
-32.618790 -14.993585 -20.798814 41.489561 0.430859 2.095900 -0.003891 -0.000634 -918925.000000 0 0 1
-31.481920 -14.790785 -19.827214 40.037445 0.439212 2.088881 0.005821 -0.004689 -747142.000000 0 0 1
-30.462560 -15.777785 -19.888814 39.654394 0.477897 2.096190 -0.008968 0.000382 77546.200000 0 0 1
-30.799860 -17.099885 -19.490114 40.260427 0.506822 2.076132 -0.004458 -0.001558 -1078650.000000 0 0 1
-29.789990 -18.180985 -19.815214 40.132710 0.547962 2.087184 -0.015123 -0.008372 -617155.000000 0 0 1
-30.054160 -19.341185 -19.127014 40.536115 0.571824 2.062186 0.000511 -0.012351 9970.940000 0 0 1
-29.190720 -20.385085 -19.490114 40.589584 0.609612 2.071651 -0.005369 -0.013541 -325859.000000 0 0 1
-29.762400 -21.774585 -19.141414 41.549088 0.631630 2.049573 0.006462 -0.005001 128162.000000 0 0 1
-30.804510 -22.165485 -20.041714 42.917326 0.623729 2.056674 0.004322 -0.004651 496936.000000 0 0 1
-31.374300 -23.422285 -19.699814 43.829588 0.641285 2.036961 0.012116 0.006103 321860.000000 0 0 1
-32.325550 -23.887185 -20.849114 45.279403 0.636396 2.049304 0.004247 0.006414 52926.000000 0 0 1
-31.594300 -24.085785 -22.027314 45.426065 0.651356 2.077051 0.003234 0.002348 266291.000000 0 0 1
-32.337660 -24.805885 -23.019714 46.807728 0.654349 2.084944 0.003108 0.003993 153319.000000 0 0 1
-31.573370 -25.008885 -24.372814 47.078191 0.669898 2.114968 0.005166 0.005216 212036.000000 0 0 1
-30.456490 -25.871825 -24.434214 46.839939 0.704185 2.119584 0.010735 -0.007186 -94684.700000 0 0 1
-30.195150 -26.039215 -25.830274 47.507797 0.711628 2.145643 0.014979 -0.000869 723291.000000 0 0 1
-28.708650 -26.370335 -26.210624 46.974226 0.742970 2.162745 0.023358 -0.006345 690755.000000 0 0 1
-27.844900 -25.277585 -26.331474 45.909054 0.737108 2.181638 0.030806 -0.008119 -303687.000000 0 0 1
-26.481190 -25.630005 -26.317734 45.285469 0.769066 2.190940 0.028974 -0.006256 266055.000000 0 0 1
-25.575660 -24.412285 -26.615254 44.254330 0.762129 2.216068 0.045431 -0.005466 -3098.040000 0 0 1
-25.863500 -23.920085 -27.894624 44.935522 0.746381 2.240521 0.046631 -0.010870 286504.000000 0 0 1
-24.900730 -22.910385 -28.171504 44.029146 0.743793 2.265083 0.069455 -0.013990 360857.000000 0 0 1
-24.938130 -22.330385 -29.619874 44.697800 0.730285 2.295174 0.061686 -0.006452 28494.000000 0 0 1
-24.607430 -23.282385 -30.623044 45.665806 0.757737 2.305800 0.062200 -0.015391 221740.000000 0 0 1
-24.322030 -22.669285 -31.888284 46.068647 0.750241 2.335316 0.064195 -0.010004 22279.900000 0 0 1
-23.911330 -23.754485 -32.957904 47.140754 0.782108 2.344988 0.059973 -0.017562 78711.300000 0 0 1
-24.986330 -24.545885 -33.377384 48.382506 0.776506 2.332098 0.021817 -0.013241 -198193.000000 0 0 1
-24.459030 -25.800085 -33.761374 49.027736 0.812075 2.330378 0.042893 -0.013720 365149.000000 0 0 1
-19.646430 -14.859585 -11.958114 27.382220 0.647553 2.022736 0.011690 0.026300 55075.800000 0 0 1
-20.048930 -14.253085 -10.784614 26.859224 0.618014 1.983976 0.007706 0.023500 -346684.000000 0 0 1
-19.186530 -14.566285 -9.776114 25.997538 0.649359 1.956315 0.003219 0.014185 -808958.000000 0 0 1
-19.639830 -13.865385 -8.468614 25.489002 0.614730 1.909480 0.027888 -0.003191 614.738000 0 0 1
-20.728330 -14.593485 -7.940114 26.564617 0.613429 1.874334 0.044028 -0.007709 315775.000000 0 0 1
-21.239130 -14.056785 -6.728114 26.343146 0.584650 1.829061 0.053731 -0.013114 -343883.000000 0 0 1
-22.317130 -14.954485 -6.128214 27.554417 0.590369 1.795076 0.040442 -0.018507 -839430.000000 0 0 1
-21.893530 -16.147285 -5.514614 27.757385 0.635477 1.770799 0.030564 -0.017522 286688.000000 0 0 1
-21.385430 -16.050185 -4.200014 27.066310 0.643834 1.726601 0.040802 -0.019574 -200699.000000 0 0 1
-21.194130 -17.467885 -3.684814 27.710936 0.689315 1.704165 0.028327 -0.008424 198157.000000 0 0 1
-22.380230 -18.123385 -3.243814 28.980236 0.680685 1.682963 0.041342 -0.017014 200971.000000 0 0 1
-22.125330 -19.337185 -2.602814 29.499688 0.718254 1.659143 0.032949 -0.014418 -16314.800000 0 0 1
-23.337030 -20.240585 -2.242014 30.972970 0.714462 1.643246 0.029386 -0.028097 -18370.400000 0 0 1
-23.655630 -21.133285 -3.212414 31.882976 0.729141 1.671724 0.009519 -0.030093 -20375.500000 0 0 1
-24.798930 -21.893185 -2.856014 33.203242 0.723246 1.656919 0.021925 -0.026381 123709.000000 0 0 1
-24.937730 -23.055385 -3.868114 34.181917 0.746197 1.684202 0.032516 -0.023846 -453726.000000 0 0 1
-23.773330 -23.838085 -3.848314 33.885617 0.786758 1.684610 0.029441 -0.021968 -540373.000000 0 0 1
-23.780130 -24.830785 -4.831914 34.719013 0.807008 1.710422 0.036766 -0.019336 -477552.000000 0 0 1
-22.421830 -25.005885 -5.536614 34.039489 0.839828 1.734175 0.047976 -0.016690 199518.000000 0 0 1
-21.900930 -23.910385 -6.259014 33.023211 0.829234 1.761484 0.031436 -0.008195 32525.200000 0 0 1
-21.521030 -22.798485 -5.477414 31.826525 0.814214 1.743760 0.020803 -0.011395 -1108350.000000 0 0 1
-21.406530 -21.490885 -6.335614 30.987702 0.787365 1.776704 0.020910 0.000064 -31353.600000 0 0 1
-20.165430 -21.205085 -6.969714 30.081175 0.810523 1.804618 0.011630 0.010534 171869.000000 0 0 1
-20.224030 -19.941285 -7.543114 29.386473 0.778359 1.830389 0.000945 0.005369 -294945.000000 0 0 1
-19.041730 -19.522085 -8.403514 28.536263 0.797854 1.869713 0.025666 0.007202 -541023.000000 0 0 1
-18.941730 -20.193785 -9.638314 29.316807 0.817380 1.905791 0.021659 0.007611 -234492.000000 0 0 1
-17.817830 -19.785685 -10.387914 28.580713 0.837682 1.942774 0.062998 0.007305 -100705.000000 0 0 1
-17.689130 -18.355185 -10.989414 27.759419 0.803875 1.977823 0.064049 0.009993 -222528.000000 0 0 1
-17.493330 -17.296985 -10.070814 26.582392 0.779755 1.959353 0.049480 0.015185 -154174.000000 0 0 1
-16.133930 -17.129085 -9.741614 25.467789 0.815307 1.963305 0.085815 0.012053 -281267.000000 0 0 1
-15.931630 -15.945385 -8.762914 24.183895 0.785830 1.941579 0.059515 0.015766 -129411.000000 0 1 0
-16.248830 -16.272585 -7.342314 24.139823 0.786129 1.879850 0.032616 0.013352 275772.000000 0 1 0
-16.462130 -15.064485 -6.592614 23.268068 0.741095 1.858064 0.037897 0.006796 -36613.800000 0 1 0
-16.955430 -15.196685 -5.152614 23.344705 0.730752 1.793348 0.030825 -0.000878 -5780.400000 0 1 0
-17.385630 -13.982185 -4.592914 22.778421 0.677320 1.773823 0.025200 -0.002909 48833.200000 0 1 0
-17.685830 -14.228485 -3.233014 22.927947 0.677487 1.712275 0.020703 -0.006827 -671356.000000 0 1 0
-18.683230 -13.225785 -2.766414 23.057266 0.616006 1.691066 0.037633 -0.004307 -229039.000000 0 1 0
-20.037330 -13.360985 -3.173814 24.291636 0.588098 1.701826 0.052920 -0.014706 1057540.000000 0 1 0
-20.885730 -12.394685 -2.527514 24.417827 0.535591 1.674493 0.057765 -0.009907 889771.000000 0 1 0
-22.414230 -12.429485 -2.845014 25.787282 0.506319 1.681348 0.049340 -0.011753 598232.000000 0 0 1
-22.828430 -11.932385 -4.094214 26.082209 0.481641 1.728422 0.059863 -0.017720 -850246.000000 0 0 1
-24.173130 -12.104885 -4.311714 27.376255 0.464254 1.728953 0.053216 -0.017412 -1369280.000000 0 0 1
-24.466230 -11.247585 -5.631714 27.510376 0.430907 1.776966 0.059863 -0.026934 -138924.000000 0 0 1
-23.834530 -11.696085 -6.813614 27.410008 0.456196 1.822012 0.055523 -0.034440 198151.000000 0 0 1
-24.465930 -11.179785 -7.950314 28.049542 0.428621 1.858174 0.061385 -0.034707 -21133.200000 0 0 1
-23.598330 -11.519585 -9.208014 27.827496 0.454125 1.908049 0.071018 -0.041174 57380.200000 0 0 1
-22.490130 -10.656085 -9.179814 26.525970 0.442478 1.924174 0.061340 -0.029501 -594571.000000 0 0 1
-21.580730 -10.889585 -10.187714 26.231669 0.467319 1.969663 0.047117 -0.023651 -1163880.000000 0 0 1
-20.339630 -10.048285 -9.992314 24.789411 0.458856 1.985685 0.037546 -0.027162 -961578.000000 0 1 0
-20.564530 -8.697485 -10.128914 24.518177 0.400121 1.996672 0.047752 -0.037284 401164.000000 0 1 0
-19.399730 -7.952385 -9.834814 23.158444 0.389031 2.009399 0.038641 -0.031879 -38980.600000 0 1 0
-19.332730 -6.699885 -10.765114 23.119917 0.333604 2.055132 0.032961 -0.034889 -393261.000000 0 1 0
-19.108530 -7.009485 -12.158214 23.708457 0.351584 2.109265 0.049020 -0.021158 399234.000000 0 1 0
-18.554930 -5.979485 -12.891014 23.371305 0.311750 2.155047 0.029205 -0.020986 -776011.000000 0 1 0
-18.053230 -6.321285 -14.287214 23.874719 0.336806 2.212329 0.037943 -0.011480 -255116.000000 0 1 0
-18.947130 -6.715585 -15.318114 25.273255 0.340623 2.221944 0.041750 -0.024651 252781.000000 0 0 1
-18.282830 -6.617485 -16.561714 25.541013 0.347281 2.276325 0.047893 -0.029032 -171320.000000 0 0 1
-18.941330 -7.414385 -17.720314 26.976964 0.373105 2.287454 0.037756 -0.017271 -574450.000000 0 0 1
-20.267130 -7.049285 -17.953114 27.977907 0.334730 2.267495 0.025357 -0.027316 -333767.000000 0 0 1
-20.761130 -7.892085 -18.966614 29.206882 0.363267 2.277576 0.026784 -0.027532 5639.940000 0 0 1
-22.218530 -7.586685 -19.407014 30.460680 0.329044 2.261548 0.024944 -0.024968 -544517.000000 0 0 1
-22.396630 -6.372685 -20.041314 30.722539 0.277211 2.281454 0.027012 -0.027272 700440.000000 0 0 1
-23.669530 -6.363885 -20.689414 32.074874 0.262653 2.271865 0.025647 -0.023874 1345220.000000 0 0 1
-24.922330 -5.976085 -19.802814 32.388077 0.235345 2.228654 0.050022 -0.026972 -21379.700000 0 0 1
-24.864930 -4.686385 -19.317814 31.834021 0.186288 2.222862 0.054376 -0.026689 244785.000000 0 0 1
-25.986670 -4.348385 -18.516814 32.203848 0.165795 2.183385 0.081950 -0.023063 -303280.000000 0 0 1
-26.013920 -2.871785 -18.026314 31.779225 0.109949 2.173942 0.059955 -0.018985 -138588.000000 0 0 1
-26.344560 -1.801785 -18.913714 32.480930 0.068287 2.192354 0.069009 -0.017144 831571.000000 0 0 1
-27.689030 -1.881185 -19.406614 33.864995 0.067835 2.181029 0.075556 -0.015566 473153.000000 0 0 1
-28.162080 -0.673485 -20.274214 34.707349 0.023910 2.194626 0.072200 -0.015163 -243207.000000 0 0 1
-27.599550 -0.624385 -21.594614 35.049285 0.022619 2.234605 0.068923 -0.015888 143891.000000 0 0 1
-27.989620 -1.617085 -22.544714 35.976352 0.057710 2.248048 0.075365 -0.007121 -59110.000000 0 0 1
-27.187580 -1.572785 -23.910014 36.239853 0.057785 2.291311 0.075990 -0.009260 -300427.000000 0 0 1
-27.324920 -0.512785 -24.809814 36.911259 0.018764 2.307902 0.084516 -0.004857 203555.000000 0 0 1
-26.760810 0.698115 -24.305414 36.157730 -0.026081 2.307980 0.073397 -0.006332 968920.000000 0 0 1
-25.202630 0.839415 -24.118814 34.894045 -0.033294 2.333947 0.073295 -0.003782 351237.000000 0 0 1
-24.406330 0.888115 -25.239444 35.121037 -0.036373 2.372643 0.059493 -0.004285 -76149.800000 0 0 1
-23.035130 0.957415 -24.864414 33.908302 -0.041539 2.393936 0.050525 -0.007186 98027.200000 0 0 1
-22.099730 0.306115 -25.872614 34.027693 -0.013851 2.434633 0.041962 -0.003986 -368415.000000 0 0 1
-21.987830 1.018115 -27.083794 34.900331 -0.046271 2.459147 0.019873 0.003926 -92119.000000 0 0 1
-21.141630 0.386515 -27.997854 35.085577 -0.018280 2.494745 0.013774 0.004831 -237011.000000 0 0 1
-20.972430 1.250515 -29.304704 36.057902 -0.059556 2.519589 0.008071 0.015216 -31985.000000 0 0 1
-19.961330 2.255915 -29.291274 35.517919 -0.112537 2.540450 0.016125 0.014437 449491.000000 0 0 1
-20.026930 3.108415 -30.437514 36.567505 -0.153983 2.554158 0.006497 0.008579 71516.400000 0 0 1
-19.389630 2.490215 -31.772894 37.305170 -0.127731 2.590021 0.000838 0.006440 -133033.000000 0 0 1
-17.992830 2.363515 -31.669964 36.500887 -0.130611 2.621251 -0.008625 0.008103 -310935.000000 0 0 1
-17.399230 1.694915 -32.730344 37.106352 -0.097107 2.651031 -0.023294 0.014550 -1480320.000000 0 0 1
-15.912230 1.634715 -32.698184 36.401134 -0.102374 2.686622 -0.013737 0.000043 -1633800.000000 0 0 1
-15.378730 2.948215 -32.825494 36.369085 -0.189409 2.696489 -0.008450 0.004695 -937621.000000 0 0 1
-14.028830 2.732315 -33.081874 36.037258 -0.192356 2.733781 -0.002980 -0.000962 -851026.000000 0 0 1
-13.317730 4.038315 -33.551404 36.323086 -0.294416 2.748408 0.008259 0.003441 -186923.000000 0 0 1
-13.230230 4.886015 -32.424624 35.359134 -0.353770 2.731311 0.023485 -0.011932 334356.000000 0 0 1
-12.645330 6.128115 -32.833984 35.714544 -0.451264 2.737209 0.036229 -0.003561 -68041.900000 0 0 1
-12.410530 7.092715 -31.589314 34.672938 -0.519206 2.716657 0.041459 -0.006494 783654.000000 0 0 1
-11.285930 6.833015 -30.671004 33.388213 -0.544414 2.735364 0.061416 -0.015197 1302310.000000 0 0 1
-11.470830 5.780115 -29.795734 32.446501 -0.466760 2.734570 0.056732 -0.019752 -335275.000000 0 0 1
-10.172630 5.026115 -29.451164 31.561294 -0.458902 2.773852 0.068840 -0.025721 -59134.800000 0 0 1
-9.591830 4.214015 -30.512754 32.261266 -0.413949 2.810850 0.054039 -0.024721 245423.000000 0 0 1
-10.339730 3.089815 -30.879974 32.711309 -0.290383 2.805393 0.054443 -0.024162 -526002.000000 0 0 1
-9.822630 2.317915 -32.134374 33.681965 -0.231738 2.837279 0.046826 -0.024825 380165.000000 0 0 1
-10.555930 1.080615 -32.436604 34.128121 -0.102015 2.825432 0.042783 -0.021076 704035.000000 0 0 1
-10.078630 0.533615 -33.676894 35.156745 -0.052896 2.850417 0.031517 -0.007091 -659068.000000 0 0 1
-10.579630 1.226015 33.497745 35.150115 -0.115370 0.307837 0.038037 -0.004852 -458986.000000 0 0 1
-11.966430 1.052315 33.365054 35.461664 -0.087713 0.345587 -0.001314 -0.001468 -461230.000000 0 0 1
-12.333530 1.406115 32.036867 34.357735 -0.113517 0.369661 -0.001455 0.006549 -190031.000000 0 0 1
-13.800830 1.054015 31.714927 34.603619 -0.076225 0.411503 0.004159 0.012193 2194.830000 0 0 1
-14.646030 2.124115 32.138747 35.382441 -0.144026 0.431535 -0.002739 0.022602 -270973.000000 0 0 1
-15.914230 1.866715 31.594457 35.425373 -0.116765 0.469356 -0.003495 0.023983 -266071.000000 0 0 1
-16.731430 3.080215 31.123887 35.470055 -0.182059 0.500236 0.000632 0.019412 79179.500000 0 0 1
-17.418630 3.887815 32.111327 36.737734 -0.219599 0.507280 -0.002723 0.010320 847448.000000 0 0 1
-16.575730 4.809915 32.828100 37.088735 -0.282422 0.484038 -0.000195 0.014307 328992.000000 0 0 1
-17.346730 5.417015 34.054988 38.600457 -0.302683 0.490191 0.007379 0.014626 851751.000000 0 0 1
-18.594930 6.004515 33.666500 38.926326 -0.312342 0.525890 0.000119 0.010535 525951.000000 0 0 1
-19.559130 5.700615 -33.792284 39.458523 -0.283599 2.599053 -0.004702 0.011904 -226388.000000 0 0 1
-20.843830 6.509415 -33.914314 40.336316 -0.302698 2.569535 -0.000985 0.009524 -568280.000000 0 0 1
-20.709530 7.843515 -33.538914 40.190348 -0.362045 2.558024 0.004175 0.006137 127932.000000 0 0 1
-20.328030 8.599715 33.807412 40.374807 -0.400215 0.578398 0.010552 0.003360 -323649.000000 0 0 1
-20.149130 10.037515 -34.167775 40.916696 -0.462176 2.559033 0.020542 -0.006336 140649.000000 0 0 1
-18.949230 10.134315 -33.369964 39.690454 -0.491109 2.569473 0.019612 -0.000458 898796.000000 0 0 1
-18.604730 11.396715 -32.799074 39.392897 -0.549612 2.554607 0.026238 -0.012358 51692.800000 0 0 1
-17.856430 12.234515 -33.868974 40.195060 -0.600697 2.572918 0.019118 -0.026172 -467597.000000 0 0 1
-18.701330 12.561815 33.514451 40.382637 -0.591484 0.591828 0.032219 -0.018720 487686.000000 0 0 1
-17.970330 12.831515 32.313427 39.137426 -0.620086 0.599461 0.033433 -0.014778 295710.000000 0 0 1
-18.729430 12.205115 31.081657 38.286104 -0.577537 0.623524 0.043036 -0.015967 -88625.800000 0 0 1
-18.830630 10.790115 31.080777 37.908230 -0.520336 0.609568 0.031736 -0.007721 592139.000000 0 0 1
-17.718630 10.163415 30.433377 36.652903 -0.520782 0.591127 0.018659 -0.008080 430592.000000 0 0 1
-17.683030 8.650815 30.645177 36.423248 -0.454983 0.570996 0.023042 0.006667 -559315.000000 0 0 1
-18.584130 7.978015 29.869807 36.072482 -0.405500 0.595176 0.033541 -0.002435 -495037.000000 0 0 1
-18.585230 6.561615 29.991367 35.887988 -0.339394 0.581402 0.022398 -0.002268 279072.000000 0 0 1
-19.327830 5.862615 28.761367 35.144722 -0.294505 0.612228 0.029374 -0.007019 -889301.000000 0 0 1
-20.684830 5.994215 28.685837 35.870183 -0.282062 0.643980 0.055512 -0.015809 -1374910.000000 0 0 1
-21.220730 5.067715 27.739827 35.291630 -0.234419 0.666457 0.045508 -0.020599 -67857.400000 0 0 1
-22.754430 5.126315 27.654787 36.177762 -0.221589 0.700664 0.047313 -0.012669 -234085.000000 0 0 1
-23.259830 5.944915 26.592147 35.826024 -0.250230 0.734363 0.048090 -0.016327 -94954.300000 0 0 1
-24.662630 5.901715 26.671857 36.803037 -0.234881 0.760170 0.051339 -0.011465 -628050.000000 0 0 1
-25.266620 6.816615 25.601467 36.610155 -0.263514 0.796379 0.048748 -0.012740 -252487.000000 0 0 1
-25.453930 6.406515 24.246857 35.733123 -0.246569 0.825004 0.044403 -0.013768 701096.000000 0 0 1
-26.375900 5.319415 24.046937 36.086555 -0.199008 0.841469 0.041575 -0.008909 46921.900000 0 0 1
-26.277670 4.833915 22.604567 34.997845 -0.181921 0.868615 0.047949 -0.000562 -177601.000000 0 0 1
-27.099250 5.573515 21.750767 35.192745 -0.202842 0.904540 0.040195 0.000374 -113646.000000 0 0 1
-27.011390 5.132915 20.486167 34.287681 -0.187789 0.930443 0.052524 0.003861 -18328.100000 0 0 1
-27.960690 5.966015 19.564767 34.643522 -0.210219 0.970672 0.065594 -0.007489 325059.000000 0 0 1
-29.298580 5.551015 19.789867 35.789096 -0.187244 0.984886 0.073716 -0.008002 -201022.000000 0 0 1
-30.138010 6.257115 18.912167 36.126461 -0.204707 1.019844 0.080410 -0.009585 439456.000000 0 0 1
-31.646340 6.261715 19.334467 37.610125 -0.195342 1.030866 0.086057 -0.003615 683388.000000 0 0 1
-31.960790 7.149815 20.397967 38.583533 -0.220082 1.013763 0.088490 -0.026637 585907.000000 0 0 1
-33.376630 7.301215 20.513567 39.851143 -0.215360 1.030075 0.079285 -0.015535 600799.000000 0 0 1
-33.866110 8.380915 21.512767 40.987221 -0.242598 1.018240 0.081113 -0.021146 19109.300000 0 0 1
-33.556000 8.058715 22.853667 41.391281 -0.235694 0.985871 0.075160 -0.021731 255022.000000 0 0 1
-34.113625 9.034615 23.726377 42.524165 -0.258895 0.978882 0.076407 -0.015060 -80958.000000 0 0 1
-0.576930 32.535015 11.593286 34.543659 -1.553066 1.228541 0.016729 -0.004484 -327864.000000 0 0 1
-0.609930 32.705715 12.983586 35.193882 -1.552149 1.192954 0.004067 -0.005797 42653.200000 0 0 1
-0.365930 34.014515 13.321186 36.531838 -1.560039 1.197544 0.000907 -0.007281 -324880.000000 0 0 1
-0.287730 34.241415 14.871186 37.332419 -1.562394 1.161084 -0.003104 0.002786 700713.000000 0 0 1
-1.540630 34.158215 15.569886 37.570981 -1.525724 1.143499 -0.003271 0.011894 484595.000000 0 0 1
-1.295330 -34.245019 16.927586 38.222276 1.532989 1.111997 -0.005294 0.000719 51411.900000 0 0 1
-2.544330 -33.937119 17.769286 38.392046 1.495964 1.089603 0.009939 0.005936 -255664.000000 0 0 1
-3.337630 33.657415 18.139686 38.379807 -1.471955 1.078517 0.006424 0.007721 -211397.000000 0 0 1
-4.216930 34.006715 19.175486 39.267524 -1.447423 1.060622 0.007018 0.006124 -382376.000000 0 0 1
-5.236430 32.905115 19.468286 38.589908 -1.412982 1.042003 0.003689 0.001199 -47748.200000 0 0 1
-6.216530 32.801815 18.454286 38.146625 -1.383500 1.065836 0.008345 -0.000270 -468813.000000 0 0 1
-7.304630 32.016815 18.856686 37.868307 -1.346486 1.049558 0.012817 -0.008750 -374158.000000 0 0 1
-8.319330 31.940615 17.713986 37.459304 -1.315995 1.078233 0.004870 -0.009459 -669024.000000 0 0 1
-9.108730 33.123615 17.629586 38.612759 -1.302438 1.096656 0.018150 -0.003381 -223866.000000 0 0 1
-10.015430 33.004315 16.568986 38.263886 -1.276170 1.122957 0.011724 0.000204 -403458.000000 0 0 1
-11.014230 34.131015 16.356786 39.418066 -1.258642 1.142901 0.024390 -0.009076 62408.600000 0 0 1
-12.176130 34.002715 17.177086 39.993688 -1.226930 1.126863 0.025115 -0.008291 49841.100000 0 0 1
-12.999130 -33.567719 16.998186 39.808385 1.201329 1.129624 0.010791 -0.009148 274208.000000 0 0 1
-14.301130 -33.575319 17.847086 40.624412 1.168128 1.115956 0.030560 -0.010242 497310.000000 0 0 1
-14.048730 -33.336619 19.222586 40.965898 1.171962 1.082373 0.018990 0.002281 268435.000000 0 0 1
-15.255830 -33.603619 19.918586 41.936782 1.144626 1.075870 0.010526 -0.008758 5222.620000 0 0 1
-15.263430 -33.269019 21.395786 42.397873 1.140658 1.041828 0.013744 -0.014092 -270034.000000 0 0 1
-15.071230 -31.865319 21.502986 41.290664 1.129008 1.023042 0.027176 -0.008553 74337.000000 0 0 1
-14.998330 -31.423319 22.850686 41.647674 1.125474 0.990028 0.020433 -0.005052 -48273.100000 0 0 1
-14.825930 -29.890519 22.979286 40.512948 1.110348 0.967684 0.037254 -0.009547 -248572.000000 0 0 1
-14.805230 -29.462119 24.337486 40.982003 1.105137 0.934951 0.040210 -0.014450 -227870.000000 0 0 1
-14.809630 -28.055619 24.513386 40.091757 1.085105 0.912927 0.029012 -0.004456 -4211.140000 0 0 1
-16.078230 -27.239319 24.171086 39.808685 1.037571 0.918288 0.044547 -0.004341 -616301.000000 0 0 1
-17.119530 -27.408719 25.064786 40.896940 1.012484 0.911100 0.063091 -0.004845 -85935.000000 0 0 1
-18.244230 -26.603719 24.720086 40.641020 0.969680 0.916937 0.067314 0.003551 187601.000000 0 0 1
-19.434930 -26.558519 25.737086 41.778811 0.939060 0.907101 0.059436 0.007239 683778.000000 0 0 1
-20.183230 -27.736819 25.997986 43.041715 0.941741 0.922263 0.064783 0.001284 369664.000000 0 0 1
-20.889130 -28.280919 24.847586 43.053092 0.934612 0.955576 0.060380 -0.000077 1596540.000000 0 0 1
-22.413630 -27.821419 24.614886 43.385422 0.892635 0.967507 0.053219 0.012111 1655660.000000 0 0 1
-22.572730 -26.489119 24.192786 42.385050 0.865055 0.963334 0.062596 0.005596 159575.000000 0 0 1
-23.833230 -26.200319 23.611186 42.567214 0.832673 0.982818 0.054856 0.005016 -97788.900000 0 0 1
-24.071930 -24.702619 23.369186 41.662886 0.798328 0.975310 0.042162 0.016092 -212126.000000 0 0 1
-24.438130 -23.987519 24.523586 42.119230 0.776093 0.949313 0.035152 0.018396 399214.000000 0 0 1
-25.006830 -22.706619 24.151286 41.523689 0.737227 0.950069 0.025868 0.017256 185563.000000 0 0 1
-25.489530 -21.855919 25.314586 42.050275 0.708802 0.924783 0.030961 0.018608 933683.000000 0 0 1
-26.625070 -22.479919 25.986786 43.469003 0.701184 0.930013 0.019198 0.018911 1132710.000000 0 0 1
-27.190630 -21.584419 26.946586 43.946968 0.670960 0.910740 0.014185 0.017916 -481526.000000 0 0 1
-28.407750 -22.178019 27.695886 45.452469 0.662863 0.915572 0.014520 0.012981 25177.500000 0 0 1
-29.738830 -22.088719 27.257086 45.991937 0.638849 0.936452 0.014730 0.008194 220072.000000 0 0 1
-29.973050 -22.527919 25.899286 45.570428 0.644528 0.966315 0.006237 0.015837 -1429080.000000 0 0 1
-31.483030 -22.774019 25.812086 46.648697 0.626242 0.984441 0.005847 0.010413 -210214.000000 0 0 1
-32.007900 -23.454119 24.671886 46.725832 0.632376 1.014536 0.001226 0.003745 262472.000000 0 0 1
-31.542900 -24.771119 24.590386 47.045191 0.665722 1.020785 -0.002679 0.005538 -480532.000000 0 0 1
-31.924480 -25.406119 23.188486 46.929194 0.672187 1.053978 0.008087 0.009688 -327544.000000 0 0 1
-33.245300 -25.842219 23.058186 48.007814 0.660758 1.069799 0.029372 0.004224 -449721.000000 0 0 1
-33.466480 -26.211019 21.717086 47.735256 0.664414 1.098482 0.038541 0.008399 -409625.000000 0 0 1
-34.811421 -26.918719 21.619086 49.028944 0.658230 1.114145 0.050917 -0.000732 -669990.000000 0 0 1
-34.965065 -28.124619 22.376186 50.142235 0.677396 1.108221 0.042482 -0.002460 410520.000000 0 0 1
-34.073922 -29.253219 22.124186 50.062587 0.709421 1.113047 0.022995 0.004589 196608.000000 0 0 1
-34.527453 -30.282319 21.055686 50.522330 0.719990 1.140918 0.043788 0.000513 -194528.000000 0 0 1
-34.362124 -29.798319 19.709786 49.569861 0.714387 1.161879 0.038869 0.007247 342639.000000 0 0 1
-34.623468 -30.800119 18.788586 50.004428 0.727025 1.185603 0.054725 0.004514 -305155.000000 0 0 1
-35.085127 -30.329419 17.435486 49.546301 0.712825 1.211193 0.051644 0.012502 436417.000000 0 0 1
-33.975410 -29.949519 16.565686 48.225762 0.722503 1.220152 0.047830 0.017080 816000.000000 0 0 1
-34.314835 -29.440319 15.298986 47.731533 0.709090 1.244516 0.057221 0.015146 355680.000000 0 0 1
-35.186918 -30.335519 14.334786 48.619431 0.711491 1.271512 0.067027 0.008488 615752.000000 0 0 1
-34.370024 -31.388019 13.868986 48.568046 0.740081 1.281208 0.061017 -0.003593 104305.000000 0 0 1
-34.964934 -32.180719 12.856986 49.228522 0.743957 1.306563 0.068609 -0.010573 50541.100000 0 0 1
-35.156271 -31.533719 11.452586 48.595273 0.731132 1.332885 0.062660 -0.011288 234165.000000 0 0 1
35.981541 -30.483719 11.446186 48.527761 -0.702869 1.332684 0.061166 -0.012837 157090.000000 0 0 1
35.914921 -29.859519 10.170486 47.800745 -0.693594 1.356389 0.040690 -0.008519 -32996.500000 0 0 1
34.721391 -28.895219 10.030186 46.272166 -0.694070 1.352297 0.069490 -0.005096 -130944.000000 0 0 1
35.009561 -27.814219 9.225686 45.655377 -0.671363 1.367323 0.079488 -0.037667 181885.000000 0 0 1
33.850071 -27.014719 9.059186 44.245805 -0.673563 1.364591 0.062599 -0.030191 48153.000000 0 0 1
33.891521 -26.018919 7.873886 43.446720 -0.654741 1.388558 0.048602 -0.032963 252882.000000 0 0 1
34.690361 -24.856019 8.107186 43.439260 -0.621721 1.383063 0.066957 -0.037855 223365.000000 0 0 1
34.488231 -23.943719 7.042786 42.571594 -0.606862 1.404598 0.061974 -0.042958 52789.500000 0 0 1
35.095781 -22.522519 7.237086 42.324380 -0.570550 1.398961 0.075011 -0.050176 -272010.000000 0 0 1
34.385441 -21.679019 8.108286 41.449762 -0.562524 1.373910 0.072526 -0.039639 -217368.000000 0 0 1
34.902961 -20.379619 8.049986 41.211016 -0.528492 1.374197 0.087127 -0.030883 -35978.000000 0 0 1
34.185051 -19.373519 8.991686 40.308825 -0.515593 1.345834 0.099863 -0.017895 146185.000000 0 0 1
34.606461 -19.466119 10.335386 41.028736 -0.512389 1.316147 0.091371 -0.030406 -363161.000000 0 0 1
33.728321 -18.777419 11.152886 40.181812 -0.507992 1.289542 0.098086 -0.019783 -250224.000000 0 0 1
34.181651 -18.704419 12.639786 40.963457 -0.500696 1.257115 0.082855 -0.034060 95715.600000 0 0 1
35.426461 -18.064119 12.835786 41.786409 -0.471540 1.258572 0.055536 -0.021744 170620.000000 0 0 1
35.910761 -18.487719 14.114486 42.785480 -0.475436 1.234610 0.060564 -0.017558 23331.500000 0 0 1
-34.890323 -17.751019 14.505286 41.747295 0.470636 1.215941 0.071144 -0.024858 976432.000000 0 0 1
-33.651640 -18.191719 13.922386 40.708775 0.495589 1.221752 0.052414 -0.018412 1066790.000000 0 0 1
-32.480030 -17.718119 14.564986 39.762079 0.499388 1.195763 0.033276 -0.020147 -204864.000000 0 0 1
-31.237330 -17.687719 13.708886 38.426030 0.515223 1.205999 0.045785 -0.018152 -819530.000000 0 0 1
-30.758000 -18.968719 13.438786 38.554738 0.552615 1.214758 0.026255 -0.016282 -460632.000000 0 0 1
-29.706840 -19.033919 12.529486 37.440278 0.569827 1.229560 -0.019041 0.000950 -370280.000000 0 0 1
-28.954320 -20.397219 12.509486 37.561768 0.613714 1.231273 -0.021645 -0.009592 164280.000000 0 0 1
-29.685810 -21.373019 11.769186 38.426124 0.624006 1.259513 -0.000829 -0.014043 369024.000000 0 0 1
-28.814920 -21.773619 10.708286 37.670380 0.647099 1.282559 -0.001036 -0.005728 -184114.000000 0 0 1
-29.569560 -22.481219 9.597186 38.364959 0.650049 1.317956 0.012993 -0.004576 162611.000000 0 0 1
-30.107410 -23.785819 9.881286 39.621473 0.668633 1.318744 0.021246 -0.008462 782443.000000 0 0 1
-31.418240 -23.686219 10.484586 40.719398 0.645993 1.310379 0.037952 -0.015345 191097.000000 0 0 1
-32.134460 -25.007219 10.577286 42.069746 0.661310 1.316646 0.062294 -0.022508 -339260.000000 0 0 1
-32.551900 -25.516219 9.316186 42.396874 0.664823 1.349251 0.056939 -0.019052 -343897.000000 0 0 1
-33.306930 -26.669519 9.498486 43.713111 0.675180 1.351758 0.072416 -0.016022 21371.700000 0 0 1
-33.588050 -27.392319 8.173686 44.105616 0.684144 1.384398 0.062073 -0.016303 147477.000000 0 0 1
-32.395650 -27.800319 7.542986 43.350116 0.709206 1.395905 0.050506 -0.018176 -37137.600000 0 0 1
-32.653890 -28.152619 6.158686 43.551991 0.711507 1.428911 0.043112 -0.014622 -333869.000000 0 0 1
-31.347590 -28.682519 5.538886 42.849009 0.741032 1.441168 0.035535 -0.009093 509787.000000 0 0 1
-30.421990 -27.610119 5.248486 41.416938 0.736982 1.443731 0.045369 0.000029 229004.000000 0 0 1
-29.275030 -28.089619 4.569486 40.828107 0.764737 1.458641 0.027206 -0.008120 115441.000000 0 0 1
-28.489310 -26.916819 3.915886 39.388959 0.757025 1.471216 0.029003 -0.004798 235658.000000 0 0 1
-29.109250 -26.348419 2.750086 39.359251 0.735657 1.500868 0.036777 -0.004236 377608.000000 0 0 1
-28.466640 -25.077619 2.405386 38.013451 0.722189 1.507477 0.031063 -0.007581 46036.700000 0 0 1
-28.681110 -24.516019 1.002586 37.744489 0.707262 1.544231 0.035848 -0.008541 104783.000000 0 0 1
-28.064280 -25.294719 -0.066314 37.781358 0.733540 1.572552 0.036643 -0.012275 119901.000000 0 0 1
-28.193370 -24.744719 -1.401314 37.538393 0.720345 1.608135 0.038908 -0.025274 492015.000000 0 0 1
-29.572050 -24.643119 -2.150414 38.554037 0.694733 1.626602 0.055766 -0.018087 765050.000000 0 0 1
-30.342910 -23.487919 -1.805114 38.413968 0.658737 1.617805 0.048299 -0.012704 275683.000000 0 0 1
-31.666650 -23.618519 -2.313614 39.572263 0.640839 1.629295 0.060517 -0.017753 457197.000000 0 0 1
-32.569210 -22.393619 -2.045314 39.577910 0.602335 1.622498 0.050563 -0.022402 -37491.400000 0 0 1
-32.837620 -22.060719 -0.675914 39.565660 0.591557 1.587880 0.058263 -0.026013 -182219.000000 0 0 1
-33.439050 -20.845619 -0.482514 39.407394 0.557442 1.583041 0.058685 -0.017513 -641513.000000 0 0 1
-33.631930 -20.497119 0.994686 39.398325 0.547342 1.545547 0.044931 -0.018504 -292498.000000 0 0 1
-34.438179 -21.421519 1.708186 40.592950 0.556459 1.528703 0.060935 -0.022555 309032.000000 0 0 1
-34.559048 -21.056219 3.122786 40.588717 0.547217 1.493783 0.056762 -0.020861 -525022.000000 0 0 1
-35.686997 -21.913619 3.791686 42.049320 0.550687 1.480501 0.076645 -0.012106 928695.000000 0 0 1
35.090501 -21.744519 3.281386 41.411772 -0.554757 1.491475 0.071859 -0.008610 94697.900000 0 0 1
34.453181 -20.553719 3.626786 40.281890 -0.537893 1.480639 0.076667 -0.018451 -1584250.000000 0 0 1
33.236521 -20.397819 2.758086 39.094046 -0.550445 1.500188 0.060212 -0.006337 -547785.000000 0 0 1
32.282511 -21.419919 3.000586 38.858422 -0.585817 1.493501 0.045412 -0.003707 -1034870.000000 0 0 1
31.007221 -20.919019 2.860286 37.513123 -0.593509 1.494475 0.055795 -0.002627 13817.100000 0 0 1
29.747431 -21.768319 3.268986 37.006157 -0.631732 1.482345 0.035938 0.010555 922114.000000 0 0 1
29.424621 -22.729519 2.280986 37.251071 -0.657725 1.509525 0.029837 0.004521 -315841.000000 0 0 1
28.168071 -23.282219 2.569686 36.634755 -0.690720 1.500595 0.021726 0.009368 -6972.430000 0 0 1
27.628991 -24.410019 1.604286 36.902357 -0.723620 1.527309 0.025317 0.005496 179184.000000 0 0 1
27.443101 -23.959519 0.263886 36.431470 -0.717731 1.563553 0.021480 -0.001199 165322.000000 0 0 1
26.936751 -25.072519 -0.443014 36.802392 -0.749569 1.582834 0.017256 0.002091 -497896.000000 0 0 1
26.223551 -24.724919 -1.732414 36.083203 -0.755992 1.618826 0.019103 0.000426 -382094.000000 0 0 1
26.952851 -24.294119 -2.889614 36.400691 -0.733564 1.650263 0.014741 -0.012003 62497.700000 0 0 1
27.204691 -25.264419 -3.888014 37.329650 -0.748436 1.675139 0.010945 -0.010803 -99558.800000 0 0 1
26.039851 -25.682719 -4.853714 36.894911 -0.778494 1.702734 0.015854 -0.015861 248266.000000 0 0 1
25.656251 -24.771419 -5.840714 36.138350 -0.767853 1.733129 0.018901 -0.032761 412837.000000 0 0 1
24.919651 -23.617519 -5.488414 34.769224 -0.758577 1.729312 0.037920 -0.033922 -266920.000000 0 0 1
24.458351 -22.624219 -6.640214 33.972911 -0.746462 1.767519 0.055573 -0.039895 -136782.000000 0 0 1
23.705451 -23.281419 -7.630414 34.090998 -0.776374 1.796533 0.057051 -0.048013 567445.000000 0 0 1
22.548851 -22.663319 -8.186414 33.001426 -0.787930 1.821476 0.053109 -0.048586 178732.000000 0 0 1
22.720551 -21.254219 -8.815514 32.336954 -0.752066 1.846905 0.056503 -0.042101 -430002.000000 0 0 1
23.478951 -21.356319 -10.026414 33.284869 -0.738091 1.876779 0.067055 -0.041997 402238.000000 0 0 1
23.097851 -20.340819 -10.848714 32.633637 -0.722014 1.909685 0.065201 -0.045748 228432.000000 0 0 1
24.017351 -20.350319 -12.128614 33.735322 -0.702935 1.938553 0.059113 -0.043265 840269.000000 0 0 1
25.385551 -20.076519 -11.850714 34.466393 -0.669145 1.921793 0.062942 -0.041645 388181.000000 0 0 1
26.127151 -19.592419 -12.965914 35.136958 -0.643429 1.948741 0.046247 -0.036757 -1053800.000000 0 0 1
27.577641 -19.938819 -12.857914 36.378685 -0.626000 1.932049 0.038165 -0.037826 -1342040.000000 0 0 1
27.823451 -21.356519 -13.022814 37.414423 -0.654653 1.926307 0.028085 -0.038415 -107672.000000 0 0 1
28.327281 -21.988419 -11.892114 37.780257 -0.660077 1.891011 0.037812 -0.038631 -185739.000000 0 0 1
28.767071 -23.463619 -12.140914 39.057491 -0.684206 1.886881 0.024381 -0.023470 -688895.000000 0 0 1
29.954691 -23.652119 -12.840314 40.268846 -0.668365 1.895328 0.012716 -0.025079 -339502.000000 0 0 1
30.087501 -24.943419 -13.290314 41.280314 -0.692193 1.898588 0.013121 -0.013820 -295129.000000 0 0 1
-4.856830 -9.366785 -27.396584 29.358104 1.092446 2.773976 0.069698 -0.015064 52566.800000 0 0 1
-4.180230 -8.148585 -27.138624 28.642253 1.096802 2.816131 0.036865 -0.010647 454167.000000 0 0 1
-4.770630 -7.081385 -27.929594 29.205601 0.977950 2.844903 0.030366 -0.009984 25727.400000 0 0 1
-4.539530 -5.743285 -27.255354 28.221392 0.901932 2.879189 0.028019 -0.012703 36168.200000 0 0 1
-5.222330 -5.469685 -26.027284 27.103684 0.808529 2.858821 0.023159 -0.017051 216684.000000 0 0 1
-4.850830 -4.223285 -25.380414 26.182668 0.716350 2.893406 0.030837 -0.020977 46547.500000 0 0 1
-5.403830 -3.861685 -23.978714 24.881573 0.620471 2.871378 0.022252 -0.024050 -160490.000000 0 1 0
-4.804730 -4.683785 -23.006214 23.964748 0.772652 2.857807 0.020160 -0.037193 285997.000000 0 1 0
-5.346830 -4.465685 -21.730714 22.820054 0.695840 2.831364 0.022354 -0.025105 -326279.000000 0 1 0
-4.899630 -5.563685 -20.744114 22.029054 0.848778 2.798357 0.029350 -0.022066 -459311.000000 0 1 0
-5.411230 -6.871285 -20.851214 22.611260 0.903716 2.744426 0.027955 -0.024810 126800.000000 0 1 0
-4.532630 -7.793485 -20.250314 22.166604 1.044022 2.722726 0.029833 -0.025665 -1173970.000000 0 1 0
-5.038730 -9.215785 -20.018214 22.606379 1.070452 2.658391 0.029908 -0.030476 782733.000000 0 1 0
-6.149730 -9.434885 -19.098914 22.172161 0.993151 2.608799 0.028483 -0.024598 631878.000000 0 1 0
-7.361830 -8.918385 -19.583414 22.743004 0.880719 2.608175 0.018201 -0.021638 -1549410.000000 0 1 0
-8.527430 -9.138085 -18.631314 22.435407 0.819952 2.550698 0.020118 -0.018936 -747872.000000 0 1 0
-8.979730 -10.455785 -18.742214 23.264341 0.861199 2.507517 0.024279 -0.011869 -41307.300000 0 1 0
-9.750230 -10.811885 -17.597014 22.838974 0.836984 2.450393 0.034051 -0.006517 67756.500000 0 1 0
-10.523730 -12.120585 -17.910914 24.051160 0.855801 2.410882 0.045831 0.003511 -61522.700000 0 1 0
-11.708030 -12.074285 -18.663214 25.123333 0.800797 2.408134 0.058774 -0.013639 127565.000000 0 0 1
-11.383030 -12.121185 -20.026614 26.030016 0.816793 2.448645 0.057539 -0.019109 246744.000000 0 0 1
-12.685330 -12.141185 -20.924214 27.315722 0.763484 2.443413 0.052998 -0.026277 1010720.000000 0 0 1
-13.543930 -13.265785 -21.003914 28.294584 0.775024 2.407337 0.065214 -0.018211 127668.000000 0 0 1
-14.292030 -13.444385 -19.800314 27.875904 0.754847 2.360724 0.054713 -0.010156 -521766.000000 0 0 1
-15.503330 -14.359285 -20.047614 29.128150 0.747107 2.329878 0.050142 -0.005866 92844.700000 0 0 1
-15.068930 -15.681985 -20.264314 29.726078 0.805332 2.320882 0.065887 0.004891 218637.000000 0 0 1
-16.117930 -16.449985 -20.835314 31.056400 0.795594 2.306200 0.078692 -0.001841 247997.000000 0 0 1
-15.660230 -17.869085 -21.187014 31.834518 0.851181 2.299008 0.050228 -0.004089 -185310.000000 0 0 1
-15.660530 -18.745485 -20.066714 31.611998 0.874822 2.258522 0.051270 -0.004942 165610.000000 0 0 1
-15.384030 -20.035585 -20.618414 32.606932 0.915978 2.255356 0.036133 -0.004610 150891.000000 0 0 1
-15.996030 -21.172285 -19.721314 33.061591 0.923773 2.209932 0.044425 -0.005386 208884.000000 0 0 1
-15.574430 -22.373185 -20.257714 33.963174 0.962679 2.209881 0.032296 0.000026 -153030.000000 0 0 1
-16.483430 -23.342985 -19.860414 34.799920 0.955961 2.178158 0.044570 -0.000436 -365991.000000 0 0 1
-16.182230 -24.843685 -20.274114 35.918142 0.993464 2.170567 0.033931 -0.002448 -313689.000000 0 0 1
-16.199130 -25.102775 -21.659814 36.901336 0.997724 2.198102 0.030995 0.003081 381684.000000 0 0 1
-15.375130 -26.238105 -21.929614 37.493209 1.040746 2.195548 0.035294 0.005311 -87325.100000 0 0 1
-15.622430 -26.712215 -23.406714 38.800476 1.041597 2.218377 0.041725 -0.004415 -642317.000000 0 0 1
-16.860630 -27.258015 -23.708714 39.867070 1.016844 2.207681 0.055147 -0.003017 -594705.000000 0 0 1
-16.863630 -28.638815 -23.558814 40.737960 1.038624 2.187441 0.053676 0.001666 20573.900000 0 0 1
-17.917730 -29.308875 -24.487314 42.186298 1.022079 2.190086 0.061246 -0.004423 14962.900000 0 0 1
-17.649730 -29.393085 -25.870174 42.950347 1.030030 2.217210 0.065149 -0.006886 141991.000000 0 0 1
-18.014530 -28.224125 -26.602404 42.764616 1.002713 2.242175 0.086294 -0.017487 298780.000000 0 0 1
-16.862930 -27.870055 -27.589464 42.688135 1.026668 2.273526 0.085422 -0.021124 45083.800000 0 0 1
-16.847830 -28.539355 -28.845054 43.936104 1.037512 2.286996 0.091473 -0.016358 487868.000000 0 0 1
-15.712730 -28.125035 -29.610574 43.757211 1.061318 2.314070 0.057987 -0.007385 445700.000000 0 0 1
-16.020630 -28.228255 -31.122884 44.968087 1.054587 2.335205 0.072288 -0.015387 217611.000000 0 0 1
-15.729030 -29.568825 -31.543674 46.007838 1.081919 2.326245 0.063355 -0.014428 536371.000000 0 0 1
-16.574330 -29.867235 -32.671614 47.267266 1.064173 2.333959 0.058642 -0.009794 409799.000000 0 0 1
-16.485830 -31.291985 -33.218334 48.522454 1.085909 2.324847 0.040992 -0.008072 -1261180.000000 0 0 1
-15.323730 -31.548875 -33.855604 48.747821 1.118643 2.338528 0.050371 -0.001930 -1561420.000000 0 0 1
-15.413630 -32.774205 33.886953 49.598932 1.131192 0.818634 0.027152 0.003129 194919.000000 0 0 1
-14.114330 -33.152925 33.117524 48.939770 1.168304 0.827526 0.030293 0.002481 241631.000000 0 0 1
-13.081630 -33.694465 33.885067 49.544361 1.200466 0.817655 0.045605 0.007292 -154903.000000 0 0 1
-12.087730 -34.326410 33.083257 49.182492 1.232216 0.832994 0.044111 0.001693 -126698.000000 0 0 1
-11.265830 33.419135 33.939609 48.945424 -1.245653 0.804575 0.053214 0.000833 -453725.000000 0 0 1
-10.358430 34.114512 -33.719654 49.072518 -1.276006 2.328340 0.062082 -0.005419 -384963.000000 0 0 1
-9.836430 33.236796 -32.769154 47.699658 -1.283059 2.328134 0.064815 -0.009967 -75926.600000 0 0 1
-9.017030 33.915912 -31.645354 47.254887 -1.310943 2.304566 0.049197 -0.015710 270416.000000 0 0 1
-9.749530 -33.912875 -30.769664 46.817824 1.290858 2.287922 0.063485 -0.011590 -109278.000000 0 0 1
-8.884130 -32.975065 -30.184184 45.578148 1.307625 2.294616 0.056993 -0.012095 -209461.000000 0 0 1
-9.588930 -31.958105 -29.271644 44.385776 1.279297 2.290926 0.076896 -0.013980 -43243.900000 0 0 1
-9.709330 -32.317405 -27.902184 43.786043 1.278939 2.261707 0.100452 -0.012703 -129188.000000 0 0 1
-10.513430 -33.426905 -27.529914 44.562162 1.266072 2.236721 0.110719 -0.016706 -191581.000000 0 0 1
-10.681130 -33.506335 -26.017624 43.745602 1.262201 2.207749 0.106522 -0.026721 260759.000000 0 0 1
-9.527330 -33.880835 -25.283494 43.335159 1.296674 2.193755 0.113208 -0.033548 87803.300000 0 0 1
-9.840230 -33.706245 -23.909514 42.480653 1.286750 2.168606 0.113118 -0.041247 588118.000000 0 0 1
-8.616430 -33.954055 -22.967614 41.888327 1.322275 2.151133 0.119242 -0.047196 379914.000000 0 0 1
-8.198330 33.407704 -22.913014 41.331507 -1.330149 2.158404 0.112317 -0.046041 -260242.000000 0 0 1
-7.411330 33.181824 -21.769514 40.371685 -1.351048 2.140316 0.111373 -0.039999 -274731.000000 0 0 1
-6.670730 31.819440 -21.777414 39.130949 -1.364146 2.160996 0.098620 -0.041895 -534060.000000 0 0 1
-5.513230 31.891340 -22.547114 39.443955 -1.399613 2.179280 0.069560 -0.047706 -588786.000000 0 0 1
-4.684030 30.755670 -22.431414 38.353874 -1.419660 2.195496 0.057869 -0.036393 -487497.000000 0 0 1
-3.303330 31.136980 -22.975414 38.836750 -1.465101 2.203825 0.050393 -0.038147 -552377.000000 0 0 1
-3.110630 31.313200 -24.348414 39.787407 -1.471782 2.229336 0.062188 -0.034791 5137.620000 0 0 1
-1.934130 32.019230 -24.712014 40.492660 -1.510464 2.227215 0.033439 -0.038244 93960.800000 0 0 1
-1.806930 32.147180 -26.221584 41.524422 -1.514647 2.254249 0.050999 -0.012037 -255774.000000 0 0 1
-0.904730 33.142051 -26.621504 42.519625 -1.543505 2.247337 0.051277 -0.024767 -557293.000000 0 0 1
-1.510730 -34.301157 -26.659734 43.469450 1.526782 2.231026 0.045920 -0.014422 -156257.000000 0 0 1
-0.630830 -33.115525 -27.157254 42.831674 1.551749 2.257571 0.020576 -0.003985 472995.000000 0 0 1
0.574970 -32.954195 -26.412894 42.236838 -1.553351 2.246379 0.025346 -0.007105 430222.000000 0 0 1
1.422170 -31.938255 -26.970404 41.826754 -1.526297 2.271574 0.014555 0.004046 452865.000000 0 0 1
2.645570 -31.586875 -26.093434 41.056022 -1.487236 2.259526 0.019639 -0.007798 -474056.000000 0 0 1
2.422670 -31.016715 -24.836314 39.808898 -1.492846 2.244505 0.022537 -0.004861 550780.000000 0 0 1
3.675670 -30.589195 -24.305014 39.242108 -1.451207 2.238724 0.020260 -0.006478 76261.300000 0 0 1
3.579770 -29.844635 -22.930414 37.806360 -1.451420 2.222476 0.024169 -0.010412 -192374.000000 0 0 1
3.456970 -30.784545 -21.821714 37.892295 -1.458969 2.184486 0.031384 -0.009213 497979.000000 0 0 1
3.622070 -30.047595 -20.600914 36.611132 -1.450831 2.168439 0.031123 -0.002460 -456494.000000 0 0 1
3.668170 -30.908135 -19.295714 36.620934 -1.452669 2.125750 0.034289 0.004056 -224080.000000 0 0 1
2.422970 -31.452735 -18.884214 36.766273 -1.493913 2.110205 0.038424 -0.002774 375048.000000 0 0 1
2.094170 -32.695305 -19.477414 38.114802 -1.506833 2.107167 0.041880 0.000712 -485934.000000 0 0 1
2.475270 -34.016095 -18.733514 38.912288 -1.498157 2.073081 0.029949 -0.003192 654719.000000 0 0 1
3.875870 -34.287983 -18.889514 39.338300 -1.458235 2.071658 0.027449 0.005882 596284.000000 0 0 1
4.266770 33.321011 -18.034514 38.127926 1.443439 2.063489 0.035675 -0.013767 903142.000000 0 0 1
5.474170 32.498850 -18.633014 37.859358 1.403921 2.085370 0.032040 -0.008302 107158.000000 0 0 1
6.676170 33.181268 -18.677314 38.657597 1.372244 2.075042 0.057044 -0.009992 -965025.000000 0 0 1
7.618870 32.391380 -19.382114 38.508635 1.339783 2.098231 0.043562 -0.020788 -536766.000000 0 0 1
8.908370 33.100578 -19.727714 39.549842 1.307895 2.093017 0.037242 -0.024194 -677017.000000 0 0 1
9.599570 33.710884 -18.672914 39.714646 1.293378 2.060288 0.039675 -0.011665 -16096.500000 0 0 1
10.865470 34.193705 -19.115514 40.653053 1.263125 2.060326 0.039319 -0.007110 232860.000000 0 0 1
11.764470 -34.322269 -17.867014 40.443183 -1.240581 2.028379 0.031623 -0.003089 -396412.000000 0 0 1
12.281970 33.197485 -17.276814 39.387918 1.216446 2.024873 0.029679 -0.008903 -197284.000000 0 0 1
12.711870 33.537386 -15.985114 39.266675 1.208492 1.990063 0.029602 -0.012876 667421.000000 0 0 1
14.025870 32.756839 -15.558214 38.881789 1.166234 1.982467 0.020304 -0.009137 1096460.000000 0 0 1
13.843270 31.374620 -15.257614 37.533953 1.155264 1.989418 0.027228 -0.004635 158496.000000 0 0 1
15.151270 30.886240 -14.973014 37.519487 1.114737 1.981302 0.025131 -0.002234 506803.000000 0 0 1
15.207370 29.692960 -13.998914 36.178800 1.097473 1.968104 0.037015 -0.004035 -316478.000000 0 0 1
14.901670 30.026970 -12.673914 35.837226 1.110132 1.932269 0.024569 -0.005803 338298.000000 0 0 1
13.526670 29.925560 -12.301014 35.068859 1.146272 1.929187 0.039369 -0.009826 371589.000000 0 0 1
13.091470 28.528410 -11.848014 33.550442 1.140572 1.931722 0.040484 -0.006170 -649141.000000 0 0 1
12.654270 27.591400 -12.774614 32.933367 1.140788 1.969141 0.042816 -0.012660 -62817.500000 0 0 1
12.356970 26.301870 -12.205014 31.518969 1.131588 1.968419 0.058553 -0.015304 484907.000000 0 0 1
11.270670 26.126100 -11.087714 30.537493 1.163522 1.942373 0.056320 -0.017084 1004080.000000 0 0 1
10.034270 26.822600 -11.381014 30.816650 1.212817 1.949067 0.063652 -0.023319 669919.000000 0 0 1
9.154570 26.767200 -10.271114 30.096261 1.241260 1.919070 0.050237 -0.014600 141849.000000 0 0 1
8.121670 27.905380 -10.485514 30.896889 1.287577 1.917045 0.059091 -0.025031 57140.700000 0 0 1
8.722970 29.196520 -10.462414 32.217838 1.280471 1.901533 0.063150 -0.021800 618788.000000 0 0 1
7.747770 30.234520 -10.648814 32.978044 1.319939 1.899595 0.051551 -0.017032 773158.000000 0 0 1
8.507370 31.543910 -10.921214 34.448026 1.307365 1.893397 0.072269 -0.030276 894962.000000 0 0 1
9.449570 32.038840 -9.917014 34.844351 1.283987 1.859395 0.044879 -0.025342 575731.000000 0 0 1
9.925170 33.356527 -10.072114 36.230020 1.281591 1.852513 0.073693 -0.025036 -109168.000000 0 0 1
10.976270 33.677940 -11.142614 37.132735 1.255734 1.875568 0.056971 -0.015171 261413.000000 0 0 1
12.248370 33.035641 -10.917914 36.886000 1.215746 1.871289 0.039498 -0.015403 337048.000000 0 0 1
13.107870 33.517128 -11.929714 37.914802 1.198003 1.890879 0.052777 -0.013171 113927.000000 0 0 1
14.598370 33.471493 -11.494614 38.282886 1.159525 1.875756 0.044997 -0.015411 239198.000000 0 0 1
14.876770 34.288065 -10.357714 38.784944 1.161432 1.841132 0.055491 -0.014684 -286624.000000 0 0 1
16.272670 -34.282568 -10.266514 39.312791 -1.127623 1.835009 0.039720 -0.023047 -51913.500000 0 0 1
16.832370 -33.393825 -9.104914 38.488643 -1.103909 1.809621 0.057504 -0.026474 49483.800000 0 0 1
16.807270 -34.038955 -7.839114 38.763210 -1.112149 1.774432 0.049574 -0.027181 178675.000000 0 0 1
17.345370 -33.137735 -6.869014 38.028340 -1.088579 1.752422 0.048477 -0.016730 -963479.000000 0 0 1
17.570870 -33.683795 -5.441814 38.378989 -1.089986 1.713067 0.035483 -0.008296 517299.000000 0 0 1
18.621670 34.071049 -5.320214 39.190657 1.070603 1.706969 0.020235 -0.015559 1690840.000000 0 0 1
19.963070 -34.273926 -5.797214 40.085332 -1.043376 1.715927 0.034242 -0.010033 664107.000000 0 0 1
20.703970 33.339683 -6.674314 39.808734 1.015078 1.739251 0.022992 -0.001163 318779.000000 0 0 1
20.901170 32.113710 -6.025114 38.787256 0.993825 1.726765 0.031735 0.007146 -742955.000000 0 0 1
21.909270 32.095280 -5.086014 39.191716 0.971822 1.700936 0.037820 0.006673 -980896.000000 0 0 1
22.356370 30.662620 -4.668514 38.233474 0.940801 1.693207 0.027813 -0.003160 -12312.100000 0 0 1
23.105970 29.957140 -5.657914 38.253471 0.913801 1.719247 0.027372 0.001957 -133007.000000 0 0 1
23.525070 28.818100 -5.041014 37.540959 0.886177 1.705484 0.014786 0.014288 -442154.000000 0 0 1
24.268370 27.862670 -5.975314 37.429754 0.854237 1.731123 -0.003522 0.023471 -940421.000000 0 0 1
25.454170 28.483130 -6.385014 38.729470 0.841496 1.736414 0.020934 0.003382 -308898.000000 0 0 1
26.425470 27.611800 -6.954014 38.846818 0.807349 1.750778 0.007042 0.007334 108949.000000 0 0 1
27.169570 26.686570 -5.959814 38.547087 0.776430 1.726030 0.000972 0.010421 -1330280.000000 0 0 1
28.179470 27.400170 -5.299914 39.660319 0.771378 1.704830 -0.003827 0.002887 -502076.000000 0 0 1
28.767970 26.428350 -4.449514 39.317324 0.743036 1.684209 -0.012533 0.013996 -328944.000000 0 0 1
29.963470 26.964010 -3.668714 40.476250 0.732758 1.661560 -0.006983 0.007284 -326013.000000 0 0 1
29.569170 27.874990 -2.691114 40.725827 0.755914 1.636923 0.004210 -0.002105 -447117.000000 0 0 1
30.624670 28.169250 -1.845814 41.650739 0.743659 1.615127 0.015784 -0.003328 -535815.000000 0 0 1
30.598170 29.564600 -1.227514 42.565483 0.768220 1.599639 0.036578 -0.006780 -182957.000000 0 0 1
30.875970 30.495550 -2.229314 43.454274 0.779200 1.622121 0.031330 -0.013845 -36543.100000 0 0 1
30.783270 31.835820 -1.813614 44.321759 0.802205 1.611727 0.059108 -0.015066 -198914.000000 0 0 1
33.358481 22.400415 19.342267 44.594733 0.591345 1.122163 0.026136 0.002020 -399464.000000 0 0 1
33.731541 22.242515 20.698567 45.397985 0.582954 1.097373 0.024279 -0.005194 464784.000000 0 0 1
34.520921 23.396115 21.092167 46.732769 0.595628 1.102535 0.022117 -0.003656 333574.000000 0 0 1
34.612311 23.531215 22.637067 47.583264 0.597075 1.074996 0.037482 -0.011794 -273222.000000 0 0 1
33.412071 24.019615 23.157667 47.218492 0.623292 1.058206 0.039217 -0.014763 115863.000000 0 0 1
33.581051 24.243215 24.564027 48.154044 0.625294 1.035480 0.039555 -0.021339 -553738.000000 0 0 1
32.231751 24.562315 25.198767 47.719713 0.651171 1.014484 0.063388 -0.021316 -407939.000000 0 0 1
31.753421 25.836915 24.887097 47.908178 0.683023 1.024560 0.038983 -0.015485 -897560.000000 0 0 1
30.436441 25.934015 25.272217 47.303647 0.705695 1.007170 0.032344 -0.026068 -933736.000000 0 0 1
29.945011 27.363715 25.597277 47.965584 0.740387 1.007875 0.025702 -0.009001 -178392.000000 0 0 1
29.838031 28.270415 24.519927 47.861794 0.758427 1.032928 0.016046 -0.004569 267414.000000 0 0 1
29.542971 29.520115 25.133737 48.743503 0.785011 1.029051 0.001676 0.001605 -86364.900000 0 0 1
29.355341 30.662015 24.127887 48.826736 0.807166 1.053936 0.005897 -0.010792 -546510.000000 0 0 1
30.604431 31.106915 23.698277 49.657625 0.793540 1.073293 0.000196 -0.014629 -514552.000000 0 0 1
30.463601 32.017815 22.615867 49.645231 0.810268 1.097807 -0.007144 -0.009157 745095.000000 0 0 1
31.820411 32.341915 21.877667 50.370332 0.793526 1.121495 -0.010676 -0.013852 1414300.000000 0 0 1
32.700031 33.112715 22.743167 51.797641 0.791669 1.116225 -0.006066 -0.000201 -16721.000000 0 0 1
33.957391 33.325115 22.173867 52.491410 0.776001 1.134673 0.017113 0.008882 -245231.000000 0 0 1
34.789191 -34.235619 22.855867 53.895789 -0.777378 1.132856 0.029546 0.006657 177075.000000 0 0 1
34.291791 -32.950019 22.464367 52.595423 -0.765446 1.129495 0.023516 -0.001707 243149.000000 0 0 1
34.803561 -31.939019 23.327267 52.683491 -0.742505 1.112098 0.027673 -0.008413 -864233.000000 0 0 1
34.173831 -30.546719 23.108867 51.331983 -0.729414 1.103824 0.033452 -0.003039 724151.000000 0 0 1
32.793961 -30.527719 23.519647 50.601970 -0.749624 1.087391 0.019029 -0.004493 1400740.000000 0 0 1
31.894901 -30.849719 22.403867 49.708381 -0.768742 1.103240 0.025263 0.002877 60494.900000 0 0 1
31.072261 -32.135619 22.628167 50.102070 -0.802220 1.102192 0.010538 0.006123 -143190.000000 0 0 1
30.029371 -32.040219 23.587507 49.846858 -0.817784 1.077877 0.010724 0.001849 546334.000000 0 0 1
29.246181 -33.236619 23.722797 50.227314 -0.849176 1.078888 -0.000884 0.004986 310877.000000 0 0 1
28.315641 -33.302619 24.947627 50.331144 -0.866156 1.052190 -0.000517 0.002583 -109994.000000 0 0 1
28.122781 34.007915 25.211957 50.823930 0.879838 1.051736 -0.005277 -0.009568 18318.700000 0 0 1
27.652251 33.815415 26.531737 51.108340 0.885331 1.024967 -0.006814 -0.003474 -495487.000000 0 0 1
27.528991 32.360815 26.918127 50.295659 0.865902 1.006054 0.003709 0.004780 -34717.600000 0 0 1
26.718751 31.568315 26.139397 48.925640 0.868408 1.007155 -0.003623 0.002850 -115423.000000 0 0 1
25.304251 31.672615 26.293057 48.319608 0.896707 0.995422 -0.001114 0.002806 314565.000000 0 0 1
24.545551 31.343115 24.999497 47.009040 0.906431 1.010069 0.026202 -0.013150 -270559.000000 0 0 1
24.674551 32.169815 23.875847 47.050893 0.916498 1.038577 0.038604 -0.018980 169525.000000 0 0 1
25.949851 32.368415 23.273667 47.568610 0.895018 1.059549 0.014140 -0.010304 -47637.700000 0 0 1
26.007351 33.340015 22.098367 47.710342 0.908330 1.089219 0.024856 -0.001071 -145634.000000 0 0 1
27.189321 33.185415 21.348567 47.919644 0.884388 1.109055 0.025089 -0.000358 116507.000000 0 0 1
27.086831 33.916815 20.138967 47.850024 0.896894 1.136385 0.027979 -0.006937 382622.000000 0 0 1
28.492001 -34.274719 19.655967 48.712499 -0.877269 1.155447 0.035227 -0.010362 623636.000000 0 0 1
29.370321 33.405315 19.219567 48.455367 0.849586 1.162937 0.034434 -0.015350 -135287.000000 0 0 1
30.317451 34.025515 18.369667 49.135814 0.842964 1.187634 0.031445 -0.012009 187647.000000 0 0 1
31.274531 33.046415 17.612967 48.789123 0.812939 1.201454 0.016836 0.004684 129950.000000 0 0 1
32.036811 32.253715 18.526867 49.090775 0.788772 1.183809 0.004484 -0.000634 -534662.000000 0 0 1
33.035631 31.612015 17.825767 49.075762 0.763381 1.199064 0.021531 -0.002260 -600013.000000 0 0 1
33.913081 30.800515 18.812967 49.524707 0.737338 1.181140 0.040723 -0.013536 85408.300000 0 0 1
34.911141 31.550715 19.468867 50.924181 0.734879 1.178500 0.032128 -0.013355 -18849.900000 0 0 1
35.677621 30.843415 20.414967 51.390464 0.712854 1.162276 0.050207 -0.014557 -47093.000000 0 0 1
-35.195394 31.618415 20.940567 51.739224 -0.731913 1.154110 0.089458 -0.017041 -108500.000000 0 0 1
-34.345330 32.142315 19.901767 51.076516 -0.752276 1.170549 0.088734 -0.018832 71653.400000 0 0 1
-33.218050 32.813715 20.400467 50.954468 -0.779275 1.158879 0.062694 -0.008077 -174572.000000 0 0 1
-33.433640 34.157915 21.082067 52.240071 -0.796113 1.155391 0.053569 -0.007753 -517984.000000 0 0 1
-33.826840 34.179215 22.449467 53.070259 -0.790580 1.134027 0.049561 -0.007716 202828.000000 0 0 1
-33.488490 -33.285219 23.081867 52.556230 0.782354 1.116106 0.039357 0.000616 -53298.200000 0 0 1
-33.428130 -33.424719 24.581837 53.281502 0.785347 1.091271 0.041680 -0.008105 248562.000000 0 0 1
-34.693851 -33.663119 25.176087 54.504167 0.770321 1.090647 0.042942 -0.000585 69089.700000 0 0 1
-34.533190 -34.096519 26.510477 55.298456 0.779036 1.070817 0.049723 -0.009682 709649.000000 0 0 1
-35.895833 34.214615 27.166237 56.543392 -0.761423 1.069629 0.035125 -0.019732 596162.000000 0 0 1
-35.729277 33.515715 28.378537 56.614713 -0.753442 1.045745 0.058413 -0.026122 -780223.000000 0 0 1
35.104951 33.347915 28.926197 56.401826 0.759736 1.032284 0.062358 -0.032826 -729404.000000 0 0 1
35.060571 32.383615 30.174027 56.466044 0.745728 1.007029 0.065798 -0.023525 -88363.500000 0 0 1
35.091031 30.980515 29.870577 55.528589 0.723265 1.002815 0.046169 -0.024669 626831.000000 0 0 1
-35.763632 30.575215 29.294477 55.426055 -0.707346 1.013925 0.049600 -0.024236 59261.300000 0 0 1
-35.878913 29.141215 28.729077 54.423035 -0.682142 1.014689 0.045852 -0.015738 -554030.000000 0 0 1
35.304611 28.987515 27.677777 53.411150 0.687456 1.026049 0.046620 -0.017546 38857.300000 0 0 1
35.216761 27.723715 27.074767 52.362846 0.666906 1.027383 0.037312 -0.017685 29036.500000 0 0 1
34.598311 26.572115 27.929167 51.799216 0.654933 1.001332 0.038403 -0.018739 -98991.500000 0 0 1
35.519151 26.209615 28.968517 52.798949 0.635713 0.990039 0.027223 -0.015514 325204.000000 0 0 1
35.266271 24.973215 29.620007 52.390039 0.616164 0.969909 0.024082 -0.023362 -619121.000000 0 0 1
35.734131 23.731215 28.825847 51.681991 0.586227 0.979119 0.016170 -0.019479 -385741.000000 0 0 1
35.011711 23.493915 27.660547 50.427075 0.591017 0.990196 0.024133 -0.019256 -242517.000000 0 0 1
35.665821 22.642615 26.770897 50.014196 0.565654 1.005974 0.013983 -0.023591 -588285.000000 0 0 1
35.599171 21.215015 27.096967 49.513872 0.537430 0.991709 0.006618 -0.026734 -128363.000000 0 0 1
34.333901 20.654615 26.772297 48.189063 0.541581 0.981751 0.047400 -0.018477 505683.000000 0 0 1
34.029261 19.379915 27.353967 47.768308 0.517697 0.961076 0.047172 -0.012714 -665767.000000 0 0 1
33.882611 19.204515 28.936807 48.519929 0.515647 0.931800 0.045477 -0.021856 587767.000000 0 0 1
32.700011 19.837815 29.478357 48.288748 0.545303 0.914155 0.038721 -0.027312 953767.000000 0 0 1
32.593831 21.198515 29.222647 48.638441 0.576645 0.926278 0.048384 -0.031409 -1825190.000000 0 0 1
31.442341 21.798915 30.011817 48.626358 0.606214 0.905627 0.063191 -0.032663 584693.000000 0 0 1
30.130761 21.473315 29.449137 47.288664 0.619179 0.898541 0.076727 -0.043906 1465190.000000 0 0 1
29.695101 22.203715 28.287057 46.636484 0.642042 0.919090 0.080817 -0.039397 -307458.000000 0 0 1
29.532401 23.756915 28.510717 47.427995 0.677440 0.925873 0.077818 -0.033951 610817.000000 0 0 1
30.853111 24.357015 28.562917 48.590317 0.668275 0.942421 0.063340 -0.029991 1014980.000000 0 0 1
30.955781 25.717815 28.982347 49.594787 0.693237 0.946677 0.045196 -0.019270 -87013.100000 0 0 1
31.086501 25.859715 30.526747 50.665350 0.693870 0.924145 0.051695 -0.022640 181107.000000 0 0 1
32.361591 25.395415 30.946517 51.477050 0.665366 0.925830 0.037737 -0.018238 48647.000000 0 0 1
32.475351 25.282115 32.323947 52.332316 0.661494 0.905024 0.048123 -0.015600 -84819.400000 0 0 1
31.933761 24.035415 33.019966 51.843847 0.645204 0.880310 0.064985 -0.020004 -205708.000000 0 0 1
32.249211 24.015215 -34.039344 52.682247 0.640085 2.273293 0.039659 -0.023497 387057.000000 0 0 1
32.174571 22.772415 -33.463644 51.706879 0.615926 2.274675 0.025997 -0.023300 -331298.000000 0 0 1
32.737401 22.825015 -32.015404 51.163511 0.608855 2.246885 0.028311 -0.031125 -296520.000000 0 0 1
31.942111 23.561615 -31.133604 50.445510 0.635540 2.235941 0.014687 -0.028021 210854.000000 0 0 1
32.360121 23.379515 -29.792394 49.813311 0.625654 2.211901 0.041913 -0.033969 603162.000000 0 0 1
33.683831 24.128415 -29.339694 50.770056 0.621595 2.186942 0.038978 -0.013560 975099.000000 0 0 1
34.190701 23.630115 -28.116854 50.179118 0.604746 2.165580 0.031334 -0.020198 -536332.000000 0 0 1
35.412951 24.183715 -27.733234 51.069183 0.599161 2.144864 0.042128 -0.009166 -390182.000000 0 0 1
-36.031530 23.406615 -26.609804 50.539316 -0.576104 2.125295 0.032072 -0.006314 -377527.000000 0 0 1
-35.153123 22.405915 -27.053334 49.695573 -0.567453 2.146448 0.026275 -0.000718 -25008.400000 0 0 1
-35.301074 21.292715 -26.197114 48.845003 -0.542751 2.136881 0.007700 0.000743 -653813.000000 0 0 1
-34.395048 20.099815 -26.443104 47.814847 -0.528856 2.156794 0.021877 0.007963 -365311.000000 0 0 1
-33.116880 20.481215 -25.993764 46.817557 -0.553877 2.159417 0.023218 0.001862 99845.800000 0 0 1
-32.113510 19.462215 -26.009134 45.678555 -0.544852 2.176566 0.006264 0.005231 95040.400000 0 0 1
-30.821440 19.789515 -25.291604 44.511249 -0.570780 2.175122 0.015507 0.000983 -555483.000000 0 0 1
-30.997330 19.881215 -23.893514 43.897576 -0.570295 2.146352 0.019487 -0.000619 583121.000000 0 0 1
-29.708050 19.894715 -23.277614 42.663981 -0.590082 2.147905 0.023310 -0.001531 468415.000000 0 0 1
-29.721470 20.015015 -21.791714 41.938591 -0.592663 2.117191 0.008024 -0.007247 224276.000000 0 0 1
-30.613700 19.071215 -21.190814 41.832529 -0.557133 2.101990 0.007713 -0.013073 513358.000000 0 0 1
-31.292710 19.614315 -20.061414 42.028745 -0.559894 2.068406 0.016753 -0.013606 -958936.000000 0 0 1
-32.159180 18.594415 -19.320414 41.871751 -0.524235 2.050390 0.009475 -0.012003 -268484.000000 0 0 1
-32.994580 19.049215 -18.296814 42.264504 -0.523594 2.018517 0.012915 -0.015135 249876.000000 0 0 1
-34.093293 19.817915 -18.770914 43.674359 -0.526545 2.015059 0.008470 -0.014481 -1083940.000000 0 0 1
-35.189939 20.050615 -17.724614 44.209964 -0.517904 1.983316 0.014365 -0.018241 -482067.000000 0 0 1
-34.812405 20.785115 -16.580614 43.804581 -0.538255 1.958986 0.020924 -0.028735 874239.000000 0 0 1
-35.843897 20.495115 -15.592014 44.135537 -0.519417 1.931867 0.030729 -0.016323 18375.500000 0 0 1
-35.713307 21.425215 -14.378914 44.059429 -0.540362 1.903239 0.040712 -0.017286 -114371.000000 0 0 1
-35.902319 22.816015 -14.592914 44.972216 -0.566116 1.901266 0.053126 -0.022594 363051.000000 0 0 1
34.830791 23.195115 -14.681714 44.348057 0.587497 1.908219 0.051646 -0.012207 129882.000000 0 0 1
34.596561 24.628615 -15.161714 45.092885 0.618655 1.913710 0.054896 -0.014867 -186151.000000 0 0 1
34.762961 25.366515 -13.984514 45.249201 0.630382 1.884996 0.064792 -0.017989 -155842.000000 0 0 1
34.744191 26.763315 -14.163814 46.087390 0.656365 1.883177 0.051474 -0.016063 -197333.000000 0 0 1
-36.029080 27.402115 -14.622114 47.568653 -0.650222 1.883245 0.066594 -0.012293 -217810.000000 0 0 1
-35.688033 27.151515 -15.958114 47.597289 -0.650378 1.912692 0.058737 -0.007513 76307.000000 0 0 1
-34.588492 27.977015 -16.309614 47.382282 -0.680116 1.922197 0.055421 -0.006322 -474620.000000 0 0 1
-34.225274 27.902615 -17.816314 47.616661 -0.683979 1.954289 0.035844 -0.008070 -171834.000000 0 0 1
-33.944940 26.601115 -18.281214 46.841019 -0.664695 1.971734 0.033358 -0.020759 -94623.100000 0 0 1
-32.671030 26.120615 -17.951414 45.518524 -0.674438 1.976185 0.040072 -0.014916 -497289.000000 0 0 1
-32.346700 24.746315 -18.536414 44.746930 -0.653053 1.997915 0.034034 -0.016635 -151667.000000 0 0 1
-32.012600 24.747715 -19.888014 45.086462 -0.658098 2.027630 0.016191 -0.012280 208525.000000 0 0 1
-31.634280 23.453815 -20.363714 44.333847 -0.637978 2.048033 0.017673 -0.012736 59033.300000 0 0 1
-31.229190 23.351715 -21.864214 44.705802 -0.642061 2.081818 0.009855 -0.002302 -533068.000000 0 0 1
-32.325430 23.722315 -22.610614 46.031745 -0.633091 2.084259 0.025044 -0.001228 -223553.000000 0 0 1
-32.104390 23.486615 -23.962414 46.438241 -0.631601 2.112978 0.023659 -0.001299 -325785.000000 0 0 1
-32.919800 24.377015 -24.865614 47.919212 -0.637391 2.116368 0.012739 0.007649 -567680.000000 0 0 1
-32.426750 25.662415 -25.060514 48.353728 -0.669473 2.115629 0.006596 0.014802 -805553.000000 0 0 1
-33.298690 26.435915 -25.772784 49.718173 -0.671012 2.115749 0.031796 0.004547 -712599.000000 0 0 1
-32.784560 27.834215 -26.047574 50.279688 -0.703915 2.115370 0.027331 0.014180 -614210.000000 0 0 1
-31.622140 27.752615 -26.776634 49.871390 -0.720319 2.137571 -0.000899 0.009356 -1178880.000000 0 0 1
-31.009480 28.975315 -27.015164 50.308805 -0.751500 2.137657 0.009119 0.002589 90939.300000 0 0 1
-29.687960 29.072115 -27.776774 49.981117 -0.774918 2.160056 0.011480 0.008301 207094.000000 0 0 1
-28.562410 28.396715 -27.190514 48.595357 -0.782489 2.164614 -0.002957 0.017176 226639.000000 0 0 1
-27.321760 28.670715 -27.781814 48.376830 -0.809485 2.182520 -0.003598 0.023985 352755.000000 0 0 1
-26.649340 30.051215 -27.437924 48.642600 -0.845324 2.170105 -0.005349 0.012770 -851214.000000 0 0 1
-26.128140 30.231515 -26.175654 47.768076 -0.858077 2.150736 -0.010785 0.010695 -442059.000000 0 0 1
-27.080200 30.419515 -25.141624 47.862150 -0.843408 2.123855 -0.013920 0.011827 38584.400000 0 0 1
-26.435910 30.927415 -23.794114 47.133027 -0.863538 2.099980 -0.029898 0.005299 30611.600000 0 0 1
-25.896840 32.238515 -23.911614 47.767494 -0.894053 2.095069 -0.015377 0.007792 8112.480000 0 0 1
-25.120250 32.521915 -22.778414 46.984658 -0.913106 2.076937 -0.002722 0.020247 101844.000000 0 0 1
-24.466530 33.940815 -22.837914 47.667183 -0.946208 2.070439 -0.001667 0.023500 366608.000000 0 0 1
-25.433240 -33.749619 -22.535514 47.892963 0.925004 2.060698 -0.011193 0.011708 411406.000000 0 0 1
-24.834730 -32.468419 -22.473614 46.647887 0.917834 2.073471 0.003194 0.008799 -63852.800000 0 0 1
16.816370 8.450315 -25.254934 31.496187 0.465650 2.501166 0.056391 -0.025156 -1273720.000000 0 0 1
15.506770 8.108715 -25.070314 30.573384 0.481811 2.532215 0.056114 -0.030334 -1311410.000000 0 0 1
15.275870 6.733615 -25.142234 30.179889 0.415178 2.555447 0.070091 -0.043622 -189927.000000 0 0 1
13.811970 6.283115 -25.313224 29.512833 0.426924 2.601580 0.084523 -0.042652 -50824.600000 0 0 1
13.095570 6.381515 -24.098114 28.159133 0.453439 2.597859 0.067285 -0.046224 737450.000000 0 0 1
11.832970 5.692415 -24.197614 27.530842 0.448384 2.644405 0.067155 -0.044446 288856.000000 0 0 1
11.054570 5.788615 -22.895314 26.075026 0.482380 2.642580 0.064900 -0.041815 -599879.000000 0 0 1
11.477570 5.037515 -21.792014 25.139670 0.413586 2.619621 0.050411 -0.027424 -258015.000000 0 0 1
10.935770 5.376815 -20.535914 23.879383 0.456963 2.606037 0.056865 -0.025709 -759759.000000 0 1 0
11.505070 6.557015 -19.759314 23.786373 0.518011 2.551158 0.063831 -0.036042 -438030.000000 0 1 0
11.102070 6.724915 -18.416214 22.530809 0.544626 2.527643 0.057673 -0.029225 -472086.000000 0 1 0
11.267770 8.055215 -18.012814 22.722469 0.620649 2.486073 0.052918 -0.027496 1024390.000000 0 1 0
12.756070 8.379515 -17.586814 23.285824 0.581213 2.426845 0.049700 -0.027390 934754.000000 0 1 0
13.147770 7.766115 -16.354614 22.375205 0.533538 2.390474 0.054143 -0.032161 355173.000000 0 1 0
14.543970 7.875115 -16.156814 23.121140 0.496270 2.344500 0.049941 -0.031148 -223930.000000 0 1 0
15.083470 7.725515 -14.729714 22.453488 0.473347 2.286316 0.051172 -0.030387 -149651.000000 0 1 0
16.499870 7.728715 -14.810214 23.480229 0.438058 2.253319 0.051480 -0.029517 1041260.000000 0 1 0
17.245470 7.849415 -13.572514 23.307352 0.427135 2.192385 0.067194 -0.026480 364298.000000 0 1 0
17.543570 9.373415 -13.226914 23.887005 0.490705 2.157631 0.066968 -0.028116 -399290.000000 0 1 0
16.351070 10.073815 -12.878414 23.123425 0.552170 2.161496 0.070857 -0.028741 542300.000000 0 1 0
16.488970 11.503715 -12.894714 23.885042 0.609155 2.141074 0.074684 -0.028734 256637.000000 0 1 0
15.136170 12.245315 -12.626814 23.205340 0.680211 2.146153 0.073807 -0.024664 211095.000000 0 1 0
14.674470 12.358615 -11.305914 22.268793 0.699939 2.103312 0.076844 -0.018683 501682.000000 0 1 0
15.436570 13.252115 -10.429314 22.862127 0.709401 2.044497 0.091614 -0.012091 211923.000000 0 1 0
15.128970 14.754515 -10.625714 23.653483 0.772868 2.036693 0.091217 -0.004188 1045190.000000 0 1 0
13.778770 15.141115 -10.274114 22.905573 0.832471 2.035930 0.087500 -0.011038 1321700.000000 0 1 0
13.624870 16.576015 -10.334114 23.815862 0.882806 2.019632 0.081681 -0.014225 162779.000000 0 1 0
12.450670 17.010115 -9.425414 23.091159 0.938943 1.991259 0.072374 -0.013326 -116447.000000 0 1 0
12.718170 16.883915 -8.014514 22.606434 0.925205 1.933201 0.075575 -0.014230 -206158.000000 0 1 0
11.713870 17.199515 -7.087914 21.983553 0.972896 1.899080 0.066769 -0.013955 -418985.000000 0 1 0
12.113070 17.046915 -5.594414 21.647662 0.953010 1.832193 0.055398 -0.011964 -242068.000000 0 1 0
12.976870 18.090915 -5.305014 22.887192 0.948544 1.804713 0.055947 -0.010736 -214261.000000 0 1 0
13.641170 17.807715 -4.072014 22.798630 0.917117 1.750368 0.068177 -0.011346 -277982.000000 0 1 0
14.745170 18.771615 -3.633614 24.145325 0.904957 1.721860 0.061751 -0.013952 -685211.000000 0 1 0
15.916270 18.665015 -4.398614 24.921040 0.864718 1.748228 0.065076 -0.018903 -359751.000000 0 1 0
16.480370 19.978015 -4.467214 26.280786 0.881041 1.741606 0.043026 -0.010170 -63600.300000 0 0 1
17.878070 19.944815 -5.134314 27.272371 0.839987 1.760187 0.039563 -0.004774 860892.000000 0 0 1
18.917070 19.162815 -4.481414 27.297474 0.791851 1.735712 0.046774 -0.021837 920894.000000 0 0 1
18.907670 17.788115 -4.814114 26.402514 0.754899 1.754158 0.051091 -0.018902 -77842.100000 0 0 1
20.149770 17.039015 -4.217514 26.723186 0.701945 1.729281 0.070961 -0.019639 93209.200000 0 0 1
21.362170 17.418015 -4.792214 27.976684 0.684041 1.742938 0.052883 -0.021014 -531607.000000 0 0 1
22.366870 16.506015 -4.444414 28.150990 0.635756 1.729337 0.060635 -0.028581 -554471.000000 0 0 1
23.803370 16.790215 -4.879214 29.535038 0.614322 1.736758 0.049666 -0.023063 -377052.000000 0 0 1
24.293070 17.918515 -4.215614 30.479466 0.635516 1.709551 0.049810 -0.020277 -1215760.000000 0 0 1
25.667670 17.893115 -4.228614 31.573312 0.608782 1.705130 0.043954 -0.011563 -1336300.000000 0 0 1
26.246470 19.063015 -3.396814 32.616163 0.628165 1.675131 0.045805 -0.007405 -196748.000000 0 0 1
26.164070 20.345215 -4.020314 33.386363 0.660933 1.691507 0.048984 -0.005988 144941.000000 0 0 1
26.566670 21.353615 -3.142414 34.229221 0.677038 1.662731 0.053319 0.010606 -230450.000000 0 0 1
26.545970 22.721415 -3.856114 35.154244 0.707925 1.680709 0.028460 0.011997 223495.000000 0 0 1
27.615070 23.057015 -4.755414 36.288180 0.695688 1.702220 0.009612 0.016067 605317.000000 0 0 1
27.649770 22.319915 -5.981114 36.034180 0.679138 1.737553 0.015642 0.012329 -156695.000000 0 0 1
28.562870 22.878615 -7.090714 37.276625 0.675345 1.762181 0.002069 0.016594 -384719.000000 0 0 1
28.025770 23.914915 -7.822214 37.663696 0.706418 1.780005 0.001909 0.012942 305703.000000 0 0 1
28.989870 24.750015 -8.499014 39.053925 0.706665 1.790174 -0.005428 0.013303 299076.000000 0 0 1
29.819870 24.148415 -9.650714 39.566487 0.680694 1.817193 -0.001208 0.003081 9790.240000 0 0 1
29.094670 24.134415 -10.867614 39.332872 0.692480 1.850737 0.006322 0.005143 117059.000000 0 0 1
29.729270 23.231115 -11.765214 39.521317 0.663310 1.873071 -0.007895 -0.000673 -518.909000 0 0 1
29.200470 23.147915 -13.212614 39.535637 0.670289 1.911547 0.028154 0.006328 -52976.900000 0 0 1
29.702770 24.078115 -14.159014 40.773617 0.681192 1.925443 0.020044 -0.000062 105477.000000 0 0 1
29.492170 23.511715 -15.450514 40.759137 0.673043 1.959586 0.036150 -0.004661 -135514.000000 0 0 1
29.880170 24.494215 -16.623514 42.061055 0.686667 1.977107 0.040800 -0.008429 -823343.000000 0 0 1
31.222570 24.786415 -16.791114 43.256869 0.670987 1.969444 0.032781 0.001271 -807222.000000 0 0 1
31.443970 25.354615 -18.100614 44.262987 0.678596 1.992081 0.040451 -0.008039 -80624.700000 0 0 1
32.887770 25.774115 -18.403314 45.657337 0.664722 1.985670 0.031959 -0.009080 -610182.000000 0 0 1
33.762970 24.744315 -18.604114 45.807557 0.632456 1.989018 0.040300 -0.008087 -1128220.000000 0 0 1
35.061270 25.175315 -18.932714 47.133181 0.622730 1.984153 0.028981 -0.016533 -34673.800000 0 0 1
35.942370 23.869715 -18.877914 47.095572 0.586231 1.983233 0.022912 -0.026370 -250642.000000 0 0 1
35.829770 22.890315 -19.927914 46.955944 0.568506 2.009091 0.020931 -0.022952 253296.000000 0 0 1
-35.446312 23.243515 -21.058914 47.330538 -0.580399 2.031896 0.019230 -0.025026 211247.000000 0 0 1
-35.521812 22.155015 -22.139814 47.358369 -0.557665 2.057252 0.021843 -0.015078 -12831.900000 0 0 1
-35.013812 20.923815 -21.702314 46.203501 -0.538644 2.059760 0.009703 -0.012013 146994.000000 0 0 1
-34.436912 20.240215 -22.783714 45.985485 -0.531362 2.089154 0.021422 -0.009116 145483.000000 0 0 1
-33.994312 18.801215 -22.414114 44.849653 -0.505197 2.094119 0.008092 -0.006818 79505.600000 0 0 1
-35.143512 17.994815 -22.221714 45.306560 -0.473232 2.083431 0.014394 -0.016734 411380.000000 0 0 1
-34.835612 16.634515 -22.279814 44.571482 -0.445498 2.094242 0.007729 -0.013576 -1014710.000000 0 0 1
-36.018612 15.772215 -21.908214 45.011920 -0.412738 2.079128 0.001984 -0.012656 -933746.000000 0 0 1
35.178970 15.883315 -22.972714 44.917538 0.424101 2.107658 0.043683 -0.013115 -604702.000000 0 0 1
34.032370 15.101115 -22.878814 43.699954 0.417626 2.121801 0.063899 -0.011591 -510902.000000 0 0 1
34.183170 13.727815 -23.579814 43.737280 0.381881 2.140193 0.019597 -0.012864 -431709.000000 0 0 1
34.313770 13.814215 -24.965414 44.626665 0.382733 2.164492 0.027831 0.001460 276704.000000 0 0 1
34.524370 12.542015 -25.601004 44.773269 0.348456 2.179485 0.024458 0.001862 -414376.000000 0 0 1
34.389970 12.572415 -27.118884 45.565003 0.350490 2.208272 0.041466 -0.003272 -957357.000000 0 0 1
33.109770 12.420915 -27.631174 44.877809 0.358896 2.234068 0.033730 -0.000803 -565754.000000 0 0 1
32.485070 13.655315 -27.912004 44.953613 0.397931 2.240695 0.033537 -0.000189 -401590.000000 0 0 1
32.652770 14.179715 -29.322724 46.120384 0.409686 2.259824 0.042427 0.001663 171641.000000 0 0 1
34.001670 14.423015 -29.727374 47.411535 0.401181 2.248502 0.043394 0.005650 507612.000000 0 0 1
34.152370 14.137315 -31.118184 48.317589 0.392473 2.270557 0.047688 0.004080 802535.000000 0 0 1
35.669070 14.203015 -31.618904 49.736941 0.378944 2.259741 0.065326 -0.002775 1737370.000000 0 0 1
-35.566412 13.179315 -31.124354 49.065154 -0.354868 2.257960 0.066685 -0.003774 180451.000000 0 0 1
-35.217412 13.211315 -29.757224 47.961415 -0.358890 2.240101 0.048782 -0.006288 -1383120.000000 0 0 1
-33.977912 12.392415 -29.486024 46.663648 -0.349728 2.254778 0.051208 -0.012789 -731709.000000 0 0 1
-34.134512 11.008015 -29.883934 46.683945 -0.311959 2.265468 0.060688 -0.018963 108081.000000 0 0 1
-33.032912 10.149915 -29.620374 45.514399 -0.298110 2.279422 0.060092 -0.025155 -12851.600000 0 0 1
-33.344712 8.683015 -29.925904 45.637969 -0.254744 2.285937 0.072919 -0.010480 -571859.000000 0 0 1
-33.392212 8.467015 -31.314404 46.554506 -0.248329 2.308567 0.069717 -0.008607 34611.200000 0 0 1
-33.515312 7.097015 -31.701734 46.675943 -0.208672 2.317452 0.064364 -0.002594 -806607.000000 0 0 1
-34.891012 6.497915 -31.451224 47.421357 -0.184125 2.295921 0.067156 0.006178 -764338.000000 0 0 1
-35.185312 6.195215 -30.097844 46.714741 -0.174287 2.270891 0.073969 -0.004222 374623.000000 0 0 1
35.620270 5.647415 -29.854574 46.818719 0.157236 2.262257 0.064119 0.006879 108466.000000 0 0 1
35.571970 4.940115 -28.442204 45.811884 0.137994 2.240620 0.063057 0.002658 -452238.000000 0 0 1
-35.802512 3.766215 -28.357864 45.827641 -0.104809 2.238003 0.078478 0.001434 129718.000000 0 0 1
35.673370 2.778315 -27.535284 45.149753 0.077725 2.226687 0.072944 0.005912 -203561.000000 0 0 1
-35.599812 1.500315 -27.470334 44.991296 -0.042119 2.227576 0.097662 -0.002179 -226668.000000 0 0 1
-34.391212 1.528915 -26.748504 43.595590 -0.044427 2.231357 0.093174 -0.003470 -302863.000000 0 0 1
-33.865112 0.255615 -26.769694 43.168595 -0.007548 2.239692 0.113404 -0.003929 -709052.000000 0 0 1
-32.576712 0.121515 -25.964164 41.658069 -0.003730 2.243712 0.104006 -0.005486 -719991.000000 0 0 1
-32.656712 0.210115 -24.567814 40.866642 -0.006434 2.215761 0.095435 -0.010019 -128320.000000 0 0 1
-31.434212 0.391515 -23.890714 39.484543 -0.012454 2.220644 0.109672 -0.012165 -120680.000000 0 0 1
-31.505812 0.210515 -22.430314 38.675308 -0.006682 2.189482 0.094792 -0.008451 -377906.000000 0 0 1
-31.676012 -1.133685 -22.118414 38.650733 0.035775 2.180060 0.098463 -0.016439 338835.000000 0 0 1
-32.104312 -1.263885 -20.757214 38.251093 0.039348 2.144393 0.084179 -0.015209 783867.000000 0 0 1
-33.630112 -1.254285 -20.391514 39.349351 0.037279 2.115562 0.066003 -0.008524 599800.000000 0 0 1
-34.405812 -2.415585 -20.667514 40.208718 0.070094 2.110645 0.063510 -0.012186 677513.000000 0 0 1
-35.747912 -2.131785 -20.262714 41.146510 0.059563 2.085702 0.052573 -0.009316 495234.000000 0 0 1
35.452370 -3.338285 -19.959914 40.821720 -0.093886 2.081686 0.060818 -0.014007 -148638.000000 0 0 1
35.050470 -4.167185 -21.031514 41.088021 -0.118336 2.108151 0.053279 -0.008951 527830.000000 0 0 1
-35.934512 -4.896985 -21.554014 42.188210 0.135441 2.107029 0.033427 -0.007152 -1966.110000 0 0 1
35.868570 -5.722285 -22.787614 42.878598 -0.158202 2.131102 0.026635 -0.007540 -54478.000000 0 0 1
35.038070 -6.863685 -22.541614 42.224411 -0.193443 2.133947 0.031518 -0.000808 498234.000000 0 0 1
34.689970 -7.625385 -23.688214 42.692762 -0.216374 2.158983 0.030686 0.006582 368716.000000 0 0 1
33.253270 -7.333485 -24.209014 41.780813 -0.217060 2.188824 0.022973 0.012521 23562.600000 0 0 1
33.082670 -6.194285 -25.078544 41.973391 -0.185093 2.211160 0.032085 0.006928 -490549.000000 0 0 1
31.745370 -5.942185 -25.375414 41.072980 -0.185041 2.236754 0.024219 0.005058 -503755.000000 0 0 1
31.519970 -4.703685 -26.255954 41.291746 -0.148136 2.259924 0.041799 -0.024253 7244.780000 0 0 1
31.891570 -4.889285 -27.630914 42.478756 -0.152125 2.278992 0.047488 -0.021833 176039.000000 0 0 1
31.385370 -3.902585 -28.466004 42.550969 -0.123709 2.303640 0.054445 -0.026490 -225551.000000 0 0 1
31.554970 -4.099585 -29.989864 43.725446 -0.129195 2.326591 0.070189 -0.023721 -74910.000000 0 0 1
30.894770 -3.034085 -30.585424 43.579360 -0.097893 2.348763 0.072530 -0.037662 -128066.000000 0 0 1
30.358470 -3.348085 -31.837894 44.119132 -0.109841 2.376957 0.061557 -0.042475 -892951.000000 0 0 1
29.823370 -2.116985 -32.627974 44.254940 -0.070865 2.399821 0.068771 -0.047260 -297413.000000 0 0 1
28.734070 -1.414285 -32.052934 43.070147 -0.049180 2.410137 0.056712 -0.035414 1514060.000000 0 0 1
27.469670 -2.150385 -31.900844 42.152945 -0.078123 2.429182 0.056561 -0.033524 1086740.000000 0 0 1
26.692670 -2.302785 -33.253004 42.703205 -0.086057 2.463388 0.064483 -0.037933 -777097.000000 0 0 1
27.108470 -3.427085 -34.021974 43.636094 -0.125754 2.464943 0.071324 -0.043559 62139.700000 0 0 1
26.223270 -3.686185 33.393337 42.618808 -0.139654 0.670461 0.059253 -0.038141 -363052.000000 0 0 1
26.512870 -5.019485 32.662792 42.367269 -0.187108 0.690474 0.044841 -0.036617 -30475.600000 0 0 1
27.703770 -5.197385 31.918087 42.582578 -0.185450 0.723403 0.050751 -0.035058 -17256.500000 0 0 1
27.928470 -4.527485 30.651397 41.713375 -0.160712 0.745410 0.054444 -0.034290 -270615.000000 0 0 1
28.654870 -3.163185 30.860097 42.230947 -0.109944 0.751382 0.051217 -0.031420 -346617.000000 0 0 1
29.956070 -3.216285 31.385807 43.506086 -0.106957 0.764957 0.049397 -0.030304 -252372.000000 0 0 1
30.417770 -1.961085 31.874617 44.103036 -0.064383 0.763051 0.048600 -0.028052 -116855.000000 0 0 1
31.791670 -1.953085 32.560428 45.548944 -0.061357 0.774394 0.044416 -0.026936 76550.100000 0 0 1
32.843970 -2.086085 31.624277 45.641790 -0.063430 0.805321 0.050889 -0.025486 1181580.000000 0 0 1
34.168270 -1.766085 32.143287 46.944442 -0.051642 0.816592 0.048760 -0.019025 869035.000000 0 0 1
35.305270 -2.247185 31.278437 47.221314 -0.063564 0.846806 0.039894 -0.012521 -606034.000000 0 0 1
35.366770 -1.692785 29.975377 46.391779 -0.047827 0.868286 0.030092 -0.006289 515951.000000 0 0 1
-35.607412 -2.307785 29.320777 46.183564 0.064721 0.882950 0.028424 -0.010338 369306.000000 0 0 1
-35.370012 -1.750485 27.925007 45.098868 0.049450 0.903079 0.026868 -0.004806 75694.600000 0 0 1
35.696170 -1.910685 26.967027 44.778207 -0.053475 0.924498 0.017144 -0.019273 25943.500000 0 0 1
-35.849712 -1.415385 25.757387 44.166142 0.039461 0.948142 0.030073 -0.011919 -290225.000000 0 0 1
-26.674020 14.969115 12.474786 33.033287 -0.511392 1.183547 0.065474 -0.012468 -279715.000000 0 0 1
-27.889070 14.417115 12.891886 33.938977 -0.477112 1.181157 0.032438 -0.000381 -466208.000000 0 0 1
-28.705010 15.359415 13.495286 35.242191 -0.491315 1.177831 0.047825 -0.011819 293124.000000 0 0 1
-30.125730 14.746215 13.759486 36.253744 -0.455204 1.181505 0.056749 0.000516 760346.000000 0 0 1
-30.988450 15.525315 14.561586 37.594671 -0.464450 1.173061 0.050136 -0.009208 -418614.000000 0 0 1
-32.176490 14.873715 14.907886 38.455156 -0.432998 1.172694 0.044708 0.000257 -180952.000000 0 0 1
-33.084190 15.662615 15.908386 39.911877 -0.442156 1.160820 0.053778 -0.003127 57879.700000 0 0 1
-32.439810 16.046715 17.113986 40.034072 -0.459367 1.129087 0.044912 -0.000926 -198309.000000 0 0 1
-33.347130 16.357415 18.126886 41.330136 -0.456034 1.116770 0.032732 -0.003985 -195148.000000 0 0 1
-32.666850 16.545015 19.509986 41.490965 -0.468816 1.081253 0.033148 -0.000637 -436821.000000 0 0 1
-31.886230 15.453115 19.821686 40.600858 -0.451279 1.060760 0.043082 -0.004326 840409.000000 0 0 1
-30.795870 15.733215 20.788686 40.349587 -0.472319 1.029539 0.039408 -0.006106 1247640.000000 0 0 1
-31.181290 16.264815 22.174386 41.575479 -0.480794 1.008237 0.043644 -0.014877 -613526.000000 0 0 1
-31.603880 17.632415 22.238886 42.476763 -0.508903 1.019779 0.033965 -0.005489 133697.000000 0 0 1
-31.803840 18.202015 23.538386 43.552879 -0.519819 0.999818 0.023752 -0.005675 -857362.000000 0 0 1
-32.773570 17.511615 24.496286 44.506535 -0.490726 0.987956 0.011280 -0.010567 -775878.000000 0 0 1
-34.083394 17.326515 24.087586 45.189575 -0.470310 1.008614 0.034990 -0.007842 -549582.000000 0 0 1
-34.958037 18.428715 24.045886 46.258908 -0.485144 1.024167 0.029082 -0.008059 -240285.000000 0 0 1
35.688811 17.954015 23.756186 46.480042 0.466102 1.034326 0.010427 -0.012157 221891.000000 0 0 1
35.099421 17.150015 24.775586 46.259292 0.454496 1.005601 0.022543 -0.008256 -295339.000000 0 0 1
33.782121 16.842515 24.418486 44.957363 0.462497 0.996615 0.030457 -0.003901 -433609.000000 0 0 1
33.099251 16.009215 25.479986 44.733490 0.450501 0.964783 0.012708 0.009701 -577440.000000 0 0 1
32.908361 16.597515 26.784286 45.561341 0.467126 0.942369 0.025668 -0.002487 151770.000000 0 0 1
32.966561 15.504315 27.745186 45.792721 0.439610 0.919917 0.022741 -0.003235 394883.000000 0 0 1
31.840771 14.380615 27.645186 44.552140 0.424218 0.901399 0.023584 0.006816 374000.000000 0 0 1
32.136781 13.305215 26.879086 43.957784 0.392532 0.912873 0.017370 0.005287 484152.000000 0 0 1
31.084731 12.363015 27.137686 43.076196 0.378539 0.889253 0.008286 0.006363 399534.000000 0 0 1
31.368331 10.935815 26.595186 42.554297 0.335450 0.895702 0.020342 0.007361 40885.500000 0 0 1
32.476311 10.341915 27.245186 43.634461 0.308292 0.896438 0.017108 0.006763 34353.200000 0 0 1
32.894281 9.108215 26.699086 43.333988 0.270126 0.906985 0.011993 0.002141 139637.000000 0 0 1
33.888371 8.370515 27.651686 44.532045 0.242156 0.900856 0.029317 0.001105 1617130.000000 0 0 1
35.230871 8.933215 27.745386 45.725519 0.248328 0.918791 0.050660 -0.001396 628334.000000 0 0 1
-36.028520 8.059815 28.400886 46.579236 -0.220083 0.915073 0.042042 0.002457 -593799.000000 0 0 1
-34.685456 8.754715 28.661986 45.839234 -0.247239 0.895316 0.044388 0.002434 -101834.000000 0 0 1
-34.010590 9.205115 27.492786 44.691248 -0.264322 0.908193 0.041025 -0.004513 403430.000000 0 0 1
-32.833200 9.923815 27.872986 44.197336 -0.293519 0.888408 0.058237 -0.001776 720343.000000 0 0 1
-32.003120 10.624915 26.756986 43.046775 -0.320547 0.900039 0.071192 -0.008665 134941.000000 0 0 1
-31.090230 9.804415 26.073486 41.743930 -0.305482 0.896170 0.060401 -0.007867 -39435.100000 0 0 1
-30.386280 10.405615 25.036186 40.723623 -0.329928 0.908686 0.050803 -0.014215 458931.000000 0 0 1
-29.355850 9.338415 24.444986 39.325937 -0.307988 0.900013 0.056039 -0.017583 684688.000000 0 0 1
-28.446030 9.887015 23.509386 38.204986 -0.334509 0.907968 0.043138 -0.021977 -183367.000000 0 0 1
-27.751690 8.827215 22.908086 37.052078 -0.307959 0.904260 0.033951 -0.009344 515384.000000 0 0 1
-26.686110 9.336115 21.834986 35.722236 -0.336541 0.913165 0.035071 -0.003087 -601668.000000 0 0 1
-25.573790 9.924415 22.430586 35.435067 -0.370180 0.885367 0.043487 -0.006806 259191.000000 0 0 1
-24.649830 10.579515 21.531786 34.397065 -0.405416 0.894412 0.031872 -0.002116 1123910.000000 0 0 1
-23.848330 9.699015 20.498886 32.909240 -0.386265 0.898363 0.026208 -0.001719 36411.600000 0 0 1
-24.720630 9.350815 19.388086 32.778731 -0.361625 0.937899 0.022175 -0.001488 727180.000000 0 0 1
-24.123130 8.675915 18.310586 31.503563 -0.345247 0.950566 0.021921 -0.006356 -407040.000000 0 0 1
-23.936730 7.134715 18.418286 31.033925 -0.289681 0.935410 0.031998 -0.003789 -22082.100000 0 0 1
-23.031530 6.718215 19.464786 30.894396 -0.283822 0.889188 0.025454 -0.005411 681317.000000 0 0 1
-23.130730 5.326415 19.918786 30.986439 -0.226329 0.872619 0.046611 -0.007210 -312698.000000 0 0 1
-23.167330 4.138015 18.930786 30.203030 -0.176750 0.893377 0.044098 -0.012039 329560.000000 0 0 1
-24.425430 4.004815 18.243686 30.748533 -0.162515 0.935621 0.052860 -0.010711 888710.000000 0 0 1
-24.566830 2.996315 17.228686 30.155177 -0.121366 0.962666 0.064186 -0.009195 -256115.000000 0 0 1
-24.439430 1.528715 17.608986 30.161219 -0.062470 0.947360 0.062521 -0.006785 -337672.000000 0 0 1
-23.161230 0.951215 17.712386 29.173207 -0.041046 0.918333 0.059024 -0.006498 69359.500000 0 0 1
-23.227730 -0.377285 18.122886 29.463686 0.016241 0.908293 0.065616 -0.005127 -24422.400000 0 0 1
-21.832130 -1.018185 18.277686 28.491269 0.046603 0.874320 0.065464 -0.009635 -76477.900000 0 0 1
-20.903530 -0.537785 19.222486 28.403358 0.025721 0.827433 0.056478 -0.011596 -111543.000000 0 0 1
-20.028030 -1.578585 19.553886 28.035128 0.078656 0.798924 0.049369 -0.011620 -537571.000000 0 0 1
-19.040430 -1.175385 20.671686 28.128955 0.061653 0.745292 0.046488 -0.012293 118865.000000 0 0 1
-19.483030 -1.139285 22.028086 29.429968 0.058409 0.725012 0.043296 -0.014347 -701643.000000 0 0 1
-18.394130 -0.810285 22.819686 29.321301 0.044023 0.678901 0.047208 -0.018010 -446736.000000 0 0 1
-18.689130 -0.682585 24.332286 30.688918 0.036507 0.655294 0.039808 -0.014945 422704.000000 0 0 1
-19.510930 0.420415 24.752186 31.520214 -0.021544 0.667648 0.044266 -0.023318 214930.000000 0 0 1
-20.873430 0.073515 24.962786 32.539917 -0.003522 0.696420 0.058729 -0.024791 275805.000000 0 0 1
-21.508730 1.223115 25.877686 33.671592 -0.056805 0.694253 0.052634 -0.030279 -283667.000000 0 0 1
-21.510930 2.519915 25.399486 33.379694 -0.116614 0.706057 0.050146 -0.027048 -516701.000000 0 0 1
-22.613330 2.780015 24.608686 33.536229 -0.122323 0.746906 0.044881 -0.019894 -1421080.000000 0 0 1
-22.384730 3.960715 23.599486 32.767349 -0.175126 0.766686 0.043548 -0.010599 83714.600000 0 0 1
-21.743830 3.640315 22.376086 31.412343 -0.165880 0.777978 0.041696 -0.012281 703214.000000 0 0 1
-20.415230 3.134815 22.507886 30.548546 -0.152363 0.742485 0.040505 -0.011954 -293757.000000 0 0 1
-19.889130 2.424515 21.227986 29.190464 -0.121303 0.756528 0.044271 -0.018187 -216819.000000 0 0 1
-19.582530 3.324715 20.216086 28.341125 -0.168176 0.776583 0.042968 -0.013085 77153.400000 0 0 1
-19.264430 2.588415 19.074886 27.233609 -0.133563 0.794815 0.058897 -0.026359 -202334.000000 0 0 1
-18.853630 3.432915 17.807086 26.159828 -0.180109 0.822074 0.048349 -0.021434 376626.000000 0 0 1
-17.510330 3.913515 17.850986 25.309780 -0.219884 0.787950 0.051006 -0.029466 525966.000000 0 0 1
-17.274530 4.599815 16.658186 24.434870 -0.260239 0.820660 0.054180 -0.023896 89574.200000 0 1 0
-15.749030 4.879815 16.466586 23.302211 -0.300468 0.786039 0.057683 -0.019033 517865.000000 0 1 0
-15.046630 5.734515 17.367086 23.683358 -0.364122 0.747628 0.040868 -0.026043 149053.000000 0 1 0
-15.447330 7.089615 17.473986 24.376687 -0.430275 0.771548 0.033636 -0.034535 -930790.000000 0 1 0
-14.943130 8.024315 16.359986 23.565567 -0.492800 0.803443 0.018887 -0.022761 -248275.000000 0 1 0
-15.404330 7.887315 15.062986 22.943336 -0.473217 0.854587 0.019200 -0.017978 856032.000000 0 1 0
-16.800630 8.178315 14.824886 23.852113 -0.453021 0.900098 0.017853 -0.013671 851417.000000 0 1 0
-17.324330 7.607715 13.524286 23.257602 -0.413782 0.950226 0.020831 -0.008662 -160237.000000 0 1 0
-17.270930 6.190015 13.659086 22.872953 -0.344144 0.930826 0.029020 -0.009274 479138.000000 0 1 0
-17.869830 5.610015 12.492686 22.513781 -0.304194 0.982565 0.035907 -0.006033 347169.000000 0 1 0
-17.425930 4.145315 12.524686 21.856680 -0.233541 0.960589 0.029232 -0.006446 -49332.500000 0 1 0
-17.900130 3.447115 13.656986 22.777413 -0.190246 0.927814 0.034057 -0.006454 302134.000000 0 1 0
-17.537030 2.065715 13.731386 22.368853 -0.117251 0.909853 0.033814 -0.014990 312044.000000 0 1 0
-18.560030 1.293915 14.666286 23.690692 -0.069603 0.903234 0.046840 -0.017278 542680.000000 0 1 0
-19.858930 1.188215 14.139286 24.407138 -0.059762 0.952915 0.056388 -0.009370 -593644.000000 0 1 0
-20.731530 0.690515 15.065186 25.636556 -0.033295 0.942652 0.063482 -0.014228 86258.000000 0 0 1
-22.118130 0.245215 14.461386 26.427325 -0.011086 0.991765 0.062683 -0.015010 537008.000000 0 0 1
-22.148330 -0.860085 13.626286 26.018531 0.038813 1.019591 0.077258 -0.014934 88772.400000 0 0 1
-23.477430 -1.284685 13.474986 27.100100 0.054665 1.050393 0.087512 -0.011048 -215253.000000 0 0 1
-23.555330 -2.395285 12.300386 26.681276 0.101339 1.091661 0.089856 -0.013654 -38406.000000 0 0 1
-23.145030 -3.689985 12.787286 26.698747 0.158098 1.071341 0.081543 -0.016270 320019.000000 0 0 1
-23.375230 -4.662485 11.818886 26.605004 0.196879 1.110476 0.095245 -0.019799 -204583.000000 0 0 1
-23.196930 -6.082385 12.371486 26.984192 0.256434 1.094522 0.084520 -0.019626 312265.000000 0 0 1
-24.199930 -6.619985 13.243586 28.369938 0.267021 1.085108 0.066457 -0.016157 464419.000000 0 0 1
-24.244830 -8.007185 13.314386 28.795827 0.318985 1.090128 0.071557 -0.016708 -157027.000000 0 0 1
-25.051800 -8.506185 14.527986 30.182946 0.327330 1.068624 0.068889 -0.010248 77736.200000 0 0 1
-26.444640 -8.277685 14.384786 31.221165 0.303358 1.091969 0.067888 -0.009788 64129.800000 0 0 1
-27.087660 -8.587185 15.580986 32.407533 0.306993 1.069249 0.060688 -0.014474 -858526.000000 0 0 1
-28.418570 -7.867385 15.831186 33.468453 0.270076 1.078083 0.056250 -0.012012 467683.000000 0 0 1
-29.543790 -8.136885 14.958686 34.099952 0.268755 1.116676 0.046016 -0.007798 1315930.000000 0 0 1
-30.053010 -9.480285 14.828386 34.827292 0.305572 1.130985 0.056756 -0.019229 -401456.000000 0 0 1
-30.634660 -10.158885 16.092086 36.064395 0.320202 1.108277 0.061885 -0.026899 -946653.000000 0 0 1
-29.598070 -10.518185 16.945286 35.690625 0.341448 1.076079 0.059476 -0.014919 -195163.000000 0 0 1
-29.974380 -11.182285 18.115286 36.765072 0.357070 1.055571 0.066223 -0.013909 42808.400000 0 0 1
-28.758370 -11.331285 19.069886 36.319450 0.375338 1.018011 0.069830 -0.013741 483948.000000 0 0 1
-27.760820 -12.220585 18.606686 35.583909 0.414683 1.020551 0.062429 -0.005200 923812.000000 0 0 1
-26.486140 -11.905185 19.207586 34.816381 0.422428 0.986416 0.052227 -0.008051 827677.000000 0 0 1
-25.227030 -12.676385 18.812386 33.926386 0.465639 0.983027 0.052430 -0.001555 -421028.000000 0 0 1
-24.690730 -12.253985 17.616186 32.712724 0.460682 1.002126 0.044634 0.003322 908421.000000 0 0 1
-23.567230 -13.129085 17.256886 32.024792 0.508271 1.001713 0.043779 -0.003557 928582.000000 0 0 1
-23.280530 -13.124285 15.743786 31.017684 0.513335 1.038429 0.041276 -0.006347 -268786.000000 0 0 1
-22.757330 -11.910185 15.353786 29.924694 0.482157 1.032026 0.044254 -0.005284 -306200.000000 0 0 1
-22.618230 -11.958785 13.941186 29.136807 0.486361 1.071881 0.042752 -0.003388 -164697.000000 0 0 1
-21.271530 -11.385385 13.510686 27.652190 0.491441 1.060319 0.049828 -0.012448 -796961.000000 0 0 1
-21.251030 -9.938085 13.622686 27.128387 0.437436 1.044706 0.058604 -0.016561 -249553.000000 0 0 1
-19.960530 -9.396285 13.502786 25.865772 0.439969 1.021564 0.071465 -0.016719 -210830.000000 0 0 1
-19.404330 -9.391585 12.030886 24.687489 0.450761 1.061770 0.082348 -0.008502 -358771.000000 0 1 0
-18.834230 -10.642085 11.696586 24.592526 0.514317 1.075133 0.077255 -0.017476 49591.500000 0 1 0
-18.648630 -10.835285 10.299486 23.900925 0.526349 1.125280 0.094960 -0.011144 -791535.000000 0 1 0
-17.940030 -12.111585 9.789586 23.756497 0.593829 1.146060 0.073371 -0.006524 1254730.000000 0 1 0
-16.502530 -12.196885 9.809786 22.744876 0.636483 1.124867 0.081355 -0.021228 1536860.000000 0 1 0
-15.813630 -11.925885 11.043386 22.677169 0.646153 1.062165 0.079962 -0.020427 -745045.000000 0 1 0
-14.315030 -12.253785 10.991386 21.814809 0.707972 1.042746 0.069368 -0.019002 -189698.000000 0 1 0
-14.049430 -13.575085 10.749686 22.298546 0.768229 1.067769 0.063183 -0.022288 1866430.000000 0 1 0
-12.599830 -13.816685 10.806586 21.597194 0.831430 1.046770 0.057988 -0.019641 2032040.000000 0 1 0
-12.163030 -15.320385 10.648786 22.272183 0.899779 1.072283 0.052852 -0.020115 -124923.000000 0 1 0
-12.541130 -15.968385 9.424986 22.385255 0.905038 1.136210 0.045626 -0.017928 125307.000000 0 1 0
-12.263230 -17.346985 9.429686 23.242712 0.955430 1.153046 0.050098 -0.012764 -66813.900000 0 1 0
-12.650430 -18.044085 8.121686 23.485829 0.959343 1.217692 0.045260 -0.010824 -81268.200000 0 1 0
-11.845030 -17.685985 7.017886 22.413155 0.980668 1.252326 0.029087 -0.022701 -108785.000000 0 1 0
-12.070430 -18.530285 5.913786 22.891911 0.993445 1.309498 0.005424 -0.007827 -416184.000000 0 1 0
-11.187230 -18.202185 4.749286 21.886739 1.019704 1.352063 0.014187 -0.010023 -648009.000000 0 1 0
-11.435930 -19.069685 3.668286 22.536408 1.030604 1.407297 0.022875 -0.006226 363694.000000 0 1 0
-10.523430 -18.925385 2.594586 21.809279 1.063321 1.451547 0.019915 -0.017852 -239569.000000 0 1 0
-10.941630 -19.826885 1.370786 22.687082 1.066528 1.510338 0.021376 -0.012153 140749.000000 0 1 0
-10.872730 -21.241085 1.806586 23.930393 1.097696 1.495231 0.024062 -0.011037 153258.000000 0 1 0
-11.322430 -22.221085 0.808186 24.952499 1.099549 1.538402 0.028589 -0.008966 620381.000000 0 1 0
-10.356030 -22.289785 -0.449314 24.582183 1.135860 1.589075 0.029277 -0.010155 493290.000000 0 1 0
-10.528930 -21.264685 -1.448414 23.772738 1.111047 1.631762 0.029547 -0.022409 -455244.000000 0 1 0
-11.619730 -21.441685 -2.306614 24.496621 1.074176 1.665097 0.043741 -0.013399 -530492.000000 0 1 0
-12.539930 -20.206885 -2.279514 23.890672 1.015384 1.666356 0.042937 -0.015422 -340644.000000 0 1 0
-13.293930 -20.100285 -1.106314 24.124136 0.986463 1.616672 0.038518 -0.016964 173428.000000 0 1 0
-14.081530 -18.886685 -1.164414 23.587119 0.930130 1.620183 0.041793 -0.020289 345296.000000 0 1 0
26.521670 -19.807585 -4.052914 33.349145 -0.641479 1.692627 0.068778 -0.032484 97614.200000 0 0 1
25.247670 -20.076285 -3.515414 32.447807 -0.671791 1.679350 0.064674 -0.025356 167976.000000 0 0 1
25.420670 -21.252885 -2.712914 33.245383 -0.696338 1.652490 0.053915 -0.020426 -162595.000000 0 0 1
24.121970 -21.591185 -1.964114 32.433107 -0.730092 1.631392 0.040170 -0.018527 -654227.000000 0 0 1
23.078370 -21.764185 -2.868714 31.851537 -0.756100 1.660984 0.041588 -0.026044 -962808.000000 0 0 1
22.065170 -22.429885 -2.179614 31.539216 -0.793595 1.639959 0.042612 -0.022213 151273.000000 0 0 1
20.940770 -23.063085 -3.086414 31.304116 -0.833591 1.669551 0.046386 -0.028288 602311.000000 0 0 1
20.163370 -22.145385 -3.838914 30.194649 -0.832210 1.698280 0.055955 -0.035158 -455799.000000 0 0 1
19.219270 -22.867685 -4.564214 30.218262 -0.871870 1.722418 0.066620 -0.030595 -669631.000000 0 0 1
18.104670 -22.027585 -5.166114 28.977272 -0.882838 1.750036 0.059849 -0.018461 -395976.000000 0 0 1
17.102470 -21.389585 -4.397014 27.737025 -0.896318 1.729993 0.056815 -0.010011 275998.000000 0 0 1
17.518970 -20.498885 -3.403314 27.179057 -0.863620 1.696344 0.050200 -0.017793 -89606.300000 0 0 1
16.329470 -20.017485 -2.486214 25.952505 -0.886519 1.666742 0.050950 -0.007313 485197.000000 0 0 1
15.889670 -21.024785 -1.641614 26.404887 -0.923620 1.633007 0.051998 -0.014518 25367.700000 0 0 1
14.975770 -20.534985 -0.685114 25.424961 -0.940688 1.597746 0.052426 -0.007467 -208037.000000 0 0 1
14.721570 -21.475685 0.506586 26.042010 -0.969869 1.551342 0.048944 -0.006839 340360.000000 0 0 1
13.867270 -22.620885 0.319586 26.535028 -1.020851 1.558752 0.057653 -0.010269 503856.000000 0 0 1
13.060470 -22.825085 1.497486 26.340137 -1.051070 1.513914 0.050206 -0.004393 506434.000000 0 0 1
12.218870 -24.125085 1.525186 27.085913 -1.101978 1.514457 0.053802 -0.002997 75552.500000 0 0 1
12.943170 -25.279995 1.856986 28.461416 -1.097601 1.505504 0.032517 -0.003831 -456415.000000 0 0 1
12.240570 -26.406525 1.534286 29.146014 -1.136737 1.518131 0.023243 -0.005795 -297745.000000 0 0 1
12.561970 -27.669475 2.353686 30.478562 -1.144620 1.493495 0.017344 0.000340 66929.000000 0 0 1
12.223170 -27.582865 3.732886 30.399914 -1.153659 1.447693 0.025371 -0.001916 -19364.900000 0 0 1
12.328370 -28.868545 4.345386 31.690124 -1.167189 1.433242 0.023089 0.000420 59391.900000 0 0 1
12.376770 -28.801055 5.859686 31.890768 -1.164923 1.386004 0.027841 0.002993 -125217.000000 0 0 1
12.061970 -30.072285 6.419186 33.030885 -1.189343 1.375213 0.013483 0.001398 -154825.000000 0 0 1
12.434970 -30.183025 7.778786 33.558203 -1.180000 1.336869 0.026932 -0.004307 -269875.000000 0 0 1
12.071970 -31.595405 8.251586 34.815093 -1.205833 1.331508 0.013656 -0.001735 -219176.000000 0 0 1
11.862070 -31.648975 9.649886 35.149489 -1.212200 1.292687 0.015628 0.002040 -117811.000000 0 0 1
11.199170 -32.881665 9.969386 36.138815 -1.242529 1.291308 0.015798 0.004576 205147.000000 0 0 1
10.995370 -33.124075 11.480086 36.740915 -1.250296 1.253014 0.023284 0.001895 190903.000000 0 0 1
12.134870 -33.636185 12.180986 37.775977 -1.224561 1.242476 0.025387 -0.004638 348323.000000 0 0 1
11.927770 -33.955875 13.583686 38.468034 -1.232988 1.209897 0.036537 -0.009347 233963.000000 0 0 1
10.877270 33.639366 13.940386 38.003372 1.258058 1.195208 0.041011 -0.010042 495723.000000 0 0 1
11.229970 32.384200 13.353286 36.785308 1.236999 1.199304 0.045259 -0.014683 287380.000000 0 0 1
10.098370 31.526490 13.421486 35.721603 1.260809 1.185618 0.035465 -0.010284 208825.000000 0 0 1
10.136670 30.518330 12.287086 34.425180 1.250111 1.205826 0.032249 -0.006720 -9103.120000 0 0 1
9.767270 30.848110 10.923386 34.151513 1.264158 1.245224 0.017607 0.002882 325832.000000 0 0 1
10.717170 31.672980 10.250586 34.972988 1.244520 1.273329 0.012990 -0.002732 672932.000000 0 0 1
10.052770 32.021470 8.860986 34.712387 1.266602 1.312671 0.007665 -0.002382 64551.800000 0 0 1
8.894270 32.782538 8.899886 35.114254 1.305863 1.314546 0.008193 -0.000945 -703915.000000 0 0 1
8.288370 33.082208 7.661986 34.954765 1.325311 1.349805 -0.000849 -0.003438 -584386.000000 0 0 1
8.865870 34.164333 6.792986 35.943705 1.316890 1.380663 0.006947 0.005508 -163165.000000 0 0 1
8.443970 -33.192055 7.227586 35.003587 -1.321683 1.362819 0.015603 0.008865 300444.000000 0 0 1
9.091670 -32.191625 6.438086 34.064764 -1.295542 1.380657 0.015582 -0.001607 -72348.100000 0 0 1
8.669770 -30.750045 6.831786 32.671141 -1.295986 1.360134 0.021312 -0.004421 -58400.400000 0 0 1
9.077670 -30.381405 8.140986 32.736974 -1.280450 1.319481 0.015185 0.002811 -485381.000000 0 0 1
8.721470 -29.100435 8.513686 31.549678 -1.279613 1.297559 0.054954 0.002836 -271261.000000 0 0 1
9.647870 -27.918855 8.121086 30.634880 -1.238075 1.302496 0.041869 -0.007864 -668798.000000 0 0 1
9.462170 -26.819145 8.964186 29.818716 -1.231617 1.265451 0.044377 -0.002836 -95992.200000 0 0 1
10.129170 -25.607355 8.607586 28.851815 -1.194126 1.267846 0.043423 -0.015710 -123789.000000 0 0 1
9.434770 -24.744385 7.538586 27.534156 -1.206523 1.293465 0.046228 -0.012554 -193742.000000 0 0 1
9.412470 -25.334125 6.282886 27.746840 -1.215068 1.342379 0.054879 -0.010915 -296168.000000 0 0 1
8.701770 -24.548085 5.365086 26.591604 -1.230137 1.367643 0.058712 -0.008936 17366.300000 0 0 1
8.508170 -25.189545 3.912486 26.873959 -1.245062 1.424691 0.049663 -0.002939 90380.400000 0 0 1
7.589670 -26.247465 3.818486 27.588282 -1.289316 1.431941 0.055382 -0.006946 -26802.700000 0 0 1
8.098970 -27.542265 4.278486 29.025422 -1.284802 1.422852 0.049650 -0.002125 635893.000000 0 0 1
7.045170 -28.616165 3.880086 29.724979 -1.329402 1.439890 0.046020 -0.004708 -188592.000000 0 0 1
5.906170 -28.671975 4.689586 29.647212 -1.367647 1.411949 0.044639 -0.004274 -86723.700000 0 0 1
4.825170 -29.419625 4.122586 30.096383 -1.408232 1.433385 0.043128 -0.000702 596158.000000 0 0 1
4.985070 -30.945525 4.235886 31.629403 -1.411077 1.436470 0.032925 -0.000105 -183424.000000 0 0 1
5.870070 -31.585785 3.306886 32.296362 -1.387047 1.468225 0.038340 -0.005493 104889.000000 0 0 1
6.213570 -32.870055 3.809786 33.668434 -1.383967 1.457397 0.031736 -0.005814 91042.600000 0 0 1
7.388170 -33.576735 3.083086 34.517931 -1.354209 1.481359 0.021701 -0.002288 -50628.000000 0 0 1
7.184270 -33.839485 1.722786 34.636577 -1.361598 1.521037 0.025760 -0.007098 17697.300000 0 0 1
8.098470 33.848381 1.274786 34.827047 1.335954 1.534185 0.017153 -0.004291 -16654.600000 0 0 1
7.625470 33.312498 -0.123814 34.174342 1.345766 1.574419 0.020405 -0.001646 810672.000000 0 0 1
6.448570 32.517370 -0.031914 33.150632 1.375025 1.571759 0.012802 -0.002223 1352530.000000 0 0 1
5.169170 33.226012 0.017486 33.625712 1.416458 1.570276 0.019087 -0.008959 1705980.000000 0 0 1
3.904470 32.320990 0.256486 32.556982 1.450576 1.562918 0.024411 -0.012931 702751.000000 0 0 1
3.801970 31.208080 -0.623314 31.444995 1.449567 1.590620 0.024296 -0.007843 -22105.800000 0 0 1
2.712570 30.351030 -0.321414 30.473699 1.481660 1.581344 0.023944 -0.018470 173443.000000 0 0 1
2.493170 29.144360 -1.257114 29.277806 1.485459 1.613747 0.019966 -0.011318 -111702.000000 0 0 1
2.367670 29.600560 -2.541214 29.803637 1.490979 1.656165 0.033602 -0.014858 8911.420000 0 0 1
2.086270 28.566550 -3.492314 28.854749 1.497894 1.692125 0.038091 -0.014621 -337175.000000 0 0 1
1.872570 29.118630 -4.925714 29.591617 1.506576 1.738031 0.037158 -0.024599 -787175.000000 0 0 1
0.664670 29.790360 -5.005414 30.215253 1.548488 1.737222 0.039917 -0.025096 -628795.000000 0 0 1
0.488470 30.543510 -6.210314 31.172305 1.554805 1.771364 0.033681 -0.018932 -30903.100000 0 0 1
0.434970 29.841220 -7.551014 30.784824 1.556221 1.818609 0.034374 -0.017726 -636591.000000 0 0 1
-0.774430 29.192860 -7.845614 30.238658 -1.544274 1.833256 0.032998 -0.013344 -168843.000000 0 0 1
-0.989030 28.797230 -9.197414 30.246505 -1.536465 1.879771 0.029276 -0.015812 20462.700000 0 0 1
-1.369430 29.873690 -10.215914 31.601860 -1.524988 1.899979 0.017963 -0.019306 119378.000000 0 0 1
-0.206530 30.544970 -10.699514 32.365374 -1.564035 1.907720 0.022217 -0.025217 353360.000000 0 0 1
-0.462430 31.866040 -11.220614 33.786987 -1.556286 1.909324 0.007374 -0.019654 26198.600000 0 0 1
-0.778430 33.017436 -10.203614 34.566903 -1.547224 1.870445 0.003264 -0.012228 235515.000000 0 0 1
0.374770 33.347189 -9.459414 34.664910 1.559558 1.847183 0.016573 -0.025925 305324.000000 0 0 1
-0.049530 34.195733 -8.389914 35.209959 -1.569348 1.811393 0.017105 -0.021256 124715.000000 0 0 1
1.083670 -34.230423 -7.370214 35.031646 -1.539149 1.782767 0.032242 -0.025984 768993.000000 0 0 1
2.174070 -33.408015 -7.806414 34.376767 -1.505812 1.799879 0.036620 -0.021516 382899.000000 0 0 1
3.104170 -33.101135 -6.775814 33.929819 -1.477291 1.771849 0.041658 -0.032239 85386.400000 0 0 1
4.328170 -32.316535 -7.362214 33.425943 -1.437658 1.792872 0.029613 -0.028138 688358.000000 0 0 1
5.176070 -32.950185 -8.336514 34.380283 -1.414982 1.815717 0.048688 -0.022517 232239.000000 0 0 1
6.016770 -33.886295 -7.732014 35.274162 -1.395070 1.791788 0.055669 -0.006015 -908492.000000 0 0 1
6.423870 33.738660 -8.787314 35.451095 1.382648 1.821279 0.051764 -0.001568 234493.000000 0 0 1
5.338170 32.836738 -8.895414 34.436547 1.409639 1.832072 0.033211 -0.002805 680216.000000 0 0 1
4.354070 33.186741 -9.918314 34.909750 1.440342 1.858877 0.051404 -0.002530 776742.000000 0 0 1
3.343970 32.008890 -10.048614 33.715364 1.466704 1.873438 0.049691 -0.015568 106675.000000 0 0 1
3.923370 30.748730 -10.519014 32.734185 1.443888 1.897947 0.051243 -0.022072 292853.000000 0 0 1
2.977270 29.699380 -10.559114 31.660894 1.470883 1.910817 0.033940 -0.024456 -162945.000000 0 0 1
3.601970 28.530510 -11.316114 30.903375 1.445211 1.945694 0.039723 -0.029474 -50451.200000 0 0 1
3.676770 28.607780 -12.731114 31.527844 1.442974 1.986469 0.032996 -0.027462 570599.000000 0 0 1
5.005470 28.855890 -13.211614 32.128863 1.399041 1.994574 0.045375 -0.031426 519936.000000 0 0 1
4.962070 29.316300 -14.703014 33.169959 1.403126 2.030032 0.054798 -0.025549 -273896.000000 0 0 1
4.413070 28.409650 -15.626414 32.722594 1.416691 2.068651 0.030678 -0.021065 4435.940000 0 0 1
4.457670 29.053700 -16.908514 33.909971 1.418555 2.092813 0.050264 -0.024698 -244877.000000 0 0 1
3.378270 28.397210 -17.750814 33.658663 1.452388 2.126307 0.031725 -0.016113 -210631.000000 0 0 1
3.609970 27.087030 -18.097114 32.775671 1.438304 2.155738 0.042060 -0.014223 -199681.000000 0 0 1
2.646370 26.745860 -19.059414 32.948529 1.472172 2.187636 0.049057 -0.022057 159443.000000 0 0 1
3.086470 25.513760 -19.925614 32.519353 1.450409 2.230308 0.053104 -0.016306 245017.000000 0 0 1
3.261670 24.334000 -19.214014 31.176279 1.437553 2.234835 0.044947 -0.017940 -33941.700000 0 0 1
4.369170 23.638450 -19.757914 31.116573 1.388026 2.258759 0.048884 -0.019844 8054.920000 0 0 1
4.742670 22.389450 -18.951914 29.714566 1.362056 2.262433 0.049262 -0.017880 -113169.000000 0 0 1
3.820670 21.303250 -18.918614 28.746129 1.393336 2.289125 0.059914 -0.013677 -19841.100000 0 0 1
4.406370 20.322350 -18.086214 27.559483 1.357278 2.286649 0.045757 -0.007482 281306.000000 0 0 1
3.556470 19.045750 -17.811914 26.318308 1.386189 2.314187 0.036223 -0.013887 -124099.000000 0 0 1
2.539870 19.184150 -16.864814 25.669135 1.439168 2.287639 0.037441 -0.014427 -749776.000000 0 0 1
1.733770 18.056050 -16.749114 24.689263 1.475068 2.316374 0.026620 -0.010577 -471202.000000 0 1 0
2.075370 16.997350 -15.696514 23.229240 1.449298 2.312740 0.028016 -0.008584 -381668.000000 0 1 0
3.194270 16.180950 -15.890214 22.902519 1.375893 2.337576 0.021870 -0.021944 -558768.000000 0 1 0
3.049370 15.121750 -16.912114 22.890731 1.371810 2.402113 0.032336 -0.029829 -161263.000000 0 1 0
3.014570 15.420250 -18.425614 24.215181 1.377737 2.435513 0.032724 -0.024656 93785.800000 0 1 0
4.275270 15.801650 -18.977814 25.062472 1.306564 2.429843 0.034803 -0.019154 102482.000000 0 0 1
4.270770 16.175750 -20.339514 26.336100 1.312664 2.453259 0.041778 -0.009747 -532631.000000 0 0 1
4.466270 14.979650 -21.353514 26.463371 1.281032 2.509695 0.049084 -0.021578 417173.000000 0 0 1
3.434970 13.997950 -21.519114 25.900075 1.330160 2.551432 0.051329 -0.022741 29329.800000 0 0 1
2.225070 14.530950 -22.019714 26.475786 1.418850 2.552945 0.058011 -0.020966 -811350.000000 0 0 1
1.321570 13.512350 -22.608114 26.371518 1.473302 2.600784 0.060185 -0.020060 -645681.000000 0 0 1
0.900570 12.594050 -21.604514 25.023511 1.499410 2.612704 0.056363 -0.020228 25216.600000 0 0 1
0.005070 11.681550 -22.217814 25.101591 1.570362 2.657539 0.043087 -0.016070 32656.500000 0 0 1
-0.679830 10.711050 -21.224114 23.783434 -1.507411 2.673412 0.031941 -0.018965 -388130.000000 0 1 0
-1.723130 11.303150 -20.440214 23.420775 -1.419514 2.631580 0.033747 -0.017394 487060.000000 0 1 0
-2.258330 10.365750 -19.480214 22.181694 -1.356284 2.642906 0.026731 -0.013446 574532.000000 0 1 0
-3.222730 9.261350 -20.033214 22.304444 -1.235926 2.686389 0.026082 -0.010601 -55200.400000 0 1 0
-2.481030 8.204150 -20.657414 22.364980 -1.277129 2.748294 0.020990 -0.013718 -199164.000000 0 1 0
-3.356130 7.468050 -21.449414 22.958936 -1.148443 2.776950 0.009860 0.006526 319749.000000 0 1 0
-2.631730 6.262450 -22.149914 23.168145 -1.172965 2.844018 0.012550 -0.001955 275338.000000 0 1 0
-2.130630 5.289450 -21.256914 22.008504 -1.187872 2.879500 0.026396 -0.002530 10993.400000 0 1 0
-1.641530 4.136050 -21.920314 22.367424 -1.192979 2.941311 0.034070 -0.010740 -289282.000000 0 1 0
-1.030930 3.049350 -20.978414 21.223930 -1.244778 2.989341 0.032361 -0.010208 1165550.000000 0 1 0
0.407570 3.192450 -20.980714 21.226120 1.443816 2.989383 0.026428 -0.011493 616681.000000 0 1 0
1.093870 2.289050 -20.179814 20.338662 1.125008 3.016530 0.022949 -0.007111 -298224.000000 0 1 0
2.607770 2.398350 -20.383114 20.688738 0.743590 2.969494 0.015193 -0.004545 -438104.000000 0 1 0
3.117570 1.697550 -21.497014 21.788128 0.498619 2.977941 0.031917 -0.006600 -609199.000000 0 1 0
4.510770 1.803950 -21.353914 21.899564 0.380438 2.917896 0.051395 -0.007296 -532278.000000 0 1 0
5.242170 1.065750 -22.485214 23.112789 0.200570 2.908027 0.043809 -0.006734 -1166610.000000 0 1 0
6.607570 1.073850 -22.275114 23.259274 0.161110 2.849653 0.043427 -0.016273 -1143310.000000 0 1 0
7.258570 0.404050 -23.304214 24.411810 0.055608 2.839207 0.044664 -0.019846 -1184420.000000 0 1 0
8.759070 0.499650 -23.276914 24.875403 0.056982 2.781148 0.055430 -0.025208 -909848.000000 0 1 0
9.087670 1.866550 -23.658814 25.412777 0.202576 2.767887 0.047580 -0.030458 -161319.000000 0 0 1
10.480970 2.057250 -23.714214 26.008593 0.193820 2.718403 0.051014 -0.030404 -307020.000000 0 0 1
13.406870 -21.121785 22.893067 33.911155 -1.005223 0.829710 0.064509 -0.003907 -578216.000000 0 0 1
12.258870 -21.778085 23.401097 34.237059 -1.058104 0.818247 0.049390 0.001356 477226.000000 0 0 1
11.005270 -21.159485 23.120967 33.217749 -1.091190 0.800925 0.051415 -0.012698 587515.000000 0 0 1
10.606070 -21.023985 21.583367 31.942736 -1.103575 0.828897 0.065137 -0.022071 -1056580.000000 0 0 1
11.095570 -19.867885 20.954067 30.934082 -1.061475 0.826604 0.075403 -0.021862 -112545.000000 0 0 1
10.822170 -19.853285 19.557567 29.895998 -1.071717 0.857689 0.079478 -0.016320 155642.000000 0 0 1
11.209870 -18.495685 19.009667 28.794426 -1.025918 0.849730 0.081705 -0.020827 502343.000000 0 0 1
10.278670 -17.471585 19.417467 28.070364 -1.039018 0.806897 0.103849 -0.025533 228369.000000 0 0 1
10.707470 -16.171685 19.066767 27.197700 -0.985953 0.793937 0.099161 -0.022387 261358.000000 0 0 1
9.647170 -15.052085 19.304467 26.311510 -1.000831 0.747061 0.084673 -0.026311 -42389.200000 0 0 1
8.443770 -15.262985 18.635067 25.524922 -1.065485 0.752367 0.071315 -0.023220 -727140.000000 0 0 1
7.486270 -14.322885 19.086467 25.009648 -1.089171 0.702601 0.049203 -0.017509 -214102.000000 0 0 1
6.030170 -14.612885 18.732667 24.511470 -1.179423 0.700933 0.023320 -0.006967 -399387.000000 0 1 0
5.749870 -14.571885 17.370767 23.391117 -1.194965 0.733819 0.016768 -0.005269 94430.900000 0 1 0
4.349870 -14.683985 17.134767 22.981319 -1.282800 0.729368 -0.002570 0.000778 -38214.900000 0 1 0
3.835570 -16.123585 16.854267 23.637849 -1.337251 0.777000 -0.006334 -0.007179 914951.000000 0 1 0
2.427370 -16.153885 16.505867 23.222484 -1.421647 0.780203 -0.011410 0.000249 822050.000000 0 1 0
1.997970 -17.490485 16.495067 24.124597 -1.457058 0.817914 -0.001342 -0.013462 -949067.000000 0 1 0
0.500470 -17.571185 16.408967 24.046854 -1.542322 0.819790 0.007688 0.000065 -962067.000000 0 1 0
0.082170 -17.244385 15.088767 22.913892 -1.566031 0.851974 0.010260 -0.006452 -581266.000000 0 1 0
-1.266830 -17.527185 14.857167 23.011790 1.498644 0.868945 0.003977 0.001568 -171100.000000 0 1 0
-1.741030 -18.050585 13.412367 22.555407 1.474641 0.933977 0.002695 -0.004021 896564.000000 0 1 0
-3.155130 -18.189785 13.239967 22.718271 1.399049 0.948639 -0.000071 -0.011722 372995.000000 0 1 0
-3.373930 -19.388285 12.561967 23.347205 1.398503 1.002674 0.016414 -0.020106 582732.000000 0 1 0
-4.897930 -19.617885 12.280167 23.656999 1.326131 1.025008 0.015307 -0.020464 798099.000000 0 1 0
-5.635130 -20.127185 13.416367 24.836609 1.297810 1.000139 0.014755 -0.018062 90073.400000 0 1 0
-5.574130 -21.541285 13.518667 26.035595 1.317585 1.024837 -0.010971 -0.006308 -121109.000000 0 0 1
-6.347130 -22.053385 14.791867 27.302695 1.290562 0.998251 0.007216 -0.007034 -357735.000000 0 0 1
-7.685430 -21.663185 14.777067 27.326198 1.229879 0.999449 0.021544 -0.010772 -1028500.000000 0 0 1
-8.341530 -22.378885 15.774767 28.622349 1.214008 0.987073 0.012279 -0.020609 188049.000000 0 0 1
-9.874430 -22.113185 15.754967 28.891457 1.150823 0.994031 0.032376 -0.017290 463704.000000 0 0 1
-10.232130 -20.804985 16.201667 28.284941 1.113721 0.960876 0.020948 -0.013878 -598126.000000 0 0 1
-11.581930 -20.452785 16.011767 28.440010 1.055543 0.972783 0.057080 -0.013566 27260.300000 0 0 1
-11.964130 -19.234685 16.879067 28.249184 1.014351 0.930409 0.056457 -0.003879 -213121.000000 0 0 1
-12.322530 -19.612385 18.172667 29.440384 1.009825 0.905528 0.047648 -0.004120 -86768.500000 0 0 1
-12.622330 -18.516785 19.055067 29.415814 0.972479 0.866125 0.041524 -0.011283 -122439.000000 0 0 1
-13.001030 -18.978485 20.453867 30.782630 0.970181 0.844024 0.034236 -0.014841 -576857.000000 0 0 1
-14.216530 -19.668485 20.409167 31.709511 0.944927 0.871566 0.051245 -0.013281 -281987.000000 0 0 1
-14.590130 -20.235185 21.674067 33.046933 0.946097 0.855479 0.040547 -0.007911 144310.000000 0 0 1
-15.970230 -20.928585 21.598567 34.052195 0.918975 0.883722 0.047951 -0.010646 -532911.000000 0 0 1
-15.968130 -22.057285 20.729067 34.222788 0.944184 0.920139 0.044820 -0.012588 407936.000000 0 0 1
-17.222530 -22.490585 20.226967 34.807645 0.917281 0.950708 0.050231 -0.001986 264132.000000 0 0 1
-18.283730 -23.108285 21.145767 36.268872 0.901432 0.948346 0.043228 -0.002853 -397758.000000 0 0 1
-18.911530 -22.227885 22.013467 36.555677 0.865837 0.924555 0.053313 0.004906 -300077.000000 0 0 1
-20.017330 -22.789885 22.668167 37.867112 0.850076 0.929014 0.053095 0.002365 -173163.000000 0 0 1
-20.607130 -21.812385 23.725957 38.253823 0.813803 0.901768 0.044444 0.009555 -199917.000000 0 0 1
-21.448630 -20.876085 23.118167 37.819364 0.771872 0.913121 0.049472 0.010391 -73529.500000 0 0 1
-21.535930 -19.685785 23.904687 37.719497 0.740545 0.884406 0.043298 0.012551 55092.300000 0 0 1
-22.566630 -18.667585 23.394957 37.484070 0.691120 0.896778 0.050790 0.012905 -175727.000000 0 0 1
-22.152230 -18.075585 22.200067 36.197942 0.684404 0.910569 0.058779 0.013088 -155337.000000 0 0 1
-23.051930 -17.056085 21.841167 36.046332 0.637005 0.919875 0.045138 0.006655 -253565.000000 0 0 1
-22.592030 -16.262685 20.614467 34.638576 0.623919 0.933369 0.044139 0.012807 676769.000000 0 0 1
-21.474330 -15.362185 20.744267 33.577793 0.620970 0.904858 0.051240 0.008200 274321.000000 0 0 1
-21.021530 -15.156585 19.397567 32.371166 0.624683 0.928265 0.049975 0.005580 -221454.000000 0 0 1
-20.195430 -13.964385 19.048167 31.075587 0.604973 0.910992 0.047144 0.004096 -304744.000000 0 0 1
-19.774430 -14.044285 17.688767 30.019369 0.617555 0.940672 0.046660 0.004501 244504.000000 0 0 1
-19.048430 -12.844285 17.355667 28.793011 0.593266 0.923824 0.058070 -0.006830 -93588.800000 0 0 1
-18.695230 -12.712085 15.869567 27.621584 0.597152 0.958760 0.048433 -0.004802 16335.700000 0 0 1
-18.290130 -11.431085 15.417767 26.512376 0.558590 0.950187 0.049056 -0.012458 591196.000000 0 0 1
-16.914930 -11.141785 15.718867 25.638584 0.582464 0.910825 0.058476 -0.021685 481746.000000 0 0 1
-16.394530 -9.929585 14.955267 24.311258 0.544574 0.908210 0.056607 -0.030985 -224079.000000 0 1 0
-17.005830 -8.757685 15.396267 24.554843 0.475561 0.893080 0.061480 -0.025293 -133156.000000 0 1 0
-16.631330 -7.624085 14.625967 23.423209 0.429831 0.896405 0.058279 -0.022638 -511576.000000 0 1 0
-16.722930 -6.306585 15.474267 23.640692 0.360630 0.857195 0.061844 -0.020300 247885.000000 0 1 0
-15.863830 -6.191285 16.575667 23.764382 0.372096 0.798893 0.054000 -0.013305 94090.600000 0 1 0
-14.462530 -6.155885 16.326467 22.663036 0.402416 0.766416 0.047243 -0.016737 -210091.000000 0 1 0
-13.712730 -6.108385 17.652867 23.172722 0.419067 0.704717 0.044121 -0.011324 -371331.000000 0 1 0
-13.862930 -7.311485 18.476367 24.228388 0.485336 0.703486 0.042018 -0.016024 276253.000000 0 1 0
-13.031630 -8.414685 18.091367 23.831237 0.573355 0.708798 0.032892 -0.015813 -336333.000000 0 1 0
-13.174530 -9.587885 19.077067 25.088449 0.629114 0.706879 0.036057 -0.015500 266096.000000 0 0 1
-14.414530 -10.269385 19.226567 26.132352 0.619022 0.744040 0.043963 -0.013362 415975.000000 0 0 1
-15.349330 -9.612785 20.078067 27.039533 0.559510 0.733934 0.039871 -0.007780 -973906.000000 0 0 1
-16.741230 -10.234385 20.239867 28.189779 0.548707 0.769892 0.041072 -0.005871 164159.000000 0 0 1
-17.741130 -10.013385 19.267467 28.040165 0.513844 0.813254 0.052893 -0.007655 231635.000000 0 0 1
-18.003230 -8.672185 18.879667 27.491179 0.448902 0.813783 0.044367 -0.008743 -1205840.000000 0 0 1
-19.121830 -8.491385 17.871567 27.516193 0.417910 0.863879 0.057587 -0.021512 391044.000000 0 0 1
-20.436230 -8.829885 18.312567 28.826316 0.407844 0.882435 0.055548 -0.018423 601886.000000 0 0 1
-21.389330 -8.879485 17.250267 28.877680 0.393486 0.930596 0.072215 -0.025392 1527500.000000 0 0 1
-22.858630 -9.264085 17.706467 30.362134 0.385048 0.948163 0.056852 -0.014250 1174400.000000 0 0 1
-23.459430 -8.208985 18.488767 30.976875 0.336606 0.931218 0.058315 -0.014596 1042520.000000 0 0 1
-24.834130 -8.545785 18.740867 32.264292 0.331422 0.951018 0.062014 -0.010323 839905.000000 0 0 1
-25.622320 -7.404485 19.473467 33.023410 0.281322 0.940125 0.069740 -0.011629 50472.600000 0 0 1
-25.230880 -7.336585 20.795567 33.509378 0.282975 0.901302 0.068440 -0.019168 647079.000000 0 0 1
-25.955790 -6.290985 21.503667 34.288296 0.237788 0.892916 0.064738 -0.016535 -337431.000000 0 0 1
-25.866310 -6.379785 23.056767 35.233253 0.241818 0.857403 0.069949 -0.018110 -440524.000000 0 0 1
-24.710330 -6.080185 23.748247 34.807302 0.241266 0.819923 0.049463 -0.016653 -312686.000000 0 0 1
-23.551530 -6.879585 23.532017 33.996457 0.284201 0.806277 0.052775 -0.015351 -389799.000000 0 0 1
-22.475030 -6.575285 24.572717 33.943774 0.284617 0.761323 0.052758 -0.013758 -27706.700000 0 0 1
-21.752630 -5.341085 24.447967 33.157310 0.240774 0.741683 0.056322 -0.011223 269100.000000 0 0 1
-21.034730 -4.961185 25.578387 33.486223 0.231624 0.701542 0.046320 -0.011728 66538.200000 0 0 1
-20.306630 -3.607585 25.492867 32.791160 0.175821 0.680225 0.043920 -0.018295 620112.000000 0 0 1
-19.339130 -3.268585 26.530987 32.993619 0.167432 0.636595 0.049119 -0.014242 218027.000000 0 0 1
-19.797530 -3.062485 27.857067 34.312347 0.153474 0.623453 0.047798 -0.023850 -376753.000000 0 0 1
-20.647930 -1.853285 28.220977 35.017070 0.089517 0.633568 0.052231 -0.030148 -164166.000000 0 0 1
-21.940630 -1.887985 27.697527 35.385148 0.085838 0.671733 0.051722 -0.031691 -1073870.000000 0 0 1
-22.836330 -1.070285 28.374427 36.438326 0.046833 0.678209 0.058293 -0.033029 898876.000000 0 0 1
-24.248130 -0.946885 27.684237 36.814201 0.039030 0.719707 0.060545 -0.030723 433063.000000 0 0 1
-24.075630 -0.606885 26.316707 35.673146 0.025202 0.741113 0.051234 -0.033500 -69535.700000 0 0 1
-25.192000 -0.157185 25.571617 35.896646 0.006239 0.777930 0.069356 -0.029150 -219738.000000 0 0 1
-26.239870 -1.183085 25.107317 36.336040 0.045057 0.807959 0.068131 -0.018363 -323553.000000 0 0 1
-27.029280 -1.642385 26.182257 37.666829 0.060689 0.802236 0.066718 -0.016291 -226941.000000 0 0 1
-27.676760 -2.834185 25.850027 37.977092 0.102047 0.822114 0.067104 -0.022487 -253454.000000 0 0 1
-26.820930 -4.121885 25.849697 37.477447 0.152489 0.809666 0.062747 -0.025259 53605.900000 0 0 1
-26.392130 -4.540985 27.144747 38.131383 0.170390 0.778633 0.063659 -0.025910 -788135.000000 0 0 1
-25.332480 -5.408685 27.042477 37.447082 0.210350 0.763888 0.048516 -0.029088 -703730.000000 0 0 1
-24.926330 -5.820485 28.443147 38.265031 0.229397 0.732777 0.042436 -0.015817 232770.000000 0 0 1
-25.966600 -6.510285 29.141787 39.571352 0.245654 0.743009 0.059891 -0.015020 308477.000000 0 0 1
-25.467420 -7.155085 30.263077 40.195006 0.273890 0.718329 0.056325 -0.015706 -337756.000000 0 0 1
-26.557060 -7.809685 31.126937 41.655190 0.286009 0.726879 0.037255 -0.013669 -390171.000000 0 0 1
-27.280530 -8.814485 30.547007 41.893222 0.312517 0.753698 0.034924 -0.014408 -205268.000000 0 0 1
-28.435210 -9.169585 31.260287 43.241739 0.311945 0.762778 0.028397 -0.007747 -107868.000000 0 0 1
-29.530910 -9.936785 30.518337 43.614026 0.324587 0.795767 0.022259 -0.014310 -314960.000000 0 0 1
-29.140970 -11.281685 30.192077 43.451514 0.369373 0.802592 0.028617 -0.016054 549775.000000 0 0 1
-30.137090 -12.040185 29.482167 43.845278 0.380087 0.833331 0.025104 -0.008533 197804.000000 0 0 1
-29.540640 -13.225685 28.755157 43.294656 0.420949 0.844409 0.031254 -0.012098 227507.000000 0 0 1
-28.687040 -12.834585 27.679607 41.878795 0.420690 0.848718 0.037789 -0.009969 -76044.500000 0 0 1
-27.663220 -13.732185 27.375907 41.270654 0.460768 0.845541 0.038437 -0.010027 652954.000000 0 0 1
-26.431540 -13.022185 26.629927 39.715949 0.457771 0.835901 0.040831 -0.010016 1147070.000000 0 0 1
-25.551180 -12.211785 27.437477 39.431024 0.445840 0.801215 0.029803 -0.013113 123947.000000 0 0 1
-26.122180 -11.042485 28.013887 39.863299 0.399942 0.791542 0.035367 -0.017606 -939106.000000 0 0 1
-26.185350 -9.746585 27.144577 38.955058 0.356327 0.799845 0.039356 -0.011505 -314844.000000 0 0 1
-24.990230 -9.207285 26.640667 37.669760 0.353003 0.785243 0.032284 -0.009651 -321431.000000 0 0 1
-24.271130 -9.987385 25.727937 36.752719 0.390374 0.795359 0.032728 -0.011243 -526909.000000 0 0 1
-24.808130 -9.932785 24.293107 36.114520 0.380838 0.832987 0.053170 -0.007978 -509134.000000 0 0 1
-26.015170 -10.658785 24.181357 37.082837 0.388853 0.860458 0.052394 -0.010472 8445.350000 0 0 1
-26.683940 -10.335785 22.952167 36.683280 0.369546 0.894787 0.059251 -0.006136 -390689.000000 0 0 1
-27.870770 -11.261785 22.673667 37.652394 0.384011 0.924562 0.064290 -0.012774 -739068.000000 0 0 1
-29.052020 -11.027985 23.371867 38.882907 0.362793 0.925940 0.057654 -0.017820 -567881.000000 0 0 1
-29.097550 -11.035785 24.845187 39.821342 0.362508 0.897052 0.049103 -0.017775 -1141180.000000 0 0 1
-30.560910 -10.914785 25.270707 41.130407 0.343029 0.909165 0.031655 -0.010707 -519619.000000 0 0 1
-31.133080 -9.633285 25.048387 41.103413 0.300079 0.915494 0.037816 -0.015757 114573.000000 0 0 1
-32.524590 -9.466485 25.244897 42.246516 0.283231 0.930340 0.036724 -0.014484 318073.000000 0 0 1
-33.002410 -9.432485 26.704937 43.488901 0.278390 0.909598 0.027026 -0.012592 -425661.000000 0 0 1
-33.147670 -10.600385 27.371007 44.275368 0.309515 0.904346 0.023155 -0.018212 172393.000000 0 0 1
-33.878190 -10.422685 28.603327 45.546838 0.298462 0.891818 0.032222 -0.015086 -702279.000000 0 0 1
-34.271317 -11.753785 29.199547 46.532657 0.330392 0.892450 0.046170 -0.008276 -475222.000000 0 0 1
-35.444640 -12.401985 28.832957 47.344177 0.336583 0.915988 0.027554 -0.000271 -392570.000000 0 0 1
35.481011 -11.758485 29.265777 47.472622 -0.320012 0.906536 0.037880 0.004042 -937103.000000 0 0 1
34.173291 -12.272485 28.669967 46.264400 -0.344781 0.902438 0.034388 0.001028 -113269.000000 0 0 1
34.049751 -11.988785 27.282717 45.248902 -0.338541 0.923606 0.026484 0.003034 -549803.000000 0 0 1
32.779631 -12.319685 26.801437 44.097572 -0.359501 0.917540 0.036015 0.008019 -416554.000000 0 0 1
32.597361 -12.002885 25.318537 42.984713 -0.352810 0.940960 0.032491 -0.000499 -11338.000000 0 0 1
32.482811 -10.609085 25.096827 42.397364 -0.315684 0.937329 0.036717 -0.014398 -92374.500000 0 0 1
32.484361 -10.286185 23.708077 41.510387 -0.306661 0.962907 0.028005 -0.011374 -571055.000000 0 0 1
31.964461 -8.910185 23.358767 40.580170 -0.271852 0.957434 0.037270 0.011401 -742936.000000 0 0 1
30.661161 -8.756585 23.827517 39.806220 -0.278187 0.929059 0.046877 0.003145 -939948.000000 0 0 1
30.182131 -7.554985 23.344267 38.897219 -0.245273 0.927104 0.050170 0.007438 1220470.000000 0 0 1
28.605261 -7.346385 23.353767 37.651411 -0.251387 0.901719 0.058488 0.009127 1304570.000000 0 0 1
28.031851 -7.991585 22.233667 36.660415 -0.277722 0.919175 0.051140 0.013681 -10227.500000 0 0 1
26.665151 -7.641385 22.101267 35.466703 -0.279089 0.898026 0.049572 -0.002594 -94729.300000 0 0 1
14.713570 -16.897185 26.765237 34.905328 -0.854367 0.696963 0.046657 -0.014385 -6073.840000 0 0 1
14.099070 -18.052685 26.240377 34.831603 -0.907751 0.717655 0.051808 -0.011839 960129.000000 0 0 1
15.042970 -19.181785 26.194577 35.782505 -0.905744 0.749470 0.032001 0.001090 309855.000000 0 0 1
14.406470 -20.573685 26.156447 36.262689 -0.959911 0.765112 0.028446 -0.006831 268522.000000 0 0 1
13.755670 -21.102185 27.356147 37.187087 -0.993115 0.744192 0.021494 -0.005974 810065.000000 0 0 1
12.456370 -20.577485 27.608807 36.617485 -1.026460 0.716698 0.037498 -0.013590 -17032.100000 0 0 1
11.814370 -21.175285 28.882567 37.711731 -1.061884 0.698391 0.028952 -0.010531 -102607.000000 0 0 1
12.324570 -20.746485 30.095687 38.575407 -1.034759 0.675846 0.034087 -0.009480 -85079.500000 0 0 1
11.519270 -19.756985 30.710257 38.290363 -1.042935 0.640100 0.048074 -0.010908 281135.000000 0 0 1
11.330170 -18.286185 30.201557 37.079527 -1.016088 0.618916 0.055022 -0.013797 -504351.000000 0 0 1
12.444370 -17.573685 30.554387 37.380039 -0.954638 0.613916 0.039835 -0.002256 -1146160.000000 0 0 1
12.213270 -16.238085 30.095367 36.312126 -0.925929 0.593843 0.038554 -0.000581 -282105.000000 0 0 1
13.225270 -15.156285 30.446647 36.491356 -0.853331 0.583840 0.036612 -0.003386 -30629.600000 0 0 1
12.777870 -13.910085 29.916807 35.380500 -0.827797 0.563158 0.049762 -0.005458 -115187.000000 0 0 1
13.435270 -12.823185 30.532487 35.737561 -0.762092 0.546492 0.049971 0.002771 -29155.200000 0 0 1
13.028570 -11.390785 30.097927 34.718566 -0.718429 0.521824 0.045702 0.005904 -92950.300000 0 0 1
13.030570 -10.797485 28.792307 33.397281 -0.691954 0.531367 0.061094 0.001473 -1230380.000000 0 0 1
14.271270 -10.644185 28.241247 33.384665 -0.640838 0.562481 0.065041 -0.000673 -1445830.000000 0 0 1
14.318270 -9.688185 27.002977 32.062978 -0.594869 0.569472 0.058785 -0.001625 95092.300000 0 0 1
14.621070 -8.327085 27.324457 32.089593 -0.517711 0.551947 0.048153 -0.000649 2005900.000000 0 0 1
15.986670 -8.046085 27.841307 33.097605 -0.466284 0.571320 0.051521 -0.006070 1675440.000000 0 0 1
16.414770 -6.586785 27.618497 32.796521 -0.381602 0.569600 0.046341 -0.004445 -1052680.000000 0 0 1
17.751370 -6.360385 27.859597 33.641087 -0.344053 0.595012 0.048292 -0.012223 -913023.000000 0 0 1
18.166070 -5.040285 27.506147 33.346644 -0.270648 0.600851 0.059830 -0.015922 -88950.200000 0 0 1
19.667470 -4.930585 27.201047 33.926641 -0.245635 0.640561 0.057006 -0.015113 -1107440.000000 0 0 1
20.101270 -5.659585 26.113657 33.436732 -0.274449 0.674552 0.059949 -0.010032 181039.000000 0 0 1
21.406270 -5.368985 25.640807 33.830539 -0.245744 0.710679 0.055443 -0.014051 451080.000000 0 0 1
22.606570 -5.749485 26.533297 35.328875 -0.249048 0.721165 0.049292 -0.021606 -766205.000000 0 0 1
22.956570 -4.753085 27.507347 36.142081 -0.204162 0.705806 0.052996 -0.024787 261334.000000 0 0 1
23.936570 -5.200585 28.442587 37.536465 -0.213940 0.710966 0.060011 -0.035282 -15695.200000 0 0 1
24.646370 -3.987385 29.091987 38.336490 -0.160394 0.709237 0.067858 -0.036368 -421728.000000 0 0 1
25.528270 -3.344085 28.191987 38.179361 -0.130254 0.740088 0.059199 -0.024848 87339.900000 0 0 1
25.737670 -1.980985 28.531747 38.476129 -0.076817 0.735427 0.052655 -0.033667 -625905.000000 0 0 1
26.805370 -1.247385 27.703797 38.569213 -0.046501 0.769458 0.063953 -0.032734 379551.000000 0 0 1
28.148970 -1.636085 27.925547 39.684726 -0.058057 0.790226 0.069447 -0.034379 14842.600000 0 0 1
29.089870 -1.084085 27.049147 39.737289 -0.037250 0.822079 0.059399 -0.014104 284216.000000 0 0 1
30.555270 -1.157785 27.540917 41.151757 -0.037873 0.837594 0.046286 -0.018023 57779.900000 0 0 1
30.871470 -0.190385 28.450497 41.982314 -0.006167 0.826196 0.044248 -0.011732 -707016.000000 0 0 1
32.168870 -0.324185 28.944077 43.274714 -0.010077 0.838142 0.048246 -0.018087 -294634.000000 0 0 1
32.566170 0.837115 29.924057 44.234662 0.025699 0.827818 0.036476 -0.014186 -140543.000000 0 0 1
32.844270 2.027615 29.251697 44.028616 0.061656 0.844133 0.022153 0.002746 202857.000000 0 0 1
32.711570 3.115515 30.120737 44.575913 0.094956 0.828858 0.022227 -0.000081 -49160.400000 0 0 1
32.833070 4.501915 29.403727 44.304141 0.136266 0.845070 0.015535 0.001847 -49727.000000 0 0 1
32.824870 5.738015 30.160207 44.944799 0.173058 0.835172 0.024369 0.010961 -611883.000000 0 0 1
31.567770 6.108515 30.591927 44.381348 0.191142 0.810278 0.026707 0.007921 -969234.000000 0 0 1
31.616570 7.233515 31.678417 45.337108 0.224918 0.797175 0.024763 0.008008 -281484.000000 0 0 1
31.947470 6.634915 32.903405 46.338936 0.204771 0.781214 0.030507 0.013690 82082.500000 0 0 1
32.165470 7.559015 33.933598 47.362910 0.230816 0.772083 0.034673 0.014668 -240008.000000 0 0 1
32.295970 6.762315 -33.238054 46.835102 0.206404 2.359844 0.045560 0.014325 815136.000000 0 0 1
31.121370 5.967115 -32.899274 45.678314 0.189438 2.374942 0.042234 0.008171 793652.000000 0 0 1
31.288370 4.582915 -33.088954 45.769466 0.145439 2.378856 0.047994 0.004329 74603.000000 0 0 1
32.232670 3.772415 -32.155674 45.685484 0.116507 2.351598 0.046832 0.000291 142065.000000 0 0 1
32.173170 2.358715 -32.415774 45.732470 0.073182 2.358611 0.050793 -0.004992 270789.000000 0 0 1
32.720570 1.606415 -31.315104 45.319444 0.049056 2.333649 0.042993 -0.003988 32604.500000 0 0 1
32.881970 0.119615 -31.640174 45.632651 0.003638 2.336948 0.045349 -0.016578 -588503.000000 0 0 1
33.935870 -0.078385 -32.561584 47.030906 -0.002310 2.335529 0.057254 -0.013640 -60999.400000 0 0 1
34.572670 -1.342985 -32.546714 47.501176 -0.038826 2.325643 0.059785 -0.018142 205480.000000 0 0 1
35.290670 -1.835885 -31.289964 47.200251 -0.051975 2.295508 0.055414 -0.014672 -1109820.000000 0 0 1
34.516770 -1.822385 -30.116614 45.844726 -0.052748 2.287531 0.042981 -0.020812 -402797.000000 0 0 1
35.222870 -1.799285 -28.868384 45.577095 -0.051038 2.256731 0.039953 -0.017220 161136.000000 0 0 1
34.183870 -1.655685 -27.730614 44.048441 -0.048397 2.251768 0.046248 -0.017756 -18302.600000 0 0 1
33.762370 -0.335485 -27.518224 43.557580 -0.009936 2.254626 0.023323 -0.012084 -146241.000000 0 0 1
32.663470 -0.307285 -26.658574 42.162498 -0.009407 2.255291 0.025517 -0.008890 -503735.000000 0 0 1
32.155370 1.200415 -26.553024 41.718963 0.037314 2.260714 0.010404 -0.007137 -408485.000000 0 0 1
31.386670 1.556015 -27.639434 41.850717 0.049535 2.292186 0.029108 -0.017980 -44300.900000 0 0 1
30.900970 2.876815 -27.562664 41.507185 0.092830 2.297013 0.016715 -0.007793 284541.000000 0 0 1
29.883770 3.326415 -28.652564 41.534012 0.110855 2.332089 0.039444 -0.005592 228277.000000 0 0 1
29.228270 4.571215 -28.405674 41.013047 0.155140 2.335885 0.019452 0.000923 -153646.000000 0 0 1
28.230370 4.752515 -29.333184 40.987508 0.166784 2.368367 0.009175 -0.000386 148920.000000 0 0 1
27.003570 5.693815 -28.968614 40.009910 0.207810 2.380432 -0.002699 0.003970 490524.000000 0 0 1
25.926470 4.988315 -28.411994 38.785390 0.190080 2.392848 0.007691 0.007371 -497129.000000 0 0 1
24.930170 5.867415 -27.989974 37.939143 0.231147 2.400542 0.002451 0.003481 -582178.000000 0 0 1
23.664970 5.056015 -27.652094 36.745508 0.210485 2.422692 0.027402 0.005576 -586240.000000 0 0 1
22.913970 4.723715 -28.775504 37.086293 0.203302 2.458947 0.040188 0.001603 435552.000000 0 0 1
21.674770 4.116315 -28.381044 35.947508 0.187678 2.480812 0.047334 0.000106 747509.000000 0 0 1
20.680470 3.868315 -29.560104 36.282853 0.184915 2.523030 0.034292 0.007870 108126.000000 0 0 1
21.112470 2.756415 -30.326744 37.054630 0.129824 2.529475 0.035142 -0.000829 8541.570000 0 0 1
20.376970 2.476315 -31.491324 37.590644 0.120932 2.563934 0.031593 -0.007831 -341113.000000 0 0 1
20.674470 3.273715 -32.745414 38.864033 0.157042 2.572821 0.037773 -0.009292 -612810.000000 0 0 1
21.957870 2.980715 -33.225894 39.937360 0.134922 2.553410 0.022571 -0.010737 -315077.000000 0 0 1
22.146570 3.474715 33.929628 40.666495 0.155628 0.583864 0.036993 -0.023708 -658172.000000 0 0 1
23.502870 3.126415 33.342298 40.912934 0.132246 0.618141 0.052659 -0.021298 -657295.000000 0 0 1
23.659870 1.760015 32.978469 40.625934 0.074251 0.623638 0.058693 -0.028745 44101.100000 0 0 1
25.027070 1.549415 32.685779 41.196056 0.061831 0.654389 0.049487 -0.030685 -418026.000000 0 0 1
25.396170 0.043715 32.421306 41.183837 0.001721 0.664486 0.047983 -0.036758 -503869.000000 0 0 1
24.979870 -0.612185 31.213847 39.983408 -0.024502 0.675059 0.049490 -0.039886 1724780.000000 0 0 1
23.559970 -0.828185 30.951187 38.906735 -0.035138 0.650927 0.064334 -0.043022 1272290.000000 0 0 1
22.706770 -1.808485 31.768987 39.091387 -0.079477 0.622051 0.060304 -0.043634 -434952.000000 0 0 1
22.964170 -3.210485 31.571027 39.171291 -0.138904 0.633478 0.063427 -0.051105 96101.800000 0 0 1
22.177070 -3.984085 32.449025 39.504868 -0.177753 0.606947 0.074265 -0.045020 -96585.600000 0 0 1
22.051970 -5.476785 32.149287 39.368277 -0.243433 0.615250 0.077291 -0.040569 -604100.000000 0 0 1
23.211470 -6.151385 32.508232 40.415307 -0.259060 0.636208 0.066122 -0.027071 -492300.000000 0 0 1
23.128470 -7.572385 32.284987 40.430032 -0.316406 0.645931 0.072711 -0.029734 -880281.000000 0 0 1
24.507370 -8.029885 31.857327 40.987553 -0.316629 0.680523 0.049221 -0.025018 -572385.000000 0 0 1
24.834470 -7.608685 30.568107 40.112992 -0.297296 0.704323 0.058007 -0.025010 -225510.000000 0 0 1
26.098870 -8.136585 30.215417 40.747103 -0.302211 0.735440 0.041498 -0.013307 195277.000000 0 0 1
26.617670 -7.865985 28.785637 39.987335 -0.287339 0.767183 0.052194 -0.022215 -219078.000000 0 0 1
25.856870 -8.466285 27.787517 38.889610 -0.316427 0.774854 0.040172 -0.016722 -435083.000000 0 0 1
26.335270 -8.162885 26.527457 38.260751 -0.300569 0.804692 0.053886 -0.010615 -9412.610000 0 0 1
25.630670 -9.056585 25.492127 37.266627 -0.339656 0.817500 0.033558 -0.006255 -345299.000000 0 0 1
24.322370 -8.715985 25.160547 36.063821 -0.344096 0.798660 0.035300 -0.005301 -662163.000000 0 0 1
23.751470 -9.616585 24.246387 35.277447 -0.384709 0.813023 0.043646 -0.009729 544629.000000 0 0 1
22.306670 -9.178985 23.858577 33.927466 -0.390373 0.790876 0.039852 -0.009716 399900.000000 0 0 1
21.310770 -9.317285 24.825077 34.018306 -0.412167 0.752831 0.033812 -0.002785 -823630.000000 0 0 1
20.037570 -9.002785 24.375327 32.813273 -0.422268 0.733479 0.044462 0.002835 -315981.000000 0 0 1
19.004270 -8.720385 25.483817 32.964106 -0.430201 0.687117 0.042807 0.007396 -105919.000000 0 0 1
18.379070 -9.791085 26.205257 33.471944 -0.489488 0.671479 0.053386 0.002566 -267918.000000 0 0 1
19.184770 -10.765285 26.788197 34.663442 -0.511353 0.687542 0.044170 -0.003466 -639431.000000 0 0 1
18.436870 -11.695285 27.776517 35.330337 -0.565289 0.666170 0.042271 -0.003205 291513.000000 0 0 1
17.653070 -12.679085 27.111317 34.747857 -0.622861 0.675763 0.048376 -0.004297 30760.100000 0 0 1
16.908570 -13.568485 27.881207 35.318058 -0.676240 0.660913 0.043722 -0.003812 -159884.000000 0 0 1
17.675470 -14.700585 28.618267 36.708781 -0.693770 0.676765 0.045580 0.004598 -143779.000000 0 0 1
16.785770 -15.590885 29.275617 37.173909 -0.748509 0.664003 0.033155 0.004365 589961.000000 0 0 1
17.459970 -16.762685 29.828207 38.413020 -0.765026 0.681684 0.039370 0.002207 105808.000000 0 0 1
17.938470 -17.934985 28.901327 38.454377 -0.785301 0.720351 0.035474 0.005833 -295604.000000 0 0 1
18.961670 -17.606785 28.017817 38.138456 -0.748364 0.745669 0.034091 0.005763 -164502.000000 0 0 1
19.267770 -18.702785 27.147997 38.184484 -0.770520 0.779921 0.031937 0.006521 -27479.300000 0 0 1
20.384070 -18.190685 26.201847 37.854301 -0.728599 0.806296 0.031719 -0.000327 175917.000000 0 0 1
21.649770 -18.075685 26.857617 38.945789 -0.695670 0.809838 0.038103 0.008965 303030.000000 0 0 1
22.589370 -17.601785 25.902607 38.614084 -0.661933 0.835500 0.034200 0.008805 -45005.700000 0 0 1
24.025570 -17.520185 26.437797 39.788717 -0.630076 0.844033 0.034933 0.003283 -102663.000000 0 0 1
24.786470 -18.715385 26.536337 40.851094 -0.646735 0.863755 0.036818 0.004660 949443.000000 0 0 1
26.174270 -18.388985 26.728377 41.685169 -0.612442 0.874740 0.025050 0.000530 750886.000000 0 0 1
27.003870 -19.706785 26.929787 42.927611 -0.630432 0.892676 0.012291 0.007708 -269428.000000 0 0 1
26.682470 -20.432585 28.070847 43.788322 -0.653517 0.874921 0.019614 0.012576 -145857.000000 0 0 1
27.414370 -21.599785 28.204447 44.873034 -0.667319 0.891123 0.016948 0.009482 122615.000000 0 0 1
26.616170 -22.746885 28.979617 45.449526 -0.707174 0.879389 0.026950 0.006034 265634.000000 0 0 1
26.548370 -22.464885 30.355207 46.161949 -0.702276 0.853193 0.028153 0.003536 -103181.000000 0 0 1
25.731270 -23.389785 31.058587 46.624201 -0.737767 0.841765 0.048421 -0.005620 -112690.000000 0 0 1
25.624570 -23.193285 32.596102 47.508451 -0.735636 0.814666 0.034190 -0.001865 -66972.700000 0 0 1
25.031270 -24.287385 33.202432 48.154366 -0.770316 0.809998 0.038655 -0.009562 -231993.000000 0 0 1
24.809370 -24.051885 -33.887144 48.397691 -0.769897 2.346447 0.047690 -0.011058 -461867.000000 0 0 1
24.592170 -25.399955 -33.125094 48.447955 -0.801555 2.323652 0.042669 -0.015455 281515.000000 0 0 1
23.394270 -26.136075 -33.281484 48.353319 -0.840698 2.329936 0.053571 -0.015024 -200811.000000 0 0 1
22.961970 -26.418385 33.844891 48.689421 -0.855280 0.802212 0.040481 -0.021708 445718.000000 0 0 1
21.636170 -27.246435 33.619531 48.381452 -0.899668 0.802537 0.049006 -0.025668 848889.000000 0 0 1
21.700470 -28.581495 34.040279 49.462641 -0.921402 0.811789 0.046926 -0.020370 -224172.000000 0 0 1
20.446470 -29.205315 34.034102 49.288220 -0.960007 0.808600 0.056398 -0.019426 -347960.000000 0 0 1
20.569370 -30.689765 34.186010 50.335315 -0.980327 0.824171 0.043965 -0.020984 -5439.210000 0 0 1
21.140470 -31.184895 -33.037014 50.108496 -0.975052 2.290697 0.034909 -0.026762 411316.000000 0 0 1
21.673170 -32.468405 -33.113524 51.190126 -0.982206 2.274273 0.002100 -0.012931 435934.000000 0 0 1
22.539370 -32.842545 -31.796934 50.967646 -0.969334 2.244475 0.010133 -0.007107 -517480.000000 0 0 1
23.485670 -33.790775 -32.148754 52.220068 -0.963412 2.233994 -0.003610 -0.002408 716090.000000 0 0 1
24.404270 -34.174889 -31.065684 52.235698 -0.950670 2.207715 0.006169 0.007105 1013700.000000 0 0 1
25.350270 -33.153475 -30.390584 51.627286 -0.917995 2.200189 0.014294 0.003859 -569418.000000 0 0 1
25.848570 -33.638045 -29.153654 51.474286 -0.915602 2.172895 0.025723 0.009362 226765.000000 0 0 1
26.818370 -32.739995 -28.602584 51.080720 -0.884498 2.165120 0.019090 0.008239 503587.000000 0 0 1
27.404470 -33.027925 -27.187134 50.803435 -0.878185 2.135474 0.016854 0.002327 432069.000000 0 0 1
28.349870 -34.076693 -27.105234 51.957962 -0.876879 2.119611 0.014763 0.009158 128468.000000 0 0 1
29.007870 -34.231396 -25.844974 51.780379 -0.867810 2.093387 0.020303 0.008508 370800.000000 0 0 1
-26.314710 -30.886019 9.467086 41.665764 0.865146 1.341579 0.033190 -0.015291 -615769.000000 0 0 1
-26.193420 -32.155919 9.951086 42.651172 0.887231 1.335313 0.030588 -0.009333 327042.000000 0 0 1
-24.824930 -32.342519 10.290186 42.050013 0.916149 1.323573 0.021998 -0.005893 396158.000000 0 0 1
-24.750130 -33.564719 11.243986 43.192436 0.935418 1.307440 0.006533 0.001546 -65148.300000 0 0 1
-25.075610 34.005315 10.510886 43.538792 -0.935406 1.326973 0.011307 0.010226 -59859.500000 0 0 1
-25.502330 32.973315 11.354586 43.203414 -0.912472 1.304856 0.005334 0.017482 40917.200000 0 0 1
-25.342000 31.532615 10.821186 41.876257 -0.893818 1.309422 0.008661 0.016313 83512.900000 0 0 1
-26.350240 31.283215 9.871886 42.076464 -0.870782 1.333971 0.018563 0.006221 -33495.500000 0 0 1
-26.442480 29.915915 9.457486 41.031827 -0.846952 1.338214 0.030029 -0.000095 67379.000000 0 0 1
-25.712660 29.650015 8.117586 40.076920 -0.856398 1.366835 0.025805 0.004612 450466.000000 0 0 1
-24.295630 29.716915 8.098286 39.229516 -0.885434 1.362868 0.024360 0.007615 231674.000000 0 0 1
-23.769630 29.661315 6.804686 38.614670 -0.895222 1.393651 0.017561 0.007645 449305.000000 0 0 1
-22.341930 29.024115 6.765586 37.246936 -0.914761 1.388141 0.036905 0.006311 380905.000000 0 0 1
-22.274030 27.612915 6.911386 36.143779 -0.892012 1.378392 0.034431 0.003988 115369.000000 0 0 1
-22.688030 26.827615 5.803886 35.611132 -0.868806 1.407086 0.039322 0.000451 -490105.000000 0 0 1
-22.847630 25.347615 6.239786 34.690788 -0.837224 1.389943 0.036260 -0.000521 725416.000000 0 0 1
-24.126230 25.178115 6.911386 35.549680 -0.806729 1.375135 0.049610 -0.006522 1409750.000000 0 0 1
-24.426330 23.823215 7.285186 34.889327 -0.772899 1.360440 0.051800 -0.022269 -280541.000000 0 0 1
-25.040740 22.851815 6.245086 34.470933 -0.739725 1.388621 0.050168 -0.033342 496105.000000 0 0 1
-26.329560 23.314515 5.767386 35.638113 -0.724739 1.408250 0.047213 -0.034544 1041560.000000 0 0 1
-26.765330 22.604615 4.657486 35.341812 -0.701321 1.438628 0.053665 -0.030258 -82539.700000 0 0 1
-26.634880 23.498615 3.428186 35.684089 -0.722921 1.474577 0.047145 -0.027829 -183809.000000 0 0 1
-25.252970 23.607215 3.178086 34.714743 -0.751728 1.479119 0.043504 -0.027585 203472.000000 0 0 1
-24.977730 24.578615 2.163586 35.109492 -0.777345 1.509133 0.042376 -0.021279 -588432.000000 0 0 1
-23.550030 25.089415 2.196886 34.480560 -0.817037 1.507039 0.038475 -0.016684 -564946.000000 0 0 1
-23.255130 25.873915 1.024886 34.803893 -0.838652 1.541345 0.025843 -0.023143 81113.900000 0 0 1
-21.983830 26.510615 1.100886 34.457415 -0.878475 1.538842 0.021967 -0.020337 -305628.000000 0 0 1
-21.514630 26.963015 -0.300814 34.496000 -0.897318 1.579517 0.025362 -0.018097 -6759.350000 0 0 1
-21.156330 25.991615 -1.300614 33.538723 -0.887596 1.609586 0.029000 -0.013072 468401.000000 0 0 1
-20.170430 25.016015 -0.904014 32.147543 -0.892225 1.598921 0.032234 -0.021170 -65584.800000 0 0 1
-19.738330 24.195015 -2.155214 31.299287 -0.886494 1.639709 0.035025 -0.026306 77849.900000 0 0 1
-20.798230 23.428815 -2.735914 31.447750 -0.844807 1.657905 0.033100 -0.028060 438322.000000 0 0 1
-20.320430 22.462615 -3.719414 30.517585 -0.835427 1.692978 0.037240 -0.024578 95336.600000 0 0 1
-21.475630 21.741115 -4.464814 30.883869 -0.791541 1.715873 0.040213 -0.015934 69054.000000 0 0 1
-22.028230 22.574515 -5.471714 32.012362 -0.797645 1.742565 0.041977 -0.011419 -886252.000000 0 0 1
-23.369230 22.234515 -5.609414 32.740802 -0.760521 1.742974 0.052443 -0.015331 -654592.000000 0 0 1
-23.777630 22.794715 -7.006014 33.675792 -0.764296 1.780370 0.040644 -0.007441 -243151.000000 0 0 1
-23.224530 22.105115 -8.115214 33.073730 -0.760708 1.818695 0.041413 -0.009326 -54112.800000 0 0 1
-22.215630 22.855215 -8.758514 33.054601 -0.799588 1.838970 0.039886 -0.016157 61916.200000 0 0 1
-21.519930 21.979615 -9.899514 32.314258 -0.795965 1.882154 0.041534 -0.025916 669038.000000 0 0 1
-22.339930 21.704915 -11.057014 33.051980 -0.770982 1.911907 0.034888 -0.019109 722881.000000 0 0 1
-21.454630 21.200915 -12.049914 32.480462 -0.779450 1.950871 0.035313 -0.011042 376669.000000 0 0 1
-22.115230 20.999215 -13.411714 33.315530 -0.759519 1.985115 0.035173 -0.009855 -46024.300000 0 0 1
-23.129630 20.018515 -13.447014 33.414711 -0.713420 1.984964 0.021335 -0.004235 73887.500000 0 0 1
-23.905930 20.167915 -14.608914 34.520409 -0.700788 2.007767 0.028691 -0.011681 212604.000000 0 0 1
-25.044080 19.129915 -14.786014 34.810714 -0.652306 2.009487 0.046393 -0.020419 315236.000000 0 0 1
-24.544530 17.923915 -15.312214 34.031817 -0.630748 2.037492 0.037883 -0.015831 171130.000000 0 0 1
-25.638890 17.120415 -15.693714 34.594132 -0.588753 2.041656 0.055879 -0.021242 -136058.000000 0 0 1
-25.297230 16.247715 -16.959114 34.518830 -0.570924 2.084378 0.061255 -0.019786 -113838.000000 0 0 1
-24.375430 15.220715 -16.664014 33.219288 -0.558188 2.096286 0.069893 -0.010482 50522.300000 0 0 1
-23.922530 14.657615 -17.869014 33.263114 -0.549714 2.137913 0.059191 -0.016144 96859.900000 0 0 1
-23.084130 13.339515 -17.775014 32.043265 -0.523985 2.158822 0.054665 -0.014947 -392056.000000 0 0 1
-21.797430 13.588715 -17.301914 30.969943 -0.557454 2.163575 0.063417 -0.017175 -605395.000000 0 0 1
-21.190430 12.298715 -17.217614 29.945600 -0.525876 2.183355 0.069551 -0.005855 -290454.000000 0 0 1
-19.960830 12.220215 -16.308214 28.525887 -0.549349 2.179371 0.069829 -0.008040 310771.000000 0 0 1
-18.931330 13.137615 -16.734514 28.478696 -0.606662 2.198905 0.061970 0.001587 -166864.000000 0 0 1
-17.812830 13.021915 -15.935814 27.217960 -0.631257 2.196279 0.057118 0.005246 -226908.000000 0 0 1
-16.808430 14.238915 -16.105814 27.288592 -0.702825 2.202107 0.036028 0.007010 396315.000000 0 0 1
-16.083230 14.166815 -17.353314 27.577281 -0.722130 2.251399 0.053186 -0.007216 -308643.000000 0 0 1
-15.441430 15.377315 -17.424114 27.901601 -0.783318 2.245267 0.028979 -0.000100 -788893.000000 0 0 1
-14.446530 15.375315 -18.606214 28.129944 -0.816533 2.293531 0.030751 -0.000908 -336585.000000 0 0 1
-13.481230 14.373815 -18.377714 26.946066 -0.817431 2.321315 0.028675 -0.003593 -652811.000000 0 0 1
-12.516130 14.577015 -19.392114 27.298296 -0.861319 2.360832 0.032087 0.000805 -76708.200000 0 0 1
-11.443630 13.492215 -19.427014 26.275567 -0.867368 2.402911 0.027029 -0.002262 13974.300000 0 0 1
-11.932430 12.317115 -20.092714 26.416119 -0.801260 2.435069 0.040910 0.000868 428081.000000 0 0 1
-11.015830 11.251415 -19.893314 25.370983 -0.795978 2.472036 0.019970 0.005350 162175.000000 0 0 1
-11.412830 10.062815 -20.846814 25.808963 -0.722618 2.511097 0.028859 -0.000072 -19388.900000 0 0 1
-10.916930 10.110915 -22.136514 26.672743 -0.747086 2.549779 0.034895 -0.004787 -127716.000000 0 0 1
-11.173630 8.866915 -22.824214 26.914994 -0.670800 2.583017 0.040080 0.006796 -247205.000000 0 0 1
-11.085230 8.962015 -24.345914 28.212117 -0.679881 2.611894 0.032732 -0.000569 -159427.000000 0 0 1
-9.779730 9.064715 -24.859114 28.209710 -0.747473 2.649245 0.015598 0.001064 -354958.000000 0 0 1
-9.615130 8.628615 -26.196084 29.208535 -0.731377 2.683424 0.002917 -0.006930 -114575.000000 0 0 1
-9.516630 9.801415 -27.188944 30.428155 -0.800139 2.675978 0.027776 -0.006211 233894.000000 0 0 1
-8.224030 10.389415 -27.207254 30.262341 -0.901212 2.688383 0.023412 -0.007767 151397.000000 0 0 1
-8.011130 11.545515 -26.403564 29.910288 -0.964194 2.652498 0.004276 0.001080 1266100.000000 0 0 1
-6.478030 11.983315 -26.354144 29.666574 -1.075208 2.664524 0.015981 -0.001804 1452800.000000 0 0 1
-5.987030 12.352515 -27.646604 30.866873 -1.119479 2.680737 0.014280 -0.012475 -905533.000000 0 0 1
-4.633130 12.611015 -27.630684 30.723904 -1.218716 2.689013 0.034110 -0.016085 -1064490.000000 0 0 1
-4.116230 12.773015 -29.059624 32.008671 -1.259045 2.708965 0.040036 -0.016732 497035.000000 0 0 1
-2.685230 12.722515 -29.010784 31.791483 -1.362788 2.720232 0.059132 -0.026510 389769.000000 0 0 1
-2.145230 12.715215 -30.336484 32.963327 -1.403657 2.739669 0.061232 -0.026393 -182855.000000 0 0 1
-0.619530 12.626215 -30.269394 32.803069 -1.521769 2.745981 0.085713 -0.037686 -804779.000000 0 0 1
-0.151130 11.484415 -29.539644 31.693930 -1.557638 2.770767 0.066202 -0.018938 -178501.000000 0 0 1
1.225570 11.212215 -29.667404 31.739103 1.461922 2.778287 0.090853 -0.030943 24380.100000 0 0 1
1.744970 10.727115 -31.042804 32.890296 1.409540 2.804828 0.101941 -0.035829 -590100.000000 0 0 1
1.767570 11.675415 -32.054264 34.160144 1.420545 2.788630 0.110029 -0.049298 116962.000000 0 0 1
1.801570 10.951115 -33.244254 35.047867 1.407747 2.819385 0.115258 -0.043063 -34270.500000 0 0 1
1.835970 11.755615 33.891767 35.919593 1.415870 0.337621 0.109264 -0.047391 -492052.000000 0 0 1
3.052670 12.399815 33.631078 35.973930 1.329410 0.362893 0.110593 -0.048963 -345860.000000 0 0 1
3.164370 12.919615 32.369877 34.996266 1.330597 0.389886 0.106794 -0.040427 76913.400000 0 0 1
4.623470 13.311915 32.061987 35.022201 1.236513 0.414107 0.102370 -0.036259 198380.000000 0 0 1
5.517770 12.230915 31.923627 34.628876 1.147001 0.397895 0.094221 -0.039918 785632.000000 0 0 1
6.872870 12.550115 31.562097 34.654115 1.069771 0.425640 0.078191 -0.025962 1104770.000000 0 0 1
7.675570 11.291815 31.148997 34.009991 0.973793 0.413107 0.054829 -0.015169 147741.000000 0 0 1
7.159370 10.600715 30.012787 32.625130 0.976795 0.402898 0.061908 -0.019894 62034.800000 0 0 1
8.125370 9.724015 29.480927 32.088988 0.874723 0.405959 0.050099 -0.014259 197544.000000 0 0 1
7.535470 8.895115 28.346037 30.649701 0.867961 0.390184 0.034960 -0.010216 784233.000000 0 0 1
6.578470 7.881515 28.738347 30.516997 0.875269 0.343101 0.043985 -0.014099 385780.000000 0 0 1
6.025870 7.172815 27.691307 29.233010 0.872079 0.326217 0.056757 -0.019311 -240981.000000 0 0 1
5.277070 5.910615 28.153447 29.247212 0.841967 0.274345 0.059643 -0.032263 -43137.100000 0 0 1
6.110370 4.853515 28.595757 29.641365 0.671261 0.266401 0.032641 -0.022232 -26702.400000 0 0 1
5.640470 4.327815 29.816407 30.652292 0.654468 0.234072 0.030679 -0.025086 -73223.300000 0 0 1
6.439070 3.134715 30.429657 31.261031 0.453054 0.231142 0.045831 -0.016145 278638.000000 0 0 1
6.036970 1.845215 29.865947 30.525802 0.296635 0.208301 0.025214 -0.010934 82080.700000 0 0 1
6.609970 1.691715 28.568067 29.371552 0.250556 0.234442 0.005839 -0.006056 77823.100000 0 0 1
6.692470 0.228315 28.088057 28.875253 0.034102 0.234037 0.003355 -0.004571 -13964.000000 0 0 1
7.404570 -0.682085 28.896967 29.838358 -0.091857 0.251861 0.005811 -0.001791 90125.200000 0 0 1
7.347470 -2.028185 28.345157 29.352117 -0.269331 0.262694 0.026202 -0.005656 -186409.000000 0 0 1
7.982470 -3.026985 29.343187 30.559861 -0.362451 0.283125 0.020601 0.001493 335936.000000 0 0 1
9.369670 -2.839085 29.556197 31.135509 -0.294214 0.319870 0.015162 0.000196 136010.000000 0 0 1
10.156570 -3.880385 29.006057 30.976840 -0.364943 0.358629 0.026382 0.002262 454939.000000 0 0 1
11.695470 -3.551585 28.982687 31.454633 -0.294822 0.399097 0.020582 0.003826 1364760.000000 0 0 1
12.707270 -4.515185 28.728397 31.736137 -0.341409 0.438884 0.033890 -0.003562 473975.000000 0 0 1
12.735170 -5.581685 29.665227 32.762256 -0.413072 0.438311 0.045666 -0.004520 -850630.000000 0 0 1
12.339770 -7.024885 29.223037 32.490072 -0.517531 0.452298 0.056452 -0.003332 -318921.000000 0 0 1
10.939670 -7.087085 29.066417 31.855294 -0.574851 0.421560 0.052155 0.000024 -196517.000000 0 0 1
10.459270 -8.429985 28.917837 31.885769 -0.678378 0.434882 0.059196 -0.007743 841110.000000 0 0 1
8.904670 -8.394985 28.767817 31.262697 -0.755945 0.402215 0.051020 -0.004477 769383.000000 0 0 1
8.130170 -7.968585 29.892747 31.987096 -0.775361 0.363874 0.062718 -0.006707 34578.500000 0 0 1
6.796670 -7.761185 29.467447 31.221165 -0.851555 0.336763 0.050946 0.009038 192128.000000 0 0 1
5.952670 -7.004085 30.539187 31.892529 -0.866369 0.292363 0.039371 0.005307 123542.000000 0 0 1
5.683370 -7.763485 31.771897 33.196774 -0.938873 0.294050 0.043529 -0.000655 563106.000000 0 0 1
4.859270 -7.044385 32.738976 33.838978 -0.966944 0.255674 0.043638 -0.006218 526489.000000 0 0 1
5.608870 -5.909985 33.455695 34.433572 -0.811533 0.238891 0.042853 0.002950 120662.000000 0 0 1
5.684670 -4.754085 32.668579 33.498550 -0.696486 0.223066 0.046074 0.000991 -409188.000000 0 0 1
6.387770 -3.770985 33.341181 34.156379 -0.533290 0.218916 0.033816 0.004213 -285377.000000 0 0 1
6.430170 -2.381385 32.635132 33.347712 -0.354684 0.207098 0.024350 0.002483 -193204.000000 0 0 1
5.207970 -1.710585 32.495107 32.954226 -0.317354 0.167120 0.037372 0.001101 -363065.000000 0 0 1
5.429570 -0.539485 31.776047 32.241098 -0.099035 0.170053 0.019176 -0.004178 390124.000000 0 0 1
4.075470 0.151215 31.457537 31.720797 0.037087 0.128925 0.036987 -0.013089 43931.700000 0 0 1
3.366670 0.555715 32.581234 32.759427 0.163589 0.104349 0.037591 -0.013831 156187.000000 0 0 1
2.140070 1.219615 32.198327 32.292408 0.517989 0.076352 0.047512 -0.013592 777940.000000 0 0 1
1.129870 1.283415 33.345144 33.388956 0.848938 0.051234 0.058479 -0.016299 -166688.000000 0 0 1
1.504970 2.275215 -34.156435 34.265195 0.986405 3.061896 0.049318 -0.012654 -104773.000000 0 0 1
0.632870 2.372315 -33.062884 33.153924 1.310095 3.067468 0.042844 -0.012408 -113808.000000 0 0 1
1.037570 3.535415 -32.114654 32.325326 1.285333 3.027362 0.041393 -0.003356 1774080.000000 0 0 1
2.252470 3.177015 -31.336354 31.577430 0.954063 3.017946 0.019881 0.002029 1616090.000000 0 0 1
2.816070 4.361415 -30.738434 31.173763 0.997465 2.974277 0.022904 -0.001742 -456830.000000 0 0 1
3.820970 3.999415 -29.652304 30.163790 0.808212 2.957174 0.021080 -0.001150 -626320.000000 0 0 1
3.338870 3.231415 -28.607874 28.982763 0.769045 2.980578 0.019343 -0.006282 -560030.000000 0 0 1
4.321870 3.083315 -27.631164 28.136570 0.619677 2.951768 0.025682 -0.010015 -377618.000000 0 0 1
3.984570 2.206315 -26.391664 26.781795 0.505691 2.970698 0.016036 -0.014447 -162413.000000 0 0 1
3.957770 0.830315 -26.587934 26.893709 0.206795 2.990653 0.025814 -0.018193 -6.268840 0 0 1
3.336870 0.104515 -25.556384 25.773521 0.031311 3.011695 0.026166 -0.016992 -468107.000000 0 0 1
3.869570 -1.346085 -25.410074 25.738247 -0.334771 2.981733 0.029042 -0.018755 506178.000000 0 0 1
5.175570 -1.531185 -24.869814 25.448746 -0.287644 2.927884 0.036147 -0.024226 265880.000000 0 0 1
5.559170 -2.919385 -24.986314 25.763211 -0.483563 2.895389 0.046211 -0.025685 -324245.000000 0 0 1
6.954670 -3.206385 -24.406314 25.579611 -0.431997 2.837542 0.053931 -0.032818 31914.400000 0 0 1
7.903470 -2.773785 -25.319114 26.668638 -0.337528 2.822105 0.050553 -0.023565 -425491.000000 0 0 1
9.253870 -3.202685 -25.291244 27.120809 -0.333189 2.772182 0.034395 -0.018515 433757.000000 0 0 1
-29.177990 -4.789285 18.010067 34.621595 0.162690 1.023714 0.074020 -0.001569 683029.000000 0 0 1
-30.573650 -4.475485 17.898467 35.709007 0.145351 1.045775 0.070567 -0.002042 382269.000000 0 0 1
-31.274030 -5.240885 18.806467 36.867533 0.166037 1.035485 0.065798 -0.010830 -379909.000000 0 0 1
-32.690240 -4.777085 19.167367 38.195030 0.145105 1.045085 0.051184 -0.008552 -22600.900000 0 0 1
-33.624270 -4.935185 18.136667 38.521244 0.145734 1.080574 0.043051 -0.005623 -77905.800000 0 0 1
-34.971733 -4.851985 18.532467 39.875007 0.137860 1.087428 0.033886 -0.001431 143807.000000 0 0 1
-35.980504 -4.967985 17.354767 40.255006 0.137207 1.125062 0.034439 -0.004185 931329.000000 0 0 1
34.768591 -5.172185 17.802367 39.402166 -0.147677 1.102001 0.026938 0.007168 818608.000000 0 0 1
33.807781 -5.012885 16.753067 38.062585 -0.147204 1.115036 0.023377 0.003799 -13181.300000 0 0 1
32.414441 -5.447485 17.193167 37.094152 -0.166501 1.088854 0.020995 0.007242 -468438.000000 0 0 1
31.755601 -4.521885 18.042167 36.801976 -0.141446 1.058420 0.030409 0.004323 -26543.600000 0 0 1
30.570881 -5.050285 18.575667 36.126715 -0.163721 1.030744 0.046856 -0.000093 -140890.000000 0 0 1
30.000001 -4.337785 19.845867 36.230856 -0.143598 0.991110 0.050472 0.000302 18271.800000 0 0 1
29.114131 -3.254385 19.563067 35.226939 -0.111318 0.982020 0.061721 0.001342 276729.000000 0 0 1
29.730931 -2.045885 19.152967 35.425274 -0.068705 0.999577 0.057674 -0.001479 -229609.000000 0 0 1
28.806241 -0.837585 19.429567 34.756426 -0.029068 0.977592 0.066174 0.004849 -185497.000000 0 0 1
29.332501 0.423015 19.194767 35.057291 0.014420 0.991392 0.059970 0.002074 22077.900000 0 0 1
28.393801 1.457915 19.494867 34.472936 0.051301 0.969742 0.067700 -0.005338 363031.000000 0 0 1
28.647221 2.815915 18.714567 34.334060 0.097982 0.994320 0.064788 -0.006443 99823.400000 0 0 1
28.502291 2.660615 17.316167 33.456078 0.093078 1.026777 0.062847 -0.009823 42205.300000 0 0 1
28.411561 3.937315 16.758767 33.220107 0.137704 1.042021 0.059123 -0.009398 87365.000000 0 0 1
28.224411 3.924215 15.248767 32.319371 0.138151 1.079448 0.065431 -0.007310 -1626.880000 0 0 1
28.256141 5.217715 14.672867 32.263402 0.182601 1.098667 0.052857 -0.010006 62179.100000 0 0 1
27.763331 5.157615 13.368267 31.242825 0.183677 1.128647 0.076251 -0.009724 -20822.800000 0 0 1
27.040051 6.443315 12.855567 30.625909 0.233925 1.137614 0.068141 -0.001905 889910.000000 0 0 1
25.801851 6.659715 13.573767 29.905426 0.252597 1.099670 0.055449 -0.005294 1067590.000000 0 0 1
25.262851 7.951315 13.177667 29.581852 0.304927 1.109103 0.069619 -0.011069 251184.000000 0 0 1
23.977851 8.400915 13.952667 28.986025 0.336997 1.068593 0.067545 -0.014232 903081.000000 0 0 1
22.764151 7.717715 13.618367 27.626611 0.326868 1.055326 0.070272 -0.011164 925570.000000 0 0 1
22.523151 6.467815 14.183667 27.391630 0.279639 1.026507 0.074040 -0.014166 -1630930.000000 0 0 1
21.135851 5.966415 13.892767 25.987137 0.275130 1.006760 0.081919 -0.012518 -1240790.000000 0 0 1
20.894651 5.743415 12.565767 25.049387 0.268250 1.045303 0.087369 -0.013801 423470.000000 0 0 1
19.880551 4.776315 12.403767 23.914492 0.235782 1.025500 0.078712 -0.012228 -86659.500000 0 1 0
19.491451 4.502015 10.896067 22.779576 0.226993 1.072049 0.080300 -0.014602 -10439.000000 0 1 0
20.646251 4.015215 10.266467 23.404914 0.192079 1.116705 0.093168 -0.020901 454166.000000 0 1 0
20.396651 3.790415 8.924767 22.584112 0.183739 1.164534 0.102852 -0.022311 -224135.000000 0 1 0
21.538851 3.093915 8.177067 23.245620 0.142668 1.211337 0.102338 -0.018363 -1042540.000000 0 1 0
21.656951 1.751715 8.563867 23.354483 0.080709 1.195347 0.091495 -0.021067 1010140.000000 0 1 0
22.603551 1.019315 7.743567 23.914898 0.045065 1.241057 0.089123 -0.011511 206063.000000 0 1 0
24.113551 1.347615 7.760667 25.367447 0.055828 1.259881 0.087792 -0.007501 -394362.000000 0 0 1
24.789751 0.932615 8.953367 26.373553 0.037603 1.224429 0.078141 -0.002832 453329.000000 0 0 1
24.729051 1.772915 10.064367 26.757442 0.071571 1.185177 0.084893 -0.003199 -450043.000000 0 0 1
25.546451 1.279115 11.297267 27.962217 0.050028 1.154890 0.066566 -0.002494 545558.000000 0 0 1
26.956651 1.362015 11.116867 29.190767 0.050483 1.180097 0.079807 -0.003033 371314.000000 0 0 1
27.643601 0.498215 11.999967 30.139942 0.018021 1.161306 0.075207 -0.005340 141597.000000 0 0 1
29.178741 0.435915 11.822767 31.485978 0.014938 1.185868 0.076236 -0.002103 285336.000000 0 0 1
29.743661 1.706315 12.174567 32.184111 0.057305 1.182860 0.072050 0.004490 -403899.000000 0 0 1
31.128171 1.599815 12.345767 33.525221 0.051349 1.193667 0.070820 -0.004000 -454740.000000 0 0 1
31.795671 2.885815 12.795867 34.395157 0.090513 1.189606 0.050574 -0.005538 -395437.000000 0 0 1
31.865831 3.783015 11.708967 34.159074 0.118164 1.220924 0.051067 -0.012460 77622.000000 0 0 1
32.537211 4.958815 12.032567 35.043439 0.151241 1.220303 0.040526 -0.012226 -669723.000000 0 0 1
34.022121 5.093215 11.743167 36.350345 0.148600 1.241840 0.045285 -0.008021 -877101.000000 0 0 1
34.768121 4.114815 12.466667 37.164119 0.117802 1.228715 0.045145 -0.007872 -433746.000000 0 0 1
-35.980197 4.213015 12.127167 38.201993 -0.116562 1.247759 0.059470 -0.003150 -700773.000000 0 0 1
-35.139097 3.129215 12.855667 37.547521 -0.088818 1.221343 0.067694 0.001229 -695523.000000 0 0 1
-35.157110 1.766615 12.416867 37.327227 -0.050207 1.231685 0.064137 -0.002117 848825.000000 0 0 1
35.838011 0.925215 12.859567 38.086580 0.025811 1.226387 0.062347 -0.000319 740316.000000 0 0 1
35.513821 0.755115 14.403267 38.330873 0.021259 1.185578 0.059202 0.000924 -274295.000000 0 0 1
-35.751773 -0.134785 15.108367 38.813273 0.003770 1.170971 0.041146 0.002341 99615.100000 0 0 1
35.837231 -0.405985 16.406667 39.416376 -0.011328 1.141490 0.033127 0.001638 -412439.000000 0 0 1
-35.326024 -1.241285 17.271067 39.341562 0.035124 1.116308 0.033929 0.001227 -617863.000000 0 0 1
-34.131051 -0.565185 17.521167 38.369772 0.016558 1.096582 0.049072 0.004866 -457675.000000 0 0 1
-33.201300 -1.106185 18.448967 37.998873 0.033305 1.063846 0.046678 -0.001518 304599.000000 0 0 1
-33.605680 -0.941485 19.908567 39.071462 0.028008 1.036143 0.047759 -0.003460 -209864.000000 0 0 1
-34.541935 -1.859485 20.459567 40.189512 0.053781 1.036684 0.031433 -0.013308 181673.000000 0 0 1
-34.725795 -1.582085 21.797567 41.030693 0.045528 1.010721 0.029307 -0.004594 12131.600000 0 0 1
-35.129886 -2.923385 22.435367 41.785174 0.083025 1.004012 0.016008 -0.003301 588333.000000 0 0 1
-34.118957 -3.967185 22.300967 40.953326 0.115755 0.994949 0.033613 -0.011406 799782.000000 0 0 1
-34.439977 -5.194385 22.962867 41.717945 0.149696 0.987915 0.034706 -0.015748 -27713.400000 0 0 1
-34.509824 -5.210285 24.527957 42.657891 0.149848 0.958202 0.030111 -0.017749 -1032290.000000 0 0 1
-33.330490 -4.879985 25.123597 42.022981 0.145379 0.929975 0.044260 -0.020283 -1350250.000000 0 0 1
-33.430920 -4.918885 26.518917 42.954334 0.146088 0.905395 0.046566 -0.027152 101932.000000 0 0 1
-32.326220 -4.051485 27.160877 42.415944 0.124681 0.875848 0.049824 -0.023929 -1527.580000 0 0 1
-32.364800 -2.661085 26.874377 42.152032 0.082037 0.879472 0.040219 -0.013934 -73192.900000 0 0 1
-31.838560 -2.241285 25.625127 40.931215 0.070279 0.894315 0.039077 -0.012708 -367692.000000 0 0 1
-31.926590 -0.750785 25.395467 40.801968 0.023512 0.898981 0.046240 -0.006821 471077.000000 0 0 1
-33.171040 -0.089685 25.115327 41.606557 0.002704 0.922739 0.035173 -0.014608 373719.000000 0 0 1
-32.954530 1.266215 24.758587 41.238234 -0.038404 0.926821 0.039738 -0.010142 -725299.000000 0 0 1
-34.234758 1.985515 24.410187 42.092970 -0.057932 0.952177 0.038775 -0.004339 -624518.000000 0 0 1
-34.766958 1.408015 23.187767 41.813830 -0.040477 0.982977 0.038206 0.002500 656266.000000 0 0 1
-35.902198 2.214015 22.751267 42.561600 -0.061590 1.006822 0.026939 0.010474 884943.000000 0 0 1
-35.607062 3.573115 22.059367 42.038621 -0.100014 1.018386 0.036750 0.006330 -14527.200000 0 0 1
-34.946265 3.487015 20.788567 40.811337 -0.099453 1.036330 0.040254 0.003855 538592.000000 0 0 1
-35.896085 3.272015 19.752867 41.102442 -0.090901 1.069484 0.033133 -0.000309 319018.000000 0 0 1
-35.147914 2.534415 18.633267 39.862235 -0.071983 1.084402 0.045833 -0.004439 107124.000000 0 0 1
-34.257199 3.382715 17.926167 38.811672 -0.098426 1.090688 0.076572 -0.008614 -26277.100000 0 0 1
-33.688130 2.738215 16.847267 37.765306 -0.081103 1.108389 0.079836 -0.001743 2031.700000 0 0 1
-32.676200 3.642015 16.042367 36.583546 -0.111000 1.116853 0.078898 -0.002849 615354.000000 0 0 1
-33.323550 4.597615 15.231167 36.926759 -0.137103 1.145633 0.074956 -0.001210 710259.000000 0 0 1
-32.305040 5.307215 14.519667 35.813445 -0.162830 1.153353 0.093577 -0.005422 533211.000000 0 0 1
-32.983350 6.457515 13.745267 36.311613 -0.193336 1.182582 0.092086 -0.009710 -337366.000000 0 0 1
-32.035560 7.209415 13.087667 35.348830 -0.221356 1.191525 0.117175 -0.012076 -303862.000000 0 0 1
-32.339290 8.561215 12.961267 35.876434 -0.258794 1.201161 0.092312 -0.013532 -823488.000000 0 0 1
-31.321090 9.310215 12.173167 34.869425 -0.288933 1.214178 0.099738 -0.013349 -477490.000000 0 0 1
-31.795270 10.621415 11.833467 35.549748 -0.322401 1.231450 0.078805 -0.002935 445780.000000 0 0 1
-30.827840 11.363215 11.091867 34.677196 -0.353150 1.245214 0.065196 -0.013784 166726.000000 0 0 1
-31.401230 12.778915 10.700467 35.550498 -0.386488 1.265062 0.052086 0.002140 597585.000000 0 0 1
-30.634570 13.480215 9.676967 34.840160 -0.414534 1.289342 0.047813 0.001855 445181.000000 0 0 1
-30.829600 14.902915 9.757767 35.605830 -0.450277 1.293195 0.043643 0.003009 -331068.000000 0 0 1
-30.081880 15.583315 8.637767 34.962412 -0.477967 1.321153 0.053140 -0.004820 -638962.000000 0 0 1
-28.696720 15.381415 8.761567 33.717277 -0.492030 1.307925 0.055624 -0.000142 -616510.000000 0 0 1
-27.984980 16.301915 8.025867 33.366542 -0.527470 1.327878 0.051875 -0.021070 -794868.000000 0 0 1
-26.563150 16.404315 8.588067 32.379892 -0.553231 1.302356 0.063630 -0.017825 -554836.000000 0 0 1
-26.327660 17.012315 9.846767 32.856101 -0.573683 1.266425 0.052777 -0.019990 221475.000000 0 0 1
-26.576350 18.417015 9.848067 33.800492 -0.606002 1.275149 0.056806 -0.029258 -322558.000000 0 0 1
-26.423020 19.029815 11.216667 34.440143 -0.624154 1.239059 0.076318 -0.015232 1549570.000000 0 0 1
-25.037170 19.059815 11.714967 33.576434 -0.650669 1.214394 0.059426 -0.005399 1806440.000000 0 0 1
-24.850630 19.485115 13.074867 34.178585 -0.664964 1.178246 0.074323 -0.016728 143348.000000 0 0 1
-25.600980 18.684415 14.207067 34.732669 -0.630468 1.149394 0.071023 -0.009249 18996.000000 0 0 1
-24.971230 17.473515 14.427067 33.719821 -0.610555 1.128682 0.072507 -0.012445 122931.000000 0 0 1
-25.501420 16.823415 15.573067 34.290963 -0.583168 1.099384 0.068708 -0.014381 253246.000000 0 0 1
-24.503630 15.722115 16.113667 33.275562 -0.570464 1.065291 0.073264 -0.017261 39413.600000 0 0 1
-23.376830 16.239515 16.765367 33.034460 -0.607149 1.038502 0.070605 -0.018224 -372903.000000 0 0 1
-22.323530 15.308015 16.874367 31.897015 -0.601088 1.013343 0.042657 -0.030851 -82135.400000 0 0 1
-22.467130 14.178115 17.858167 32.011014 -0.562945 0.978972 0.057790 -0.011296 -675201.000000 0 0 1
-22.376130 14.573115 19.161167 32.866658 -0.577274 0.948384 0.065022 -0.008904 177626.000000 0 0 1
-22.778230 13.533015 20.057367 33.230833 -0.536085 0.922816 0.057240 -0.005833 -449920.000000 0 0 1
-22.470630 13.873015 21.547067 34.083220 -0.553104 0.886420 0.063145 -0.008009 341017.000000 0 0 1
-21.086730 13.863015 21.866667 33.391384 -0.581580 0.856800 0.060303 -0.007396 501508.000000 0 0 1
-20.424930 15.100515 21.596467 33.340827 -0.636629 0.866171 0.059190 0.006519 345017.000000 0 0 1
-18.899530 15.148515 22.012667 32.729608 -0.675672 0.833132 0.063139 -0.009913 833172.000000 0 0 1
-18.145130 14.509215 21.028167 31.336032 -0.674509 0.835167 0.044369 -0.011446 -230558.000000 0 0 1
-17.536230 15.459215 20.132367 30.851562 -0.722533 0.859844 0.037575 -0.019278 -906976.000000 0 0 1
-16.298530 14.824015 19.394867 29.352247 -0.738056 0.848962 0.044699 -0.017627 1287280.000000 0 0 1
-15.105930 14.532815 20.139267 29.068573 -0.766064 0.805405 0.043210 -0.013269 765623.000000 0 0 1
-14.590330 15.617015 20.908267 29.898571 -0.819373 0.796369 0.032786 -0.013910 -1133550.000000 0 0 1
-13.361730 15.219015 21.773967 29.736508 -0.850291 0.749206 0.006597 -0.006475 13729.300000 0 0 1
-12.219930 14.905715 21.030067 28.526667 -0.884089 0.741869 0.020805 -0.009309 66513.200000 0 0 1
-11.115030 14.520515 21.845467 28.488834 -0.917467 0.696943 0.011749 -0.001124 548963.000000 0 0 1
-9.930630 13.783115 21.194867 27.162733 -0.946449 0.675664 0.024765 -0.001713 -1337420.000000 0 0 1
-9.528730 12.687215 22.000667 27.125476 -0.926624 0.624817 0.027891 -0.001711 805782.000000 0 0 1
-8.367530 11.999515 21.469067 25.979314 -0.961870 0.598129 0.038054 -0.007434 866325.000000 0 0 1
-7.036030 12.729315 21.735067 26.152520 -1.065850 0.589734 0.035973 -0.002158 -898029.000000 0 0 1
-6.864930 13.813115 20.888167 25.966227 -1.109563 0.636071 0.028570 0.001955 -831997.000000 0 0 1
-6.247030 14.854815 21.522867 26.887260 -1.172710 0.642691 0.021915 0.015061 -371884.000000 0 0 1
-7.158030 15.847915 22.391467 28.350866 -1.146554 0.660316 0.022915 -0.002934 765961.000000 0 0 1
-8.177630 16.512915 21.625167 28.411228 -1.110975 0.705714 -0.007772 -0.001640 52977.100000 0 0 1
-7.684830 17.507315 20.722967 28.195816 -1.157170 0.745180 -0.002875 0.005413 -337504.000000 0 0 1
-8.689530 17.788415 19.519167 27.801682 -1.116396 0.792474 0.008238 0.004202 703350.000000 0 0 1
-9.890330 18.463115 19.670467 28.733822 -1.079013 0.816775 -0.000500 -0.005464 -471427.000000 0 0 1
-10.815030 17.827515 20.543967 29.271825 -1.025503 0.792827 0.004679 -0.007105 -507204.000000 0 0 1
-12.156730 18.579415 20.757167 30.394749 -0.991396 0.819044 0.006486 -0.010356 579677.000000 0 0 1
-13.030430 18.495915 19.618567 29.946271 -0.957055 0.856448 0.020062 -0.008023 -93304.900000 0 0 1
-14.217830 19.193515 19.849767 31.057221 -0.933234 0.877423 0.006048 -0.012122 -518371.000000 0 0 1
-15.042230 19.462715 18.604667 30.841524 -0.912816 0.923246 0.030859 -0.013596 -570566.000000 0 0 1
-15.887430 18.403215 18.283967 30.420260 -0.858633 0.925987 0.046441 -0.017888 -423394.000000 0 0 1
-16.608230 18.689015 17.139667 30.313046 -0.844280 0.969851 0.046802 -0.021218 -1205170.000000 0 0 1
-17.358930 17.499615 16.572367 29.702059 -0.789434 0.978879 0.046410 -0.027565 823481.000000 0 0 1
-18.447030 16.964115 17.365367 30.489836 -0.743546 0.964843 0.050564 -0.028446 799216.000000 0 0 1
-19.594730 17.780815 17.489567 31.717437 -0.736904 0.986733 0.059274 -0.024807 -575220.000000 0 0 1
33.983611 -9.287685 11.597986 37.089894 -0.266784 1.252763 0.034745 -0.011803 132727.000000 0 0 1
32.629161 -9.671185 11.421886 35.897820 -0.288148 1.246990 0.029357 -0.009673 341594.000000 0 0 1
32.435811 -10.901585 12.023386 36.269660 -0.324236 1.232903 0.041167 -0.010529 -308400.000000 0 0 1
30.992631 -11.452385 12.031686 35.163359 -0.353957 1.221576 0.046567 -0.006602 -410303.000000 0 0 1
30.277711 -10.871885 13.061686 34.720964 -0.344734 1.185115 0.045138 -0.002606 592673.000000 0 0 1
28.851701 -11.050585 13.002186 33.520038 -0.365777 1.172452 0.050516 -0.015045 1058100.000000 0 0 1
28.365401 -11.940185 14.191886 33.890613 -0.398428 1.138722 0.036214 -0.005661 -657477.000000 0 0 1
28.347671 -11.324085 15.497286 34.234358 -0.380051 1.101025 0.044851 -0.007399 464029.000000 0 0 1
27.370681 -11.910785 16.383986 34.050786 -0.410450 1.068815 0.048918 -0.013501 1056000.000000 0 0 1
25.910951 -11.392885 16.185786 32.606056 -0.414250 1.051345 0.048193 -0.026445 126430.000000 0 0 1
25.850751 -10.004085 16.377886 32.195935 -0.369244 1.037129 0.037998 -0.009273 -106749.000000 0 0 1
25.170151 -9.241485 15.384686 30.913268 -0.351880 1.049883 0.059043 -0.013350 279040.000000 0 0 1
24.892851 -7.833385 15.740886 30.476080 -0.304873 1.028038 0.086366 -0.030813 -255023.000000 0 0 1
26.075051 -7.092785 15.786286 31.295730 -0.265588 1.042083 0.066181 -0.021615 -93829.800000 0 0 1
25.835951 -5.719585 16.236486 31.045668 -0.217867 1.020444 0.070817 -0.013294 -438604.000000 0 0 1
27.141561 -4.969185 16.103686 31.948175 -0.181079 1.042507 0.072207 -0.009419 -558912.000000 0 0 1
27.453841 -4.744785 14.765886 31.531854 -0.171137 1.083448 0.087233 -0.011187 -192545.000000 0 0 1
28.603091 -3.960285 14.659586 32.384011 -0.137582 1.101028 0.078130 -0.009444 -405253.000000 0 0 1
28.807461 -3.477885 13.195086 31.875944 -0.120147 1.144006 0.078545 -0.013131 -79082.400000 0 0 1
29.325041 -4.407985 12.262086 32.089673 -0.149198 1.178708 0.062367 -0.015867 405433.000000 0 0 1
29.210241 -3.772385 11.023486 31.448153 -0.128435 1.212661 0.070222 -0.014593 -188125.000000 0 0 1
29.763001 -4.643785 9.939286 31.720504 -0.154778 1.252089 0.070431 -0.013283 66354.900000 0 0 1
31.156971 -4.915785 9.945786 33.073259 -0.156485 1.265349 0.071521 -0.013370 447569.000000 0 0 1
31.564141 -5.736785 8.896786 33.292019 -0.179788 1.300274 0.076364 -0.023310 243795.000000 0 0 1
33.023651 -6.256185 8.811586 34.746877 -0.187227 1.314403 0.065687 -0.025314 1250460.000000 0 0 1
34.097651 -5.315885 8.484986 35.537353 -0.154657 1.329705 0.075554 -0.021028 112326.000000 0 0 1
35.267121 -6.019685 8.308486 36.729244 -0.169059 1.342612 0.075310 -0.029956 -1370190.000000 0 0 1
-35.668868 -5.126985 7.940986 36.900046 0.142761 1.353897 0.073198 -0.030179 -541838.000000 0 0 1
-35.707462 -4.624185 6.601986 36.605903 0.128785 1.389451 0.082957 -0.037461 266716.000000 0 0 1
-34.476976 -3.979085 6.312886 35.275310 0.114904 1.390867 0.075908 -0.012785 122328.000000 0 0 1
-34.361845 -3.080985 5.073886 34.870807 0.089424 1.424773 0.094834 -0.033113 -273838.000000 0 0 1
-33.931990 -3.752585 3.880886 34.358742 0.110144 1.457603 0.088997 -0.038913 213725.000000 0 0 1
-34.170925 -3.020985 2.672886 34.408179 0.088179 1.493036 0.085313 -0.033629 -174956.000000 0 0 1
-33.499250 -3.660685 1.468386 33.730647 0.108845 1.527250 0.092231 -0.041579 -41184.800000 0 0 1
-34.059119 -4.921385 1.052186 34.428923 0.143502 1.540230 0.091917 -0.038671 589819.000000 0 0 1
-35.131832 -4.771885 0.103286 35.454579 0.135002 1.567883 0.091590 -0.034411 -16636.500000 0 0 1
-34.710773 -4.899485 -1.365014 35.081419 0.140225 1.609716 0.106597 -0.030720 -1472580.000000 0 0 1
-34.361785 -6.249785 -1.685214 34.966155 0.179915 1.619011 0.095050 -0.037452 195043.000000 0 0 1
-33.301610 -6.415285 -2.587414 34.012466 0.190311 1.646942 0.082464 -0.034728 -714565.000000 0 0 1
-31.941010 -5.917885 -2.120114 32.553715 0.183198 1.635969 0.075164 -0.041496 -1569790.000000 0 0 1
-31.356870 -6.815685 -1.178714 32.110687 0.214029 1.607512 0.072846 -0.038039 -215997.000000 0 0 1
-30.254100 -6.171685 -0.580914 30.882644 0.201234 1.589608 0.073652 -0.045799 -216970.000000 0 0 1
-29.518450 -7.159085 0.372286 30.376471 0.237935 1.558540 0.056759 -0.034911 -269877.000000 0 0 1
-28.933320 -8.270385 -0.265214 30.093298 0.278419 1.579609 0.061201 -0.021176 462511.000000 0 0 1
-28.621090 -9.299785 0.627986 30.100617 0.314166 1.549932 0.070321 -0.017784 -302882.000000 0 0 1
-28.318060 -10.606285 -0.111014 30.239347 0.358369 1.574467 0.059674 -0.020556 374759.000000 0 0 1
-27.102740 -10.518285 -0.885614 29.085686 0.370197 1.601249 0.051039 -0.023418 982114.000000 0 0 1
-26.556510 -11.760485 -1.336314 29.074782 0.416890 1.616774 0.042611 -0.014312 2369.120000 0 0 1
-27.299760 -12.644785 -2.418014 30.183013 0.433763 1.650994 0.043125 -0.016232 -273546.000000 0 0 1
-28.375640 -13.365285 -1.841414 31.419717 0.440190 1.629437 0.057262 -0.024346 431359.000000 0 0 1
-28.668760 -14.495085 -2.673614 32.235904 0.468122 1.653831 0.044774 -0.029466 -68076.300000 0 0 1
-29.728250 -15.450985 -2.038814 33.565735 0.479315 1.631575 0.060635 -0.030606 358469.000000 0 0 1
-29.200580 -16.135585 -0.882714 33.373794 0.504820 1.597249 0.035945 -0.021190 305421.000000 0 0 1
-30.157610 -16.953985 -0.260914 34.597502 0.512146 1.578338 0.042772 -0.009134 -145357.000000 0 0 1
-30.299010 -18.433485 -0.663614 35.472014 0.546563 1.589506 0.037789 -0.003372 565133.000000 0 0 1
-29.155200 -19.164285 -0.156614 34.890114 0.581504 1.575285 0.047892 -0.016879 991572.000000 0 0 1
-29.326950 -20.603185 -0.196714 35.841316 0.612425 1.576285 0.050841 -0.017656 -271522.000000 0 0 1
-30.130440 -21.296385 0.909286 36.908078 0.615279 1.546157 0.051431 -0.013453 -862675.000000 0 0 1
-29.540260 -21.344485 2.205086 36.511319 0.625704 1.510365 0.048724 -0.012355 120555.000000 0 0 1
-30.443790 -21.815585 3.203086 37.589943 0.621771 1.485482 0.050124 -0.009661 -75403.600000 0 0 1
-29.831590 -21.934385 4.573986 37.309012 0.634009 1.447890 0.031996 0.000017 -201150.000000 0 0 1
-29.361060 -20.701485 5.079086 36.282509 0.614118 1.430348 0.023454 -0.001757 59128.000000 0 0 1
-28.835200 -20.788485 6.371086 36.113995 0.624643 1.393452 0.012343 0.000476 37531.200000 0 0 1
-28.236880 -19.514185 7.022586 35.034861 0.604720 1.368984 0.017384 0.008789 -2594.720000 0 0 1
-27.806880 -19.819185 8.310486 35.143802 0.619228 1.332064 -0.004748 0.001246 -261049.000000 0 0 1
-27.282570 -18.679485 8.938586 34.251425 0.600361 1.306770 0.009331 -0.003359 365117.000000 0 0 1
-25.988120 -18.996585 9.751686 33.635517 0.631211 1.276651 0.010518 -0.001243 204804.000000 0 0 1
-26.293300 -19.836385 10.814686 34.666659 0.646329 1.253539 0.008624 -0.003998 -168251.000000 0 0 1
-25.138560 -20.217385 11.525386 34.256742 0.677320 1.227661 0.020151 -0.004634 -69872.800000 0 0 1
-24.646430 -19.222985 12.644386 33.717209 0.662395 1.186386 0.014754 -0.003250 -269806.000000 0 0 1
-24.056530 -18.068785 12.049786 32.409797 0.644203 1.189855 0.011795 0.000941 -21695.400000 0 0 1
-23.797330 -17.017385 12.935886 31.988146 0.620786 1.154478 0.016723 0.003804 325736.000000 0 0 1
-22.967530 -17.152385 14.250386 32.012267 0.641456 1.109450 0.032707 -0.003298 -283362.000000 0 0 1
-23.686530 -17.812285 15.287686 33.347302 0.644780 1.094559 0.025202 -0.006260 -211747.000000 0 0 1
-22.951730 -18.213285 16.426786 33.590846 0.670794 1.059824 0.037806 -0.001623 84541.800000 0 0 1
-23.918330 -18.900785 17.460286 35.131009 0.668750 1.050652 0.035621 0.003351 267846.000000 0 0 1
-24.629430 -17.999085 18.238186 35.541628 0.631097 1.031945 0.039381 0.009158 -253673.000000 0 0 1
-25.454130 -18.667885 19.190686 36.941645 0.632788 1.024546 0.026167 0.011454 596917.000000 0 0 1
-26.577600 -17.762285 19.817586 37.611226 0.589145 1.015840 0.029988 0.012217 141425.000000 0 0 1
-26.056680 -16.891485 20.742586 37.343376 0.575151 0.981886 0.044862 0.008034 -208011.000000 0 0 1
-26.857070 -15.744785 20.949686 37.524523 0.530243 0.978469 0.052736 -0.003599 -30662.300000 0 0 1
-26.305030 -14.911885 22.136486 37.474564 0.515713 0.938862 0.051348 -0.000557 389752.000000 0 0 1
-25.188010 -14.132385 21.713786 36.133761 0.511307 0.926135 0.047135 -0.002782 78606.200000 0 0 1
-24.556630 -13.476985 22.810586 36.124508 0.501931 0.887383 0.037860 -0.001025 605171.000000 0 0 1
-23.266130 -12.735785 22.299786 34.652467 0.500842 0.871699 0.039921 0.003946 455331.000000 0 0 1
-23.592230 -11.628885 21.478686 33.958184 0.457961 0.886015 0.054409 0.000627 -77886.500000 0 0 1
-22.440130 -11.036785 20.965686 32.633266 0.457092 0.873087 0.057661 -0.000113 -590449.000000 0 0 1
-22.135930 -9.718485 21.726586 32.503737 0.413699 0.838696 0.063473 -0.008114 -83146.100000 0 0 1
-21.701230 -9.731285 23.106386 33.159409 0.421540 0.799832 0.054623 -0.009356 574182.000000 0 0 1
-20.279030 -9.846085 23.141786 32.306760 0.452005 0.772291 0.025327 -0.000027 298220.000000 0 0 1
-19.638630 -9.941085 24.527186 32.955786 0.468596 0.731392 0.022431 -0.001511 64536.200000 0 0 1
-19.576830 -11.247785 24.991486 33.679954 0.521493 0.734705 0.030036 0.002269 44656.400000 0 0 1
-18.871530 -11.310485 26.223286 34.230432 0.539935 0.698075 0.029054 0.002774 -903510.000000 0 0 1
-19.036430 -12.628085 27.078286 35.427218 0.585713 0.700786 0.038589 -0.014804 103679.000000 0 0 1
-20.231430 -12.791485 27.820786 36.700531 0.563802 0.710480 0.034831 -0.009707 53740.200000 0 0 1
-21.449930 -12.857985 27.074386 36.857152 0.540009 0.745754 0.020009 -0.002766 -4143.390000 0 0 1
-22.615230 -13.030585 28.061286 38.323368 0.522725 0.749215 0.007851 -0.005099 -600499.000000 0 0 1
-22.616930 -14.282685 28.707486 39.238252 0.563263 0.750101 0.014401 -0.004544 -81331.000000 0 0 1
-21.776830 -14.417785 29.854186 39.665795 0.584814 0.718729 0.014920 -0.001099 -17992.100000 0 0 1
-22.297330 -15.414485 30.869786 41.081881 0.604873 0.720583 0.008783 -0.002757 -577362.000000 0 0 1
-22.157930 -16.756485 30.455686 41.222597 0.647476 0.739493 0.013181 -0.002703 -116855.000000 0 0 1
-22.202730 -17.732585 31.479286 42.406972 0.673928 0.734279 0.023220 -0.009089 -22571.400000 0 0 1
-23.643730 -18.003285 31.964686 43.644993 0.650783 0.748987 0.047120 -0.015985 -200357.000000 0 0 1
-24.094830 -17.174085 32.989986 44.315338 0.619245 0.731105 0.058269 -0.010495 -77239.400000 0 0 1
-25.459760 -17.420985 33.277086 45.376807 0.600081 0.747560 0.067319 -0.020512 20880.000000 0 0 1
-26.181050 -16.370685 34.114886 46.013826 0.558806 0.735634 0.068269 -0.018642 21241.500000 0 0 1
-25.673050 -16.238185 -33.022694 44.869616 0.563974 2.397895 0.083851 -0.022091 -14113.100000 0 0 1
-26.216560 -15.076585 -32.493994 44.389988 0.521893 2.392066 0.079010 -0.020361 64128.900000 0 0 1
-25.677960 -14.692385 -31.058594 42.893590 0.519711 2.380503 0.068529 -0.012292 143277.000000 0 0 1
-26.376030 -15.417485 -30.104694 42.891566 0.528964 2.348829 0.064915 -0.002355 166614.000000 0 0 1
-25.693720 -15.176985 -28.905994 41.545934 0.533545 2.340274 0.066686 0.001938 17893.500000 0 0 1
-26.369910 -16.026685 -27.756994 41.505150 0.546109 2.303336 0.055858 0.002341 103286.000000 0 0 1
-27.571960 -15.523685 -27.238994 41.751174 0.512788 2.281560 0.056929 -0.002004 -257756.000000 0 0 1
-27.529560 -14.223885 -26.626794 40.855621 0.476900 2.280658 0.033900 0.002038 -695630.000000 0 0 1
-26.771560 -14.015785 -25.272894 39.393880 0.482296 2.267305 0.041480 0.003598 -603863.000000 0 0 1
-25.404350 -13.792485 -25.437694 38.505713 0.497390 2.292442 0.045631 0.003161 -59764.300000 0 0 1
-24.567030 -14.074985 -24.313394 37.320039 0.520271 2.280335 0.033679 0.002857 118045.000000 0 0 1
-24.019630 -15.499185 -24.342894 37.546556 0.573044 2.276197 0.041760 0.004737 -748757.000000 0 0 1
-23.079030 -15.648085 -25.386694 37.709262 0.595823 2.309353 0.073753 0.008575 139597.000000 0 0 1
-22.736230 -17.014185 -25.441894 38.127531 0.642431 2.301353 0.081138 0.003027 382229.000000 0 0 1
-21.711630 -17.499985 -26.548894 38.503092 0.678400 2.331631 0.078756 0.004491 536351.000000 0 0 1
-22.169230 -17.409385 -27.894094 39.656549 0.665710 2.350955 0.086871 -0.001963 243397.000000 0 0 1
-23.092330 -18.437785 -28.230694 40.867832 0.673788 2.333364 0.087418 -0.003362 -19823.600000 0 0 1
-23.611530 -18.397485 -29.681194 42.153826 0.661912 2.351974 0.076277 -0.006911 -178896.000000 0 0 1
-22.757430 -18.898885 -30.672794 42.613246 0.693034 2.374303 0.085886 -0.009598 382826.000000 0 0 1
-23.354830 -18.695385 -31.955194 43.773279 0.675042 2.389142 0.071778 -0.012782 924194.000000 0 0 1
-22.273030 -19.154885 -33.015394 44.192915 0.710273 2.414446 0.070445 -0.017723 1296760.000000 0 0 1
-21.024330 -18.441785 -33.109794 43.340285 0.720054 2.440208 0.061183 -0.013186 1533060.000000 0 0 1
-19.859530 -19.196985 -32.727094 42.825084 0.768436 2.440602 0.047578 -0.018300 715222.000000 0 0 1
-19.360130 -20.281585 -33.702094 43.840489 0.808639 2.447671 0.038444 -0.015375 -844497.000000 0 0 1
-19.198830 -19.772885 33.468586 43.355603 0.800127 0.688885 0.040035 -0.016958 100665.000000 0 0 1
-19.098630 -20.820185 32.498486 43.062622 0.828498 0.715631 0.033496 -0.018902 779439.000000 0 0 1
-20.501830 -21.321885 31.944686 43.536316 0.805003 0.746974 0.035800 -0.012346 1068830.000000 0 0 1
-21.178830 -22.205385 32.832986 44.940260 0.809056 0.751608 0.039976 -0.014719 -158985.000000 0 0 1
-22.342830 -22.730085 32.218986 45.320215 0.793990 0.779993 0.049169 -0.008545 10452.300000 0 0 1
-22.107630 -24.038385 31.453686 45.342316 0.827214 0.804191 0.042859 0.000804 -405726.000000 0 0 1
-21.891930 -25.133325 32.284086 46.402617 0.854218 0.801349 0.045874 0.005863 -58425.900000 0 0 1
-21.983030 -26.301095 31.501086 46.554480 0.874591 0.827593 0.047117 0.015327 36214.100000 0 0 1
-21.455130 -27.553355 32.269786 47.548387 0.909194 0.824843 0.053036 0.001723 -124889.000000 0 0 1
-22.295930 -27.970735 33.287286 48.862193 0.897816 0.821330 0.039116 -0.003961 -24614.800000 0 0 1
-21.684430 -29.026235 34.017286 49.698215 0.929177 0.816910 0.042131 -0.016091 -727200.000000 0 0 1
-22.772430 -29.659915 -33.629294 50.291386 0.916010 2.303240 0.039528 -0.017711 -1171610.000000 0 0 1
-23.714530 -30.426035 34.153786 51.522846 0.908733 0.846129 0.031538 -0.010780 668723.000000 0 0 1
-24.872230 -29.727115 33.655986 51.332783 0.874083 0.855762 0.028374 -0.009769 73386.900000 0 0 1
-25.902120 -29.205185 -33.785894 51.627021 0.845265 2.284215 0.015119 -0.006678 -920783.000000 0 0 1
-27.038440 -28.724065 33.998986 52.077636 0.815618 0.859453 0.018749 -0.004343 -430171.000000 0 0 1
-27.929650 -28.241285 -33.510294 51.967060 0.790946 2.271607 0.014762 -0.000213 -239804.000000 0 0 1
-28.888920 -27.120215 -34.019794 52.224727 0.753830 2.280240 0.003675 -0.007063 -109357.000000 0 0 1
-29.759130 -27.726525 33.558386 52.730743 0.750054 0.880961 0.005762 -0.006780 214703.000000 0 0 1
-30.876440 -26.868265 33.194686 52.698628 0.716097 0.889376 0.001782 -0.006510 523977.000000 0 0 1
